     Program PWSCF v.7.0 starts on  4Mar2023 at 19:51:13

     R & G space division:  proc/nbgrp/npool/nimage =      32

     Reading input from espresso_7453.pwi
Warning: card &CELL ignored
Warning: card / ignored

     Current dimensions of program PWSCF are:
     Max number of different atomic species (ntypx) = 10
     Max number of k-points (npk) =  40000
     Max angular momentum in pseudopotentials (lmaxx) =  4
     file In.pbe-dn-rrkjus_psl.0.2.2.UPF: wavefunction(s)  5S renormalized

     gamma-point specific algorithms are used
     Message from routine setup:
     using ibrav=0 with symmetry is DISCOURAGED, use correct ibrav instead

     Using Slab Decomposition

     bravais-lattice index     =            0
     lattice parameter (alat)  =       7.6681  a.u.
     unit-cell volume          =     789.0133 (a.u.)^3
     number of atoms/cell      =            7
     number of atomic types    =            3
     number of electrons       =       108.00
     number of Kohn-Sham states=           65
     kinetic-energy cutoff     =      30.0000  Ry
     charge density cutoff     =     240.0000  Ry
     scf convergence threshold =      1.0E-06
     mixing beta               =       0.7000
     number of iterations used =            8  plain     mixing
     Exchange-correlation= PBE
                           (   1   4   3   4   0   0   0)

     celldm(1)=   7.668150  celldm(2)=   0.000000  celldm(3)=   0.000000
     celldm(4)=   0.000000  celldm(5)=   0.000000  celldm(6)=   0.000000

     crystal axes: (cart. coord. in units of alat)
               a(1) = (   1.000000   0.000000   0.000000 )
               a(2) = (   0.000000   1.000000   0.000000 )
               a(3) = (   0.000000   0.000000   1.749897 )

     reciprocal axes: (cart. coord. in units 2 pi/alat)
               b(1) = (  1.000000  0.000000  0.000000 )
               b(2) = (  0.000000  1.000000  0.000000 )
               b(3) = (  0.000000  0.000000  0.571462 )

     PseudoPot. # 1 for In read from file:
     /home/pragov/projects/rrg-bengioy-ad/pragov/crystal_structure_design/SSSP/In.pbe-dn-rrkjus_psl.0.2.2.UPF
     MD5 check sum: 25e7c42c3b55b68f4bf926be2e7201a4
     Pseudo is Ultrasoft + core correction, Zval = 13.0
     Generated using "atomic" code by A. Dal Corso  v.5.0.99 svn rev. 10869
     Using radial grid of 1241 points,  6 beta functions with:
                l(1) =   0
                l(2) =   0
                l(3) =   1
                l(4) =   1
                l(5) =   2
                l(6) =   2
     Q(r) pseudized with 0 coefficients

     PseudoPot. # 2 for As read from file:
     /home/pragov/projects/rrg-bengioy-ad/pragov/crystal_structure_design/SSSP/As.pbe-n-rrkjus_psl.0.2.UPF
     MD5 check sum: 767315de957beeeb34f87d97bf945c8f
     Pseudo is Ultrasoft + core correction, Zval =  5.0
     Generated using "atomic" code by A. Dal Corso  v.5.0.99 svn rev. 10869
     Using radial grid of 1209 points,  4 beta functions with:
                l(1) =   0
                l(2) =   0
                l(3) =   1
                l(4) =   1
     Q(r) pseudized with 0 coefficients

     PseudoPot. # 3 for Pd read from file:
     /home/pragov/projects/rrg-bengioy-ad/pragov/crystal_structure_design/SSSP/Pd_ONCV_PBE-1.0.oncvpsp.upf
     MD5 check sum: eb77f42b51d86fb18e25f68156a31cf1
     Pseudo is Norm-conserving, Zval = 18.0
     Generated using ONCVPSP code by D. R. Hamann
     Using radial grid of 1410 points,  6 beta functions with:
                l(1) =   0
                l(2) =   0
                l(3) =   1
                l(4) =   1
                l(5) =   2
                l(6) =   2

     atomic species   valence    mass     pseudopotential
        In            13.00   114.81800     In( 1.00)
        As             5.00    74.92159     As( 1.00)
        Pd            18.00   106.42000     Pd( 1.00)

     16 Sym. Ops., with inversion, found

                                    s                        frac. trans.

      isym =  1     identity

 cryst.   s( 1) = (     1          0          0      )
                  (     0          1          0      )
                  (     0          0          1      )

 cart.    s( 1) = (  1.0000000  0.0000000  0.0000000 )
                  (  0.0000000  1.0000000  0.0000000 )
                  (  0.0000000  0.0000000  1.0000000 )

      isym =  2     180 deg rotation - cart. axis [0,0,1]

[...]

      isym =  8      90 deg rotation - cart. axis [0,0,1]

[...]

      isym =  9     inversion

 cryst.   s( 9) = (    -1          0          0      )
                  (     0         -1          0      )
                  (     0          0         -1      )

 cart.    s( 9) = ( -1.0000000  0.0000000  0.0000000 )
                  (  0.0000000 -1.0000000  0.0000000 )
                  (  0.0000000  0.0000000 -1.0000000 )

      isym = 10     inv. 180 deg rotation - cart. axis [0,0,1]

 cryst.   s(10) = (     1          0          0      )
                  (     0          1          0      )
                  (     0          0         -1      )

 cart.    s(10) = (  1.0000000  0.0000000  0.0000000 )
                  (  0.0000000  1.0000000  0.0000000 )
                  (  0.0000000  0.0000000 -1.0000000 )

[...]

      isym = 16     inv.  90 deg rotation - cart. axis [0,0,1]

 cryst.   s(16) = (     0         -1          0      )
                  (     1          0          0      )
                  (     0          0         -1      )

 cart.    s(16) = (  0.0000000  1.0000000  0.0000000 )
                  ( -1.0000000  0.0000000  0.0000000 )
                  (  0.0000000  0.0000000 -1.0000000 )

   Cartesian axes

     site n.     atom                  positions (alat units)
         1           In  tau(   1) = (   0.5000000   0.5000000   0.0000000  )
         2           As  tau(   2) = (   0.0000000   0.0000000   0.8749487  )
         3           Pd  tau(   3) = (   0.0000000   0.0000000   0.0000000  )
         4           Pd  tau(   4) = (   0.5000000   0.0000000   1.2446670  )
         5           Pd  tau(   5) = (   0.0000000   0.5000000   1.2446670  )
         6           Pd  tau(   6) = (   0.5000000   0.0000000   0.5052304  )
         7           Pd  tau(   7) = (   0.0000000   0.5000000   0.5052304  )

   Crystallographic axes

     site n.     atom                  positions (cryst. coord.)
         1           In  tau(   1) = (  0.5000000  0.5000000  0.0000000  )
         2           As  tau(   2) = (  0.0000000  0.0000000  0.5000000  )
         3           Pd  tau(   3) = (  0.0000000  0.0000000  0.0000000  )
         4           Pd  tau(   4) = (  0.5000000  0.0000000  0.7112800  )
         5           Pd  tau(   5) = (  0.0000000  0.5000000  0.7112800  )
         6           Pd  tau(   6) = (  0.5000000  0.0000000  0.2887200  )
         7           Pd  tau(   7) = (  0.0000000  0.5000000  0.2887200  )

     number of k points=     1  Methfessel-Paxton smearing, width (Ry)=  0.0010
                       cart. coord. in units 2pi/alat
        k(    1) = (   0.0000000   0.0000000   0.0000000), wk =   2.0000000

                       cryst. coord.
        k(    1) = (   0.0000000   0.0000000   0.0000000), wk =   2.0000000

     Initial potential from superposition of free atoms

     starting charge     107.9943, renormalised to     108.0000
     Starting wfcs are   63 randomized atomic wfcs +    2 random wfcs

     Self-consistent Calculation

     iteration #  1     ecut=    30.00 Ry     beta= 0.70
     Davidson diagonalization with overlap

     ethr =  1.00E-02,  avg # of iterations =  3.0

     total energy              =   -1427.33642875 Ry
     estimated scf accuracy    <       1.11742280 Ry

[...]

     total energy              =   -1427.86573608 Ry
     estimated scf accuracy    <       0.00000126 Ry

     iteration # 33     ecut=    30.00 Ry     beta= 0.70
     Davidson diagonalization with overlap

     ethr =  1.17E-09,  avg # of iterations =  1.0

     End of self-consistent calculation

          k = 0.0000 0.0000 0.0000 (  1092 PWs)   bands (ev):

   -68.4304 -68.4275 -68.4100 -68.4074 -67.7339 -34.0734 -34.0734 -34.0673
   -34.0673 -33.8114 -33.7819 -33.7735 -33.7651 -33.7651 -33.7602 -33.7602
   -33.7383 -33.1673 -33.1673 -33.1566   2.0242   2.0583   2.1010   2.1091
     2.1092   3.9812   8.7748   9.6351  11.4457  11.4458  12.0786  12.1753
    12.2593  12.5360  12.6980  13.0755  13.1189  13.1189  14.3115  14.3115
    14.9273  15.0537  15.0563  15.0563  15.1018  15.1105  15.3294  15.3478
    15.6228  15.8449  15.8449  16.3958  16.4280  16.4280  16.4290  18.7933
    19.2656  21.1892  21.1892  22.1361  22.3543  22.4054  22.4054  24.4775
    25.4460

     occupation numbers
     1.0000   1.0000   1.0000   1.0000   1.0000   1.0000   1.0000   1.0000
     1.0000   1.0000   1.0000   1.0000   1.0000   1.0000   1.0000   1.0000
     1.0000   1.0000   1.0000   1.0000   1.0000   1.0000   1.0000   1.0000
     1.0000   1.0000   1.0000   1.0000   1.0000   1.0000   1.0000   1.0000
     1.0000   1.0000   1.0000   1.0000   1.0000   1.0000   1.0000   1.0000
     1.0000   1.0000   1.0000   1.0000   1.0000   1.0000   1.0000   1.0000
     1.0000   1.0000   1.0000   1.0008   0.6868   0.6860   0.6264  -0.0000
    -0.0000  -0.0000  -0.0000  -0.0000  -0.0000  -0.0000  -0.0000  -0.0000
    -0.0000

     the Fermi energy is    16.4311 ev

!    total energy              =   -1427.86573550 Ry
     estimated scf accuracy    <       0.00000071 Ry
     smearing contrib. (-TS)   =      -0.00073979 Ry
     internal energy E=F+TS    =   -1427.86499570 Ry

     The total energy is F=E-TS. E is the sum of the following terms:
     one-electron contribution =    -552.10377588 Ry
     hartree contribution      =     339.72639574 Ry
     xc contribution           =    -181.43518834 Ry
     ewald contribution        =   -1034.05242723 Ry

     convergence has been achieved in  33 iterations

     Forces acting on atoms (cartesian axes, Ry/au):

     atom    1 type  1   force =     0.00000000    0.00000000    0.00000000
     atom    2 type  2   force =     0.00000000    0.00000000    0.00000000
     atom    3 type  3   force =     0.00000000    0.00000000    0.00000000
     atom    4 type  3   force =     0.00000000    0.00000000   -0.02076244
     atom    5 type  3   force =     0.00000000    0.00000000   -0.02076244
     atom    6 type  3   force =     0.00000000    0.00000000    0.02076244
     atom    7 type  3   force =     0.00000000    0.00000000    0.02076244
     The non-local contrib.  to forces
     atom    1 type  1   force =     0.00000000    0.00000000    0.00000000
     atom    2 type  2   force =     0.00000000    0.00000000    0.00000000
     atom    3 type  3   force =     0.00000000    0.00000000    0.00000000
     atom    4 type  3   force =     0.00000000    0.00000000   -0.15765122
     atom    5 type  3   force =     0.00000000    0.00000000   -0.15765122
     atom    6 type  3   force =     0.00000000    0.00000000    0.15765122
     atom    7 type  3   force =     0.00000000    0.00000000    0.15765122
     The ionic contribution  to forces
     atom    1 type  1   force =     0.00000000    0.00000000   -0.00000000
     atom    2 type  2   force =     0.00000000    0.00000000    0.00000000
     atom    3 type  3   force =    -0.00000000   -0.00000000   -0.00000000
     atom    4 type  3   force =     0.00000000    0.00000000  -14.70972792
     atom    5 type  3   force =    -0.00000000    0.00000000  -14.70972792
     atom    6 type  3   force =     0.00000000   -0.00000000   14.70972792
     atom    7 type  3   force =    -0.00000000    0.00000000   14.70972792
     The local contribution  to forces
     atom    1 type  1   force =    -0.00000017    0.00000026   -0.00092146
     atom    2 type  2   force =    -0.00000007    0.00000012    0.00043709
     atom    3 type  3   force =     0.00000028   -0.00000005   -0.00129175
     atom    4 type  3   force =     0.00000379    0.00005519   14.84755805
     atom    5 type  3   force =     0.00000966    0.00002555   14.84750229
     atom    6 type  3   force =    -0.00000507   -0.00005232  -14.84702717
     atom    7 type  3   force =    -0.00001032   -0.00002587  -14.84699596
     The core correction contribution to forces
     atom    1 type  1   force =     0.00000004   -0.00000001    0.00000004
     atom    2 type  2   force =    -0.00000000   -0.00000001    0.00000018
     atom    3 type  3   force =     0.00000000    0.00000000    0.00000000
     atom    4 type  3   force =     0.00000000    0.00000000    0.00000000
     atom    5 type  3   force =     0.00000000    0.00000000    0.00000000
     atom    6 type  3   force =     0.00000000    0.00000000    0.00000000
     atom    7 type  3   force =     0.00000000    0.00000000    0.00000000
     The Hubbard contrib.    to forces
     atom    1 type  1   force =     0.00000000    0.00000000    0.00000000
     atom    2 type  2   force =     0.00000000    0.00000000    0.00000000
     atom    3 type  3   force =     0.00000000    0.00000000    0.00000000
     atom    4 type  3   force =     0.00000000    0.00000000    0.00000000
     atom    5 type  3   force =     0.00000000    0.00000000    0.00000000
     atom    6 type  3   force =     0.00000000    0.00000000    0.00000000
     atom    7 type  3   force =     0.00000000    0.00000000    0.00000000
     The SCF correction term to forces
     atom    1 type  1   force =     0.00000051   -0.00000042    0.00090857
     atom    2 type  2   force =     0.00000002   -0.00000017   -0.00041383
     atom    3 type  3   force =    -0.00000041   -0.00000001    0.00128830
     atom    4 type  3   force =     0.00000291    0.00000203   -0.00091537
     atom    5 type  3   force =     0.00000022    0.00001083   -0.00091910
     atom    6 type  3   force =    -0.00000217   -0.00000229    0.00037487
     atom    7 type  3   force =    -0.00000117   -0.00000920    0.00040734

     Total force =     0.041525     Total SCF correction =     0.002155

     Computing stress (Cartesian axis) and pressure

          total   stress  (Ry/bohr**3)                   (kbar)     P=    -1013.54
  -0.00696880   0.00000000   0.00000000        -1025.15        0.00        0.00
   0.00000000  -0.00696880   0.00000000            0.00    -1025.15        0.00
   0.00000000   0.00000000  -0.00673217            0.00        0.00     -990.34

     kinetic stress (kbar)  56973.81      0.00      0.00
                                0.00  56973.81      0.00
                                0.00      0.00  57532.32

     local   stress (kbar) -18279.02     -0.11      0.01
                               -0.11 -18279.24      0.06
                                0.01      0.06  -8532.65

     nonloc. stress (kbar)   9108.45      0.00      0.00
                                0.00   9108.45      0.00
                                0.00      0.00   8935.38

     hartree stress (kbar)  22624.56      0.16     -0.00
                                0.16  22624.65     -0.01
                               -0.00     -0.01  18089.99

     exc-cor stress (kbar)  -2462.79     -0.00     -0.00
                               -0.00  -2462.79     -0.00
                               -0.00     -0.00  -2453.80

     corecor stress (kbar)  -6586.54      0.01     -0.00
                                0.01  -6586.54     -0.00
                               -0.00     -0.00  -6578.06

     ewald   stress (kbar) -62403.55     -0.00     -0.00
                               -0.00 -62403.55      0.00
                               -0.00      0.00 -67983.53

     hubbard stress (kbar)      0.00      0.00      0.00
                                0.00      0.00      0.00
                                0.00      0.00      0.00

     DFT-D   stress (kbar)      0.00      0.00      0.00
                                0.00      0.00      0.00
                                0.00      0.00      0.00

     XDM     stress (kbar)      0.00      0.00      0.00
                                0.00      0.00      0.00
                                0.00      0.00      0.00

     dft-nl  stress (kbar)      0.00      0.00      0.00
                                0.00      0.00      0.00
                                0.00      0.00      0.00

     TS-vdW  stress (kbar)      0.00      0.00      0.00
                                0.00      0.00      0.00
                                0.00      0.00      0.00

[...]

                                0.00      0.00      0.00

     Writing all to output data dir calculations/myprefix.save/

     General routines

     Parallel routines

   This run was terminated on:  19:51:16   4Mar2023

   JOB DONE.