     Program PWSCF v.7.0 starts on  6Mar2023 at 14: 3:30

     R & G space division:  proc/nbgrp/npool/nimage =      32

     Reading input from espresso_4858.pwi
Warning: card &CELL ignored
Warning: card / ignored

     Current dimensions of program PWSCF are:
     Max number of different atomic species (ntypx) = 10
     Max number of k-points (npk) =  40000
     Max angular momentum in pseudopotentials (lmaxx) =  4
     file K.pbe-spn-kjpaw_psl.1.0.0.UPF: wavefunction(s)  3S renormalized
     file O.pbe-n-kjpaw_psl.0.1.UPF: wavefunction(s)  2P renormalized

     gamma-point specific algorithms are used
     Found identity + (  0.0000  0.0000 -0.5000) symmetry
     This is a supercell, fractional translations are disabled
     Message from routine setup:
     using ibrav=0 with symmetry is DISCOURAGED, use correct ibrav instead

     Using Slab Decomposition

     bravais-lattice index     =            0
     lattice parameter (alat)  =       9.6906  a.u.
     unit-cell volume          =    1883.6498 (a.u.)^3
     number of atoms/cell      =           18
     number of atomic types    =            4
     number of electrons       =       134.00
     number of Kohn-Sham states=           80
     kinetic-energy cutoff     =      30.0000  Ry
     charge density cutoff     =     240.0000  Ry
     scf convergence threshold =      1.0E-06
     mixing beta               =       0.7000
     number of iterations used =            8  plain     mixing
     Exchange-correlation= SLA  PW   PBX  PBC
                           (   1   4   3   4   0   0   0)

     celldm(1)=   9.690602  celldm(2)=   0.000000  celldm(3)=   0.000000
     celldm(4)=   0.000000  celldm(5)=   0.000000  celldm(6)=   0.000000

     crystal axes: (cart. coord. in units of alat)
               a(1) = (   1.000000   0.000000   0.000000 )
               a(2) = (  -0.500000   0.866025   0.000000 )
               a(3) = (   0.000000   0.000000   2.390106 )

     reciprocal axes: (cart. coord. in units 2 pi/alat)
               b(1) = (  1.000000  0.577350  0.000000 )
               b(2) = (  0.000000  1.154701  0.000000 )
               b(3) = (  0.000000  0.000000  0.418391 )

     PseudoPot. # 1 for K  read from file:
     /home/pragov/projects/rrg-bengioy-ad/pragov/crystal_structure_design/SSSP/K.pbe-spn-kjpaw_psl.1.0.0.UPF
     MD5 check sum: 7d58810084cac21f60fbe77ea2b688fd
     Pseudo is Projector augmented-wave + core cor, Zval =  9.0
     Generated using "atomic" code by A. Dal Corso  v.5.1
     Shape of augmentation charge: PSQ
     Using radial grid of 1165 points,  6 beta functions with:
                l(1) =   0
                l(2) =   0
                l(3) =   1
                l(4) =   1
                l(5) =   2
                l(6) =   2
     Q(r) pseudized with 0 coefficients

     PseudoPot. # 2 for Mn read from file:
     /home/pragov/projects/rrg-bengioy-ad/pragov/crystal_structure_design/SSSP/mn_pbe_v1.5.uspp.F.UPF
     MD5 check sum: 82ef2b46521d7a7d9e736dc3972e4928
     Pseudo is Ultrasoft + core correction, Zval = 15.0
     Generated by new atomic code, or converted to UPF format
     Using radial grid of  859 points,  6 beta functions with:
                l(1) =   0
                l(2) =   0
                l(3) =   1
                l(4) =   1
                l(5) =   2
                l(6) =   2
     Q(r) pseudized with  8 coefficients,  rinner =    0.950   0.950   0.950
                                                       0.950   0.950

     PseudoPot. # 3 for I  read from file:
     /home/pragov/projects/rrg-bengioy-ad/pragov/crystal_structure_design/SSSP/I.pbe-n-kjpaw_psl.0.2.UPF
     MD5 check sum: d4ef18d9c8f18dc85e5843bca1e50dc0
     Pseudo is Projector augmented-wave + core cor, Zval =  7.0
     Generated using "atomic" code by A. Dal Corso  v.5.0.99 svn rev. 10869
     Shape of augmentation charge: PSQ
     Using radial grid of 1247 points,  4 beta functions with:
                l(1) =   0
                l(2) =   0
                l(3) =   1
                l(4) =   1
     Q(r) pseudized with 0 coefficients

     PseudoPot. # 4 for O  read from file:
     /home/pragov/projects/rrg-bengioy-ad/pragov/crystal_structure_design/SSSP/O.pbe-n-kjpaw_psl.0.1.UPF
     MD5 check sum: 0234752ac141de4415c5fc33072bef88
     Pseudo is Projector augmented-wave + core cor, Zval =  6.0
     Generated using "atomic" code by A. Dal Corso  v.5.0.99 svn rev. 10869
     Shape of augmentation charge: BESSEL
     Using radial grid of 1095 points,  4 beta functions with:
                l(1) =   0
                l(2) =   0
                l(3) =   1
                l(4) =   1
     Q(r) pseudized with 0 coefficients

     atomic species   valence    mass     pseudopotential
        K              9.00    39.09830     K ( 1.00)
        Mn            15.00    54.93804     Mn( 1.00)
        I              7.00   126.90447     I ( 1.00)
        O              6.00    15.99900     O ( 1.00)

      6 Sym. Ops. (no inversion) found

                                    s                        frac. trans.

      isym =  1     identity

 cryst.   s( 1) = (     1          0          0      )
                  (     0          1          0      )
                  (     0          0          1      )

 cart.    s( 1) = (  1.0000000 -0.0000000  0.0000000 )
                  (  0.0000000  1.0000000  0.0000000 )
                  (  0.0000000  0.0000000  1.0000000 )

      isym =  2     180 deg rotation - cart. axis [0,1,0]

[...]

      isym =  3     120 deg rotation - cryst. axis [0,0,1]

[...]

      isym =  6     180 deg rotation - cryst. axis [2,1,0]

 cryst.   s( 6) = (     1          1          0      )
                  (     0         -1          0      )
                  (     0          0         -1      )

 cart.    s( 6) = (  0.5000000  0.8660254  0.0000000 )
                  (  0.8660254 -0.5000000  0.0000000 )
                  (  0.0000000  0.0000000 -1.0000000 )

   Cartesian axes

     site n.     atom                  positions (alat units)
         1           K   tau(   1) = (   0.5000005   0.2886748   0.5975266  )
         2           K   tau(   2) = (   0.5000005   0.2886748   1.7925797  )
         3           Mn  tau(   3) = (  -0.0000005   0.5773506   1.1950532  )
         4           Mn  tau(   4) = (  -0.0000005   0.5773506   0.0000000  )
         5           I   tau(   5) = (   0.0000000   0.0000000   0.0000000  )
         6           I   tau(   6) = (   0.0000000   0.0000000   1.1950532  )
         7           O   tau(   7) = (  -0.1182335   0.2847327   0.9841765  )
         8           O   tau(   8) = (  -0.1182335   0.2847327   2.1792296  )
         9           O   tau(   9) = (  -0.1942975   0.8260523   0.9841765  )
        10           O   tau(  10) = (  -0.1942975   0.8260523   2.1792296  )
        11           O   tau(  11) = (   0.1182335   0.2847327   0.2108767  )
        12           O   tau(  12) = (   0.1182335   0.2847327   1.4059299  )
        13           O   tau(  13) = (   0.3125310   0.6212658   0.9841765  )
        14           O   tau(  14) = (   0.3125310   0.6212658   2.1792296  )
        15           O   tau(  15) = (   0.1942975   0.8260523   0.2108767  )
        16           O   tau(  16) = (   0.1942975   0.8260523   1.4059299  )
        17           O   tau(  17) = (  -0.3125310   0.6212658   0.2108767  )
        18           O   tau(  18) = (  -0.3125310   0.6212658   1.4059299  )

   Crystallographic axes

     site n.     atom                  positions (cryst. coord.)
         1           K   tau(   1) = (  0.6666670  0.3333330  0.2500000  )
         2           K   tau(   2) = (  0.6666670  0.3333330  0.7500000  )
         3           Mn  tau(   3) = (  0.3333330  0.6666670  0.5000000  )
         4           Mn  tau(   4) = (  0.3333330  0.6666670  0.0000000  )
         5           I   tau(   5) = (  0.0000000  0.0000000  0.0000000  )
         6           I   tau(   6) = (  0.0000000  0.0000000  0.5000000  )
         7           O   tau(   7) = (  0.0461570  0.3287810  0.4117710  )
         8           O   tau(   8) = (  0.0461570  0.3287810  0.9117710  )
         9           O   tau(   9) = (  0.2826240  0.9538430  0.4117710  )
        10           O   tau(  10) = (  0.2826240  0.9538430  0.9117710  )
        11           O   tau(  11) = (  0.2826240  0.3287810  0.0882290  )
        12           O   tau(  12) = (  0.2826240  0.3287810  0.5882290  )
        13           O   tau(  13) = (  0.6712190  0.7173760  0.4117710  )
        14           O   tau(  14) = (  0.6712190  0.7173760  0.9117710  )
        15           O   tau(  15) = (  0.6712190  0.9538430  0.0882290  )
        16           O   tau(  16) = (  0.6712190  0.9538430  0.5882290  )
        17           O   tau(  17) = (  0.0461570  0.7173760  0.0882290  )
        18           O   tau(  18) = (  0.0461570  0.7173760  0.5882290  )

     number of k points=     1  Methfessel-Paxton smearing, width (Ry)=  0.0010
                       cart. coord. in units 2pi/alat
        k(    1) = (   0.0000000   0.0000000   0.0000000), wk =   2.0000000

                       cryst. coord.
        k(    1) = (   0.0000000   0.0000000   0.0000000), wk =   2.0000000

     Check: negative core charge=   -0.000015

     Initial potential from superposition of free atoms

     starting charge     132.9620, renormalised to     134.0000
     Starting wfcs are   98 randomized atomic wfcs
     Checking if some PAW data can be deallocated...

     Self-consistent Calculation

     iteration #  1     ecut=    30.00 Ry     beta= 0.70
     Davidson diagonalization with overlap

     ethr =  1.00E-02,  avg # of iterations =  2.0

     total energy              =   -1899.00089976 Ry
     estimated scf accuracy    <       8.93280215 Ry

[...]

     negative rho (up, down):  4.690E-07 0.000E+00

[...]

     ethr =  1.82E-06,  avg # of iterations =  2.0
     Minimization algorithm failed to find Fermi energy: reverting to bisection
     Possible cause: smearing is larger than the electronic band-gap.

     negative rho (up, down):  1.430E-07 0.000E+00

[...]

     total energy              =   -1904.78019920 Ry
     estimated scf accuracy    <       0.00000194 Ry

     iteration # 68     ecut=    30.00 Ry     beta= 0.70
     Davidson diagonalization with overlap

     ethr =  1.45E-09,  avg # of iterations =  1.0

     End of self-consistent calculation

          k = 0.0000 0.0000 0.0000 (  2622 PWs)   bands (ev):

   -75.4943 -75.4938 -44.3947 -44.3947 -44.3908 -44.3908 -43.7438 -43.7417
   -23.2471 -23.2467 -17.3478 -17.3434 -14.2046 -14.2045 -14.2043 -14.2042
   -14.0245 -14.0149 -13.0510 -13.0510 -13.0500 -13.0499  -7.5579  -7.3748
    -6.7862  -6.7862  -6.7660  -6.7660  -6.7062  -6.5073  -2.3823  -2.3822
    -2.3378  -2.3378  -2.2366  -2.1875  -0.4604  -0.3111   0.2672   0.2672
     0.2935   0.2936   0.5188   0.5189   0.5263   0.5264   1.8045   1.8665
     2.0946   2.0947   2.1134   2.1135   2.2795   2.2795   2.2945   2.3727
     2.3728   2.6768   2.7049   2.8335   3.0410   3.0411   3.0609   3.0610
     4.1743   4.2035   4.7252   4.7253   4.7320   4.7321   6.6191   6.9445
     7.1428   7.1429   7.1432   7.1432  10.2052  10.6136  10.7814  11.2444

     occupation numbers
     1.0000   1.0000   1.0000   1.0000   1.0000   1.0000   1.0000   1.0000
     1.0000   1.0000   1.0000   1.0000   1.0000   1.0000   1.0000   1.0000
     1.0000   1.0000   1.0000   1.0000   1.0000   1.0000   1.0000   1.0000
     1.0000   1.0000   1.0000   1.0000   1.0000   1.0000   1.0000   1.0000
     1.0000   1.0000   1.0000   1.0000   1.0000   1.0000   1.0000   1.0000
     1.0000   1.0000   1.0000   1.0000   1.0000   1.0000   1.0000   1.0000
     1.0000   1.0000   1.0000   1.0000   1.0000   1.0000   1.0000   1.0000
     1.0000   1.0000   1.0000   1.0000   1.0000   1.0000   1.0000   1.0000
     1.0000   1.0000   0.4201   0.4178   0.0817   0.0804  -0.0000  -0.0000
    -0.0000  -0.0000  -0.0000  -0.0000  -0.0000  -0.0000  -0.0000  -0.0000

     the Fermi energy is     4.7239 ev

!    total energy              =   -1904.78019879 Ry
     estimated scf accuracy    <       0.00000084 Ry
     smearing contrib. (-TS)   =      -0.00066140 Ry
     internal energy E=F+TS    =   -1904.77953739 Ry

     The total energy is F=E-TS. E is the sum of the following terms:
     one-electron contribution =    -720.55846566 Ry
     hartree contribution      =     420.55301973 Ry
     xc contribution           =    -247.44293644 Ry
     ewald contribution        =    -491.16139606 Ry
     one-center paw contrib.   =    -866.16975895 Ry
      -> PAW hartree energy AE =      37.73285855 Ry
      -> PAW hartree energy PS =     -37.52252382 Ry
      -> PAW xc energy AE      =     -66.22353856 Ry
      -> PAW xc energy PS      =      10.59566096 Ry
      -> total E_H with PAW    =     420.76335446 Ry
      -> total E_XC with PAW   =    -303.07081404 Ry

     convergence has been achieved in  68 iterations

     Forces acting on atoms (cartesian axes, Ry/au):

     atom    1 type  1   force =    -0.00000000   -0.00000000    0.00003494
     atom    2 type  1   force =     0.00000000    0.00000000   -0.00003494
     atom    3 type  2   force =     0.00000000    0.00000000    0.00000000
     atom    4 type  2   force =     0.00000000   -0.00000000    0.00000000
     atom    5 type  3   force =     0.00000000    0.00000000    0.00000000
     atom    6 type  3   force =     0.00000000    0.00000000    0.00000000
     atom    7 type  4   force =    -0.02032493    0.09191151   -0.02188175
     atom    8 type  4   force =    -0.02030346    0.09190065   -0.02183264
     atom    9 type  4   force =     0.08976017   -0.02835386   -0.02188175
     atom   10 type  4   force =     0.08974002   -0.02836701   -0.02183264
     atom   11 type  4   force =     0.02030346    0.09190065    0.02183264
     atom   12 type  4   force =     0.02032493    0.09191151    0.02188175
     atom   13 type  4   force =    -0.06943524   -0.06355766   -0.02188175
     atom   14 type  4   force =    -0.06943657   -0.06353363   -0.02183264
     atom   15 type  4   force =    -0.08974002   -0.02836701    0.02183264
     atom   16 type  4   force =    -0.08976017   -0.02835385    0.02188175
     atom   17 type  4   force =     0.06943657   -0.06353364    0.02183264
     atom   18 type  4   force =     0.06943524   -0.06355766    0.02188175
     The non-local contrib.  to forces
     atom    1 type  1   force =     0.00000000   -0.00000000    0.00003767
     atom    2 type  1   force =     0.00000000    0.00000000   -0.00003767
     atom    3 type  2   force =     0.00000000    0.00000000    0.00000000
     atom    4 type  2   force =    -0.00000000    0.00000000    0.00000000
     atom    5 type  3   force =    -0.00000000    0.00000000    0.00000000
     atom    6 type  3   force =     0.00000000    0.00000000    0.00000000
     atom    7 type  4   force =     0.61023490   -0.47484452    1.19272911
     atom    8 type  4   force =     0.61027610   -0.47487174    1.19278462
     atom    9 type  4   force =    -0.71634486   -0.29105665    1.19272911
     atom   10 type  4   force =    -0.71638903   -0.29107873    1.19278462
     atom   11 type  4   force =    -0.61027610   -0.47487171   -1.19278462
     atom   12 type  4   force =    -0.61023490   -0.47484449   -1.19272911
     atom   13 type  4   force =     0.10610996    0.76590117    1.19272911
     atom   14 type  4   force =     0.10611293    0.76595046    1.19278462
     atom   15 type  4   force =     0.71638903   -0.29107876   -1.19278462
     atom   16 type  4   force =     0.71634486   -0.29105668   -1.19272911
     atom   17 type  4   force =    -0.10611293    0.76595047   -1.19278462
     atom   18 type  4   force =    -0.10610996    0.76590117   -1.19272911
     The ionic contribution  to forces
     atom    1 type  1   force =    -0.00001359    0.00000785    0.00000000
     atom    2 type  1   force =    -0.00001359    0.00000785    0.00000000
     atom    3 type  2   force =     0.00005339   -0.00003082    0.00000000
     atom    4 type  2   force =     0.00005339   -0.00003082    0.00000000
     atom    5 type  3   force =    -0.00001214    0.00000701    0.00000000
     atom    6 type  3   force =    -0.00001214    0.00000701    0.00000000
     atom    7 type  4   force =    -4.58946205   -3.58516736  -13.41409777
     atom    8 type  4   force =    -4.58946205   -3.58516736  -13.41409777
     atom    9 type  4   force =    -0.81011727    5.76721642  -13.41412865
     atom   10 type  4   force =    -0.81011727    5.76721642  -13.41412865
     atom   11 type  4   force =     4.58948545   -3.58514082   13.41408792
     atom   12 type  4   force =     4.58948545   -3.58514082   13.41408792
     atom   13 type  4   force =     5.39956571   -2.18204069  -13.41408792
     atom   14 type  4   force =     5.39956571   -2.18204069  -13.41408792
     atom   15 type  4   force =     0.81011510    5.76717439   13.41409776
     atom   16 type  4   force =     0.81011510    5.76717439   13.41409776
     atom   17 type  4   force =    -5.39961460   -2.18202596   13.41412865
     atom   18 type  4   force =    -5.39961460   -2.18202596   13.41412865
     The local contribution  to forces
     atom    1 type  1   force =    -0.00000004    0.00008163    0.00021645
     atom    2 type  1   force =    -0.00001807    0.00007605   -0.00037266
     atom    3 type  2   force =    -0.00015791    0.00033616    0.00081984
     atom    4 type  2   force =     0.00014737    0.00040622   -0.00039175
     atom    5 type  3   force =     0.00000198   -0.00002382   -0.00017315
     atom    6 type  3   force =     0.00000189   -0.00001315    0.00038330
     atom    7 type  4   force =     3.96515158    4.14733869   12.21162299
     atom    8 type  4   force =     3.96508867    4.14740508   12.21107481
     atom    9 type  4   force =     1.60950394   -5.50725787   12.21164897
     atom   10 type  4   force =     1.60938066   -5.50739231   12.21114671
     atom   11 type  4   force =    -3.96508743    4.14734864  -12.21131639
     atom   12 type  4   force =    -3.96520031    4.14734080  -12.21127140
     atom   13 type  4   force =    -5.57424016    1.35998353   12.21156996
     atom   14 type  4   force =    -5.57420794    1.35977075   12.21106314
     atom   15 type  4   force =    -1.60948752   -5.50725130  -12.21134430
     atom   16 type  4   force =    -1.60928904   -5.50739474  -12.21133945
     atom   17 type  4   force =     5.57427241    1.35992152  -12.21132160
     atom   18 type  4   force =     5.57420889    1.35978549  -12.21131149
     The core correction contribution to forces
     atom    1 type  1   force =    -0.00000004    0.00000001    0.00000002
     atom    2 type  1   force =    -0.00000002   -0.00000002    0.00000046
     atom    3 type  2   force =    -0.00000905    0.00001878    0.00000134
     atom    4 type  2   force =     0.00000718    0.00001673   -0.00000015
     atom    5 type  3   force =     0.00000140    0.00000381    0.00000253
     atom    6 type  3   force =    -0.00000087    0.00000194   -0.00000467
     atom    7 type  4   force =    -0.00600871    0.00440130   -0.01190497
     atom    8 type  4   force =    -0.00600924    0.00440200   -0.01190449
     atom    9 type  4   force =     0.00681785    0.00300759   -0.01190478
     atom   10 type  4   force =     0.00681705    0.00300578   -0.01190441
     atom   11 type  4   force =     0.00600931    0.00440148    0.01190465
     atom   12 type  4   force =     0.00600817    0.00440191    0.01190355
     atom   13 type  4   force =    -0.00080662   -0.00740657   -0.01190412
     atom   14 type  4   force =    -0.00080559   -0.00740817   -0.01190389
     atom   15 type  4   force =    -0.00681773    0.00300697    0.01190437
     atom   16 type  4   force =    -0.00681647    0.00300557    0.01190394
     atom   17 type  4   force =     0.00080642   -0.00740717    0.01190422
     atom   18 type  4   force =     0.00080508   -0.00740784    0.01190326
     The Hubbard contrib.    to forces
     atom    1 type  1   force =     0.00000000    0.00000000    0.00000000
     atom    2 type  1   force =     0.00000000    0.00000000    0.00000000
     atom    3 type  2   force =     0.00000000    0.00000000    0.00000000
     atom    4 type  2   force =     0.00000000    0.00000000    0.00000000
     atom    5 type  3   force =     0.00000000    0.00000000    0.00000000
     atom    6 type  3   force =     0.00000000    0.00000000    0.00000000
     atom    7 type  4   force =     0.00000000    0.00000000    0.00000000
     atom    8 type  4   force =     0.00000000    0.00000000    0.00000000
     atom    9 type  4   force =     0.00000000    0.00000000    0.00000000
     atom   10 type  4   force =     0.00000000    0.00000000    0.00000000
     atom   11 type  4   force =     0.00000000    0.00000000    0.00000000
     atom   12 type  4   force =     0.00000000    0.00000000    0.00000000
     atom   13 type  4   force =     0.00000000    0.00000000    0.00000000
     atom   14 type  4   force =     0.00000000    0.00000000    0.00000000
     atom   15 type  4   force =     0.00000000    0.00000000    0.00000000
     atom   16 type  4   force =     0.00000000    0.00000000    0.00000000
     atom   17 type  4   force =     0.00000000    0.00000000    0.00000000
     atom   18 type  4   force =     0.00000000    0.00000000    0.00000000
     The SCF correction term to forces
     atom    1 type  1   force =     0.00001370   -0.00008604   -0.00021621
     atom    2 type  1   force =     0.00003348   -0.00007961    0.00037791
     atom    3 type  2   force =    -0.00006744    0.00003251   -0.00084721
     atom    4 type  2   force =    -0.00008810   -0.00010006    0.00039770
     atom    5 type  3   force =     0.00001286    0.00002445    0.00017220
     atom    6 type  3   force =     0.00000442    0.00001406   -0.00038338
     atom    7 type  4   force =    -0.00007574    0.00019426   -0.00027527
     atom    8 type  4   force =    -0.00006101    0.00011615    0.00031007
     atom    9 type  4   force =     0.00000864   -0.00013535   -0.00025655
     atom   10 type  4   force =     0.00005396   -0.00011733    0.00028502
     atom   11 type  4   force =     0.00003213    0.00016559   -0.00003782
     atom   12 type  4   force =     0.00009391    0.00012923   -0.00013824
     atom   13 type  4   force =    -0.00004533   -0.00001662   -0.00021604
     atom   14 type  4   force =    -0.00004038    0.00008680    0.00033260
     atom   15 type  4   force =    -0.00000539   -0.00013296   -0.00003881
     atom   16 type  4   force =    -0.00011512   -0.00009277   -0.00008350
     atom   17 type  4   force =     0.00005937   -0.00000602   -0.00007982
     atom   18 type  4   force =     0.00005557    0.00006457   -0.00015000

     Total force =     0.334732     Total SCF correction =     0.001424

     Computing stress (Cartesian axis) and pressure

          total   stress  (Ry/bohr**3)                   (kbar)     P=     -293.15
  -0.00187671   0.00000000   0.00000000         -276.07        0.00        0.00
   0.00000000  -0.00187671  -0.00000000            0.00     -276.07       -0.00
   0.00000000   0.00000000  -0.00222495            0.00        0.00     -327.30

     kinetic stress (kbar)  17977.78     -0.00      0.00
                               -0.00  17977.78     -0.00
                                0.00     -0.00  18315.36

     local   stress (kbar) -29208.76      0.00      1.11
                                0.00 -29209.19      0.09
                                1.11      0.09   7241.24

     nonloc. stress (kbar)   4833.82     -0.00      0.00
                               -0.00   4833.82     -0.00
                                0.00     -0.00   4910.10

     hartree stress (kbar)  16389.64     -0.01     -0.39
                               -0.01  16389.67     -0.04
                               -0.39     -0.04     64.09

     exc-cor stress (kbar)   2732.54      0.00     -0.00
                                0.00   2732.54     -0.00
                               -0.00     -0.00   2729.85

     corecor stress (kbar)  -7077.45     -0.00      0.01
                               -0.00  -7077.45      0.00
                                0.01      0.00  -7077.21

     ewald   stress (kbar)  -5923.43     -0.02     -0.00
                               -0.02  -5923.45     -0.00
                               -0.00     -0.00 -26510.74

     hubbard stress (kbar)      0.00      0.00      0.00
                                0.00      0.00      0.00
                                0.00      0.00      0.00

     DFT-D   stress (kbar)      0.00      0.00      0.00
                                0.00      0.00      0.00
                                0.00      0.00      0.00

     XDM     stress (kbar)      0.00      0.00      0.00
                                0.00      0.00      0.00
                                0.00      0.00      0.00

     dft-nl  stress (kbar)      0.00      0.00      0.00
                                0.00      0.00      0.00
                                0.00      0.00      0.00

     TS-vdW  stress (kbar)      0.00      0.00      0.00
                                0.00      0.00      0.00
                                0.00      0.00      0.00

[...]

                                0.00      0.00      0.00

     Writing all to output data dir calculations/myprefix.save/

     General routines

     Parallel routines

     PAW routines

   This run was terminated on:  14: 3:45   6Mar2023

   JOB DONE.