     Program PWSCF v.7.0 starts on  3Mar2023 at  3: 1:41

     R & G space division:  proc/nbgrp/npool/nimage =      32

     Reading input from espresso_13011.pwi
Warning: card &CELL ignored
Warning: card / ignored

     Current dimensions of program PWSCF are:
     Max number of different atomic species (ntypx) = 10
     Max number of k-points (npk) =  40000
     Max angular momentum in pseudopotentials (lmaxx) =  4
     file O.pbe-n-kjpaw_psl.0.1.UPF: wavefunction(s)  2P renormalized

     gamma-point specific algorithms are used
     Message from routine setup:
     using ibrav=0 with symmetry is DISCOURAGED, use correct ibrav instead

     Using Slab Decomposition

     bravais-lattice index     =            0
     lattice parameter (alat)  =      10.7412  a.u.
     unit-cell volume          =    1374.5958 (a.u.)^3
     number of atoms/cell      =           17
     number of atomic types    =            5
     number of electrons       =       121.00
     number of Kohn-Sham states=           73
     kinetic-energy cutoff     =      30.0000  Ry
     charge density cutoff     =     240.0000  Ry
     scf convergence threshold =      1.0E-06
     mixing beta               =       0.7000
     number of iterations used =            8  plain     mixing
     Exchange-correlation= SLA  PW   PBX  PBC
                           (   1   4   3   4   0   0   0)

     celldm(1)=  10.741226  celldm(2)=   0.000000  celldm(3)=   0.000000
     celldm(4)=   0.000000  celldm(5)=   0.000000  celldm(6)=   0.000000

     crystal axes: (cart. coord. in units of alat)
               a(1) = (   1.000000   0.000000   0.000000 )
               a(2) = (   0.373562   0.927605   0.000000 )
               a(3) = (   0.594499   0.401482   1.195777 )

     reciprocal axes: (cart. coord. in units 2 pi/alat)
               b(1) = (  1.000000 -0.402717 -0.361953 )
               b(2) = (  0.000000  1.078045 -0.361953 )
               b(3) = (  0.000000  0.000000  0.836276 )

     PseudoPot. # 1 for Na read from file:
     /home/pragov/projects/rrg-bengioy-ad/pragov/crystal_structure_design/SSSP/na_pbe_v1.5.uspp.F.UPF
     MD5 check sum: 44600605ef58000f06b90626533354dc
     Pseudo is Ultrasoft, Zval =  9.0
     Generated by new atomic code, or converted to UPF format
     Using radial grid of  819 points,  5 beta functions with:
                l(1) =   0
                l(2) =   0
                l(3) =   1
                l(4) =   1
                l(5) =   2
     Q(r) pseudized with  8 coefficients,  rinner =    1.250   1.250   1.250
                                                       1.250   1.250

     PseudoPot. # 2 for Cu read from file:
     /home/pragov/projects/rrg-bengioy-ad/pragov/crystal_structure_design/SSSP/Cu_pbe_v1.2.uspp.F.UPF
     MD5 check sum: 6e991ff952a84172a2a52a1c1e996048
     Pseudo is Ultrasoft + core correction, Zval = 19.0
     Generated by new atomic code, or converted to UPF format
     Using radial grid of  867 points,  6 beta functions with:
                l(1) =   0
                l(2) =   0
                l(3) =   1
                l(4) =   1
                l(5) =   2
                l(6) =   2
     Q(r) pseudized with  8 coefficients,  rinner =    1.150   1.150   1.150
                                                       1.150   1.150

     PseudoPot. # 3 for H  read from file:
     /home/pragov/projects/rrg-bengioy-ad/pragov/crystal_structure_design/SSSP/H.pbe-rrkjus_psl.1.0.0.UPF
     MD5 check sum: f52b6d4d1c606e5624b1dc7b2218f220
     Pseudo is Ultrasoft, Zval =  1.0
     Generated using "atomic" code by A. Dal Corso  v.5.1
     Using radial grid of  929 points,  2 beta functions with:
                l(1) =   0
                l(2) =   0
     Q(r) pseudized with 0 coefficients

     PseudoPot. # 4 for Se read from file:
     /home/pragov/projects/rrg-bengioy-ad/pragov/crystal_structure_design/SSSP/Se_pbe_v1.uspp.F.UPF
     MD5 check sum: 1b3568f3a8ae88f9a2a0ad0698632c85
     Pseudo is Ultrasoft + core correction, Zval =  6.0
     Generated by new atomic code, or converted to UPF format
     Using radial grid of  877 points,  6 beta functions with:
                l(1) =   0
                l(2) =   0
                l(3) =   1
                l(4) =   1
                l(5) =   2
                l(6) =   2
     Q(r) pseudized with  8 coefficients,  rinner =    1.300   1.300   1.300
                                                       1.300   1.300

     PseudoPot. # 5 for O  read from file:
     /home/pragov/projects/rrg-bengioy-ad/pragov/crystal_structure_design/SSSP/O.pbe-n-kjpaw_psl.0.1.UPF
     MD5 check sum: 0234752ac141de4415c5fc33072bef88
     Pseudo is Projector augmented-wave + core cor, Zval =  6.0
     Generated using "atomic" code by A. Dal Corso  v.5.0.99 svn rev. 10869
     Shape of augmentation charge: BESSEL
     Using radial grid of 1095 points,  4 beta functions with:
                l(1) =   0
                l(2) =   0
                l(3) =   1
                l(4) =   1
     Q(r) pseudized with 0 coefficients

     atomic species   valence    mass     pseudopotential
        Na             9.00    22.98977     Na( 1.00)
        Cu            19.00    63.54600     Cu( 1.00)
        H              1.00     1.00800     H ( 1.00)
        Se             6.00    78.97100     Se( 1.00)
        O              6.00    15.99900     O ( 1.00)

      2 Sym. Ops., with inversion, found

                                    s                        frac. trans.

      isym =  1     identity

 cryst.   s( 1) = (     1          0          0      )
                  (     0          1          0      )
                  (     0          0          1      )

 cart.    s( 1) = (  1.0000000  0.0000000 -0.0000000 )
                  (  0.0000000  1.0000000 -0.0000000 )
                  (  0.0000000  0.0000000  1.0000000 )

      isym =  2     inversion

 cryst.   s( 2) = (    -1          0          0      )
                  (     0         -1          0      )
                  (     0          0         -1      )

 cart.    s( 2) = ( -1.0000000 -0.0000000  0.0000000 )
                  (  0.0000000 -1.0000000  0.0000000 )
                  (  0.0000000  0.0000000 -1.0000000 )

   Cartesian axes

     site n.     atom                  positions (alat units)
         1           Na  tau(   1) = (   0.9840307   0.6645436   0.5978887  )
         2           Cu  tau(   2) = (   0.1867811   0.4638026   0.0000000  )
         3           Cu  tau(   3) = (   0.5000000   0.0000000   0.0000000  )
         4           H   tau(   4) = (   1.4504531   0.9795317   0.9522310  )
         5           H   tau(   5) = (   0.5176083   0.3495554   0.2435464  )
         6           Se  tau(   6) = (   0.5324956   0.3596092   0.8376767  )
         7           Se  tau(   7) = (   1.4355658   0.9694779   0.3581007  )
         8           O   tau(   8) = (   0.7420861   0.5011516   0.9874144  )
         9           O   tau(   9) = (   1.2259753   0.8279355   0.2083630  )
        10           O   tau(  10) = (   0.5869689   0.3963966   0.5542907  )
        11           O   tau(  11) = (   1.3810924   0.9326905   0.6414867  )
        12           O   tau(  12) = (   1.2598423   0.4736064   0.8993286  )
        13           O   tau(  13) = (   0.9099492   0.9917147   0.8993286  )
        14           O   tau(  14) = (   0.7082191   0.8554807   0.2964488  )
        15           O   tau(  15) = (   1.0581122   0.3373724   0.2964488  )
        16           O   tau(  16) = (   1.4863766   1.0037919   1.1219920  )
        17           O   tau(  17) = (   0.4816848   0.3252952   0.0737854  )

   Crystallographic axes

     site n.     atom                  positions (cryst. coord.)
         1           Na  tau(   1) = (  0.5000000  0.5000000  0.5000000  )
         2           Cu  tau(   2) = ( -0.0000000  0.5000000  0.0000000  )
         3           Cu  tau(   3) = (  0.5000000  0.0000000  0.0000000  )
         4           H   tau(   4) = (  0.7113160  0.7113160  0.7963280  )
         5           H   tau(   5) = (  0.2886840  0.2886840  0.2036720  )
         6           Se  tau(   6) = (  0.0844750  0.0844750  0.7005290  )
         7           Se  tau(   7) = (  0.9155250  0.9155250  0.2994710  )
         8           O   tau(   8) = (  0.1828660  0.1828660  0.8257510  )
         9           O   tau(   9) = (  0.8171340  0.8171340  0.1742490  )
        10           O   tau(  10) = (  0.2267060  0.2267060  0.4635400  )
        11           O   tau(  11) = (  0.7732940  0.7732940  0.5364600  )
        12           O   tau(  12) = (  0.7435980  0.1850540  0.7520870  )
        13           O   tau(  13) = (  0.1850540  0.7435980  0.7520870  )
        14           O   tau(  14) = (  0.2564020  0.8149460  0.2479130  )
        15           O   tau(  15) = (  0.8149460  0.2564020  0.2479130  )
        16           O   tau(  16) = (  0.6760240  0.6760240  0.9382950  )
        17           O   tau(  17) = (  0.3239760  0.3239760  0.0617050  )

     number of k points=     1  Methfessel-Paxton smearing, width (Ry)=  0.0010
                       cart. coord. in units 2pi/alat
        k(    1) = (   0.0000000   0.0000000   0.0000000), wk =   2.0000000

                       cryst. coord.
        k(    1) = (   0.0000000   0.0000000   0.0000000), wk =   2.0000000

     Check: negative core charge=   -0.000012

     Initial potential from superposition of free atoms

     starting charge     118.9935, renormalised to     121.0000
     Starting wfcs are   81 randomized atomic wfcs
     Checking if some PAW data can be deallocated...

     Self-consistent Calculation

     iteration #  1     ecut=    30.00 Ry     beta= 0.70
     Davidson diagonalization with overlap

     ethr =  1.00E-02,  avg # of iterations =  3.0

     total energy              =   -1402.12712710 Ry
     estimated scf accuracy    <       8.16931133 Ry

[...]

     total energy              =   -1407.73270373 Ry
     estimated scf accuracy    <       0.00000120 Ry

     iteration # 17     ecut=    30.00 Ry     beta= 0.70
     Davidson diagonalization with overlap

     ethr =  9.91E-10,  avg # of iterations =  2.0

     End of self-consistent calculation

          k = 0.0000 0.0000 0.0000 (  1911 PWs)   bands (ev):

  -108.2645-108.2636 -65.9802 -65.9737 -65.7658 -65.7646 -65.0921 -65.0897
   -45.6889 -17.6281 -17.5950 -17.5781 -17.3619 -17.1293 -14.8016 -14.5966
   -14.2723 -14.2122 -14.0475 -14.0406 -13.8533 -13.7358  -6.3515  -6.1584
    -2.7888  -2.6744  -2.4605  -2.0066  -1.9443  -1.4705  -1.3097  -1.0618
    -0.8531  -0.3288   0.2772   0.3885   0.7675   0.7918   1.0940   1.4376
     1.5411   1.6015   2.0015   2.0237   2.1012   2.1860   2.3558   2.3977
     2.4652   2.5070   2.6381   2.7699   2.8958   3.1026   3.1528   3.2056
     3.2401   3.2633   3.5078   4.0767   4.4834   5.0853   6.5772   7.2080
    10.4223  10.4366  10.5197  10.7824  10.9983  11.2925  11.3787  13.0354
    13.1768

     occupation numbers
     1.0000   1.0000   1.0000   1.0000   1.0000   1.0000   1.0000   1.0000
     1.0000   1.0000   1.0000   1.0000   1.0000   1.0000   1.0000   1.0000
     1.0000   1.0000   1.0000   1.0000   1.0000   1.0000   1.0000   1.0000
     1.0000   1.0000   1.0000   1.0000   1.0000   1.0000   1.0000   1.0000
     1.0000   1.0000   1.0000   1.0000   1.0000   1.0000   1.0000   1.0000
     1.0000   1.0000   1.0000   1.0000   1.0000   1.0000   1.0000   1.0000
     1.0000   1.0000   1.0000   1.0000   1.0000   1.0000   1.0000   1.0000
     1.0000   1.0000   1.0000   1.0000   0.5000  -0.0000  -0.0000  -0.0000
    -0.0000  -0.0000  -0.0000  -0.0000  -0.0000  -0.0000  -0.0000  -0.0000
    -0.0000

     the Fermi energy is     4.4834 ev

!    total energy              =   -1407.73270381 Ry
     estimated scf accuracy    <       0.00000013 Ry
     smearing contrib. (-TS)   =      -0.00028209 Ry
     internal energy E=F+TS    =   -1407.73242172 Ry

     The total energy is F=E-TS. E is the sum of the following terms:
     one-electron contribution =   -1114.79065964 Ry
     hartree contribution      =     610.42825327 Ry
     xc contribution           =    -226.78035576 Ry
     ewald contribution        =    -581.29866026 Ry
     one-center paw contrib.   =     -95.29099932 Ry
      -> PAW hartree energy AE =       0.00000000 Ry
      -> PAW hartree energy PS =       0.00000000 Ry
      -> PAW xc energy AE      =       0.00000000 Ry
      -> PAW xc energy PS      =       0.00000000 Ry
      -> total E_H with PAW    =     610.42825327 Ry
      -> total E_XC with PAW   =    -226.78035576 Ry

     convergence has been achieved in  17 iterations

     Forces acting on atoms (cartesian axes, Ry/au):

     atom    1 type  1   force =     0.00000000    0.00000000    0.00000000
     atom    2 type  2   force =     0.00000000    0.00000000    0.00000000
     atom    3 type  2   force =     0.00000000    0.00000000    0.00000000
     atom    4 type  3   force =     0.00757266    0.00511535   -0.00372325
     atom    5 type  3   force =    -0.00757266   -0.00511535    0.00372325
     atom    6 type  4   force =    -0.00010150   -0.00007291   -0.00659425
     atom    7 type  4   force =     0.00010150    0.00007291    0.00659425
     atom    8 type  5   force =    -0.02473958   -0.01671166    0.01698727
     atom    9 type  5   force =     0.02473958    0.01671166   -0.01698727
     atom   10 type  5   force =    -0.00518070   -0.00349161    0.02025429
     atom   11 type  5   force =     0.00518070    0.00349161   -0.02025429
     atom   12 type  5   force =     0.02675648   -0.01237068   -0.02075397
     atom   13 type  5   force =    -0.00146650    0.02940911   -0.02077304
     atom   14 type  5   force =    -0.02675648    0.01237068    0.02075397
     atom   15 type  5   force =     0.00146650   -0.02940911    0.02077304
     atom   16 type  5   force =     0.00167527    0.00114967    0.02344764
     atom   17 type  5   force =    -0.00167527   -0.00114967   -0.02344764
     The non-local contrib.  to forces
     atom    1 type  1   force =     0.00000000    0.00000000    0.00000000
     atom    2 type  2   force =     0.00000000    0.00000000    0.00000000
     atom    3 type  2   force =     0.00000000    0.00000000    0.00000000
     atom    4 type  3   force =     0.02358095    0.01592513    0.10043973
     atom    5 type  3   force =    -0.02358095   -0.01592513   -0.10043973
     atom    6 type  4   force =    -0.06899354   -0.04661615    0.08072123
     atom    7 type  4   force =     0.06899354    0.04661615   -0.08072123
     atom    8 type  5   force =    -1.30442680   -0.88092248   -0.92952157
     atom    9 type  5   force =     1.30442680    0.88092248    0.92952157
     atom   10 type  5   force =    -0.44586913   -0.30111114    1.81495170
     atom   11 type  5   force =     0.44586913    0.30111114   -1.81495170
     atom   12 type  5   force =     1.41022521   -0.96298242    0.30362312
     atom   13 type  5   force =    -0.36636690    1.66779528    0.30353482
     atom   14 type  5   force =    -1.41022521    0.96298242   -0.30362312
     atom   15 type  5   force =     0.36636690   -1.66779528   -0.30353482
     atom   16 type  5   force =     0.51348724    0.34682694   -1.50948966
     atom   17 type  5   force =    -0.51348724   -0.34682694    1.50948966
     The ionic contribution  to forces
     atom    1 type  1   force =     0.00000000   -0.00000000   -0.00000000
     atom    2 type  2   force =     0.00000000   -0.00000000   -0.00000000
     atom    3 type  2   force =     0.00000000   -0.00000000   -0.00000000
     atom    4 type  3   force =    -1.55234346   -1.04834113   -4.16958060
     atom    5 type  3   force =     1.55234346    1.04834113    4.16958060
     atom    6 type  4   force =     0.89914896    0.60722054   -6.26847174
     atom    7 type  4   force =    -0.89914896   -0.60722054    6.26847174
     atom    8 type  5   force =    -1.92249389   -1.29831411   -6.80812344
     atom    9 type  5   force =     1.92249389    1.29831411    6.80812344
     atom   10 type  5   force =     0.98136183    0.66274120   -4.59299199
     atom   11 type  5   force =    -0.98136183   -0.66274120    4.59299199
     atom   12 type  5   force =     1.61985248    5.36333354  -13.27371925
     atom   13 type  5   force =     5.58017137   -0.50095523  -13.27371925
     atom   14 type  5   force =    -1.61985248   -5.36333354   13.27371925
     atom   15 type  5   force =    -5.58017137    0.50095523   13.27371925
     atom   16 type  5   force =   -11.81577424   -7.97952417   -4.54868244
     atom   17 type  5   force =    11.81577424    7.97952417    4.54868244
     The local contribution  to forces
     atom    1 type  1   force =    -0.00003712   -0.00002300   -0.00006134
     atom    2 type  2   force =    -0.00028167   -0.00028162    0.00021899
     atom    3 type  2   force =    -0.00037656   -0.00018232    0.00022898
     atom    4 type  3   force =     1.53634288    1.03752631    4.06544031
     atom    5 type  3   force =    -1.53634516   -1.03752685   -4.06541400
     atom    6 type  4   force =    -0.83974334   -0.56720808    6.19298945
     atom    7 type  4   force =     0.83984851    0.56726966   -6.19297620
     atom    8 type  5   force =     3.18894306    2.15363391    7.74534227
     atom    9 type  5   force =    -3.18890352   -2.15360739   -7.74525856
     atom   10 type  5   force =    -0.54541733   -0.36837208    2.81613198
     atom   11 type  5   force =     0.54541007    0.36835994   -2.81620461
     atom   12 type  5   force =    -2.98885044   -4.42298312   12.95320259
     atom   13 type  5   force =    -5.21942633   -1.12023340   12.95339804
     atom   14 type  5   force =     2.98877828    4.42301312  -12.95332659
     atom   15 type  5   force =     5.21942787    1.12015047  -12.95351881
     atom   16 type  5   force =    11.31003642    7.63776326    6.06671431
     atom   17 type  5   force =   -11.31007785   -7.63778513   -6.06668022
     The core correction contribution to forces
     atom    1 type  1   force =     0.00000000    0.00000000    0.00000000
     atom    2 type  2   force =    -0.00000009    0.00000001    0.00000005
     atom    3 type  2   force =    -0.00000002   -0.00000012    0.00000004
     atom    4 type  3   force =     0.00000000    0.00000000    0.00000000
     atom    5 type  3   force =     0.00000000    0.00000000    0.00000000
     atom    6 type  4   force =     0.00950767    0.00642369   -0.01183491
     atom    7 type  4   force =    -0.00952265   -0.00643340    0.01182805
     atom    8 type  5   force =     0.01326908    0.00896101    0.00939039
     atom    9 type  5   force =    -0.01327022   -0.00896175   -0.00939103
     atom   10 type  5   force =     0.00473414    0.00319711   -0.01791465
     atom   11 type  5   force =    -0.00473478   -0.00319759    0.01791406
     atom   12 type  5   force =    -0.01451516    0.01026333   -0.00396886
     atom   13 type  5   force =     0.00409668   -0.01729739   -0.00396768
     atom   14 type  5   force =     0.01451411   -0.01026279    0.00396762
     atom   15 type  5   force =    -0.00409669    0.01729636    0.00396643
     atom   16 type  5   force =    -0.00601370   -0.00406192    0.01497425
     atom   17 type  5   force =     0.00601420    0.00406220   -0.01497461
     The Hubbard contrib.    to forces
     atom    1 type  1   force =     0.00000000    0.00000000    0.00000000
     atom    2 type  2   force =     0.00000000    0.00000000    0.00000000
     atom    3 type  2   force =     0.00000000    0.00000000    0.00000000
     atom    4 type  3   force =     0.00000000    0.00000000    0.00000000
     atom    5 type  3   force =     0.00000000    0.00000000    0.00000000
     atom    6 type  4   force =     0.00000000    0.00000000    0.00000000
     atom    7 type  4   force =     0.00000000    0.00000000    0.00000000
     atom    8 type  5   force =     0.00000000    0.00000000    0.00000000
     atom    9 type  5   force =     0.00000000    0.00000000    0.00000000
     atom   10 type  5   force =     0.00000000    0.00000000    0.00000000
     atom   11 type  5   force =     0.00000000    0.00000000    0.00000000
     atom   12 type  5   force =     0.00000000    0.00000000    0.00000000
     atom   13 type  5   force =     0.00000000    0.00000000    0.00000000
     atom   14 type  5   force =     0.00000000    0.00000000    0.00000000
     atom   15 type  5   force =     0.00000000    0.00000000    0.00000000
     atom   16 type  5   force =     0.00000000    0.00000000    0.00000000
     atom   17 type  5   force =     0.00000000    0.00000000    0.00000000
     The SCF correction term to forces
     atom    1 type  1   force =     0.00005105    0.00002336    0.00008201
     atom    2 type  2   force =     0.00032014    0.00032916   -0.00027687
     atom    3 type  2   force =     0.00042720    0.00020939   -0.00025965
     atom    4 type  3   force =    -0.00000685    0.00000603   -0.00001694
     atom    5 type  3   force =     0.00001086   -0.00000351    0.00000214
     atom    6 type  4   force =    -0.00008533    0.00006546   -0.00002266
     atom    7 type  4   force =    -0.00013304   -0.00020060   -0.00003250
     atom    8 type  5   force =    -0.00005201   -0.00008234   -0.00011421
     atom    9 type  5   force =    -0.00002835    0.00003184    0.00000349
     atom   10 type  5   force =    -0.00001495    0.00003469    0.00006996
     atom   11 type  5   force =    -0.00002662   -0.00005929   -0.00001136
     atom   12 type  5   force =     0.00002054    0.00000707    0.00007315
     atom   13 type  5   force =     0.00005661    0.00007768   -0.00005106
     atom   14 type  5   force =     0.00000497   -0.00001945   -0.00001848
     atom   15 type  5   force =    -0.00006226   -0.00003804    0.00010890
     atom   16 type  5   force =    -0.00004236    0.00015874   -0.00007938
     atom   17 type  5   force =     0.00011947   -0.00011078    0.00002453

     Total force =     0.099219     Total SCF correction =     0.000891

     Computing stress (Cartesian axis) and pressure

          total   stress  (Ry/bohr**3)                   (kbar)     P=     -475.58
  -0.00315101  -0.00003411  -0.00007092         -463.53       -5.02      -10.43
  -0.00003411  -0.00312354  -0.00004770           -5.02     -459.49       -7.02
  -0.00007092  -0.00004770  -0.00342414          -10.43       -7.02     -503.71

     kinetic stress (kbar)  20526.37    104.73     54.05
                              104.73  20441.98     36.50
                               54.05     36.50  20029.47

     local   stress (kbar) -20636.72  12693.37   5556.26
                            12693.37 -30860.41   3752.34
                             5556.26   3752.34  -5887.45

     nonloc. stress (kbar)   3388.71     30.72     33.43
                               30.72   3363.99     22.59
                               33.43     22.59   3381.90

     hartree stress (kbar)  22819.37  -5832.61  -2311.07
                            -5832.61  27517.19  -1560.76
                            -2311.07  -1560.76  14989.62

     exc-cor stress (kbar)   -207.98     -0.34     -0.09
                               -0.34   -207.71     -0.06
                               -0.09     -0.06   -197.50

     corecor stress (kbar)  -5893.06     -2.84     -0.43
                               -2.84  -5890.77     -0.29
                               -0.43     -0.29  -5894.91

     ewald   stress (kbar) -20460.23  -6998.04  -3342.58
                            -6998.04 -14823.77  -2257.34
                            -3342.58  -2257.34 -26924.83

     hubbard stress (kbar)      0.00      0.00      0.00
                                0.00      0.00      0.00
                                0.00      0.00      0.00

     DFT-D   stress (kbar)      0.00      0.00      0.00
                                0.00      0.00      0.00
                                0.00      0.00      0.00

     XDM     stress (kbar)      0.00      0.00      0.00
                                0.00      0.00      0.00
                                0.00      0.00      0.00

     dft-nl  stress (kbar)      0.00      0.00      0.00
                                0.00      0.00      0.00
                                0.00      0.00      0.00

     TS-vdW  stress (kbar)      0.00      0.00      0.00
                                0.00      0.00      0.00
                                0.00      0.00      0.00

[...]

                                0.00      0.00      0.00

     Writing all to output data dir calculations/myprefix.save/

     General routines

     Parallel routines

     PAW routines

   This run was terminated on:   3: 1:51   3Mar2023

   JOB DONE.