     Program PWSCF v.7.0 starts on  6Mar2023 at 13:37:47

     R & G space division:  proc/nbgrp/npool/nimage =      32

     Reading input from espresso_4799.pwi
Warning: card &CELL ignored
Warning: card / ignored

     Current dimensions of program PWSCF are:
     Max number of different atomic species (ntypx) = 10
     Max number of k-points (npk) =  40000
     Max angular momentum in pseudopotentials (lmaxx) =  4
     file Fe.pbe-spn-kjpaw_psl.0.2.1.UPF: wavefunction(s)  3D renormalized

     gamma-point specific algorithms are used
     Message from routine setup:
     using ibrav=0 with symmetry is DISCOURAGED, use correct ibrav instead

     Using Slab Decomposition

     bravais-lattice index     =            0
     lattice parameter (alat)  =      12.7729  a.u.
     unit-cell volume          =    1604.1437 (a.u.)^3
     number of atoms/cell      =           17
     number of atomic types    =            3
     number of electrons       =       142.00
     number of Kohn-Sham states=           85
     kinetic-energy cutoff     =      30.0000  Ry
     charge density cutoff     =     240.0000  Ry
     scf convergence threshold =      1.0E-06
     mixing beta               =       0.7000
     number of iterations used =            8  plain     mixing
     Exchange-correlation= PBE
                           (   1   4   3   4   0   0   0)

     celldm(1)=  12.772867  celldm(2)=   0.000000  celldm(3)=   0.000000
     celldm(4)=   0.000000  celldm(5)=   0.000000  celldm(6)=   0.000000

     crystal axes: (cart. coord. in units of alat)
               a(1) = (   1.000000   0.000000   0.000000 )
               a(2) = (  -0.333333   0.942809   0.000000 )
               a(3) = (  -0.333333  -0.471405   0.816497 )

     reciprocal axes: (cart. coord. in units 2 pi/alat)
               b(1) = (  1.000000  0.353553  0.612372 )
               b(2) = (  0.000000  1.060660  0.612372 )
               b(3) = (  0.000000  0.000000  1.224745 )

     PseudoPot. # 1 for Gd read from file:
     /home/pragov/projects/rrg-bengioy-ad/pragov/crystal_structure_design/SSSP/Gd.GGA-PBE-paw-v1.0.UPF
     MD5 check sum: 3e8e0d208da550914ae52eaf991d13de
     Pseudo is Projector augmented-wave + core cor, Zval = 18.0
     Generated using ATOMPAW code
     Shape of augmentation charge: BESSEL
     Using radial grid of 1110 points,  8 beta functions with:
                l(1) =   0
                l(2) =   0
                l(3) =   1
                l(4) =   1
                l(5) =   2
                l(6) =   2
                l(7) =   3
                l(8) =   3
     Q(r) pseudized with 0 coefficients

     PseudoPot. # 2 for Fe read from file:
     /home/pragov/projects/rrg-bengioy-ad/pragov/crystal_structure_design/SSSP/Fe.pbe-spn-kjpaw_psl.0.2.1.UPF
     MD5 check sum: e86618425769142926afa95317d90200
     Pseudo is Projector augmented-wave + core cor, Zval = 16.0
     Generated using "atomic" code by A. Dal Corso  v.5.0.99 svn rev. 10869
     Shape of augmentation charge: PSQ
     Using radial grid of 1191 points,  6 beta functions with:
                l(1) =   0
                l(2) =   0
                l(3) =   1
                l(4) =   1
                l(5) =   2
                l(6) =   2
     Q(r) pseudized with 0 coefficients

     PseudoPot. # 3 for P  read from file:
     /home/pragov/projects/rrg-bengioy-ad/pragov/crystal_structure_design/SSSP/P.pbe-n-rrkjus_psl.1.0.0.UPF
     MD5 check sum: 8b930f418f0a4573dca56cd030ffe088
     Pseudo is Ultrasoft + core correction, Zval =  5.0
     Generated using "atomic" code by A. Dal Corso  v.5.1
     Using radial grid of 1147 points,  6 beta functions with:
                l(1) =   0
                l(2) =   0
                l(3) =   1
                l(4) =   1
                l(5) =   2
                l(6) =   2
     Q(r) pseudized with 0 coefficients

     atomic species   valence    mass     pseudopotential
        Gd            18.00   157.25000     Gd( 1.00)
        Fe            16.00    55.84500     Fe( 1.00)
        P              5.00    30.97376     P ( 1.00)

      2 Sym. Ops., with inversion, found

                                    s                        frac. trans.

      isym =  1     identity

 cryst.   s( 1) = (     1          0          0      )
                  (     0          1          0      )
                  (     0          0          1      )

 cart.    s( 1) = (  1.0000000  0.0000000 -0.0000000 )
                  (  0.0000000  1.0000000 -0.0000000 )
                  (  0.0000000  0.0000000  1.0000000 )

      isym =  2     inversion

 cryst.   s( 2) = (    -1          0          0      )
                  (     0         -1          0      )
                  (     0          0         -1      )

 cart.    s( 2) = ( -1.0000000 -0.0000000  0.0000000 )
                  (  0.0000000 -1.0000000  0.0000000 )
                  (  0.0000000  0.0000000 -1.0000000 )

   Cartesian axes

     site n.     atom                  positions (alat units)
         1           Gd  tau(   1) = (   0.0000000   0.0000000   0.0000000  )
         2           Fe  tau(   2) = (   0.1666667   0.2357023   0.4082483  )
         3           Fe  tau(   3) = (   0.5000000   0.0000000   0.0000000  )
         4           Fe  tau(   4) = (  -0.1666667   0.4714045   0.0000000  )
         5           Fe  tau(   5) = (   0.5000000   0.7071068   0.4082483  )
         6           P   tau(   6) = (   0.4678713   0.3762718   0.4063205  )
         7           P   tau(   7) = (  -0.1345380   0.0951327   0.4101760  )
         8           P   tau(   8) = (  -0.3317597   0.2345888   0.6517227  )
         9           P   tau(   9) = (   0.6650930   0.2368157   0.1647739  )
        10           P   tau(  10) = (   0.1987953   0.0686153   0.6937959  )
        11           P   tau(  11) = (   0.1345380   0.4027892   0.1227007  )
        12           P   tau(  12) = (   0.3317590   0.6817033   0.1227007  )
        13           P   tau(  13) = (   0.0015743  -0.2102987   0.6937959  )
        14           P   tau(  14) = (  -0.0015740   0.4956960   0.5290212  )
        15           P   tau(  15) = (   0.3349073  -0.0242915   0.2874754  )
        16           P   tau(  16) = (  -0.1987963   0.6351525   0.2874754  )
        17           P   tau(  17) = (   0.5321297  -0.1637480   0.5290212  )

   Crystallographic axes

     site n.     atom                  positions (cryst. coord.)
         1           Gd  tau(   1) = (  0.0000000  0.0000000  0.0000000  )
         2           Fe  tau(   2) = (  0.5000000  0.5000000  0.5000000  )
         3           Fe  tau(   3) = (  0.5000000  0.0000000  0.0000000  )
         4           Fe  tau(   4) = ( -0.0000000  0.5000000  0.0000000  )
         5           Fe  tau(   5) = (  1.0000000  1.0000000  0.5000000  )
         6           P   tau(   6) = (  0.8497230  0.6479160  0.4976390  )
         7           P   tau(   7) = (  0.1502770  0.3520840  0.5023610  )
         8           P   tau(   8) = (  0.1502770  0.6479160  0.7981940  )
         9           P   tau(   9) = (  0.8497230  0.3520840  0.2018060  )
        10           P   tau(  10) = (  0.6479160  0.4976390  0.8497230  )
        11           P   tau(  11) = (  0.3520840  0.5023610  0.1502770  )
        12           P   tau(  12) = (  0.6479160  0.7981940  0.1502770  )
        13           P   tau(  13) = (  0.3520840  0.2018060  0.8497230  )
        14           P   tau(  14) = (  0.4976390  0.8497230  0.6479160  )
        15           P   tau(  15) = (  0.5023610  0.1502770  0.3520840  )
        16           P   tau(  16) = (  0.2018060  0.8497230  0.3520840  )
        17           P   tau(  17) = (  0.7981940  0.1502770  0.6479160  )

     number of k points=     1  Methfessel-Paxton smearing, width (Ry)=  0.0010
                       cart. coord. in units 2pi/alat
        k(    1) = (   0.0000000   0.0000000   0.0000000), wk =   2.0000000

                       cryst. coord.
        k(    1) = (   0.0000000   0.0000000   0.0000000), wk =   2.0000000

     Check: negative core charge=   -0.000099

     Initial potential from superposition of free atoms

     starting charge     141.9912, renormalised to     142.0000
     Starting wfcs are  132 randomized atomic wfcs
     Checking if some PAW data can be deallocated...

     Self-consistent Calculation

     iteration #  1     ecut=    30.00 Ry     beta= 0.70
     Davidson diagonalization with overlap

     ethr =  1.00E-02,  avg # of iterations =  3.0

     total energy              =   -2134.09331064 Ry
     estimated scf accuracy    <      29.54665748 Ry

[...]

     negative rho (up, down):  7.526E-05 0.000E+00

[...]

     negative rho (up, down):  4.873E-05 0.000E+00

[...]

     total energy              =   -2167.77441255 Ry
     estimated scf accuracy    <       0.00001731 Ry

     iteration # 82     ecut=    30.00 Ry     beta= 0.70
     Davidson diagonalization with overlap

     ethr =  1.89E-09,  avg # of iterations =  2.0

     End of self-consistent calculation

          k = 0.0000 0.0000 0.0000 (  2209 PWs)   bands (ev):

   -74.2612 -74.1897 -74.0722 -74.0577 -39.9676 -39.9442 -39.9387 -39.9123
   -39.8912 -39.8598 -39.6900 -39.6322 -39.6016 -39.5596 -39.4468 -39.2614
   -29.1886  -7.5036  -7.4230  -7.3930  -2.0195   0.3010   0.3051   2.0251
     2.0282   2.0315   2.6537   2.6724   2.6807   3.6933   3.7044   3.7132
     6.1401   6.6297   6.6305   8.2608   8.5599   8.5703   8.6046   8.7723
     8.8157   8.8279   9.3002   9.3212   9.3289   9.3522   9.3873  10.3217
    10.3247  10.3270  10.7815  10.7939  10.8144  11.1550  11.1731  11.1945
    11.2454  11.2508  11.2534  11.5665  11.5713  11.5872  11.9593  11.9746
    12.5026  12.7803  12.8073  12.9388  13.0435  13.0646  13.0790  13.4079
    13.4382  13.4615  13.4958  13.5025  14.5476  14.6121  14.6268  14.7046
    15.0287  15.0766  15.0783  15.0952  15.1116

     occupation numbers
     1.0000   1.0000   1.0000   1.0000   1.0000   1.0000   1.0000   1.0000
     1.0000   1.0000   1.0000   1.0000   1.0000   1.0000   1.0000   1.0000
     1.0000   1.0000   1.0000   1.0000   1.0000   1.0000   1.0000   1.0000
     1.0000   1.0000   1.0000   1.0000   1.0000   1.0000   1.0000   1.0000
     1.0000   1.0000   1.0000   1.0000   1.0000   1.0000   1.0000   1.0000
     1.0000   1.0000   1.0000   1.0000   1.0000   1.0000   1.0000   1.0000
     1.0000   1.0000   1.0000   1.0000   1.0000   1.0000   1.0000   1.0000
     1.0000   1.0000   1.0000   1.0000   1.0000   1.0000   1.0000   1.0000
     1.0000   1.0000   1.0000   1.0000   1.0000   1.0000   1.0000  -0.0000
    -0.0000  -0.0000  -0.0000  -0.0000  -0.0000  -0.0000  -0.0000  -0.0000
    -0.0000  -0.0000  -0.0000  -0.0000  -0.0000

     the Fermi energy is    13.1466 ev

!    total energy              =   -2167.77442581 Ry
     estimated scf accuracy    <       0.00000084 Ry
     smearing contrib. (-TS)   =       0.00000000 Ry
     internal energy E=F+TS    =   -2167.77442581 Ry

     The total energy is F=E-TS. E is the sum of the following terms:
     one-electron contribution =    -794.81670773 Ry
     hartree contribution      =     482.34206309 Ry
     xc contribution           =    -215.13326957 Ry
     ewald contribution        =    -870.07178336 Ry
     one-center paw contrib.   =    -770.09472824 Ry
      -> PAW hartree energy AE =     186.57809858 Ry
      -> PAW hartree energy PS =    -176.87666561 Ry
      -> PAW xc energy AE      =    -497.05760630 Ry
      -> PAW xc energy PS      =      21.54795978 Ry
      -> total E_H with PAW    =     492.04349606 Ry
      -> total E_XC with PAW   =    -690.64291610 Ry

     convergence has been achieved in  82 iterations

     Forces acting on atoms (cartesian axes, Ry/au):

     atom    1 type  1   force =     0.00000000    0.00000000    0.00000000
     atom    2 type  2   force =     0.00000000    0.00000000    0.00000000
     atom    3 type  2   force =     0.00000000    0.00000000    0.00000000
     atom    4 type  2   force =     0.00000000    0.00000000    0.00000000
     atom    5 type  2   force =     0.00000000    0.00000000    0.00000000
     atom    6 type  3   force =     0.02199539   -0.01434579   -0.02241226
     atom    7 type  3   force =    -0.02199539    0.01434579    0.02241226
     atom    8 type  3   force =     0.01673595   -0.01532834   -0.03284384
     atom    9 type  3   force =    -0.01673595    0.01532834    0.03284384
     atom   10 type  3   force =    -0.02903979   -0.03028208    0.00060176
     atom   11 type  3   force =     0.02903979    0.03028208   -0.00060176
     atom   12 type  3   force =    -0.01795536   -0.03266025   -0.00011836
     atom   13 type  3   force =     0.01795536    0.03266025    0.00011836
     atom   14 type  3   force =    -0.01825158    0.01974748   -0.02645482
     atom   15 type  3   force =     0.01825158   -0.01974748    0.02645482
     atom   16 type  3   force =     0.02356410   -0.01142650    0.03092286
     atom   17 type  3   force =    -0.02356410    0.01142650   -0.03092286
     The non-local contrib.  to forces
     atom    1 type  1   force =     0.00000000    0.00000000    0.00000000
     atom    2 type  2   force =     0.00000000    0.00000000    0.00000000
     atom    3 type  2   force =     0.00000000    0.00000000    0.00000000
     atom    4 type  2   force =     0.00000000    0.00000000    0.00000000
     atom    5 type  2   force =     0.00000000    0.00000000    0.00000000
     atom    6 type  3   force =     0.16307628   -0.10663979   -0.00621042
     atom    7 type  3   force =    -0.16307628    0.10663979    0.00621042
     atom    8 type  3   force =     0.00659741   -0.00756646   -0.19653183
     atom    9 type  3   force =    -0.00659741    0.00756646    0.19653183
     atom   10 type  3   force =    -0.15976225   -0.06001693    0.09046409
     atom   11 type  3   force =     0.15976225    0.06001693   -0.09046409
     atom   12 type  3   force =    -0.00690308   -0.17348511   -0.09442966
     atom   13 type  3   force =     0.00690308    0.17348511    0.09442966
     atom   14 type  3   force =    -0.00855237    0.16874045   -0.10307585
     atom   15 type  3   force =     0.00855237   -0.16874045    0.10307585
     atom   16 type  3   force =     0.16342723    0.05083905    0.09861076
     atom   17 type  3   force =    -0.16342723   -0.05083905   -0.09861076
     The ionic contribution  to forces
     atom    1 type  1   force =    -0.00000000    0.00000000    0.00000000
     atom    2 type  2   force =    -0.00000000   -0.00000000   -0.00000000
     atom    3 type  2   force =     0.00000000    0.00000000    0.00000000
     atom    4 type  2   force =     0.00000000   -0.00000000   -0.00000000
     atom    5 type  2   force =     0.00000000    0.00000000   -0.00000000
     atom    6 type  3   force =     3.52328699   -2.49135089   -1.72632560
     atom    7 type  3   force =    -3.52328699    2.49135089    1.72632560
     atom    8 type  3   force =     1.40956780   -0.99666069   -4.31514711
     atom    9 type  3   force =    -1.40956780    0.99666069    4.31514711
     atom   10 type  3   force =    -3.52329714   -2.74071009    1.29439792
     atom   11 type  3   force =     3.52329714    2.74071009   -1.29439793
     atom   12 type  3   force =    -1.40951664   -4.23539354   -1.29437742
     atom   13 type  3   force =     1.40951664    4.23539354    1.29437742
     atom   14 type  3   force =    -1.40953387    3.23866470   -3.02073596
     atom   15 type  3   force =     1.40953387   -3.23866470    3.02073596
     atom   16 type  3   force =     3.52332844   -0.24938771    3.02070703
     atom   17 type  3   force =    -3.52332845    0.24938771   -3.02070703
     The local contribution  to forces
     atom    1 type  1   force =    -0.00021258    0.00012312    0.00030765
     atom    2 type  2   force =    -0.00004789   -0.00003387   -0.00015835
     atom    3 type  2   force =     0.00010070    0.00006801    0.00017609
     atom    4 type  2   force =    -0.00000662   -0.00012532    0.00011423
     atom    5 type  2   force =    -0.00003997    0.00010126   -0.00012840
     atom    6 type  3   force =    -3.65586494    2.57779315    1.70953214
     atom    7 type  3   force =     3.65585453   -2.57781381   -1.70966148
     atom    8 type  3   force =    -1.39873986    0.98869139    4.46903939
     atom    9 type  3   force =     1.39877049   -0.98873294   -4.46903596
     atom   10 type  3   force =     3.64632164    2.76739356   -1.37969979
     atom   11 type  3   force =    -3.64633416   -2.76743059    1.37973910
     atom   12 type  3   force =     1.39775021    4.36756363    1.38373197
     atom   13 type  3   force =    -1.39773899   -4.36752877   -1.38367558
     atom   14 type  3   force =     1.39923158   -3.37953380    3.09216864
     atom   15 type  3   force =    -1.39921043    3.37955245   -3.09219219
     atom   16 type  3   force =    -3.65496136    0.18990509   -3.08348571
     atom   17 type  3   force =     3.65496567   -0.18990332    3.08345905
     The core correction contribution to forces
     atom    1 type  1   force =    -0.00000001    0.00000000    0.00000001
     atom    2 type  2   force =    -0.00000000   -0.00000038   -0.00000059
     atom    3 type  2   force =     0.00000030    0.00000036    0.00000071
     atom    4 type  2   force =    -0.00000003   -0.00000051    0.00000030
     atom    5 type  2   force =    -0.00000037    0.00000024   -0.00000042
     atom    6 type  3   force =    -0.00868535    0.00565217    0.00046083
     atom    7 type  3   force =     0.00868505   -0.00565237   -0.00046196
     atom    8 type  3   force =    -0.00061915    0.00012976    0.00974788
     atom    9 type  3   force =     0.00061931   -0.00012987   -0.00974763
     atom   10 type  3   force =     0.00767482    0.00317777   -0.00468088
     atom   11 type  3   force =    -0.00767492   -0.00317832    0.00468123
     atom   12 type  3   force =     0.00071246    0.00860629    0.00487098
     atom   13 type  3   force =    -0.00071225   -0.00860581   -0.00487037
     atom   14 type  3   force =     0.00066496   -0.00845462    0.00514349
     atom   15 type  3   force =    -0.00066455    0.00845486   -0.00514375
     atom   16 type  3   force =    -0.00828671   -0.00289712   -0.00501473
     atom   17 type  3   force =     0.00828675    0.00289689    0.00501475
     The Hubbard contrib.    to forces
     atom    1 type  1   force =     0.00000000    0.00000000    0.00000000
     atom    2 type  2   force =     0.00000000    0.00000000    0.00000000
     atom    3 type  2   force =     0.00000000    0.00000000    0.00000000
     atom    4 type  2   force =     0.00000000    0.00000000    0.00000000
     atom    5 type  2   force =     0.00000000    0.00000000    0.00000000
     atom    6 type  3   force =     0.00000000    0.00000000    0.00000000
     atom    7 type  3   force =     0.00000000    0.00000000    0.00000000
     atom    8 type  3   force =     0.00000000    0.00000000    0.00000000
     atom    9 type  3   force =     0.00000000    0.00000000    0.00000000
     atom   10 type  3   force =     0.00000000    0.00000000    0.00000000
     atom   11 type  3   force =     0.00000000    0.00000000    0.00000000
     atom   12 type  3   force =     0.00000000    0.00000000    0.00000000
     atom   13 type  3   force =     0.00000000    0.00000000    0.00000000
     atom   14 type  3   force =     0.00000000    0.00000000    0.00000000
     atom   15 type  3   force =     0.00000000    0.00000000    0.00000000
     atom   16 type  3   force =     0.00000000    0.00000000    0.00000000
     atom   17 type  3   force =     0.00000000    0.00000000    0.00000000
     The SCF correction term to forces
     atom    1 type  1   force =     0.00018402   -0.00011705   -0.00027032
     atom    2 type  2   force =     0.00005266    0.00004628    0.00018631
     atom    3 type  2   force =    -0.00012042   -0.00007992   -0.00021212
     atom    4 type  2   force =     0.00000894    0.00015016   -0.00013835
     atom    5 type  2   force =     0.00004873   -0.00012196    0.00015836
     atom    6 type  3   force =     0.00017973    0.00019724    0.00012010
     atom    7 type  3   force =    -0.00017440   -0.00018104   -0.00001102
     atom    8 type  3   force =    -0.00006955    0.00007624    0.00004936
     atom    9 type  3   force =     0.00004016   -0.00003738   -0.00004998
     atom   10 type  3   force =     0.00002270   -0.00013167    0.00012432
     atom   11 type  3   force =    -0.00001095    0.00015872   -0.00015618
     atom   12 type  3   force =     0.00000335    0.00005244    0.00009107
     atom   13 type  3   force =    -0.00001146   -0.00007986   -0.00013746
     atom   14 type  3   force =    -0.00005927    0.00033274    0.00004254
     atom   15 type  3   force =     0.00004290   -0.00034765   -0.00002339
     atom   16 type  3   force =     0.00005766    0.00011378    0.00010507
     atom   17 type  3   force =    -0.00005968   -0.00011614   -0.00007931

     Total force =     0.134167     Total SCF correction =     0.000942

     Computing stress (Cartesian axis) and pressure

          total   stress  (Ry/bohr**3)                   (kbar)     P=     -179.65
  -0.00113971   0.00003091  -0.00006934         -167.66        4.55      -10.20
   0.00003091  -0.00134739  -0.00001417            4.55     -198.21       -2.08
  -0.00006934  -0.00001417  -0.00117663          -10.20       -2.08     -173.09

     kinetic stress (kbar)  17480.49     14.63    -17.52
                               14.63  17432.95     -0.25
                              -17.52     -0.25  17469.76

     local   stress (kbar)   4644.25     -0.16     -1.16
                               -0.16   4644.32      2.85
                               -1.16      2.85   4657.72

     nonloc. stress (kbar)  -4738.96     -9.19      7.21
                               -9.19  -4727.32     -4.93
                                7.21     -4.93  -4744.71

     hartree stress (kbar)  14743.60     -0.24      0.97
                               -0.24  14747.61     -0.02
                                0.97     -0.02  14741.09

     exc-cor stress (kbar)  -1399.06     -0.08      0.05
                               -0.08  -1398.90     -0.01
                                0.05     -0.01  -1399.08

     corecor stress (kbar)  -4301.88     -0.40      0.26
                               -0.40  -4300.75      0.31
                                0.26      0.31  -4301.72

     ewald   stress (kbar) -26596.10     -0.01     -0.02
                               -0.01 -26596.11     -0.03
                               -0.02     -0.03 -26596.14

     hubbard stress (kbar)      0.00      0.00      0.00
                                0.00      0.00      0.00
                                0.00      0.00      0.00

     DFT-D   stress (kbar)      0.00      0.00      0.00
                                0.00      0.00      0.00
                                0.00      0.00      0.00

     XDM     stress (kbar)      0.00      0.00      0.00
                                0.00      0.00      0.00
                                0.00      0.00      0.00

     dft-nl  stress (kbar)      0.00      0.00      0.00
                                0.00      0.00      0.00
                                0.00      0.00      0.00

     TS-vdW  stress (kbar)      0.00      0.00      0.00
                                0.00      0.00      0.00
                                0.00      0.00      0.00

[...]

                                0.00      0.00      0.00

     Writing all to output data dir calculations/myprefix.save/

     General routines

     Parallel routines

     PAW routines

   This run was terminated on:  13:38:27   6Mar2023

   JOB DONE.