     Program PWSCF v.7.0 starts on  6Mar2023 at 12:39:50

     R & G space division:  proc/nbgrp/npool/nimage =      32

     Reading input from espresso_4639.pwi
Warning: card &CELL ignored
Warning: card / ignored

     Current dimensions of program PWSCF are:
     Max number of different atomic species (ntypx) = 10
     Max number of k-points (npk) =  40000
     Max angular momentum in pseudopotentials (lmaxx) =  4

     gamma-point specific algorithms are used
     Message from routine setup:
     using ibrav=0 with symmetry is DISCOURAGED, use correct ibrav instead

     Using Slab Decomposition

     bravais-lattice index     =            0
     lattice parameter (alat)  =      11.7258  a.u.
     unit-cell volume          =    2028.1268 (a.u.)^3
     number of atoms/cell      =           16
     number of atomic types    =            4
     number of electrons       =       172.00
     number of Kohn-Sham states=          103
     kinetic-energy cutoff     =      30.0000  Ry
     charge density cutoff     =     240.0000  Ry
     scf convergence threshold =      1.0E-06
     mixing beta               =       0.7000
     number of iterations used =            8  plain     mixing
     Exchange-correlation=  SLA  PW   PBX  PBC
                           (   1   4   3   4   0   0   0)

     celldm(1)=  11.725839  celldm(2)=   0.000000  celldm(3)=   0.000000
     celldm(4)=   0.000000  celldm(5)=   0.000000  celldm(6)=   0.000000

     crystal axes: (cart. coord. in units of alat)
               a(1) = (   1.000000   0.000000   0.000000 )
               a(2) = (   0.000000   1.018807   0.000000 )
               a(3) = (   0.000000   0.000000   1.234728 )

     reciprocal axes: (cart. coord. in units 2 pi/alat)
               b(1) = (  1.000000  0.000000  0.000000 )
               b(2) = (  0.000000  0.981540  0.000000 )
               b(3) = (  0.000000  0.000000  0.809895 )

     PseudoPot. # 1 for Cu read from file:
     /home/pragov/projects/rrg-bengioy-ad/pragov/crystal_structure_design/SSSP/Cu_pbe_v1.2.uspp.F.UPF
     MD5 check sum: 6e991ff952a84172a2a52a1c1e996048
     Pseudo is Ultrasoft + core correction, Zval = 19.0
     Generated by new atomic code, or converted to UPF format
     Using radial grid of  867 points,  6 beta functions with:
                l(1) =   0
                l(2) =   0
                l(3) =   1
                l(4) =   1
                l(5) =   2
                l(6) =   2
     Q(r) pseudized with  8 coefficients,  rinner =    1.150   1.150   1.150
                                                       1.150   1.150

     PseudoPot. # 2 for Ag read from file:
     /home/pragov/projects/rrg-bengioy-ad/pragov/crystal_structure_design/SSSP/Ag_ONCV_PBE-1.0.oncvpsp.upf
     MD5 check sum: 94f47bd0669c641108e45594df92fabc
     Pseudo is Norm-conserving, Zval = 19.0
     Generated using ONCVPSP code by D. R. Hamann
     Using radial grid of 1398 points,  6 beta functions with:
                l(1) =   0
                l(2) =   0
                l(3) =   1
                l(4) =   1
                l(5) =   2
                l(6) =   2

     PseudoPot. # 3 for P  read from file:
     /home/pragov/projects/rrg-bengioy-ad/pragov/crystal_structure_design/SSSP/P.pbe-n-rrkjus_psl.1.0.0.UPF
     MD5 check sum: 8b930f418f0a4573dca56cd030ffe088
     Pseudo is Ultrasoft + core correction, Zval =  5.0
     Generated using "atomic" code by A. Dal Corso  v.5.1
     Using radial grid of 1147 points,  6 beta functions with:
                l(1) =   0
                l(2) =   0
                l(3) =   1
                l(4) =   1
                l(5) =   2
                l(6) =   2
     Q(r) pseudized with 0 coefficients

     PseudoPot. # 4 for S  read from file:
     /home/pragov/projects/rrg-bengioy-ad/pragov/crystal_structure_design/SSSP/s_pbe_v1.4.uspp.F.UPF
     MD5 check sum: 88d86576ff6df21479756cfb9bdac1df
     Pseudo is Ultrasoft + core correction, Zval =  6.0
     Generated by new atomic code, or converted to UPF format
     Using radial grid of  907 points,  6 beta functions with:
                l(1) =   0
                l(2) =   0
                l(3) =   1
                l(4) =   1
                l(5) =   2
                l(6) =   2
     Q(r) pseudized with  8 coefficients,  rinner =    1.300   1.300   1.300
                                                       1.300   1.300

     atomic species   valence    mass     pseudopotential
        Cu            19.00    63.54600     Cu( 1.00)
        Ag            19.00   107.86820     Ag( 1.00)
        P              5.00    30.97376     P ( 1.00)
        S              6.00    32.06000     S ( 1.00)

      4 Sym. Ops. (no inversion) found ( 2 have fractional translation)

                                    s                        frac. trans.

      isym =  1     identity

 cryst.   s( 1) = (     1          0          0      )
                  (     0          1          0      )
                  (     0          0          1      )

 cart.    s( 1) = (  1.0000000  0.0000000  0.0000000 )
                  (  0.0000000  1.0000000  0.0000000 )
                  (  0.0000000  0.0000000  1.0000000 )

      isym =  2     180 deg rotation - cart. axis [1,0,0]

 cryst.   s( 2) = (     1          0          0      )    f =( -0.5000000 )
                  (     0         -1          0      )       (  0.0000000 )
                  (     0          0         -1      )       (  0.5000000 )

 cart.    s( 2) = (  1.0000000  0.0000000  0.0000000 )    f =( -0.5000000 )
                  (  0.0000000 -1.0000000  0.0000000 )       (  0.0000000 )
                  (  0.0000000  0.0000000 -1.0000000 )       (  0.6173638 )

      isym =  3     inv. 180 deg rotation - cart. axis [0,0,1]

 cryst.   s( 3) = (     1          0          0      )
                  (     0          1          0      )
                  (     0          0         -1      )

 cart.    s( 3) = (  1.0000000  0.0000000  0.0000000 )
                  (  0.0000000  1.0000000  0.0000000 )
                  (  0.0000000  0.0000000 -1.0000000 )

      isym =  4     inv. 180 deg rotation - cart. axis [0,1,0]

 cryst.   s( 4) = (     1          0          0      )    f =( -0.5000000 )
                  (     0         -1          0      )       (  0.0000000 )
                  (     0          0          1      )       (  0.5000000 )

 cart.    s( 4) = (  1.0000000  0.0000000  0.0000000 )    f =( -0.5000000 )
                  (  0.0000000 -1.0000000  0.0000000 )       (  0.0000000 )
                  (  0.0000000  0.0000000  1.0000000 )       (  0.6173638 )

   Cartesian axes

     site n.     atom                  positions (alat units)
         1           Cu  tau(   1) = (   0.0097410   0.1887208   0.9292251  )
         2           Cu  tau(   2) = (   0.0097410   0.1887208   0.3055025  )
         3           Cu  tau(   3) = (   0.5097410   0.8300866   0.9228663  )
         4           Cu  tau(   4) = (   0.5097410   0.8300866   0.3118613  )
         5           Ag  tau(   5) = (   0.0046190   0.6593752   0.6173638  )
         6           Ag  tau(   6) = (   0.5046190   0.3594322   0.0000000  )
         7           P   tau(   7) = (   0.5005970   0.3184222   0.6173638  )
         8           P   tau(   8) = (   0.0005970   0.7003853   0.0000000  )
         9           S   tau(   9) = (   0.3780820   0.1630499   0.8905609  )
        10           S   tau(  10) = (   0.3780820   0.1630499   0.3441667  )
        11           S   tau(  11) = (   0.8780820   0.8557575   0.9615306  )
        12           S   tau(  12) = (   0.8780820   0.8557575   0.2731971  )
        13           S   tau(  13) = (   0.8365420   0.2855605   0.6173638  )
        14           S   tau(  14) = (   0.3365420   0.7332469   0.0000000  )
        15           S   tau(  15) = (   0.4111660   0.6437172   0.6173638  )
        16           S   tau(  16) = (   0.9111660   0.3750903   0.0000000  )

   Crystallographic axes

     site n.     atom                  positions (cryst. coord.)
         1           Cu  tau(   1) = (  0.0097410  0.1852370  0.7525750  )
         2           Cu  tau(   2) = (  0.0097410  0.1852370  0.2474250  )
         3           Cu  tau(   3) = (  0.5097410  0.8147630  0.7474250  )
         4           Cu  tau(   4) = (  0.5097410  0.8147630  0.2525750  )
         5           Ag  tau(   5) = (  0.0046190  0.6472030  0.5000000  )
         6           Ag  tau(   6) = (  0.5046190  0.3527970  0.0000000  )
         7           P   tau(   7) = (  0.5005970  0.3125440  0.5000000  )
         8           P   tau(   8) = (  0.0005970  0.6874560  0.0000000  )
         9           S   tau(   9) = (  0.3780820  0.1600400  0.7212610  )
        10           S   tau(  10) = (  0.3780820  0.1600400  0.2787390  )
        11           S   tau(  11) = (  0.8780820  0.8399600  0.7787390  )
        12           S   tau(  12) = (  0.8780820  0.8399600  0.2212610  )
        13           S   tau(  13) = (  0.8365420  0.2802890  0.5000000  )
        14           S   tau(  14) = (  0.3365420  0.7197110  0.0000000  )
        15           S   tau(  15) = (  0.4111660  0.6318340  0.5000000  )
        16           S   tau(  16) = (  0.9111660  0.3681660  0.0000000  )

     number of k points=     1  Methfessel-Paxton smearing, width (Ry)=  0.0010
                       cart. coord. in units 2pi/alat
        k(    1) = (   0.0000000   0.0000000   0.0000000), wk =   2.0000000

                       cryst. coord.
        k(    1) = (   0.0000000   0.0000000   0.0000000), wk =   2.0000000

     Initial potential from superposition of free atoms

     starting charge     167.9988, renormalised to     172.0000
     Starting wfcs are  112 randomized atomic wfcs

     Self-consistent Calculation

     iteration #  1     ecut=    30.00 Ry     beta= 0.70
     Davidson diagonalization with overlap

     ethr =  1.00E-02,  avg # of iterations =  4.0

     total energy              =   -2407.62846356 Ry
     estimated scf accuracy    <       3.98685072 Ry

[...]

     c_bands:  1 eigenvalues not converged
     ethr =  1.66E-05,  avg # of iterations = 20.0

[...]

     total energy              =   -2410.05258359 Ry
     estimated scf accuracy    <       0.00000723 Ry

     iteration # 15     ecut=    30.00 Ry     beta= 0.70
     Davidson diagonalization with overlap

     ethr =  4.21E-09,  avg # of iterations =  2.0

     End of self-consistent calculation

          k = 0.0000 0.0000 0.0000 (  2827 PWs)   bands (ev):

  -103.2128-103.2117-103.2108-103.2096 -83.8754 -83.8750 -60.6747 -60.6738
   -60.6724 -60.6703 -60.6025 -60.6014 -60.5995 -60.5988 -60.5576 -60.5564
   -60.5536 -60.5516 -46.9626 -46.9622 -46.9323 -46.9312 -46.9154 -46.9143
    -7.8265  -7.5669  -5.2951  -5.1971  -5.1245  -5.1127  -4.9257  -4.8886
    -1.8108  -0.9984   1.3481   1.8030   1.8152   2.1326   2.2634   2.3105
     3.4285   3.4690   3.6512   3.9238   3.9598   4.0287   4.0486   4.1034
     4.1822   4.2393   4.2521   4.3873   4.4343   4.6250   4.6689   4.8449
     5.0635   5.1474   5.3160   5.3964   5.7106   5.7208   5.8982   6.0294
     6.2063   6.3549   6.5106   6.6253   6.6520   6.6541   6.7447   6.7499
     6.8027   6.8560   6.8731   6.9410   6.9493   7.0867   7.3864   7.4944
     7.7089   8.0802   8.3029   8.3306   8.3480   8.4362   9.5104  10.1524
    10.5788  10.6145  10.9577  11.1236  11.3002  11.8899  12.0281  12.1387
    12.3981  13.0782  13.4855  13.6109  14.1062  14.4309  14.5505

     occupation numbers
     1.0000   1.0000   1.0000   1.0000   1.0000   1.0000   1.0000   1.0000
     1.0000   1.0000   1.0000   1.0000   1.0000   1.0000   1.0000   1.0000
     1.0000   1.0000   1.0000   1.0000   1.0000   1.0000   1.0000   1.0000
     1.0000   1.0000   1.0000   1.0000   1.0000   1.0000   1.0000   1.0000
     1.0000   1.0000   1.0000   1.0000   1.0000   1.0000   1.0000   1.0000
     1.0000   1.0000   1.0000   1.0000   1.0000   1.0000   1.0000   1.0000
     1.0000   1.0000   1.0000   1.0000   1.0000   1.0000   1.0000   1.0000
     1.0000   1.0000   1.0000   1.0000   1.0000   1.0000   1.0000   1.0000
     1.0000   1.0000   1.0000   1.0000   1.0000   1.0000   1.0000   1.0000
     1.0000   1.0000   1.0000   1.0000   1.0000   1.0000   1.0000   1.0000
     1.0000   1.0000   1.0000   1.0000   1.0000   1.0000  -0.0000  -0.0000
    -0.0000  -0.0000  -0.0000  -0.0000  -0.0000  -0.0000  -0.0000  -0.0000
    -0.0000  -0.0000  -0.0000  -0.0000  -0.0000  -0.0000  -0.0000

     the Fermi energy is     9.1536 ev

!    total energy              =   -2410.05258393 Ry
     estimated scf accuracy    <       0.00000072 Ry
     smearing contrib. (-TS)   =       0.00000000 Ry
     internal energy E=F+TS    =   -2410.05258393 Ry

     The total energy is F=E-TS. E is the sum of the following terms:
     one-electron contribution =   -1953.69816025 Ry
     hartree contribution      =    1042.56276856 Ry
     xc contribution           =    -286.20956281 Ry
     ewald contribution        =   -1212.70762943 Ry

     convergence has been achieved in  15 iterations

     Forces acting on atoms (cartesian axes, Ry/au):

     atom    1 type  1   force =     0.00163396   -0.00370155    0.00481991
     atom    2 type  1   force =     0.00163396   -0.00370155   -0.00481991
     atom    3 type  1   force =     0.00163396    0.00370155   -0.00481991
     atom    4 type  1   force =     0.00163396    0.00370155    0.00481991
     atom    5 type  2   force =    -0.00554736   -0.00880245    0.00000000
     atom    6 type  2   force =    -0.00554736    0.00880245    0.00000000
     atom    7 type  3   force =     0.03888594    0.03642538   -0.00000000
     atom    8 type  3   force =     0.03888594   -0.03642538    0.00000000
     atom    9 type  4   force =     0.00324863    0.00031914    0.01082128
     atom   10 type  4   force =     0.00324863    0.00031914   -0.01082128
     atom   11 type  4   force =     0.00324863   -0.00031914   -0.01082128
     atom   12 type  4   force =     0.00324863   -0.00031914    0.01082128
     atom   13 type  4   force =    -0.04496855    0.00775613    0.00000000
     atom   14 type  4   force =    -0.04496855   -0.00775613    0.00000000
     atom   15 type  4   force =     0.00186480   -0.03598588   -0.00000000
     atom   16 type  4   force =     0.00186480    0.03598588    0.00000000
     The non-local contrib.  to forces
     atom    1 type  1   force =    -0.00853153    0.08308445    0.03927395
     atom    2 type  1   force =    -0.00853153    0.08308445   -0.03927395
     atom    3 type  1   force =    -0.00853153   -0.08308445   -0.03927395
     atom    4 type  1   force =    -0.00853153   -0.08308445    0.03927395
     atom    5 type  2   force =    -0.02198654    0.09498114    0.00000000
     atom    6 type  2   force =    -0.02198654   -0.09498114    0.00000000
     atom    7 type  3   force =    -0.01644019   -0.00442250   -0.00000000
     atom    8 type  3   force =    -0.01644019    0.00442250    0.00000000
     atom    9 type  4   force =     0.05381022    0.13130992   -0.16212664
     atom   10 type  4   force =     0.05381022    0.13130992    0.16212664
     atom   11 type  4   force =     0.05381022   -0.13130992    0.16212664
     atom   12 type  4   force =     0.05381022   -0.13130992   -0.16212664
     atom   13 type  4   force =    -0.18377958    0.08711623    0.00000000
     atom   14 type  4   force =    -0.18377958   -0.08711623    0.00000000
     atom   15 type  4   force =     0.08020084   -0.20648494    0.00000000
     atom   16 type  4   force =     0.08020084    0.20648494    0.00000000
     The ionic contribution  to forces
     atom    1 type  1   force =     0.37720234    1.08427291    0.83093841
     atom    2 type  1   force =     0.37720234    1.08427291   -0.83093841
     atom    3 type  1   force =     0.37720234   -1.08427291   -0.83093841
     atom    4 type  1   force =     0.37720234   -1.08427291    0.83093841
     atom    5 type  2   force =     0.35375401    0.64161886    0.00000000
     atom    6 type  2   force =     0.35375401   -0.64161886    0.00000000
     atom    7 type  3   force =     0.17232945    0.17539961    0.00000000
     atom    8 type  3   force =     0.17232945   -0.17539961    0.00000000
     atom    9 type  4   force =     2.39931870    2.88630326   -3.03063629
     atom   10 type  4   force =     2.39931870    2.88630326    3.03063629
     atom   11 type  4   force =     2.39931870   -2.88630326    3.03063629
     atom   12 type  4   force =     2.39931870   -2.88630326   -3.03063629
     atom   13 type  4   force =    -6.17477855    0.07148615    0.00000000
     atom   14 type  4   force =    -6.17477855   -0.07148615    0.00000000
     atom   15 type  4   force =     0.09565300   -5.13333281    0.00000000
     atom   16 type  4   force =     0.09565300    5.13333281    0.00000000
     The local contribution  to forces
     atom    1 type  1   force =    -0.36681488   -1.17149699   -0.86466471
     atom    2 type  1   force =    -0.36681019   -1.17149987    0.86465143
     atom    3 type  1   force =    -0.36708578    1.17166683    0.86571859
     atom    4 type  1   force =    -0.36708906    1.17169267   -0.86563543
     atom    5 type  2   force =    -0.33721744   -0.74510129    0.00042937
     atom    6 type  2   force =    -0.33751772    0.74438740   -0.00042083
     atom    7 type  3   force =    -0.11808856   -0.13499506    0.00008932
     atom    8 type  3   force =    -0.11795236    0.13506564   -0.00009534
     atom    9 type  4   force =    -2.44745886   -3.01072448    3.19587982
     atom   10 type  4   force =    -2.44741615   -3.01065336   -3.19581515
     atom   11 type  4   force =    -2.44712303    3.01081425   -3.19533404
     atom   12 type  4   force =    -2.44706029    3.01077055    3.19526636
     atom   13 type  4   force =     6.30478897   -0.14624112    0.00015663
     atom   14 type  4   force =     6.30426867    0.14626274   -0.00015548
     atom   15 type  4   force =    -0.16989336    5.29355935    0.00016907
     atom   16 type  4   force =    -0.16966181   -5.29371827   -0.00016017
     The core correction contribution to forces
     atom    1 type  1   force =    -0.00007061   -0.00013006   -0.00002377
     atom    2 type  1   force =    -0.00007052   -0.00013008    0.00002366
     atom    3 type  1   force =    -0.00007059    0.00012997    0.00002337
     atom    4 type  1   force =    -0.00007060    0.00013012   -0.00002318
     atom    5 type  2   force =     0.00000000    0.00000000    0.00000000
     atom    6 type  2   force =     0.00000000    0.00000000    0.00000000
     atom    7 type  3   force =     0.00105231    0.00031618   -0.00000095
     atom    8 type  3   force =     0.00105646   -0.00031164    0.00000078
     atom    9 type  4   force =    -0.00269898   -0.00688388    0.00804367
     atom   10 type  4   force =    -0.00269915   -0.00688508   -0.00804551
     atom   11 type  4   force =    -0.00269502    0.00688475   -0.00803886
     atom   12 type  4   force =    -0.00269690    0.00688523    0.00804056
     atom   13 type  4   force =     0.00918348   -0.00492476   -0.00000087
     atom   14 type  4   force =     0.00917702    0.00492716    0.00000343
     atom   15 type  4   force =    -0.00405081    0.01054993   -0.00000179
     atom   16 type  4   force =    -0.00405004   -0.01054851    0.00000054
     The Hubbard contrib.    to forces
     atom    1 type  1   force =     0.00000000    0.00000000    0.00000000
     atom    2 type  1   force =     0.00000000    0.00000000    0.00000000
     atom    3 type  1   force =     0.00000000    0.00000000    0.00000000
     atom    4 type  1   force =     0.00000000    0.00000000    0.00000000
     atom    5 type  2   force =     0.00000000    0.00000000    0.00000000
     atom    6 type  2   force =     0.00000000    0.00000000    0.00000000
     atom    7 type  3   force =     0.00000000    0.00000000    0.00000000
     atom    8 type  3   force =     0.00000000    0.00000000    0.00000000
     atom    9 type  4   force =     0.00000000    0.00000000    0.00000000
     atom   10 type  4   force =     0.00000000    0.00000000    0.00000000
     atom   11 type  4   force =     0.00000000    0.00000000    0.00000000
     atom   12 type  4   force =     0.00000000    0.00000000    0.00000000
     atom   13 type  4   force =     0.00000000    0.00000000    0.00000000
     atom   14 type  4   force =     0.00000000    0.00000000    0.00000000
     atom   15 type  4   force =     0.00000000    0.00000000    0.00000000
     atom   16 type  4   force =     0.00000000    0.00000000    0.00000000
     The SCF correction term to forces
     atom    1 type  1   force =    -0.00015225    0.00059137   -0.00083324
     atom    2 type  1   force =    -0.00013652    0.00054054    0.00082063
     atom    3 type  1   force =     0.00014838   -0.00071387   -0.00047181
     atom    4 type  1   force =     0.00016040   -0.00079519    0.00037639
     atom    5 type  2   force =    -0.00006916   -0.00026572   -0.00052238
     atom    6 type  2   force =     0.00021726    0.00105048    0.00053683
     atom    7 type  3   force =     0.00001360    0.00018255   -0.00012420
     atom    8 type  3   force =    -0.00004549   -0.00014687    0.00012543
     atom    9 type  4   force =     0.00027978    0.00031711   -0.00030246
     atom   10 type  4   force =     0.00024645    0.00023029    0.00022469
     atom   11 type  4   force =    -0.00001680   -0.00041173   -0.00016318
     atom   12 type  4   force =    -0.00009701   -0.00036630    0.00023685
     atom   13 type  4   force =    -0.00030568    0.00033820   -0.00018296
     atom   14 type  4   force =     0.00010929   -0.00032508    0.00021591
     atom   15 type  4   force =    -0.00002716   -0.00027743   -0.00021115
     atom   16 type  4   force =    -0.00025232    0.00043487    0.00018062

     Total force =     0.115436     Total SCF correction =     0.002669

     Computing stress (Cartesian axis) and pressure

          total   stress  (Ry/bohr**3)                   (kbar)     P=     -364.84
  -0.00302427   0.00000000   0.00000000         -444.89        0.00        0.00
   0.00000000  -0.00242695   0.00000000            0.00     -357.02        0.00
   0.00000000   0.00000000  -0.00198926            0.00        0.00     -292.63

     kinetic stress (kbar)  20826.02      0.00      0.00
                                0.00  20950.24      0.00
                                0.00      0.00  20965.33

     local   stress (kbar) -19534.75      0.02      0.00
                                0.02 -17584.32     -0.02
                                0.00     -0.02 -20334.58

     nonloc. stress (kbar)   7993.38      0.00      0.00
                                0.00   8023.22      0.00
                                0.00      0.00   8017.64

     hartree stress (kbar)  25272.81     -0.01     -0.00
                               -0.01  24648.70      0.01
                               -0.00      0.01  25698.16

     exc-cor stress (kbar)  -3511.95      0.00     -0.00
                                0.00  -3515.21      0.00
                               -0.00      0.00  -3513.47

     corecor stress (kbar)  -2510.64      0.00      0.00
                                0.00  -2511.34     -0.00
                                0.00     -0.00  -2513.07

     ewald   stress (kbar) -28979.76      0.00     -0.00
                                0.00 -30368.31     -0.00
                               -0.00     -0.00 -28612.63

     hubbard stress (kbar)      0.00      0.00      0.00
                                0.00      0.00      0.00
                                0.00      0.00      0.00

     DFT-D   stress (kbar)      0.00      0.00      0.00
                                0.00      0.00      0.00
                                0.00      0.00      0.00

     XDM     stress (kbar)      0.00      0.00      0.00
                                0.00      0.00      0.00
                                0.00      0.00      0.00

     dft-nl  stress (kbar)      0.00      0.00      0.00
                                0.00      0.00      0.00
                                0.00      0.00      0.00

     TS-vdW  stress (kbar)      0.00      0.00      0.00
                                0.00      0.00      0.00
                                0.00      0.00      0.00

[...]

                                0.00      0.00      0.00

     Writing all to output data dir calculations/myprefix.save/

     General routines

     Parallel routines

   This run was terminated on:  12:39:55   6Mar2023

   JOB DONE.