     Program PWSCF v.7.0 starts on  4Mar2023 at 20:58:54

     R & G space division:  proc/nbgrp/npool/nimage =      32

     Reading input from espresso_7658.pwi
Warning: card &CELL ignored
Warning: card / ignored

     Current dimensions of program PWSCF are:
     Max number of different atomic species (ntypx) = 10
     Max number of k-points (npk) =  40000
     Max angular momentum in pseudopotentials (lmaxx) =  4
     file K.pbe-spn-kjpaw_psl.1.0.0.UPF: wavefunction(s)  3S renormalized

     gamma-point specific algorithms are used
     Message from routine setup:
     using ibrav=0 with symmetry is DISCOURAGED, use correct ibrav instead

     Using Slab Decomposition

     bravais-lattice index     =            0
     lattice parameter (alat)  =      14.7275  a.u.
     unit-cell volume          =     775.1287 (a.u.)^3
     number of atoms/cell      =            4
     number of atomic types    =            3
     number of electrons       =        34.00
     number of Kohn-Sham states=           21
     kinetic-energy cutoff     =      30.0000  Ry
     charge density cutoff     =     240.0000  Ry
     scf convergence threshold =      1.0E-06
     mixing beta               =       0.7000
     number of iterations used =            8  plain     mixing
     Exchange-correlation=  SLA  PW   PBX  PBC
                           (   1   4   3   4   0   0   0)

     celldm(1)=  14.727519  celldm(2)=   0.000000  celldm(3)=   0.000000
     celldm(4)=   0.000000  celldm(5)=   0.000000  celldm(6)=   0.000000

     crystal axes: (cart. coord. in units of alat)
               a(1) = (   1.000000   0.000000   0.000000 )
               a(2) = (   0.852461   0.522791   0.000000 )
               a(3) = (   0.852461   0.240577   0.464148 )

     reciprocal axes: (cart. coord. in units 2 pi/alat)
               b(1) = (  1.000000 -1.630595 -0.991445 )
               b(2) = (  0.000000  1.912809 -0.991445 )
               b(3) = (  0.000000  0.000000  2.154484 )

     PseudoPot. # 1 for K  read from file:
     /home/pragov/projects/rrg-bengioy-ad/pragov/crystal_structure_design/SSSP/K.pbe-spn-kjpaw_psl.1.0.0.UPF
     MD5 check sum: 7d58810084cac21f60fbe77ea2b688fd
     Pseudo is Projector augmented-wave + core cor, Zval =  9.0
     Generated using "atomic" code by A. Dal Corso  v.5.1
     Shape of augmentation charge: PSQ
     Using radial grid of 1165 points,  6 beta functions with:
                l(1) =   0
                l(2) =   0
                l(3) =   1
                l(4) =   1
                l(5) =   2
                l(6) =   2
     Q(r) pseudized with 0 coefficients

     PseudoPot. # 2 for Pr read from file:
     /home/pragov/projects/rrg-bengioy-ad/pragov/crystal_structure_design/SSSP/Pr.GGA-PBE-paw-v1.0.UPF
     MD5 check sum: b5e1e58e76df433569641143f671cc27
     Pseudo is Projector augmented-wave + core cor, Zval = 13.0
     Generated using ATOMPAW code
     Shape of augmentation charge: BESSEL
     Using radial grid of 1103 points,  8 beta functions with:
                l(1) =   0
                l(2) =   0
                l(3) =   1
                l(4) =   1
                l(5) =   2
                l(6) =   2
                l(7) =   3
                l(8) =   3
     Q(r) pseudized with 0 coefficients

     PseudoPot. # 3 for S  read from file:
     /home/pragov/projects/rrg-bengioy-ad/pragov/crystal_structure_design/SSSP/s_pbe_v1.4.uspp.F.UPF
     MD5 check sum: 88d86576ff6df21479756cfb9bdac1df
     Pseudo is Ultrasoft + core correction, Zval =  6.0
     Generated by new atomic code, or converted to UPF format
     Using radial grid of  907 points,  6 beta functions with:
                l(1) =   0
                l(2) =   0
                l(3) =   1
                l(4) =   1
                l(5) =   2
                l(6) =   2
     Q(r) pseudized with  8 coefficients,  rinner =    1.300   1.300   1.300
                                                       1.300   1.300

     atomic species   valence    mass     pseudopotential
        K              9.00    39.09830     K ( 1.00)
        Pr            13.00   140.90766     Pr( 1.00)
        S              6.00    32.06000     S ( 1.00)

      2 Sym. Ops., with inversion, found

                                    s                        frac. trans.

      isym =  1     identity

 cryst.   s( 1) = (     1          0          0      )
                  (     0          1          0      )
                  (     0          0          1      )

 cart.    s( 1) = (  1.0000000 -0.0000000  0.0000000 )
                  (  0.0000000  1.0000000  0.0000000 )
                  (  0.0000000  0.0000000  1.0000000 )

      isym =  2     inversion

 cryst.   s( 2) = (    -1          0          0      )
                  (     0         -1          0      )
                  (     0          0         -1      )

 cart.    s( 2) = ( -1.0000000  0.0000000 -0.0000000 )
                  (  0.0000000 -1.0000000 -0.0000000 )
                  (  0.0000000  0.0000000 -1.0000000 )

   Cartesian axes

     site n.     atom                  positions (alat units)
         1           K   tau(   1) = (   1.3524607   0.3816840   0.2320741  )
         2           Pr  tau(   2) = (   0.0000000   0.0000000   0.0000000  )
         3           S   tau(   3) = (   1.9914064   0.5620038   0.3417134  )
         4           S   tau(   4) = (   0.7135150   0.2013643   0.1224349  )

   Crystallographic axes

     site n.     atom                  positions (cryst. coord.)
         1           K   tau(   1) = (  0.5000000  0.5000000  0.5000000  )
         2           Pr  tau(   2) = (  0.0000000  0.0000000  0.0000000  )
         3           S   tau(   3) = (  0.7362160  0.7362160  0.7362160  )
         4           S   tau(   4) = (  0.2637840  0.2637840  0.2637840  )

     number of k points=     1  Methfessel-Paxton smearing, width (Ry)=  0.0010
                       cart. coord. in units 2pi/alat
        k(    1) = (   0.0000000   0.0000000   0.0000000), wk =   2.0000000

                       cryst. coord.
        k(    1) = (   0.0000000   0.0000000   0.0000000), wk =   2.0000000

     Check: negative core charge=   -0.000002

     Initial potential from superposition of free atoms

     starting charge      33.9737, renormalised to      34.0000
     Starting wfcs are   48 randomized atomic wfcs
     Checking if some PAW data can be deallocated...

     Self-consistent Calculation

     iteration #  1     ecut=    30.00 Ry     beta= 0.70
     Davidson diagonalization with overlap

     ethr =  1.00E-02,  avg # of iterations =  1.0

     total energy              =    -669.67700241 Ry
     estimated scf accuracy    <       0.38984861 Ry

[...]

     WARNING: integrated charge=    33.99722006, expected=    34.00000000

[...]

     WARNING: integrated charge=    34.00000508, expected=    34.00000000

[...]

     total energy              =    -669.82957238 Ry
     estimated scf accuracy    <       0.00000179 Ry

     iteration # 68     ecut=    30.00 Ry     beta= 0.70
     Davidson diagonalization with overlap

     ethr =  4.74E-09,  avg # of iterations =  1.0

     End of self-consistent calculation

          k = 0.0000 0.0000 0.0000 (  1063 PWs)   bands (ev):

   -27.9644 -23.9005 -10.4756  -9.9311  -9.9135  -7.4841  -7.3538  -7.3525
    -5.0396  -4.1885   3.3017   4.3496   4.3512   5.3741   5.5390   5.5469
     8.6237   8.6333   8.6739   8.7372   8.7403

     occupation numbers
     1.0000   1.0000   1.0000   1.0000   1.0000   1.0000   1.0000   1.0000
     1.0000   1.0000   1.0000   1.0000   1.0000   1.0000   1.0000   1.0000
     0.7808   0.2192  -0.0000  -0.0000  -0.0000

     the Fermi energy is     8.6285 ev

!    total energy              =    -669.82957204 Ry
     estimated scf accuracy    <       0.00000067 Ry
     smearing contrib. (-TS)   =      -0.00037148 Ry
     internal energy E=F+TS    =    -669.82920056 Ry

     The total energy is F=E-TS. E is the sum of the following terms:
     one-electron contribution =     -51.34607112 Ry
     hartree contribution      =      43.51625487 Ry
     xc contribution           =     -40.42635874 Ry
     ewald contribution        =    -146.58807951 Ry
     one-center paw contrib.   =    -474.98494607 Ry
      -> PAW hartree energy AE =      37.85370996 Ry
      -> PAW hartree energy PS =     -37.64283645 Ry
      -> PAW xc energy AE      =     -66.24183954 Ry
      -> PAW xc energy PS      =      10.61137877 Ry
      -> total E_H with PAW    =      43.72712839 Ry
      -> total E_XC with PAW   =     -96.05681951 Ry

     convergence has been achieved in  68 iterations

     Forces acting on atoms (cartesian axes, Ry/au):

     atom    1 type  1   force =     0.00000000    0.00000000    0.00000000
     atom    2 type  2   force =     0.00000000    0.00000000    0.00000000
     atom    3 type  3   force =    -0.11232785   -0.03231806   -0.01982544
     atom    4 type  3   force =     0.11232785    0.03231806    0.01982544
     The non-local contrib.  to forces
     atom    1 type  1   force =     0.00000000    0.00000000    0.00000000
     atom    2 type  2   force =     0.00000000    0.00000000    0.00000000
     atom    3 type  3   force =     0.12817348    0.03648077    0.02211307
     atom    4 type  3   force =    -0.12817348   -0.03648077   -0.02211307
     The ionic contribution  to forces
     atom    1 type  1   force =     0.00000000   -0.00000000    0.00000000
     atom    2 type  2   force =    -0.00000000   -0.00000000   -0.00000000
     atom    3 type  3   force =     4.04602678    1.14184750    0.69427425
     atom    4 type  3   force =    -4.04602678   -1.14184750   -0.69427425
     The local contribution  to forces
     atom    1 type  1   force =     0.00001104   -0.00000058    0.00000245
     atom    2 type  2   force =    -0.00005401   -0.00003862   -0.00009471
     atom    3 type  3   force =    -4.27904875   -1.20850230   -0.73491442
     atom    4 type  3   force =     4.27902957    1.20849618    0.73493705
     The core correction contribution to forces
     atom    1 type  1   force =     0.00000008    0.00000003    0.00000010
     atom    2 type  2   force =    -0.00000001   -0.00000001   -0.00000002
     atom    3 type  3   force =    -0.00749164   -0.00213029   -0.00129184
     atom    4 type  3   force =     0.00749121    0.00213056    0.00129281
     The Hubbard contrib.    to forces
     atom    1 type  1   force =     0.00000000    0.00000000    0.00000000
     atom    2 type  2   force =     0.00000000    0.00000000    0.00000000
     atom    3 type  3   force =     0.00000000    0.00000000    0.00000000
     atom    4 type  3   force =     0.00000000    0.00000000    0.00000000
     The SCF correction term to forces
     atom    1 type  1   force =    -0.00000649    0.00000151    0.00000020
     atom    2 type  2   force =     0.00003873   -0.00002318    0.00004217
     atom    3 type  3   force =     0.00000596   -0.00001300    0.00000659
     atom    4 type  3   force =     0.00000102    0.00002033   -0.00000399

     Total force =     0.167661     Total SCF correction =     0.000067

     Computing stress (Cartesian axis) and pressure

          total   stress  (Ry/bohr**3)                   (kbar)     P=        0.26
  -0.00073478  -0.00032753  -0.00020039         -108.09      -48.18      -29.48
  -0.00032753   0.00033121  -0.00007525          -48.18       48.72      -11.07
  -0.00020039  -0.00007525   0.00040886          -29.48      -11.07       60.15

     kinetic stress (kbar)   7178.34    -90.40    -55.56
                              -90.40   7482.10    -16.09
                              -55.56    -16.09   7498.57

     local   stress (kbar)   -598.63   1378.47    838.49
                             1378.47  -5119.28    240.69
                              838.49    240.69  -5368.96

     nonloc. stress (kbar)   4834.50      5.49      3.53
                                5.49   4829.11     -4.40
                                3.53     -4.40   4834.04

     hartree stress (kbar)   1425.74   -592.97   -360.67
                             -592.97   3363.18   -102.75
                             -360.67   -102.75   3469.67

     exc-cor stress (kbar)     -6.64     -0.54     -0.33
                               -0.54     -4.87     -0.09
                               -0.33     -0.09     -4.78

     corecor stress (kbar)  -1994.75      1.03      0.63
                                1.03  -1998.35      0.14
                                0.63      0.14  -1998.49

     ewald   stress (kbar) -10946.64   -749.26   -455.57
                             -749.26  -8503.17   -128.57
                             -455.57   -128.57  -8369.89

     hubbard stress (kbar)      0.00      0.00      0.00
                                0.00      0.00      0.00
                                0.00      0.00      0.00

     DFT-D   stress (kbar)      0.00      0.00      0.00
                                0.00      0.00      0.00
                                0.00      0.00      0.00

     XDM     stress (kbar)      0.00      0.00      0.00
                                0.00      0.00      0.00
                                0.00      0.00      0.00

     dft-nl  stress (kbar)      0.00      0.00      0.00
                                0.00      0.00      0.00
                                0.00      0.00      0.00

     TS-vdW  stress (kbar)      0.00      0.00      0.00
                                0.00      0.00      0.00
                                0.00      0.00      0.00

[...]

                                0.00      0.00      0.00

     Writing all to output data dir calculations/myprefix.save/

     General routines

     Parallel routines

     PAW routines

   This run was terminated on:  20:59:14   4Mar2023

   JOB DONE.