     Program PWSCF v.7.0 starts on  3Mar2023 at 12:39:43

     R & G space division:  proc/nbgrp/npool/nimage =      32

     Reading input from espresso_301.pwi
Warning: card &CELL ignored
Warning: card / ignored

     Current dimensions of program PWSCF are:
     Max number of different atomic species (ntypx) = 10
     Max number of k-points (npk) =  40000
     Max angular momentum in pseudopotentials (lmaxx) =  4
     file Mg.pbe-n-kjpaw_psl.0.3.0.UPF: wavefunction(s)  3S renormalized
     file O.pbe-n-kjpaw_psl.0.1.UPF: wavefunction(s)  2P renormalized

     gamma-point specific algorithms are used
     Message from routine setup:
     using ibrav=0 with symmetry is DISCOURAGED, use correct ibrav instead

     Using Slab Decomposition

     bravais-lattice index     =            0
     lattice parameter (alat)  =      10.7059  a.u.
     unit-cell volume          =    1374.2238 (a.u.)^3
     number of atoms/cell      =           16
     number of atomic types    =            5
     number of electrons       =        96.00
     number of Kohn-Sham states=           58
     kinetic-energy cutoff     =      30.0000  Ry
     charge density cutoff     =     240.0000  Ry
     scf convergence threshold =      1.0E-06
     mixing beta               =       0.7000
     number of iterations used =            8  plain     mixing
     Exchange-correlation=  SLA  PW   PBX  PBC
                           (   1   4   3   4   0   0   0)

     celldm(1)=  10.705852  celldm(2)=   0.000000  celldm(3)=   0.000000
     celldm(4)=   0.000000  celldm(5)=   0.000000  celldm(6)=   0.000000

     crystal axes: (cart. coord. in units of alat)
               a(1) = (   1.000000   0.000000   0.000000 )
               a(2) = (  -0.278160   0.960535   0.000000 )
               a(3) = (   0.305441   0.406443   1.165952 )

     reciprocal axes: (cart. coord. in units 2 pi/alat)
               b(1) = (  1.000000  0.289589 -0.362916 )
               b(2) = (  0.000000  1.041087 -0.362916 )
               b(3) = (  0.000000  0.000000  0.857668 )

     PseudoPot. # 1 for Ca read from file:
     /home/pragov/projects/rrg-bengioy-ad/pragov/crystal_structure_design/SSSP/Ca_pbe_v1.uspp.F.UPF
     MD5 check sum: 403a4c14b9e4d4dfdc3024c9a3812218
     Pseudo is Ultrasoft + core correction, Zval = 10.0
     Generated by new atomic code, or converted to UPF format
     Using radial grid of  845 points,  6 beta functions with:
                l(1) =   0
                l(2) =   0
                l(3) =   1
                l(4) =   1
                l(5) =   2
                l(6) =   2
     Q(r) pseudized with  8 coefficients,  rinner =    1.500   1.500   1.500
                                                       1.500   1.500

     PseudoPot. # 2 for Mg read from file:
     /home/pragov/projects/rrg-bengioy-ad/pragov/crystal_structure_design/SSSP/Mg.pbe-n-kjpaw_psl.0.3.0.UPF
     MD5 check sum: 24ecedc7f3e3cbe212e682f4413594e4
     Pseudo is Projector augmented-wave + core cor, Zval =  2.0
     Generated using "atomic" code by A. Dal Corso  v.5.0.99 svn rev. 10869
     Shape of augmentation charge: PSQ
     Using radial grid of 1129 points,  4 beta functions with:
                l(1) =   0
                l(2) =   0
                l(3) =   1
                l(4) =   1
     Q(r) pseudized with 0 coefficients

     PseudoPot. # 3 for As read from file:
     /home/pragov/projects/rrg-bengioy-ad/pragov/crystal_structure_design/SSSP/As.pbe-n-rrkjus_psl.0.2.UPF
     MD5 check sum: 767315de957beeeb34f87d97bf945c8f
     Pseudo is Ultrasoft + core correction, Zval =  5.0
     Generated using "atomic" code by A. Dal Corso  v.5.0.99 svn rev. 10869
     Using radial grid of 1209 points,  4 beta functions with:
                l(1) =   0
                l(2) =   0
                l(3) =   1
                l(4) =   1
     Q(r) pseudized with 0 coefficients

     PseudoPot. # 4 for O  read from file:
     /home/pragov/projects/rrg-bengioy-ad/pragov/crystal_structure_design/SSSP/O.pbe-n-kjpaw_psl.0.1.UPF
     MD5 check sum: 0234752ac141de4415c5fc33072bef88
     Pseudo is Projector augmented-wave + core cor, Zval =  6.0
     Generated using "atomic" code by A. Dal Corso  v.5.0.99 svn rev. 10869
     Shape of augmentation charge: BESSEL
     Using radial grid of 1095 points,  4 beta functions with:
                l(1) =   0
                l(2) =   0
                l(3) =   1
                l(4) =   1
     Q(r) pseudized with 0 coefficients

     PseudoPot. # 5 for F  read from file:
     /home/pragov/projects/rrg-bengioy-ad/pragov/crystal_structure_design/SSSP/f_pbe_v1.4.uspp.F.UPF
     MD5 check sum: 4c38b6a325caf53ec0e86aed9459de46
     Pseudo is Ultrasoft, Zval =  7.0
     Generated by new atomic code, or converted to UPF format
     Using radial grid of  799 points,  4 beta functions with:
                l(1) =   0
                l(2) =   0
                l(3) =   1
                l(4) =   1
     Q(r) pseudized with  8 coefficients,  rinner =    0.950   0.950   0.950

     atomic species   valence    mass     pseudopotential
        Ca            10.00    40.07800     Ca( 1.00)
        Mg             2.00    24.30500     Mg( 1.00)
        As             5.00    74.92159     As( 1.00)
        O              6.00    15.99900     O ( 1.00)
        F              7.00    18.99840     F ( 1.00)

      2 Sym. Ops., with inversion, found

                                    s                        frac. trans.

      isym =  1     identity

 cryst.   s( 1) = (     1          0          0      )
                  (     0          1          0      )
                  (     0          0          1      )

 cart.    s( 1) = (  1.0000000 -0.0000000 -0.0000000 )
                  (  0.0000000  1.0000000 -0.0000000 )
                  (  0.0000000  0.0000000  1.0000000 )

      isym =  2     inversion

 cryst.   s( 2) = (    -1          0          0      )
                  (     0         -1          0      )
                  (     0          0         -1      )

 cart.    s( 2) = ( -1.0000000  0.0000000  0.0000000 )
                  (  0.0000000 -1.0000000  0.0000000 )
                  (  0.0000000  0.0000000 -1.0000000 )

   Cartesian axes

     site n.     atom                  positions (alat units)
         1           Ca  tau(   1) = (   0.6523460   0.4202567   0.2914880  )
         2           Ca  tau(   2) = (   0.3749351   0.9467214   0.8744640  )
         3           Mg  tau(   3) = (   0.0000000   0.0000000   0.0000000  )
         4           Mg  tau(   4) = (   0.1527207   0.2032217   0.5829760  )
         5           As  tau(   5) = (   0.2095185   0.7530407   0.2914880  )
         6           As  tau(   6) = (   0.8177627   0.6139374   0.8744640  )
         7           O   tau(   7) = (   0.4377712   0.7417761   0.0912754  )
         8           O   tau(   8) = (   0.2838293   0.5369294   0.4917006  )
         9           O   tau(   9) = (   1.0755960   0.6729400   1.0264436  )
        10           O   tau(  10) = (   0.8328076   0.3498674   0.7224845  )
        11           O   tau(  11) = (  -0.0483148   0.6940381   0.1395085  )
        12           O   tau(  12) = (   0.1944736   1.0171107   0.4434675  )
        13           O   tau(  13) = (   0.5895100   0.6252020   1.0746767  )
        14           O   tau(  14) = (   0.7434519   0.8300487   0.6742514  )
        15           F   tau(  15) = (   0.9719206   0.1800971   0.2914880  )
        16           F   tau(  16) = (   0.0553606   1.1868810   0.8744640  )

   Crystallographic axes

     site n.     atom                  positions (cryst. coord.)
         1           Ca  tau(   1) = (  0.6682620  0.3317380  0.2500000  )
         2           Ca  tau(   2) = (  0.3317380  0.6682620  0.7500000  )
         3           Mg  tau(   3) = (  0.0000000  0.0000000  0.0000000  )
         4           Mg  tau(   4) = (  0.0000000 -0.0000000  0.5000000  )
         5           As  tau(   5) = (  0.3218050  0.6781950  0.2500000  )
         6           As  tau(   6) = (  0.6781950  0.3218050  0.7500000  )
         7           O   tau(   7) = (  0.6194560  0.7391280  0.0782840  )
         8           O   tau(   8) = (  0.2608720  0.3805440  0.4217160  )
         9           O   tau(   9) = (  0.8979590  0.3280760  0.8803480  )
        10           O   tau(  10) = (  0.6719240  0.1020410  0.6196520  )
        11           O   tau(  11) = (  0.1020410  0.6719240  0.1196520  )
        12           O   tau(  12) = (  0.3280760  0.8979590  0.3803480  )
        13           O   tau(  13) = (  0.3805440  0.2608720  0.9217160  )
        14           O   tau(  14) = (  0.7391280  0.6194560  0.5782840  )
        15           F   tau(  15) = (  0.9182890  0.0817110  0.2500000  )
        16           F   tau(  16) = (  0.0817110  0.9182890  0.7500000  )

     number of k points=     1  Methfessel-Paxton smearing, width (Ry)=  0.0010
                       cart. coord. in units 2pi/alat
        k(    1) = (   0.0000000   0.0000000   0.0000000), wk =   2.0000000

                       cryst. coord.
        k(    1) = (   0.0000000   0.0000000   0.0000000), wk =   2.0000000

     Check: negative core charge=   -0.000007

     Initial potential from superposition of free atoms

     starting charge      95.9868, renormalised to      96.0000
     Starting wfcs are   76 randomized atomic wfcs
     Checking if some PAW data can be deallocated...

     Self-consistent Calculation

     iteration #  1     ecut=    30.00 Ry     beta= 0.70
     Davidson diagonalization with overlap

     ethr =  1.00E-02,  avg # of iterations =  2.0

     total energy              =    -683.15329501 Ry
     estimated scf accuracy    <       3.40078105 Ry

[...]

     total energy              =    -684.74876330 Ry
     estimated scf accuracy    <       0.00000105 Ry

     iteration # 10     ecut=    30.00 Ry     beta= 0.70
     Davidson diagonalization with overlap

     ethr =  1.09E-09,  avg # of iterations =  2.0

     End of self-consistent calculation

          k = 0.0000 0.0000 0.0000 (  1907 PWs)   bands (ev):

   -33.5653 -33.5615 -17.2510 -17.1811 -14.7719 -14.7460 -14.7289 -14.6692
   -14.6423 -14.5741 -14.2448 -14.0212 -12.3016 -12.2959 -12.2718 -12.1412
   -12.0806 -12.0188  -3.6893  -3.4803  -0.7506  -0.2357  -0.1557   0.2570
     0.6584   0.7243   0.8896   0.9983   1.1217   1.4849   1.5645   1.9377
     2.1460   2.6738   2.7640   2.7928   2.8513   3.0626   3.1187   3.4926
     3.7801   3.7904   3.8626   3.8630   3.9170   4.2649   4.3194   4.3681
     8.2945   9.6509  10.7254  11.5063  11.6081  11.7577  11.9970  12.0077
    12.4660  12.6228

     occupation numbers
     1.0000   1.0000   1.0000   1.0000   1.0000   1.0000   1.0000   1.0000
     1.0000   1.0000   1.0000   1.0000   1.0000   1.0000   1.0000   1.0000
     1.0000   1.0000   1.0000   1.0000   1.0000   1.0000   1.0000   1.0000
     1.0000   1.0000   1.0000   1.0000   1.0000   1.0000   1.0000   1.0000
     1.0000   1.0000   1.0000   1.0000   1.0000   1.0000   1.0000   1.0000
     1.0000   1.0000   1.0000   1.0000   1.0000   1.0000   1.0000   1.0000
    -0.0000  -0.0000  -0.0000  -0.0000  -0.0000  -0.0000  -0.0000  -0.0000
    -0.0000  -0.0000

     the Fermi energy is     6.9513 ev

!    total energy              =    -684.74876335 Ry
     estimated scf accuracy    <       0.00000015 Ry
     smearing contrib. (-TS)   =       0.00000000 Ry
     internal energy E=F+TS    =    -684.74876335 Ry

     The total energy is F=E-TS. E is the sum of the following terms:
     one-electron contribution =    -190.04647423 Ry
     hartree contribution      =     147.87239033 Ry
     xc contribution           =    -124.63709797 Ry
     ewald contribution        =    -379.22720105 Ry
     one-center paw contrib.   =    -138.71038043 Ry
      -> PAW hartree energy AE =       0.00000000 Ry
      -> PAW hartree energy PS =       0.00000000 Ry
      -> PAW xc energy AE      =       0.00000000 Ry
      -> PAW xc energy PS      =       0.00000000 Ry
      -> total E_H with PAW    =     147.87239033 Ry
      -> total E_XC with PAW   =    -124.63709797 Ry

     convergence has been achieved in  10 iterations

     Forces acting on atoms (cartesian axes, Ry/au):

     atom    1 type  1   force =    -0.00153003    0.00116941   -0.00005658
     atom    2 type  1   force =     0.00153003   -0.00116941    0.00005658
     atom    3 type  2   force =     0.00000000    0.00000000    0.00000000
     atom    4 type  2   force =     0.00000000    0.00000000    0.00000000
     atom    5 type  3   force =    -0.00858288    0.00644954    0.00000942
     atom    6 type  3   force =     0.00858288   -0.00644954   -0.00000942
     atom    7 type  4   force =     0.00323316    0.00687355   -0.01423015
     atom    8 type  4   force =    -0.00571113   -0.00499744    0.01420153
     atom    9 type  4   force =    -0.00413886    0.00973638   -0.00209482
     atom   10 type  4   force =    -0.01050644    0.00130596    0.00212412
     atom   11 type  4   force =     0.00413886   -0.00973638    0.00209482
     atom   12 type  4   force =     0.01050644   -0.00130596   -0.00212412
     atom   13 type  4   force =    -0.00323316   -0.00687355    0.01423015
     atom   14 type  4   force =     0.00571113    0.00499744   -0.01420153
     atom   15 type  5   force =    -0.00018207    0.00013164    0.00003883
     atom   16 type  5   force =     0.00018207   -0.00013164   -0.00003883
     The non-local contrib.  to forces
     atom    1 type  1   force =    -0.01657049    0.01247650   -0.00005413
     atom    2 type  1   force =     0.01657049   -0.01247650    0.00005413
     atom    3 type  2   force =     0.00000000    0.00000000    0.00000000
     atom    4 type  2   force =     0.00000000    0.00000000    0.00000000
     atom    5 type  3   force =     0.00058891   -0.00045967   -0.00006720
     atom    6 type  3   force =    -0.00058891    0.00045967    0.00006720
     atom    7 type  4   force =    -0.93006347    0.16416145    1.12785736
     atom    8 type  4   force =    -0.41642549    0.84774091   -1.12797711
     atom    9 type  4   force =    -1.17027446   -0.43204693   -0.70959542
     atom   10 type  4   force =     0.08948793    1.24436382    0.70973324
     atom   11 type  4   force =     1.17027446    0.43204693    0.70959542
     atom   12 type  4   force =    -0.08948793   -1.24436382   -0.70973324
     atom   13 type  4   force =     0.93006347   -0.16416145   -1.12785736
     atom   14 type  4   force =     0.41642549   -0.84774091    1.12797711
     atom   15 type  5   force =     0.07541517   -0.05668051   -0.00001156
     atom   16 type  5   force =    -0.07541517    0.05668051    0.00001156
     The ionic contribution  to forces
     atom    1 type  1   force =    -1.41356971    1.06229468   -0.00000000
     atom    2 type  1   force =     1.41356971   -1.06229468   -0.00000000
     atom    3 type  2   force =    -0.00000000   -0.00000000    0.00000000
     atom    4 type  2   force =    -0.00000000   -0.00000000    0.00000000
     atom    5 type  3   force =    -0.71905369    0.54036734    0.00000000
     atom    6 type  3   force =     0.71905369   -0.54036734   -0.00000000
     atom    7 type  4   force =     1.70743668    0.79992615   -3.68483624
     atom    8 type  4   force =    -0.29341593   -1.86255979    3.68483624
     atom    9 type  4   force =     1.90215176   -0.75174797    0.81554981
     atom   10 type  4   force =     1.25118289   -1.61797642   -0.81554981
     atom   11 type  4   force =    -1.90215176    0.75174797   -0.81554981
     atom   12 type  4   force =    -1.25118289    1.61797642    0.81554981
     atom   13 type  4   force =    -1.70743668   -0.79992615    3.68483624
     atom   14 type  4   force =     0.29341593    1.86255979   -3.68483624
     atom   15 type  5   force =     2.62431487   -1.97216714    0.00000000
     atom   16 type  5   force =    -2.62431487    1.97216714   -0.00000000
     The local contribution  to forces
     atom    1 type  1   force =     1.42841702   -1.07333118   -0.00030776
     atom    2 type  1   force =    -1.42841016    1.07334298    0.00031201
     atom    3 type  2   force =    -0.00000033   -0.00000071    0.00000004
     atom    4 type  2   force =    -0.00000112   -0.00000043    0.00000033
     atom    5 type  3   force =     0.70259714   -0.52803946   -0.00008893
     atom    6 type  3   force =    -0.70260112    0.52803836    0.00008642
     atom    7 type  4   force =    -0.78396625   -0.95535008    2.55422767
     atom    8 type  4   force =     0.69956482    1.01880512   -2.55426344
     atom    9 type  4   force =    -0.74845004    1.18891390   -0.11549750
     atom   10 type  4   force =    -1.35018054    0.38823037    0.11556540
     atom   11 type  4   force =     0.74845859   -1.18891084    0.11549661
     atom   12 type  4   force =     1.35017692   -0.38822889   -0.11555709
     atom   13 type  4   force =     0.78397162    0.95534820   -2.55422835
     atom   14 type  4   force =    -0.69956941   -1.01880682    2.55426159
     atom   15 type  5   force =    -2.69987437    2.02896447   -0.00013825
     atom   16 type  5   force =     2.69987661   -2.02896668    0.00013941
     The core correction contribution to forces
     atom    1 type  1   force =     0.00022780   -0.00017052   -0.00000254
     atom    2 type  1   force =    -0.00022790    0.00017067    0.00000258
     atom    3 type  2   force =    -0.00000002    0.00000005   -0.00000003
     atom    4 type  2   force =     0.00000005   -0.00000001   -0.00000004
     atom    5 type  3   force =     0.00725152   -0.00544750    0.00000909
     atom    6 type  3   force =    -0.00725187    0.00544784   -0.00000821
     atom    7 type  4   force =     0.00968201   -0.00182803   -0.01144214
     atom    8 type  4   force =     0.00444949   -0.00879191    0.01144367
     atom    9 type  4   force =     0.01223653    0.00452947    0.00737484
     atom   10 type  4   force =    -0.00094717   -0.01301450   -0.00737653
     atom   11 type  4   force =    -0.01223647   -0.00452941   -0.00737483
     atom   12 type  4   force =     0.00094715    0.01301457    0.00737666
     atom   13 type  4   force =    -0.00968201    0.00182802    0.01144223
     atom   14 type  4   force =    -0.00444950    0.00879186   -0.01144368
     atom   15 type  5   force =     0.00000000    0.00000000    0.00000000
     atom   16 type  5   force =     0.00000000    0.00000000    0.00000000
     The Hubbard contrib.    to forces
     atom    1 type  1   force =     0.00000000    0.00000000    0.00000000
     atom    2 type  1   force =     0.00000000    0.00000000    0.00000000
     atom    3 type  2   force =     0.00000000    0.00000000    0.00000000
     atom    4 type  2   force =     0.00000000    0.00000000    0.00000000
     atom    5 type  3   force =     0.00000000    0.00000000    0.00000000
     atom    6 type  3   force =     0.00000000    0.00000000    0.00000000
     atom    7 type  4   force =     0.00000000    0.00000000    0.00000000
     atom    8 type  4   force =     0.00000000    0.00000000    0.00000000
     atom    9 type  4   force =     0.00000000    0.00000000    0.00000000
     atom   10 type  4   force =     0.00000000    0.00000000    0.00000000
     atom   11 type  4   force =     0.00000000    0.00000000    0.00000000
     atom   12 type  4   force =     0.00000000    0.00000000    0.00000000
     atom   13 type  4   force =     0.00000000    0.00000000    0.00000000
     atom   14 type  4   force =     0.00000000    0.00000000    0.00000000
     atom   15 type  5   force =     0.00000000    0.00000000    0.00000000
     atom   16 type  5   force =     0.00000000    0.00000000    0.00000000
     The SCF correction term to forces
     atom    1 type  1   force =    -0.00003478   -0.00009926    0.00030773
     atom    2 type  1   force =     0.00002774    0.00008894   -0.00031227
     atom    3 type  2   force =     0.00000009    0.00000082   -0.00000007
     atom    4 type  2   force =     0.00000140    0.00000034   -0.00000068
     atom    5 type  3   force =     0.00003240    0.00002992    0.00015957
     atom    6 type  3   force =    -0.00002975   -0.00002696   -0.00015171
     atom    7 type  4   force =     0.00014417   -0.00003645   -0.00003441
     atom    8 type  4   force =     0.00011619   -0.00019219    0.00016219
     atom    9 type  4   force =     0.00019890    0.00008930    0.00007388
     atom   10 type  4   force =    -0.00004996   -0.00029631   -0.00024542
     atom   11 type  4   force =    -0.00020441   -0.00008966   -0.00007213
     atom   12 type  4   force =     0.00005277    0.00029676    0.00024249
     atom   13 type  4   force =    -0.00014957    0.00003730    0.00003978
     atom   14 type  4   force =    -0.00011116    0.00019310   -0.00016027
     atom   15 type  5   force =    -0.00003820    0.00001523    0.00018825
     atom   16 type  5   force =     0.00003504   -0.00001218   -0.00019019

     Total force =     0.041747     Total SCF correction =     0.000973

     Computing stress (Cartesian axis) and pressure

          total   stress  (Ry/bohr**3)                   (kbar)     P=     -281.10
  -0.00185234  -0.00008471  -0.00002238         -272.49      -12.46       -3.29
  -0.00008471  -0.00190096  -0.00002979          -12.46     -279.64       -4.38
  -0.00002238  -0.00002979  -0.00197943           -3.29       -4.38     -291.18

     kinetic stress (kbar)  16180.75     36.54    -50.70
                               36.54  16201.93    -67.46
                              -50.70    -67.46  16089.22

     local   stress (kbar)  -8571.25   1975.78   1009.44
                             1975.78  -7426.86   1343.24
                             1009.44   1343.24  -6306.69

     nonloc. stress (kbar)   3100.51      5.91     -5.40
                                5.91   3103.95     -7.19
                               -5.40     -7.19   3093.75

     hartree stress (kbar)   5657.51   -656.05   -445.49
                             -656.05   5277.51   -592.81
                             -445.49   -592.81   4894.12

     exc-cor stress (kbar)  -1668.55     -2.60     -0.65
                               -2.60  -1670.06     -0.87
                               -0.65     -0.87  -1671.87

     corecor stress (kbar)  -2178.01      1.45     -1.04
                                1.45  -2177.18     -1.38
                               -1.04     -1.38  -2177.35

     ewald   stress (kbar) -12793.43  -1373.49   -509.45
                            -1373.49 -13588.93   -677.92
                             -509.45   -677.92 -14212.37

     hubbard stress (kbar)      0.00      0.00      0.00
                                0.00      0.00      0.00
                                0.00      0.00      0.00

     DFT-D   stress (kbar)      0.00      0.00      0.00
                                0.00      0.00      0.00
                                0.00      0.00      0.00

     XDM     stress (kbar)      0.00      0.00      0.00
                                0.00      0.00      0.00
                                0.00      0.00      0.00

     dft-nl  stress (kbar)      0.00      0.00      0.00
                                0.00      0.00      0.00
                                0.00      0.00      0.00

     TS-vdW  stress (kbar)      0.00      0.00      0.00
                                0.00      0.00      0.00
                                0.00      0.00      0.00

[...]

                                0.00      0.00      0.00

     Writing all to output data dir calculations/myprefix.save/

     General routines

     Parallel routines

     PAW routines

   This run was terminated on:  12:39:47   3Mar2023

   JOB DONE.