     Program PWSCF v.7.0 starts on  6Mar2023 at 13: 8:35

     R & G space division:  proc/nbgrp/npool/nimage =      32

     Reading input from espresso_4716.pwi
Warning: card &CELL ignored
Warning: card / ignored

     Current dimensions of program PWSCF are:
     Max number of different atomic species (ntypx) = 10
     Max number of k-points (npk) =  40000
     Max angular momentum in pseudopotentials (lmaxx) =  4
     file O.pbe-n-kjpaw_psl.0.1.UPF: wavefunction(s)  2P renormalized

     gamma-point specific algorithms are used
     Message from routine setup:
     using ibrav=0 with symmetry is DISCOURAGED, use correct ibrav instead

     Using Slab Decomposition

     bravais-lattice index     =            0
     lattice parameter (alat)  =      10.9706  a.u.
     unit-cell volume          =    2133.5999 (a.u.)^3
     number of atoms/cell      =           20
     number of atomic types    =            3
     number of electrons       =       136.00
     number of Kohn-Sham states=           82
     kinetic-energy cutoff     =      30.0000  Ry
     charge density cutoff     =     240.0000  Ry
     scf convergence threshold =      1.0E-06
     mixing beta               =       0.7000
     number of iterations used =            8  plain     mixing
     Exchange-correlation= SLA  PW   PBX  PBC
                           (   1   4   3   4   0   0   0)

     celldm(1)=  10.970629  celldm(2)=   0.000000  celldm(3)=   0.000000
     celldm(4)=   0.000000  celldm(5)=   0.000000  celldm(6)=   0.000000

     crystal axes: (cart. coord. in units of alat)
               a(1) = (   1.000000   0.000000   0.000000 )
               a(2) = (   0.000000   1.125966   0.000000 )
               a(3) = (   0.000000   0.000000   1.435137 )

     reciprocal axes: (cart. coord. in units 2 pi/alat)
               b(1) = (  1.000000  0.000000  0.000000 )
               b(2) = (  0.000000  0.888127  0.000000 )
               b(3) = (  0.000000  0.000000  0.696798 )

     PseudoPot. # 1 for Na read from file:
     /home/pragov/projects/rrg-bengioy-ad/pragov/crystal_structure_design/SSSP/na_pbe_v1.5.uspp.F.UPF
     MD5 check sum: 44600605ef58000f06b90626533354dc
     Pseudo is Ultrasoft, Zval =  9.0
     Generated by new atomic code, or converted to UPF format
     Using radial grid of  819 points,  5 beta functions with:
                l(1) =   0
                l(2) =   0
                l(3) =   1
                l(4) =   1
                l(5) =   2
     Q(r) pseudized with  8 coefficients,  rinner =    1.250   1.250   1.250
                                                       1.250   1.250

     PseudoPot. # 2 for I  read from file:
     /home/pragov/projects/rrg-bengioy-ad/pragov/crystal_structure_design/SSSP/I.pbe-n-kjpaw_psl.0.2.UPF
     MD5 check sum: d4ef18d9c8f18dc85e5843bca1e50dc0
     Pseudo is Projector augmented-wave + core cor, Zval =  7.0
     Generated using "atomic" code by A. Dal Corso  v.5.0.99 svn rev. 10869
     Shape of augmentation charge: PSQ
     Using radial grid of 1247 points,  4 beta functions with:
                l(1) =   0
                l(2) =   0
                l(3) =   1
                l(4) =   1
     Q(r) pseudized with 0 coefficients

     PseudoPot. # 3 for O  read from file:
     /home/pragov/projects/rrg-bengioy-ad/pragov/crystal_structure_design/SSSP/O.pbe-n-kjpaw_psl.0.1.UPF
     MD5 check sum: 0234752ac141de4415c5fc33072bef88
     Pseudo is Projector augmented-wave + core cor, Zval =  6.0
     Generated using "atomic" code by A. Dal Corso  v.5.0.99 svn rev. 10869
     Shape of augmentation charge: BESSEL
     Using radial grid of 1095 points,  4 beta functions with:
                l(1) =   0
                l(2) =   0
                l(3) =   1
                l(4) =   1
     Q(r) pseudized with 0 coefficients

     atomic species   valence    mass     pseudopotential
        Na             9.00    22.98977     Na( 1.00)
        I              7.00   126.90447     I ( 1.00)
        O              6.00    15.99900     O ( 1.00)

      8 Sym. Ops., with inversion, found ( 6 have fractional translation)

                                    s                        frac. trans.

      isym =  1     identity

 cryst.   s( 1) = (     1          0          0      )
                  (     0          1          0      )
                  (     0          0          1      )

 cart.    s( 1) = (  1.0000000  0.0000000  0.0000000 )
                  (  0.0000000  1.0000000  0.0000000 )
                  (  0.0000000  0.0000000  1.0000000 )

      isym =  2     180 deg rotation - cart. axis [0,0,1]

 cryst.   s( 2) = (    -1          0          0      )    f =(  0.0000000 )
                  (     0         -1          0      )       (  0.0000000 )
                  (     0          0          1      )       ( -0.5000000 )

 cart.    s( 2) = ( -1.0000000  0.0000000  0.0000000 )    f =(  0.0000000 )
                  (  0.0000000 -1.0000000  0.0000000 )       (  0.0000000 )
                  (  0.0000000  0.0000000  1.0000000 )       ( -0.7175684 )

[...]

      isym =  4     180 deg rotation - cart. axis [1,0,0]

[...]

      isym =  5     inversion

 cryst.   s( 5) = (    -1          0          0      )
                  (     0         -1          0      )
                  (     0          0         -1      )

 cart.    s( 5) = ( -1.0000000  0.0000000  0.0000000 )
                  (  0.0000000 -1.0000000  0.0000000 )
                  (  0.0000000  0.0000000 -1.0000000 )

      isym =  6     inv. 180 deg rotation - cart. axis [0,0,1]

[...]

      isym =  8     inv. 180 deg rotation - cart. axis [1,0,0]

 cryst.   s( 8) = (    -1          0          0      )    f =(  0.5000000 )
                  (     0          1          0      )       ( -0.5000000 )
                  (     0          0          1      )       (  0.0000000 )

 cart.    s( 8) = ( -1.0000000  0.0000000  0.0000000 )    f =(  0.5000000 )
                  (  0.0000000  1.0000000  0.0000000 )       ( -0.5629828 )
                  (  0.0000000  0.0000000  1.0000000 )       (  0.0000000 )

   Cartesian axes

     site n.     atom                  positions (alat units)
         1           Na  tau(   1) = (   0.5000000   0.0000000   0.0000000  )
         2           Na  tau(   2) = (   0.0000000   0.5629828   0.0000000  )
         3           Na  tau(   3) = (   0.0000000   0.5629828   0.7175684  )
         4           Na  tau(   4) = (   0.5000000   0.0000000   0.7175684  )
         5           I   tau(   5) = (   0.0098260   0.0178927   0.3587842  )
         6           I   tau(   6) = (   0.5098260   0.5450900   1.0763526  )
         7           I   tau(   7) = (   0.4901740   0.5808755   0.3587842  )
         8           I   tau(   8) = (   0.9901740   1.1080728   1.0763526  )
         9           O   tau(   9) = (   0.1348760   0.1868517   0.5956191  )
        10           O   tau(  10) = (   0.6348760   0.3761310   0.8395177  )
        11           O   tau(  11) = (   0.3651240   0.7498345   0.1219493  )
        12           O   tau(  12) = (   0.8651240   0.9391138   1.3131875  )
        13           O   tau(  13) = (   0.8651240   0.9391138   0.8395177  )
        14           O   tau(  14) = (   0.3651240   0.7498345   0.5956191  )
        15           O   tau(  15) = (   0.6348760   0.3761310   1.3131875  )
        16           O   tau(  16) = (   0.1348760   0.1868517   0.1219493  )
        17           O   tau(  17) = (   0.7081300   0.1085667   0.3587842  )
        18           O   tau(  18) = (   0.2081300   0.4544160   1.0763526  )
        19           O   tau(  19) = (   0.7918700   0.6715495   0.3587842  )
        20           O   tau(  20) = (   0.2918700   1.0173988   1.0763526  )

   Crystallographic axes

     site n.     atom                  positions (cryst. coord.)
         1           Na  tau(   1) = (  0.5000000  0.0000000  0.0000000  )
         2           Na  tau(   2) = (  0.0000000  0.5000000  0.0000000  )
         3           Na  tau(   3) = (  0.0000000  0.5000000  0.5000000  )
         4           Na  tau(   4) = (  0.5000000  0.0000000  0.5000000  )
         5           I   tau(   5) = (  0.0098260  0.0158910  0.2500000  )
         6           I   tau(   6) = (  0.5098260  0.4841090  0.7500000  )
         7           I   tau(   7) = (  0.4901740  0.5158910  0.2500000  )
         8           I   tau(   8) = (  0.9901740  0.9841090  0.7500000  )
         9           O   tau(   9) = (  0.1348760  0.1659480  0.4150260  )
        10           O   tau(  10) = (  0.6348760  0.3340520  0.5849740  )
        11           O   tau(  11) = (  0.3651240  0.6659480  0.0849740  )
        12           O   tau(  12) = (  0.8651240  0.8340520  0.9150260  )
        13           O   tau(  13) = (  0.8651240  0.8340520  0.5849740  )
        14           O   tau(  14) = (  0.3651240  0.6659480  0.4150260  )
        15           O   tau(  15) = (  0.6348760  0.3340520  0.9150260  )
        16           O   tau(  16) = (  0.1348760  0.1659480  0.0849740  )
        17           O   tau(  17) = (  0.7081300  0.0964210  0.2500000  )
        18           O   tau(  18) = (  0.2081300  0.4035790  0.7500000  )
        19           O   tau(  19) = (  0.7918700  0.5964210  0.2500000  )
        20           O   tau(  20) = (  0.2918700  0.9035790  0.7500000  )

     number of k points=     1  Methfessel-Paxton smearing, width (Ry)=  0.0010
                       cart. coord. in units 2pi/alat
        k(    1) = (   0.0000000   0.0000000   0.0000000), wk =   2.0000000

                       cryst. coord.
        k(    1) = (   0.0000000   0.0000000   0.0000000), wk =   2.0000000

     Check: negative core charge=   -0.000009

     Initial potential from superposition of free atoms

     starting charge     135.9745, renormalised to     136.0000
     Starting wfcs are   84 randomized atomic wfcs
     Checking if some PAW data can be deallocated...

     Self-consistent Calculation

     iteration #  1     ecut=    30.00 Ry     beta= 0.70
     Davidson diagonalization with overlap

     ethr =  1.00E-02,  avg # of iterations =  2.0

     total energy              =   -2392.02999553 Ry
     estimated scf accuracy    <       6.87301256 Ry

[...]

     total energy              =   -2395.50619243 Ry
     estimated scf accuracy    <       0.00000150 Ry

     iteration # 10     ecut=    30.00 Ry     beta= 0.70
     Davidson diagonalization with overlap

     ethr =  1.10E-09,  avg # of iterations =  4.0

     End of self-consistent calculation

          k = 0.0000 0.0000 0.0000 (  2961 PWs)   bands (ev):

   -45.2985 -45.2978 -45.2978 -45.2970 -17.2890 -17.2569 -17.2515 -17.2351
   -17.2306 -17.2304 -17.2189 -17.2157 -17.2105 -17.2034 -17.1973 -17.1963
   -16.3423 -16.1068 -16.0574 -15.9211 -13.7725 -13.7386 -13.7325 -13.6483
   -13.6069 -13.5855 -13.4002 -13.3913  -7.5432  -7.1108  -6.7819  -6.5753
    -1.9617  -1.5576  -1.4417  -1.3690  -1.3673  -1.3638  -1.3559  -1.2715
    -1.1760  -0.7895  -0.7799  -0.2491   1.2119   1.3067   1.6026   1.7804
     1.8304   1.8637   2.0184   2.1175   2.2453   2.4463   2.4498   2.5177
     2.5418   2.5595   2.6206   2.6594   2.8066   2.9238   2.9314   2.9364
     3.2881   3.3618   3.3994   3.4214   7.2510   7.5412   7.8263   8.0741
     8.0763   8.0844   8.2458   8.4213   8.5334   8.8564   9.5517   9.5733
    11.3788  11.9803

     occupation numbers
     1.0000   1.0000   1.0000   1.0000   1.0000   1.0000   1.0000   1.0000
     1.0000   1.0000   1.0000   1.0000   1.0000   1.0000   1.0000   1.0000
     1.0000   1.0000   1.0000   1.0000   1.0000   1.0000   1.0000   1.0000
     1.0000   1.0000   1.0000   1.0000   1.0000   1.0000   1.0000   1.0000
     1.0000   1.0000   1.0000   1.0000   1.0000   1.0000   1.0000   1.0000
     1.0000   1.0000   1.0000   1.0000   1.0000   1.0000   1.0000   1.0000
     1.0000   1.0000   1.0000   1.0000   1.0000   1.0000   1.0000   1.0000
     1.0000   1.0000   1.0000   1.0000   1.0000   1.0000   1.0000   1.0000
     1.0000   1.0000   1.0000   1.0000  -0.0000  -0.0000  -0.0000  -0.0000
    -0.0000  -0.0000  -0.0000  -0.0000  -0.0000  -0.0000  -0.0000  -0.0000
    -0.0000  -0.0000

     the Fermi energy is     4.9225 ev

!    total energy              =   -2395.50619241 Ry
     estimated scf accuracy    <       0.00000077 Ry
     smearing contrib. (-TS)   =       0.00000000 Ry
     internal energy E=F+TS    =   -2395.50619241 Ry

     The total energy is F=E-TS. E is the sum of the following terms:
     one-electron contribution =    -444.13124158 Ry
     hartree contribution      =     291.29485150 Ry
     xc contribution           =    -313.25679797 Ry
     ewald contribution        =    -533.06128790 Ry
     one-center paw contrib.   =   -1396.35171646 Ry
      -> PAW hartree energy AE =       0.00000000 Ry
      -> PAW hartree energy PS =       0.00000000 Ry
      -> PAW xc energy AE      =       0.00000000 Ry
      -> PAW xc energy PS      =       0.00000000 Ry
      -> total E_H with PAW    =     291.29485150 Ry
      -> total E_XC with PAW   =    -313.25679797 Ry

     convergence has been achieved in  10 iterations

     Forces acting on atoms (cartesian axes, Ry/au):

     atom    1 type  1   force =     0.00000000    0.00000000   -0.00000000
     atom    2 type  1   force =     0.00000000    0.00000000    0.00000000
     atom    3 type  1   force =     0.00000000    0.00000000    0.00000000
     atom    4 type  1   force =     0.00000000   -0.00000000    0.00000000
     atom    5 type  2   force =     0.00152928   -0.07879560    0.00000000
     atom    6 type  2   force =     0.00152928    0.07879560    0.00000000
     atom    7 type  2   force =    -0.00152928   -0.07879560    0.00000000
     atom    8 type  2   force =    -0.00152928    0.07879560    0.00000000
     atom    9 type  3   force =     0.02275447    0.03268299    0.06018464
     atom   10 type  3   force =     0.02275447   -0.03268299   -0.06018464
     atom   11 type  3   force =    -0.02275447    0.03268299   -0.06018464
     atom   12 type  3   force =    -0.02275447   -0.03268299    0.06018464
     atom   13 type  3   force =    -0.02275447   -0.03268299   -0.06018464
     atom   14 type  3   force =    -0.02275447    0.03268299    0.06018464
     atom   15 type  3   force =     0.02275447   -0.03268299    0.06018464
     atom   16 type  3   force =     0.02275447    0.03268299   -0.06018464
     atom   17 type  3   force =    -0.05435274    0.01184480    0.00000000
     atom   18 type  3   force =    -0.05435274   -0.01184480    0.00000000
     atom   19 type  3   force =     0.05435274    0.01184480    0.00000000
     atom   20 type  3   force =     0.05435274   -0.01184480    0.00000000
     The non-local contrib.  to forces
     atom    1 type  1   force =     0.00000000    0.00000000   -0.00000000
     atom    2 type  1   force =     0.00000000   -0.00000000   -0.00000000
     atom    3 type  1   force =     0.00000000    0.00000000    0.00000000
     atom    4 type  1   force =     0.00000000   -0.00000000    0.00000000
     atom    5 type  2   force =    -0.05895245    0.39580532    0.00000000
     atom    6 type  2   force =    -0.05895245   -0.39580532    0.00000000
     atom    7 type  2   force =     0.05895245    0.39580532    0.00000000
     atom    8 type  2   force =     0.05895245   -0.39580532    0.00000000
     atom    9 type  3   force =    -0.56745168   -0.78250532   -1.12684153
     atom   10 type  3   force =    -0.56745168    0.78250532    1.12684153
     atom   11 type  3   force =     0.56745168   -0.78250532    1.12684153
     atom   12 type  3   force =     0.56745168    0.78250532   -1.12684153
     atom   13 type  3   force =     0.56745168    0.78250532    1.12684153
     atom   14 type  3   force =     0.56745168   -0.78250532   -1.12684153
     atom   15 type  3   force =    -0.56745168    0.78250532   -1.12684153
     atom   16 type  3   force =    -0.56745168   -0.78250532    1.12684153
     atom   17 type  3   force =     1.47243258   -0.47349785    0.00000000
     atom   18 type  3   force =     1.47243258    0.47349785    0.00000000
     atom   19 type  3   force =    -1.47243258   -0.47349785    0.00000000
     atom   20 type  3   force =    -1.47243258    0.47349785    0.00000000
     The ionic contribution  to forces
     atom    1 type  1   force =     0.00000000    0.00000000    0.00000000
     atom    2 type  1   force =    -0.00000000   -0.00000000    0.00000000
     atom    3 type  1   force =     0.00000000   -0.00000000    0.00000000
     atom    4 type  1   force =    -0.00000000   -0.00000000    0.00000000
     atom    5 type  2   force =     1.12132565   -5.59735148   -0.00000000
     atom    6 type  2   force =     1.12132565    5.59735148    0.00000000
     atom    7 type  2   force =    -1.12132565   -5.59735148   -0.00000000
     atom    8 type  2   force =    -1.12132565    5.59735148   -0.00000000
     atom    9 type  3   force =     1.56649885    1.62960955    2.37880972
     atom   10 type  3   force =     1.56649885   -1.62960955   -2.37880972
     atom   11 type  3   force =    -1.56649885    1.62960955   -2.37880972
     atom   12 type  3   force =    -1.56649885   -1.62960955    2.37880972
     atom   13 type  3   force =    -1.56649885   -1.62960955   -2.37880972
     atom   14 type  3   force =    -1.56649885    1.62960955    2.37880972
     atom   15 type  3   force =     1.56649885   -1.62960955    2.37880972
     atom   16 type  3   force =     1.56649885    1.62960955   -2.37880972
     atom   17 type  3   force =    -3.62246007    1.63101637    0.00000000
     atom   18 type  3   force =    -3.62246007   -1.63101637    0.00000000
     atom   19 type  3   force =     3.62246007    1.63101637    0.00000000
     atom   20 type  3   force =     3.62246007   -1.63101637    0.00000000
     The local contribution  to forces
     atom    1 type  1   force =     0.00022918    0.00006946    0.00014632
     atom    2 type  1   force =    -0.00024637    0.00006630    0.00017299
     atom    3 type  1   force =    -0.00025733    0.00002665   -0.00017604
     atom    4 type  1   force =     0.00026747    0.00012195   -0.00013408
     atom    5 type  2   force =    -1.08000871    5.19867611    0.00051918
     atom    6 type  2   force =    -1.07935701   -5.19882737   -0.00066255
     atom    7 type  2   force =     1.08005003    5.19861993    0.00061693
     atom    8 type  2   force =     1.07941488   -5.19878065   -0.00052362
     atom    9 type  3   force =    -0.98177854   -0.82192219   -1.20250605
     atom   10 type  3   force =    -0.98166351    0.82193675    1.20229699
     atom   11 type  3   force =     0.98175527   -0.82189016    1.20284849
     atom   12 type  3   force =     0.98165873    0.82190623   -1.20265781
     atom   13 type  3   force =     0.98165435    0.82194468    1.20232766
     atom   14 type  3   force =     0.98179487   -0.82197428   -1.20252481
     atom   15 type  3   force =    -0.98163517    0.82187327   -1.20262753
     atom   16 type  3   force =    -0.98177109   -0.82191638    1.20284020
     atom   17 type  3   force =     2.11007478   -1.15026736    0.00034854
     atom   18 type  3   force =     2.10995056    1.15034319   -0.00035404
     atom   19 type  3   force =    -2.11009630   -1.15030609    0.00034438
     atom   20 type  3   force =    -2.10999624    1.15037807   -0.00034715
     The core correction contribution to forces
     atom    1 type  1   force =     0.00000000    0.00000000    0.00000000
     atom    2 type  1   force =     0.00000000    0.00000000    0.00000000
     atom    3 type  1   force =     0.00000000    0.00000000    0.00000000
     atom    4 type  1   force =     0.00000000    0.00000000    0.00000000
     atom    5 type  2   force =     0.01884533   -0.07600430    0.00000388
     atom    6 type  2   force =     0.01884338    0.07600614   -0.00000502
     atom    7 type  2   force =    -0.01884508   -0.07600520    0.00000724
     atom    8 type  2   force =    -0.01884322    0.07600526   -0.00000560
     atom    9 type  3   force =     0.00543783    0.00755232    0.01093091
     atom   10 type  3   force =     0.00543632   -0.00755086   -0.01092949
     atom   11 type  3   force =    -0.00543872    0.00755376   -0.01093411
     atom   12 type  3   force =    -0.00543732   -0.00755260    0.01093281
     atom   13 type  3   force =    -0.00543665   -0.00755143   -0.01093027
     atom   14 type  3   force =    -0.00543801    0.00755237    0.01093052
     atom   15 type  3   force =     0.00543733   -0.00755271    0.01093365
     atom   16 type  3   force =     0.00543857    0.00755342   -0.01093365
     atom   17 type  3   force =    -0.01432016    0.00462346   -0.00000085
     atom   18 type  3   force =    -0.01432321   -0.00462349    0.00000108
     atom   19 type  3   force =     0.01431985    0.00462357   -0.00000094
     atom   20 type  3   force =     0.01432266   -0.00462347    0.00000092
     The Hubbard contrib.    to forces
     atom    1 type  1   force =     0.00000000    0.00000000    0.00000000
     atom    2 type  1   force =     0.00000000    0.00000000    0.00000000
     atom    3 type  1   force =     0.00000000    0.00000000    0.00000000
     atom    4 type  1   force =     0.00000000    0.00000000    0.00000000
     atom    5 type  2   force =     0.00000000    0.00000000    0.00000000
     atom    6 type  2   force =     0.00000000    0.00000000    0.00000000
     atom    7 type  2   force =     0.00000000    0.00000000    0.00000000
     atom    8 type  2   force =     0.00000000    0.00000000    0.00000000
     atom    9 type  3   force =     0.00000000    0.00000000    0.00000000
     atom   10 type  3   force =     0.00000000    0.00000000    0.00000000
     atom   11 type  3   force =     0.00000000    0.00000000    0.00000000
     atom   12 type  3   force =     0.00000000    0.00000000    0.00000000
     atom   13 type  3   force =     0.00000000    0.00000000    0.00000000
     atom   14 type  3   force =     0.00000000    0.00000000    0.00000000
     atom   15 type  3   force =     0.00000000    0.00000000    0.00000000
     atom   16 type  3   force =     0.00000000    0.00000000    0.00000000
     atom   17 type  3   force =     0.00000000    0.00000000    0.00000000
     atom   18 type  3   force =     0.00000000    0.00000000    0.00000000
     atom   19 type  3   force =     0.00000000    0.00000000    0.00000000
     atom   20 type  3   force =     0.00000000    0.00000000    0.00000000
     The SCF correction term to forces
     atom    1 type  1   force =    -0.00032362   -0.00011753   -0.00019882
     atom    2 type  1   force =     0.00034444   -0.00007797   -0.00023128
     atom    3 type  1   force =     0.00036790   -0.00003348    0.00021173
     atom    4 type  1   force =    -0.00033470   -0.00017536    0.00018035
     atom    5 type  2   force =     0.00033900    0.00008055   -0.00055966
     atom    6 type  2   force =    -0.00035203    0.00007962    0.00071215
     atom    7 type  2   force =    -0.00038214    0.00014561   -0.00066463
     atom    8 type  2   force =     0.00029118    0.00002748    0.00056646
     atom    9 type  3   force =     0.00007219   -0.00005367   -0.00026636
     atom   10 type  3   force =    -0.00012110    0.00008862    0.00053625
     atom   11 type  3   force =    -0.00007377   -0.00004062   -0.00024052
     atom   12 type  3   force =     0.00009703    0.00006593   -0.00000900
     atom   13 type  3   force =     0.00011742    0.00005917    0.00047273
     atom   14 type  3   force =    -0.00010105    0.00001024   -0.00027109
     atom   15 type  3   force =    -0.00012764    0.00010170    0.00000438
     atom   16 type  3   force =     0.00008536   -0.00002599   -0.00021623
     atom   17 type  3   force =    -0.00002982   -0.00002422   -0.00041999
     atom   18 type  3   force =    -0.00001763   -0.00002828    0.00043406
     atom   19 type  3   force =     0.00003846    0.00002860   -0.00041995
     atom   20 type  3   force =     0.00004706   -0.00007317    0.00041857

     Total force =     0.280869     Total SCF correction =     0.002094

     Computing stress (Cartesian axis) and pressure

          total   stress  (Ry/bohr**3)                   (kbar)     P=     -222.82
  -0.00143962   0.00000000   0.00000000         -211.78        0.00        0.00
   0.00000000  -0.00171058   0.00000000            0.00     -251.63        0.00
   0.00000000   0.00000000  -0.00139398            0.00        0.00     -205.06

     kinetic stress (kbar)  13581.76      0.00      0.00
                                0.00  13981.22      0.00
                                0.00      0.00  13655.92

     local   stress (kbar)   3586.20     -0.00      0.02
                               -0.00   7411.06     -0.08
                                0.02     -0.08   4815.80

     nonloc. stress (kbar)  -9821.37      0.00      0.00
                                0.00  -9783.01      0.00
                                0.00      0.00  -9807.79

     hartree stress (kbar)   7223.12      0.00     -0.01
                                0.00   6139.02      0.02
                               -0.01      0.02   6721.74

     exc-cor stress (kbar)   6546.70      0.00      0.00
                                0.00   6541.14     -0.00
                                0.00     -0.00   6545.92

     corecor stress (kbar) -10416.37     -0.00     -0.00
                               -0.00 -10423.90      0.01
                               -0.00      0.01 -10412.71

     ewald   stress (kbar) -10911.81     -0.00      0.00
                               -0.00 -14117.16     -0.00
                                0.00     -0.00 -11723.94

     hubbard stress (kbar)      0.00      0.00      0.00
                                0.00      0.00      0.00
                                0.00      0.00      0.00

     DFT-D   stress (kbar)      0.00      0.00      0.00
                                0.00      0.00      0.00
                                0.00      0.00      0.00

     XDM     stress (kbar)      0.00      0.00      0.00
                                0.00      0.00      0.00
                                0.00      0.00      0.00

     dft-nl  stress (kbar)      0.00      0.00      0.00
                                0.00      0.00      0.00
                                0.00      0.00      0.00

     TS-vdW  stress (kbar)      0.00      0.00      0.00
                                0.00      0.00      0.00
                                0.00      0.00      0.00

[...]

                                0.00      0.00      0.00

     Writing all to output data dir calculations/myprefix.save/

     General routines

     Parallel routines

     PAW routines

   This run was terminated on:  13: 8:38   6Mar2023

   JOB DONE.