     Program PWSCF v.7.0 starts on  3Mar2023 at 11: 7:37

     R & G space division:  proc/nbgrp/npool/nimage =      32

     Reading input from espresso_38.pwi
Warning: card &CELL ignored
Warning: card / ignored

     Current dimensions of program PWSCF are:
     Max number of different atomic species (ntypx) = 10
     Max number of k-points (npk) =  40000
     Max angular momentum in pseudopotentials (lmaxx) =  4
     file O.pbe-n-kjpaw_psl.0.1.UPF: wavefunction(s)  2P renormalized

     gamma-point specific algorithms are used
     Message from routine setup:
     using ibrav=0 with symmetry is DISCOURAGED, use correct ibrav instead

     Using Slab Decomposition

     bravais-lattice index     =            0
     lattice parameter (alat)  =      12.2088  a.u.
     unit-cell volume          =    1400.8607 (a.u.)^3
     number of atoms/cell      =           20
     number of atomic types    =            4
     number of electrons       =       187.00
     number of Kohn-Sham states=          113
     kinetic-energy cutoff     =      30.0000  Ry
     charge density cutoff     =     240.0000  Ry
     scf convergence threshold =      1.0E-06
     mixing beta               =       0.7000
     number of iterations used =            8  plain     mixing
     Exchange-correlation= SLA  PW   PBX  PBC
                           (   1   4   3   4   0   0   0)

     celldm(1)=  12.208780  celldm(2)=   0.000000  celldm(3)=   0.000000
     celldm(4)=   0.000000  celldm(5)=   0.000000  celldm(6)=   0.000000

     crystal axes: (cart. coord. in units of alat)
               a(1) = (   1.000000   0.000000   0.000000 )
               a(2) = (  -0.333333   0.942809   0.000000 )
               a(3) = (  -0.333333  -0.471405   0.816497 )

     reciprocal axes: (cart. coord. in units 2 pi/alat)
               b(1) = (  1.000000  0.353553  0.612372 )
               b(2) = (  0.000000  1.060660  0.612372 )
               b(3) = (  0.000000  0.000000  1.224745 )

     PseudoPot. # 1 for Ca read from file:
     /home/pragov/projects/rrg-bengioy-ad/pragov/crystal_structure_design/SSSP/Ca_pbe_v1.uspp.F.UPF
     MD5 check sum: 403a4c14b9e4d4dfdc3024c9a3812218
     Pseudo is Ultrasoft + core correction, Zval = 10.0
     Generated by new atomic code, or converted to UPF format
     Using radial grid of  845 points,  6 beta functions with:
                l(1) =   0
                l(2) =   0
                l(3) =   1
                l(4) =   1
                l(5) =   2
                l(6) =   2
     Q(r) pseudized with  8 coefficients,  rinner =    1.500   1.500   1.500
                                                       1.500   1.500

     PseudoPot. # 2 for Ti read from file:
     /home/pragov/projects/rrg-bengioy-ad/pragov/crystal_structure_design/SSSP/ti_pbe_v1.4.uspp.F.UPF
     MD5 check sum: 88a00a6731bd790ddea75d31a80cb452
     Pseudo is Ultrasoft + core correction, Zval = 12.0
     Generated by new atomic code, or converted to UPF format
     Using radial grid of  851 points,  6 beta functions with:
                l(1) =   0
                l(2) =   0
                l(3) =   1
                l(4) =   1
                l(5) =   2
                l(6) =   2
     Q(r) pseudized with  6 coefficients,  rinner =    1.000   1.000   1.000
                                                       1.000   1.000

     PseudoPot. # 3 for Cu read from file:
     /home/pragov/projects/rrg-bengioy-ad/pragov/crystal_structure_design/SSSP/Cu_pbe_v1.2.uspp.F.UPF
     MD5 check sum: 6e991ff952a84172a2a52a1c1e996048
     Pseudo is Ultrasoft + core correction, Zval = 19.0
     Generated by new atomic code, or converted to UPF format
     Using radial grid of  867 points,  6 beta functions with:
                l(1) =   0
                l(2) =   0
                l(3) =   1
                l(4) =   1
                l(5) =   2
                l(6) =   2
     Q(r) pseudized with  8 coefficients,  rinner =    1.150   1.150   1.150
                                                       1.150   1.150

     PseudoPot. # 4 for O  read from file:
     /home/pragov/projects/rrg-bengioy-ad/pragov/crystal_structure_design/SSSP/O.pbe-n-kjpaw_psl.0.1.UPF
     MD5 check sum: 0234752ac141de4415c5fc33072bef88
     Pseudo is Projector augmented-wave + core cor, Zval =  6.0
     Generated using "atomic" code by A. Dal Corso  v.5.0.99 svn rev. 10869
     Shape of augmentation charge: BESSEL
     Using radial grid of 1095 points,  4 beta functions with:
                l(1) =   0
                l(2) =   0
                l(3) =   1
                l(4) =   1
     Q(r) pseudized with 0 coefficients

     atomic species   valence    mass     pseudopotential
        Ca            10.00    40.07800     Ca( 1.00)
        Ti            12.00    47.86700     Ti( 1.00)
        Cu            19.00    63.54600     Cu( 1.00)
        O              6.00    15.99900     O ( 1.00)

      2 Sym. Ops., with inversion, found

                                    s                        frac. trans.

      isym =  1     identity

 cryst.   s( 1) = (     1          0          0      )
                  (     0          1          0      )
                  (     0          0          1      )

 cart.    s( 1) = (  1.0000000 -0.0000000  0.0000000 )
                  (  0.0000000  1.0000000  0.0000000 )
                  (  0.0000000  0.0000000  1.0000000 )

      isym =  2     inversion

 cryst.   s( 2) = (    -1          0          0      )
                  (     0         -1          0      )
                  (     0          0         -1      )

 cart.    s( 2) = ( -1.0000000  0.0000000 -0.0000000 )
                  (  0.0000000 -1.0000000 -0.0000000 )
                  (  0.0000000  0.0000000 -1.0000000 )

   Cartesian axes

     site n.     atom                  positions (alat units)
         1           Ca  tau(   1) = (   0.0000000   0.0000000   0.0000000  )
         2           Ti  tau(   2) = (   0.1666667   0.2357023   0.4082483  )
         3           Ti  tau(   3) = (  -0.1666667   0.4714045   0.0000000  )
         4           Ti  tau(   4) = (  -0.1666667  -0.2357023   0.4082483  )
         5           Ti  tau(   5) = (   0.5000000   0.0000000   0.0000000  )
         6           Cu  tau(   6) = (   0.3333333  -0.2357023   0.4082483  )
         7           Cu  tau(   7) = (   0.3333333   0.4714045   0.0000000  )
         8           Cu  tau(   8) = (  -0.3333333   0.2357023   0.4082483  )
         9           O   tau(   9) = (   0.5829900  -0.1616616   0.5693447  )
        10           O   tau(  10) = (  -0.0836767   0.0591683   0.3918212  )
        11           O   tau(  11) = (  -0.2496567   0.6330661   0.2471519  )
        12           O   tau(  12) = (   0.6800793   0.2262181   0.1024826  )
        13           O   tau(  13) = (   0.3199207   0.0243565   0.2471519  )
        14           O   tau(  14) = (  -0.0134127  -0.2695430   0.6718273  )
        15           O   tau(  15) = (   0.2496567   0.1024932   0.6718273  )
        16           O   tau(  16) = (  -0.3467460   0.2451864   0.7140140  )
        17           O   tau(  17) = (   0.0134127   0.4470480   0.5693447  )
        18           O   tau(  18) = (   0.0836767   0.3689113   0.1446693  )
        19           O   tau(  19) = (   0.3467460   0.7409475   0.1446693  )
        20           O   tau(  20) = (   0.4170100   0.4122362   0.4246754  )

   Crystallographic axes

     site n.     atom                  positions (cryst. coord.)
         1           Ca  tau(   1) = (  0.0000000  0.0000000  0.0000000  )
         2           Ti  tau(   2) = (  0.5000000  0.5000000  0.5000000  )
         3           Ti  tau(   3) = (  0.0000000  0.5000000  0.0000000  )
         4           Ti  tau(   4) = (  0.0000000  0.0000000  0.5000000  )
         5           Ti  tau(   5) = (  0.5000000  0.0000000  0.0000000  )
         6           Cu  tau(   6) = (  0.5000000  0.0000000  0.5000000  )
         7           Cu  tau(   7) = (  0.5000000  0.5000000  0.0000000  )
         8           Cu  tau(   8) = ( -0.0000000  0.5000000  0.5000000  )
         9           O   tau(   9) = (  0.8744850  0.1771830  0.6973020  )
        10           O   tau(  10) = (  0.1771830  0.3026980  0.4798810  )
        11           O   tau(  11) = (  0.1255150  0.8228170  0.3026980  )
        12           O   tau(  12) = (  0.8228170  0.3026980  0.1255150  )
        13           O   tau(  13) = (  0.4798810  0.1771830  0.3026980  )
        14           O   tau(  14) = (  0.3026980  0.1255150  0.8228170  )
        15           O   tau(  15) = (  0.6973020  0.5201190  0.8228170  )
        16           O   tau(  16) = (  0.1771830  0.6973020  0.8744850  )
        17           O   tau(  17) = (  0.5201190  0.8228170  0.6973020  )
        18           O   tau(  18) = (  0.3026980  0.4798810  0.1771830  )
        19           O   tau(  19) = (  0.6973020  0.8744850  0.1771830  )
        20           O   tau(  20) = (  0.8228170  0.6973020  0.5201190  )

     number of k points=     1  Methfessel-Paxton smearing, width (Ry)=  0.0010
                       cart. coord. in units 2pi/alat
        k(    1) = (   0.0000000   0.0000000   0.0000000), wk =   2.0000000

                       cryst. coord.
        k(    1) = (   0.0000000   0.0000000   0.0000000), wk =   2.0000000

     Check: negative core charge=   -0.000017

     Initial potential from superposition of free atoms

     starting charge     179.9943, renormalised to     187.0000

     negative rho (up, down):  4.993E-03 0.000E+00
     Starting wfcs are  137 randomized atomic wfcs
     Checking if some PAW data can be deallocated...

     Self-consistent Calculation

     iteration #  1     ecut=    30.00 Ry     beta= 0.70
     Davidson diagonalization with overlap

     ethr =  1.00E-02,  avg # of iterations =  2.0

     negative rho (up, down):  2.828E-03 0.000E+00

     total energy              =   -2228.14653216 Ry
     estimated scf accuracy    <      43.36622362 Ry

[...]

     total energy              =   -2263.63929218 Ry
     estimated scf accuracy    <       0.00000269 Ry

     iteration # 35     ecut=    30.00 Ry     beta= 0.70
     Davidson diagonalization with overlap

     ethr =  1.44E-09,  avg # of iterations =  1.0

[...]

     End of self-consistent calculation

          k = 0.0000 0.0000 0.0000 (  1963 PWs)   bands (ev):

  -102.1269-102.0939-102.0205 -59.6866 -59.6779 -59.6389 -59.6085 -59.5461
   -59.2264 -59.0488 -59.0122 -58.9738 -47.1600 -47.1594 -46.9753 -46.8969
   -28.3941 -23.4591 -23.3964 -23.3704 -23.3374 -23.3053 -23.2755 -23.2153
   -23.1933 -23.1513 -23.1076 -23.1024 -23.0020  -9.5791  -9.5512  -9.5451
    -8.2423  -7.8418  -7.3591  -7.2305  -7.0970  -7.0702  -6.8191  -6.7273
    -6.6696  -6.5962  -6.5801  -6.5382   4.1730   4.2364   4.5846   5.0670
     5.0745   5.1238   5.4815   5.5102   5.5896   5.9115   5.9482   5.9833
     6.2847   6.3084   6.3724   6.5420   7.0557   7.1111   7.3265   7.3533
     7.3630   7.6066   7.6305   7.7223   7.7243   7.7582   7.8194   8.1650
     8.1899   8.2299   8.3162   8.4090   8.4606   8.4992   8.5777   8.6276
     8.6685   8.6777   8.7250   8.8320   8.9061   9.0678   9.3719   9.3804
     9.3859   9.3999   9.7496   9.7941  10.0780  10.0878  10.1125  11.8758
    11.8950  11.9205  12.8810  12.8884  13.0484  13.1207  13.2523  13.3649
    13.4060  13.5823  13.7707  14.3489  14.4205  15.2691  15.2958  15.3451
    15.4468

     occupation numbers
     1.0000   1.0000   1.0000   1.0000   1.0000   1.0000   1.0000   1.0000
     1.0000   1.0000   1.0000   1.0000   1.0000   1.0000   1.0000   1.0000
     1.0000   1.0000   1.0000   1.0000   1.0000   1.0000   1.0000   1.0000
     1.0000   1.0000   1.0000   1.0000   1.0000   1.0000   1.0000   1.0000
     1.0000   1.0000   1.0000   1.0000   1.0000   1.0000   1.0000   1.0000
     1.0000   1.0000   1.0000   1.0000   1.0000   1.0000   1.0000   1.0000
     1.0000   1.0000   1.0000   1.0000   1.0000   1.0000   1.0000   1.0000
     1.0000   1.0000   1.0000   1.0000   1.0000   1.0000   1.0000   1.0000
     1.0000   1.0000   1.0000   1.0000   1.0000   1.0000   1.0000   1.0000
     1.0000   1.0000   1.0000   1.0000   1.0000   1.0000   1.0000   1.0000
     1.0000   1.0000   1.0000   1.0000   1.0000   1.0000   1.0000   1.0000
     1.0000   1.0000   1.0000   1.0000   0.9796   0.5358  -0.0154  -0.0000
    -0.0000  -0.0000  -0.0000  -0.0000  -0.0000  -0.0000  -0.0000  -0.0000
    -0.0000  -0.0000  -0.0000  -0.0000  -0.0000  -0.0000  -0.0000  -0.0000
    -0.0000

     the Fermi energy is    10.0884 ev

!    total energy              =   -2263.63929168 Ry
     estimated scf accuracy    <       0.00000055 Ry
     smearing contrib. (-TS)   =      -0.00019130 Ry
     internal energy E=F+TS    =   -2263.63910038 Ry

     The total energy is F=E-TS. E is the sum of the following terms:
     one-electron contribution =   -1249.57676465 Ry
     hartree contribution      =     723.29576442 Ry
     xc contribution           =    -289.34355728 Ry
     ewald contribution        =   -1333.76659585 Ry
     one-center paw contrib.   =    -114.24794701 Ry
      -> PAW hartree energy AE =       0.00000000 Ry
      -> PAW hartree energy PS =       0.00000000 Ry
      -> PAW xc energy AE      =       0.00000000 Ry
      -> PAW xc energy PS      =       0.00000000 Ry
      -> total E_H with PAW    =     723.29576442 Ry
      -> total E_XC with PAW   =    -289.34355728 Ry

     convergence has been achieved in  35 iterations

     negative rho (up, down):  4.610E-03 0.000E+00

     Forces acting on atoms (cartesian axes, Ry/au):

     atom    1 type  1   force =     0.00000000    0.00000000    0.00000000
     atom    2 type  2   force =     0.00000000    0.00000000    0.00000000
     atom    3 type  2   force =     0.00000000    0.00000000    0.00000000
     atom    4 type  2   force =     0.00000000    0.00000000    0.00000000
     atom    5 type  2   force =     0.00000000    0.00000000    0.00000000
     atom    6 type  3   force =     0.00000000    0.00000000    0.00000000
     atom    7 type  3   force =     0.00000000    0.00000000    0.00000000
     atom    8 type  3   force =     0.00000000    0.00000000    0.00000000
     atom    9 type  4   force =    -0.03843181   -0.00641476   -0.06905030
     atom   10 type  4   force =    -0.00918664    0.01585280    0.04939736
     atom   11 type  4   force =     0.03843181    0.00641476    0.06905030
     atom   12 type  4   force =     0.01753592    0.00781657    0.09780572
     atom   13 type  4   force =     0.03235473    0.01515226    0.08696502
     atom   14 type  4   force =    -0.00649376    0.01135031   -0.04234145
     atom   15 type  4   force =    -0.02108442   -0.01451613    0.01269350
     atom   16 type  4   force =    -0.01753592   -0.00781657   -0.09780572
     atom   17 type  4   force =    -0.03235473   -0.01515226   -0.08696502
     atom   18 type  4   force =     0.02108442    0.01451613   -0.01269350
     atom   19 type  4   force =     0.00649376   -0.01135031    0.04234145
     atom   20 type  4   force =     0.00918664   -0.01585280   -0.04939736
     The non-local contrib.  to forces
     atom    1 type  1   force =     0.00000000    0.00000000    0.00000000
     atom    2 type  2   force =     0.00000000    0.00000000    0.00000000
     atom    3 type  2   force =     0.00000000    0.00000000    0.00000000
     atom    4 type  2   force =     0.00000000    0.00000000    0.00000000
     atom    5 type  2   force =     0.00000000    0.00000000    0.00000000
     atom    6 type  3   force =     0.00000000    0.00000000    0.00000000
     atom    7 type  3   force =     0.00000000    0.00000000    0.00000000
     atom    8 type  3   force =     0.00000000    0.00000000    0.00000000
     atom    9 type  4   force =    -0.19818324   -0.07350244   -0.14298327
     atom   10 type  4   force =    -0.19728823    0.13513683    0.02824650
     atom   11 type  4   force =     0.19818324    0.07350244    0.14298327
     atom   12 type  4   force =     0.02595078   -0.01095982    0.27790232
     atom   13 type  4   force =     0.01471729   -0.18934624    0.16014514
     atom   14 type  4   force =    -0.00120309    0.20558272    0.08730883
     atom   15 type  4   force =    -0.19448780   -0.05330613    0.13042382
     atom   16 type  4   force =    -0.02595078    0.01095982   -0.27790232
     atom   17 type  4   force =    -0.01471729    0.18934624   -0.16014514
     atom   18 type  4   force =     0.19448780    0.05330613   -0.13042382
     atom   19 type  4   force =     0.00120309   -0.20558272   -0.08730883
     atom   20 type  4   force =     0.19728823   -0.13513683   -0.02824650
     The ionic contribution  to forces
     atom    1 type  1   force =     0.00000000   -0.00000000   -0.00000000
     atom    2 type  2   force =     0.00000000    0.00000000    0.00000000
     atom    3 type  2   force =    -0.00000000    0.00000000   -0.00000000
     atom    4 type  2   force =    -0.00000000    0.00000000    0.00000000
     atom    5 type  2   force =    -0.00000000    0.00000000   -0.00000000
     atom    6 type  3   force =     0.00000000   -0.00000000    0.00000000
     atom    7 type  3   force =    -0.00000000    0.00000000    0.00000000
     atom    8 type  3   force =     0.00000000   -0.00000000    0.00000000
     atom    9 type  4   force =     3.88708991   -1.05472247    3.78273992
     atom   10 type  4   force =     3.88708991   -2.74858764   -2.80478641
     atom   11 type  4   force =    -3.88708991    1.05472246   -3.78273992
     atom   12 type  4   force =     2.29009851   -1.61934419   -4.76069343
     atom   13 type  4   force =    -2.29009851    3.31320936   -3.78273992
     atom   14 type  4   force =    -2.29009852   -4.93255354   -0.97795351
     atom   15 type  4   force =     3.88708991    3.80331010   -0.97795351
     atom   16 type  4   force =    -2.29009851    1.61934419    4.76069343
     atom   17 type  4   force =     2.29009851   -3.31320936    3.78273992
     atom   18 type  4   force =    -3.88708991   -3.80331010    0.97795351
     atom   19 type  4   force =     2.29009852    4.93255354    0.97795351
     atom   20 type  4   force =    -3.88708991    2.74858764    2.80478641
     The local contribution  to forces
     atom    1 type  1   force =     0.00000734   -0.00000498    0.00001212
     atom    2 type  2   force =     0.00001663   -0.00002069   -0.00002006
     atom    3 type  2   force =    -0.00000594    0.00000457    0.00001165
     atom    4 type  2   force =     0.00000928   -0.00000139   -0.00001374
     atom    5 type  2   force =    -0.00001517    0.00000547    0.00002873
     atom    6 type  3   force =    -0.00001669    0.00003650   -0.00003365
     atom    7 type  3   force =     0.00000284   -0.00000665    0.00001065
     atom    8 type  3   force =    -0.00001360   -0.00000244   -0.00001658
     atom    9 type  4   force =    -3.73020506    1.12075864   -3.70999898
     atom   10 type  4   force =    -3.70207256    2.63131388    2.82557431
     atom   11 type  4   force =     3.73020614   -1.12074439    3.70999458
     atom   12 type  4   force =    -2.29861030    1.63776951    4.58357926
     atom   13 type  4   force =     2.30754144   -3.11216444    3.71118945
     atom   14 type  4   force =     2.28508891    4.74124869    0.85024848
     atom   15 type  4   force =    -3.71605558   -3.76526359    0.86178732
     atom   16 type  4   force =     2.29860840   -1.63776613   -4.58357058
     atom   17 type  4   force =    -2.30754257    3.11215492   -3.71118854
     atom   18 type  4   force =     3.71605787    3.76526034   -0.86178743
     atom   19 type  4   force =    -2.28508758   -4.74124868   -0.85024308
     atom   20 type  4   force =     3.70207568   -2.63132151   -2.82558439
     The core correction contribution to forces
     atom    1 type  1   force =    -0.00000002   -0.00000009    0.00000005
     atom    2 type  2   force =     0.00000013   -0.00000019   -0.00000016
     atom    3 type  2   force =    -0.00000007    0.00000001    0.00000012
     atom    4 type  2   force =     0.00000005   -0.00000004   -0.00000012
     atom    5 type  2   force =    -0.00000012    0.00000001    0.00000024
     atom    6 type  3   force =    -0.00000000    0.00000001   -0.00000001
     atom    7 type  3   force =    -0.00000000    0.00000001   -0.00000000
     atom    8 type  3   force =     0.00000000    0.00000000    0.00000000
     atom    9 type  4   force =     0.00253897    0.00099303    0.00100688
     atom   10 type  4   force =     0.00304929   -0.00195184    0.00023928
     atom   11 type  4   force =    -0.00253894   -0.00099296   -0.00100688
     atom   12 type  4   force =     0.00020586    0.00030802   -0.00290624
     atom   13 type  4   force =     0.00020040    0.00314224   -0.00140146
     atom   14 type  4   force =    -0.00021801   -0.00333792   -0.00222754
     atom   15 type  4   force =     0.00279145    0.00080723   -0.00186357
     atom   16 type  4   force =    -0.00020582   -0.00030800    0.00290625
     atom   17 type  4   force =    -0.00020041   -0.00314235    0.00140150
     atom   18 type  4   force =    -0.00279147   -0.00080722    0.00186356
     atom   19 type  4   force =     0.00021802    0.00333790    0.00222752
     atom   20 type  4   force =    -0.00304932    0.00195183   -0.00023928
     The Hubbard contrib.    to forces
     atom    1 type  1   force =     0.00000000    0.00000000    0.00000000
     atom    2 type  2   force =     0.00000000    0.00000000    0.00000000
     atom    3 type  2   force =     0.00000000    0.00000000    0.00000000
     atom    4 type  2   force =     0.00000000    0.00000000    0.00000000
     atom    5 type  2   force =     0.00000000    0.00000000    0.00000000
     atom    6 type  3   force =     0.00000000    0.00000000    0.00000000
     atom    7 type  3   force =     0.00000000    0.00000000    0.00000000
     atom    8 type  3   force =     0.00000000    0.00000000    0.00000000
     atom    9 type  4   force =     0.00000000    0.00000000    0.00000000
     atom   10 type  4   force =     0.00000000    0.00000000    0.00000000
     atom   11 type  4   force =     0.00000000    0.00000000    0.00000000
     atom   12 type  4   force =     0.00000000    0.00000000    0.00000000
     atom   13 type  4   force =     0.00000000    0.00000000    0.00000000
     atom   14 type  4   force =     0.00000000    0.00000000    0.00000000
     atom   15 type  4   force =     0.00000000    0.00000000    0.00000000
     atom   16 type  4   force =     0.00000000    0.00000000    0.00000000
     atom   17 type  4   force =     0.00000000    0.00000000    0.00000000
     atom   18 type  4   force =     0.00000000    0.00000000    0.00000000
     atom   19 type  4   force =     0.00000000    0.00000000    0.00000000
     atom   20 type  4   force =     0.00000000    0.00000000    0.00000000
     The SCF correction term to forces
     atom    1 type  1   force =    -0.00000852    0.00000419   -0.00001248
     atom    2 type  2   force =    -0.00001662    0.00002080    0.00001983
     atom    3 type  2   force =     0.00000594   -0.00000472   -0.00001163
     atom    4 type  2   force =    -0.00000884    0.00000135    0.00001340
     atom    5 type  2   force =     0.00001544   -0.00000564   -0.00002833
     atom    6 type  3   force =     0.00001915   -0.00004054    0.00003572
     atom    7 type  3   force =    -0.00000441    0.00000864   -0.00001224
     atom    8 type  3   force =     0.00001523    0.00000547    0.00001984
     atom    9 type  4   force =     0.00032845    0.00006042    0.00018551
     atom   10 type  4   force =     0.00003398   -0.00005852    0.00012443
     atom   11 type  4   force =    -0.00032787   -0.00007085   -0.00018038
     atom   12 type  4   force =    -0.00010713    0.00004347   -0.00007692
     atom   13 type  4   force =    -0.00000549    0.00030753   -0.00022734
     atom   14 type  4   force =    -0.00006309    0.00040997    0.00028120
     atom   15 type  4   force =    -0.00042296   -0.00006308    0.00029944
     atom   16 type  4   force =     0.00011258   -0.00004604    0.00006675
     atom   17 type  4   force =     0.00000743   -0.00030551    0.00022808
     atom   18 type  4   force =     0.00041958    0.00006764   -0.00029932
     atom   19 type  4   force =     0.00006166   -0.00041075   -0.00028876
     atom   20 type  4   force =    -0.00003899    0.00006598   -0.00011285

     Total force =     0.247451     Total SCF correction =     0.001310

     Computing stress (Cartesian axis) and pressure

     negative rho (up, down):  4.610E-03 0.000E+00
          total   stress  (Ry/bohr**3)                   (kbar)     P=     -588.18
  -0.00391792  -0.00011430  -0.00003442         -576.35      -16.81       -5.06
  -0.00011430  -0.00402871   0.00006234          -16.81     -592.64        9.17
  -0.00003442   0.00006234  -0.00404849           -5.06        9.17     -595.55

     kinetic stress (kbar)  31535.96      2.67      7.47
                                2.67  31526.85     18.25
                                7.47     18.25  31534.48

     local   stress (kbar) -13484.81      8.02    -13.33
                                8.02 -13421.32    -41.12
                              -13.33    -41.12 -13466.97

     nonloc. stress (kbar)  12205.34    -32.10     -8.12
                              -32.10  12149.39     18.60
                               -8.12     18.60  12167.35

     hartree stress (kbar)  25322.21      4.22      8.68
                                4.22  25307.15     13.37
                                8.68     13.37  25324.28

     exc-cor stress (kbar)  -7106.34      0.13      0.16
                                0.13  -7106.33      0.22
                                0.16      0.22  -7106.08

     corecor stress (kbar)  -2362.21      0.25      0.08
                                0.25  -2361.90     -0.15
                                0.08     -0.15  -2362.12

     ewald   stress (kbar) -46686.50     -0.00     -0.00
                               -0.00 -46686.50     -0.00
                               -0.00     -0.00 -46686.50

     hubbard stress (kbar)      0.00      0.00      0.00
                                0.00      0.00      0.00
                                0.00      0.00      0.00

     DFT-D   stress (kbar)      0.00      0.00      0.00
                                0.00      0.00      0.00
                                0.00      0.00      0.00

     XDM     stress (kbar)      0.00      0.00      0.00
                                0.00      0.00      0.00
                                0.00      0.00      0.00

     dft-nl  stress (kbar)      0.00      0.00      0.00
                                0.00      0.00      0.00
                                0.00      0.00      0.00

     TS-vdW  stress (kbar)      0.00      0.00      0.00
                                0.00      0.00      0.00
                                0.00      0.00      0.00

[...]

                                0.00      0.00      0.00

     Writing all to output data dir calculations/myprefix.save/

     General routines

     Parallel routines

     PAW routines

   This run was terminated on:  11: 7:44   3Mar2023

   JOB DONE.