     Program PWSCF v.7.0 starts on  3Mar2023 at 11:16:34

     R & G space division:  proc/nbgrp/npool/nimage =      32

     Reading input from espresso_68.pwi
Warning: card &CELL ignored
Warning: card / ignored

     Current dimensions of program PWSCF are:
     Max number of different atomic species (ntypx) = 10
     Max number of k-points (npk) =  40000
     Max angular momentum in pseudopotentials (lmaxx) =  4
     file Mg.pbe-n-kjpaw_psl.0.3.0.UPF: wavefunction(s)  3S renormalized

     gamma-point specific algorithms are used
     Message from routine setup:
     using ibrav=0 with symmetry is DISCOURAGED, use correct ibrav instead

     Using Slab Decomposition

     bravais-lattice index     =            0
     lattice parameter (alat)  =      16.8931  a.u.
     unit-cell volume          =    1414.8492 (a.u.)^3
     number of atoms/cell      =            7
     number of atomic types    =            3
     number of electrons       =        48.00
     number of Kohn-Sham states=           29
     kinetic-energy cutoff     =      30.0000  Ry
     charge density cutoff     =     240.0000  Ry
     scf convergence threshold =      1.0E-06
     mixing beta               =       0.7000
     number of iterations used =            8  plain     mixing
     Exchange-correlation=  SLA  PW   PBX  PBC
                           (   1   4   3   4   0   0   0)

     celldm(1)=  16.893107  celldm(2)=   0.000000  celldm(3)=   0.000000
     celldm(4)=   0.000000  celldm(5)=   0.000000  celldm(6)=   0.000000

     crystal axes: (cart. coord. in units of alat)
               a(1) = (   1.000000   0.000000   0.000000 )
               a(2) = (   0.679762   0.733433   0.000000 )
               a(3) = (  -0.839881  -0.366716   0.400149 )

     reciprocal axes: (cart. coord. in units 2 pi/alat)
               b(1) = (  1.000000 -0.926823  1.249536 )
               b(2) = (  0.000000  1.363452  1.249536 )
               b(3) = (  0.000000  0.000000  2.499071 )

     PseudoPot. # 1 for Rb read from file:
     /home/pragov/projects/rrg-bengioy-ad/pragov/crystal_structure_design/SSSP/Rb_ONCV_PBE-1.0.oncvpsp.upf
     MD5 check sum: 55a5172d6bfbce6759a58e35d43f6aa9
     Pseudo is Norm-conserving, Zval =  9.0
     Generated using ONCVPSP code by D. R. Hamann
     Using radial grid of 2308 points,  6 beta functions with:
                l(1) =   0
                l(2) =   0
                l(3) =   1
                l(4) =   1
                l(5) =   2
                l(6) =   2

     PseudoPot. # 2 for Mg read from file:
     /home/pragov/projects/rrg-bengioy-ad/pragov/crystal_structure_design/SSSP/Mg.pbe-n-kjpaw_psl.0.3.0.UPF
     MD5 check sum: 24ecedc7f3e3cbe212e682f4413594e4
     Pseudo is Projector augmented-wave + core cor, Zval =  2.0
     Generated using "atomic" code by A. Dal Corso  v.5.0.99 svn rev. 10869
     Shape of augmentation charge: PSQ
     Using radial grid of 1129 points,  4 beta functions with:
                l(1) =   0
                l(2) =   0
                l(3) =   1
                l(4) =   1
     Q(r) pseudized with 0 coefficients

     PseudoPot. # 3 for Cl read from file:
     /home/pragov/projects/rrg-bengioy-ad/pragov/crystal_structure_design/SSSP/cl_pbe_v1.4.uspp.F.UPF
     MD5 check sum: fc6f6913ecf08c9257cb748ef0700058
     Pseudo is Ultrasoft + core correction, Zval =  7.0
     Generated by new atomic code, or converted to UPF format
     Using radial grid of  909 points,  6 beta functions with:
                l(1) =   0
                l(2) =   0
                l(3) =   1
                l(4) =   1
                l(5) =   2
                l(6) =   2
     Q(r) pseudized with  8 coefficients,  rinner =    1.300   1.300   1.300
                                                       1.300   1.300

     atomic species   valence    mass     pseudopotential
        Rb             9.00    85.46780     Rb( 1.00)
        Mg             2.00    24.30500     Mg( 1.00)
        Cl             7.00    35.45000     Cl( 1.00)

      4 Sym. Ops., with inversion, found

                                    s                        frac. trans.

      isym =  1     identity

 cryst.   s( 1) = (     1          0          0      )
                  (     0          1          0      )
                  (     0          0          1      )

 cart.    s( 1) = (  1.0000000 -0.0000000  0.0000000 )
                  (  0.0000000  1.0000000  0.0000000 )
                  (  0.0000000  0.0000000  1.0000000 )

      isym =  2     180 deg rotation - cart. axis [0,0,1]

[...]

      isym =  3     inversion

[...]

      isym =  4     inv. 180 deg rotation - cart. axis [0,0,1]

 cryst.   s( 4) = (     1          0          0      )
                  (     0          1          0      )
                  (    -1         -1         -1      )

 cart.    s( 4) = (  1.0000000 -0.0000000 -0.0000000 )
                  (  0.0000000  1.0000000 -0.0000000 )
                  (  0.0000000  0.0000000 -1.0000000 )

   Cartesian axes

     site n.     atom                  positions (alat units)
         1           Rb  tau(   1) = (   0.5985278   0.2613345   0.0000000  )
         2           Rb  tau(   2) = (   1.0812344   0.4720981   0.0000000  )
         3           Mg  tau(   3) = (   0.0000000   0.0000000   0.0000000  )
         4           Cl  tau(   4) = (   0.2586347   0.1129274   0.0000000  )
         5           Cl  tau(   5) = (   1.4211275   0.6205053   0.0000000  )
         6           Cl  tau(   6) = (   0.0800595  -0.1833582   0.2000743  )
         7           Cl  tau(   7) = (  -0.0800595   0.1833582   0.2000743  )

   Crystallographic axes

     site n.     atom                  positions (cryst. coord.)
         1           Rb  tau(   1) = (  0.3563170  0.3563170  0.0000000  )
         2           Rb  tau(   2) = (  0.6436830  0.6436830  0.0000000  )
         3           Mg  tau(   3) = (  0.0000000  0.0000000  0.0000000  )
         4           Cl  tau(   4) = (  0.1539710  0.1539710  0.0000000  )
         5           Cl  tau(   5) = (  0.8460290  0.8460290  0.0000000  )
         6           Cl  tau(   6) = (  0.5000000  0.0000000  0.5000000  )
         7           Cl  tau(   7) = (  0.0000000  0.5000000  0.5000000  )

     number of k points=     1  Methfessel-Paxton smearing, width (Ry)=  0.0010
                       cart. coord. in units 2pi/alat
        k(    1) = (   0.0000000   0.0000000   0.0000000), wk =   2.0000000

                       cryst. coord.
        k(    1) = (   0.0000000   0.0000000   0.0000000), wk =   2.0000000

     Initial potential from superposition of free atoms

     starting charge      47.9495, renormalised to      48.0000

     negative rho (up, down):  5.966E-02 0.000E+00
     Starting wfcs are   30 randomized atomic wfcs
     Checking if some PAW data can be deallocated...

     Self-consistent Calculation

     iteration #  1     ecut=    30.00 Ry     beta= 0.70
     Davidson diagonalization with overlap

     ethr =  1.00E-02,  avg # of iterations =  7.0

     Threshold (ethr) on eigenvalues was too large:
     Diagonalizing with lowered threshold

     Davidson diagonalization with overlap

[...]

     negative rho (up, down):  6.184E-02 0.000E+00

     total energy              =    -265.41917428 Ry
     estimated scf accuracy    <       0.28232265 Ry

[...]

     c_bands:  1 eigenvalues not converged
     ethr =  3.19E-06,  avg # of iterations = 20.0

[...]

     total energy              =    -265.50727157 Ry
     estimated scf accuracy    <       0.00000131 Ry

     iteration #  7     ecut=    30.00 Ry     beta= 0.70
     Davidson diagonalization with overlap

     ethr =  2.72E-09,  avg # of iterations =  4.0

[...]

     End of self-consistent calculation

          k = 0.0000 0.0000 0.0000 (  1964 PWs)   bands (ev):

   -22.9581 -22.9521 -11.7267 -11.0896 -10.7727 -10.7317  -7.0550  -7.0506
    -7.0506  -7.0408  -7.0408  -7.0292  -0.9810  -0.9809  -0.4451   0.0645
     0.7497   0.9849   0.9849   1.0280   1.0280   1.2778   1.3871   1.3871
     6.1981   7.3879   8.5823   8.8439   8.9162

     occupation numbers
     1.0000   1.0000   1.0000   1.0000   1.0000   1.0000   1.0000   1.0000
     1.0000   1.0000   1.0000   1.0000   1.0000   1.0000   1.0000   1.0000
     1.0000   1.0000   1.0000   1.0000   1.0000   1.0000   1.0000   1.0000
    -0.0000  -0.0000  -0.0000  -0.0000  -0.0000

     the Fermi energy is     5.0340 ev

!    total energy              =    -265.50727179 Ry
     estimated scf accuracy    <       0.00000024 Ry
     smearing contrib. (-TS)   =       0.00000000 Ry
     internal energy E=F+TS    =    -265.50727179 Ry

     The total energy is F=E-TS. E is the sum of the following terms:
     one-electron contribution =     -60.37690038 Ry
     hartree contribution      =      47.25133237 Ry
     xc contribution           =     -54.77362635 Ry
     ewald contribution        =    -166.33599155 Ry
     one-center paw contrib.   =     -31.27208588 Ry
      -> PAW hartree energy AE =       0.00000000 Ry
      -> PAW hartree energy PS =       0.00000000 Ry
      -> PAW xc energy AE      =       0.00000000 Ry
      -> PAW xc energy PS      =       0.00000000 Ry
      -> total E_H with PAW    =      47.25133237 Ry
      -> total E_XC with PAW   =     -54.77362635 Ry

     convergence has been achieved in   7 iterations

     negative rho (up, down):  5.878E-02 0.000E+00

     Forces acting on atoms (cartesian axes, Ry/au):

     atom    1 type  1   force =     0.01493151    0.00650975   -0.00000000
     atom    2 type  1   force =    -0.01493151   -0.00650975    0.00000000
     atom    3 type  2   force =     0.00000000    0.00000000    0.00000000
     atom    4 type  3   force =    -0.01930218   -0.00843966    0.00000000
     atom    5 type  3   force =     0.01930218    0.00843966   -0.00000000
     atom    6 type  3   force =     0.00000000    0.00000000   -0.00000000
     atom    7 type  3   force =     0.00000000    0.00000000   -0.00000000
     The non-local contrib.  to forces
     atom    1 type  1   force =    -0.01472884   -0.00642937    0.00000000
     atom    2 type  1   force =     0.01472884    0.00642937   -0.00000000
     atom    3 type  2   force =     0.00000000    0.00000000   -0.00000000
     atom    4 type  3   force =    -0.04919635   -0.02146711    0.00000000
     atom    5 type  3   force =     0.04919635    0.02146711   -0.00000000
     atom    6 type  3   force =     0.00000000    0.00000000   -0.00000000
     atom    7 type  3   force =     0.00000000    0.00000000    0.00000000
     The ionic contribution  to forces
     atom    1 type  1   force =    -3.02013110   -1.31867634    0.00000000
     atom    2 type  1   force =     3.02013110    1.31867634   -0.00000000
     atom    3 type  2   force =     0.00000000    0.00000000   -0.00000000
     atom    4 type  3   force =     2.53121876    1.10520312   -0.00000000
     atom    5 type  3   force =    -2.53121876   -1.10520312    0.00000000
     atom    6 type  3   force =     0.00000000   -0.00000000    0.00000000
     atom    7 type  3   force =    -0.00000000    0.00000000    0.00000000
     The local contribution  to forces
     atom    1 type  1   force =     3.04941465    1.33147440   -0.00000414
     atom    2 type  1   force =    -3.04942824   -1.33146741   -0.00005457
     atom    3 type  2   force =    -0.00000717    0.00000193    0.00000036
     atom    4 type  3   force =    -2.50188556   -1.09236108   -0.00008821
     atom    5 type  3   force =     2.50190701    1.09245764    0.00005805
     atom    6 type  3   force =    -0.00000592   -0.00008378    0.00002063
     atom    7 type  3   force =     0.00000750   -0.00009497    0.00005196
     The core correction contribution to forces
     atom    1 type  1   force =     0.00000000    0.00000000    0.00000000
     atom    2 type  1   force =     0.00000000    0.00000000    0.00000000
     atom    3 type  2   force =    -0.00000011    0.00000019    0.00000005
     atom    4 type  3   force =     0.00089462    0.00039072   -0.00000236
     atom    5 type  3   force =    -0.00089503   -0.00038907    0.00000135
     atom    6 type  3   force =     0.00000058   -0.00000203    0.00000017
     atom    7 type  3   force =     0.00000120   -0.00000167    0.00000158
     The Hubbard contrib.    to forces
     atom    1 type  1   force =     0.00000000    0.00000000    0.00000000
     atom    2 type  1   force =     0.00000000    0.00000000    0.00000000
     atom    3 type  2   force =     0.00000000    0.00000000    0.00000000
     atom    4 type  3   force =     0.00000000    0.00000000    0.00000000
     atom    5 type  3   force =     0.00000000    0.00000000    0.00000000
     atom    6 type  3   force =     0.00000000    0.00000000    0.00000000
     atom    7 type  3   force =     0.00000000    0.00000000    0.00000000
     The SCF correction term to forces
     atom    1 type  1   force =     0.00038007    0.00013163   -0.00000600
     atom    2 type  1   force =    -0.00035994   -0.00015748    0.00007915
     atom    3 type  2   force =     0.00000851    0.00000103   -0.00000075
     atom    4 type  3   force =    -0.00034055   -0.00019054    0.00003296
     atom    5 type  3   force =     0.00030572    0.00012185   -0.00002688
     atom    6 type  3   force =     0.00003216    0.00004319   -0.00001766
     atom    7 type  3   force =     0.00002327    0.00006712   -0.00001484

     Total force =     0.037660     Total SCF correction =     0.000770

     Computing stress (Cartesian axis) and pressure

     negative rho (up, down):  5.878E-02 0.000E+00
          total   stress  (Ry/bohr**3)                   (kbar)     P=       20.93
  -0.00014307  -0.00020658   0.00000000          -21.05      -30.39        0.00
  -0.00020658   0.00023994   0.00000000          -30.39       35.30        0.00
   0.00000000   0.00000000   0.00033001            0.00        0.00       48.55

     kinetic stress (kbar)   5114.85    -44.51     -0.00
                              -44.51   5197.35     -0.00
                               -0.00     -0.00   5216.78

     local   stress (kbar)  -1845.06    413.20     -0.00
                              413.20  -2610.96      0.00
                               -0.00      0.00  -2791.40

     nonloc. stress (kbar)   2866.37     -4.87     -0.00
                               -4.87   2875.39     -0.00
                               -0.00     -0.00   2877.52

     hartree stress (kbar)   1350.70   -207.71      0.00
                             -207.71   1735.71      0.00
                                0.00      0.00   1826.41

     exc-cor stress (kbar)    152.26      0.61     -0.00
                                0.61    151.13     -0.00
                               -0.00     -0.00    150.86

     corecor stress (kbar)  -1636.78      0.11      0.00
                                0.11  -1636.98      0.00
                                0.00      0.00  -1637.03

     ewald   stress (kbar)  -6023.38   -187.22     -0.00
                             -187.22  -5676.35     -0.00
                               -0.00     -0.00  -5594.60

     hubbard stress (kbar)      0.00      0.00      0.00
                                0.00      0.00      0.00
                                0.00      0.00      0.00

     DFT-D   stress (kbar)      0.00      0.00      0.00
                                0.00      0.00      0.00
                                0.00      0.00      0.00

     XDM     stress (kbar)      0.00      0.00      0.00
                                0.00      0.00      0.00
                                0.00      0.00      0.00

     dft-nl  stress (kbar)      0.00      0.00      0.00
                                0.00      0.00      0.00
                                0.00      0.00      0.00

     TS-vdW  stress (kbar)      0.00      0.00      0.00
                                0.00      0.00      0.00
                                0.00      0.00      0.00

[...]

                                0.00      0.00      0.00

     Writing all to output data dir calculations/myprefix.save/

     General routines

     Parallel routines

     PAW routines

   This run was terminated on:  11:16:36   3Mar2023

   JOB DONE.