     Program PWSCF v.7.0 starts on  6Mar2023 at 13:43:10

     R & G space division:  proc/nbgrp/npool/nimage =      32

     Reading input from espresso_4811.pwi
Warning: card &CELL ignored
Warning: card / ignored

     Current dimensions of program PWSCF are:
     Max number of different atomic species (ntypx) = 10
     Max number of k-points (npk) =  40000
     Max angular momentum in pseudopotentials (lmaxx) =  4
     file Pb.pbe-dn-kjpaw_psl.0.2.2.UPF: wavefunction(s)  6S renormalized

     gamma-point specific algorithms are used
     Message from routine setup:
     using ibrav=0 with symmetry is DISCOURAGED, use correct ibrav instead

     Using Slab Decomposition

     bravais-lattice index     =            0
     lattice parameter (alat)  =      18.4964  a.u.
     unit-cell volume          =    3877.8570 (a.u.)^3
     number of atoms/cell      =           18
     number of atomic types    =            3
     number of electrons       =       208.00
     number of Kohn-Sham states=          125
     kinetic-energy cutoff     =      30.0000  Ry
     charge density cutoff     =     240.0000  Ry
     scf convergence threshold =      1.0E-06
     mixing beta               =       0.7000
     number of iterations used =            8  plain     mixing
     Exchange-correlation=  SLA  PW   PBX  PBC
                           (   1   4   3   4   0   0   0)

     celldm(1)=  18.496424  celldm(2)=   0.000000  celldm(3)=   0.000000
     celldm(4)=   0.000000  celldm(5)=   0.000000  celldm(6)=   0.000000

     crystal axes: (cart. coord. in units of alat)
               a(1) = (   1.000000   0.000000   0.000000 )
               a(2) = (  -0.500000   0.866025   0.000000 )
               a(3) = (   0.000000   0.000000   0.707616 )

     reciprocal axes: (cart. coord. in units 2 pi/alat)
               b(1) = (  1.000000  0.577350  0.000000 )
               b(2) = (  0.000000  1.154701  0.000000 )
               b(3) = (  0.000000  0.000000  1.413195 )

     PseudoPot. # 1 for La read from file:
     /home/pragov/projects/rrg-bengioy-ad/pragov/crystal_structure_design/SSSP/La.GGA-PBE-paw-v1.0.UPF
     MD5 check sum: 436541e95c1ad8901025bd0b0ed42ae2
     Pseudo is Projector augmented-wave + core cor, Zval = 11.0
     Generated using ATOMPAW code
     Shape of augmentation charge: BESSEL
     Using radial grid of 1101 points,  8 beta functions with:
                l(1) =   0
                l(2) =   0
                l(3) =   1
                l(4) =   1
                l(5) =   2
                l(6) =   2
                l(7) =   3
                l(8) =   3
     Q(r) pseudized with 0 coefficients

     PseudoPot. # 2 for Pb read from file:
     /home/pragov/projects/rrg-bengioy-ad/pragov/crystal_structure_design/SSSP/Pb.pbe-dn-kjpaw_psl.0.2.2.UPF
     MD5 check sum: 9d431e6316058b74ade52399a6cf67da
     Pseudo is Projector augmented-wave + core cor, Zval = 14.0
     Generated using "atomic" code by A. Dal Corso  v.5.0.99 svn rev. 10869
     Shape of augmentation charge: PSQ
     Using radial grid of 1281 points,  6 beta functions with:
                l(1) =   0
                l(2) =   0
                l(3) =   1
                l(4) =   1
                l(5) =   2
                l(6) =   2
     Q(r) pseudized with 0 coefficients

     PseudoPot. # 3 for Cl read from file:
     /home/pragov/projects/rrg-bengioy-ad/pragov/crystal_structure_design/SSSP/cl_pbe_v1.4.uspp.F.UPF
     MD5 check sum: fc6f6913ecf08c9257cb748ef0700058
     Pseudo is Ultrasoft + core correction, Zval =  7.0
     Generated by new atomic code, or converted to UPF format
     Using radial grid of  909 points,  6 beta functions with:
                l(1) =   0
                l(2) =   0
                l(3) =   1
                l(4) =   1
                l(5) =   2
                l(6) =   2
     Q(r) pseudized with  8 coefficients,  rinner =    1.300   1.300   1.300
                                                       1.300   1.300

     atomic species   valence    mass     pseudopotential
        La            11.00   138.90547     La( 1.00)
        Pb            14.00   207.20000     Pb( 1.00)
        Cl             7.00    35.45000     Cl( 1.00)

     24 Sym. Ops., with inversion, found (12 have fractional translation)

                                    s                        frac. trans.

      isym =  1     identity

 cryst.   s( 1) = (     1          0          0      )
                  (     0          1          0      )
                  (     0          0          1      )

 cart.    s( 1) = (  1.0000000  0.0000000  0.0000000 )
                  (  0.0000000  1.0000000  0.0000000 )
                  (  0.0000000  0.0000000  1.0000000 )

      isym =  2     180 deg rotation - cart. axis [0,0,1]

 cryst.   s( 2) = (    -1          0          0      )    f =(  0.0000000 )
                  (     0         -1          0      )       (  0.0000000 )
                  (     0          0          1      )       ( -0.5000000 )

 cart.    s( 2) = ( -1.0000000 -0.0000000  0.0000000 )    f =(  0.0000000 )
                  (  0.0000000 -1.0000000  0.0000000 )       (  0.0000000 )
                  (  0.0000000  0.0000000  1.0000000 )       ( -0.3538082 )

[...]

      isym =  4     180 deg rotation - cart. axis [1,0,0]

[...]

      isym =  5      60 deg rotation - cryst. axis [0,0,1]

[...]

 cryst.   s( 6) = (     0         -1          0      )    f =(  0.0000000 )
                  (     1          1          0      )       (  0.0000000 )
                  (     0          0          1      )       ( -0.5000000 )

 cart.    s( 6) = (  0.5000000  0.8660254  0.0000000 )    f =(  0.0000000 )
                  ( -0.8660254  0.5000000  0.0000000 )       (  0.0000000 )
                  (  0.0000000  0.0000000  1.0000000 )       ( -0.3538082 )

[...]

 cryst.   s( 9) = (     0         -1          0      )
                  (    -1          0          0      )
                  (     0          0         -1      )

 cart.    s( 9) = (  0.5000000 -0.8660254  0.0000000 )
                  ( -0.8660254 -0.5000000  0.0000000 )
                  (  0.0000000  0.0000000 -1.0000000 )

[...]

 cryst.   s(10) = (     1          1          0      )
                  (     0         -1          0      )
                  (     0          0         -1      )

 cart.    s(10) = (  0.5000000  0.8660254  0.0000000 )
                  (  0.8660254 -0.5000000  0.0000000 )
                  (  0.0000000  0.0000000 -1.0000000 )

[...]

 cryst.   s(11) = (    -1         -1          0      )    f =( -0.0000000 )
                  (     0          1          0      )       (  0.0000000 )
                  (     0          0         -1      )       (  0.5000000 )

 cart.    s(11) = ( -0.5000000 -0.8660254  0.0000000 )    f =( -0.0000000 )
                  ( -0.8660254  0.5000000  0.0000000 )       (  0.0000000 )
                  (  0.0000000  0.0000000 -1.0000000 )       (  0.3538082 )

      isym = 12     180 deg rotation - cryst. axis [1,1,0]

[...]

      isym = 13     inversion

[...]

      isym = 14     inv. 180 deg rotation - cart. axis [0,0,1]

[...]

      isym = 16     inv. 180 deg rotation - cart. axis [1,0,0]

[...]

      isym = 17     inv.  60 deg rotation - cryst. axis [0,0,1]

[...]

 cryst.   s(22) = (    -1         -1          0      )
                  (     0          1          0      )
                  (     0          0          1      )

 cart.    s(22) = ( -0.5000000 -0.8660254  0.0000000 )
                  ( -0.8660254  0.5000000  0.0000000 )
                  (  0.0000000  0.0000000  1.0000000 )

[...]

      isym = 24     inv. 180 deg rotation - cryst. axis [1,1,0]

 cryst.   s(24) = (     0         -1          0      )    f =( -0.0000000 )
                  (    -1          0          0      )       ( -0.0000000 )
                  (     0          0          1      )       ( -0.5000000 )

 cart.    s(24) = (  0.5000000 -0.8660254  0.0000000 )    f =( -0.0000000 )
                  ( -0.8660254 -0.5000000  0.0000000 )       ( -0.0000000 )
                  (  0.0000000  0.0000000  1.0000000 )       ( -0.3538082 )

   Cartesian axes

     site n.     atom                  positions (alat units)
         1           La  tau(   1) = (   0.2626310   0.0000000   0.1769041  )
         2           La  tau(   2) = (   0.7373690   0.0000000   0.5307122  )
         3           La  tau(   3) = (   0.8686845   0.2274451   0.1769041  )
         4           La  tau(   4) = (   0.6313155   0.6385803   0.5307122  )
         5           La  tau(   5) = (   0.3686845   0.6385803   0.1769041  )
         6           La  tau(   6) = (   0.1313155   0.2274451   0.5307122  )
         7           La  tau(   7) = (  -0.0000005   0.5773506   0.0000000  )
         8           La  tau(   8) = (   0.5000005   0.2886748   0.0000000  )
         9           La  tau(   9) = (   0.5000005   0.2886748   0.3538082  )
        10           La  tau(  10) = (  -0.0000005   0.5773506   0.3538082  )
        11           Pb  tau(  11) = (   0.6149270   0.0000000   0.1769041  )
        12           Pb  tau(  12) = (   0.3850730   0.0000000   0.5307122  )
        13           Pb  tau(  13) = (   0.6925365   0.5325424   0.1769041  )
        14           Pb  tau(  14) = (  -0.1925365   0.3334830   0.5307122  )
        15           Pb  tau(  15) = (   0.1925365   0.3334830   0.1769041  )
        16           Pb  tau(  16) = (   0.3074635   0.5325424   0.5307122  )
        17           Cl  tau(  17) = (   0.0000000   0.0000000   0.0000000  )
        18           Cl  tau(  18) = (   0.0000000   0.0000000   0.3538082  )

   Crystallographic axes

     site n.     atom                  positions (cryst. coord.)
         1           La  tau(   1) = (  0.2626310  0.0000000  0.2500000  )
         2           La  tau(   2) = (  0.7373690  0.0000000  0.7500000  )
         3           La  tau(   3) = (  1.0000000  0.2626310  0.2500000  )
         4           La  tau(   4) = (  1.0000000  0.7373690  0.7500000  )
         5           La  tau(   5) = (  0.7373690  0.7373690  0.2500000  )
         6           La  tau(   6) = (  0.2626310  0.2626310  0.7500000  )
         7           La  tau(   7) = (  0.3333330  0.6666670  0.0000000  )
         8           La  tau(   8) = (  0.6666670  0.3333330  0.0000000  )
         9           La  tau(   9) = (  0.6666670  0.3333330  0.5000000  )
        10           La  tau(  10) = (  0.3333330  0.6666670  0.5000000  )
        11           Pb  tau(  11) = (  0.6149270  0.0000000  0.2500000  )
        12           Pb  tau(  12) = (  0.3850730  0.0000000  0.7500000  )
        13           Pb  tau(  13) = (  1.0000000  0.6149270  0.2500000  )
        14           Pb  tau(  14) = ( -0.0000000  0.3850730  0.7500000  )
        15           Pb  tau(  15) = (  0.3850730  0.3850730  0.2500000  )
        16           Pb  tau(  16) = (  0.6149270  0.6149270  0.7500000  )
        17           Cl  tau(  17) = (  0.0000000  0.0000000  0.0000000  )
        18           Cl  tau(  18) = (  0.0000000  0.0000000  0.5000000  )

     number of k points=     1  Methfessel-Paxton smearing, width (Ry)=  0.0010
[...]

     total energy              =   -9871.97178211 Ry
     estimated scf accuracy    <       1.75783922 Ry

[...]

     c_bands:  1 eigenvalues not converged
     ethr =  8.45E-04,  avg # of iterations = 20.0

[...]

     c_bands:  1 eigenvalues not converged
     ethr =  3.15E-06,  avg # of iterations = 20.0

[...]

     total energy              =   -9873.30075022 Ry
     estimated scf accuracy    <       0.00001229 Ry

     iteration # 32     ecut=    30.00 Ry     beta= 0.70
     Davidson diagonalization with overlap

     ethr =  2.27E-09,  avg # of iterations =  6.0

[...]

     End of self-consistent calculation

          k = 0.0000 0.0000 0.0000 (  5391 PWs)   bands (ev):

   -21.9477 -21.9320 -21.9308 -21.9198 -21.9196 -21.9183 -21.2547 -21.2539
   -21.1028 -21.1026  -7.1530  -6.7550  -5.8379  -5.8370  -5.8340  -5.7831
    -5.7827  -5.7722  -5.7718  -5.7049  -5.6971  -5.6764  -5.6760  -5.6667
    -5.6656  -5.6592  -5.6588  -5.5986  -5.5805  -5.5441  -5.3404  -5.1340
    -5.1338  -5.1065  -5.1064  -5.0520  -5.0520  -5.0428  -5.0428  -5.0315
    -4.9485  -4.9275  -4.9125  -4.9123  -4.9106  -4.9105  -4.9082  -4.9044
    -4.9044  -4.8917  -4.8865  -4.8733  -4.8623  -4.8305  -4.8301  -4.8250
    -4.8230  -4.8229  -4.8030  -4.8028  -4.7865  -4.7272  -4.7272  -4.7187
    -4.7185  -4.7159  -4.6587  -4.6587  -4.5684  -4.5682  -4.2159  -4.1761
     2.5999   3.2257   3.2259   3.4177   3.4179   3.4317   4.4130   5.0207
     5.0208   5.1585   5.1587   6.1325   8.8755   9.0166   9.3967   9.3968
     9.4685   9.4686   9.4940   9.6135   9.6136   9.7135   9.7137  10.7599
    10.7601  10.7842  10.7843  10.8145  10.9119  11.1811  11.2007  11.2008
    11.2396  11.2398  11.3733  11.6838  11.8231  12.2658  12.4831  12.4831
    12.5150  12.5187  12.5190  12.5880  12.5889  12.6002  12.6012  12.6544
    12.6548  12.6779  12.6928  12.6948  12.6997

     occupation numbers
     1.0000   1.0000   1.0000   1.0000   1.0000   1.0000   1.0000   1.0000
     1.0000   1.0000   1.0000   1.0000   1.0000   1.0000   1.0000   1.0000
     1.0000   1.0000   1.0000   1.0000   1.0000   1.0000   1.0000   1.0000
     1.0000   1.0000   1.0000   1.0000   1.0000   1.0000   1.0000   1.0000
     1.0000   1.0000   1.0000   1.0000   1.0000   1.0000   1.0000   1.0000
     1.0000   1.0000   1.0000   1.0000   1.0000   1.0000   1.0000   1.0000
     1.0000   1.0000   1.0000   1.0000   1.0000   1.0000   1.0000   1.0000
     1.0000   1.0000   1.0000   1.0000   1.0000   1.0000   1.0000   1.0000
     1.0000   1.0000   1.0000   1.0000   1.0000   1.0000   1.0000   1.0000
     1.0000   1.0000   1.0000   1.0000   1.0000   1.0000   1.0000   1.0000
     1.0000   1.0000   1.0000   1.0000   1.0000   1.0000   1.0000   1.0000
     1.0000   1.0000   1.0000   1.0000   1.0000   1.0000   1.0000   1.0000
     1.0000   1.0000   1.0000   1.0000   1.0000   1.0002   1.0303   1.0307
    -0.0310  -0.0302  -0.0000  -0.0000  -0.0000  -0.0000  -0.0000  -0.0000
    -0.0000  -0.0000  -0.0000  -0.0000  -0.0000  -0.0000  -0.0000  -0.0000
    -0.0000  -0.0000  -0.0000  -0.0000  -0.0000

     the Fermi energy is    11.2202 ev

!    total energy              =   -9873.30075041 Ry
     estimated scf accuracy    <       0.00000089 Ry
     smearing contrib. (-TS)   =       0.00045141 Ry
     internal energy E=F+TS    =   -9873.30120181 Ry

     The total energy is F=E-TS. E is the sum of the following terms:
     one-electron contribution =    -232.60188016 Ry
     hartree contribution      =     258.91088188 Ry
     xc contribution           =    -372.93432933 Ry
     ewald contribution        =   -1175.20724521 Ry
     one-center paw contrib.   =   -8351.46862900 Ry
      -> PAW hartree energy AE =      34.95721410 Ry
      -> PAW hartree energy PS =     -34.99056923 Ry
      -> PAW xc energy AE      =    -405.33492708 Ry
      -> PAW xc energy PS      =       7.30613669 Ry
      -> total E_H with PAW    =     258.87752675 Ry
      -> total E_XC with PAW   =    -770.96311971 Ry

     convergence has been achieved in  32 iterations

     negative rho (up, down):  2.775E-02 0.000E+00

     Forces acting on atoms (cartesian axes, Ry/au):

     atom    1 type  1   force =    -0.02486248   -0.00000000    0.00000000
     atom    2 type  1   force =     0.02486248    0.00000000   -0.00000000
     atom    3 type  1   force =     0.01243124   -0.02153154    0.00000000
     atom    4 type  1   force =    -0.01243124    0.02153154    0.00000000
     atom    5 type  1   force =     0.01243124    0.02153154   -0.00000000
     atom    6 type  1   force =    -0.01243124   -0.02153154   -0.00000000
     atom    7 type  1   force =     0.00000000   -0.00000000   -0.00000000
     atom    8 type  1   force =     0.00000000    0.00000000    0.00000000
     atom    9 type  1   force =     0.00000000    0.00000000    0.00000000
     atom   10 type  1   force =    -0.00000000   -0.00000000   -0.00000000
     atom   11 type  2   force =    -0.03185365   -0.00000000   -0.00000000
     atom   12 type  2   force =     0.03185365    0.00000000    0.00000000
     atom   13 type  2   force =     0.01592682   -0.02758607   -0.00000000
     atom   14 type  2   force =    -0.01592682    0.02758607   -0.00000000
     atom   15 type  2   force =     0.01592682    0.02758607    0.00000000
     atom   16 type  2   force =    -0.01592682   -0.02758607    0.00000000
     atom   17 type  3   force =    -0.00000000   -0.00000000    0.00000000
     atom   18 type  3   force =     0.00000000    0.00000000    0.00000000
     The non-local contrib.  to forces
     atom    1 type  1   force =     0.11296823    0.00000000   -0.00000000
     atom    2 type  1   force =    -0.11296823   -0.00000000    0.00000000
     atom    3 type  1   force =    -0.05648411    0.09783336   -0.00000000
     atom    4 type  1   force =     0.05648411   -0.09783336   -0.00000000
     atom    5 type  1   force =    -0.05648411   -0.09783336   -0.00000000
     atom    6 type  1   force =     0.05648411    0.09783336   -0.00000000
     atom    7 type  1   force =    -0.00000000    0.00000000    0.00000000
     atom    8 type  1   force =     0.00000000    0.00000000    0.00000000
     atom    9 type  1   force =     0.00000000    0.00000000    0.00000000
     atom   10 type  1   force =    -0.00000000    0.00000000    0.00000000
     atom   11 type  2   force =     0.09610019    0.00000000   -0.00000000
     atom   12 type  2   force =    -0.09610019   -0.00000000    0.00000000
     atom   13 type  2   force =    -0.04805009    0.08322520    0.00000000
     atom   14 type  2   force =     0.04805009   -0.08322520   -0.00000000
     atom   15 type  2   force =    -0.04805009   -0.08322520   -0.00000000
     atom   16 type  2   force =     0.04805009    0.08322520    0.00000000
     atom   17 type  3   force =    -0.00000000   -0.00000000   -0.00000000
     atom   18 type  3   force =     0.00000000    0.00000000    0.00000000
     The ionic contribution  to forces
     atom    1 type  1   force =    -0.52272342    0.00002794   -0.00000000
     atom    2 type  1   force =     0.52272342   -0.00002794   -0.00000000
     atom    3 type  1   force =     0.26138591   -0.45267779   -0.00000000
     atom    4 type  1   force =    -0.26138591    0.45267779   -0.00000000
     atom    5 type  1   force =     0.26133755    0.45264992   -0.00000000
     atom    6 type  1   force =    -0.26133755   -0.45264992   -0.00000000
     atom    7 type  1   force =     0.00006248   -0.00003607   -0.00000000
     atom    8 type  1   force =    -0.00006248    0.00003607    0.00000000
     atom    9 type  1   force =    -0.00006248    0.00003607   -0.00000000
     atom   10 type  1   force =     0.00006248   -0.00003607    0.00000000
     atom   11 type  2   force =     0.75783482   -0.00003442    0.00000000
     atom   12 type  2   force =    -0.75783482    0.00003442   -0.00000000
     atom   13 type  2   force =    -0.37894723    0.65628699   -0.00000000
     atom   14 type  2   force =     0.37894723   -0.65628699   -0.00000000
     atom   15 type  2   force =    -0.37888760   -0.65625257   -0.00000000
     atom   16 type  2   force =     0.37888760    0.65625257   -0.00000000
     atom   17 type  3   force =     0.00000000    0.00000000    0.00000000
     atom   18 type  3   force =     0.00000000    0.00000000   -0.00000000
     The local contribution  to forces
     atom    1 type  1   force =     0.38483725    0.00021292   -0.00021037
     atom    2 type  1   force =    -0.38485529    0.00050460    0.00020591
     atom    3 type  1   force =    -0.19222534    0.33346777   -0.00031729
     atom    4 type  1   force =     0.19270422   -0.33336230    0.00031416
     atom    5 type  1   force =    -0.19201780   -0.33373123   -0.00006156
     atom    6 type  1   force =     0.19271557    0.33318676    0.00005948
     atom    7 type  1   force =    -0.00052961   -0.00021654    0.00020228
     atom    8 type  1   force =    -0.00016375   -0.00010055    0.00024895
     atom    9 type  1   force =    -0.00047407   -0.00004389   -0.00021926
     atom   10 type  1   force =    -0.00033172   -0.00025933   -0.00017993
     atom   11 type  2   force =    -0.88505475    0.00047477   -0.00056494
     atom   12 type  2   force =     0.88369621    0.00066357    0.00053988
     atom   13 type  2   force =     0.44220945   -0.76591711   -0.00074506
     atom   14 type  2   force =    -0.44212579    0.76623379    0.00074826
     atom   15 type  2   force =     0.44253164    0.76522573   -0.00028748
     atom   16 type  2   force =    -0.44202270   -0.76698404    0.00026272
     atom   17 type  3   force =     0.00050173    0.00028886    0.00010205
     atom   18 type  3   force =     0.00051530    0.00028521   -0.00012725
     The core correction contribution to forces
     atom    1 type  1   force =    -0.00024566   -0.00000003    0.00000005
     atom    2 type  1   force =     0.00024563    0.00000013   -0.00000006
     atom    3 type  1   force =     0.00012285   -0.00021276    0.00000004
     atom    4 type  1   force =    -0.00012280    0.00021267   -0.00000004
     atom    5 type  1   force =     0.00012289    0.00021267    0.00000008
     atom    6 type  1   force =    -0.00012289   -0.00021272   -0.00000007
     atom    7 type  1   force =    -0.00000006   -0.00000003    0.00000002
     atom    8 type  1   force =     0.00000004   -0.00000003    0.00000005
     atom    9 type  1   force =     0.00000000    0.00000000   -0.00000003
     atom   10 type  1   force =    -0.00000008   -0.00000005   -0.00000001
     atom   11 type  2   force =    -0.00107261    0.00000479   -0.00000019
     atom   12 type  2   force =     0.00107328   -0.00000058    0.00000029
     atom   13 type  2   force =     0.00053800   -0.00093168   -0.00000192
     atom   14 type  2   force =    -0.00053626    0.00093282    0.00000156
     atom   15 type  2   force =     0.00053370    0.00092983    0.00000199
     atom   16 type  2   force =    -0.00053392   -0.00093500   -0.00000278
     atom   17 type  3   force =     0.00000031    0.00000189   -0.00000084
     atom   18 type  3   force =     0.00000139    0.00000116    0.00000015
     The Hubbard contrib.    to forces
     atom    1 type  1   force =     0.00000000    0.00000000    0.00000000
     atom    2 type  1   force =     0.00000000    0.00000000    0.00000000
     atom    3 type  1   force =     0.00000000    0.00000000    0.00000000
     atom    4 type  1   force =     0.00000000    0.00000000    0.00000000
     atom    5 type  1   force =     0.00000000    0.00000000    0.00000000
     atom    6 type  1   force =     0.00000000    0.00000000    0.00000000
     atom    7 type  1   force =     0.00000000    0.00000000    0.00000000
     atom    8 type  1   force =     0.00000000    0.00000000    0.00000000
     atom    9 type  1   force =     0.00000000    0.00000000    0.00000000
     atom   10 type  1   force =     0.00000000    0.00000000    0.00000000
     atom   11 type  2   force =     0.00000000    0.00000000    0.00000000
     atom   12 type  2   force =     0.00000000    0.00000000    0.00000000
     atom   13 type  2   force =     0.00000000    0.00000000    0.00000000
     atom   14 type  2   force =     0.00000000    0.00000000    0.00000000
     atom   15 type  2   force =     0.00000000    0.00000000    0.00000000
     atom   16 type  2   force =     0.00000000    0.00000000    0.00000000
     atom   17 type  3   force =     0.00000000    0.00000000    0.00000000
     atom   18 type  3   force =     0.00000000    0.00000000    0.00000000
     The SCF correction term to forces
     atom    1 type  1   force =     0.00031017   -0.00023895    0.00024159
     atom    2 type  1   force =    -0.00030930   -0.00037457   -0.00026049
     atom    3 type  1   force =    -0.00035966    0.00005111    0.00036764
     atom    4 type  1   force =    -0.00005180   -0.00023114   -0.00035083
     atom    5 type  1   force =    -0.00048085    0.00026270    0.00010708
     atom    6 type  1   force =    -0.00020417    0.00025529   -0.00010501
     atom    7 type  1   force =     0.00042477    0.00028428   -0.00021324
     atom    8 type  1   force =     0.00025639   -0.00003057   -0.00020843
     atom    9 type  1   force =     0.00055174   -0.00006880    0.00020490
     atom   10 type  1   force =     0.00018338    0.00031719    0.00020095
     atom   11 type  2   force =     0.00039568   -0.00047437    0.00057688
     atom   12 type  2   force =     0.00102698   -0.00068204   -0.00054753
     atom   13 type  2   force =     0.00021926   -0.00029599    0.00079136
     atom   14 type  2   force =    -0.00029614   -0.00001446   -0.00076328
     atom   15 type  2   force =    -0.00019920    0.00087015    0.00026490
     atom   16 type  2   force =    -0.00031635    0.00091078   -0.00023419
     atom   17 type  3   force =    -0.00048622   -0.00023968   -0.00013382
     atom   18 type  3   force =    -0.00048846   -0.00023867    0.00014357

     Total force =     0.098979     Total SCF correction =     0.002963

     Computing stress (Cartesian axis) and pressure

     negative rho (up, down):  2.775E-02 0.000E+00
          total   stress  (Ry/bohr**3)                   (kbar)     P=       -6.33
   0.00002536   0.00000000   0.00000000            3.73        0.00        0.00
   0.00000000   0.00002536  -0.00000000            0.00        3.73       -0.00
   0.00000000   0.00000000  -0.00017985            0.00        0.00      -26.46

     kinetic stress (kbar)   9945.16      0.00      0.00
                                0.00   9945.16      0.00
                                0.00      0.00   9873.87

     local   stress (kbar)   -929.43      0.04      0.00
                                0.04   -929.49      0.07
                                0.00      0.07    830.82

     nonloc. stress (kbar)   5040.78      0.00      0.00
                                0.00   5040.78      0.00
                                0.00      0.00   5021.37

     hartree stress (kbar)   3469.42     -0.01     -0.00
                               -0.01   3469.43     -0.03
                               -0.00     -0.03   2882.84

     exc-cor stress (kbar)   3794.69     -0.00     -0.00
                               -0.00   3794.69     -0.00
                               -0.00     -0.00   3792.09

     corecor stress (kbar)  -6826.83      0.00      0.00
                                0.00  -6826.83      0.00
                                0.00      0.00  -6826.47

     ewald   stress (kbar) -14490.04      0.01      0.00
                                0.01 -14490.04      0.00
                                0.00      0.00 -15600.97

     hubbard stress (kbar)      0.00      0.00      0.00
                                0.00      0.00      0.00
                                0.00      0.00      0.00

     DFT-D   stress (kbar)      0.00      0.00      0.00
                                0.00      0.00      0.00
                                0.00      0.00      0.00

     XDM     stress (kbar)      0.00      0.00      0.00
                                0.00      0.00      0.00
                                0.00      0.00      0.00

     dft-nl  stress (kbar)      0.00      0.00      0.00
                                0.00      0.00      0.00
                                0.00      0.00      0.00

     TS-vdW  stress (kbar)      0.00      0.00      0.00
                                0.00      0.00      0.00
                                0.00      0.00      0.00

[...]

                                0.00      0.00      0.00

     Writing all to output data dir calculations/myprefix.save/

     General routines

     Parallel routines

     PAW routines

   This run was terminated on:  13:43:39   6Mar2023

   JOB DONE.