     Program PWSCF v.7.0 starts on  4Mar2023 at 19:11:33

     R & G space division:  proc/nbgrp/npool/nimage =      32

     Reading input from espresso_7344.pwi
Warning: card &CELL ignored
Warning: card / ignored

     Current dimensions of program PWSCF are:
     Max number of different atomic species (ntypx) = 10
     Max number of k-points (npk) =  40000
     Max angular momentum in pseudopotentials (lmaxx) =  4
     file O.pbe-n-kjpaw_psl.0.1.UPF: wavefunction(s)  2P renormalized

     gamma-point specific algorithms are used
     Message from routine setup:
     using ibrav=0 with symmetry is DISCOURAGED, use correct ibrav instead

     Using Slab Decomposition

     bravais-lattice index     =            0
     lattice parameter (alat)  =       9.6284  a.u.
     unit-cell volume          =     759.2425 (a.u.)^3
     number of atoms/cell      =           11
     number of atomic types    =            3
     number of electrons       =        78.00
     number of Kohn-Sham states=           47
     kinetic-energy cutoff     =      30.0000  Ry
     charge density cutoff     =     240.0000  Ry
     scf convergence threshold =      1.0E-06
     mixing beta               =       0.7000
     number of iterations used =            8  plain     mixing
     Exchange-correlation= SLA  PW   PBX  PBC
                           (   1   4   3   4   0   0   0)

     celldm(1)=   9.628444  celldm(2)=   0.000000  celldm(3)=   0.000000
     celldm(4)=   0.000000  celldm(5)=   0.000000  celldm(6)=   0.000000

     crystal axes: (cart. coord. in units of alat)
               a(1) = (   1.000000   0.000000   0.000000 )
               a(2) = (  -0.498583   0.866842   0.000000 )
               a(3) = (   0.165194   0.285585   0.981233 )

     reciprocal axes: (cart. coord. in units 2 pi/alat)
               b(1) = (  1.000000  0.575172 -0.335755 )
               b(2) = (  0.000000  1.153613 -0.335755 )
               b(3) = (  0.000000  0.000000  1.019125 )

     PseudoPot. # 1 for Li read from file:
     /home/pragov/projects/rrg-bengioy-ad/pragov/crystal_structure_design/SSSP/li_pbe_v1.4.uspp.F.UPF
     MD5 check sum: e912e257baa3777c20ea3d68f190483c
     Pseudo is Ultrasoft, Zval =  3.0
     Generated by new atomic code, or converted to UPF format
     Using radial grid of  751 points,  5 beta functions with:
                l(1) =   0
                l(2) =   0
                l(3) =   0
                l(4) =   1
                l(5) =   1
     Q(r) pseudized with 10 coefficients,  rinner =    1.150   1.150   1.150

     PseudoPot. # 2 for Ti read from file:
     /home/pragov/projects/rrg-bengioy-ad/pragov/crystal_structure_design/SSSP/ti_pbe_v1.4.uspp.F.UPF
     MD5 check sum: 88a00a6731bd790ddea75d31a80cb452
     Pseudo is Ultrasoft + core correction, Zval = 12.0
     Generated by new atomic code, or converted to UPF format
     Using radial grid of  851 points,  6 beta functions with:
                l(1) =   0
                l(2) =   0
                l(3) =   1
                l(4) =   1
                l(5) =   2
                l(6) =   2
     Q(r) pseudized with  6 coefficients,  rinner =    1.000   1.000   1.000
                                                       1.000   1.000

     PseudoPot. # 3 for O  read from file:
     /home/pragov/projects/rrg-bengioy-ad/pragov/crystal_structure_design/SSSP/O.pbe-n-kjpaw_psl.0.1.UPF
     MD5 check sum: 0234752ac141de4415c5fc33072bef88
     Pseudo is Projector augmented-wave + core cor, Zval =  6.0
     Generated using "atomic" code by A. Dal Corso  v.5.0.99 svn rev. 10869
     Shape of augmentation charge: BESSEL
     Using radial grid of 1095 points,  4 beta functions with:
                l(1) =   0
                l(2) =   0
                l(3) =   1
                l(4) =   1
     Q(r) pseudized with 0 coefficients

     atomic species   valence    mass     pseudopotential
        Li             3.00     6.94000     Li( 1.00)
        Ti            12.00    47.86700     Ti( 1.00)
        O              6.00    15.99900     O ( 1.00)

      2 Sym. Ops., with inversion, found

                                    s                        frac. trans.

      isym =  1     identity

 cryst.   s( 1) = (     1          0          0      )
                  (     0          1          0      )
                  (     0          0          1      )

 cart.    s( 1) = (  1.0000000 -0.0000000  0.0000000 )
                  (  0.0000000  1.0000000  0.0000000 )
                  (  0.0000000  0.0000000  1.0000000 )

      isym =  2     inversion

 cryst.   s( 2) = (    -1          0          0      )
                  (     0         -1          0      )
                  (     0          0         -1      )

 cart.    s( 2) = ( -1.0000000  0.0000000 -0.0000000 )
                  (  0.0000000 -1.0000000 -0.0000000 )
                  (  0.0000000  0.0000000 -1.0000000 )

   Cartesian axes

     site n.     atom                  positions (alat units)
         1           Li  tau(   1) = (   0.8317746   0.2878783   0.4906167  )
         2           Li  tau(   2) = (  -0.1651640   0.8645483   0.4906167  )
         3           Ti  tau(   3) = (   0.4942671   0.2925366   0.0000000  )
         4           Ti  tau(   4) = (   0.0071495   0.5743052   0.0000000  )
         5           Ti  tau(   5) = (   0.0000000   0.0000000   0.0000000  )
         6           O   tau(   6) = (   0.1619383   0.2799565   0.2223122  )
         7           O   tau(   7) = (   0.6765299   0.5771203   0.2170734  )
         8           O   tau(   8) = (   0.1629654   0.8741870   0.2170734  )
         9           O   tau(   9) = (   0.5036451   0.2782396   0.7641601  )
        10           O   tau(  10) = (  -0.0099194   0.5753063   0.7641601  )
        11           O   tau(  11) = (   0.5046723   0.8724701   0.7589213  )

   Crystallographic axes

     site n.     atom                  positions (cryst. coord.)
         1           Li  tau(   1) = (  0.8326270  0.1673730  0.5000000  )
         2           Li  tau(   2) = (  0.1673730  0.8326270  0.5000000  )
         3           Ti  tau(   3) = (  0.6625260  0.3374740  0.0000000  )
         4           Ti  tau(   4) = (  0.3374740  0.6625260  0.0000000  )
         5           Ti  tau(   5) = (  0.0000000  0.0000000  0.0000000  )
         6           O   tau(   6) = (  0.2483190  0.2483190  0.2265640  )
         7           O   tau(   7) = (  0.9355900  0.5928900  0.2212250  )
         8           O   tau(   8) = (  0.5928900  0.9355900  0.2212250  )
         9           O   tau(   9) = (  0.4071100  0.0644100  0.7787750  )
        10           O   tau(  10) = (  0.0644100  0.4071100  0.7787750  )
        11           O   tau(  11) = (  0.7516810  0.7516810  0.7734360  )

     number of k points=     1  Methfessel-Paxton smearing, width (Ry)=  0.0010
                       cart. coord. in units 2pi/alat
        k(    1) = (   0.0000000   0.0000000   0.0000000), wk =   2.0000000

                       cryst. coord.
        k(    1) = (   0.0000000   0.0000000   0.0000000), wk =   2.0000000

     Check: negative core charge=   -0.000017

     Initial potential from superposition of free atoms

     starting charge      74.0984, renormalised to      78.0000

     negative rho (up, down):  4.761E-03 0.000E+00
     Starting wfcs are   64 randomized atomic wfcs
     Checking if some PAW data can be deallocated...

     Self-consistent Calculation

     iteration #  1     ecut=    30.00 Ry     beta= 0.70
     Davidson diagonalization with overlap

     ethr =  1.00E-02,  avg # of iterations =  2.0

     negative rho (up, down):  4.632E-03 0.000E+00

     total energy              =    -636.95052947 Ry
     estimated scf accuracy    <       1.13983641 Ry

[...]

     total energy              =    -637.54174712 Ry
     estimated scf accuracy    <       0.00000246 Ry

     iteration # 21     ecut=    30.00 Ry     beta= 0.70
     Davidson diagonalization with overlap

     ethr =  3.15E-09,  avg # of iterations =  3.0

[...]

     End of self-consistent calculation

          k = 0.0000 0.0000 0.0000 (  1052 PWs)   bands (ev):

   -47.7389 -47.6366 -47.5984 -35.6977 -35.6819 -24.1899 -24.1467 -24.1385
   -24.1257 -24.0836 -24.0103 -23.9347 -23.6959 -23.6649  -9.9918  -8.8437
    -8.8261  -8.7599  -8.7331  -8.6423   3.0728   3.7834   3.7873   4.1616
     4.3385   4.3872   4.5703   4.8410   4.8443   5.0884   5.4128   5.5376
     5.6600   5.8438   6.1484   6.9029   7.2292   7.2296  10.9205  10.9227
    11.2953  11.4286  11.6586  11.7520  11.8507  12.0344  12.1256

     occupation numbers
     1.0000   1.0000   1.0000   1.0000   1.0000   1.0000   1.0000   1.0000
     1.0000   1.0000   1.0000   1.0000   1.0000   1.0000   1.0000   1.0000
     1.0000   1.0000   1.0000   1.0000   1.0000   1.0000   1.0000   1.0000
     1.0000   1.0000   1.0000   1.0000   1.0000   1.0000   1.0000   1.0000
     1.0000   1.0000   1.0000   1.0000   1.0000   1.0000   0.5682   0.4318
    -0.0000  -0.0000  -0.0000  -0.0000  -0.0000  -0.0000  -0.0000

     the Fermi energy is    10.9216 ev

!    total energy              =    -637.54174701 Ry
     estimated scf accuracy    <       0.00000062 Ry
     smearing contrib. (-TS)   =      -0.00055317 Ry
     internal energy E=F+TS    =    -637.54119384 Ry

     The total energy is F=E-TS. E is the sum of the following terms:
     one-electron contribution =    -266.58106100 Ry
     hartree contribution      =     167.66117515 Ry
     xc contribution           =    -106.06430338 Ry
     ewald contribution        =    -375.44279754 Ry
     one-center paw contrib.   =     -57.11420706 Ry
      -> PAW hartree energy AE =       0.00000000 Ry
      -> PAW hartree energy PS =       0.00000000 Ry
      -> PAW xc energy AE      =       0.00000000 Ry
      -> PAW xc energy PS      =       0.00000000 Ry
      -> total E_H with PAW    =     167.66117515 Ry
      -> total E_XC with PAW   =    -106.06430338 Ry

     convergence has been achieved in  21 iterations

     negative rho (up, down):  3.182E-03 0.000E+00

     Forces acting on atoms (cartesian axes, Ry/au):

     atom    1 type  1   force =    -0.00098528    0.00057568    0.00000142
     atom    2 type  1   force =     0.00098528   -0.00057568   -0.00000142
     atom    3 type  2   force =     0.00561101   -0.00331437   -0.00002425
     atom    4 type  2   force =    -0.00561101    0.00331437    0.00002425
     atom    5 type  2   force =     0.00000000    0.00000000    0.00000000
     atom    6 type  3   force =    -0.00358111   -0.00603732   -0.04474804
     atom    7 type  3   force =    -0.01387875   -0.01119340   -0.02581373
     atom    8 type  3   force =    -0.00288464   -0.01758289   -0.02582828
     atom    9 type  3   force =     0.00288464    0.01758289    0.02582828
     atom   10 type  3   force =     0.01387875    0.01119340    0.02581373
     atom   11 type  3   force =     0.00358111    0.00603732    0.04474804
     The non-local contrib.  to forces
     atom    1 type  1   force =    -0.00078707    0.00046045   -0.00000042
     atom    2 type  1   force =     0.00078707   -0.00046045    0.00000042
     atom    3 type  2   force =    -0.02226269    0.01289255    0.00000840
     atom    4 type  2   force =     0.02226269   -0.01289255   -0.00000840
     atom    5 type  2   force =     0.00000000    0.00000000    0.00000000
     atom    6 type  3   force =    -0.04955486   -0.08564337   -0.74472507
     atom    7 type  3   force =     0.12668235    0.01076903   -0.70533058
     atom    8 type  3   force =    -0.05384363    0.11520650   -0.70535143
     atom    9 type  3   force =     0.05384363   -0.11520650    0.70535143
     atom   10 type  3   force =    -0.12668235   -0.01076903    0.70533058
     atom   11 type  3   force =     0.04955486    0.08564337    0.74472507
     The ionic contribution  to forces
     atom    1 type  1   force =    -0.06031309    0.03488755    0.00000000
     atom    2 type  1   force =     0.06031309   -0.03488755    0.00000000
     atom    3 type  2   force =    -1.08143280    0.62554484    0.00000000
     atom    4 type  2   force =     1.08143280   -0.62554484    0.00000000
     atom    5 type  2   force =    -0.00000000   -0.00000000   -0.00000000
     atom    6 type  3   force =     0.63962997    1.10578297   13.09032185
     atom    7 type  3   force =    -1.21107815   -0.00960667   13.01434116
     atom    8 type  3   force =     0.59549598   -1.05460282   13.01434116
     atom    9 type  3   force =    -0.59549598    1.05460282  -13.01434116
     atom   10 type  3   force =     1.21107815    0.00960666  -13.01434116
     atom   11 type  3   force =    -0.63962997   -1.10578297  -13.09032185
     The local contribution  to forces
     atom    1 type  1   force =     0.06015469   -0.03478217   -0.00000888
     atom    2 type  1   force =    -0.06014121    0.03476887    0.00000071
     atom    3 type  2   force =     1.11014120   -0.64224572   -0.00005710
     atom    4 type  2   force =    -1.11007861    0.64221590    0.00010538
     atom    5 type  2   force =    -0.00007736    0.00003161    0.00001409
     atom    6 type  3   force =    -0.59418972   -1.02699111  -12.39666575
     atom    7 type  3   force =     1.07168331   -0.01204084  -12.34088430
     atom    8 type  3   force =    -0.54484067    0.92295188  -12.34090043
     atom    9 type  3   force =     0.54484773   -0.92296161   12.34093529
     atom   10 type  3   force =    -1.07165891    0.01205418   12.34083611
     atom   11 type  3   force =     0.59421361    1.02697195   12.39665125
     The core correction contribution to forces
     atom    1 type  1   force =     0.00000000    0.00000000    0.00000000
     atom    2 type  1   force =     0.00000000    0.00000000    0.00000000
     atom    3 type  2   force =    -0.00079035    0.00045355   -0.00000175
     atom    4 type  2   force =     0.00079085   -0.00045289    0.00000250
     atom    5 type  2   force =    -0.00000124    0.00000063   -0.00000000
     atom    6 type  3   force =     0.00038804    0.00067090    0.00668167
     atom    7 type  3   force =    -0.00123780   -0.00016303    0.00636820
     atom    8 type  3   force =     0.00047566   -0.00115417    0.00636842
     atom    9 type  3   force =    -0.00047567    0.00115430   -0.00636884
     atom   10 type  3   force =     0.00123774    0.00016285   -0.00636865
     atom   11 type  3   force =    -0.00038761   -0.00067113   -0.00668168
     The Hubbard contrib.    to forces
     atom    1 type  1   force =     0.00000000    0.00000000    0.00000000
     atom    2 type  1   force =     0.00000000    0.00000000    0.00000000
     atom    3 type  2   force =     0.00000000    0.00000000    0.00000000
     atom    4 type  2   force =     0.00000000    0.00000000    0.00000000
     atom    5 type  2   force =     0.00000000    0.00000000    0.00000000
     atom    6 type  3   force =     0.00000000    0.00000000    0.00000000
     atom    7 type  3   force =     0.00000000    0.00000000    0.00000000
     atom    8 type  3   force =     0.00000000    0.00000000    0.00000000
     atom    9 type  3   force =     0.00000000    0.00000000    0.00000000
     atom   10 type  3   force =     0.00000000    0.00000000    0.00000000
     atom   11 type  3   force =     0.00000000    0.00000000    0.00000000
     The SCF correction term to forces
     atom    1 type  1   force =    -0.00003997    0.00001006    0.00001067
     atom    2 type  1   force =     0.00002616    0.00000366   -0.00000261
     atom    3 type  2   force =    -0.00004900    0.00004048    0.00002649
     atom    4 type  2   force =    -0.00002338   -0.00001119   -0.00007493
     atom    5 type  2   force =     0.00007541   -0.00003071   -0.00001608
     atom    6 type  3   force =     0.00015968    0.00013609   -0.00035975
     atom    7 type  3   force =     0.00006869   -0.00015532   -0.00032341
     atom    8 type  3   force =    -0.00016994    0.00002115   -0.00029053
     atom    9 type  3   force =     0.00016696   -0.00000071    0.00024705
     atom   10 type  3   force =    -0.00009871    0.00013530    0.00034163
     atom   11 type  3   force =    -0.00015557   -0.00013112    0.00037624

     Total force =     0.090158     Total SCF correction =     0.000926

     Computing stress (Cartesian axis) and pressure

     negative rho (up, down):  3.182E-03 0.000E+00
          total   stress  (Ry/bohr**3)                   (kbar)     P=     -363.06
  -0.00229006   0.00008300  -0.00014971         -336.88       12.21      -22.02
   0.00008300  -0.00219176  -0.00025891           12.21     -322.42      -38.09
  -0.00014971  -0.00025891  -0.00292228          -22.02      -38.09     -429.88

     kinetic stress (kbar)  23928.88     49.66    -35.83
                               49.66  23987.57    -60.17
                              -35.83    -60.17  23818.68

     local   stress (kbar) -28472.04    -70.23     32.29
                              -70.23 -28554.46     52.69
                               32.29     52.69  26440.13

     nonloc. stress (kbar)   5654.63      0.30     -7.13
                                0.30   5655.35    -11.81
                               -7.13    -11.81   5607.84

     hartree stress (kbar)  18620.83     14.24     -6.38
                               14.24  18637.36    -10.18
                               -6.38    -10.18  -4773.43

     exc-cor stress (kbar)  -3673.08      0.42     -0.03
                                0.42  -3672.60     -0.03
                               -0.03     -0.03  -3689.08

     corecor stress (kbar)  -2622.82     -0.20      0.65
                               -0.20  -2623.09      1.07
                                0.65      1.07  -2616.90

     ewald   stress (kbar) -13773.27     18.01     -5.57
                               18.01 -13752.56     -9.64
                               -5.57     -9.64 -45217.12

     hubbard stress (kbar)      0.00      0.00      0.00
                                0.00      0.00      0.00
                                0.00      0.00      0.00

     DFT-D   stress (kbar)      0.00      0.00      0.00
                                0.00      0.00      0.00
                                0.00      0.00      0.00

     XDM     stress (kbar)      0.00      0.00      0.00
                                0.00      0.00      0.00
                                0.00      0.00      0.00

     dft-nl  stress (kbar)      0.00      0.00      0.00
                                0.00      0.00      0.00
                                0.00      0.00      0.00

     TS-vdW  stress (kbar)      0.00      0.00      0.00
                                0.00      0.00      0.00
                                0.00      0.00      0.00

[...]

                                0.00      0.00      0.00

     Writing all to output data dir calculations/myprefix.save/

     General routines

     Parallel routines

     PAW routines

   This run was terminated on:  19:11:35   4Mar2023

   JOB DONE.