     Program PWSCF v.7.0 starts on  3Mar2023 at 14: 7:20

     R & G space division:  proc/nbgrp/npool/nimage =      32

     Reading input from espresso_540.pwi
Warning: card &CELL ignored
Warning: card / ignored

     Current dimensions of program PWSCF are:
     Max number of different atomic species (ntypx) = 10
     Max number of k-points (npk) =  40000
     Max angular momentum in pseudopotentials (lmaxx) =  4

     gamma-point specific algorithms are used
     Message from routine setup:
     using ibrav=0 with symmetry is DISCOURAGED, use correct ibrav instead

     Using Slab Decomposition

     bravais-lattice index     =            0
     lattice parameter (alat)  =      18.8124  a.u.
     unit-cell volume          =    3773.9001 (a.u.)^3
     number of atoms/cell      =           16
     number of atomic types    =            3
     number of electrons       =       144.00
     number of Kohn-Sham states=           86
     kinetic-energy cutoff     =      30.0000  Ry
     charge density cutoff     =     240.0000  Ry
     scf convergence threshold =      1.0E-06
     mixing beta               =       0.7000
     number of iterations used =            8  plain     mixing
     Exchange-correlation=  SLA  PW   PBX  PBC
                           (   1   4   3   4   0   0   0)

     celldm(1)=  18.812431  celldm(2)=   0.000000  celldm(3)=   0.000000
     celldm(4)=   0.000000  celldm(5)=   0.000000  celldm(6)=   0.000000

     crystal axes: (cart. coord. in units of alat)
               a(1) = (   1.000000   0.000000   0.000000 )
               a(2) = (   0.000000   0.722052   0.000000 )
               a(3) = (   0.000000   0.170970   0.785032 )

     reciprocal axes: (cart. coord. in units 2 pi/alat)
               b(1) = (  1.000000  0.000000  0.000000 )
               b(2) = (  0.000000  1.384942 -0.301623 )
               b(3) = (  0.000000  0.000000  1.273834 )

     PseudoPot. # 1 for Cs read from file:
     /home/pragov/projects/rrg-bengioy-ad/pragov/crystal_structure_design/SSSP/Cs_pbe_v1.uspp.F.UPF
     MD5 check sum: 3476d69cb178dfad3ffaa59df4e07ca4
     Pseudo is Ultrasoft + core correction, Zval =  9.0
     Generated by new atomic code, or converted to UPF format
     Using radial grid of  905 points,  6 beta functions with:
                l(1) =   0
                l(2) =   0
                l(3) =   1
                l(4) =   1
                l(5) =   2
                l(6) =   2
     Q(r) pseudized with  6 coefficients,  rinner =    1.500   1.500   1.500
                                                       1.500   1.500

     PseudoPot. # 2 for Sb read from file:
     /home/pragov/projects/rrg-bengioy-ad/pragov/crystal_structure_design/SSSP/sb_pbe_v1.4.uspp.F.UPF
     MD5 check sum: 9bc50dfb53373b713f5709b9110fe27f
     Pseudo is Ultrasoft + core correction, Zval = 15.0
     Generated by new atomic code, or converted to UPF format
     Using radial grid of  891 points,  6 beta functions with:
                l(1) =   0
                l(2) =   0
                l(3) =   1
                l(4) =   1
                l(5) =   2
                l(6) =   2
     Q(r) pseudized with  8 coefficients,  rinner =    1.350   1.350   1.350
                                                       1.350   1.350

     PseudoPot. # 3 for S  read from file:
     /home/pragov/projects/rrg-bengioy-ad/pragov/crystal_structure_design/SSSP/s_pbe_v1.4.uspp.F.UPF
     MD5 check sum: 88d86576ff6df21479756cfb9bdac1df
     Pseudo is Ultrasoft + core correction, Zval =  6.0
     Generated by new atomic code, or converted to UPF format
     Using radial grid of  907 points,  6 beta functions with:
                l(1) =   0
                l(2) =   0
                l(3) =   1
                l(4) =   1
                l(5) =   2
                l(6) =   2
     Q(r) pseudized with  8 coefficients,  rinner =    1.300   1.300   1.300
                                                       1.300   1.300

     atomic species   valence    mass     pseudopotential
        Cs             9.00   132.90545     Cs( 1.00)
        Sb            15.00   121.76000     Sb( 1.00)
        S              6.00    32.06000     S ( 1.00)

      4 Sym. Ops., with inversion, found ( 2 have fractional translation)

                                    s                        frac. trans.

      isym =  1     identity

 cryst.   s( 1) = (     1          0          0      )
                  (     0          1          0      )
                  (     0          0          1      )

 cart.    s( 1) = (  1.0000000  0.0000000  0.0000000 )
                  (  0.0000000  1.0000000  0.0000000 )
                  (  0.0000000  0.0000000  1.0000000 )

      isym =  2     180 deg rotation - cart. axis [1,0,0]

 cryst.   s( 2) = (     1          0          0      )    f =(  0.5000000 )
                  (     0         -1          0      )       (  0.5000000 )
                  (     0          0         -1      )       (  0.0000000 )

 cart.    s( 2) = (  1.0000000  0.0000000  0.0000000 )    f =(  0.5000000 )
                  (  0.0000000 -1.0000000 -0.0000000 )       (  0.3610260 )
                  (  0.0000000  0.0000000 -1.0000000 )       (  0.0000000 )

      isym =  3     inversion

 cryst.   s( 3) = (    -1          0          0      )
                  (     0         -1          0      )
                  (     0          0         -1      )

 cart.    s( 3) = ( -1.0000000  0.0000000  0.0000000 )
                  (  0.0000000 -1.0000000 -0.0000000 )
                  (  0.0000000  0.0000000 -1.0000000 )

      isym =  4     inv. 180 deg rotation - cart. axis [1,0,0]

 cryst.   s( 4) = (    -1          0          0      )    f =(  0.5000000 )
                  (     0          1          0      )       (  0.5000000 )
                  (     0          0          1      )       (  0.0000000 )

 cart.    s( 4) = ( -1.0000000  0.0000000  0.0000000 )    f =(  0.5000000 )
                  (  0.0000000  1.0000000  0.0000000 )       (  0.3610260 )
                  (  0.0000000  0.0000000  1.0000000 )       (  0.0000000 )

   Cartesian axes

     site n.     atom                  positions (alat units)
         1           Cs  tau(   1) = (   0.5718360   0.6278647   0.2717630  )
         2           Cs  tau(   2) = (   0.9281640   0.2668387   0.2717630  )
         3           Cs  tau(   3) = (   0.4281640   0.2651575   0.5132686  )
         4           Cs  tau(   4) = (   0.0718360   0.6261835   0.5132686  )
         5           Sb  tau(   5) = (   0.8365720   0.2585492   0.7055377  )
         6           Sb  tau(   6) = (   0.1634280   0.6344730   0.0794939  )
         7           Sb  tau(   7) = (   0.6634280   0.6195752   0.7055377  )
         8           Sb  tau(   8) = (   0.3365720   0.2734470   0.0794939  )
         9           S   tau(   9) = (   0.2546170   0.4461507   0.2417811  )
        10           S   tau(  10) = (   0.7546170   0.8078975   0.5432505  )
        11           S   tau(  11) = (   0.4325470   0.6409267   0.6384230  )
        12           S   tau(  12) = (   0.9325470   0.6131215   0.1466086  )
        13           S   tau(  13) = (   0.2453830   0.0851247   0.2417811  )
        14           S   tau(  14) = (   0.7453830   0.4468715   0.5432505  )
        15           S   tau(  15) = (   0.0674530   0.2799007   0.6384230  )
        16           S   tau(  16) = (   0.5674530   0.2520955   0.1466086  )

   Crystallographic axes

     site n.     atom                  positions (cryst. coord.)
         1           Cs  tau(   1) = (  0.5718360  0.7875860  0.3461810  )
         2           Cs  tau(   2) = (  0.9281640  0.2875860  0.3461810  )
         3           Cs  tau(   3) = (  0.4281640  0.2124140  0.6538190  )
         4           Cs  tau(   4) = (  0.0718360  0.7124140  0.6538190  )
         5           Sb  tau(   5) = (  0.8365720  0.1452690  0.8987380  )
         6           Sb  tau(   6) = (  0.1634280  0.8547310  0.1012620  )
         7           Sb  tau(   7) = (  0.6634280  0.6452690  0.8987380  )
         8           Sb  tau(   8) = (  0.3365720  0.3547310  0.1012620  )
         9           S   tau(   9) = (  0.2546170  0.5449660  0.3079890  )
        10           S   tau(  10) = (  0.7546170  0.9550340  0.6920110  )
        11           S   tau(  11) = (  0.4325470  0.6950830  0.8132450  )
        12           S   tau(  12) = (  0.9325470  0.8049170  0.1867550  )
        13           S   tau(  13) = (  0.2453830  0.0449660  0.3079890  )
        14           S   tau(  14) = (  0.7453830  0.4550340  0.6920110  )
        15           S   tau(  15) = (  0.0674530  0.1950830  0.8132450  )
        16           S   tau(  16) = (  0.5674530  0.3049170  0.1867550  )

     number of k points=     1  Methfessel-Paxton smearing, width (Ry)=  0.0010
                       cart. coord. in units 2pi/alat
        k(    1) = (   0.0000000   0.0000000   0.0000000), wk =   2.0000000

                       cryst. coord.
        k(    1) = (   0.0000000   0.0000000   0.0000000), wk =   2.0000000

     Check: negative core charge=   -0.000003

     Initial potential from superposition of free atoms

     starting charge     139.8421, renormalised to     144.0000
     Starting wfcs are  120 randomized atomic wfcs

     Self-consistent Calculation

     iteration #  1     ecut=    30.00 Ry     beta= 0.70
     Davidson diagonalization with overlap

     ethr =  1.00E-02,  avg # of iterations =  4.0

     total energy              =   -1184.72588697 Ry
     estimated scf accuracy    <       1.95189459 Ry

[...]

     total energy              =   -1185.51749691 Ry
     estimated scf accuracy    <       0.00000195 Ry

     iteration #  9     ecut=    30.00 Ry     beta= 0.70
     Davidson diagonalization with overlap

     ethr =  1.35E-09,  avg # of iterations =  2.0

     End of self-consistent calculation

          k = 0.0000 0.0000 0.0000 (  5247 PWs)   bands (ev):

   -24.3771 -24.3735 -24.3681 -24.3657 -24.3622 -24.3618 -24.3584 -24.3568
   -24.3060 -24.3055 -24.3040 -24.3033 -24.2841 -24.2826 -24.2826 -24.2803
   -24.2549 -24.2526 -24.2514 -24.2501 -16.3917 -16.3815 -16.3652 -16.3607
    -8.4169  -8.2241  -7.4617  -6.9796  -6.9078  -6.8943  -6.8141  -6.6296
    -3.8488  -3.7055  -3.4840  -3.4542  -3.3606  -3.3141  -3.3091  -3.2701
    -3.2185  -3.1935  -3.1666  -3.1491  -3.0801  -3.0492  -2.7248  -2.3000
     0.7485   0.9983   1.2294   1.2808   1.4681   1.5765   1.5892   1.9542
     2.0946   2.1505   2.3170   3.3040   3.3510   3.5325   3.5753   3.6832
     3.8068   3.8285   3.8435   3.8865   3.9041   4.0074   4.0195   4.3104
     6.3083   6.9000   7.0119   7.1857   7.4211   7.6461   7.8248   7.8360
     8.1323   8.3222   8.4192   8.5067   9.1912   9.2994

     occupation numbers
     1.0000   1.0000   1.0000   1.0000   1.0000   1.0000   1.0000   1.0000
     1.0000   1.0000   1.0000   1.0000   1.0000   1.0000   1.0000   1.0000
     1.0000   1.0000   1.0000   1.0000   1.0000   1.0000   1.0000   1.0000
     1.0000   1.0000   1.0000   1.0000   1.0000   1.0000   1.0000   1.0000
     1.0000   1.0000   1.0000   1.0000   1.0000   1.0000   1.0000   1.0000
     1.0000   1.0000   1.0000   1.0000   1.0000   1.0000   1.0000   1.0000
     1.0000   1.0000   1.0000   1.0000   1.0000   1.0000   1.0000   1.0000
     1.0000   1.0000   1.0000   1.0000   1.0000   1.0000   1.0000   1.0000
     1.0000   1.0000   1.0000   1.0000   1.0000   1.0000   1.0000   1.0000
    -0.0000  -0.0000  -0.0000  -0.0000  -0.0000  -0.0000  -0.0000  -0.0000
    -0.0000  -0.0000  -0.0000  -0.0000  -0.0000  -0.0000

     the Fermi energy is     5.1919 ev

!    total energy              =   -1185.51749712 Ry
     estimated scf accuracy    <       0.00000044 Ry
     smearing contrib. (-TS)   =       0.00000000 Ry
     internal energy E=F+TS    =   -1185.51749712 Ry

     The total energy is F=E-TS. E is the sum of the following terms:
     one-electron contribution =    -574.11556985 Ry
     hartree contribution      =     344.84770096 Ry
     xc contribution           =    -364.67243824 Ry
     ewald contribution        =    -591.57718998 Ry

     convergence has been achieved in   9 iterations

     Forces acting on atoms (cartesian axes, Ry/au):

     atom    1 type  1   force =     0.00092150    0.00211518    0.00643990
     atom    2 type  1   force =    -0.00092150    0.00211518    0.00643990
     atom    3 type  1   force =    -0.00092150   -0.00211518   -0.00643990
     atom    4 type  1   force =     0.00092150   -0.00211518   -0.00643990
     atom    5 type  2   force =    -0.00139635   -0.00345485   -0.00041528
     atom    6 type  2   force =     0.00139635    0.00345485    0.00041528
     atom    7 type  2   force =     0.00139635   -0.00345485   -0.00041528
     atom    8 type  2   force =    -0.00139635    0.00345485    0.00041528
     atom    9 type  3   force =    -0.00039881   -0.00008123   -0.00242357
     atom   10 type  3   force =    -0.00039881    0.00008123    0.00242357
     atom   11 type  3   force =     0.00143077   -0.00193324    0.00702752
     atom   12 type  3   force =     0.00143077    0.00193324   -0.00702752
     atom   13 type  3   force =     0.00039881   -0.00008123   -0.00242357
     atom   14 type  3   force =     0.00039881    0.00008123    0.00242357
     atom   15 type  3   force =    -0.00143077   -0.00193324    0.00702752
     atom   16 type  3   force =    -0.00143077    0.00193324   -0.00702752
     The non-local contrib.  to forces
     atom    1 type  1   force =    -0.00902330    0.00465240   -0.02285325
     atom    2 type  1   force =     0.00902330    0.00465240   -0.02285325
     atom    3 type  1   force =     0.00902330   -0.00465240    0.02285325
     atom    4 type  1   force =    -0.00902330   -0.00465240    0.02285325
     atom    5 type  2   force =     0.25310862   -0.11784081   -0.63722963
     atom    6 type  2   force =    -0.25310862    0.11784081    0.63722963
     atom    7 type  2   force =    -0.25310862   -0.11784081   -0.63722963
     atom    8 type  2   force =     0.25310862    0.11784081    0.63722963
     atom    9 type  3   force =     0.01023887   -0.03937246   -0.19994564
     atom   10 type  3   force =     0.01023887    0.03937246    0.19994564
     atom   11 type  3   force =     0.18076159   -0.03009292    0.06323922
     atom   12 type  3   force =     0.18076159    0.03009292   -0.06323922
     atom   13 type  3   force =    -0.01023887   -0.03937246   -0.19994564
     atom   14 type  3   force =    -0.01023887    0.03937246    0.19994564
     atom   15 type  3   force =    -0.18076159   -0.03009292    0.06323922
     atom   16 type  3   force =    -0.18076159    0.03009292   -0.06323922
     The ionic contribution  to forces
     atom    1 type  1   force =     1.09402394    0.56508224    1.50226401
     atom    2 type  1   force =    -1.09402394    0.56508224    1.50226401
     atom    3 type  1   force =    -1.09402394   -0.56508224   -1.50226401
     atom    4 type  1   force =     1.09402394   -0.56508224   -1.50226401
     atom    5 type  2   force =    -2.46213281    1.93089122    3.99413226
     atom    6 type  2   force =     2.46213281   -1.93089122   -3.99413226
     atom    7 type  2   force =     2.46213281    1.93089122    3.99413226
     atom    8 type  2   force =    -2.46213281   -1.93089122   -3.99413226
     atom    9 type  3   force =    -0.46120042    0.49470483    7.25812361
     atom   10 type  3   force =    -0.46120042   -0.49470483   -7.25812361
     atom   11 type  3   force =    -5.40282178    1.94119712   -4.75524712
     atom   12 type  3   force =    -5.40282178   -1.94119712    4.75524712
     atom   13 type  3   force =     0.46120042    0.49470483    7.25812361
     atom   14 type  3   force =     0.46120042   -0.49470483   -7.25812361
     atom   15 type  3   force =     5.40282178    1.94119712   -4.75524712
     atom   16 type  3   force =     5.40282178   -1.94119712    4.75524712
     The local contribution  to forces
     atom    1 type  1   force =    -1.08373811   -0.56728184   -1.47545818
     atom    2 type  1   force =     1.08385494   -0.56732639   -1.47546884
     atom    3 type  1   force =     1.08493423    0.56731968    1.47560622
     atom    4 type  1   force =    -1.08504670    0.56735838    1.47556190
     atom    5 type  2   force =     2.20773985   -1.81776890   -3.36155618
     atom    6 type  2   force =    -2.20899730    1.81783955    3.36097472
     atom    7 type  2   force =    -2.20741585   -1.81767359   -3.36166064
     atom    8 type  2   force =     2.20871246    1.81728197    3.36098292
     atom    9 type  3   force =     0.45105223   -0.45755592   -7.07126360
     atom   10 type  3   force =     0.45108024    0.45747637    7.07144433
     atom   11 type  3   force =     5.23341827   -1.91459957    4.70236990
     atom   12 type  3   force =     5.23242790    1.91456054   -4.70241881
     atom   13 type  3   force =    -0.45113726   -0.45749316   -7.07131845
     atom   14 type  3   force =    -0.45104920    0.45759055    7.07143548
     atom   15 type  3   force =    -5.23335013   -1.91462577    4.70241676
     atom   16 type  3   force =    -5.23242913    1.91452975   -4.70242206
     The core correction contribution to forces
     atom    1 type  1   force =     0.00028195   -0.00030120    0.00248590
     atom    2 type  1   force =    -0.00027991   -0.00030090    0.00248483
     atom    3 type  1   force =    -0.00027364    0.00030072   -0.00248211
     atom    4 type  1   force =     0.00027196    0.00030114   -0.00248224
     atom    5 type  2   force =    -0.00104500    0.00119865    0.00405841
     atom    6 type  2   force =     0.00103715   -0.00119696   -0.00406662
     atom    7 type  2   force =     0.00104821    0.00120052    0.00405693
     atom    8 type  2   force =    -0.00104028   -0.00120317   -0.00406630
     atom    9 type  3   force =    -0.00052877    0.00213101    0.01069689
     atom   10 type  3   force =    -0.00053012   -0.00213134   -0.01068851
     atom   11 type  3   force =    -0.00951130    0.00158996   -0.00331233
     atom   12 type  3   force =    -0.00951448   -0.00159139    0.00331033
     atom   13 type  3   force =     0.00052865    0.00213175    0.01069461
     atom   14 type  3   force =     0.00052915   -0.00213025   -0.01068885
     atom   15 type  3   force =     0.00951134    0.00158934   -0.00331107
     atom   16 type  3   force =     0.00951498   -0.00159150    0.00331090
     The Hubbard contrib.    to forces
     atom    1 type  1   force =     0.00000000    0.00000000    0.00000000
     atom    2 type  1   force =     0.00000000    0.00000000    0.00000000
     atom    3 type  1   force =     0.00000000    0.00000000    0.00000000
     atom    4 type  1   force =     0.00000000    0.00000000    0.00000000
     atom    5 type  2   force =     0.00000000    0.00000000    0.00000000
     atom    6 type  2   force =     0.00000000    0.00000000    0.00000000
     atom    7 type  2   force =     0.00000000    0.00000000    0.00000000
     atom    8 type  2   force =     0.00000000    0.00000000    0.00000000
     atom    9 type  3   force =     0.00000000    0.00000000    0.00000000
     atom   10 type  3   force =     0.00000000    0.00000000    0.00000000
     atom   11 type  3   force =     0.00000000    0.00000000    0.00000000
     atom   12 type  3   force =     0.00000000    0.00000000    0.00000000
     atom   13 type  3   force =     0.00000000    0.00000000    0.00000000
     atom   14 type  3   force =     0.00000000    0.00000000    0.00000000
     atom   15 type  3   force =     0.00000000    0.00000000    0.00000000
     atom   16 type  3   force =     0.00000000    0.00000000    0.00000000
     The SCF correction term to forces
     atom    1 type  1   force =    -0.00055735   -0.00003101    0.00002253
     atom    2 type  1   force =     0.00045758    0.00000971    0.00002670
     atom    3 type  1   force =    -0.00053428    0.00000150   -0.00013308
     atom    4 type  1   force =     0.00063061   -0.00003520   -0.00009435
     atom    5 type  2   force =     0.00098460    0.00008009    0.00015769
     atom    6 type  2   force =     0.00039827   -0.00014955    0.00039344
     atom    7 type  2   force =    -0.00131944   -0.00002692    0.00028225
     atom    8 type  2   force =    -0.00008920    0.00045901    0.00039195
     atom    9 type  3   force =     0.00004716    0.00001135    0.00002376
     atom   10 type  3   force =    -0.00000275    0.00006626   -0.00010619
     atom   11 type  3   force =    -0.00036023   -0.00003720   -0.00003217
     atom   12 type  3   force =     0.00052775    0.00005294    0.00006877
     atom   13 type  3   force =     0.00003937   -0.00004609    0.00005495
     atom   14 type  3   force =    -0.00004367   -0.00003825   -0.00010194
     atom   15 type  3   force =     0.00029811   -0.00001998   -0.00006163
     atom   16 type  3   force =    -0.00052113    0.00008620    0.00007864

     Total force =     0.022096     Total SCF correction =     0.002366
     SCF correction compared to forces is large: reduce conv_thr to get better values

     Computing stress (Cartesian axis) and pressure

          total   stress  (Ry/bohr**3)                   (kbar)     P=      -40.82
  -0.00034680   0.00000000   0.00000000          -51.02        0.00        0.00
   0.00000000  -0.00019047   0.00001998            0.00      -28.02        2.94
   0.00000000   0.00001998  -0.00029518            0.00        2.94      -43.42

     kinetic stress (kbar)   6476.62      0.00      0.00
                                0.00   6552.31     -8.49
                                0.00     -8.49   6512.67

     local   stress (kbar)  -6003.14     -0.02      0.00
                               -0.02  -6865.86   1044.58
                                0.00   1044.58   -597.89

     nonloc. stress (kbar)   3547.77      0.00      0.00
                                0.00   3539.61     10.42
                                0.00     10.42   3535.53

     hartree stress (kbar)   5121.42      0.02     -0.00
                                0.02   5615.34   -471.83
                               -0.00   -471.83   2705.26

     exc-cor stress (kbar)   6134.04      0.00      0.00
                                0.00   6132.83     -0.82
                                0.00     -0.82   6132.01

     corecor stress (kbar)  -8533.70      0.00     -0.00
                                0.00  -8534.61     -0.19
                               -0.00     -0.19  -8533.24

     ewald   stress (kbar)  -6794.03      0.00     -0.00
                                0.00  -6467.64   -570.73
                               -0.00   -570.73  -9797.76

     hubbard stress (kbar)      0.00      0.00      0.00
                                0.00      0.00      0.00
                                0.00      0.00      0.00

     DFT-D   stress (kbar)      0.00      0.00      0.00
                                0.00      0.00      0.00
                                0.00      0.00      0.00

     XDM     stress (kbar)      0.00      0.00      0.00
                                0.00      0.00      0.00
                                0.00      0.00      0.00

     dft-nl  stress (kbar)      0.00      0.00      0.00
                                0.00      0.00      0.00
                                0.00      0.00      0.00

     TS-vdW  stress (kbar)      0.00      0.00      0.00
                                0.00      0.00      0.00
                                0.00      0.00      0.00

[...]

                                0.00      0.00      0.00

     Writing all to output data dir calculations/myprefix.save/

     General routines

     Parallel routines

   This run was terminated on:  14: 7:28   3Mar2023

   JOB DONE.