     Program PWSCF v.7.0 starts on  3Mar2023 at 11:56:54

     R & G space division:  proc/nbgrp/npool/nimage =      32

     Reading input from espresso_174.pwi
Warning: card &CELL ignored
Warning: card / ignored

     Current dimensions of program PWSCF are:
     Max number of different atomic species (ntypx) = 10
     Max number of k-points (npk) =  40000
     Max angular momentum in pseudopotentials (lmaxx) =  4
     file Pb.pbe-dn-kjpaw_psl.0.2.2.UPF: wavefunction(s)  6S renormalized

     gamma-point specific algorithms are used
     Message from routine setup:
     using ibrav=0 with symmetry is DISCOURAGED, use correct ibrav instead

     Using Slab Decomposition

     bravais-lattice index     =            0
     lattice parameter (alat)  =      11.5997  a.u.
     unit-cell volume          =    2347.4557 (a.u.)^3
     number of atoms/cell      =           14
     number of atomic types    =            4
     number of electrons       =       112.00
     number of Kohn-Sham states=           67
     kinetic-energy cutoff     =      30.0000  Ry
     charge density cutoff     =     240.0000  Ry
     scf convergence threshold =      1.0E-06
     mixing beta               =       0.7000
     number of iterations used =            8  plain     mixing
     Exchange-correlation=  SLA  PW   PBX  PBC
                           (   1   4   3   4   0   0   0)

     celldm(1)=  11.599683  celldm(2)=   0.000000  celldm(3)=   0.000000
     celldm(4)=   0.000000  celldm(5)=   0.000000  celldm(6)=   0.000000

     crystal axes: (cart. coord. in units of alat)
               a(1) = (   1.000000   0.000000   0.000000 )
               a(2) = (   0.000000   1.029978   0.000000 )
               a(3) = (  -0.464855   0.000000   1.460264 )

     reciprocal axes: (cart. coord. in units 2 pi/alat)
               b(1) = (  1.000000  0.000000  0.318336 )
               b(2) = (  0.000000  0.970895  0.000000 )
               b(3) = (  0.000000  0.000000  0.684808 )

     PseudoPot. # 1 for Bi read from file:
     /home/pragov/projects/rrg-bengioy-ad/pragov/crystal_structure_design/SSSP/Bi_pbe_v1.uspp.F.UPF
     MD5 check sum: cceb9f28ec65b6d7ff33140f5b0b1758
     Pseudo is Ultrasoft + core correction, Zval = 15.0
     Generated by new atomic code, or converted to UPF format
     Using radial grid of  899 points,  6 beta functions with:
                l(1) =   0
                l(2) =   0
                l(3) =   1
                l(4) =   1
                l(5) =   2
                l(6) =   2
     Q(r) pseudized with  6 coefficients,  rinner =    1.000   1.000   1.000
                                                       1.000   1.000

     PseudoPot. # 2 for B  read from file:
     /home/pragov/projects/rrg-bengioy-ad/pragov/crystal_structure_design/SSSP/b_pbe_v1.4.uspp.F.UPF
     MD5 check sum: cc6de2960df11db49a60e589f9ebb39b
     Pseudo is Ultrasoft + core correction, Zval =  3.0
     Generated by new atomic code, or converted to UPF format
     Using radial grid of  781 points,  4 beta functions with:
                l(1) =   0
                l(2) =   0
                l(3) =   1
                l(4) =   1
     Q(r) pseudized with  8 coefficients,  rinner =    1.100   1.100   1.100

     PseudoPot. # 3 for Pb read from file:
     /home/pragov/projects/rrg-bengioy-ad/pragov/crystal_structure_design/SSSP/Pb.pbe-dn-kjpaw_psl.0.2.2.UPF
     MD5 check sum: 9d431e6316058b74ade52399a6cf67da
     Pseudo is Projector augmented-wave + core cor, Zval = 14.0
     Generated using "atomic" code by A. Dal Corso  v.5.0.99 svn rev. 10869
     Shape of augmentation charge: PSQ
     Using radial grid of 1281 points,  6 beta functions with:
                l(1) =   0
                l(2) =   0
                l(3) =   1
                l(4) =   1
                l(5) =   2
                l(6) =   2
     Q(r) pseudized with 0 coefficients

     PseudoPot. # 4 for S  read from file:
     /home/pragov/projects/rrg-bengioy-ad/pragov/crystal_structure_design/SSSP/s_pbe_v1.4.uspp.F.UPF
     MD5 check sum: 88d86576ff6df21479756cfb9bdac1df
     Pseudo is Ultrasoft + core correction, Zval =  6.0
     Generated by new atomic code, or converted to UPF format
     Using radial grid of  907 points,  6 beta functions with:
                l(1) =   0
                l(2) =   0
                l(3) =   1
                l(4) =   1
                l(5) =   2
                l(6) =   2
     Q(r) pseudized with  8 coefficients,  rinner =    1.300   1.300   1.300
                                                       1.300   1.300

     atomic species   valence    mass     pseudopotential
        Bi            15.00   208.98040     Bi( 1.00)
        B              3.00    10.81000     B ( 1.00)
        Pb            14.00   207.20000     Pb( 1.00)
        S              6.00    32.06000     S ( 1.00)

      2 Sym. Ops. (no inversion) found ( 1 have fractional translation)

                                    s                        frac. trans.

      isym =  1     identity

 cryst.   s( 1) = (     1          0          0      )
                  (     0          1          0      )
                  (     0          0          1      )

 cart.    s( 1) = (  1.0000000  0.0000000 -0.0000000 )
                  (  0.0000000  1.0000000  0.0000000 )
                  (  0.0000000  0.0000000  1.0000000 )

      isym =  2     180 deg rotation - cart. axis [0,1,0]

 cryst.   s( 2) = (    -1          0          0      )    f =(  0.0000000 )
                  (     0          1          0      )       (  0.5000000 )
                  (     0          0         -1      )       ( -0.0000000 )

 cart.    s( 2) = ( -1.0000000  0.0000000  0.0000000 )    f =(  0.0000000 )
                  (  0.0000000  1.0000000  0.0000000 )       (  0.5149888 )
                  (  0.0000000  0.0000000 -1.0000000 )       ( -0.0000000 )

   Cartesian axes

     site n.     atom                  positions (alat units)
         1           Bi  tau(   1) = (   0.2897522   0.2578899   1.2411861  )
         2           Bi  tau(   2) = (   0.2453926   0.7728787   0.2190775  )
         3           B   tau(   3) = (   0.0679553   0.2572812   0.2863723  )
         4           B   tau(   4) = (   0.4671896   0.7722700   1.1738913  )
         5           Pb  tau(   5) = (   0.5269670   0.3188893   0.6488638  )
         6           Pb  tau(   6) = (   0.0081778   0.8338781   0.8113999  )
         7           S   tau(   7) = (   0.1231901   0.2504741   0.8506123  )
         8           S   tau(   8) = (   0.4119548   0.7654629   0.6096513  )
         9           S   tau(   9) = (  -0.0861818   0.5073021   0.3076425  )
        10           S   tau(  10) = (   0.6213267   1.0222909   1.1526211  )
        11           S   tau(  11) = (   0.6204384   0.5219710   1.1473949  )
        12           S   tau(  12) = (  -0.0852935   0.0069822   0.3128688  )
        13           S   tau(  13) = (   0.3584915   0.2559659   0.2240570  )
        14           S   tau(  14) = (   0.1766534   0.7709547   1.2362066  )

   Crystallographic axes

     site n.     atom                  positions (cryst. coord.)
         1           Bi  tau(   1) = (  0.6848670  0.2503840  0.8499740  )
         2           Bi  tau(   2) = (  0.3151330  0.7503840  0.1500260  )
         3           B   tau(   3) = (  0.1591180  0.2497930  0.1961100  )
         4           B   tau(   4) = (  0.8408820  0.7497930  0.8038900  )
         5           Pb  tau(   5) = (  0.7335240  0.3096080  0.4443470  )
         6           Pb  tau(   6) = (  0.2664760  0.8096080  0.5556530  )
         7           S   tau(   7) = (  0.3939710  0.2431840  0.5825060  )
         8           S   tau(   8) = (  0.6060290  0.7431840  0.4174940  )
         9           S   tau(   9) = (  0.0117520  0.4925370  0.2106760  )
        10           S   tau(  10) = (  0.9882480  0.9925370  0.7893240  )
        11           S   tau(  11) = (  0.9856960  0.5067790  0.7857450  )
        12           S   tau(  12) = (  0.0143040  0.0067790  0.2142550  )
        13           S   tau(  13) = (  0.4298170  0.2485160  0.1534360  )
        14           S   tau(  14) = (  0.5701830  0.7485160  0.8465640  )

     number of k points=     1  Methfessel-Paxton smearing, width (Ry)=  0.0010
                       cart. coord. in units 2pi/alat
        k(    1) = (   0.0000000   0.0000000   0.0000000), wk =   2.0000000

                       cryst. coord.
        k(    1) = (   0.0000000   0.0000000   0.0000000), wk =   2.0000000

     Check: negative core charge=   -0.000003

     Initial potential from superposition of free atoms

     starting charge     109.9944, renormalised to     112.0000

     negative rho (up, down):  8.679E-02 0.000E+00
     Starting wfcs are   76 randomized atomic wfcs
     Checking if some PAW data can be deallocated...

     Self-consistent Calculation

     iteration #  1     ecut=    30.00 Ry     beta= 0.70
     Davidson diagonalization with overlap

     ethr =  1.00E-02,  avg # of iterations =  3.0

     negative rho (up, down):  8.399E-02 0.000E+00

     total energy              =   -2316.86404807 Ry
     estimated scf accuracy    <       1.77610328 Ry

[...]

     total energy              =   -2317.74717733 Ry
     estimated scf accuracy    <       0.00000677 Ry

     iteration # 10     ecut=    30.00 Ry     beta= 0.70
     Davidson diagonalization with overlap

     ethr =  6.05E-09,  avg # of iterations =  4.0

[...]

     End of self-consistent calculation

          k = 0.0000 0.0000 0.0000 (  3263 PWs)   bands (ev):

   -16.9896 -16.9888 -16.9567 -16.9564 -16.9475 -16.9458 -16.9254 -16.9248
   -16.9246 -16.9241 -10.4851 -10.4705 -10.4663 -10.4340 -10.4189 -10.4165
   -10.4130 -10.3911 -10.3908 -10.3657  -8.3556  -8.0245  -6.4279  -6.2663
    -6.1994  -6.1046  -6.0135  -5.8926  -4.0484  -3.9261  -1.6885  -1.2357
    -0.2074   0.3129   0.8843   1.5277   1.8922   1.9364   2.1648   2.3458
     2.8059   2.9831   3.5205   3.7335   3.7460   3.7981   3.9293   3.9813
     4.4776   4.4979   4.6330   4.9238   4.9354   5.0092   5.1180   5.1483
     7.6412   7.7715   8.6305   8.7165   9.3584   9.3591   9.5033   9.7179
     9.7853   9.9000  10.0717

     occupation numbers
     1.0000   1.0000   1.0000   1.0000   1.0000   1.0000   1.0000   1.0000
     1.0000   1.0000   1.0000   1.0000   1.0000   1.0000   1.0000   1.0000
     1.0000   1.0000   1.0000   1.0000   1.0000   1.0000   1.0000   1.0000
     1.0000   1.0000   1.0000   1.0000   1.0000   1.0000   1.0000   1.0000
     1.0000   1.0000   1.0000   1.0000   1.0000   1.0000   1.0000   1.0000
     1.0000   1.0000   1.0000   1.0000   1.0000   1.0000   1.0000   1.0000
     1.0000   1.0000   1.0000   1.0000   1.0000   1.0000   1.0000   1.0000
    -0.0000  -0.0000  -0.0000  -0.0000  -0.0000  -0.0000  -0.0000  -0.0000
    -0.0000  -0.0000  -0.0000

     the Fermi energy is     6.7911 ev

!    total energy              =   -2317.74717903 Ry
     estimated scf accuracy    <       0.00000066 Ry
     smearing contrib. (-TS)   =       0.00000000 Ry
     internal energy E=F+TS    =   -2317.74717903 Ry

     The total energy is F=E-TS. E is the sum of the following terms:
     one-electron contribution =    -241.46024502 Ry
     hartree contribution      =     182.19751741 Ry
     xc contribution           =    -291.15356729 Ry
     ewald contribution        =    -510.37919662 Ry
     one-center paw contrib.   =   -1456.95168752 Ry
      -> PAW hartree energy AE =       0.00000000 Ry
      -> PAW hartree energy PS =       0.00000000 Ry
      -> PAW xc energy AE      =       0.00000000 Ry
      -> PAW xc energy PS      =       0.00000000 Ry
      -> total E_H with PAW    =     182.19751741 Ry
      -> total E_XC with PAW   =    -291.15356729 Ry

     convergence has been achieved in  10 iterations

     negative rho (up, down):  8.563E-02 0.000E+00

     Forces acting on atoms (cartesian axes, Ry/au):

     atom    1 type  1   force =    -0.02273847   -0.00224790    0.01203219
     atom    2 type  1   force =     0.02273847   -0.00224790   -0.01203219
     atom    3 type  2   force =    -0.01526399    0.00314483    0.00705531
     atom    4 type  2   force =     0.01526399    0.00314483   -0.00705531
     atom    5 type  3   force =    -0.00304808   -0.01877140    0.00621613
     atom    6 type  3   force =     0.00304808   -0.01877140   -0.00621613
     atom    7 type  4   force =    -0.02692138    0.02236547   -0.03812829
     atom    8 type  4   force =     0.02692138    0.02236547    0.03812829
     atom    9 type  4   force =    -0.00420599    0.00373555    0.00113567
     atom   10 type  4   force =     0.00420599    0.00373555   -0.00113567
     atom   11 type  4   force =     0.00114102   -0.01022832   -0.01063877
     atom   12 type  4   force =    -0.00114102   -0.01022832    0.01063877
     atom   13 type  4   force =    -0.00159792    0.00200176   -0.01972955
     atom   14 type  4   force =     0.00159792    0.00200176    0.01972955
     The non-local contrib.  to forces
     atom    1 type  1   force =     0.28657823   -0.00007473   -0.42701249
     atom    2 type  1   force =    -0.28657823   -0.00007473    0.42701249
     atom    3 type  2   force =    -0.03084617    0.00117592    0.02459286
     atom    4 type  2   force =     0.03084617    0.00117592   -0.02459286
     atom    5 type  3   force =    -0.22758486    0.11745727   -0.07960717
     atom    6 type  3   force =     0.22758486    0.11745727    0.07960717
     atom    7 type  4   force =     0.16661281   -0.07797165    0.15166934
     atom    8 type  4   force =    -0.16661281   -0.07797165   -0.15166934
     atom    9 type  4   force =     0.17004645   -0.10025740    0.00261817
     atom   10 type  4   force =    -0.17004645   -0.10025740   -0.00261817
     atom   11 type  4   force =    -0.19762655    0.09532607    0.02309087
     atom   12 type  4   force =     0.19762655    0.09532607   -0.02309087
     atom   13 type  4   force =    -0.22891865    0.01850461    0.14492333
     atom   14 type  4   force =     0.22891865    0.01850461   -0.14492333
     The ionic contribution  to forces
     atom    1 type  1   force =    -4.91323195    0.35117615    7.31350459
     atom    2 type  1   force =     4.91323195    0.35117615   -7.31350459
     atom    3 type  2   force =    -0.35978621   -0.01533421   -0.27735301
     atom    4 type  2   force =     0.35978621   -0.01533421    0.27735301
     atom    5 type  3   force =     5.26703214   -1.55048380   -0.63928545
     atom    6 type  3   force =    -5.26703214   -1.55048380    0.63928545
     atom    7 type  4   force =    -3.87536768    1.46007815   -1.39587705
     atom    8 type  4   force =     3.87536768    1.46007815    1.39587705
     atom    9 type  4   force =    -4.36372318    0.50692499   -0.09915443
     atom   10 type  4   force =     4.36372318    0.50692499    0.09915443
     atom   11 type  4   force =     4.90119395   -0.33125761    0.23643585
     atom   12 type  4   force =    -4.90119395   -0.33125761   -0.23643585
     atom   13 type  4   force =     2.96973824   -0.42110366   -3.67298250
     atom   14 type  4   force =    -2.96973824   -0.42110366    3.67298250
     The local contribution  to forces
     atom    1 type  1   force =     4.61464454   -0.35251270   -6.88444155
     atom    2 type  1   force =    -4.61461720   -0.35300903    6.88633957
     atom    3 type  2   force =     0.37524583    0.01737331    0.26088197
     atom    4 type  2   force =    -0.37532863    0.01730503   -0.26075629
     atom    5 type  3   force =    -5.04616823    1.41828499    0.72167391
     atom    6 type  3   force =     5.04629802    1.41778152   -0.72410471
     atom    7 type  4   force =     3.69088810   -1.36395626    1.21375109
     atom    8 type  4   force =    -3.69108622   -1.36418520   -1.21446742
     atom    9 type  4   force =     4.19757710   -0.40750630    0.09857607
     atom   10 type  4   force =    -4.19757970   -0.40701542   -0.09824084
     atom   11 type  4   force =    -4.71199865    0.22948865   -0.26927236
     atom   12 type  4   force =     4.71208475    0.23011045    0.26962198
     atom   13 type  4   force =    -2.75380991    0.40572320    3.51671154
     atom   14 type  4   force =     2.75352904    0.40552823   -3.51620508
     The core correction contribution to forces
     atom    1 type  1   force =    -0.01034563   -0.00053026    0.01024645
     atom    2 type  1   force =     0.01034909   -0.00053233   -0.01023398
     atom    3 type  2   force =    -0.00004981   -0.00002193   -0.00082749
     atom    4 type  2   force =     0.00005029   -0.00002106    0.00082788
     atom    5 type  3   force =     0.00402805   -0.00386959    0.00236892
     atom    6 type  3   force =    -0.00402849   -0.00387345   -0.00239590
     atom    7 type  4   force =    -0.00921656    0.00432396   -0.00833773
     atom    8 type  4   force =     0.00920837    0.00432078    0.00833370
     atom    9 type  4   force =    -0.00824647    0.00431702   -0.00041970
     atom   10 type  4   force =     0.00824605    0.00431877    0.00042404
     atom   11 type  4   force =     0.00979706   -0.00405604   -0.00107339
     atom   12 type  4   force =    -0.00979181   -0.00404848    0.00107854
     atom   13 type  4   force =     0.01134855   -0.00099761   -0.00780254
     atom   14 type  4   force =    -0.01135458   -0.00099865    0.00780451
     The Hubbard contrib.    to forces
     atom    1 type  1   force =     0.00000000    0.00000000    0.00000000
     atom    2 type  1   force =     0.00000000    0.00000000    0.00000000
     atom    3 type  2   force =     0.00000000    0.00000000    0.00000000
     atom    4 type  2   force =     0.00000000    0.00000000    0.00000000
     atom    5 type  3   force =     0.00000000    0.00000000    0.00000000
     atom    6 type  3   force =     0.00000000    0.00000000    0.00000000
     atom    7 type  4   force =     0.00000000    0.00000000    0.00000000
     atom    8 type  4   force =     0.00000000    0.00000000    0.00000000
     atom    9 type  4   force =     0.00000000    0.00000000    0.00000000
     atom   10 type  4   force =     0.00000000    0.00000000    0.00000000
     atom   11 type  4   force =     0.00000000    0.00000000    0.00000000
     atom   12 type  4   force =     0.00000000    0.00000000    0.00000000
     atom   13 type  4   force =     0.00000000    0.00000000    0.00000000
     atom   14 type  4   force =     0.00000000    0.00000000    0.00000000
     The SCF correction term to forces
     atom    1 type  1   force =    -0.00038102   -0.00033150   -0.00031631
     atom    2 type  1   force =     0.00035549    0.00024945   -0.00169717
     atom    3 type  2   force =     0.00017681   -0.00005204   -0.00023725
     atom    4 type  2   force =    -0.00008561    0.00005519    0.00011473
     atom    5 type  3   force =    -0.00036083   -0.00017793    0.00118625
     atom    6 type  3   force =     0.00022016    0.00039699    0.00151220
     atom    7 type  4   force =     0.00008607   -0.00007411    0.00064061
     atom    8 type  4   force =    -0.00003151    0.00012105    0.00002886
     atom    9 type  4   force =     0.00014048    0.00024325   -0.00045758
     atom   10 type  4   force =    -0.00013672   -0.00018914    0.00017172
     atom   11 type  4   force =    -0.00017604    0.00020901    0.00021630
     atom   12 type  4   force =     0.00018219   -0.00026488   -0.00049898
     atom   13 type  4   force =    -0.00000947   -0.00010610   -0.00056872
     atom   14 type  4   force =     0.00018973    0.00008484    0.00008162

     Total force =     0.096813     Total SCF correction =     0.003045

     Computing stress (Cartesian axis) and pressure

     negative rho (up, down):  8.563E-02 0.000E+00
          total   stress  (Ry/bohr**3)                   (kbar)     P=      -19.06
  -0.00028190   0.00000000  -0.00007922          -41.47        0.00      -11.65
   0.00000000  -0.00002795   0.00000000            0.00       -4.11        0.00
  -0.00007922   0.00000000  -0.00007883          -11.65        0.00      -11.60

     kinetic stress (kbar)   6601.83      0.00      1.17
                                0.00   6660.17      0.00
                                1.17      0.00   6748.42

     local   stress (kbar)   -539.98     -0.00   -211.66
                               -0.00  -4527.02     -0.01
                             -211.66     -0.01  -1640.51

     nonloc. stress (kbar)   5604.74      0.00     -7.67
                                0.00   5612.42      0.00
                               -7.67      0.00   5582.64

     hartree stress (kbar)   2964.37     -0.01    176.15
                               -0.01   4669.23      0.01
                              176.15      0.01   3783.95

     exc-cor stress (kbar)   8434.92      0.00     -1.77
                                0.00   8436.19      0.00
                               -1.77      0.00   8427.59

     corecor stress (kbar) -11631.63     -0.00      1.26
                               -0.00 -11632.99     -0.00
                                1.26     -0.00 -11628.21

     ewald   stress (kbar) -11475.72      0.00     30.87
                                0.00  -9222.11      0.00
                               30.87      0.00 -11285.47

     hubbard stress (kbar)      0.00      0.00      0.00
                                0.00      0.00      0.00
                                0.00      0.00      0.00

     DFT-D   stress (kbar)      0.00      0.00      0.00
                                0.00      0.00      0.00
                                0.00      0.00      0.00

     XDM     stress (kbar)      0.00      0.00      0.00
                                0.00      0.00      0.00
                                0.00      0.00      0.00

     dft-nl  stress (kbar)      0.00      0.00      0.00
                                0.00      0.00      0.00
                                0.00      0.00      0.00

     TS-vdW  stress (kbar)      0.00      0.00      0.00
                                0.00      0.00      0.00
                                0.00      0.00      0.00

[...]

                                0.00      0.00      0.00

     Writing all to output data dir calculations/myprefix.save/

     General routines

     Parallel routines

     PAW routines

   This run was terminated on:  11:57: 0   3Mar2023

   JOB DONE.