     Program PWSCF v.7.0 starts on  3Mar2023 at 14:19:34

     R & G space division:  proc/nbgrp/npool/nimage =      32

     Reading input from espresso_581.pwi
Warning: card &CELL ignored
Warning: card / ignored

     Current dimensions of program PWSCF are:
     Max number of different atomic species (ntypx) = 10
     Max number of k-points (npk) =  40000
     Max angular momentum in pseudopotentials (lmaxx) =  4

     gamma-point specific algorithms are used
     Message from routine setup:
     using ibrav=0 with symmetry is DISCOURAGED, use correct ibrav instead

     Using Slab Decomposition

     bravais-lattice index     =            0
     lattice parameter (alat)  =       9.2238  a.u.
     unit-cell volume          =     554.9063 (a.u.)^3
     number of atoms/cell      =            4
     number of atomic types    =            3
     number of electrons       =        88.00
     number of Kohn-Sham states=           53
     kinetic-energy cutoff     =      30.0000  Ry
     charge density cutoff     =     240.0000  Ry
     scf convergence threshold =      1.0E-06
     mixing beta               =       0.7000
     number of iterations used =            8  plain     mixing
     Exchange-correlation= PBE
                           (   1   4   3   4   0   0   0)

     celldm(1)=   9.223836  celldm(2)=   0.000000  celldm(3)=   0.000000
     celldm(4)=   0.000000  celldm(5)=   0.000000  celldm(6)=   0.000000

     crystal axes: (cart. coord. in units of alat)
               a(1) = (   1.000000   0.000000   0.000000 )
               a(2) = (   0.500000   0.866025   0.000000 )
               a(3) = (   0.500000   0.288675   0.816497 )

     reciprocal axes: (cart. coord. in units 2 pi/alat)
               b(1) = (  1.000000 -0.577350 -0.408248 )
               b(2) = (  0.000000  1.154701 -0.408248 )
               b(3) = (  0.000000  0.000000  1.224745 )

     PseudoPot. # 1 for Lu read from file:
     /home/pragov/projects/rrg-bengioy-ad/pragov/crystal_structure_design/SSSP/Lu.GGA-PBE-paw-v1.0.UPF
     MD5 check sum: 9ceca61ee0c17e9380a83635bfffa61d
     Pseudo is Projector augmented-wave + core cor, Zval = 25.0
     Generated using ATOMPAW code
     Shape of augmentation charge: BESSEL
     Using radial grid of 1118 points,  8 beta functions with:
                l(1) =   0
                l(2) =   0
                l(3) =   1
                l(4) =   1
                l(5) =   2
                l(6) =   2
                l(7) =   3
                l(8) =   3
     Q(r) pseudized with 0 coefficients

     PseudoPot. # 2 for Zn read from file:
     /home/pragov/projects/rrg-bengioy-ad/pragov/crystal_structure_design/SSSP/Zn_pbe_v1.uspp.F.UPF
     MD5 check sum: df62231357ef9e81f77b2b3087fa5675
     Pseudo is Ultrasoft, Zval = 20.0
     Generated by new atomic code, or converted to UPF format
     Using radial grid of  943 points,  6 beta functions with:
                l(1) =   0
                l(2) =   0
                l(3) =   1
                l(4) =   1
                l(5) =   2
                l(6) =   2
     Q(r) pseudized with  8 coefficients,  rinner =    1.100   1.100   1.100
                                                       1.100   1.100

     PseudoPot. # 3 for Pd read from file:
     /home/pragov/projects/rrg-bengioy-ad/pragov/crystal_structure_design/SSSP/Pd_ONCV_PBE-1.0.oncvpsp.upf
     MD5 check sum: eb77f42b51d86fb18e25f68156a31cf1
     Pseudo is Norm-conserving, Zval = 18.0
     Generated using ONCVPSP code by D. R. Hamann
     Using radial grid of 1410 points,  6 beta functions with:
                l(1) =   0
                l(2) =   0
                l(3) =   1
                l(4) =   1
                l(5) =   2
                l(6) =   2

     atomic species   valence    mass     pseudopotential
        Lu            25.00   174.96680     Lu( 1.00)
        Zn            20.00    65.38000     Zn( 1.00)
        Pd            18.00   106.42000     Pd( 1.00)

     12 Sym. Ops., with inversion, found

                                    s                        frac. trans.

      isym =  1     identity

 cryst.   s( 1) = (     1          0          0      )
                  (     0          1          0      )
                  (     0          0          1      )

 cart.    s( 1) = (  1.0000000  0.0000000  0.0000000 )
                  (  0.0000000  1.0000000  0.0000000 )
                  (  0.0000000  0.0000000  1.0000000 )

      isym =  2     180 deg rotation - cart. axis [1,0,0]

[...]

      isym =  3     120 deg rotation - cryst. axis [0,0,1]

[...]

      isym =  6     180 deg rotation - cryst. axis [1,1,0]

[...]

      isym =  7     inversion

[...]

      isym =  8     inv. 180 deg rotation - cart. axis [1,0,0]

[...]

      isym =  9     inv. 120 deg rotation - cryst. axis [0,0,1]

 cryst.   s( 9) = (     1         -1          0      )
                  (     1          0          0      )
                  (     1          0         -1      )

 cart.    s( 9) = (  0.5000000  0.8660254  0.0000000 )
                  ( -0.8660254  0.5000000  0.0000000 )
                  (  0.0000000  0.0000000 -1.0000000 )

[...]

 cryst.   s(10) = (     0          1          0      )
                  (    -1          1          0      )
                  (     0          1         -1      )

 cart.    s(10) = (  0.5000000 -0.8660254 -0.0000000 )
                  (  0.8660254  0.5000000  0.0000000 )
                  (  0.0000000  0.0000000 -1.0000000 )

[...]

      isym = 12     inv. 180 deg rotation - cryst. axis [1,1,0]

 cryst.   s(12) = (     1         -1          0      )
                  (     0         -1          0      )
                  (     0         -1          1      )

 cart.    s(12) = (  0.5000000 -0.8660254 -0.0000000 )
                  ( -0.8660254 -0.5000000 -0.0000000 )
                  (  0.0000000  0.0000000  1.0000000 )

   Cartesian axes

     site n.     atom                  positions (alat units)
         1           Lu  tau(   1) = (   1.5000000   0.8660254   0.6123724  )
         2           Lu  tau(   2) = (   0.5000000   0.2886751   0.2041241  )
         3           Zn  tau(   3) = (   1.0000000   0.5773503   0.4082483  )
         4           Pd  tau(   4) = (   0.0000000   0.0000000   0.0000000  )

   Crystallographic axes

     site n.     atom                  positions (cryst. coord.)
         1           Lu  tau(   1) = (  0.7500000  0.7500000  0.7500000  )
         2           Lu  tau(   2) = (  0.2500000  0.2500000  0.2500000  )
         3           Zn  tau(   3) = (  0.5000000  0.5000000  0.5000000  )
         4           Pd  tau(   4) = (  0.0000000  0.0000000  0.0000000  )

     number of k points=     1  Methfessel-Paxton smearing, width (Ry)=  0.0010
                       cart. coord. in units 2pi/alat
        k(    1) = (   0.0000000   0.0000000   0.0000000), wk =   2.0000000

                       cryst. coord.
        k(    1) = (   0.0000000   0.0000000   0.0000000), wk =   2.0000000

     Initial potential from superposition of free atoms

     starting charge      87.9920, renormalised to      88.0000
     Starting wfcs are   87 randomized atomic wfcs
     Checking if some PAW data can be deallocated...

     Self-consistent Calculation

     iteration #  1     ecut=    30.00 Ry     beta= 0.70
     Davidson diagonalization with overlap

     ethr =  1.00E-02,  avg # of iterations =  2.0

     Threshold (ethr) on eigenvalues was too large:
     Diagonalizing with lowered threshold

     Davidson diagonalization with overlap

[...]

     total energy              =   -2874.85609391 Ry
     estimated scf accuracy    <       0.45718790 Ry

[...]

     total energy              =   -2875.12467412 Ry
     estimated scf accuracy    <       0.00000411 Ry

     iteration #  9     ecut=    30.00 Ry     beta= 0.70
     Davidson diagonalization with overlap

     ethr =  4.67E-09,  avg # of iterations =  2.0

     End of self-consistent calculation

          k = 0.0000 0.0000 0.0000 (   736 PWs)   bands (ev):

  -110.4259 -70.1068 -64.4870 -64.4869 -64.4869 -39.4005 -39.3704 -35.3973
   -35.3972 -35.3972 -10.1763 -10.1763 -10.1763  -9.9596  -9.9596  -9.9596
     8.8057   8.8057   8.8243   8.8243   8.8243   8.8764  11.7951  11.8189
    11.8189  11.8189  11.8284  11.8284  11.8284  11.8289  11.8289  11.8289
    11.8687  11.8687  11.8687  11.8768  12.7286  12.7286  12.8911  12.8912
    12.8912  14.9108  14.9108  14.9108  17.7911  17.7911  18.0883  21.8413
    21.8414  21.8414  22.4390  22.4390  22.4390

     occupation numbers
     1.0000   1.0000   1.0000   1.0000   1.0000   1.0000   1.0000   1.0000
     1.0000   1.0000   1.0000   1.0000   1.0000   1.0000   1.0000   1.0000
     1.0000   1.0000   1.0000   1.0000   1.0000   1.0000   1.0000   1.0000
     1.0000   1.0000   1.0000   1.0000   1.0000   1.0000   1.0000   1.0000
     1.0000   1.0000   1.0000   1.0000   1.0000   1.0000   1.0000   1.0000
     1.0000   1.0000   1.0000   1.0000  -0.0000  -0.0000  -0.0000  -0.0000
    -0.0000  -0.0000  -0.0000  -0.0000  -0.0000

     the Fermi energy is    16.3342 ev

!    total energy              =   -2875.12467385 Ry
     estimated scf accuracy    <       0.00000048 Ry
     smearing contrib. (-TS)   =       0.00000000 Ry
     internal energy E=F+TS    =   -2875.12467385 Ry

     The total energy is F=E-TS. E is the sum of the following terms:
     one-electron contribution =   -1241.66301682 Ry
     hartree contribution      =     590.12290290 Ry
     xc contribution           =    -149.66480330 Ry
     ewald contribution        =   -1092.00639006 Ry
     one-center paw contrib.   =    -981.91336657 Ry
      -> PAW hartree energy AE =     493.00874838 Ry
      -> PAW hartree energy PS =    -424.67499037 Ry
      -> PAW xc energy AE      =    -599.35420579 Ry
      -> PAW xc energy PS      =      40.06376449 Ry
      -> total E_H with PAW    =     658.45666092 Ry
      -> total E_XC with PAW   =    -708.95524460 Ry

     convergence has been achieved in   9 iterations

     Forces acting on atoms (cartesian axes, Ry/au):

     atom    1 type  1   force =     0.00000000   -0.00000000   -0.00061850
     atom    2 type  1   force =    -0.00000000    0.00000000    0.00061850
     atom    3 type  2   force =    -0.00000000    0.00000000    0.00000000
     atom    4 type  3   force =     0.00000000    0.00000000    0.00000000
     The non-local contrib.  to forces
     atom    1 type  1   force =     0.00000000    0.00000000   -0.00035100
     atom    2 type  1   force =     0.00000000    0.00000000    0.00035100
     atom    3 type  2   force =     0.00000000    0.00000000    0.00000000
     atom    4 type  3   force =    -0.00000000    0.00000000    0.00000000
     The ionic contribution  to forces
     atom    1 type  1   force =     0.00000000    0.00000000   -0.00000000
     atom    2 type  1   force =     0.00000000    0.00000000    0.00000000
     atom    3 type  2   force =     0.00000000   -0.00000000    0.00000000
     atom    4 type  3   force =     0.00000000   -0.00000000   -0.00000000
     The local contribution  to forces
     atom    1 type  1   force =     0.00027633   -0.00020174    0.00059014
     atom    2 type  1   force =     0.00008700    0.00019084   -0.00045710
     atom    3 type  2   force =    -0.00007346   -0.00002234   -0.00003235
     atom    4 type  3   force =    -0.00026806    0.00000499   -0.00005233
     The core correction contribution to forces
     atom    1 type  1   force =     0.00000000   -0.00000000    0.00000001
     atom    2 type  1   force =     0.00000000    0.00000000   -0.00000000
     atom    3 type  2   force =     0.00000000    0.00000000    0.00000000
     atom    4 type  3   force =     0.00000000    0.00000000    0.00000000
     The Hubbard contrib.    to forces
     atom    1 type  1   force =     0.00000000    0.00000000    0.00000000
     atom    2 type  1   force =     0.00000000    0.00000000    0.00000000
     atom    3 type  2   force =     0.00000000    0.00000000    0.00000000
     atom    4 type  3   force =     0.00000000    0.00000000    0.00000000
     The SCF correction term to forces
     atom    1 type  1   force =    -0.00042706    0.00028682   -0.00089900
     atom    2 type  1   force =    -0.00015444   -0.00034881    0.00068322
     atom    3 type  2   force =     0.00011561    0.00003852    0.00006105
     atom    4 type  3   force =     0.00032449   -0.00000862    0.00006112

     Total force =     0.000875     Total SCF correction =     0.001346
     SCF correction compared to forces is large: reduce conv_thr to get better values

     Computing stress (Cartesian axis) and pressure

          total   stress  (Ry/bohr**3)                   (kbar)     P=     -838.10
  -0.00569738   0.00000000   0.00000000         -838.11        0.00        0.00
   0.00000000  -0.00569738  -0.00000000            0.00     -838.11       -0.00
   0.00000000  -0.00000000  -0.00569707            0.00       -0.00     -838.07

     kinetic stress (kbar)  31246.28     -0.00      0.00
                               -0.00  31246.28      0.00
                                0.00      0.00  31246.29

     local   stress (kbar)   7248.77     -0.01     -0.00
                               -0.01   7248.75      0.00
                               -0.00      0.00   7248.74

     nonloc. stress (kbar)  17632.60     -0.00     -0.00
                                0.00  17632.60      0.00
                               -0.00      0.00  17632.62

     hartree stress (kbar)  52146.98     -0.00     -0.00
                               -0.00  52146.98      0.00
                               -0.00      0.00  52147.01

     exc-cor stress (kbar) -12614.18      0.00      0.00
                                0.00 -12614.18     -0.00
                                0.00     -0.00 -12614.18

     corecor stress (kbar)     -1.97     -0.00      0.00
                               -0.00     -1.97      0.00
                                0.00      0.00     -1.97

     ewald   stress (kbar) -96496.58      0.00     -0.00
                                0.00 -96496.58     -0.00
                               -0.00     -0.00 -96496.58

     hubbard stress (kbar)      0.00      0.00      0.00
                                0.00      0.00      0.00
                                0.00      0.00      0.00

     DFT-D   stress (kbar)      0.00      0.00      0.00
                                0.00      0.00      0.00
                                0.00      0.00      0.00

     XDM     stress (kbar)      0.00      0.00      0.00
                                0.00      0.00      0.00
                                0.00      0.00      0.00

     dft-nl  stress (kbar)      0.00      0.00      0.00
                                0.00      0.00      0.00
                                0.00      0.00      0.00

     TS-vdW  stress (kbar)      0.00      0.00      0.00
                                0.00      0.00      0.00
                                0.00      0.00      0.00

[...]

                                0.00      0.00      0.00

     Writing all to output data dir calculations/myprefix.save/

     General routines

     Parallel routines

     PAW routines

   This run was terminated on:  14:19:38   3Mar2023

   JOB DONE.