     Program PWSCF v.7.0 starts on  4Mar2023 at 17:39:27

     R & G space division:  proc/nbgrp/npool/nimage =      32

     Reading input from espresso_7086.pwi
Warning: card &CELL ignored
Warning: card / ignored

     Current dimensions of program PWSCF are:
     Max number of different atomic species (ntypx) = 10
     Max number of k-points (npk) =  40000
     Max angular momentum in pseudopotentials (lmaxx) =  4
     file In.pbe-dn-rrkjus_psl.0.2.2.UPF: wavefunction(s)  5S renormalized

     gamma-point specific algorithms are used
     Message from routine setup:
     using ibrav=0 with symmetry is DISCOURAGED, use correct ibrav instead

     Using Slab Decomposition

     bravais-lattice index     =            0
     lattice parameter (alat)  =      13.4022  a.u.
     unit-cell volume          =    2496.6918 (a.u.)^3
     number of atoms/cell      =           16
     number of atomic types    =            2
     number of electrons       =       220.00
     number of Kohn-Sham states=          132
     kinetic-energy cutoff     =      30.0000  Ry
     charge density cutoff     =     240.0000  Ry
     scf convergence threshold =      1.0E-06
     mixing beta               =       0.7000
     number of iterations used =            8  plain     mixing
     Exchange-correlation= PBE
                           (   1   4   3   4   0   0   0)

     celldm(1)=  13.402229  celldm(2)=   0.000000  celldm(3)=   0.000000
     celldm(4)=   0.000000  celldm(5)=   0.000000  celldm(6)=   0.000000

     crystal axes: (cart. coord. in units of alat)
               a(1) = (   1.000000   0.000000   0.000000 )
               a(2) = (   0.000000   1.000000   0.000000 )
               a(3) = (   0.000000   0.000000   1.037132 )

     reciprocal axes: (cart. coord. in units 2 pi/alat)
               b(1) = (  1.000000  0.000000  0.000000 )
               b(2) = (  0.000000  1.000000  0.000000 )
               b(3) = (  0.000000  0.000000  0.964198 )

     PseudoPot. # 1 for In read from file:
     /home/pragov/projects/rrg-bengioy-ad/pragov/crystal_structure_design/SSSP/In.pbe-dn-rrkjus_psl.0.2.2.UPF
     MD5 check sum: 25e7c42c3b55b68f4bf926be2e7201a4
     Pseudo is Ultrasoft + core correction, Zval = 13.0
     Generated using "atomic" code by A. Dal Corso  v.5.0.99 svn rev. 10869
     Using radial grid of 1241 points,  6 beta functions with:
                l(1) =   0
                l(2) =   0
                l(3) =   1
                l(4) =   1
                l(5) =   2
                l(6) =   2
     Q(r) pseudized with 0 coefficients

     PseudoPot. # 2 for Ru read from file:
     /home/pragov/projects/rrg-bengioy-ad/pragov/crystal_structure_design/SSSP/Ru_ONCV_PBE-1.0.oncvpsp.upf
     MD5 check sum: be037bb81c227cfb9b1461a9f099f4bd
     Pseudo is Norm-conserving, Zval = 16.0
     Generated using ONCVPSP code by D. R. Hamann
     Using radial grid of 1458 points,  6 beta functions with:
                l(1) =   0
                l(2) =   0
                l(3) =   1
                l(4) =   1
                l(5) =   2
                l(6) =   2

     atomic species   valence    mass     pseudopotential
        In            13.00   114.81800     In( 1.00)
        Ru            16.00   101.07000     Ru( 1.00)

      8 Sym. Ops. (no inversion) found ( 4 have fractional translation)

                                    s                        frac. trans.

      isym =  1     identity

 cryst.   s( 1) = (     1          0          0      )
                  (     0          1          0      )
                  (     0          0          1      )

 cart.    s( 1) = (  1.0000000  0.0000000  0.0000000 )
                  (  0.0000000  1.0000000  0.0000000 )
                  (  0.0000000  0.0000000  1.0000000 )

      isym =  2     180 deg rotation - cart. axis [0,0,1]

[...]

 cryst.   s( 3) = (     0          1          0      )    f =(  0.5000000 )
                  (     1          0          0      )       (  0.5000000 )
                  (     0          0         -1      )       (  0.5000000 )

 cart.    s( 3) = (  0.0000000  1.0000000  0.0000000 )    f =(  0.5000000 )
                  (  1.0000000  0.0000000  0.0000000 )       (  0.5000000 )
                  (  0.0000000  0.0000000 -1.0000000 )       (  0.5185658 )

      isym =  4     180 deg rotation - cart. axis [1,-1,0]

[...]

      isym =  5     inv. 180 deg rotation - cart. axis [0,1,0]

[...]

 cryst.   s( 6) = (    -1          0          0      )    f =(  0.5000000 )
                  (     0          1          0      )       (  0.5000000 )
                  (     0          0          1      )       ( -0.5000000 )

 cart.    s( 6) = ( -1.0000000  0.0000000  0.0000000 )    f =(  0.5000000 )
                  (  0.0000000  1.0000000  0.0000000 )       (  0.5000000 )
                  (  0.0000000  0.0000000  1.0000000 )       ( -0.5185658 )

[...]

      isym =  8     inv.  90 deg rotation - cart. axis [0,0,1]

 cryst.   s( 8) = (     0         -1          0      )
                  (     1          0          0      )
                  (     0          0         -1      )

 cart.    s( 8) = (  0.0000000  1.0000000  0.0000000 )
                  ( -1.0000000  0.0000000  0.0000000 )
                  (  0.0000000  0.0000000 -1.0000000 )

   Cartesian axes

     site n.     atom                  positions (alat units)
         1           In  tau(   1) = (   0.5000000   0.5000000   0.2664256  )
         2           In  tau(   2) = (   0.0000000   0.0000000   0.7849914  )
         3           In  tau(   3) = (   0.8409190   0.6521940   1.0253716  )
         4           In  tau(   4) = (   0.0000000   0.0000000   0.2521402  )
         5           In  tau(   5) = (   0.6590810   0.1521940   0.5068058  )
         6           In  tau(   6) = (   0.3409190   0.8478060   0.5068058  )
         7           In  tau(   7) = (   0.1590810   0.3478060   1.0253716  )
         8           In  tau(   8) = (   0.3478060   0.8409190   0.0117600  )
         9           In  tau(   9) = (   0.8478060   0.6590810   0.5303258  )
        10           In  tau(  10) = (   0.6521940   0.1590810   0.0117600  )
        11           In  tau(  11) = (   0.1521940   0.3409190   0.5303258  )
        12           In  tau(  12) = (   0.5000000   0.5000000   0.7707060  )
        13           Ru  tau(  13) = (   0.3458190   0.1541810   0.2592829  )
        14           Ru  tau(  14) = (   0.6541810   0.8458190   0.2592829  )
        15           Ru  tau(  15) = (   0.1541810   0.6541810   0.7778487  )
        16           Ru  tau(  16) = (   0.8458190   0.3458190   0.7778487  )

   Crystallographic axes

     site n.     atom                  positions (cryst. coord.)
         1           In  tau(   1) = (  0.5000000  0.5000000  0.2568870  )
         2           In  tau(   2) = (  0.0000000  0.0000000  0.7568870  )
         3           In  tau(   3) = (  0.8409190  0.6521940  0.9886610  )
         4           In  tau(   4) = (  0.0000000  0.0000000  0.2431130  )
         5           In  tau(   5) = (  0.6590810  0.1521940  0.4886610  )
         6           In  tau(   6) = (  0.3409190  0.8478060  0.4886610  )
         7           In  tau(   7) = (  0.1590810  0.3478060  0.9886610  )
         8           In  tau(   8) = (  0.3478060  0.8409190  0.0113390  )
         9           In  tau(   9) = (  0.8478060  0.6590810  0.5113390  )
        10           In  tau(  10) = (  0.6521940  0.1590810  0.0113390  )
        11           In  tau(  11) = (  0.1521940  0.3409190  0.5113390  )
        12           In  tau(  12) = (  0.5000000  0.5000000  0.7431130  )
        13           Ru  tau(  13) = (  0.3458190  0.1541810  0.2500000  )
        14           Ru  tau(  14) = (  0.6541810  0.8458190  0.2500000  )
        15           Ru  tau(  15) = (  0.1541810  0.6541810  0.7500000  )
        16           Ru  tau(  16) = (  0.8458190  0.3458190  0.7500000  )

     number of k points=     1  Methfessel-Paxton smearing, width (Ry)=  0.0010
                       cart. coord. in units 2pi/alat
        k(    1) = (   0.0000000   0.0000000   0.0000000), wk =   2.0000000

                       cryst. coord.
        k(    1) = (   0.0000000   0.0000000   0.0000000), wk =   2.0000000

     Initial potential from superposition of free atoms

     starting charge     219.9532, renormalised to     220.0000
     Starting wfcs are  148 randomized atomic wfcs

     Self-consistent Calculation

     iteration #  1     ecut=    30.00 Ry     beta= 0.70
     Davidson diagonalization with overlap

     ethr =  1.00E-02,  avg # of iterations =  4.0

     total energy              =   -2487.20300971 Ry
     estimated scf accuracy    <       7.44768811 Ry

[...]

     total energy              =   -2492.37755396 Ry
     estimated scf accuracy    <       0.00000344 Ry

     iteration # 15     ecut=    30.00 Ry     beta= 0.70
     Davidson diagonalization with overlap

     ethr =  1.56E-09,  avg # of iterations =  2.0

     End of self-consistent calculation

          k = 0.0000 0.0000 0.0000 (  3463 PWs)   bands (ev):

   -60.5514 -60.5512 -60.5467 -60.5465 -30.6062 -30.6049 -30.5991 -30.5989
   -30.5555 -30.5553 -30.5509 -30.5504 -30.4658 -30.4643 -30.3973 -30.3970
    -2.9912  -2.9819  -2.9817  -2.9480  -2.9227  -2.9225  -2.9124  -2.8903
    -2.8711  -2.8647  -2.8644  -2.8642  -2.8477  -2.7999  -2.7893  -2.7891
    -2.7856  -2.7853  -2.7849  -2.7711  -2.5480  -2.5119  -2.5040  -2.4888
    -2.4884  -2.4834  -2.4816  -2.4603  -2.4592  -2.4591  -2.4459  -2.4440
    -2.4313  -2.4117  -2.4064  -2.4048  -2.3987  -2.3984  -2.3919  -2.3917
    -2.3776  -2.3771  -2.3649  -2.3470  -2.3463  -2.3454  -2.3294  -2.3105
    -2.3003  -2.2737  -2.2726  -2.2714  -2.2710  -2.2649  -2.2643  -2.2483
    -2.2478  -2.2371  -2.1798  -2.1792   2.5111   5.1589   5.3249   5.4097
     5.7761   5.7764   6.3975   6.7900   7.5037   7.7362   7.7365   7.7869
     7.9382   8.6427   8.6428   8.7067   8.7246   8.8153   8.8156   9.6578
     9.7952   9.9297   9.9298  10.0318  10.0319  10.1873  10.3982  10.4202
    10.4203  10.9951  11.0735  11.1386  11.1390  11.1419  12.0222  12.1316
    12.1565  12.1567  12.4073  12.9060  13.2698  13.9285  14.0033  14.0034
    14.0321  14.0801  14.0802  15.1343  15.8285  16.4604  17.0721  17.0725
    17.1190  17.5166  17.6024  17.8923

     occupation numbers
     1.0000   1.0000   1.0000   1.0000   1.0000   1.0000   1.0000   1.0000
     1.0000   1.0000   1.0000   1.0000   1.0000   1.0000   1.0000   1.0000
     1.0000   1.0000   1.0000   1.0000   1.0000   1.0000   1.0000   1.0000
     1.0000   1.0000   1.0000   1.0000   1.0000   1.0000   1.0000   1.0000
     1.0000   1.0000   1.0000   1.0000   1.0000   1.0000   1.0000   1.0000
     1.0000   1.0000   1.0000   1.0000   1.0000   1.0000   1.0000   1.0000
     1.0000   1.0000   1.0000   1.0000   1.0000   1.0000   1.0000   1.0000
     1.0000   1.0000   1.0000   1.0000   1.0000   1.0000   1.0000   1.0000
     1.0000   1.0000   1.0000   1.0000   1.0000   1.0000   1.0000   1.0000
     1.0000   1.0000   1.0000   1.0000   1.0000   1.0000   1.0000   1.0000
     1.0000   1.0000   1.0000   1.0000   1.0000   1.0000   1.0000   1.0000
     1.0000   1.0000   1.0000   1.0000   1.0000   1.0000   1.0000   1.0000
     1.0000   1.0000   1.0000   1.0000   1.0000   1.0000   1.0000   1.0000
     1.0000   1.0000   1.0000   1.0000   1.0000   1.0000  -0.0000  -0.0000
    -0.0000  -0.0000  -0.0000  -0.0000  -0.0000  -0.0000  -0.0000  -0.0000
    -0.0000  -0.0000  -0.0000  -0.0000  -0.0000  -0.0000  -0.0000  -0.0000
    -0.0000  -0.0000  -0.0000  -0.0000

     the Fermi energy is    11.8787 ev

!    total energy              =   -2492.37755361 Ry
     estimated scf accuracy    <       0.00000091 Ry
     smearing contrib. (-TS)   =       0.00000000 Ry
     internal energy E=F+TS    =   -2492.37755361 Ry

     The total energy is F=E-TS. E is the sum of the following terms:
     one-electron contribution =    -946.16758699 Ry
     hartree contribution      =     643.75385062 Ry
     xc contribution           =    -651.66832913 Ry
     ewald contribution        =   -1538.29548811 Ry

     convergence has been achieved in  15 iterations

     Forces acting on atoms (cartesian axes, Ry/au):

     atom    1 type  1   force =     0.00000000    0.00000000   -0.00185033
     atom    2 type  1   force =     0.00000000    0.00000000   -0.00185033
     atom    3 type  1   force =    -0.00392523    0.00639505    0.00112520
     atom    4 type  1   force =     0.00000000    0.00000000    0.00185033
     atom    5 type  1   force =     0.00392523    0.00639505    0.00112520
     atom    6 type  1   force =    -0.00392523   -0.00639505    0.00112520
     atom    7 type  1   force =     0.00392523   -0.00639505    0.00112520
     atom    8 type  1   force =    -0.00639505   -0.00392523   -0.00112520
     atom    9 type  1   force =    -0.00639505    0.00392523   -0.00112520
     atom   10 type  1   force =     0.00639505    0.00392523   -0.00112520
     atom   11 type  1   force =     0.00639505   -0.00392523   -0.00112520
     atom   12 type  1   force =     0.00000000    0.00000000    0.00185033
     atom   13 type  2   force =    -0.02733863    0.02733863   -0.00000000
     atom   14 type  2   force =     0.02733863   -0.02733863   -0.00000000
     atom   15 type  2   force =     0.02733863    0.02733863   -0.00000000
     atom   16 type  2   force =    -0.02733863   -0.02733863   -0.00000000
     The non-local contrib.  to forces
     atom    1 type  1   force =     0.00000000    0.00000000    0.01683188
     atom    2 type  1   force =     0.00000000    0.00000000    0.01683188
     atom    3 type  1   force =     0.04086663   -0.02891395    0.07743579
     atom    4 type  1   force =     0.00000000    0.00000000   -0.01683188
     atom    5 type  1   force =    -0.04086663   -0.02891395    0.07743579
     atom    6 type  1   force =     0.04086663    0.02891395    0.07743579
     atom    7 type  1   force =    -0.04086663    0.02891395    0.07743579
     atom    8 type  1   force =     0.02891395    0.04086663   -0.07743579
     atom    9 type  1   force =     0.02891395   -0.04086663   -0.07743579
     atom   10 type  1   force =    -0.02891395   -0.04086663   -0.07743579
     atom   11 type  1   force =    -0.02891395    0.04086663   -0.07743579
     atom   12 type  1   force =     0.00000000    0.00000000   -0.01683188
     atom   13 type  2   force =    -0.03810299    0.03810299    0.00000000
     atom   14 type  2   force =     0.03810299   -0.03810299    0.00000000
     atom   15 type  2   force =     0.03810299    0.03810299    0.00000000
     atom   16 type  2   force =    -0.03810299   -0.03810299    0.00000000
     The ionic contribution  to forces
     atom    1 type  1   force =    -0.00000000    0.00000000   -0.01094761
     atom    2 type  1   force =     0.00000000    0.00000000   -0.01094761
     atom    3 type  1   force =    -1.02079987    0.95824352    5.65373751
     atom    4 type  1   force =     0.00000000   -0.00000000    0.01094761
     atom    5 type  1   force =     1.02079987    0.95824352    5.65373751
     atom    6 type  1   force =    -1.02079987   -0.95824352    5.65373751
     atom    7 type  1   force =     1.02079987   -0.95824352    5.65373751
     atom    8 type  1   force =    -0.95824352   -1.02079987   -5.65373751
     atom    9 type  1   force =    -0.95824352    1.02079987   -5.65373751
     atom   10 type  1   force =     0.95824352    1.02079987   -5.65373751
     atom   11 type  1   force =     0.95824352   -1.02079987   -5.65373751
     atom   12 type  1   force =    -0.00000000    0.00000000    0.01094761
     atom   13 type  2   force =    -4.08553493    4.08553493   -0.00000000
     atom   14 type  2   force =     4.08553493   -4.08553493   -0.00000000
     atom   15 type  2   force =     4.08553493    4.08553493   -0.00000000
     atom   16 type  2   force =    -4.08553493   -4.08553493   -0.00000000
     The local contribution  to forces
     atom    1 type  1   force =    -0.00053644   -0.00020722   -0.00748805
     atom    2 type  1   force =     0.00048454    0.00004548   -0.00721293
     atom    3 type  1   force =     0.97725551   -0.92340156   -5.72556630
     atom    4 type  1   force =     0.00059063    0.00019762    0.00723505
     atom    5 type  1   force =    -0.97774164   -0.92466537   -5.72591545
     atom    6 type  1   force =     0.97716201    0.92485211   -5.72590226
     atom    7 type  1   force =    -0.97663351    0.92329211   -5.72554810
     atom    8 type  1   force =     0.92389456    0.97784646    5.72589864
     atom    9 type  1   force =     0.92402606   -0.97644569    5.72557640
     atom   10 type  1   force =    -0.92449393   -0.97771468    5.72593106
     atom   11 type  1   force =    -0.92345791    0.97627453    5.72553941
     atom   12 type  1   force =    -0.00059949   -0.00003211    0.00748393
     atom   13 type  2   force =     4.09668029   -4.09771330    0.00007505
     atom   14 type  2   force =    -4.09757753    4.09780441   -0.00004126
     atom   15 type  2   force =    -4.09587566   -4.09556758    0.00043863
     atom   16 type  2   force =     4.09693599    4.09524117    0.00027806
     The core correction contribution to forces
     atom    1 type  1   force =    -0.00000361    0.00000000   -0.00039308
     atom    2 type  1   force =     0.00000370   -0.00000042   -0.00039074
     atom    3 type  1   force =    -0.00092053    0.00089303   -0.00469682
     atom    4 type  1   force =     0.00000050    0.00000061    0.00039166
     atom    5 type  1   force =     0.00092016    0.00088690   -0.00469771
     atom    6 type  1   force =    -0.00092324   -0.00088344   -0.00470072
     atom    7 type  1   force =     0.00092745   -0.00089415   -0.00470050
     atom    8 type  1   force =    -0.00088887   -0.00091610    0.00470350
     atom    9 type  1   force =    -0.00088763    0.00092615    0.00469670
     atom   10 type  1   force =     0.00088761    0.00092170    0.00470027
     atom   11 type  1   force =     0.00088560   -0.00092723    0.00470014
     atom   12 type  1   force =    -0.00000312   -0.00000403    0.00039278
     atom   13 type  2   force =     0.00000000    0.00000000    0.00000000
     atom   14 type  2   force =     0.00000000    0.00000000    0.00000000
     atom   15 type  2   force =     0.00000000    0.00000000    0.00000000
     atom   16 type  2   force =     0.00000000    0.00000000    0.00000000
     The Hubbard contrib.    to forces
     atom    1 type  1   force =     0.00000000    0.00000000    0.00000000
     atom    2 type  1   force =     0.00000000    0.00000000    0.00000000
     atom    3 type  1   force =     0.00000000    0.00000000    0.00000000
     atom    4 type  1   force =     0.00000000    0.00000000    0.00000000
     atom    5 type  1   force =     0.00000000    0.00000000    0.00000000
     atom    6 type  1   force =     0.00000000    0.00000000    0.00000000
     atom    7 type  1   force =     0.00000000    0.00000000    0.00000000
     atom    8 type  1   force =     0.00000000    0.00000000    0.00000000
     atom    9 type  1   force =     0.00000000    0.00000000    0.00000000
     atom   10 type  1   force =     0.00000000    0.00000000    0.00000000
     atom   11 type  1   force =     0.00000000    0.00000000    0.00000000
     atom   12 type  1   force =     0.00000000    0.00000000    0.00000000
     atom   13 type  2   force =     0.00000000    0.00000000    0.00000000
     atom   14 type  2   force =     0.00000000    0.00000000    0.00000000
     atom   15 type  2   force =     0.00000000    0.00000000    0.00000000
     atom   16 type  2   force =     0.00000000    0.00000000    0.00000000
     The SCF correction term to forces
     atom    1 type  1   force =     0.00054109    0.00021431    0.00015772
     atom    2 type  1   force =    -0.00050791   -0.00003738   -0.00015253
     atom    3 type  1   force =    -0.00038447   -0.00047847    0.00019719
     atom    4 type  1   force =    -0.00063962   -0.00023300    0.00011420
     atom    5 type  1   force =     0.00088100    0.00088085    0.00055493
     atom    6 type  1   force =    -0.00023466   -0.00114019    0.00055974
     atom    7 type  1   force =    -0.00034353    0.00058421    0.00021370
     atom    8 type  1   force =    -0.00002846   -0.00099221   -0.00057898
     atom    9 type  1   force =    -0.00019546   -0.00056384   -0.00018873
     atom   10 type  1   force =     0.00068481    0.00080223   -0.00061039
     atom   11 type  1   force =    -0.00036692    0.00075982   -0.00018554
     atom   12 type  1   force =     0.00068852    0.00002909   -0.00015885
     atom   13 type  2   force =    -0.00040596    0.00142732   -0.00009264
     atom   14 type  2   force =     0.00129488   -0.00147473    0.00003155
     atom   15 type  2   force =    -0.00043710   -0.00072202   -0.00046865
     atom   16 type  2   force =    -0.00065198    0.00109415   -0.00029825

     Total force =     0.080333     Total SCF correction =     0.004327

     Computing stress (Cartesian axis) and pressure

          total   stress  (Ry/bohr**3)                   (kbar)     P=      -12.11
  -0.00001001   0.00000000   0.00000000           -1.47        0.00        0.00
   0.00000000  -0.00001001   0.00000000            0.00       -1.47        0.00
   0.00000000   0.00000000  -0.00022693            0.00        0.00      -33.38

     kinetic stress (kbar)  22995.94      0.00      0.00
                                0.00  22995.94      0.00
                                0.00      0.00  22866.75

     local   stress (kbar)  -6394.09      0.03     -0.00
                                0.03  -6394.14     -0.01
                               -0.00     -0.01   1999.23

     nonloc. stress (kbar)   5073.28     -0.00      0.00
                               -0.00   5073.28      0.00
                                0.00      0.00   5040.09

     hartree stress (kbar)  13799.84     -0.03      0.00
                               -0.03  13799.88      0.01
                                0.00      0.01  10330.25

     exc-cor stress (kbar)  13826.54      0.00     -0.00
                                0.00  13826.54      0.00
                               -0.00      0.00  13822.10

     corecor stress (kbar) -20687.52      0.00     -0.00
                                0.00 -20687.52      0.00
                               -0.00      0.00 -20686.34

     ewald   stress (kbar) -28615.46     -0.00      0.00
                               -0.00 -28615.46     -0.00
                                0.00     -0.00 -33405.46

     hubbard stress (kbar)      0.00      0.00      0.00
                                0.00      0.00      0.00
                                0.00      0.00      0.00

     DFT-D   stress (kbar)      0.00      0.00      0.00
                                0.00      0.00      0.00
                                0.00      0.00      0.00

     XDM     stress (kbar)      0.00      0.00      0.00
                                0.00      0.00      0.00
                                0.00      0.00      0.00

     dft-nl  stress (kbar)      0.00      0.00      0.00
                                0.00      0.00      0.00
                                0.00      0.00      0.00

     TS-vdW  stress (kbar)      0.00      0.00      0.00
                                0.00      0.00      0.00
                                0.00      0.00      0.00

[...]

                                0.00      0.00      0.00

     Writing all to output data dir calculations/myprefix.save/

     General routines

     Parallel routines

   This run was terminated on:  17:39:31   4Mar2023

   JOB DONE.