     Program PWSCF v.7.0 starts on  6Mar2023 at  8:32:33

     R & G space division:  proc/nbgrp/npool/nimage =      32

     Reading input from espresso_4985.pwi
Warning: card &CELL ignored
Warning: card / ignored

     Current dimensions of program PWSCF are:
     Max number of different atomic species (ntypx) = 10
     Max number of k-points (npk) =  40000
     Max angular momentum in pseudopotentials (lmaxx) =  4
     file K.pbe-spn-kjpaw_psl.1.0.0.UPF: wavefunction(s)  3S renormalized

     gamma-point specific algorithms are used
     Message from routine setup:
     using ibrav=0 with symmetry is DISCOURAGED, use correct ibrav instead

     Using Slab Decomposition

     bravais-lattice index     =            0
     lattice parameter (alat)  =      14.1349  a.u.
     unit-cell volume          =    4274.6875 (a.u.)^3
     number of atoms/cell      =           18
     number of atomic types    =            3
     number of electrons       =       148.00
     number of Kohn-Sham states=           89
     kinetic-energy cutoff     =      30.0000  Ry
     charge density cutoff     =     240.0000  Ry
     scf convergence threshold =      1.0E-06
     mixing beta               =       0.7000
     number of iterations used =            8  plain     mixing
     Exchange-correlation=  SLA  PW   PBX  PBC
                           (   1   4   3   4   0   0   0)

     celldm(1)=  14.134917  celldm(2)=   0.000000  celldm(3)=   0.000000
     celldm(4)=   0.000000  celldm(5)=   0.000000  celldm(6)=   0.000000

     crystal axes: (cart. coord. in units of alat)
               a(1) = (   1.000000   0.000000   0.000000 )
               a(2) = (   0.000000   1.000000   0.000000 )
               a(3) = (   0.000000   0.000000   1.513647 )

     reciprocal axes: (cart. coord. in units 2 pi/alat)
               b(1) = (  1.000000  0.000000  0.000000 )
               b(2) = (  0.000000  1.000000  0.000000 )
               b(3) = (  0.000000  0.000000  0.660656 )

     PseudoPot. # 1 for K  read from file:
     /home/pragov/projects/rrg-bengioy-ad/pragov/crystal_structure_design/SSSP/K.pbe-spn-kjpaw_psl.1.0.0.UPF
     MD5 check sum: 7d58810084cac21f60fbe77ea2b688fd
     Pseudo is Projector augmented-wave + core cor, Zval =  9.0
     Generated using "atomic" code by A. Dal Corso  v.5.1
     Shape of augmentation charge: PSQ
     Using radial grid of 1165 points,  6 beta functions with:
                l(1) =   0
                l(2) =   0
                l(3) =   1
                l(4) =   1
                l(5) =   2
                l(6) =   2
     Q(r) pseudized with 0 coefficients

     PseudoPot. # 2 for Sn read from file:
     /home/pragov/projects/rrg-bengioy-ad/pragov/crystal_structure_design/SSSP/Sn_pbe_v1.uspp.F.UPF
     MD5 check sum: 4cf58ce39ec5d5d420df3dd08604eb00
     Pseudo is Ultrasoft + core correction, Zval = 14.0
     Generated by new atomic code, or converted to UPF format
     Using radial grid of  891 points,  6 beta functions with:
                l(1) =   0
                l(2) =   0
                l(3) =   1
                l(4) =   1
                l(5) =   2
                l(6) =   2
     Q(r) pseudized with  6 coefficients,  rinner =    1.200   1.200   1.200
                                                       1.200   1.200

     PseudoPot. # 3 for Br read from file:
     /home/pragov/projects/rrg-bengioy-ad/pragov/crystal_structure_design/SSSP/br_pbe_v1.4.uspp.F.UPF
     MD5 check sum: d3ffb7b29f6225aa16fe06858fb2a80b
     Pseudo is Ultrasoft + core correction, Zval =  7.0
     Generated by new atomic code, or converted to UPF format
     Using radial grid of  879 points,  6 beta functions with:
                l(1) =   0
                l(2) =   0
                l(3) =   1
                l(4) =   1
                l(5) =   2
                l(6) =   2
     Q(r) pseudized with  8 coefficients,  rinner =    1.100   1.100   1.100
                                                       1.100   1.100

     atomic species   valence    mass     pseudopotential
        K              9.00    39.09830     K ( 1.00)
        Sn            14.00   118.71000     Sn( 1.00)
        Br             7.00    79.90400     Br( 1.00)

     16 Sym. Ops., with inversion, found ( 8 have fractional translation)

                                    s                        frac. trans.

      isym =  1     identity

 cryst.   s( 1) = (     1          0          0      )
                  (     0          1          0      )
                  (     0          0          1      )

 cart.    s( 1) = (  1.0000000  0.0000000  0.0000000 )
                  (  0.0000000  1.0000000  0.0000000 )
                  (  0.0000000  0.0000000  1.0000000 )

      isym =  2     180 deg rotation - cart. axis [0,0,1]

[...]

 cryst.   s( 3) = (    -1          0          0      )    f =(  0.5000000 )
                  (     0          1          0      )       (  0.5000000 )
                  (     0          0         -1      )       (  0.5000000 )

 cart.    s( 3) = ( -1.0000000  0.0000000  0.0000000 )    f =(  0.5000000 )
                  (  0.0000000  1.0000000  0.0000000 )       (  0.5000000 )
                  (  0.0000000  0.0000000 -1.0000000 )       (  0.7568234 )

[...]

 cryst.   s( 6) = (     0         -1          0      )    f =(  0.5000000 )
                  (    -1          0          0      )       (  0.5000000 )
                  (     0          0         -1      )       (  0.5000000 )

 cart.    s( 6) = (  0.0000000 -1.0000000  0.0000000 )    f =(  0.5000000 )
                  ( -1.0000000  0.0000000  0.0000000 )       (  0.5000000 )
                  (  0.0000000  0.0000000 -1.0000000 )       (  0.7568234 )

[...]

      isym =  8      90 deg rotation - cart. axis [0,0,1]

[...]

      isym =  9     inversion

 cryst.   s( 9) = (    -1          0          0      )
                  (     0         -1          0      )
                  (     0          0         -1      )

 cart.    s( 9) = ( -1.0000000  0.0000000  0.0000000 )
                  (  0.0000000 -1.0000000  0.0000000 )
                  (  0.0000000  0.0000000 -1.0000000 )

      isym = 10     inv. 180 deg rotation - cart. axis [0,0,1]

 cryst.   s(10) = (     1          0          0      )
                  (     0          1          0      )
                  (     0          0         -1      )

 cart.    s(10) = (  1.0000000  0.0000000  0.0000000 )
                  (  0.0000000  1.0000000  0.0000000 )
                  (  0.0000000  0.0000000 -1.0000000 )

[...]

 cryst.   s(11) = (     1          0          0      )    f =( -0.5000000 )
                  (     0         -1          0      )       (  0.5000000 )
                  (     0          0          1      )       (  0.5000000 )

 cart.    s(11) = (  1.0000000  0.0000000  0.0000000 )    f =( -0.5000000 )
                  (  0.0000000 -1.0000000  0.0000000 )       (  0.5000000 )
                  (  0.0000000  0.0000000  1.0000000 )       (  0.7568234 )

[...]

 cryst.   s(14) = (     0          1          0      )    f =( -0.5000000 )
                  (     1          0          0      )       (  0.5000000 )
                  (     0          0          1      )       (  0.5000000 )

 cart.    s(14) = (  0.0000000  1.0000000  0.0000000 )    f =( -0.5000000 )
                  (  1.0000000  0.0000000  0.0000000 )       (  0.5000000 )
                  (  0.0000000  0.0000000  1.0000000 )       (  0.7568234 )

[...]

      isym = 16     inv.  90 deg rotation - cart. axis [0,0,1]

 cryst.   s(16) = (     0         -1          0      )
                  (     1          0          0      )
                  (     0          0         -1      )

 cart.    s(16) = (  0.0000000  1.0000000  0.0000000 )
                  ( -1.0000000  0.0000000  0.0000000 )
                  (  0.0000000  0.0000000 -1.0000000 )

   Cartesian axes

     site n.     atom                  positions (alat units)
         1           K   tau(   1) = (   0.0000000   0.5000000   1.1352352  )
         2           K   tau(   2) = (   0.5000000   0.0000000   1.1352352  )
         3           K   tau(   3) = (   0.0000000   0.5000000   0.3784117  )
         4           K   tau(   4) = (   0.5000000   0.0000000   0.3784117  )
         5           Sn  tau(   5) = (   0.0000000   0.0000000   0.0000000  )
         6           Sn  tau(   6) = (   0.5000000   0.5000000   0.7568234  )
         7           Br  tau(   7) = (   0.0000000   0.0000000   0.3592293  )
         8           Br  tau(   8) = (   0.5000000   0.5000000   0.3975942  )
         9           Br  tau(   9) = (   0.0000000   0.0000000   1.1544176  )
        10           Br  tau(  10) = (   0.5000000   0.5000000   1.1160527  )
        11           Br  tau(  11) = (   0.1893670   0.7003470   0.0000000  )
        12           Br  tau(  12) = (   0.7996530   0.3106330   0.7568234  )
        13           Br  tau(  13) = (   0.8106330   0.2996530   0.0000000  )
        14           Br  tau(  14) = (   0.2003470   0.6893670   0.7568234  )
        15           Br  tau(  15) = (   0.3106330   0.2003470   0.7568234  )
        16           Br  tau(  16) = (   0.6893670   0.7996530   0.7568234  )
        17           Br  tau(  17) = (   0.2996530   0.1893670   0.0000000  )
        18           Br  tau(  18) = (   0.7003470   0.8106330   0.0000000  )

   Crystallographic axes

     site n.     atom                  positions (cryst. coord.)
         1           K   tau(   1) = (  0.0000000  0.5000000  0.7500000  )
         2           K   tau(   2) = (  0.5000000  0.0000000  0.7500000  )
         3           K   tau(   3) = (  0.0000000  0.5000000  0.2500000  )
         4           K   tau(   4) = (  0.5000000  0.0000000  0.2500000  )
         5           Sn  tau(   5) = (  0.0000000  0.0000000  0.0000000  )
         6           Sn  tau(   6) = (  0.5000000  0.5000000  0.5000000  )
         7           Br  tau(   7) = (  0.0000000  0.0000000  0.2373270  )
         8           Br  tau(   8) = (  0.5000000  0.5000000  0.2626730  )
         9           Br  tau(   9) = (  0.0000000  0.0000000  0.7626730  )
        10           Br  tau(  10) = (  0.5000000  0.5000000  0.7373270  )
        11           Br  tau(  11) = (  0.1893670  0.7003470  0.0000000  )
        12           Br  tau(  12) = (  0.7996530  0.3106330  0.5000000  )
        13           Br  tau(  13) = (  0.8106330  0.2996530  0.0000000  )
        14           Br  tau(  14) = (  0.2003470  0.6893670  0.5000000  )
        15           Br  tau(  15) = (  0.3106330  0.2003470  0.5000000  )
        16           Br  tau(  16) = (  0.6893670  0.7996530  0.5000000  )
        17           Br  tau(  17) = (  0.2996530  0.1893670  0.0000000  )
        18           Br  tau(  18) = (  0.7003470  0.8106330  0.0000000  )

     number of k points=     1  Methfessel-Paxton smearing, width (Ry)=  0.0010
                       cart. coord. in units 2pi/alat
        k(    1) = (   0.0000000   0.0000000   0.0000000), wk =   2.0000000

                       cryst. coord.
        k(    1) = (   0.0000000   0.0000000   0.0000000), wk =   2.0000000

     Check: negative core charge=   -0.000002

     Initial potential from superposition of free atoms

     starting charge     145.9243, renormalised to     148.0000
     Starting wfcs are   98 randomized atomic wfcs
     Checking if some PAW data can be deallocated...

     Self-consistent Calculation

     iteration #  1     ecut=    30.00 Ry     beta= 0.70
     Davidson diagonalization with overlap

     ethr =  1.00E-02,  avg # of iterations =  4.0

     Threshold (ethr) on eigenvalues was too large:
     Diagonalizing with lowered threshold

     Davidson diagonalization with overlap

[...]

     total energy              =   -1341.90039330 Ry
     estimated scf accuracy    <       0.60839990 Ry

[...]

     total energy              =   -1342.07936126 Ry
     estimated scf accuracy    <       0.00001351 Ry

     iteration #  7     ecut=    30.00 Ry     beta= 0.70
     Davidson diagonalization with overlap

     ethr =  9.13E-09,  avg # of iterations =  2.0

     End of self-consistent calculation

          k = 0.0000 0.0000 0.0000 (  5947 PWs)   bands (ev):

   -26.7563 -26.7561 -26.7557 -26.7556 -19.1093 -19.1091 -19.1053 -19.1052
   -19.0371 -19.0371 -19.0370 -19.0370 -19.0300 -19.0299 -11.8444 -11.7719
   -11.3112 -11.2966 -11.2200 -11.2200 -11.1896 -11.1896 -11.1309 -10.9944
   -10.9501 -10.8999 -10.2545 -10.2545 -10.2521 -10.2521 -10.2291 -10.2291
   -10.2211 -10.2170 -10.1948 -10.1948 -10.1661 -10.1614  -4.5706  -4.3813
    -1.1887  -1.1235  -1.1235  -1.0084  -1.0084  -0.8749  -0.1865  -0.0755
     0.0129   0.0129   0.3527   0.5344   0.5787   0.5787   0.7883   0.7883
     0.9965   1.1500   1.1546   1.1546   1.1710   1.1710   1.1927   1.3130
     1.3232   1.3612   1.5616   1.5987   1.5987   1.6462   1.6462   1.7065
     1.8236   1.8236   3.3303   4.1556   6.4620   6.9938   7.2612   7.2612
     7.5196   7.7902   7.7902   7.8600   8.1248   8.1728   8.8398   8.9331
     9.0144

     occupation numbers
     1.0000   1.0000   1.0000   1.0000   1.0000   1.0000   1.0000   1.0000
     1.0000   1.0000   1.0000   1.0000   1.0000   1.0000   1.0000   1.0000
     1.0000   1.0000   1.0000   1.0000   1.0000   1.0000   1.0000   1.0000
     1.0000   1.0000   1.0000   1.0000   1.0000   1.0000   1.0000   1.0000
     1.0000   1.0000   1.0000   1.0000   1.0000   1.0000   1.0000   1.0000
     1.0000   1.0000   1.0000   1.0000   1.0000   1.0000   1.0000   1.0000
     1.0000   1.0000   1.0000   1.0000   1.0000   1.0000   1.0000   1.0000
     1.0000   1.0000   1.0000   1.0000   1.0000   1.0000   1.0000   1.0000
     1.0000   1.0000   1.0000   1.0000   1.0000   1.0000   1.0000   1.0000
     1.0000   1.0000  -0.0000  -0.0000  -0.0000  -0.0000  -0.0000  -0.0000
    -0.0000  -0.0000  -0.0000  -0.0000  -0.0000  -0.0000  -0.0000  -0.0000
    -0.0000

     the Fermi energy is     2.3924 ev

!    total energy              =   -1342.07936515 Ry
     estimated scf accuracy    <       0.00000066 Ry
     smearing contrib. (-TS)   =       0.00000000 Ry
     internal energy E=F+TS    =   -1342.07936515 Ry

     The total energy is F=E-TS. E is the sum of the following terms:
     one-electron contribution =    -380.04295813 Ry
     hartree contribution      =     249.47575116 Ry
     xc contribution           =    -454.21120823 Ry
     ewald contribution        =    -535.63300436 Ry
     one-center paw contrib.   =    -221.66794559 Ry
      -> PAW hartree energy AE =      37.60392341 Ry
      -> PAW hartree energy PS =     -37.39379051 Ry
      -> PAW xc energy AE      =     -66.20695203 Ry
      -> PAW xc energy PS      =      10.57983274 Ry
      -> total E_H with PAW    =     249.68588405 Ry
      -> total E_XC with PAW   =    -509.83832752 Ry

     convergence has been achieved in   7 iterations

     Forces acting on atoms (cartesian axes, Ry/au):

     atom    1 type  1   force =     0.00000000    0.00000000    0.00000000
     atom    2 type  1   force =     0.00000000    0.00000000    0.00000000
     atom    3 type  1   force =     0.00000000    0.00000000    0.00000000
     atom    4 type  1   force =     0.00000000    0.00000000   -0.00000000
     atom    5 type  2   force =     0.00000000    0.00000000   -0.00000000
     atom    6 type  2   force =     0.00000000    0.00000000   -0.00000000
     atom    7 type  3   force =     0.00000000    0.00000000   -0.00991418
     atom    8 type  3   force =     0.00000000    0.00000000    0.00991418
     atom    9 type  3   force =     0.00000000    0.00000000    0.00991418
     atom   10 type  3   force =     0.00000000    0.00000000   -0.00991418
     atom   11 type  3   force =    -0.01487074   -0.00278220    0.00000000
     atom   12 type  3   force =     0.00278220    0.01487074    0.00000000
     atom   13 type  3   force =     0.01487074    0.00278220    0.00000000
     atom   14 type  3   force =    -0.00278220   -0.01487074    0.00000000
     atom   15 type  3   force =     0.01487074   -0.00278220    0.00000000
     atom   16 type  3   force =    -0.01487074    0.00278220    0.00000000
     atom   17 type  3   force =     0.00278220   -0.01487074    0.00000000
     atom   18 type  3   force =    -0.00278220    0.01487074    0.00000000
     The non-local contrib.  to forces
     atom    1 type  1   force =     0.00000000    0.00000000    0.00000000
     atom    2 type  1   force =     0.00000000    0.00000000   -0.00000000
     atom    3 type  1   force =     0.00000000    0.00000000    0.00000000
     atom    4 type  1   force =     0.00000000    0.00000000    0.00000000
     atom    5 type  2   force =     0.00000000    0.00000000    0.00000000
     atom    6 type  2   force =     0.00000000    0.00000000    0.00000000
     atom    7 type  3   force =     0.00000000    0.00000000    0.01240939
     atom    8 type  3   force =     0.00000000    0.00000000   -0.01240939
     atom    9 type  3   force =     0.00000000    0.00000000   -0.01240939
     atom   10 type  3   force =     0.00000000    0.00000000    0.01240939
     atom   11 type  3   force =     0.00546537   -0.02689859    0.00000000
     atom   12 type  3   force =     0.02689859   -0.00546537    0.00000000
     atom   13 type  3   force =    -0.00546537    0.02689859    0.00000000
     atom   14 type  3   force =    -0.02689859    0.00546537    0.00000000
     atom   15 type  3   force =    -0.00546537   -0.02689859   -0.00000000
     atom   16 type  3   force =     0.00546537    0.02689859   -0.00000000
     atom   17 type  3   force =     0.02689859    0.00546537   -0.00000000
     atom   18 type  3   force =    -0.02689859   -0.00546537    0.00000000
     The ionic contribution  to forces
     atom    1 type  1   force =     0.00000000    0.00000000    0.00000000
     atom    2 type  1   force =     0.00000000   -0.00000000    0.00000000
     atom    3 type  1   force =    -0.00000000   -0.00000000   -0.00000000
     atom    4 type  1   force =    -0.00000000   -0.00000000   -0.00000000
     atom    5 type  2   force =    -0.00000000    0.00000000    0.00000000
     atom    6 type  2   force =    -0.00000000   -0.00000000    0.00000000
     atom    7 type  3   force =    -0.00000000   -0.00000000    6.47685255
     atom    8 type  3   force =    -0.00000000    0.00000000   -6.47685255
     atom    9 type  3   force =    -0.00000000   -0.00000000   -6.47685255
     atom   10 type  3   force =     0.00000000    0.00000000    6.47685255
     atom   11 type  3   force =     4.17491338   -5.04534161   -0.00000000
     atom   12 type  3   force =     5.04534161   -4.17491338    0.00000000
     atom   13 type  3   force =    -4.17491338    5.04534161    0.00000000
     atom   14 type  3   force =    -5.04534161    4.17491338    0.00000000
     atom   15 type  3   force =    -4.17491338   -5.04534161    0.00000000
     atom   16 type  3   force =     4.17491338    5.04534161    0.00000000
     atom   17 type  3   force =     5.04534161    4.17491338    0.00000000
     atom   18 type  3   force =    -5.04534161   -4.17491338   -0.00000000
     The local contribution  to forces
     atom    1 type  1   force =    -0.00004869   -0.00002212   -0.00005864
     atom    2 type  1   force =    -0.00005370   -0.00000646   -0.00007941
     atom    3 type  1   force =     0.00000762   -0.00001893    0.00006316
     atom    4 type  1   force =    -0.00002015    0.00000182    0.00012016
     atom    5 type  2   force =    -0.00003299   -0.00000944   -0.00000418
     atom    6 type  2   force =     0.00000947   -0.00000926   -0.00001514
     atom    7 type  3   force =    -0.00000413    0.00000154   -6.51725979
     atom    8 type  3   force =     0.00000577   -0.00000034    6.51741901
     atom    9 type  3   force =     0.00000507   -0.00000208    6.51725830
     atom   10 type  3   force =     0.00000293    0.00000110   -6.51740946
     atom   11 type  3   force =    -4.20701304    5.08960656   -0.00000832
     atom   12 type  3   force =    -5.08956245    4.20695842   -0.00000979
     atom   13 type  3   force =     4.20700764   -5.08961241    0.00000097
     atom   14 type  3   force =     5.08956252   -4.20694780    0.00000377
     atom   15 type  3   force =     4.20693741    5.08954719   -0.00000192
     atom   16 type  3   force =    -4.20693311   -5.08955176    0.00000346
     atom   17 type  3   force =    -5.08960140   -4.20697981   -0.00000337
     atom   18 type  3   force =     5.08962018    4.20699355   -0.00000376
     The core correction contribution to forces
     atom    1 type  1   force =    -0.00000085   -0.00000044    0.00000041
     atom    2 type  1   force =    -0.00000066   -0.00000009    0.00000035
     atom    3 type  1   force =    -0.00000004   -0.00000012   -0.00000024
     atom    4 type  1   force =    -0.00000016    0.00000009    0.00000038
     atom    5 type  2   force =    -0.00000063   -0.00000024    0.00000000
     atom    6 type  2   force =     0.00000000    0.00000001   -0.00000026
     atom    7 type  3   force =    -0.00000072    0.00000031    0.01782532
     atom    8 type  3   force =     0.00000028   -0.00000028   -0.01782474
     atom    9 type  3   force =     0.00000007   -0.00000009   -0.01782510
     atom   10 type  3   force =    -0.00000072   -0.00000005    0.01782603
     atom   11 type  3   force =     0.01146723   -0.01979817   -0.00000019
     atom   12 type  3   force =     0.01979750   -0.01146680   -0.00000001
     atom   13 type  3   force =    -0.01146737    0.01979772   -0.00000032
     atom   14 type  3   force =    -0.01979827    0.01146615    0.00000028
     atom   15 type  3   force =    -0.01146699   -0.01979429    0.00000027
     atom   16 type  3   force =     0.01146700    0.01979442   -0.00000120
     atom   17 type  3   force =     0.01979682    0.01146679   -0.00000077
     atom   18 type  3   force =    -0.01979634   -0.01146574    0.00000049
     The Hubbard contrib.    to forces
     atom    1 type  1   force =     0.00000000    0.00000000    0.00000000
     atom    2 type  1   force =     0.00000000    0.00000000    0.00000000
     atom    3 type  1   force =     0.00000000    0.00000000    0.00000000
     atom    4 type  1   force =     0.00000000    0.00000000    0.00000000
     atom    5 type  2   force =     0.00000000    0.00000000    0.00000000
     atom    6 type  2   force =     0.00000000    0.00000000    0.00000000
     atom    7 type  3   force =     0.00000000    0.00000000    0.00000000
     atom    8 type  3   force =     0.00000000    0.00000000    0.00000000
     atom    9 type  3   force =     0.00000000    0.00000000    0.00000000
     atom   10 type  3   force =     0.00000000    0.00000000    0.00000000
     atom   11 type  3   force =     0.00000000    0.00000000    0.00000000
     atom   12 type  3   force =     0.00000000    0.00000000    0.00000000
     atom   13 type  3   force =     0.00000000    0.00000000    0.00000000
     atom   14 type  3   force =     0.00000000    0.00000000    0.00000000
     atom   15 type  3   force =     0.00000000    0.00000000    0.00000000
     atom   16 type  3   force =     0.00000000    0.00000000    0.00000000
     atom   17 type  3   force =     0.00000000    0.00000000    0.00000000
     atom   18 type  3   force =     0.00000000    0.00000000    0.00000000
     The SCF correction term to forces
     atom    1 type  1   force =     0.00005692    0.00002094    0.00006547
     atom    2 type  1   force =     0.00006683    0.00001423    0.00010429
     atom    3 type  1   force =    -0.00003591    0.00002996   -0.00004771
     atom    4 type  1   force =     0.00005276    0.00001148   -0.00013841
     atom    5 type  2   force =     0.00005175    0.00001301    0.00000360
     atom    6 type  2   force =    -0.00001432    0.00001874    0.00002239
     atom    7 type  3   force =     0.00000712   -0.00000397    0.00025754
     atom    8 type  3   force =    -0.00000618    0.00000242   -0.00042113
     atom    9 type  3   force =    -0.00000681    0.00000238   -0.00025741
     atom   10 type  3   force =     0.00000186   -0.00000006    0.00040478
     atom   11 type  3   force =     0.00029183   -0.00034309    0.00000910
     atom   12 type  3   force =     0.00030111   -0.00024015    0.00000735
     atom   13 type  3   force =    -0.00028659    0.00035144    0.00000273
     atom   14 type  3   force =    -0.00029657    0.00023479   -0.00000563
     atom   15 type  3   force =    -0.00022104   -0.00030754   -0.00000121
     atom   16 type  3   force =     0.00021824    0.00031149    0.00000405
     atom   17 type  3   force =     0.00034836    0.00026479    0.00000948
     atom   18 type  3   force =    -0.00036732   -0.00028342    0.00000125

     Total force =     0.047161     Total SCF correction =     0.001387

     Computing stress (Cartesian axis) and pressure

          total   stress  (Ry/bohr**3)                   (kbar)     P=        9.31
   0.00012518   0.00000000   0.00000000           18.41        0.00        0.00
   0.00000000   0.00012518   0.00000000            0.00       18.41        0.00
   0.00000000   0.00000000  -0.00006051            0.00        0.00       -8.90

     kinetic stress (kbar)   5477.09      0.00      0.00
                                0.00   5477.09      0.00
                                0.00      0.00   5446.65

     local   stress (kbar)    319.70     -0.00      0.00
                               -0.00    319.70     -0.00
                                0.00     -0.00    -97.13

     nonloc. stress (kbar)   -269.10      0.00      0.00
                                0.00   -269.10      0.00
                                0.00      0.00   -267.18

     hartree stress (kbar)   2805.40      0.00     -0.00
                                0.00   2805.41      0.00
                               -0.00      0.00   2974.41

     exc-cor stress (kbar)   8751.23      0.00      0.00
                                0.00   8751.23     -0.00
                                0.00     -0.00   8751.64

     corecor stress (kbar) -10839.38     -0.00     -0.00
                               -0.00 -10839.38     -0.00
                               -0.00     -0.00 -10837.58

     ewald   stress (kbar)  -6226.53      0.00      0.00
                                0.00  -6226.53      0.00
                                0.00      0.00  -5979.71

     hubbard stress (kbar)      0.00      0.00      0.00
                                0.00      0.00      0.00
                                0.00      0.00      0.00

     DFT-D   stress (kbar)      0.00      0.00      0.00
                                0.00      0.00      0.00
                                0.00      0.00      0.00

     XDM     stress (kbar)      0.00      0.00      0.00
                                0.00      0.00      0.00
                                0.00      0.00      0.00

     dft-nl  stress (kbar)      0.00      0.00      0.00
                                0.00      0.00      0.00
                                0.00      0.00      0.00

     TS-vdW  stress (kbar)      0.00      0.00      0.00
                                0.00      0.00      0.00
                                0.00      0.00      0.00

[...]

                                0.00      0.00      0.00

     Writing all to output data dir calculations/myprefix.save/

     General routines

     Parallel routines

     PAW routines

   This run was terminated on:   8:32:38   6Mar2023

   JOB DONE.