     Program PWSCF v.7.0 starts on  4Mar2023 at 22:19:36

     R & G space division:  proc/nbgrp/npool/nimage =      32

     Reading input from espresso_7881.pwi
Warning: card &CELL ignored
Warning: card / ignored

     Current dimensions of program PWSCF are:
     Max number of different atomic species (ntypx) = 10
     Max number of k-points (npk) =  40000
     Max angular momentum in pseudopotentials (lmaxx) =  4

     gamma-point specific algorithms are used
     Message from routine setup:
     using ibrav=0 with symmetry is DISCOURAGED, use correct ibrav instead

     Using Slab Decomposition

     bravais-lattice index     =            0
     lattice parameter (alat)  =      10.5863  a.u.
     unit-cell volume          =    1160.3507 (a.u.)^3
     number of atoms/cell      =            8
     number of atomic types    =            4
     number of electrons       =        68.00
     number of Kohn-Sham states=           41
     kinetic-energy cutoff     =      30.0000  Ry
     charge density cutoff     =     240.0000  Ry
     scf convergence threshold =      1.0E-06
     mixing beta               =       0.7000
     number of iterations used =            8  plain     mixing
     Exchange-correlation= PBE
                           (   1   4   3   4   0   0   0)

     celldm(1)=  10.586333  celldm(2)=   0.000000  celldm(3)=   0.000000
     celldm(4)=   0.000000  celldm(5)=   0.000000  celldm(6)=   0.000000

     crystal axes: (cart. coord. in units of alat)
               a(1) = (   1.000000   0.000000   0.000000 )
               a(2) = (   0.000000   1.003205   0.000000 )
               a(3) = (   0.494186   0.501602   0.974907 )

     reciprocal axes: (cart. coord. in units 2 pi/alat)
               b(1) = (  1.000000  0.000000 -0.506906 )
               b(2) = (  0.000000  0.996805 -0.512870 )
               b(3) = (  0.000000  0.000000  1.025739 )

     PseudoPot. # 1 for Zn read from file:
     /home/pragov/projects/rrg-bengioy-ad/pragov/crystal_structure_design/SSSP/Zn_pbe_v1.uspp.F.UPF
     MD5 check sum: df62231357ef9e81f77b2b3087fa5675
     Pseudo is Ultrasoft, Zval = 20.0
     Generated by new atomic code, or converted to UPF format
     Using radial grid of  943 points,  6 beta functions with:
                l(1) =   0
                l(2) =   0
                l(3) =   1
                l(4) =   1
                l(5) =   2
                l(6) =   2
     Q(r) pseudized with  8 coefficients,  rinner =    1.100   1.100   1.100
                                                       1.100   1.100

     PseudoPot. # 2 for Si read from file:
     /home/pragov/projects/rrg-bengioy-ad/pragov/crystal_structure_design/SSSP/Si.pbe-n-rrkjus_psl.1.0.0.UPF
     MD5 check sum: 0b0bb1205258b0d07b9f9672cf965d36
     Pseudo is Ultrasoft + core correction, Zval =  4.0
     Generated using "atomic" code by A. Dal Corso  v.5.1
     Using radial grid of 1141 points,  6 beta functions with:
                l(1) =   0
                l(2) =   0
                l(3) =   1
                l(4) =   1
                l(5) =   2
                l(6) =   2
     Q(r) pseudized with 0 coefficients

     PseudoPot. # 3 for As read from file:
     /home/pragov/projects/rrg-bengioy-ad/pragov/crystal_structure_design/SSSP/As.pbe-n-rrkjus_psl.0.2.UPF
     MD5 check sum: 767315de957beeeb34f87d97bf945c8f
     Pseudo is Ultrasoft + core correction, Zval =  5.0
     Generated using "atomic" code by A. Dal Corso  v.5.0.99 svn rev. 10869
     Using radial grid of 1209 points,  4 beta functions with:
                l(1) =   0
                l(2) =   0
                l(3) =   1
                l(4) =   1
     Q(r) pseudized with 0 coefficients

     PseudoPot. # 4 for P  read from file:
     /home/pragov/projects/rrg-bengioy-ad/pragov/crystal_structure_design/SSSP/P.pbe-n-rrkjus_psl.1.0.0.UPF
     MD5 check sum: 8b930f418f0a4573dca56cd030ffe088
     Pseudo is Ultrasoft + core correction, Zval =  5.0
     Generated using "atomic" code by A. Dal Corso  v.5.1
     Using radial grid of 1147 points,  6 beta functions with:
                l(1) =   0
                l(2) =   0
                l(3) =   1
                l(4) =   1
                l(5) =   2
                l(6) =   2
     Q(r) pseudized with 0 coefficients

     atomic species   valence    mass     pseudopotential
        Zn            20.00    65.38000     Zn( 1.00)
        Si             4.00    28.08500     Si( 1.00)
        As             5.00    74.92159     As( 1.00)
        P              5.00    30.97376     P ( 1.00)

      2 Sym. Ops. (no inversion) found ( 1 have fractional translation)

                                    s                        frac. trans.

      isym =  1     identity

 cryst.   s( 1) = (     1          0          0      )
                  (     0          1          0      )
                  (     0          0          1      )

 cart.    s( 1) = (  1.0000000  0.0000000 -0.0000000 )
                  (  0.0000000  1.0000000 -0.0000000 )
                  (  0.0000000  0.0000000  1.0000000 )

      isym =  2     180 deg rotation - cart. axis [0,1,0]

 cryst.   s( 2) = (    -1          0          0      )    f =(  0.2500000 )
                  (     0          1          0      )       ( -0.2500000 )
                  (     0          1         -1      )       ( -0.5000000 )

 cart.    s( 2) = ( -1.0000000  0.0000000  0.0000000 )    f =(  0.0029070 )
                  (  0.0000000  1.0000000  0.0000000 )       ( -0.5016024 )
                  (  0.0000000  0.0000000 -1.0000000 )       ( -0.4874533 )

   Cartesian axes

     site n.     atom                  positions (alat units)
         1           Zn  tau(   1) = (   0.9896918   0.4938311   0.4930931  )
         2           Zn  tau(   2) = (   0.5015870   1.4970360   0.9692667  )
         3           Si  tau(   3) = (   0.5046446   1.0103833   0.4929664  )
         4           Si  tau(   4) = (   0.9866343   1.0103833   0.9693935  )
         5           As  tau(   5) = (   1.2456394   0.7682232   0.7311799  )
         6           As  tau(   6) = (   0.2614318   0.2516680   0.2438436  )
         7           As  tau(   7) = (   0.7356612   0.7532704   0.2436097  )
         8           P   tau(   8) = (   0.7456394   1.2376388   0.7311799  )

   Crystallographic axes

     site n.     atom                  positions (cryst. coord.)
         1           Zn  tau(   1) = (  0.7397400  0.2393610  0.5057850  )
         2           Zn  tau(   2) = (  0.0102600  0.9951460  0.9942150  )
         3           Si  tau(   3) = (  0.2547570  0.7543280  0.5056550  )
         4           Si  tau(   4) = (  0.4952430  0.5099830  0.9943450  )
         5           As  tau(   5) = (  0.8750000  0.3907690  0.7500000  )
         6           As  tau(   6) = (  0.1378260  0.1258040  0.2501200  )
         7           As  tau(   7) = (  0.6121740  0.6259240  0.2498800  )
         8           P   tau(   8) = (  0.3750000  0.8586850  0.7500000  )

     number of k points=     1  Methfessel-Paxton smearing, width (Ry)=  0.0010
                       cart. coord. in units 2pi/alat
        k(    1) = (   0.0000000   0.0000000   0.0000000), wk =   2.0000000

                       cryst. coord.
        k(    1) = (   0.0000000   0.0000000   0.0000000), wk =   2.0000000

     Initial potential from superposition of free atoms

     starting charge      67.9977, renormalised to      68.0000
     Starting wfcs are   50 randomized atomic wfcs

     Self-consistent Calculation

     iteration #  1     ecut=    30.00 Ry     beta= 0.70
     Davidson diagonalization with overlap

     ethr =  1.00E-02,  avg # of iterations =  3.0

     Threshold (ethr) on eigenvalues was too large:
     Diagonalizing with lowered threshold

     Davidson diagonalization with overlap

[...]

     total energy              =   -1014.24775975 Ry
     estimated scf accuracy    <       0.37069892 Ry

[...]

     total energy              =   -1014.37583697 Ry
     estimated scf accuracy    <       0.00000132 Ry

     iteration #  8     ecut=    30.00 Ry     beta= 0.70
     Davidson diagonalization with overlap

     ethr =  1.94E-09,  avg # of iterations =  2.0

     End of self-consistent calculation

          k = 0.0000 0.0000 0.0000 (  1606 PWs)   bands (ev):

  -119.3766-119.3730 -73.5153 -73.5096 -73.4607 -73.4528 -73.4465 -73.4435
    -6.2721  -3.8324  -3.7908  -3.6783  -1.9144  -0.3764  -0.3630  -0.3468
    -0.2893  -0.2347  -0.2324  -0.2030  -0.1418  -0.1127  -0.1064   0.2724
     1.8855   2.4418   2.5028   2.7856   3.1695   4.3134   4.3348   6.5055
     6.5112   6.6497   7.7584   7.8828   8.3466   9.5669   9.5906   9.8725
    11.2936

     occupation numbers
     1.0000   1.0000   1.0000   1.0000   1.0000   1.0000   1.0000   1.0000
     1.0000   1.0000   1.0000   1.0000   1.0000   1.0000   1.0000   1.0000
     1.0000   1.0000   1.0000   1.0000   1.0000   1.0000   1.0000   1.0000
     1.0000   1.0000   1.0000   1.0000   1.0000   1.0000   1.0000   1.0000
     1.0000   1.0000  -0.0000  -0.0000  -0.0000  -0.0000  -0.0000  -0.0000
    -0.0000

     the Fermi energy is     7.3377 ev

!    total energy              =   -1014.37583718 Ry
     estimated scf accuracy    <       0.00000037 Ry
     smearing contrib. (-TS)   =       0.00000000 Ry
     internal energy E=F+TS    =   -1014.37583718 Ry

     The total energy is F=E-TS. E is the sum of the following terms:
     one-electron contribution =   -1027.46602165 Ry
     hartree contribution      =     532.90408533 Ry
     xc contribution           =    -128.67397012 Ry
     ewald contribution        =    -391.13993074 Ry

     convergence has been achieved in   8 iterations

     Forces acting on atoms (cartesian axes, Ry/au):

     atom    1 type  1   force =    -0.00161749   -0.00103029    0.00384011
     atom    2 type  1   force =     0.00161749   -0.00103029   -0.00384011
     atom    3 type  2   force =    -0.00084290    0.00032356   -0.00094064
     atom    4 type  2   force =     0.00084290    0.00032356    0.00094064
     atom    5 type  3   force =     0.00000000    0.01679581    0.00000000
     atom    6 type  3   force =     0.01549365    0.00075975   -0.00118920
     atom    7 type  3   force =    -0.01549365    0.00075975    0.00118920
     atom    8 type  4   force =     0.00000000   -0.01690185   -0.00000000
     The non-local contrib.  to forces
     atom    1 type  1   force =     0.03785244    0.03633694    0.01827745
     atom    2 type  1   force =    -0.03785244    0.03633694   -0.01827745
     atom    3 type  2   force =     0.00180456    0.00456985    0.00364161
     atom    4 type  2   force =    -0.00180456    0.00456985   -0.00364161
     atom    5 type  3   force =     0.00000000    0.20191369    0.00000000
     atom    6 type  3   force =     0.19323646    0.02136281   -0.00258542
     atom    7 type  3   force =    -0.19323646    0.02136281    0.00258542
     atom    8 type  4   force =     0.00000000   -0.11926637   -0.00000000
     The ionic contribution  to forces
     atom    1 type  1   force =     0.55023555    0.41704434   -0.94035802
     atom    2 type  1   force =    -0.55023555    0.41704433    0.94035802
     atom    3 type  2   force =    -0.21984492   -0.29571801   -0.22820780
     atom    4 type  2   force =     0.21984492   -0.29571801    0.22820780
     atom    5 type  3   force =    -0.00000000    5.65445802   -0.00000000
     atom    6 type  3   force =     5.62310426    0.16768787   -0.00141418
     atom    7 type  3   force =    -5.62310426    0.16768788    0.00141418
     atom    8 type  4   force =    -0.00000000   -6.23248641    0.00000000
     The local contribution  to forces
     atom    1 type  1   force =    -0.58950126   -0.45428174    0.92580485
     atom    2 type  1   force =     0.58965868   -0.45438149   -0.92569585
     atom    3 type  2   force =     0.21713857    0.29170304    0.22388721
     atom    4 type  2   force =    -0.21713484    0.29169717   -0.22387194
     atom    5 type  3   force =    -0.00010525   -5.82109900    0.00052431
     atom    6 type  3   force =    -5.78354648   -0.18513940    0.00192062
     atom    7 type  3   force =     5.78355207   -0.18533845   -0.00293536
     atom    8 type  4   force =     0.00010508    6.33048600    0.00063864
     The core correction contribution to forces
     atom    1 type  1   force =     0.00000000    0.00000000    0.00000000
     atom    2 type  1   force =     0.00000000    0.00000000    0.00000000
     atom    3 type  2   force =     0.00005047   -0.00026699   -0.00027667
     atom    4 type  2   force =    -0.00005124   -0.00025288    0.00027769
     atom    5 type  3   force =    -0.00000086   -0.01857250    0.00002643
     atom    6 type  3   force =    -0.01737396   -0.00306891    0.00036112
     atom    7 type  3   force =     0.01737554   -0.00307076   -0.00040594
     atom    8 type  4   force =    -0.00000030    0.00444830    0.00000966
     The Hubbard contrib.    to forces
     atom    1 type  1   force =     0.00000000    0.00000000    0.00000000
     atom    2 type  1   force =     0.00000000    0.00000000    0.00000000
     atom    3 type  2   force =     0.00000000    0.00000000    0.00000000
     atom    4 type  2   force =     0.00000000    0.00000000    0.00000000
     atom    5 type  3   force =     0.00000000    0.00000000    0.00000000
     atom    6 type  3   force =     0.00000000    0.00000000    0.00000000
     atom    7 type  3   force =     0.00000000    0.00000000    0.00000000
     atom    8 type  4   force =     0.00000000    0.00000000    0.00000000
     The SCF correction term to forces
     atom    1 type  1   force =    -0.00027014   -0.00019114    0.00013669
     atom    2 type  1   force =    -0.00001914   -0.00001153   -0.00020397
     atom    3 type  2   force =     0.00000469    0.00000968    0.00001440
     atom    4 type  2   force =    -0.00001512    0.00001069   -0.00003192
     atom    5 type  3   force =     0.00009571    0.00007423   -0.00039592
     atom    6 type  3   force =     0.00007677   -0.00009402    0.00040015
     atom    7 type  3   force =    -0.00007713    0.00008691    0.00040240
     atom    8 type  4   force =    -0.00009056   -0.00010474   -0.00045561

     Total force =     0.033047     Total SCF correction =     0.000959

     Computing stress (Cartesian axis) and pressure

          total   stress  (Ry/bohr**3)                   (kbar)     P=     -139.28
  -0.00054456   0.00000000  -0.00002518          -80.11        0.00       -3.70
   0.00000000  -0.00052113  -0.00000000            0.00      -76.66       -0.00
  -0.00002518  -0.00000000  -0.00177480           -3.70       -0.00     -261.08

     kinetic stress (kbar)   9125.70      0.00     -3.29
                                0.00   9122.98      0.00
                               -3.29      0.00   8917.26

     local   stress (kbar) -10070.62      0.01   1209.20
                                0.01  -9394.05      0.00
                             1209.20      0.00 -13298.67

     nonloc. stress (kbar)    153.06      0.00     -3.00
                                0.00    158.03      0.00
                               -3.00      0.00    117.48

     hartree stress (kbar)  22065.11     -0.01   -571.13
                               -0.01  21701.20     -0.00
                             -571.13     -0.00  23793.35

     exc-cor stress (kbar)  -1053.68     -0.00     -0.01
                               -0.00  -1053.50      0.00
                               -0.01      0.00  -1055.87

     corecor stress (kbar)  -3353.98      0.00     -0.14
                                0.00  -3354.42      0.00
                               -0.14      0.00  -3349.92

     ewald   stress (kbar) -16945.69     -0.00   -635.33
                               -0.00 -17256.90      0.00
                             -635.33      0.00 -15384.71

     hubbard stress (kbar)      0.00      0.00      0.00
                                0.00      0.00      0.00
                                0.00      0.00      0.00

     DFT-D   stress (kbar)      0.00      0.00      0.00
                                0.00      0.00      0.00
                                0.00      0.00      0.00

     XDM     stress (kbar)      0.00      0.00      0.00
                                0.00      0.00      0.00
                                0.00      0.00      0.00

     dft-nl  stress (kbar)      0.00      0.00      0.00
                                0.00      0.00      0.00
                                0.00      0.00      0.00

     TS-vdW  stress (kbar)      0.00      0.00      0.00
                                0.00      0.00      0.00
                                0.00      0.00      0.00

[...]

                                0.00      0.00      0.00

     Writing all to output data dir calculations/myprefix.save/

     General routines

     Parallel routines

   This run was terminated on:  22:19:39   4Mar2023

   JOB DONE.