     Program PWSCF v.7.0 starts on  6Mar2023 at 12:22:16

     R & G space division:  proc/nbgrp/npool/nimage =      32

     Reading input from espresso_4588.pwi
Warning: card &CELL ignored
Warning: card / ignored

     Current dimensions of program PWSCF are:
     Max number of different atomic species (ntypx) = 10
     Max number of k-points (npk) =  40000
     Max angular momentum in pseudopotentials (lmaxx) =  4

     gamma-point specific algorithms are used

     Using Slab Decomposition

     bravais-lattice index     =            0
     lattice parameter (alat)  =      14.2836  a.u.
     unit-cell volume          =    2243.1943 (a.u.)^3
     number of atoms/cell      =           14
     number of atomic types    =            3
     number of electrons       =       122.00
     number of Kohn-Sham states=           73
     kinetic-energy cutoff     =      30.0000  Ry
     charge density cutoff     =     240.0000  Ry
     scf convergence threshold =      1.0E-06
     mixing beta               =       0.7000
     number of iterations used =            8  plain     mixing
     Exchange-correlation=  SLA  PW   PBX  PBC
                           (   1   4   3   4   0   0   0)

     celldm(1)=  14.283623  celldm(2)=   0.000000  celldm(3)=   0.000000
     celldm(4)=   0.000000  celldm(5)=   0.000000  celldm(6)=   0.000000

     crystal axes: (cart. coord. in units of alat)
               a(1) = (   1.000000   0.000000   0.000000 )
               a(2) = (  -0.324832   0.945772   0.000000 )
               a(3) = (  -0.337584  -0.472886   0.813889 )

     reciprocal axes: (cart. coord. in units 2 pi/alat)
               b(1) = (  1.000000  0.343457  0.614334 )
               b(2) = (  0.000000  1.057337  0.614334 )
               b(3) = (  0.000000  0.000000  1.228668 )

     PseudoPot. # 1 for La read from file:
     /home/pragov/projects/rrg-bengioy-ad/pragov/crystal_structure_design/SSSP/La.GGA-PBE-paw-v1.0.UPF
     MD5 check sum: 436541e95c1ad8901025bd0b0ed42ae2
     Pseudo is Projector augmented-wave + core cor, Zval = 11.0
     Generated using ATOMPAW code
     Shape of augmentation charge: BESSEL
     Using radial grid of 1101 points,  8 beta functions with:
                l(1) =   0
                l(2) =   0
                l(3) =   1
                l(4) =   1
                l(5) =   2
                l(6) =   2
                l(7) =   3
                l(8) =   3
     Q(r) pseudized with 0 coefficients

     PseudoPot. # 2 for Ag read from file:
     /home/pragov/projects/rrg-bengioy-ad/pragov/crystal_structure_design/SSSP/Ag_ONCV_PBE-1.0.oncvpsp.upf
     MD5 check sum: 94f47bd0669c641108e45594df92fabc
     Pseudo is Norm-conserving, Zval = 19.0
     Generated using ONCVPSP code by D. R. Hamann
     Using radial grid of 1398 points,  6 beta functions with:
                l(1) =   0
                l(2) =   0
                l(3) =   1
                l(4) =   1
                l(5) =   2
                l(6) =   2

     PseudoPot. # 3 for S  read from file:
     /home/pragov/projects/rrg-bengioy-ad/pragov/crystal_structure_design/SSSP/s_pbe_v1.4.uspp.F.UPF
     MD5 check sum: 88d86576ff6df21479756cfb9bdac1df
     Pseudo is Ultrasoft + core correction, Zval =  6.0
     Generated by new atomic code, or converted to UPF format
     Using radial grid of  907 points,  6 beta functions with:
                l(1) =   0
                l(2) =   0
                l(3) =   1
                l(4) =   1
                l(5) =   2
                l(6) =   2
     Q(r) pseudized with  8 coefficients,  rinner =    1.300   1.300   1.300
                                                       1.300   1.300

     atomic species   valence    mass     pseudopotential
        La            11.00   138.90547     La( 1.00)
        Ag            19.00   107.86820     Ag( 1.00)
        S              6.00    32.06000     S ( 1.00)

     No symmetry found

                                    s                        frac. trans.

      isym =  1     identity

 cryst.   s( 1) = (     1          0          0      )
                  (     0          1          0      )
                  (     0          0          1      )

 cart.    s( 1) = (  1.0000000 -0.0000000  0.0000000 )
                  (  0.0000000  1.0000000 -0.0000000 )
                  (  0.0000000  0.0000000  1.0000000 )

   Cartesian axes

     site n.     atom                  positions (alat units)
         1           La  tau(   1) = (  -0.1663145   0.3060154   0.7185869  )
         2           La  tau(   2) = (   0.1714534   0.4041969   0.3131626  )
         3           La  tau(   3) = (   0.6810291   0.4149938   0.0953024  )
         4           La  tau(   4) = (  -0.0109996  -0.1794342   0.5007267  )
         5           La  tau(   5) = (   0.5000000  -0.0000000   0.4069446  )
         6           Ag  tau(   6) = (   0.0000000   0.0000000   0.0000000  )
         7           S   tau(   7) = (  -0.2968411  -0.0521518   0.7284765  )
         8           S   tau(   8) = (   0.5362288   0.3983478   0.4964692  )
         9           S   tau(   9) = (   0.1943876   0.1252907   0.6025947  )
        10           S   tau(  10) = (   0.3846846   0.1752024   0.0854128  )
        11           S   tau(  11) = (  -0.1350222   0.1636602   0.3174201  )
        12           S   tau(  12) = (  -0.0982980   0.7167835   0.2049829  )
        13           S   tau(  13) = (   0.3722597  -0.3330195   0.6089064  )
        14           S   tau(  14) = (   0.3929374   0.6974306   0.2112946  )

   Crystallographic axes

     site n.     atom                  positions (cryst. coord.)
         1           La  tau(   1) = (  0.3802410  0.7650140  0.8829050  )
         2           La  tau(   2) = (  0.5026640  0.6197590  0.3847730  )
         3           La  tau(   3) = (  0.8821090  0.4973360  0.1170950  )
         4           La  tau(   4) = (  0.2349860  0.1178910  0.6152270  )
         5           La  tau(   5) = (  0.7500000  0.2500000  0.5000000  )
         6           Ag  tau(   6) = (  0.0000000  0.0000000  0.0000000  )
         7           S   tau(   7) = (  0.1327750  0.3923860  0.8950560  )
         8           S   tau(   8) = (  0.9780420  0.7261860  0.6099960  )
         9           S   tau(   9) = (  0.6076140  0.5026690  0.7403890  )
        10           S   tau(  10) = (  0.4973310  0.2377200  0.1049440  )
        11           S   tau(  11) = (  0.1161900  0.3680460  0.3900040  )
        12           S   tau(  12) = (  0.2738140  0.8838100  0.2518560  )
        13           S   tau(  13) = (  0.6319540  0.0219580  0.7481440  )
        14           S   tau(  14) = (  0.7622800  0.8672250  0.2596110  )

     number of k points=     1  Methfessel-Paxton smearing, width (Ry)=  0.0010
                       cart. coord. in units 2pi/alat
        k(    1) = (   0.0000000   0.0000000   0.0000000), wk =   2.0000000

                       cryst. coord.
        k(    1) = (   0.0000000   0.0000000   0.0000000), wk =   2.0000000

     Initial potential from superposition of free atoms

     starting charge     121.9568, renormalised to     122.0000
     Starting wfcs are  202 randomized atomic wfcs
     Checking if some PAW data can be deallocated...

     Self-consistent Calculation

     iteration #  1     ecut=    30.00 Ry     beta= 0.70
     Davidson diagonalization with overlap

     ethr =  1.00E-02,  avg # of iterations =  3.0

     Threshold (ethr) on eigenvalues was too large:
     Diagonalizing with lowered threshold

     Davidson diagonalization with overlap

[...]

     total energy              =   -2773.22258203 Ry
     estimated scf accuracy    <       0.72759750 Ry

[...]

     c_bands:  5 eigenvalues not converged
     ethr =  1.08E-05,  avg # of iterations = 20.0

[...]

     c_bands:  3 eigenvalues not converged
     ethr =  1.59E-06,  avg # of iterations = 20.0

[...]

     total energy              =   -2773.49360689 Ry
     estimated scf accuracy    <       0.00000973 Ry

     iteration # 11     ecut=    30.00 Ry     beta= 0.70
     Davidson diagonalization with overlap

     ethr =  7.97E-09,  avg # of iterations =  6.0

     End of self-consistent calculation

          k = 0.0000 0.0000 0.0000 (  3134 PWs)   bands (ev):

   -82.6922 -45.7033 -45.6743 -45.4662 -22.6442 -22.4591 -22.2969 -22.2229
   -22.1572  -7.4373  -7.1136  -6.7575  -6.5750  -6.4787  -6.3929  -6.3210
    -6.2354  -6.0717  -6.0205  -6.0006  -5.9425  -5.8829  -5.8496  -5.8342
    -2.6614  -2.1282  -1.5258  -1.4907  -1.3851  -1.2831  -1.2451  -1.1994
     5.4218   5.4805   5.6181   5.6581   5.7674   5.7920   6.0149   6.1705
     6.3603   6.4897   6.5127   6.5440   6.8039   7.1718   7.1991   7.6553
     7.7072   7.7999   8.1049   8.1889   8.1966   8.2043   8.5885   8.6338
     8.6817   8.7161   8.9820   9.0635   9.1675  10.9241  11.3050  11.4506
    11.5400  11.7625  11.9522  12.2451  12.3482  12.4490  12.5289  12.5518
    12.6042

     occupation numbers
     1.0000   1.0000   1.0000   1.0000   1.0000   1.0000   1.0000   1.0000
     1.0000   1.0000   1.0000   1.0000   1.0000   1.0000   1.0000   1.0000
     1.0000   1.0000   1.0000   1.0000   1.0000   1.0000   1.0000   1.0000
     1.0000   1.0000   1.0000   1.0000   1.0000   1.0000   1.0000   1.0000
     1.0000   1.0000   1.0000   1.0000   1.0000   1.0000   1.0000   1.0000
     1.0000   1.0000   1.0000   1.0000   1.0000   1.0000   1.0000   1.0000
     1.0000   1.0000   1.0000   1.0000   1.0000   1.0000   1.0000   1.0000
     1.0000   1.0000   1.0000   1.0000   1.0000  -0.0000  -0.0000  -0.0000
    -0.0000  -0.0000  -0.0000  -0.0000  -0.0000  -0.0000  -0.0000  -0.0000
    -0.0000

     the Fermi energy is     9.7537 ev

!    total energy              =   -2773.49361166 Ry
     estimated scf accuracy    <       0.00000094 Ry
     smearing contrib. (-TS)   =       0.00000000 Ry
     internal energy E=F+TS    =   -2773.49361166 Ry

     The total energy is F=E-TS. E is the sum of the following terms:
     one-electron contribution =    -192.71266961 Ry
     hartree contribution      =     159.36723117 Ry
     xc contribution           =    -139.12648295 Ry
     ewald contribution        =    -610.51873025 Ry
     one-center paw contrib.   =   -1990.50296003 Ry
      -> PAW hartree energy AE =      34.43113385 Ry
      -> PAW hartree energy PS =     -34.48371649 Ry
      -> PAW xc energy AE      =    -405.28482784 Ry
      -> PAW xc energy PS      =       7.23137587 Ry
      -> total E_H with PAW    =     159.31464853 Ry
      -> total E_XC with PAW   =    -537.17993492 Ry

     convergence has been achieved in  11 iterations

     Forces acting on atoms (cartesian axes, Ry/au):

     atom    1 type  1   force =     0.01589324   -0.06506530   -0.06468150
     atom    2 type  1   force =    -0.02316513   -0.01959177   -0.03480812
     atom    3 type  1   force =     0.01981637   -0.04953690   -0.04926763
     atom    4 type  1   force =     0.01177103   -0.02596310   -0.01976070
     atom    5 type  1   force =     0.00599886    0.02264975    0.00475174
     atom    6 type  2   force =    -0.00986835    0.02734298    0.02545170
     atom    7 type  3   force =    -0.00712680    0.03690851    0.04332969
     atom    8 type  3   force =    -0.02877713    0.04092207    0.04998922
     atom    9 type  3   force =    -0.02542861    0.00953421   -0.00947238
     atom   10 type  3   force =     0.02858682   -0.02552170   -0.01622028
     atom   11 type  3   force =     0.00042799   -0.01918470   -0.00386611
     atom   12 type  3   force =    -0.00092377    0.03654618    0.02487668
     atom   13 type  3   force =    -0.00044611    0.02830670    0.01221206
     atom   14 type  3   force =     0.01324159    0.00265308    0.03746563
     The non-local contrib.  to forces
     atom    1 type  1   force =     0.03178517   -0.06817171   -0.04728332
     atom    2 type  1   force =     0.02092108   -0.00996157   -0.01817452
     atom    3 type  1   force =     0.02194511   -0.04650700   -0.02687495
     atom    4 type  1   force =     0.01862423   -0.02995842   -0.00505742
     atom    5 type  1   force =     0.01010435   -0.00432420    0.00925342
     atom    6 type  2   force =    -0.00375794   -0.00198447   -0.01082520
     atom    7 type  3   force =    -0.00886946   -0.00151732   -0.00284498
     atom    8 type  3   force =    -0.02889841    0.02494267    0.02802860
     atom    9 type  3   force =    -0.00313749    0.01121201   -0.00282276
     atom   10 type  3   force =    -0.00362855   -0.00178110    0.00673619
     atom   11 type  3   force =     0.04782518   -0.03036458   -0.03763745
     atom   12 type  3   force =    -0.04154779    0.02817320   -0.02992621
     atom   13 type  3   force =     0.00987865   -0.00820256    0.05266813
     atom   14 type  3   force =     0.00307348   -0.00298861    0.00731443
     The ionic contribution  to forces
     atom    1 type  1   force =     0.53735926   -0.83009828   -0.71147720
     atom    2 type  1   force =    -0.36792410    0.70911795   -0.91963934
     atom    3 type  1   force =    -0.95962316    0.23859982    0.71148583
     atom    4 type  1   force =     0.79017460   -0.11762171    0.91963756
     atom    5 type  1   force =     0.00000272    0.00001008   -0.00000698
     atom    6 type  2   force =     0.00001102   -0.00002103    0.00000765
     atom    7 type  3   force =     0.52263207    0.98898469    0.19506790
     atom    8 type  3   force =     1.30415990   -0.57767662   -2.35366552
     atom    9 type  3   force =    -0.80288138   -0.78888225   -0.14925454
     atom   10 type  3   force =     0.76555199    0.81550900   -0.19507398
     atom   11 type  3   force =    -0.96997985    1.04578684    2.35367385
     atom   12 type  3   force =     1.74853315   -1.60157743    1.39708082
     atom   13 type  3   force =    -2.08271074    1.13346254   -1.39708747
     atom   14 type  3   force =    -0.48530548   -1.01559360    0.14925141
     The local contribution  to forces
     atom    1 type  1   force =    -0.54425658    0.80730521    0.66890252
     atom    2 type  1   force =     0.33294379   -0.74451050    0.87766083
     atom    3 type  1   force =     0.96605686   -0.26755112   -0.75913045
     atom    4 type  1   force =    -0.78813777    0.09553914   -0.95932268
     atom    5 type  1   force =     0.00490391    0.00081373   -0.02972130
     atom    6 type  2   force =     0.00286330    0.00349059    0.01096918
     atom    7 type  3   force =    -0.51452101   -0.97855528   -0.17425676
     atom    8 type  3   force =    -1.29041006    0.56227313    2.34412419
     atom    9 type  3   force =     0.78827905    0.76842090    0.12527992
     atom   10 type  3   force =    -0.72756210   -0.85685141    0.15397047
     atom   11 type  3   force =     0.93032920   -1.05732397   -2.34291132
     atom   12 type  3   force =    -1.70250994    1.58632054   -1.36762120
     atom   13 type  3   force =     2.07576769   -1.11838281    1.34079108
     atom   14 type  3   force =     0.50013994    0.99861027   -0.14189148
     The core correction contribution to forces
     atom    1 type  1   force =     0.00001909    0.00003571   -0.00001016
     atom    2 type  1   force =    -0.00005556   -0.00000434    0.00000517
     atom    3 type  1   force =    -0.00000862    0.00004232   -0.00000031
     atom    4 type  1   force =    -0.00000772   -0.00000938    0.00002391
     atom    5 type  1   force =    -0.00000645   -0.00000322   -0.00001090
     atom    6 type  2   force =     0.00000000    0.00000000    0.00000000
     atom    7 type  3   force =     0.00275810    0.00195519    0.00005801
     atom    8 type  3   force =    -0.00461619    0.00567190    0.00634262
     atom    9 type  3   force =     0.00113345   -0.00744518   -0.00765890
     atom   10 type  3   force =     0.00322432   -0.00822282   -0.00726723
     atom   11 type  3   force =     0.00117493   -0.00336246   -0.00220534
     atom   12 type  3   force =     0.00339985   -0.00230130    0.00020771
     atom   13 type  3   force =     0.00547403   -0.00449868   -0.00925603
     atom   14 type  3   force =     0.00425993   -0.00339714   -0.00238925
     The Hubbard contrib.    to forces
     atom    1 type  1   force =     0.00000000    0.00000000    0.00000000
     atom    2 type  1   force =     0.00000000    0.00000000    0.00000000
     atom    3 type  1   force =     0.00000000    0.00000000    0.00000000
     atom    4 type  1   force =     0.00000000    0.00000000    0.00000000
     atom    5 type  1   force =     0.00000000    0.00000000    0.00000000
     atom    6 type  2   force =     0.00000000    0.00000000    0.00000000
     atom    7 type  3   force =     0.00000000    0.00000000    0.00000000
     atom    8 type  3   force =     0.00000000    0.00000000    0.00000000
     atom    9 type  3   force =     0.00000000    0.00000000    0.00000000
     atom   10 type  3   force =     0.00000000    0.00000000    0.00000000
     atom   11 type  3   force =     0.00000000    0.00000000    0.00000000
     atom   12 type  3   force =     0.00000000    0.00000000    0.00000000
     atom   13 type  3   force =     0.00000000    0.00000000    0.00000000
     atom   14 type  3   force =     0.00000000    0.00000000    0.00000000
     The SCF correction term to forces
     atom    1 type  1   force =    -0.00009070   -0.00010308   -0.00001452
     atom    2 type  1   force =    -0.00012733   -0.00020014    0.00013856
     atom    3 type  1   force =     0.00036920   -0.00008775    0.00005106
     atom    4 type  1   force =     0.00004070    0.00012043   -0.00024325
     atom    5 type  1   force =    -0.00008265    0.00018652    0.00003631
     atom    6 type  2   force =    -0.00006173   -0.00010894    0.00009890
     atom    7 type  3   force =    -0.00020348    0.00007440    0.00010434
     atom    8 type  3   force =    -0.00008936   -0.00025584   -0.00004187
     atom    9 type  3   force =     0.00010076    0.00026189   -0.00021727
     atom   10 type  3   force =    -0.00007585   -0.00014221    0.00021309
     atom   11 type  3   force =     0.00000153    0.00011264    0.00001296
     atom   12 type  3   force =     0.00012396   -0.00003565   -0.00006563
     atom   13 type  3   force =     0.00006727   -0.00003863   -0.00010483
     atom   14 type  3   force =    -0.00000328    0.00005532   -0.00002066

     Total force =     0.187268     Total SCF correction =     0.000877

     Computing stress (Cartesian axis) and pressure

          total   stress  (Ry/bohr**3)                   (kbar)     P=      -11.01
  -0.00017381  -0.00043149  -0.00004575          -25.57      -63.47       -6.73
  -0.00043149  -0.00026273   0.00022701          -63.47      -38.65       33.39
  -0.00004575   0.00022701   0.00021206           -6.73       33.39       31.20

     kinetic stress (kbar)  10905.35    -17.91     -4.50
                              -17.91  10917.71     17.15
                               -4.50     17.15  10924.84

     local   stress (kbar)  -4212.53    294.90     -3.85
                              294.90  -4006.53     12.46
                               -3.85     12.46  -4420.22

     nonloc. stress (kbar)   5517.70    -18.91      1.14
                              -18.91   5510.30      6.15
                                1.14      6.15   5535.28

     hartree stress (kbar)   3483.99   -133.60      0.16
                             -133.60   3389.80     -1.92
                                0.16     -1.92   3577.26

     exc-cor stress (kbar)   -303.75      0.09      0.01
                                0.09   -303.79      0.01
                                0.01      0.01   -303.79

     corecor stress (kbar)  -2069.03      0.28      0.32
                                0.28  -2069.48     -0.46
                                0.32     -0.46  -2069.31

     ewald   stress (kbar) -13347.31   -188.32     -0.00
                             -188.32 -13476.66     -0.00
                               -0.00     -0.00 -13212.87

     hubbard stress (kbar)      0.00      0.00      0.00
                                0.00      0.00      0.00
                                0.00      0.00      0.00

     DFT-D   stress (kbar)      0.00      0.00      0.00
                                0.00      0.00      0.00
                                0.00      0.00      0.00

     XDM     stress (kbar)      0.00      0.00      0.00
                                0.00      0.00      0.00
                                0.00      0.00      0.00

     dft-nl  stress (kbar)      0.00      0.00      0.00
                                0.00      0.00      0.00
                                0.00      0.00      0.00

     TS-vdW  stress (kbar)      0.00      0.00      0.00
                                0.00      0.00      0.00
                                0.00      0.00      0.00

[...]

                                0.00      0.00      0.00

     Writing all to output data dir calculations/myprefix.save/

     General routines

     Parallel routines

     PAW routines

   This run was terminated on:  12:22:25   6Mar2023

   JOB DONE.