     Program PWSCF v.7.0 starts on  6Mar2023 at 13:29: 2

     R & G space division:  proc/nbgrp/npool/nimage =      32

     Reading input from espresso_4775.pwi
Warning: card &CELL ignored
Warning: card / ignored

     Current dimensions of program PWSCF are:
     Max number of different atomic species (ntypx) = 10
     Max number of k-points (npk) =  40000
     Max angular momentum in pseudopotentials (lmaxx) =  4

     gamma-point specific algorithms are used
     Message from routine setup:
     using ibrav=0 with symmetry is DISCOURAGED, use correct ibrav instead

     Using Slab Decomposition

     bravais-lattice index     =            0
     lattice parameter (alat)  =      24.3353  a.u.
     unit-cell volume          =    1819.2100 (a.u.)^3
     number of atoms/cell      =           10
     number of atomic types    =            2
     number of electrons       =       134.00
     number of Kohn-Sham states=           80
     kinetic-energy cutoff     =      30.0000  Ry
     charge density cutoff     =     240.0000  Ry
     scf convergence threshold =      1.0E-06
     mixing beta               =       0.7000
     number of iterations used =            8  plain     mixing
     Exchange-correlation= SLA  PW   PBE  PBE
                           (   1   4   3   4   0   0   0)

     celldm(1)=  24.335347  celldm(2)=   0.000000  celldm(3)=   0.000000
     celldm(4)=   0.000000  celldm(5)=   0.000000  celldm(6)=   0.000000

     crystal axes: (cart. coord. in units of alat)
               a(1) = (   1.000000   0.000000   0.000000 )
               a(2) = (  -0.936749   0.350001   0.000000 )
               a(3) = (   0.000000   0.000000   0.360663 )

     reciprocal axes: (cart. coord. in units 2 pi/alat)
               b(1) = (  1.000000  2.676420  0.000000 )
               b(2) = (  0.000000  2.857135  0.000000 )
               b(3) = (  0.000000  0.000000  2.772675 )

     PseudoPot. # 1 for Ce read from file:
     /home/pragov/projects/rrg-bengioy-ad/pragov/crystal_structure_design/SSSP/Ce.GGA-PBE-paw-v1.0.UPF
     MD5 check sum: f2b950f613061344c13339c8d844425d
     Pseudo is Projector augmented-wave + core cor, Zval = 12.0
     Generated using ATOMPAW code
     Shape of augmentation charge: BESSEL
     Using radial grid of 1102 points,  8 beta functions with:
                l(1) =   0
                l(2) =   0
                l(3) =   1
                l(4) =   1
                l(5) =   2
                l(6) =   2
                l(7) =   3
                l(8) =   3
     Q(r) pseudized with 0 coefficients

     PseudoPot. # 2 for Sn read from file:
     /home/pragov/projects/rrg-bengioy-ad/pragov/crystal_structure_design/SSSP/Sn_pbe_v1.uspp.F.UPF
     MD5 check sum: 4cf58ce39ec5d5d420df3dd08604eb00
     Pseudo is Ultrasoft + core correction, Zval = 14.0
     Generated by new atomic code, or converted to UPF format
     Using radial grid of  891 points,  6 beta functions with:
                l(1) =   0
                l(2) =   0
                l(3) =   1
                l(4) =   1
                l(5) =   2
                l(6) =   2
     Q(r) pseudized with  6 coefficients,  rinner =    1.200   1.200   1.200
                                                       1.200   1.200

     atomic species   valence    mass     pseudopotential
        Ce            12.00   140.11600     Ce( 1.00)
        Sn            14.00   118.71000     Sn( 1.00)

      4 Sym. Ops., with inversion, found

                                    s                        frac. trans.

      isym =  1     identity

 cryst.   s( 1) = (     1          0          0      )
                  (     0          1          0      )
                  (     0          0          1      )

 cart.    s( 1) = (  1.0000000  0.0000000  0.0000000 )
                  (  0.0000000  1.0000000  0.0000000 )
                  (  0.0000000  0.0000000  1.0000000 )

      isym =  2     180 deg rotation - cart. axis [0,0,1]

[...]

      isym =  3     inversion

[...]

      isym =  4     inv. 180 deg rotation - cart. axis [0,0,1]

 cryst.   s( 4) = (     1          0          0      )
                  (     0          1          0      )
                  (     0          0         -1      )

 cart.    s( 4) = (  1.0000000  0.0000000  0.0000000 )
                  (  0.0000000  1.0000000  0.0000000 )
                  (  0.0000000  0.0000000 -1.0000000 )

   Cartesian axes

     site n.     atom                  positions (alat units)
         1           Ce  tau(   1) = (   0.6411920   0.0648422   0.0000000  )
         2           Ce  tau(   2) = (  -0.5779414   0.2851587   0.0000000  )
         3           Ce  tau(   3) = (   0.0000000   0.0000000   0.0000000  )
         4           Sn  tau(   4) = (   0.4353001   0.1020501   0.1803313  )
         5           Sn  tau(   5) = (  -0.3720494   0.2479508   0.1803313  )
         6           Sn  tau(   6) = (   0.8141147   0.0335924   0.1803313  )
         7           Sn  tau(   7) = (   0.0316253   0.1750005   0.1803313  )
         8           Sn  tau(   8) = (  -0.1524627   0.2082681   0.0000000  )
         9           Sn  tau(   9) = (   0.2157133   0.1417329   0.0000000  )
        10           Sn  tau(  10) = (  -0.7508640   0.3164085   0.1803313  )

   Crystallographic axes

     site n.     atom                  positions (cryst. coord.)
         1           Ce  tau(   1) = (  0.8147370  0.1852630  0.0000000  )
         2           Ce  tau(   2) = (  0.1852630  0.8147370  0.0000000  )
         3           Ce  tau(   3) = (  0.0000000  0.0000000  0.0000000  )
         4           Sn  tau(   4) = (  0.7084290  0.2915710  0.5000000  )
         5           Sn  tau(   5) = (  0.2915710  0.7084290  0.5000000  )
         6           Sn  tau(   6) = (  0.9040220  0.0959780  0.5000000  )
         7           Sn  tau(   7) = (  0.5000000  0.5000000  0.5000000  )
         8           Sn  tau(   8) = (  0.4049500  0.5950500  0.0000000  )
         9           Sn  tau(   9) = (  0.5950500  0.4049500  0.0000000  )
        10           Sn  tau(  10) = (  0.0959780  0.9040220  0.5000000  )

     number of k points=     1  Methfessel-Paxton smearing, width (Ry)=  0.0010
                       cart. coord. in units 2pi/alat
        k(    1) = (   0.0000000   0.0000000   0.0000000), wk =   2.0000000

                       cryst. coord.
        k(    1) = (   0.0000000   0.0000000   0.0000000), wk =   2.0000000

     Initial potential from superposition of free atoms

     starting charge     126.9787, renormalised to     134.0000
     Starting wfcs are  159 randomized atomic wfcs
     Checking if some PAW data can be deallocated...

     Self-consistent Calculation

     iteration #  1     ecut=    30.00 Ry     beta= 0.70
     Davidson diagonalization with overlap

     ethr =  1.00E-02,  avg # of iterations =  3.0

     total energy              =   -2575.56724094 Ry
     estimated scf accuracy    <      18.04740984 Ry

[...]

     total energy              =   -2588.56365172 Ry
     estimated scf accuracy    <       0.00000357 Ry

     iteration # 44     ecut=    30.00 Ry     beta= 0.70
     Davidson diagonalization with overlap

     ethr =  9.71E-10,  avg # of iterations =  1.0

     End of self-consistent calculation

          k = 0.0000 0.0000 0.0000 (  2525 PWs)   bands (ev):

   -22.0119 -21.9871 -21.8255  -9.1093  -9.0653  -8.9726  -8.9562  -8.9408
    -8.9185  -8.9090  -8.8941  -8.8878  -8.8368  -8.7785  -8.7574  -8.7234
    -8.7183  -8.7128  -8.6904  -8.6607  -8.6266  -8.6175  -8.6070  -8.6034
    -8.5955  -8.5940  -8.5679  -8.5655  -8.5166  -8.5151  -8.4912  -8.4877
    -8.4848  -8.4588  -8.4257  -8.4132  -8.3940  -8.3934  -5.1845  -5.0656
    -4.9200  -4.8729  -4.8089  -4.7752  -4.7415  -4.7237  -4.6472   2.3626
     3.3621   3.6821   6.0871   6.1785   7.8317   8.1391   9.9743  10.0823
    10.0986  10.2350  10.3181  10.3817  10.9622  11.0842  11.2422  11.8657
    12.6715  12.7397  12.7427  12.7529  12.8606  12.9547  12.9791  13.1368
    13.2099  13.2329  13.2505  13.3341  13.3513  13.4266  13.4793  13.5095

     occupation numbers
     1.0000   1.0000   1.0000   1.0000   1.0000   1.0000   1.0000   1.0000
     1.0000   1.0000   1.0000   1.0000   1.0000   1.0000   1.0000   1.0000
     1.0000   1.0000   1.0000   1.0000   1.0000   1.0000   1.0000   1.0000
     1.0000   1.0000   1.0000   1.0000   1.0000   1.0000   1.0000   1.0000
     1.0000   1.0000   1.0000   1.0000   1.0000   1.0000   1.0000   1.0000
     1.0000   1.0000   1.0000   1.0000   1.0000   1.0000   1.0000   1.0000
     1.0000   1.0000   1.0000   1.0000   1.0000   1.0000   1.0000   1.0000
     1.0000   1.0000   1.0000   1.0000   1.0000   1.0000   1.0000   1.0000
     1.0000   0.9369   0.8233   0.2398  -0.0000  -0.0000  -0.0000  -0.0000
    -0.0000  -0.0000  -0.0000  -0.0000  -0.0000  -0.0000  -0.0000  -0.0000

     the Fermi energy is    12.7484 ev

!    total energy              =   -2588.56365142 Ry
     estimated scf accuracy    <       0.00000051 Ry
     smearing contrib. (-TS)   =      -0.00038675 Ry
     internal energy E=F+TS    =   -2588.56326467 Ry

     The total energy is F=E-TS. E is the sum of the following terms:
     one-electron contribution =    -384.53449423 Ry
     hartree contribution      =     295.23507323 Ry
     xc contribution           =    -364.43899898 Ry
     ewald contribution        =    -909.63818929 Ry
     one-center paw contrib.   =   -1225.18665541 Ry
      -> PAW hartree energy AE =      44.64877638 Ry
      -> PAW hartree energy PS =     -44.34910959 Ry
      -> PAW xc energy AE      =    -417.30831223 Ry
      -> PAW xc energy PS      =       8.63664543 Ry
      -> total E_H with PAW    =     295.53474003 Ry
      -> total E_XC with PAW   =    -773.11066578 Ry

     convergence has been achieved in  44 iterations

     Forces acting on atoms (cartesian axes, Ry/au):

     atom    1 type  1   force =     0.03649426   -0.00659532    0.00000000
     atom    2 type  1   force =    -0.03649426    0.00659532    0.00000000
     atom    3 type  1   force =     0.00000000    0.00000000    0.00000000
     atom    4 type  2   force =     0.07348530   -0.01327339    0.00000000
     atom    5 type  2   force =    -0.07348530    0.01327339    0.00000000
     atom    6 type  2   force =     0.00111256   -0.00019166   -0.00000000
     atom    7 type  2   force =     0.00000000    0.00000000    0.00000000
     atom    8 type  2   force =    -0.00150423    0.00026892    0.00000000
     atom    9 type  2   force =     0.00150423   -0.00026892    0.00000000
     atom   10 type  2   force =    -0.00111256    0.00019166   -0.00000000
     The non-local contrib.  to forces
     atom    1 type  1   force =    -0.30637554    0.05537369   -0.00000000
     atom    2 type  1   force =     0.30637554   -0.05537369   -0.00000000
     atom    3 type  1   force =     0.00000000    0.00000000    0.00000000
     atom    4 type  2   force =    -0.14378826    0.02599085   -0.00000000
     atom    5 type  2   force =     0.14378826   -0.02599085   -0.00000000
     atom    6 type  2   force =    -0.04612252    0.00833930    0.00000000
     atom    7 type  2   force =     0.00000000    0.00000000    0.00000000
     atom    8 type  2   force =    -0.01901405    0.00343907    0.00000000
     atom    9 type  2   force =     0.01901405   -0.00343907    0.00000000
     atom   10 type  2   force =     0.04612252   -0.00833930    0.00000000
     The ionic contribution  to forces
     atom    1 type  1   force =    -6.59285731    1.19143252   -0.00000000
     atom    2 type  1   force =     6.59285731   -1.19143252   -0.00000000
     atom    3 type  1   force =    -0.00000000    0.00000000   -0.00000000
     atom    4 type  2   force =     1.70243654   -0.30765693    0.00000000
     atom    5 type  2   force =    -1.70243654    0.30765693    0.00000000
     atom    6 type  2   force =    -5.98278390    1.08118270    0.00000000
     atom    7 type  2   force =    -0.00000000    0.00000000    0.00000000
     atom    8 type  2   force =    -6.21332256    1.12284465    0.00000000
     atom    9 type  2   force =     6.21332256   -1.12284465    0.00000000
     atom   10 type  2   force =     5.98278390   -1.08118270    0.00000000
     The local contribution  to forces
     atom    1 type  1   force =     6.93533415   -1.25337582   -0.00145252
     atom    2 type  1   force =    -6.93481104    1.25320789   -0.00150035
     atom    3 type  1   force =    -0.00027451    0.00010133    0.00094435
     atom    4 type  2   force =    -1.49456309    0.27009192    0.00018611
     atom    5 type  2   force =     1.49589055   -0.27030909    0.00019868
     atom    6 type  2   force =     6.02858920   -1.08946446    0.00045957
     atom    7 type  2   force =    -0.00033693    0.00001699   -0.00170123
     atom    8 type  2   force =     6.22968133   -1.12581287   -0.00004201
     atom    9 type  2   force =    -6.23052904    1.12594543   -0.00004832
     atom   10 type  2   force =    -6.02938162    1.08960789    0.00045548
     The core correction contribution to forces
     atom    1 type  1   force =     0.00028826   -0.00005214   -0.00000092
     atom    2 type  1   force =    -0.00028838    0.00005210   -0.00000096
     atom    3 type  1   force =     0.00000003    0.00000002    0.00000060
     atom    4 type  2   force =     0.01035333   -0.00187098   -0.00000076
     atom    5 type  2   force =    -0.01035291    0.00187126   -0.00000093
     atom    6 type  2   force =     0.00088090   -0.00015949    0.00001195
     atom    7 type  2   force =     0.00000081   -0.00000160   -0.00004935
     atom    8 type  2   force =     0.00040113   -0.00007281   -0.00000170
     atom    9 type  2   force =    -0.00040114    0.00007225   -0.00000187
     atom   10 type  2   force =    -0.00087902    0.00015911    0.00001157
     The Hubbard contrib.    to forces
     atom    1 type  1   force =     0.00000000    0.00000000    0.00000000
     atom    2 type  1   force =     0.00000000    0.00000000    0.00000000
     atom    3 type  1   force =     0.00000000    0.00000000    0.00000000
     atom    4 type  2   force =     0.00000000    0.00000000    0.00000000
     atom    5 type  2   force =     0.00000000    0.00000000    0.00000000
     atom    6 type  2   force =     0.00000000    0.00000000    0.00000000
     atom    7 type  2   force =     0.00000000    0.00000000    0.00000000
     atom    8 type  2   force =     0.00000000    0.00000000    0.00000000
     atom    9 type  2   force =     0.00000000    0.00000000    0.00000000
     atom   10 type  2   force =     0.00000000    0.00000000    0.00000000
     The SCF correction term to forces
     atom    1 type  1   force =     0.00011177    0.00001490    0.00060708
     atom    2 type  1   force =    -0.00062063    0.00013002    0.00064096
     atom    3 type  1   force =     0.00025745   -0.00008820   -0.00044605
     atom    4 type  2   force =    -0.00087121    0.00015384   -0.00017204
     atom    5 type  2   force =    -0.00029265    0.00002723   -0.00017800
     atom    6 type  2   force =     0.00051318   -0.00008514   -0.00036033
     atom    7 type  2   force =     0.00024768    0.00000053    0.00126922
     atom    8 type  2   force =     0.00071411   -0.00012379    0.00004195
     atom    9 type  2   force =     0.00006199    0.00000246    0.00003582
     atom   10 type  2   force =     0.00020595   -0.00004879   -0.00036121

     Total force =     0.117942     Total SCF correction =     0.002275

     Computing stress (Cartesian axis) and pressure

          total   stress  (Ry/bohr**3)                   (kbar)     P=       32.43
  -0.00067631   0.00025472   0.00000000          -99.49       37.47        0.00
   0.00025472   0.00068714   0.00000000           37.47      101.08        0.00
   0.00000000   0.00000000   0.00065052            0.00        0.00       95.70

     kinetic stress (kbar)  11178.10     55.70      0.00
                               55.70  11476.25      0.00
                                0.00      0.00  11476.60

     local   stress (kbar)   4353.01   -620.32      0.01
                             -620.32   1032.49      0.10
                                0.01      0.10   2253.56

     nonloc. stress (kbar)   8214.94     -0.15      0.00
                               -0.15   8214.15      0.00
                                0.00      0.00   8295.84

     hartree stress (kbar)   7172.11    273.03     -0.00
                              273.03   8633.61     -0.03
                               -0.00     -0.03   8067.59

     exc-cor stress (kbar)  10741.70      0.38     -0.00
                                0.38  10743.73     -0.00
                               -0.00     -0.00  10744.60

     corecor stress (kbar) -16313.27     -0.46      0.00
                               -0.46 -16315.72      0.00
                                0.00      0.00 -16316.79

     ewald   stress (kbar) -25446.09    329.29     -0.00
                              329.29 -23683.43      0.00
                               -0.00      0.00 -24425.70

     hubbard stress (kbar)      0.00      0.00      0.00
                                0.00      0.00      0.00
                                0.00      0.00      0.00

     DFT-D   stress (kbar)      0.00      0.00      0.00
                                0.00      0.00      0.00
                                0.00      0.00      0.00

     XDM     stress (kbar)      0.00      0.00      0.00
                                0.00      0.00      0.00
                                0.00      0.00      0.00

     dft-nl  stress (kbar)      0.00      0.00      0.00
                                0.00      0.00      0.00
                                0.00      0.00      0.00

     TS-vdW  stress (kbar)      0.00      0.00      0.00
                                0.00      0.00      0.00
                                0.00      0.00      0.00

[...]

                                0.00      0.00      0.00

     Writing all to output data dir calculations/myprefix.save/

     General routines

     Parallel routines

     PAW routines

   This run was terminated on:  13:29:23   6Mar2023

   JOB DONE.