     Program PWSCF v.7.0 starts on  6Mar2023 at 11:18:15

     R & G space division:  proc/nbgrp/npool/nimage =      32

     Reading input from espresso_4420.pwi
Warning: card &CELL ignored
Warning: card / ignored

     Current dimensions of program PWSCF are:
     Max number of different atomic species (ntypx) = 10
     Max number of k-points (npk) =  40000
     Max angular momentum in pseudopotentials (lmaxx) =  4

     gamma-point specific algorithms are used
     Message from routine setup:
     using ibrav=0 with symmetry is DISCOURAGED, use correct ibrav instead

     Using Slab Decomposition

     bravais-lattice index     =            0
     lattice parameter (alat)  =      10.6690  a.u.
     unit-cell volume          =     534.8233 (a.u.)^3
     number of atoms/cell      =            5
     number of atomic types    =            3
     number of electrons       =        61.00
     number of Kohn-Sham states=           37
     kinetic-energy cutoff     =      30.0000  Ry
     charge density cutoff     =     240.0000  Ry
     scf convergence threshold =      1.0E-06
     mixing beta               =       0.7000
     number of iterations used =            8  plain     mixing
     Exchange-correlation=  SLA  PW   PBX  PBC
                           (   1   4   3   4   0   0   0)

     celldm(1)=  10.669029  celldm(2)=   0.000000  celldm(3)=   0.000000
     celldm(4)=   0.000000  celldm(5)=   0.000000  celldm(6)=   0.000000

     crystal axes: (cart. coord. in units of alat)
               a(1) = (   1.000000   0.000000   0.000000 )
               a(2) = (   0.489735   0.871872   0.000000 )
               a(3) = (  -0.744867  -0.435936   0.505107 )

     reciprocal axes: (cart. coord. in units 2 pi/alat)
               b(1) = (  1.000000 -0.561705  0.989890 )
               b(2) = (  0.000000  1.146958  0.989890 )
               b(3) = (  0.000000  0.000000  1.979780 )

     PseudoPot. # 1 for Eu read from file:
     /home/pragov/projects/rrg-bengioy-ad/pragov/crystal_structure_design/SSSP/Eu.GGA-PBE-paw-v1.0.UPF
     MD5 check sum: acec5fd9176fb57ec8e299eae1ecaf48
     Pseudo is Projector augmented-wave + core cor, Zval = 17.0
     Generated using ATOMPAW code
     Shape of augmentation charge: BESSEL
     Using radial grid of 1109 points,  8 beta functions with:
                l(1) =   0
                l(2) =   0
                l(3) =   1
                l(4) =   1
                l(5) =   2
                l(6) =   2
                l(7) =   3
                l(8) =   3
     Q(r) pseudized with 0 coefficients

     PseudoPot. # 2 for Si read from file:
     /home/pragov/projects/rrg-bengioy-ad/pragov/crystal_structure_design/SSSP/Si.pbe-n-rrkjus_psl.1.0.0.UPF
     MD5 check sum: 0b0bb1205258b0d07b9f9672cf965d36
     Pseudo is Ultrasoft + core correction, Zval =  4.0
     Generated using "atomic" code by A. Dal Corso  v.5.1
     Using radial grid of 1141 points,  6 beta functions with:
                l(1) =   0
                l(2) =   0
                l(3) =   1
                l(4) =   1
                l(5) =   2
                l(6) =   2
     Q(r) pseudized with 0 coefficients

     PseudoPot. # 3 for Ni read from file:
     /home/pragov/projects/rrg-bengioy-ad/pragov/crystal_structure_design/SSSP/ni_pbe_v1.4.uspp.F.UPF
     MD5 check sum: 1ee80287db30b12d2bc1f57a5b5d6409
     Pseudo is Ultrasoft + core correction, Zval = 18.0
     Generated by new atomic code, or converted to UPF format
     Using radial grid of  865 points,  6 beta functions with:
                l(1) =   0
                l(2) =   0
                l(3) =   1
                l(4) =   1
                l(5) =   2
                l(6) =   2
     Q(r) pseudized with 10 coefficients,  rinner =    0.980   0.980   0.980
                                                       0.980   0.980

     atomic species   valence    mass     pseudopotential
        Eu            17.00   151.96400     Eu( 1.00)
        Si             4.00    28.08500     Si( 1.00)
        Ni            18.00    58.69340     Ni( 1.00)

      4 Sym. Ops., with inversion, found

                                    s                        frac. trans.

      isym =  1     identity

 cryst.   s( 1) = (     1          0          0      )
                  (     0          1          0      )
                  (     0          0          1      )

 cart.    s( 1) = (  1.0000000  0.0000000 -0.0000000 )
                  (  0.0000000  1.0000000 -0.0000000 )
                  (  0.0000000  0.0000000  1.0000000 )

      isym =  2     180 deg rotation - cart. axis [0,0,1]

[...]

      isym =  3     inversion

[...]

      isym =  4     inv. 180 deg rotation - cart. axis [0,0,1]

 cryst.   s( 4) = (     1          0          0      )
                  (     0          1          0      )
                  (    -1         -1         -1      )

 cart.    s( 4) = (  1.0000000  0.0000000  0.0000000 )
                  (  0.0000000  1.0000000  0.0000000 )
                  (  0.0000000  0.0000000 -1.0000000 )

   Cartesian axes

     site n.     atom                  positions (alat units)
         1           Eu  tau(   1) = (   0.0000000   0.0000000   0.0000000  )
         2           Si  tau(   2) = (   0.9407078   0.5505520   0.0000000  )
         3           Si  tau(   3) = (   0.5490268   0.3213196   0.0000000  )
         4           Ni  tau(   4) = (   0.2448673   0.4359358   0.2525533  )
         5           Ni  tau(   5) = (   0.5000000  -0.0000000   0.2525533  )

   Crystallographic axes

     site n.     atom                  positions (cryst. coord.)
         1           Eu  tau(   1) = (  0.0000000  0.0000000  0.0000000  )
         2           Si  tau(   2) = (  0.6314600  0.6314600  0.0000000  )
         3           Si  tau(   3) = (  0.3685400  0.3685400  0.0000000  )
         4           Ni  tau(   4) = (  0.2500000  0.7500000  0.5000000  )
         5           Ni  tau(   5) = (  0.7500000  0.2500000  0.5000000  )

     number of k points=     1  Methfessel-Paxton smearing, width (Ry)=  0.0010
                       cart. coord. in units 2pi/alat
        k(    1) = (   0.0000000   0.0000000   0.0000000), wk =   2.0000000

                       cryst. coord.
        k(    1) = (   0.0000000   0.0000000   0.0000000), wk =   2.0000000

     Check: negative core charge=   -0.000004

     Initial potential from superposition of free atoms

     starting charge      56.9942, renormalised to      61.0000
     Starting wfcs are   66 randomized atomic wfcs
     Checking if some PAW data can be deallocated...

     Self-consistent Calculation

     iteration #  1     ecut=    30.00 Ry     beta= 0.70
     Davidson diagonalization with overlap

     ethr =  1.00E-02,  avg # of iterations =  5.0

     total energy              =   -1289.07435841 Ry
     estimated scf accuracy    <      79.79177828 Ry

[...]

     total energy              =   -1351.14130092 Ry
     estimated scf accuracy    <       0.00001539 Ry

     iteration # 56     ecut=    30.00 Ry     beta= 0.70
     Davidson diagonalization with overlap

     ethr =  7.56E-09,  avg # of iterations =  1.0

     End of self-consistent calculation

          k = 0.0000 0.0000 0.0000 (   747 PWs)   bands (ev):

   -89.7284 -89.7192 -50.1940 -50.1913 -49.9972 -49.9971 -49.9952 -49.9951
   -27.3065  -6.1256  -6.1250  -6.0461   2.8975   7.1345   8.1360  10.5597
    10.5597  10.9756  11.4175  11.4472  11.4472  11.8700  12.2269  12.4137
    12.5258  12.5259  13.0184  13.0193  13.0802  13.1579  13.1707  13.1718
    13.3263  13.3274  13.6104  15.7452  15.7454

     occupation numbers
     1.0000   1.0000   1.0000   1.0000   1.0000   1.0000   1.0000   1.0000
     1.0000   1.0000   1.0000   1.0000   1.0000   1.0000   1.0000   1.0000
     1.0000   1.0000   1.0000   1.0000   1.0000   1.0000   1.0000   1.0000
     1.0000   1.0000   1.0000   1.0000   1.0000   0.9579   0.3011   0.2409
    -0.0000  -0.0000  -0.0000  -0.0000  -0.0000

     the Fermi energy is    13.1674 ev

!    total energy              =   -1351.14130099 Ry
     estimated scf accuracy    <       0.00000007 Ry
     smearing contrib. (-TS)   =      -0.00044129 Ry
     internal energy E=F+TS    =   -1351.14085970 Ry

     The total energy is F=E-TS. E is the sum of the following terms:
     one-electron contribution =    -625.99835973 Ry
     hartree contribution      =     349.89083385 Ry
     xc contribution           =    -103.71821865 Ry
     ewald contribution        =    -514.06707128 Ry
     one-center paw contrib.   =    -457.24804390 Ry
      -> PAW hartree energy AE =     157.05262346 Ry
      -> PAW hartree energy PS =    -150.22800150 Ry
      -> PAW xc energy AE      =    -483.17189146 Ry
      -> PAW xc energy PS      =      19.09922560 Ry
      -> total E_H with PAW    =     356.71545581 Ry
      -> total E_XC with PAW   =    -567.79088450 Ry

     convergence has been achieved in  56 iterations

     Forces acting on atoms (cartesian axes, Ry/au):

     atom    1 type  1   force =     0.00000000    0.00000000    0.00000000
     atom    2 type  2   force =     0.07104576    0.04160928    0.00000000
     atom    3 type  2   force =    -0.07104576   -0.04160928   -0.00000000
     atom    4 type  3   force =     0.00000000    0.00000000   -0.00001532
     atom    5 type  3   force =     0.00000000    0.00000000    0.00001532
     The non-local contrib.  to forces
     atom    1 type  1   force =     0.00000000    0.00000000    0.00000000
     atom    2 type  2   force =     0.02215235    0.01298780    0.00000000
     atom    3 type  2   force =    -0.02215235   -0.01298780   -0.00000000
     atom    4 type  3   force =     0.00000000    0.00000000    0.00003169
     atom    5 type  3   force =     0.00000000    0.00000000   -0.00003169
     The ionic contribution  to forces
     atom    1 type  1   force =     0.00000000    0.00000000    0.00000000
     atom    2 type  2   force =    -6.44473958   -3.77180316   -0.00000000
     atom    3 type  2   force =     6.44473958    3.77180316    0.00000000
     atom    4 type  3   force =    -0.00000000    0.00000000   -0.00000000
     atom    5 type  3   force =     0.00000000   -0.00000000   -0.00000000
     The local contribution  to forces
     atom    1 type  1   force =    -0.00033792   -0.00043243   -0.00003781
     atom    2 type  2   force =     6.49545086    3.80150043    0.00000096
     atom    3 type  2   force =    -6.49544874   -3.80147884    0.00000225
     atom    4 type  3   force =     0.00010749    0.00005520   -0.00004768
     atom    5 type  3   force =     0.00015413    0.00008814    0.00004486
     The core correction contribution to forces
     atom    1 type  1   force =    -0.00000001   -0.00000001   -0.00000000
     atom    2 type  2   force =    -0.00181095   -0.00106184    0.00000000
     atom    3 type  2   force =     0.00181087    0.00106218    0.00000008
     atom    4 type  3   force =     0.00000117    0.00000057   -0.00000129
     atom    5 type  3   force =     0.00000068    0.00000029    0.00000126
     The Hubbard contrib.    to forces
     atom    1 type  1   force =     0.00000000    0.00000000    0.00000000
     atom    2 type  2   force =     0.00000000    0.00000000    0.00000000
     atom    3 type  2   force =     0.00000000    0.00000000    0.00000000
     atom    4 type  3   force =     0.00000000    0.00000000    0.00000000
     atom    5 type  3   force =     0.00000000    0.00000000    0.00000000
     The SCF correction term to forces
     atom    1 type  1   force =     0.00027280    0.00034868    0.00003122
     atom    2 type  2   force =    -0.00000698   -0.00001016   -0.00000060
     atom    3 type  2   force =     0.00000483   -0.00000420   -0.00000111
     atom    4 type  3   force =    -0.00009781   -0.00004693    0.00000059
     atom    5 type  3   force =    -0.00015122   -0.00008727   -0.00000050

     Total force =     0.116437     Total SCF correction =     0.000489

     Computing stress (Cartesian axis) and pressure

          total   stress  (Ry/bohr**3)                   (kbar)     P=     -580.12
  -0.00375886   0.00019550  -0.00000000         -552.95       28.76       -0.00
   0.00019550  -0.00397893  -0.00000000           28.76     -585.32       -0.00
  -0.00000000  -0.00000000  -0.00409300           -0.00       -0.00     -602.10

     kinetic stress (kbar)  22121.40    117.64      0.00
                              117.64  21989.01      0.00
                                0.00      0.00  21920.10

     local   stress (kbar)   3259.92  15531.49      0.12
                            15531.49 -14188.24     -0.20
                                0.12     -0.20 -23277.49

     nonloc. stress (kbar)  12217.70   -102.31      0.00
                             -102.31  12332.84      0.00
                                0.00      0.00  12392.35

     hartree stress (kbar)  25121.80  -7370.45     -0.04
                            -7370.45  33401.74      0.07
                               -0.04      0.07  37715.19

     exc-cor stress (kbar)  -5465.54      0.54     -0.00
                                0.54  -5466.14      0.00
                               -0.00      0.00  -5466.45

     corecor stress (kbar)  -2979.01      5.49     -0.00
                                5.49  -2985.18      0.00
                               -0.00      0.00  -2988.39

     ewald   stress (kbar) -54829.23  -8153.64      0.00
                            -8153.64 -45669.35      0.00
                                0.00      0.00 -40897.41

     hubbard stress (kbar)      0.00      0.00      0.00
                                0.00      0.00      0.00
                                0.00      0.00      0.00

     DFT-D   stress (kbar)      0.00      0.00      0.00
                                0.00      0.00      0.00
                                0.00      0.00      0.00

     XDM     stress (kbar)      0.00      0.00      0.00
                                0.00      0.00      0.00
                                0.00      0.00      0.00

     dft-nl  stress (kbar)      0.00      0.00      0.00
                                0.00      0.00      0.00
                                0.00      0.00      0.00

     TS-vdW  stress (kbar)      0.00      0.00      0.00
                                0.00      0.00      0.00
                                0.00      0.00      0.00

[...]

                                0.00      0.00      0.00

     Writing all to output data dir calculations/myprefix.save/

     General routines

     Parallel routines

     PAW routines

   This run was terminated on:  11:18:32   6Mar2023

   JOB DONE.