     Program PWSCF v.7.0 starts on  3Mar2023 at 16:14: 7

     R & G space division:  proc/nbgrp/npool/nimage =      32

     Reading input from espresso_896.pwi
Warning: card &CELL ignored
Warning: card / ignored

     Current dimensions of program PWSCF are:
     Max number of different atomic species (ntypx) = 10
     Max number of k-points (npk) =  40000
     Max angular momentum in pseudopotentials (lmaxx) =  4
     file O.pbe-n-kjpaw_psl.0.1.UPF: wavefunction(s)  2P renormalized

     gamma-point specific algorithms are used
     Message from routine setup:
     using ibrav=0 with symmetry is DISCOURAGED, use correct ibrav instead

     Using Slab Decomposition

     bravais-lattice index     =            0
     lattice parameter (alat)  =      10.9303  a.u.
     unit-cell volume          =    1305.8415 (a.u.)^3
     number of atoms/cell      =           16
     number of atomic types    =            4
     number of electrons       =       189.00
     number of Kohn-Sham states=          114
     kinetic-energy cutoff     =      30.0000  Ry
     charge density cutoff     =     240.0000  Ry
     scf convergence threshold =      1.0E-06
     mixing beta               =       0.7000
     number of iterations used =            8  plain     mixing
     Exchange-correlation= SLA  PW   PBX  PBC
                           (   1   4   3   4   0   0   0)

     celldm(1)=  10.930251  celldm(2)=   0.000000  celldm(3)=   0.000000
     celldm(4)=   0.000000  celldm(5)=   0.000000  celldm(6)=   0.000000

     crystal axes: (cart. coord. in units of alat)
               a(1) = (   1.000000   0.000000   0.000000 )
               a(2) = (   0.000000   1.000000   0.000000 )
               a(3) = (   0.000000   0.000000   1.000000 )

     reciprocal axes: (cart. coord. in units 2 pi/alat)
               b(1) = (  1.000000  0.000000  0.000000 )
               b(2) = (  0.000000  1.000000  0.000000 )
               b(3) = (  0.000000  0.000000  1.000000 )

     PseudoPot. # 1 for Na read from file:
     /home/pragov/projects/rrg-bengioy-ad/pragov/crystal_structure_design/SSSP/na_pbe_v1.5.uspp.F.UPF
     MD5 check sum: 44600605ef58000f06b90626533354dc
     Pseudo is Ultrasoft, Zval =  9.0
     Generated by new atomic code, or converted to UPF format
     Using radial grid of  819 points,  5 beta functions with:
                l(1) =   0
                l(2) =   0
                l(3) =   1
                l(4) =   1
                l(5) =   2
     Q(r) pseudized with  8 coefficients,  rinner =    1.250   1.250   1.250
                                                       1.250   1.250

     PseudoPot. # 2 for Yb read from file:
     /home/pragov/projects/rrg-bengioy-ad/pragov/crystal_structure_design/SSSP/Yb.GGA-PBE-paw-v1.0.UPF
     MD5 check sum: 43b6465ad8021f06e3edb42ae292e187
     Pseudo is Projector augmented-wave + core cor, Zval = 24.0
     Generated using ATOMPAW code
     Shape of augmentation charge: BESSEL
     Using radial grid of 1117 points,  8 beta functions with:
                l(1) =   0
                l(2) =   0
                l(3) =   1
                l(4) =   1
                l(5) =   2
                l(6) =   2
                l(7) =   3
                l(8) =   3
     Q(r) pseudized with 0 coefficients

     PseudoPot. # 3 for Pd read from file:
     /home/pragov/projects/rrg-bengioy-ad/pragov/crystal_structure_design/SSSP/Pd_ONCV_PBE-1.0.oncvpsp.upf
     MD5 check sum: eb77f42b51d86fb18e25f68156a31cf1
     Pseudo is Norm-conserving, Zval = 18.0
     Generated using ONCVPSP code by D. R. Hamann
     Using radial grid of 1410 points,  6 beta functions with:
                l(1) =   0
                l(2) =   0
                l(3) =   1
                l(4) =   1
                l(5) =   2
                l(6) =   2

     PseudoPot. # 4 for O  read from file:
     /home/pragov/projects/rrg-bengioy-ad/pragov/crystal_structure_design/SSSP/O.pbe-n-kjpaw_psl.0.1.UPF
     MD5 check sum: 0234752ac141de4415c5fc33072bef88
     Pseudo is Projector augmented-wave + core cor, Zval =  6.0
     Generated using "atomic" code by A. Dal Corso  v.5.0.99 svn rev. 10869
     Shape of augmentation charge: BESSEL
     Using radial grid of 1095 points,  4 beta functions with:
                l(1) =   0
                l(2) =   0
                l(3) =   1
                l(4) =   1
     Q(r) pseudized with 0 coefficients

     atomic species   valence    mass     pseudopotential
        Na             9.00    22.98977     Na( 1.00)
        Yb            24.00   173.05400     Yb( 1.00)
        Pd            18.00   106.42000     Pd( 1.00)
        O              6.00    15.99900     O ( 1.00)

     24 Sym. Ops., with inversion, found

                                    s                        frac. trans.

      isym =  1     identity

 cryst.   s( 1) = (     1          0          0      )
                  (     0          1          0      )
                  (     0          0          1      )

 cart.    s( 1) = (  1.0000000  0.0000000  0.0000000 )
                  (  0.0000000  1.0000000  0.0000000 )
                  (  0.0000000  0.0000000  1.0000000 )

      isym =  2     180 deg rotation - cart. axis [0,0,1]

[...]

 cryst.   s( 9) = (     0          1          0      )
                  (     0          0          1      )
                  (     1          0          0      )

 cart.    s( 9) = (  0.0000000  0.0000000  1.0000000 )
                  (  1.0000000  0.0000000  0.0000000 )
                  (  0.0000000  1.0000000  0.0000000 )

[...]

 cryst.   s(10) = (     0         -1          0      )
                  (     0          0         -1      )
                  (     1          0          0      )

 cart.    s(10) = (  0.0000000  0.0000000  1.0000000 )
                  ( -1.0000000  0.0000000  0.0000000 )
                  (  0.0000000 -1.0000000  0.0000000 )

[...]

      isym = 12     120 deg rotation - cart. axis [-1,-1,1]

[...]

      isym = 13     inversion

[...]

      isym = 14     inv. 180 deg rotation - cart. axis [0,0,1]

[...]

      isym = 24     inv. 120 deg rotation - cart. axis [-1,-1,1]

 cryst.   s(24) = (     0         -1          0      )
                  (     0          0          1      )
                  (     1          0          0      )

 cart.    s(24) = (  0.0000000  0.0000000  1.0000000 )
                  ( -1.0000000  0.0000000  0.0000000 )
                  (  0.0000000  1.0000000  0.0000000 )

   Cartesian axes

     site n.     atom                  positions (alat units)
         1           Na  tau(   1) = (   0.5000000   0.5000000   0.5000000  )
         2           Yb  tau(   2) = (   0.0000000   0.0000000   0.0000000  )
         3           Pd  tau(   3) = (   0.2512630   0.0000000   0.5000000  )
         4           Pd  tau(   4) = (   0.7487370   0.0000000   0.5000000  )
         5           Pd  tau(   5) = (   0.5000000   0.2512630   0.0000000  )
         6           Pd  tau(   6) = (   0.5000000   0.7487370   0.0000000  )
         7           Pd  tau(   7) = (   0.0000000   0.5000000   0.2512630  )
         8           Pd  tau(   8) = (   0.0000000   0.5000000   0.7487370  )
         9           O   tau(   9) = (   0.2430020   0.2430020   0.2430020  )
        10           O   tau(  10) = (   0.7569980   0.7569980   0.7569980  )
        11           O   tau(  11) = (   0.7569980   0.7569980   0.2430020  )
        12           O   tau(  12) = (   0.7569980   0.2430020   0.7569980  )
        13           O   tau(  13) = (   0.2430020   0.2430020   0.7569980  )
        14           O   tau(  14) = (   0.2430020   0.7569980   0.2430020  )
        15           O   tau(  15) = (   0.2430020   0.7569980   0.7569980  )
        16           O   tau(  16) = (   0.7569980   0.2430020   0.2430020  )

   Crystallographic axes

     site n.     atom                  positions (cryst. coord.)
         1           Na  tau(   1) = (  0.5000000  0.5000000  0.5000000  )
         2           Yb  tau(   2) = (  0.0000000  0.0000000  0.0000000  )
         3           Pd  tau(   3) = (  0.2512630  0.0000000  0.5000000  )
         4           Pd  tau(   4) = (  0.7487370  0.0000000  0.5000000  )
         5           Pd  tau(   5) = (  0.5000000  0.2512630  0.0000000  )
         6           Pd  tau(   6) = (  0.5000000  0.7487370  0.0000000  )
         7           Pd  tau(   7) = (  0.0000000  0.5000000  0.2512630  )
         8           Pd  tau(   8) = (  0.0000000  0.5000000  0.7487370  )
         9           O   tau(   9) = (  0.2430020  0.2430020  0.2430020  )
        10           O   tau(  10) = (  0.7569980  0.7569980  0.7569980  )
        11           O   tau(  11) = (  0.7569980  0.7569980  0.2430020  )
        12           O   tau(  12) = (  0.7569980  0.2430020  0.7569980  )
        13           O   tau(  13) = (  0.2430020  0.2430020  0.7569980  )
        14           O   tau(  14) = (  0.2430020  0.7569980  0.2430020  )
        15           O   tau(  15) = (  0.2430020  0.7569980  0.7569980  )
        16           O   tau(  16) = (  0.7569980  0.2430020  0.2430020  )

     number of k points=     1  Methfessel-Paxton smearing, width (Ry)=  0.0010
                       cart. coord. in units 2pi/alat
        k(    1) = (   0.0000000   0.0000000   0.0000000), wk =   2.0000000

                       cryst. coord.
        k(    1) = (   0.0000000   0.0000000   0.0000000), wk =   2.0000000

     Check: negative core charge=   -0.000014

     Initial potential from superposition of free atoms

     starting charge     188.9876, renormalised to     189.0000
     Starting wfcs are  129 randomized atomic wfcs
     Checking if some PAW data can be deallocated...

     Self-consistent Calculation

     iteration #  1     ecut=    30.00 Ry     beta= 0.70
     Davidson diagonalization with overlap

     ethr =  1.00E-02,  avg # of iterations =  5.0

     total energy              =   -2955.97680562 Ry
     estimated scf accuracy    <       2.01806472 Ry

[...]

     total energy              =   -2957.23997484 Ry
     estimated scf accuracy    <       0.00008573 Ry

     iteration # 56     ecut=    30.00 Ry     beta= 0.70
     Davidson diagonalization with overlap

     ethr =  1.42E-08,  avg # of iterations =  1.0

     End of self-consistent calculation

          k = 0.0000 0.0000 0.0000 (  1848 PWs)   bands (ev):

   -71.5308 -71.5295 -71.5294 -71.5213 -71.5213 -71.5213 -37.1797 -37.0940
   -37.0940 -37.0940 -37.0793 -37.0793 -37.0793 -37.0263 -37.0263 -37.0262
   -37.0145 -37.0145 -37.0145 -37.0032 -36.8930 -36.8930 -36.8886 -36.7764
   -36.7764 -36.7764  -9.4911  -9.4910  -9.4909  -8.9290  -8.9290  -8.9290
    -5.2863  -4.3268  -4.3266  -4.3264  -4.3192  -4.2741  -4.2740  -4.2738
     6.8976   6.8976   7.4467   7.6851   7.6851   7.6852   7.8509   7.8509
     8.3307   8.3307   8.3307   8.3555   8.3555   8.3555   9.6475   9.6475
     9.6475   9.7118   9.8470   9.8470  10.6860  10.6861  10.6861  10.9881
    10.9881  10.9881  11.2760  11.2760  11.2760  11.5946  11.5946  11.5946
    11.6788  11.6788  11.8372  12.1189  12.1189  12.1189  13.1084  13.1084
    13.1084  13.3024  13.3025  13.3025  13.5261  13.5453  13.9066  13.9066
    13.9067  14.0130  14.0130  14.0130  14.2080  14.2513  14.2513  14.2513
    16.2427  16.2427  16.2427  16.3192  16.8051  16.8051  16.8484  16.8484
    20.1314  20.6228  20.6228  20.6229  20.7243  20.7244  21.7913  21.7914
    21.7914  21.9815

     occupation numbers
     1.0000   1.0000   1.0000   1.0000   1.0000   1.0000   1.0000   1.0000
     1.0000   1.0000   1.0000   1.0000   1.0000   1.0000   1.0000   1.0000
     1.0000   1.0000   1.0000   1.0000   1.0000   1.0000   1.0000   1.0000
     1.0000   1.0000   1.0000   1.0000   1.0000   1.0000   1.0000   1.0000
     1.0000   1.0000   1.0000   1.0000   1.0000   1.0000   1.0000   1.0000
     1.0000   1.0000   1.0000   1.0000   1.0000   1.0000   1.0000   1.0000
     1.0000   1.0000   1.0000   1.0000   1.0000   1.0000   1.0000   1.0000
     1.0000   1.0000   1.0000   1.0000   1.0000   1.0000   1.0000   1.0000
     1.0000   1.0000   1.0000   1.0000   1.0000   1.0000   1.0000   1.0000
     1.0000   1.0000   1.0000   1.0000   1.0000   1.0000   1.0000   1.0000
     1.0000   1.0000   1.0000   1.0000   1.0000   1.0000   1.0000   1.0000
     1.0000   1.0000   1.0000   1.0000   1.0000   0.5007   0.5000   0.4992
    -0.0000  -0.0000  -0.0000  -0.0000  -0.0000  -0.0000  -0.0000  -0.0000
    -0.0000  -0.0000  -0.0000  -0.0000  -0.0000  -0.0000  -0.0000  -0.0000
    -0.0000  -0.0000

     the Fermi energy is    14.2513 ev

!    total energy              =   -2957.23997480 Ry
     estimated scf accuracy    <       0.00000038 Ry
     smearing contrib. (-TS)   =      -0.00084606 Ry
     internal energy E=F+TS    =   -2957.23912873 Ry

     The total energy is F=E-TS. E is the sum of the following terms:
     one-electron contribution =   -1070.96153476 Ry
     hartree contribution      =     606.81845637 Ry
     xc contribution           =    -260.58298372 Ry
     ewald contribution        =   -1671.70577370 Ry
     one-center paw contrib.   =    -560.80729292 Ry
      -> PAW hartree energy AE =       0.00000000 Ry
      -> PAW hartree energy PS =       0.00000000 Ry
      -> PAW xc energy AE      =       0.00000000 Ry
      -> PAW xc energy PS      =       0.00000000 Ry
      -> total E_H with PAW    =     606.81845637 Ry
      -> total E_XC with PAW   =    -260.58298372 Ry

     convergence has been achieved in  56 iterations

     Forces acting on atoms (cartesian axes, Ry/au):

     atom    1 type  1   force =     0.00000000    0.00000000    0.00000000
     atom    2 type  2   force =     0.00000000    0.00000000    0.00000000
     atom    3 type  3   force =    -0.00527322    0.00000000    0.00000000
     atom    4 type  3   force =     0.00527322    0.00000000    0.00000000
     atom    5 type  3   force =     0.00000000   -0.00527322    0.00000000
     atom    6 type  3   force =     0.00000000    0.00527322    0.00000000
     atom    7 type  3   force =     0.00000000    0.00000000   -0.00527322
     atom    8 type  3   force =     0.00000000    0.00000000    0.00527322
     atom    9 type  4   force =    -0.00298917   -0.00298917   -0.00298917
     atom   10 type  4   force =     0.00298917    0.00298917    0.00298917
     atom   11 type  4   force =     0.00298917    0.00298917   -0.00298917
     atom   12 type  4   force =     0.00298917   -0.00298917    0.00298917
     atom   13 type  4   force =    -0.00298917   -0.00298917    0.00298917
     atom   14 type  4   force =    -0.00298917    0.00298917   -0.00298917
     atom   15 type  4   force =    -0.00298917    0.00298917    0.00298917
     atom   16 type  4   force =     0.00298917   -0.00298917   -0.00298917
     The non-local contrib.  to forces
     atom    1 type  1   force =     0.00000000    0.00000000    0.00000000
     atom    2 type  2   force =     0.00000000    0.00000000    0.00000000
     atom    3 type  3   force =     0.03847383    0.00000000    0.00000000
     atom    4 type  3   force =    -0.03847383   -0.00000000    0.00000000
     atom    5 type  3   force =    -0.00000000    0.03847383    0.00000000
     atom    6 type  3   force =     0.00000000   -0.03847383    0.00000000
     atom    7 type  3   force =     0.00000000    0.00000000    0.03847383
     atom    8 type  3   force =     0.00000000    0.00000000   -0.03847383
     atom    9 type  4   force =    -0.06450683   -0.06450683   -0.06450683
     atom   10 type  4   force =     0.06450683    0.06450683    0.06450683
     atom   11 type  4   force =     0.06450683    0.06450683   -0.06450683
     atom   12 type  4   force =     0.06450683   -0.06450683    0.06450683
     atom   13 type  4   force =    -0.06450683   -0.06450683    0.06450683
     atom   14 type  4   force =    -0.06450683    0.06450683   -0.06450683
     atom   15 type  4   force =    -0.06450683    0.06450683    0.06450683
     atom   16 type  4   force =     0.06450683   -0.06450683   -0.06450683
     The ionic contribution  to forces
     atom    1 type  1   force =     0.00000000    0.00000000   -0.00000000
     atom    2 type  2   force =     0.00000000    0.00000000    0.00000000
     atom    3 type  3   force =     8.15010862    0.00000000    0.00000000
     atom    4 type  3   force =    -8.15010862   -0.00000000   -0.00000000
     atom    5 type  3   force =    -0.00000000    8.15010862    0.00000000
     atom    6 type  3   force =     0.00000000   -8.15010862    0.00000000
     atom    7 type  3   force =     0.00000000    0.00000000    8.15010862
     atom    8 type  3   force =     0.00000000   -0.00000000   -8.15010862
     atom    9 type  4   force =     4.00830537    4.00830537    4.00830537
     atom   10 type  4   force =    -4.00830537   -4.00830537   -4.00830537
     atom   11 type  4   force =    -4.00830537   -4.00830537    4.00830537
     atom   12 type  4   force =    -4.00830537    4.00830537   -4.00830537
     atom   13 type  4   force =     4.00830537    4.00830537   -4.00830537
     atom   14 type  4   force =     4.00830537   -4.00830537    4.00830537
     atom   15 type  4   force =     4.00830537   -4.00830537   -4.00830537
     atom   16 type  4   force =    -4.00830537    4.00830537    4.00830537
     The local contribution  to forces
     atom    1 type  1   force =    -0.00019002    0.00007211    0.00013359
     atom    2 type  2   force =     0.00123483   -0.00058916   -0.00070733
     atom    3 type  3   force =    -8.19430778   -0.00054180    0.00082723
     atom    4 type  3   force =     8.19428027   -0.00019191    0.00013078
     atom    5 type  3   force =    -0.00066825   -8.19396287   -0.00034082
     atom    6 type  3   force =    -0.00102817    8.19398032   -0.00055156
     atom    7 type  3   force =     0.00041269    0.00032768   -8.19360309
     atom    8 type  3   force =     0.00114609    0.00053406    8.19361012
     atom    9 type  4   force =    -3.94757208   -3.94727732   -3.94722435
     atom   10 type  4   force =     3.94775795    3.94730304    3.94700880
     atom   11 type  4   force =     3.94766384    3.94726279   -3.94713228
     atom   12 type  4   force =     3.94766868   -3.94720356    3.94716448
     atom   13 type  4   force =    -3.94751853   -3.94720741    3.94731016
     atom   14 type  4   force =    -3.94777299    3.94717687   -3.94716044
     atom   15 type  4   force =    -3.94772082    3.94718955    3.94716516
     atom   16 type  4   force =     3.94758180   -3.94727042   -3.94720175
     The core correction contribution to forces
     atom    1 type  1   force =     0.00000000    0.00000000    0.00000000
     atom    2 type  2   force =     0.00000000   -0.00000000   -0.00000000
     atom    3 type  3   force =     0.00000000    0.00000000    0.00000000
     atom    4 type  3   force =     0.00000000    0.00000000    0.00000000
     atom    5 type  3   force =     0.00000000    0.00000000    0.00000000
     atom    6 type  3   force =     0.00000000    0.00000000    0.00000000
     atom    7 type  3   force =     0.00000000    0.00000000    0.00000000
     atom    8 type  3   force =     0.00000000    0.00000000    0.00000000
     atom    9 type  4   force =     0.00049702    0.00049724    0.00049803
     atom   10 type  4   force =    -0.00049657   -0.00049697   -0.00049866
     atom   11 type  4   force =    -0.00049718   -0.00049758    0.00049740
     atom   12 type  4   force =    -0.00049630    0.00049808   -0.00049788
     atom   13 type  4   force =     0.00049771    0.00049787   -0.00049696
     atom   14 type  4   force =     0.00049588   -0.00049820    0.00049800
     atom   15 type  4   force =     0.00049673   -0.00049792   -0.00049775
     atom   16 type  4   force =    -0.00049699    0.00049764    0.00049748
     The Hubbard contrib.    to forces
     atom    1 type  1   force =     0.00000000    0.00000000    0.00000000
     atom    2 type  2   force =     0.00000000    0.00000000    0.00000000
     atom    3 type  3   force =     0.00000000    0.00000000    0.00000000
     atom    4 type  3   force =     0.00000000    0.00000000    0.00000000
     atom    5 type  3   force =     0.00000000    0.00000000    0.00000000
     atom    6 type  3   force =     0.00000000    0.00000000    0.00000000
     atom    7 type  3   force =     0.00000000    0.00000000    0.00000000
     atom    8 type  3   force =     0.00000000    0.00000000    0.00000000
     atom    9 type  4   force =     0.00000000    0.00000000    0.00000000
     atom   10 type  4   force =     0.00000000    0.00000000    0.00000000
     atom   11 type  4   force =     0.00000000    0.00000000    0.00000000
     atom   12 type  4   force =     0.00000000    0.00000000    0.00000000
     atom   13 type  4   force =     0.00000000    0.00000000    0.00000000
     atom   14 type  4   force =     0.00000000    0.00000000    0.00000000
     atom   15 type  4   force =     0.00000000    0.00000000    0.00000000
     atom   16 type  4   force =     0.00000000    0.00000000    0.00000000
     The SCF correction term to forces
     atom    1 type  1   force =     0.00023092   -0.00011736   -0.00018745
     atom    2 type  2   force =    -0.00132347    0.00063076    0.00074698
     atom    3 type  3   force =     0.00048874    0.00053261   -0.00083567
     atom    4 type  3   force =    -0.00046665    0.00025536   -0.00020748
     atom    5 type  3   force =     0.00076315    0.00011632    0.00042501
     atom    6 type  3   force =     0.00106954   -0.00013630    0.00056715
     atom    7 type  3   force =    -0.00052360   -0.00038363   -0.00030427
     atom    8 type  3   force =    -0.00115107   -0.00054490    0.00029329
     atom    9 type  4   force =     0.00025371   -0.00002652   -0.00000937
     atom   10 type  4   force =    -0.00042592    0.00000738    0.00021234
     atom   11 type  4   force =    -0.00037908    0.00000961   -0.00017534
     atom   12 type  4   force =    -0.00030732   -0.00003320    0.00009720
     atom   13 type  4   force =     0.00025649   -0.00005423    0.00000190
     atom   14 type  4   force =     0.00039823    0.00005901   -0.00008698
     atom   15 type  4   force =     0.00040902    0.00006544    0.00010382
     atom   16 type  4   force =    -0.00026967    0.00000106   -0.00008614

     Total force =     0.019527     Total SCF correction =     0.003148
     SCF correction compared to forces is large: reduce conv_thr to get better values

     Computing stress (Cartesian axis) and pressure

          total   stress  (Ry/bohr**3)                   (kbar)     P=     -897.65
  -0.00610213   0.00000000   0.00000000         -897.65        0.00        0.00
   0.00000000  -0.00610213   0.00000000            0.00     -897.65        0.00
   0.00000000   0.00000000  -0.00610213            0.00        0.00     -897.65

     kinetic stress (kbar)  51307.93      0.00      0.00
                                0.00  51307.93      0.00
                                0.00      0.00  51307.93

     local   stress (kbar)  -8880.70      0.11      0.12
                                0.11  -8880.82     -0.09
                                0.12     -0.09  -8881.77

     nonloc. stress (kbar)   5920.12      0.00      0.00
                                0.00   5920.12      0.00
                                0.00      0.00   5920.12

     hartree stress (kbar)  22786.02     -0.02     -0.02
                               -0.02  22786.36      0.02
                               -0.02      0.02  22786.67

     exc-cor stress (kbar)  -8877.51     -0.00     -0.00
                               -0.00  -8877.51      0.00
                               -0.00      0.00  -8877.51

     corecor stress (kbar)   -380.03      0.00      0.00
                                0.00   -380.03     -0.00
                                0.00     -0.00   -380.03

     ewald   stress (kbar) -62773.42      0.00     -0.00
                                0.00 -62773.42     -0.00
                               -0.00     -0.00 -62773.42

     hubbard stress (kbar)      0.00      0.00      0.00
                                0.00      0.00      0.00
                                0.00      0.00      0.00

     DFT-D   stress (kbar)      0.00      0.00      0.00
                                0.00      0.00      0.00
                                0.00      0.00      0.00

     XDM     stress (kbar)      0.00      0.00      0.00
                                0.00      0.00      0.00
                                0.00      0.00      0.00

     dft-nl  stress (kbar)      0.00      0.00      0.00
                                0.00      0.00      0.00
                                0.00      0.00      0.00

     TS-vdW  stress (kbar)      0.00      0.00      0.00
                                0.00      0.00      0.00
                                0.00      0.00      0.00

[...]

                                0.00      0.00      0.00

     Writing all to output data dir calculations/myprefix.save/

     General routines

     Parallel routines

     PAW routines

   This run was terminated on:  16:14:34   3Mar2023

   JOB DONE.