     Program PWSCF v.7.0 starts on  3Mar2023 at 12:13:17

     R & G space division:  proc/nbgrp/npool/nimage =      32

     Reading input from espresso_226.pwi
Warning: card &CELL ignored
Warning: card / ignored

     Current dimensions of program PWSCF are:
     Max number of different atomic species (ntypx) = 10
     Max number of k-points (npk) =  40000
     Max angular momentum in pseudopotentials (lmaxx) =  4
     file O.pbe-n-kjpaw_psl.0.1.UPF: wavefunction(s)  2P renormalized

     gamma-point specific algorithms are used
     Message from routine setup:
     using ibrav=0 with symmetry is DISCOURAGED, use correct ibrav instead

     Using Slab Decomposition

     bravais-lattice index     =            0
     lattice parameter (alat)  =      10.4025  a.u.
     unit-cell volume          =    1699.8775 (a.u.)^3
     number of atoms/cell      =           20
     number of atomic types    =            3
     number of electrons       =       168.00
     number of Kohn-Sham states=          101
     kinetic-energy cutoff     =      30.0000  Ry
     charge density cutoff     =     240.0000  Ry
     scf convergence threshold =      1.0E-06
     mixing beta               =       0.7000
     number of iterations used =            8  plain     mixing
     Exchange-correlation= SLA  PW   PBX  PBC
                           (   1   4   3   4   0   0   0)

     celldm(1)=  10.402517  celldm(2)=   0.000000  celldm(3)=   0.000000
     celldm(4)=   0.000000  celldm(5)=   0.000000  celldm(6)=   0.000000

     crystal axes: (cart. coord. in units of alat)
               a(1) = (   1.000000   0.000000   0.000000 )
               a(2) = (   0.013212   1.040888   0.000000 )
               a(3) = (   0.002782   0.004955   1.450769 )

     reciprocal axes: (cart. coord. in units 2 pi/alat)
               b(1) = (  1.000000 -0.012693 -0.001874 )
               b(2) = (  0.000000  0.960718 -0.003281 )
               b(3) = (  0.000000  0.000000  0.689290 )

     PseudoPot. # 1 for Ca read from file:
     /home/pragov/projects/rrg-bengioy-ad/pragov/crystal_structure_design/SSSP/Ca_pbe_v1.uspp.F.UPF
     MD5 check sum: 403a4c14b9e4d4dfdc3024c9a3812218
     Pseudo is Ultrasoft + core correction, Zval = 10.0
     Generated by new atomic code, or converted to UPF format
     Using radial grid of  845 points,  6 beta functions with:
                l(1) =   0
                l(2) =   0
                l(3) =   1
                l(4) =   1
                l(5) =   2
                l(6) =   2
     Q(r) pseudized with  8 coefficients,  rinner =    1.500   1.500   1.500
                                                       1.500   1.500

     PseudoPot. # 2 for Mo read from file:
     /home/pragov/projects/rrg-bengioy-ad/pragov/crystal_structure_design/SSSP/Mo_ONCV_PBE-1.0.oncvpsp.upf
     MD5 check sum: 1b5d28e075c9ccadda658a603575cd1f
     Pseudo is Norm-conserving, Zval = 14.0
     Generated using ONCVPSP code by D. R. Hamann
     Using radial grid of 1526 points,  6 beta functions with:
                l(1) =   0
                l(2) =   0
                l(3) =   1
                l(4) =   1
                l(5) =   2
                l(6) =   2

     PseudoPot. # 3 for O  read from file:
     /home/pragov/projects/rrg-bengioy-ad/pragov/crystal_structure_design/SSSP/O.pbe-n-kjpaw_psl.0.1.UPF
     MD5 check sum: 0234752ac141de4415c5fc33072bef88
     Pseudo is Projector augmented-wave + core cor, Zval =  6.0
     Generated using "atomic" code by A. Dal Corso  v.5.0.99 svn rev. 10869
     Shape of augmentation charge: BESSEL
     Using radial grid of 1095 points,  4 beta functions with:
                l(1) =   0
                l(2) =   0
                l(3) =   1
                l(4) =   1
     Q(r) pseudized with 0 coefficients

     atomic species   valence    mass     pseudopotential
        Ca            10.00    40.07800     Ca( 1.00)
        Mo            14.00    95.95000     Mo( 1.00)
        O              6.00    15.99900     O ( 1.00)

      2 Sym. Ops., with inversion, found

                                    s                        frac. trans.

      isym =  1     identity

 cryst.   s( 1) = (     1          0          0      )
                  (     0          1          0      )
                  (     0          0          1      )

 cart.    s( 1) = (  1.0000000 -0.0000000 -0.0000000 )
                  (  0.0000000  1.0000000  0.0000000 )
                  (  0.0000000  0.0000000  1.0000000 )

      isym =  2     inversion

 cryst.   s( 2) = (    -1          0          0      )
                  (     0         -1          0      )
                  (     0          0         -1      )

 cart.    s( 2) = ( -1.0000000  0.0000000  0.0000000 )
                  (  0.0000000 -1.0000000 -0.0000000 )
                  (  0.0000000  0.0000000 -1.0000000 )

   Cartesian axes

     site n.     atom                  positions (alat units)
         1           Ca  tau(   1) = (   0.0126283   0.0538881   1.0906070  )
         2           Ca  tau(   2) = (   0.5203797   0.4636053   0.3618030  )
         3           Ca  tau(   3) = (   0.4956146   0.5822372   1.0889662  )
         4           Ca  tau(   4) = (   1.0033660   0.9919545   0.3601622  )
         5           Mo  tau(   5) = (   0.5000000   0.0000000   0.0000000  )
         6           Mo  tau(   6) = (   0.0066060   0.5204440   0.0000000  )
         7           Mo  tau(   7) = (   0.0079971   0.5229213   0.7253846  )
         8           Mo  tau(   8) = (   0.5013912   0.0024773   0.7253846  )
         9           O   tau(   9) = (   0.2940892   0.3251133   0.7946632  )
        10           O   tau(  10) = (   0.8140683   0.2197352   0.6429606  )
        11           O   tau(  11) = (   0.2065159   0.8309300   1.3747460  )
        12           O   tau(  12) = (   0.7078812   0.7287945   0.0814259  )
        13           O   tau(  13) = (   0.7219051   0.7207292   0.6561060  )
        14           O   tau(  14) = (   0.2019260   0.8261074   0.8078086  )
        15           O   tau(  15) = (   0.8094784   0.2149126   0.0760232  )
        16           O   tau(  16) = (   0.3081131   0.3170480   1.3693433  )
        17           O   tau(  17) = (   0.9061726   0.4806881   1.0804067  )
        18           O   tau(  18) = (   0.3996247   0.0427019   0.3524847  )
        19           O   tau(  19) = (   0.6163696   1.0031407   1.0982845  )
        20           O   tau(  20) = (   0.1098217   0.5651544   0.3703625  )

   Crystallographic axes

     site n.     atom                  positions (cryst. coord.)
         1           Ca  tau(   1) = (  0.0099000  0.0481930  0.7517440  )
         2           Ca  tau(   2) = (  0.5138170  0.4442070  0.2493870  )
         3           Ca  tau(   3) = (  0.4861830  0.5557930  0.7506130  )
         4           Ca  tau(   4) = (  0.9901000  0.9518070  0.2482560  )
         5           Mo  tau(   5) = (  0.5000000  0.0000000  0.0000000  )
         6           Mo  tau(   6) = ( -0.0000000  0.5000000  0.0000000  )
         7           Mo  tau(   7) = (  0.0000000  0.5000000  0.5000000  )
         8           Mo  tau(   8) = (  0.5000000 -0.0000000  0.5000000  )
         9           O   tau(   9) = (  0.2884730  0.3097350  0.5477530  )
        10           O   tau(  10) = (  0.8100740  0.2089940  0.4431860  )
        11           O   tau(  11) = (  0.1933920  0.7937790  0.9475980  )
        12           O   tau(  12) = (  0.6984780  0.6998990  0.0561260  )
        13           O   tau(  13) = (  0.7115270  0.6902650  0.4522470  )
        14           O   tau(  14) = (  0.1899260  0.7910060  0.5568140  )
        15           O   tau(  15) = (  0.8066080  0.2062210  0.0524020  )
        16           O   tau(  16) = (  0.3015220  0.3001010  0.9438740  )
        17           O   tau(  17) = (  0.8980460  0.4582610  0.7447130  )
        18           O   tau(  18) = (  0.3984220  0.0398680  0.2429640  )
        19           O   tau(  19) = (  0.6015780  0.9601320  0.7570360  )
        20           O   tau(  20) = (  0.1019540  0.5417390  0.2552870  )

     number of k points=     1  Methfessel-Paxton smearing, width (Ry)=  0.0010
                       cart. coord. in units 2pi/alat
        k(    1) = (   0.0000000   0.0000000   0.0000000), wk =   2.0000000

                       cryst. coord.
        k(    1) = (   0.0000000   0.0000000   0.0000000), wk =   2.0000000

     Check: negative core charge=   -0.000014

     Initial potential from superposition of free atoms

     starting charge     167.9742, renormalised to     168.0000
     Starting wfcs are  128 randomized atomic wfcs
     Checking if some PAW data can be deallocated...

     Self-consistent Calculation

     iteration #  1     ecut=    30.00 Ry     beta= 0.70
     Davidson diagonalization with overlap

     ethr =  1.00E-02,  avg # of iterations =  2.0

     total energy              =   -1346.55894182 Ry
     estimated scf accuracy    <       4.79507658 Ry

[...]

     total energy              =   -1349.17415717 Ry
     estimated scf accuracy    <       0.00000520 Ry

     iteration # 18     ecut=    30.00 Ry     beta= 0.70
     Davidson diagonalization with overlap

     ethr =  1.78E-09,  avg # of iterations =  1.0

     End of self-consistent calculation

          k = 0.0000 0.0000 0.0000 (  2362 PWs)   bands (ev):

   -51.0085 -50.9868 -50.8599 -50.7049 -28.8139 -28.8108 -28.7742 -28.7706
   -25.2930 -25.2145 -25.1521 -25.1124 -25.0304 -24.9947 -24.9706 -24.9409
   -24.8433 -24.8278 -24.6502 -24.6322 -10.1801 -10.1412 -10.1296 -10.1146
   -10.1119  -9.9516  -9.9006  -9.8880  -9.8662  -9.8322  -9.8261  -9.8174
    -8.0319  -7.5241  -7.3318  -7.2008  -7.1545  -7.0857  -7.0581  -6.8946
    -6.7416  -6.6561  -6.5757  -6.4803   4.4104   4.5371   4.6449   4.7387
     4.7903   4.8354   5.0728   5.1785   5.3149   5.4152   6.3591   6.3902
     6.5335   6.6417   6.6897   6.8426   6.8832   6.8997   6.9013   7.0781
     7.1451   7.4260   7.5684   7.6380   7.9530   8.0473   8.1863   8.2504
     8.2882   8.3566   8.4759   8.5654   8.6114   8.6333   8.6443   8.7146
    10.5216  10.5954  10.7998  10.9038  11.6427  11.8141  12.0996  12.3154
    12.3247  12.4958  12.9639  13.2025  14.0925  14.2474  14.3454  14.4732
    14.7804  15.4424  15.7367  15.9587  16.0179

     occupation numbers
     1.0000   1.0000   1.0000   1.0000   1.0000   1.0000   1.0000   1.0000
     1.0000   1.0000   1.0000   1.0000   1.0000   1.0000   1.0000   1.0000
     1.0000   1.0000   1.0000   1.0000   1.0000   1.0000   1.0000   1.0000
     1.0000   1.0000   1.0000   1.0000   1.0000   1.0000   1.0000   1.0000
     1.0000   1.0000   1.0000   1.0000   1.0000   1.0000   1.0000   1.0000
     1.0000   1.0000   1.0000   1.0000   1.0000   1.0000   1.0000   1.0000
     1.0000   1.0000   1.0000   1.0000   1.0000   1.0000   1.0000   1.0000
     1.0000   1.0000   1.0000   1.0000   1.0000   1.0000   1.0000   1.0000
     1.0000   1.0000   1.0000   1.0000   1.0000   1.0000   1.0000   1.0000
     1.0000   1.0000   1.0000   1.0000   1.0000   1.0000   1.0000   1.0000
     1.0000   1.0000   1.0000   1.0000  -0.0000  -0.0000  -0.0000  -0.0000
    -0.0000  -0.0000  -0.0000  -0.0000  -0.0000  -0.0000  -0.0000  -0.0000
    -0.0000  -0.0000  -0.0000  -0.0000  -0.0000

     the Fermi energy is    11.4220 ev

!    total energy              =   -1349.17415722 Ry
     estimated scf accuracy    <       0.00000044 Ry
     smearing contrib. (-TS)   =       0.00000000 Ry
     internal energy E=F+TS    =   -1349.17415722 Ry

     The total energy is F=E-TS. E is the sum of the following terms:
     one-electron contribution =    -347.09620374 Ry
     hartree contribution      =     258.85351411 Ry
     xc contribution           =    -199.11800476 Ry
     ewald contribution        =    -947.58959396 Ry
     one-center paw contrib.   =    -114.22386887 Ry
      -> PAW hartree energy AE =       0.00000000 Ry
      -> PAW hartree energy PS =       0.00000000 Ry
      -> PAW xc energy AE      =       0.00000000 Ry
      -> PAW xc energy PS      =       0.00000000 Ry
      -> total E_H with PAW    =     258.85351411 Ry
      -> total E_XC with PAW   =    -199.11800476 Ry

     convergence has been achieved in  18 iterations

     Forces acting on atoms (cartesian axes, Ry/au):

     atom    1 type  1   force =     0.01523164    0.01762654   -0.00312691
     atom    2 type  1   force =     0.01447132   -0.00728233    0.00375424
     atom    3 type  1   force =    -0.01447132    0.00728233   -0.00375424
     atom    4 type  1   force =    -0.01523164   -0.01762654    0.00312691
     atom    5 type  2   force =     0.00000000    0.00000000    0.00000000
     atom    6 type  2   force =     0.00000000    0.00000000    0.00000000
     atom    7 type  2   force =     0.00000000    0.00000000    0.00000000
     atom    8 type  2   force =     0.00000000    0.00000000    0.00000000
     atom    9 type  3   force =     0.04624711   -0.06774080   -0.00162478
     atom   10 type  3   force =    -0.02666885   -0.00080417    0.01284271
     atom   11 type  3   force =     0.02080092   -0.00925708    0.01197516
     atom   12 type  3   force =     0.01127766    0.02150750   -0.01577548
     atom   13 type  3   force =    -0.04624711    0.06774080    0.00162478
     atom   14 type  3   force =     0.02666885    0.00080417   -0.01284271
     atom   15 type  3   force =    -0.02080092    0.00925708   -0.01197516
     atom   16 type  3   force =    -0.01127766   -0.02150750    0.01577548
     atom   17 type  3   force =     0.02790847    0.01843725    0.02806902
     atom   18 type  3   force =     0.04551261   -0.01997544    0.02796755
     atom   19 type  3   force =    -0.04551261    0.01997544   -0.02796755
     atom   20 type  3   force =    -0.02790847   -0.01843725   -0.02806902
     The non-local contrib.  to forces
     atom    1 type  1   force =     0.01798295    0.01771557   -0.00108291
     atom    2 type  1   force =     0.01399166   -0.00724029    0.00192093
     atom    3 type  1   force =    -0.01399166    0.00724029   -0.00192093
     atom    4 type  1   force =    -0.01798295   -0.01771557    0.00108291
     atom    5 type  2   force =     0.00000000    0.00000000    0.00000000
     atom    6 type  2   force =     0.00000000    0.00000000    0.00000000
     atom    7 type  2   force =     0.00000000    0.00000000    0.00000000
     atom    8 type  2   force =     0.00000000    0.00000000    0.00000000
     atom    9 type  3   force =    -0.14812510   -0.11727638   -0.09001488
     atom   10 type  3   force =    -0.17699017    0.12905576    0.12515488
     atom   11 type  3   force =     0.15038179   -0.12176724    0.10507698
     atom   12 type  3   force =     0.18381927    0.11965828   -0.15434034
     atom   13 type  3   force =     0.14812510    0.11727638    0.09001488
     atom   14 type  3   force =     0.17699017   -0.12905576   -0.12515488
     atom   15 type  3   force =    -0.15038179    0.12176724   -0.10507698
     atom   16 type  3   force =    -0.18381927   -0.11965828    0.15434034
     atom   17 type  3   force =     0.24127489    0.08304832    0.01217895
     atom   18 type  3   force =     0.24121356   -0.06256475   -0.00736004
     atom   19 type  3   force =    -0.24121356    0.06256475    0.00736004
     atom   20 type  3   force =    -0.24127489   -0.08304832   -0.01217895
     The ionic contribution  to forces
     atom    1 type  1   force =    -0.48334901   -1.33682651   -0.35581258
     atom    2 type  1   force =    -0.74950820    2.01039711    0.16888732
     atom    3 type  1   force =     0.74950820   -2.01039711   -0.16888732
     atom    4 type  1   force =     0.48334901    1.33682651    0.35581258
     atom    5 type  2   force =     0.00000000   -0.00000000   -0.00000000
     atom    6 type  2   force =     0.00000000    0.00000000   -0.00000000
     atom    7 type  2   force =    -0.00000000   -0.00000000   -0.00000000
     atom    8 type  2   force =    -0.00000000    0.00000000    0.00000000
     atom    9 type  3   force =     3.63177936   -0.91925197    1.52506661
     atom   10 type  3   force =     0.32102438   -2.33303379   -1.18581863
     atom   11 type  3   force =    -0.96238540    1.46060285   -1.17480867
     atom   12 type  3   force =    -1.85490121   -0.80707182    1.60434491
     atom   13 type  3   force =    -3.63177936    0.91925196   -1.52506661
     atom   14 type  3   force =    -0.32102438    2.33303379    1.18581863
     atom   15 type  3   force =     0.96238540   -1.46060285    1.17480867
     atom   16 type  3   force =     1.85490121    0.80707182   -1.60434491
     atom   17 type  3   force =    -2.67763211   -0.20156545    1.08281726
     atom   18 type  3   force =    -2.24666146   -0.28497844    1.45818261
     atom   19 type  3   force =     2.24666146    0.28497844   -1.45818262
     atom   20 type  3   force =     2.67763211    0.20156545   -1.08281726
     The local contribution  to forces
     atom    1 type  1   force =     0.48108040    1.33666879    0.35359074
     atom    2 type  1   force =     0.75034167   -2.01060675   -0.16678333
     atom    3 type  1   force =    -0.75036276    2.01065430    0.16678513
     atom    4 type  1   force =    -0.48107428   -1.33669524   -0.35359592
     atom    5 type  2   force =    -0.00002569   -0.00003680   -0.00035688
     atom    6 type  2   force =     0.00002669    0.00002411   -0.00028700
     atom    7 type  2   force =     0.00006889    0.00001654    0.00025881
     atom    8 type  2   force =    -0.00003949   -0.00001449    0.00032490
     atom    9 type  3   force =    -3.43764501    0.96626968   -1.43733586
     atom   10 type  3   force =    -0.17355012    2.20386379    1.07505504
     atom   11 type  3   force =     0.83520437   -1.34872366    1.08272513
     atom   12 type  3   force =     1.68385556    0.71089427   -1.46748004
     atom   13 type  3   force =     3.43764828   -0.96626750    1.43751953
     atom   14 type  3   force =     0.17356701   -2.20386463   -1.07486980
     atom   15 type  3   force =    -0.83519094    1.34873091   -1.08292263
     atom   16 type  3   force =    -1.68386475   -0.71088895    1.46728615
     atom   17 type  3   force =     2.46674396    0.13786858   -1.06648296
     atom   18 type  3   force =     2.05387954    0.32662031   -1.42227314
     atom   19 type  3   force =    -2.05390074   -0.32662974    1.42227489
     atom   20 type  3   force =    -2.46673185   -0.13786388    1.06653492
     The core correction contribution to forces
     atom    1 type  1   force =    -0.00043696    0.00003082    0.00005383
     atom    2 type  1   force =    -0.00044192    0.00012547   -0.00003231
     atom    3 type  1   force =     0.00044153   -0.00012527    0.00003230
     atom    4 type  1   force =     0.00043722   -0.00003094   -0.00005393
     atom    5 type  2   force =     0.00000000    0.00000000    0.00000000
     atom    6 type  2   force =     0.00000000    0.00000000    0.00000000
     atom    7 type  2   force =     0.00000000    0.00000000    0.00000000
     atom    8 type  2   force =     0.00000000    0.00000000    0.00000000
     atom    9 type  3   force =     0.00063113    0.00219908    0.00078479
     atom   10 type  3   force =     0.00247968   -0.00099802   -0.00141705
     atom   11 type  3   force =    -0.00195207    0.00112749   -0.00117238
     atom   12 type  3   force =    -0.00195947   -0.00149396    0.00169469
     atom   13 type  3   force =    -0.00063108   -0.00219917   -0.00078522
     atom   14 type  3   force =    -0.00247966    0.00099803    0.00141665
     atom   15 type  3   force =     0.00195211   -0.00112750    0.00117274
     atom   16 type  3   force =     0.00195941    0.00149393   -0.00169429
     atom   17 type  3   force =    -0.00267805   -0.00102737   -0.00064327
     atom   18 type  3   force =    -0.00270617    0.00082143   -0.00053884
     atom   19 type  3   force =     0.00270606   -0.00082136    0.00053880
     atom   20 type  3   force =     0.00267819    0.00102741    0.00064353
     The Hubbard contrib.    to forces
     atom    1 type  1   force =     0.00000000    0.00000000    0.00000000
     atom    2 type  1   force =     0.00000000    0.00000000    0.00000000
     atom    3 type  1   force =     0.00000000    0.00000000    0.00000000
     atom    4 type  1   force =     0.00000000    0.00000000    0.00000000
     atom    5 type  2   force =     0.00000000    0.00000000    0.00000000
     atom    6 type  2   force =     0.00000000    0.00000000    0.00000000
     atom    7 type  2   force =     0.00000000    0.00000000    0.00000000
     atom    8 type  2   force =     0.00000000    0.00000000    0.00000000
     atom    9 type  3   force =     0.00000000    0.00000000    0.00000000
     atom   10 type  3   force =     0.00000000    0.00000000    0.00000000
     atom   11 type  3   force =     0.00000000    0.00000000    0.00000000
     atom   12 type  3   force =     0.00000000    0.00000000    0.00000000
     atom   13 type  3   force =     0.00000000    0.00000000    0.00000000
     atom   14 type  3   force =     0.00000000    0.00000000    0.00000000
     atom   15 type  3   force =     0.00000000    0.00000000    0.00000000
     atom   16 type  3   force =     0.00000000    0.00000000    0.00000000
     atom   17 type  3   force =     0.00000000    0.00000000    0.00000000
     atom   18 type  3   force =     0.00000000    0.00000000    0.00000000
     atom   19 type  3   force =     0.00000000    0.00000000    0.00000000
     atom   20 type  3   force =     0.00000000    0.00000000    0.00000000
     The SCF correction term to forces
     atom    1 type  1   force =    -0.00004490    0.00003789    0.00012399
     atom    2 type  1   force =     0.00008792    0.00004316   -0.00023839
     atom    3 type  1   force =    -0.00006683   -0.00008887    0.00023656
     atom    4 type  1   force =     0.00004020   -0.00001128   -0.00011875
     atom    5 type  2   force =     0.00002309    0.00003693    0.00035969
     atom    6 type  2   force =    -0.00002690   -0.00002564    0.00029175
     atom    7 type  2   force =    -0.00006964   -0.00001606   -0.00027011
     atom    8 type  2   force =     0.00004044    0.00001370   -0.00033160
     atom    9 type  3   force =    -0.00039048    0.00031593   -0.00014284
     atom   10 type  3   force =     0.00036779    0.00030923   -0.00014821
     atom   11 type  3   force =    -0.00044769   -0.00049471    0.00017038
     atom   12 type  3   force =     0.00046198   -0.00047869    0.00002247
     atom   13 type  3   force =     0.00039276   -0.00032372   -0.00007519
     atom   14 type  3   force =    -0.00038387   -0.00030616   -0.00006998
     atom   15 type  3   force =     0.00043437    0.00049109    0.00005933
     atom   16 type  3   force =    -0.00045579    0.00047457    0.00020536
     atom   17 type  3   force =     0.00020119    0.00011203    0.00020244
     atom   18 type  3   force =    -0.00021441    0.00012782   -0.00004442
     atom   19 type  3   force =     0.00023260   -0.00011483    0.00003996
     atom   20 type  3   force =    -0.00021064   -0.00011906   -0.00024788

     Total force =     0.173757     Total SCF correction =     0.001946

     Computing stress (Cartesian axis) and pressure

          total   stress  (Ry/bohr**3)                   (kbar)     P=     -448.04
  -0.00284418  -0.00008757  -0.00002493         -418.39      -12.88       -3.67
  -0.00008757  -0.00281824  -0.00005819          -12.88     -414.58       -8.56
  -0.00002493  -0.00005819  -0.00347477           -3.67       -8.56     -511.16

     kinetic stress (kbar)  26498.33    -26.88      0.64
                              -26.88  26496.58     -9.28
                                0.64     -9.28  25971.77

     local   stress (kbar)  -9479.63    534.03    300.71
                              534.03  -9447.80    186.57
                              300.71    186.57  -8274.01

     nonloc. stress (kbar)   7522.46      3.16      1.08
                                3.16   7527.73      0.77
                                1.08      0.77   7539.74

     hartree stress (kbar)   7544.25   -166.89    -95.51
                             -166.89   7580.27    -56.80
                              -95.51    -56.80   7276.31

     exc-cor stress (kbar)  -4338.40     -1.16     -0.58
                               -1.16  -4337.98     -0.42
                               -0.58     -0.42  -4343.36

     corecor stress (kbar)  -1026.12      0.09      0.03
                                0.09  -1026.02      0.03
                                0.03      0.03  -1025.12

     ewald   stress (kbar) -27139.28   -355.24   -210.03
                             -355.24 -27207.36   -129.43
                             -210.03   -129.43 -27656.47

     hubbard stress (kbar)      0.00      0.00      0.00
                                0.00      0.00      0.00
                                0.00      0.00      0.00

     DFT-D   stress (kbar)      0.00      0.00      0.00
                                0.00      0.00      0.00
                                0.00      0.00      0.00

     XDM     stress (kbar)      0.00      0.00      0.00
                                0.00      0.00      0.00
                                0.00      0.00      0.00

     dft-nl  stress (kbar)      0.00      0.00      0.00
                                0.00      0.00      0.00
                                0.00      0.00      0.00

     TS-vdW  stress (kbar)      0.00      0.00      0.00
                                0.00      0.00      0.00
                                0.00      0.00      0.00

[...]

                                0.00      0.00      0.00

     Writing all to output data dir calculations/myprefix.save/

     General routines

     Parallel routines

     PAW routines

   This run was terminated on:  12:13:21   3Mar2023

   JOB DONE.