     Program PWSCF v.7.0 starts on  3Mar2023 at 12:15:46

     R & G space division:  proc/nbgrp/npool/nimage =      32

     Reading input from espresso_233.pwi
Warning: card &CELL ignored
Warning: card / ignored

     Current dimensions of program PWSCF are:
     Max number of different atomic species (ntypx) = 10
     Max number of k-points (npk) =  40000
     Max angular momentum in pseudopotentials (lmaxx) =  4

     gamma-point specific algorithms are used
     Message from routine setup:
     using ibrav=0 with symmetry is DISCOURAGED, use correct ibrav instead

     Using Slab Decomposition

     bravais-lattice index     =            0
     lattice parameter (alat)  =       9.9417  a.u.
     unit-cell volume          =     431.1625 (a.u.)^3
     number of atoms/cell      =            3
     number of atomic types    =            2
     number of electrons       =        62.00
     number of Kohn-Sham states=           37
     kinetic-energy cutoff     =      30.0000  Ry
     charge density cutoff     =     240.0000  Ry
     scf convergence threshold =      1.0E-06
     mixing beta               =       0.7000
     number of iterations used =            8  plain     mixing
     Exchange-correlation= PBE
                           (   1   4   3   4   0   0   0)

     celldm(1)=   9.941700  celldm(2)=   0.000000  celldm(3)=   0.000000
     celldm(4)=   0.000000  celldm(5)=   0.000000  celldm(6)=   0.000000

     crystal axes: (cart. coord. in units of alat)
               a(1) = (   1.000000   0.000000   0.000000 )
               a(2) = (   0.491963   0.870616   0.000000 )
               a(3) = (  -0.745982  -0.435308   0.504002 )

     reciprocal axes: (cart. coord. in units 2 pi/alat)
               b(1) = (  1.000000 -0.565075  0.992059 )
               b(2) = (  0.000000  1.148612  0.992059 )
               b(3) = (  0.000000  0.000000  1.984118 )

     PseudoPot. # 1 for Yb read from file:
     /home/pragov/projects/rrg-bengioy-ad/pragov/crystal_structure_design/SSSP/Yb.GGA-PBE-paw-v1.0.UPF
     MD5 check sum: 43b6465ad8021f06e3edb42ae292e187
     Pseudo is Projector augmented-wave + core cor, Zval = 24.0
     Generated using ATOMPAW code
     Shape of augmentation charge: BESSEL
     Using radial grid of 1117 points,  8 beta functions with:
                l(1) =   0
                l(2) =   0
                l(3) =   1
                l(4) =   1
                l(5) =   2
                l(6) =   2
                l(7) =   3
                l(8) =   3
     Q(r) pseudized with 0 coefficients

     PseudoPot. # 2 for Au read from file:
     /home/pragov/projects/rrg-bengioy-ad/pragov/crystal_structure_design/SSSP/Au_ONCV_PBE-1.0.oncvpsp.upf
     MD5 check sum: d14007822ba0e19f0206237467fc06c2
     Pseudo is Norm-conserving, Zval = 19.0
     Generated using ONCVPSP code by D. R. Hamann
     Using radial grid of 1278 points,  8 beta functions with:
                l(1) =   0
                l(2) =   0
                l(3) =   1
                l(4) =   1
                l(5) =   2
                l(6) =   2
                l(7) =   3
                l(8) =   3

     atomic species   valence    mass     pseudopotential
        Yb            24.00   173.05400     Yb( 1.00)
        Au            19.00   196.96657     Au( 1.00)

      4 Sym. Ops., with inversion, found

                                    s                        frac. trans.

      isym =  1     identity

 cryst.   s( 1) = (     1          0          0      )
                  (     0          1          0      )
                  (     0          0          1      )

 cart.    s( 1) = (  1.0000000 -0.0000000  0.0000000 )
                  (  0.0000000  1.0000000  0.0000000 )
                  (  0.0000000  0.0000000  1.0000000 )

      isym =  2     180 deg rotation - cart. axis [0,0,1]

[...]

      isym =  3     inversion

[...]

      isym =  4     inv. 180 deg rotation - cart. axis [0,0,1]

 cryst.   s( 4) = (     1          0          0      )
                  (     0          1          0      )
                  (    -1         -1         -1      )

 cart.    s( 4) = (  1.0000000 -0.0000000  0.0000000 )
                  (  0.0000000  1.0000000  0.0000000 )
                  (  0.0000000  0.0000000 -1.0000000 )

   Cartesian axes

     site n.     atom                  positions (alat units)
         1           Yb  tau(   1) = (   0.0000000   0.0000000   0.0000000  )
         2           Au  tau(   2) = (   0.9917216   0.5787062   0.0000000  )
         3           Au  tau(   3) = (   0.5002419   0.2919097   0.0000000  )

   Crystallographic axes

     site n.     atom                  positions (cryst. coord.)
         1           Yb  tau(   1) = (  0.0000000  0.0000000  0.0000000  )
         2           Au  tau(   2) = (  0.6647090  0.6647090  0.0000000  )
         3           Au  tau(   3) = (  0.3352910  0.3352910  0.0000000  )

     number of k points=     1  Methfessel-Paxton smearing, width (Ry)=  0.0010
                       cart. coord. in units 2pi/alat
        k(    1) = (   0.0000000   0.0000000   0.0000000), wk =   2.0000000

                       cryst. coord.
        k(    1) = (   0.0000000   0.0000000   0.0000000), wk =   2.0000000

     Initial potential from superposition of free atoms

     starting charge      61.9958, renormalised to      62.0000
     Starting wfcs are   52 randomized atomic wfcs
     Checking if some PAW data can be deallocated...

     Self-consistent Calculation

     iteration #  1     ecut=    30.00 Ry     beta= 0.70
     Davidson diagonalization with overlap

     ethr =  1.00E-02,  avg # of iterations =  2.0

     Threshold (ethr) on eigenvalues was too large:
     Diagonalizing with lowered threshold

     Davidson diagonalization with overlap

[...]

     total energy              =   -1559.96558279 Ry
     estimated scf accuracy    <       0.51056424 Ry

[...]

     total energy              =   -1560.48983804 Ry
     estimated scf accuracy    <       0.00001361 Ry

     iteration # 18     ecut=    30.00 Ry     beta= 0.70
     Davidson diagonalization with overlap

     ethr =  1.93E-08,  avg # of iterations =  2.0

     End of self-consistent calculation

          k = 0.0000 0.0000 0.0000 (   606 PWs)   bands (ev):

   -89.4942 -89.4907 -40.5620 -40.5620 -40.5196 -40.5196 -40.4520 -40.3843
   -33.5218  -5.9608  -5.7466  -5.7465   9.1972  11.7211  12.3277  12.4989
    12.5460  12.8474  13.0094  13.0094  13.0281  13.0281  13.7560  17.0736
    17.3903  17.7511  17.7513  17.9751  18.0137  18.1694  18.1697  19.3978
    20.0874  20.2627  20.2627  23.8167  25.8207

     occupation numbers
     1.0000   1.0000   1.0000   1.0000   1.0000   1.0000   1.0000   1.0000
     1.0000   1.0000   1.0000   1.0000   1.0000   1.0000   1.0000   1.0000
     1.0000   1.0000   1.0000   1.0000   1.0000   1.0000   1.0000   1.0000
     1.0000   1.0000   1.0000   1.0000   1.0000   1.0000   1.0000  -0.0000
    -0.0000  -0.0000  -0.0000  -0.0000  -0.0000

     the Fermi energy is    18.7326 ev

!    total energy              =   -1560.48983799 Ry
     estimated scf accuracy    <       0.00000073 Ry
     smearing contrib. (-TS)   =       0.00000000 Ry
     internal energy E=F+TS    =   -1560.48983799 Ry

     The total energy is F=E-TS. E is the sum of the following terms:
     one-electron contribution =    -544.15771495 Ry
     hartree contribution      =     266.71777934 Ry
     xc contribution           =     -88.87670516 Ry
     ewald contribution        =    -709.68448984 Ry
     one-center paw contrib.   =    -484.48870737 Ry
      -> PAW hartree energy AE =     452.41829531 Ry
      -> PAW hartree energy PS =    -389.30788759 Ry
      -> PAW xc energy AE      =    -584.89977697 Ry
      -> PAW xc energy PS      =      37.30066189 Ry
      -> total E_H with PAW    =     329.82818705 Ry
      -> total E_XC with PAW   =    -636.47582025 Ry

     convergence has been achieved in  18 iterations

     Forces acting on atoms (cartesian axes, Ry/au):

     atom    1 type  1   force =     0.00000000    0.00000000    0.00000000
     atom    2 type  2   force =    -0.09138515   -0.05333255   -0.00000000
     atom    3 type  2   force =     0.09138515    0.05333255    0.00000000
     The non-local contrib.  to forces
     atom    1 type  1   force =     0.00000000    0.00000000    0.00000000
     atom    2 type  2   force =     0.01835511    0.01070996    0.00000000
     atom    3 type  2   force =    -0.01835511   -0.01070996   -0.00000000
     The ionic contribution  to forces
     atom    1 type  1   force =    -0.00000000   -0.00000000   -0.00000000
     atom    2 type  2   force =     3.05176927    1.78082016    0.00000000
     atom    3 type  2   force =    -3.05176927   -1.78082016   -0.00000000
     The local contribution  to forces
     atom    1 type  1   force =    -0.00054876   -0.00051962   -0.00005261
     atom    2 type  2   force =    -3.16149375   -1.84482258   -0.00000906
     atom    3 type  2   force =     3.16174416    1.84499874    0.00000758
     The core correction contribution to forces
     atom    1 type  1   force =    -0.00000000   -0.00000000   -0.00000000
     atom    2 type  2   force =     0.00000000    0.00000000    0.00000000
     atom    3 type  2   force =     0.00000000    0.00000000    0.00000000
     The Hubbard contrib.    to forces
     atom    1 type  1   force =     0.00000000    0.00000000    0.00000000
     atom    2 type  2   force =     0.00000000    0.00000000    0.00000000
     atom    3 type  2   force =     0.00000000    0.00000000    0.00000000
     The SCF correction term to forces
     atom    1 type  1   force =     0.00063377    0.00059213    0.00006299
     atom    2 type  2   force =    -0.00001639   -0.00004140    0.00000607
     atom    3 type  2   force =    -0.00023524   -0.00013740   -0.00000467

     Total force =     0.149637     Total SCF correction =     0.000912

     Computing stress (Cartesian axis) and pressure

          total   stress  (Ry/bohr**3)                   (kbar)     P=     -603.48
  -0.00316996   0.00098365  -0.00000000         -466.32      144.70       -0.00
   0.00098365  -0.00428162  -0.00000000          144.70     -629.85       -0.00
  -0.00000000  -0.00000000  -0.00485561           -0.00       -0.00     -714.28

     kinetic stress (kbar)  42773.65    203.55      0.00
                              203.55  42543.62      0.00
                                0.00      0.00  42424.84

     local   stress (kbar)   -551.77  -5463.55     -0.00
                            -5463.55   5622.87     -0.00
                               -0.00     -0.00   8811.02

     nonloc. stress (kbar)  12215.34     67.64      0.00
                               67.64  12138.90      0.00
                                0.00      0.00  12099.45

     hartree stress (kbar)  32271.20   2044.49      0.00
                             2044.49  29960.62      0.00
                                0.00      0.00  28767.60

     exc-cor stress (kbar)  -9581.64      3.36      0.00
                                3.36  -9585.44      0.00
                                0.00      0.00  -9587.40

     corecor stress (kbar)     -0.48      0.00      0.00
                                0.00     -0.48     -0.00
                                0.00     -0.00     -0.48

     ewald   stress (kbar) -77592.62   3289.22      0.00
                             3289.22 -81309.93      0.00
                                0.00      0.00 -83229.31

     hubbard stress (kbar)      0.00      0.00      0.00
                                0.00      0.00      0.00
                                0.00      0.00      0.00

     DFT-D   stress (kbar)      0.00      0.00      0.00
                                0.00      0.00      0.00
                                0.00      0.00      0.00

     XDM     stress (kbar)      0.00      0.00      0.00
                                0.00      0.00      0.00
                                0.00      0.00      0.00

     dft-nl  stress (kbar)      0.00      0.00      0.00
                                0.00      0.00      0.00
                                0.00      0.00      0.00

     TS-vdW  stress (kbar)      0.00      0.00      0.00
                                0.00      0.00      0.00
                                0.00      0.00      0.00

[...]

                                0.00      0.00      0.00

     Writing all to output data dir calculations/myprefix.save/

     General routines

     Parallel routines

     PAW routines

   This run was terminated on:  12:15:52   3Mar2023

   JOB DONE.