     Program PWSCF v.7.0 starts on  3Mar2023 at 13: 0:44

     R & G space division:  proc/nbgrp/npool/nimage =      32

     Reading input from espresso_355.pwi
Warning: card &CELL ignored
Warning: card / ignored

     Current dimensions of program PWSCF are:
     Max number of different atomic species (ntypx) = 10
     Max number of k-points (npk) =  40000
     Max angular momentum in pseudopotentials (lmaxx) =  4
     file Al.pbe-n-kjpaw_psl.1.0.0.UPF: wavefunction(s)  3S 3P renormalized

     gamma-point specific algorithms are used
     Message from routine setup:
     using ibrav=0 with symmetry is DISCOURAGED, use correct ibrav instead

     Using Slab Decomposition

     bravais-lattice index     =            0
     lattice parameter (alat)  =       8.1629  a.u.
     unit-cell volume          =     735.1693 (a.u.)^3
     number of atoms/cell      =            5
     number of atomic types    =            3
     number of electrons       =        50.00
     number of Kohn-Sham states=           30
     kinetic-energy cutoff     =      30.0000  Ry
     charge density cutoff     =     240.0000  Ry
     scf convergence threshold =      1.0E-06
     mixing beta               =       0.7000
     number of iterations used =            8  plain     mixing
     Exchange-correlation=  SLA  PW   PBX  PBC
                           (   1   4   3   4   0   0   0)

     celldm(1)=   8.162870  celldm(2)=   0.000000  celldm(3)=   0.000000
     celldm(4)=   0.000000  celldm(5)=   0.000000  celldm(6)=   0.000000

     crystal axes: (cart. coord. in units of alat)
               a(1) = (   1.000000   0.000000   0.000000 )
               a(2) = (  -0.500000   0.866025   0.000000 )
               a(3) = (   0.000000   0.000000   1.560731 )

     reciprocal axes: (cart. coord. in units 2 pi/alat)
               b(1) = (  1.000000  0.577351  0.000000 )
               b(2) = (  0.000000  1.154701  0.000000 )
               b(3) = (  0.000000  0.000000  0.640725 )

     PseudoPot. # 1 for Sm read from file:
     /home/pragov/projects/rrg-bengioy-ad/pragov/crystal_structure_design/SSSP/Sm.GGA-PBE-paw-v1.0.UPF
     MD5 check sum: 886f70968969f895acf876f5617e0641
     Pseudo is Projector augmented-wave + core cor, Zval = 16.0
     Generated using ATOMPAW code
     Shape of augmentation charge: BESSEL
     Using radial grid of 1107 points,  8 beta functions with:
                l(1) =   0
                l(2) =   0
                l(3) =   1
                l(4) =   1
                l(5) =   2
                l(6) =   2
                l(7) =   3
                l(8) =   3
     Q(r) pseudized with 0 coefficients

     PseudoPot. # 2 for Al read from file:
     /home/pragov/projects/rrg-bengioy-ad/pragov/crystal_structure_design/SSSP/Al.pbe-n-kjpaw_psl.1.0.0.UPF
     MD5 check sum: cfc449ca30b5f3223ec38ddd88ac046d
     Pseudo is Projector augmented-wave + core cor, Zval =  3.0
     Generated using "atomic" code by A. Dal Corso  v.5.1
     Shape of augmentation charge: PSQ
     Using radial grid of 1135 points,  6 beta functions with:
                l(1) =   0
                l(2) =   0
                l(3) =   1
                l(4) =   1
                l(5) =   2
                l(6) =   2
     Q(r) pseudized with 0 coefficients

     PseudoPot. # 3 for Ge read from file:
     /home/pragov/projects/rrg-bengioy-ad/pragov/crystal_structure_design/SSSP/ge_pbe_v1.4.uspp.F.UPF
     MD5 check sum: 9c9eaa91e581c3f09632fb3098b2c6b2
     Pseudo is Ultrasoft + core correction, Zval = 14.0
     Generated by new atomic code, or converted to UPF format
     Using radial grid of  873 points,  6 beta functions with:
                l(1) =   0
                l(2) =   0
                l(3) =   1
                l(4) =   1
                l(5) =   2
                l(6) =   2
     Q(r) pseudized with  8 coefficients,  rinner =    1.400   1.400   1.400
                                                       1.400   1.400

     atomic species   valence    mass     pseudopotential
        Sm            16.00   150.36000     Sm( 1.00)
        Al             3.00    26.98154     Al( 1.00)
        Ge            14.00    72.63000     Ge( 1.00)

     12 Sym. Ops., with inversion, found

                                    s                        frac. trans.

      isym =  1     identity

 cryst.   s( 1) = (     1          0          0      )
                  (     0          1          0      )
                  (     0          0          1      )

 cart.    s( 1) = (  1.0000000  0.0000000  0.0000000 )
                  (  0.0000000  1.0000000  0.0000000 )
                  (  0.0000000  0.0000000  1.0000000 )

      isym =  2     180 deg rotation - cart. axis [1,0,0]

[...]

      isym =  3     120 deg rotation - cryst. axis [0,0,1]

[...]

      isym =  6     180 deg rotation - cryst. axis [1,1,0]

[...]

      isym =  7     inversion

[...]

      isym =  8     inv. 180 deg rotation - cart. axis [1,0,0]

[...]

      isym =  9     inv. 120 deg rotation - cryst. axis [0,0,1]

 cryst.   s( 9) = (     0         -1          0      )
                  (     1          1          0      )
                  (     0          0         -1      )

 cart.    s( 9) = (  0.5000002  0.8660255  0.0000000 )
                  ( -0.8660253  0.4999998  0.0000000 )
                  (  0.0000000  0.0000000 -1.0000000 )

[...]

 cryst.   s(10) = (     1          1          0      )
                  (    -1          0          0      )
                  (     0          0         -1      )

 cart.    s(10) = (  0.4999998 -0.8660255  0.0000000 )
                  (  0.8660253  0.5000002  0.0000000 )
                  (  0.0000000  0.0000000 -1.0000000 )

[...]

      isym = 12     inv. 180 deg rotation - cryst. axis [1,1,0]

 cryst.   s(12) = (     0         -1          0      )
                  (    -1          0          0      )
                  (     0          0          1      )

 cart.    s(12) = (  0.5000002 -0.8660253  0.0000000 )
                  ( -0.8660253 -0.5000002  0.0000000 )
                  (  0.0000000  0.0000000  1.0000000 )

   Cartesian axes

     site n.     atom                  positions (alat units)
         1           Sm  tau(   1) = (   0.0000000   0.0000000   0.0000000  )
         2           Al  tau(   2) = (   0.5000004   0.2886748   0.5570031  )
         3           Al  tau(   3) = (  -0.0000007   0.5773505   1.0037280  )
         4           Ge  tau(   4) = (   0.5000004   0.2886748   1.1515433  )
         5           Ge  tau(   5) = (  -0.0000007   0.5773505   0.4091878  )

   Crystallographic axes

     site n.     atom                  positions (cryst. coord.)
         1           Sm  tau(   1) = (  0.0000000  0.0000000  0.0000000  )
         2           Al  tau(   2) = (  0.6666670  0.3333330  0.3568860  )
         3           Al  tau(   3) = (  0.3333330  0.6666670  0.6431140  )
         4           Ge  tau(   4) = (  0.6666670  0.3333330  0.7378230  )
         5           Ge  tau(   5) = (  0.3333330  0.6666670  0.2621770  )

     number of k points=     1  Methfessel-Paxton smearing, width (Ry)=  0.0010
                       cart. coord. in units 2pi/alat
        k(    1) = (   0.0000000   0.0000000   0.0000000), wk =   2.0000000

                       cryst. coord.
        k(    1) = (   0.0000000   0.0000000   0.0000000), wk =   2.0000000

     Initial potential from superposition of free atoms

     starting charge      49.9881, renormalised to      50.0000
     Starting wfcs are   58 randomized atomic wfcs
     Checking if some PAW data can be deallocated...

     Self-consistent Calculation

     iteration #  1     ecut=    30.00 Ry     beta= 0.70
     Davidson diagonalization with overlap

     ethr =  1.00E-02,  avg # of iterations =  2.0

     total energy              =   -1084.29097563 Ry
     estimated scf accuracy    <      23.28791438 Ry

[...]

     ethr =  5.10E-06,  avg # of iterations =  1.0
     Minimization algorithm failed to find Fermi energy: reverting to bisection
     Possible cause: smearing is larger than the electronic band-gap.

[...]

     total energy              =   -1109.45812299 Ry
     estimated scf accuracy    <       0.00000127 Ry

     iteration # 73     ecut=    30.00 Ry     beta= 0.70
     Davidson diagonalization with overlap

     ethr =  2.53E-09,  avg # of iterations =  6.0

     End of self-consistent calculation

          k = 0.0000 0.0000 0.0000 (  1011 PWs)   bands (ev):

   -29.5016 -13.7701 -13.7679 -13.7505 -13.7504 -13.7486 -13.7485 -13.7068
   -13.7068 -13.7045 -13.7045  -9.5363  -9.2434  -9.2433  -1.1522   1.2186
     4.6722   7.7365   7.7365   8.9300   9.4591   9.4591   9.8560  10.4762
    10.4763  10.4888  10.6962  11.0056  11.1766  11.1799

     occupation numbers
     1.0000   1.0000   1.0000   1.0000   1.0000   1.0000   1.0000   1.0000
     1.0000   1.0000   1.0000   1.0000   1.0000   1.0000   1.0000   1.0000
     1.0000   1.0000   1.0000   1.0000   1.0000   1.0000   1.0000   0.8961
     0.8948   0.2090  -0.0000  -0.0000  -0.0000  -0.0000

     the Fermi energy is    10.4837 ev

!    total energy              =   -1109.45812227 Ry
     estimated scf accuracy    <       0.00000081 Ry
     smearing contrib. (-TS)   =      -0.00034487 Ry
     internal energy E=F+TS    =   -1109.45777740 Ry

     The total energy is F=E-TS. E is the sum of the following terms:
     one-electron contribution =    -363.44149147 Ry
     hartree contribution      =     226.78755925 Ry
     xc contribution           =    -140.09522337 Ry
     ewald contribution        =    -313.62724124 Ry
     one-center paw contrib.   =    -519.08138058 Ry
      -> PAW hartree energy AE =     130.84579025 Ry
      -> PAW hartree energy PS =    -127.87553010 Ry
      -> PAW xc energy AE      =    -469.82028091 Ry
      -> PAW xc energy PS      =      17.12504347 Ry
      -> total E_H with PAW    =     229.75781940 Ry
      -> total E_XC with PAW   =    -592.79046081 Ry

     convergence has been achieved in  73 iterations

     Forces acting on atoms (cartesian axes, Ry/au):

     atom    1 type  1   force =     0.00000000    0.00000000    0.00000000
     atom    2 type  2   force =    -0.00000000   -0.00000000   -0.00841268
     atom    3 type  2   force =     0.00000000   -0.00000000    0.00841268
     atom    4 type  3   force =     0.00000000    0.00000000    0.00138898
     atom    5 type  3   force =     0.00000000    0.00000000   -0.00138898
     The non-local contrib.  to forces
     atom    1 type  1   force =     0.00000000    0.00000000    0.00000000
     atom    2 type  2   force =     0.00000000    0.00000000   -0.05559462
     atom    3 type  2   force =     0.00000000   -0.00000000    0.05559462
     atom    4 type  3   force =     0.00000000    0.00000000    0.28169327
     atom    5 type  3   force =     0.00000000    0.00000000   -0.28169327
     The ionic contribution  to forces
     atom    1 type  1   force =     0.00000000    0.00000000   -0.00000000
     atom    2 type  2   force =    -0.00001492    0.00000861    1.26431766
     atom    3 type  2   force =     0.00001492   -0.00000861   -1.26431766
     atom    4 type  3   force =    -0.00002418    0.00001396   -9.92168280
     atom    5 type  3   force =     0.00002418   -0.00001396    9.92168280
     The local contribution  to forces
     atom    1 type  1   force =    -0.00062132   -0.00025532   -0.00290120
     atom    2 type  2   force =     0.00010365   -0.00006274   -1.22208341
     atom    3 type  2   force =     0.00002462    0.00003463    1.22290566
     atom    4 type  3   force =    -0.00001709   -0.00013712    9.65218911
     atom    5 type  3   force =    -0.00024629    0.00031711   -9.65260963
     The core correction contribution to forces
     atom    1 type  1   force =    -0.00000003   -0.00000001   -0.00000005
     atom    2 type  2   force =     0.00000302   -0.00000217    0.00544197
     atom    3 type  2   force =     0.00000029   -0.00000002   -0.00541571
     atom    4 type  3   force =    -0.00000071   -0.00000204   -0.01186719
     atom    5 type  3   force =    -0.00000252    0.00000294    0.01185187
     The Hubbard contrib.    to forces
     atom    1 type  1   force =     0.00000000    0.00000000    0.00000000
     atom    2 type  2   force =     0.00000000    0.00000000    0.00000000
     atom    3 type  2   force =     0.00000000    0.00000000    0.00000000
     atom    4 type  3   force =     0.00000000    0.00000000    0.00000000
     atom    5 type  3   force =     0.00000000    0.00000000    0.00000000
     The SCF correction term to forces
     atom    1 type  1   force =     0.00059952    0.00023483    0.00282313
     atom    2 type  2   force =    -0.00001677    0.00002089   -0.00034419
     atom    3 type  2   force =    -0.00000206   -0.00001546   -0.00020413
     atom    4 type  3   force =     0.00006598    0.00013358    0.00106587
     atom    5 type  3   force =     0.00024838   -0.00032367   -0.00061148

     Total force =     0.012058     Total SCF correction =     0.003201
     SCF correction compared to forces is large: reduce conv_thr to get better values

     Computing stress (Cartesian axis) and pressure

          total   stress  (Ry/bohr**3)                   (kbar)     P=       68.31
   0.00177844   0.00000000   0.00000000          261.62        0.00        0.00
   0.00000000   0.00177844   0.00000000            0.00      261.62        0.00
   0.00000000   0.00000000  -0.00216375            0.00        0.00     -318.30

     kinetic stress (kbar)   7622.47      0.00      0.00
                                0.00   7622.47      0.00
                                0.00      0.00   6962.93

     local   stress (kbar)  -3006.09      0.28      0.16
                                0.28  -3004.50     -0.49
                                0.16     -0.49   5093.95

     nonloc. stress (kbar)   4270.85      0.00      0.00
                                0.00   4270.86      0.00
                                0.00      0.00   4216.62

     hartree stress (kbar)  16387.14     -0.07     -0.04
                               -0.07  16386.73      0.13
                               -0.04      0.13  12605.62

     exc-cor stress (kbar)   7203.63     -0.00     -0.00
                               -0.00   7203.62      0.00
                               -0.00      0.00   7200.45

     corecor stress (kbar) -12692.38      0.00      0.00
                                0.00 -12692.38     -0.00
                                0.00     -0.00 -12691.21

     ewald   stress (kbar) -19524.59      0.01      0.00
                                0.01 -19524.58     -0.00
                                0.00     -0.00 -23706.66

     hubbard stress (kbar)      0.00      0.00      0.00
                                0.00      0.00      0.00
                                0.00      0.00      0.00

     DFT-D   stress (kbar)      0.00      0.00      0.00
                                0.00      0.00      0.00
                                0.00      0.00      0.00

     XDM     stress (kbar)      0.00      0.00      0.00
                                0.00      0.00      0.00
                                0.00      0.00      0.00

     dft-nl  stress (kbar)      0.00      0.00      0.00
                                0.00      0.00      0.00
                                0.00      0.00      0.00

     TS-vdW  stress (kbar)      0.00      0.00      0.00
                                0.00      0.00      0.00
                                0.00      0.00      0.00

[...]

                                0.00      0.00      0.00

     Writing all to output data dir calculations/myprefix.save/

     General routines

     Parallel routines

     PAW routines

   This run was terminated on:  13: 1: 6   3Mar2023

   JOB DONE.