     Program PWSCF v.7.0 starts on  6Mar2023 at  8:37:51

     R & G space division:  proc/nbgrp/npool/nimage =      32

     Reading input from espresso_4999.pwi
Warning: card &CELL ignored
Warning: card / ignored

     Current dimensions of program PWSCF are:
     Max number of different atomic species (ntypx) = 10
     Max number of k-points (npk) =  40000
     Max angular momentum in pseudopotentials (lmaxx) =  4

     gamma-point specific algorithms are used
     Message from routine setup:
     using ibrav=0 with symmetry is DISCOURAGED, use correct ibrav instead

     Using Slab Decomposition

     bravais-lattice index     =            0
     lattice parameter (alat)  =       7.5166  a.u.
     unit-cell volume          =     556.5341 (a.u.)^3
     number of atoms/cell      =            5
     number of atomic types    =            3
     number of electrons       =        63.00
     number of Kohn-Sham states=           38
     kinetic-energy cutoff     =      30.0000  Ry
     charge density cutoff     =     240.0000  Ry
     scf convergence threshold =      1.0E-06
     mixing beta               =       0.7000
     number of iterations used =            8  plain     mixing
     Exchange-correlation=  SLA  PW   PBX  PBC
                           (   1   4   3   4   0   0   0)

     celldm(1)=   7.516561  celldm(2)=   0.000000  celldm(3)=   0.000000
     celldm(4)=   0.000000  celldm(5)=   0.000000  celldm(6)=   0.000000

     crystal axes: (cart. coord. in units of alat)
               a(1) = (   1.000000   0.000000   0.000000 )
               a(2) = (   0.000000   1.000000   0.000000 )
               a(3) = (   0.000000   0.000000   1.310491 )

     reciprocal axes: (cart. coord. in units 2 pi/alat)
               b(1) = (  1.000000  0.000000  0.000000 )
               b(2) = (  0.000000  1.000000  0.000000 )
               b(3) = (  0.000000  0.000000  0.763073 )

     PseudoPot. # 1 for Ce read from file:
     /home/pragov/projects/rrg-bengioy-ad/pragov/crystal_structure_design/SSSP/Ce.GGA-PBE-paw-v1.0.UPF
     MD5 check sum: f2b950f613061344c13339c8d844425d
     Pseudo is Projector augmented-wave + core cor, Zval = 12.0
     Generated using ATOMPAW code
     Shape of augmentation charge: BESSEL
     Using radial grid of 1102 points,  8 beta functions with:
                l(1) =   0
                l(2) =   0
                l(3) =   1
                l(4) =   1
                l(5) =   2
                l(6) =   2
                l(7) =   3
                l(8) =   3
     Q(r) pseudized with 0 coefficients

     PseudoPot. # 2 for B  read from file:
     /home/pragov/projects/rrg-bengioy-ad/pragov/crystal_structure_design/SSSP/b_pbe_v1.4.uspp.F.UPF
     MD5 check sum: cc6de2960df11db49a60e589f9ebb39b
     Pseudo is Ultrasoft + core correction, Zval =  3.0
     Generated by new atomic code, or converted to UPF format
     Using radial grid of  781 points,  4 beta functions with:
                l(1) =   0
                l(2) =   0
                l(3) =   1
                l(4) =   1
     Q(r) pseudized with  8 coefficients,  rinner =    1.100   1.100   1.100

     PseudoPot. # 3 for Pt read from file:
     /home/pragov/projects/rrg-bengioy-ad/pragov/crystal_structure_design/SSSP/pt_pbe_v1.4.uspp.F.UPF
     MD5 check sum: f09d6de1a584b5a045c4fc126da2d0c4
     Pseudo is Ultrasoft + core correction, Zval = 16.0
     Generated by new atomic code, or converted to UPF format
     Using radial grid of  985 points,  6 beta functions with:
                l(1) =   0
                l(2) =   0
                l(3) =   1
                l(4) =   1
                l(5) =   2
                l(6) =   2
     Q(r) pseudized with  8 coefficients,  rinner =    1.300   1.300   1.300
                                                       1.300   1.300

     atomic species   valence    mass     pseudopotential
        Ce            12.00   140.11600     Ce( 1.00)
        B              3.00    10.81000     B ( 1.00)
        Pt            16.00   195.08400     Pt( 1.00)

      8 Sym. Ops. (no inversion) found

                                    s                        frac. trans.

      isym =  1     identity

 cryst.   s( 1) = (     1          0          0      )
                  (     0          1          0      )
                  (     0          0          1      )

 cart.    s( 1) = (  1.0000000  0.0000000  0.0000000 )
                  (  0.0000000  1.0000000  0.0000000 )
                  (  0.0000000  0.0000000  1.0000000 )

      isym =  2     180 deg rotation - cart. axis [0,0,1]

[...]

      isym =  4      90 deg rotation - cart. axis [0,0,1]

[...]

      isym =  5     inv. 180 deg rotation - cart. axis [0,1,0]

[...]

      isym =  8     inv. 180 deg rotation - cart. axis [1,-1,0]

 cryst.   s( 8) = (     0          1          0      )
                  (     1          0          0      )
                  (     0          0          1      )

 cart.    s( 8) = (  0.0000000  1.0000000  0.0000000 )
                  (  1.0000000  0.0000000  0.0000000 )
                  (  0.0000000  0.0000000  1.0000000 )

   Cartesian axes

     site n.     atom                  positions (alat units)
         1           Ce  tau(   1) = (   0.0000000   0.0000000   1.2833694  )
         2           B   tau(   2) = (   0.5000000   0.5000000   0.9329754  )
         3           Pt  tau(   3) = (   0.0000000   0.5000000   0.6744391  )
         4           Pt  tau(   4) = (   0.5000000   0.5000000   0.1590609  )
         5           Pt  tau(   5) = (   0.5000000   0.0000000   0.6744391  )

   Crystallographic axes

     site n.     atom                  positions (cryst. coord.)
         1           Ce  tau(   1) = (  0.0000000  0.0000000  0.9793040  )
         2           B   tau(   2) = (  0.5000000  0.5000000  0.7119280  )
         3           Pt  tau(   3) = (  0.0000000  0.5000000  0.5146460  )
         4           Pt  tau(   4) = (  0.5000000  0.5000000  0.1213750  )
         5           Pt  tau(   5) = (  0.5000000  0.0000000  0.5146460  )

     number of k points=     1  Methfessel-Paxton smearing, width (Ry)=  0.0010
                       cart. coord. in units 2pi/alat
        k(    1) = (   0.0000000   0.0000000   0.0000000), wk =   2.0000000

                       cryst. coord.
        k(    1) = (   0.0000000   0.0000000   0.0000000), wk =   2.0000000

     Initial potential from superposition of free atoms

     starting charge      61.4927, renormalised to      63.0000

     negative rho (up, down):  5.459E-01 0.000E+00
     Starting wfcs are   72 randomized atomic wfcs
     Checking if some PAW data can be deallocated...

     Self-consistent Calculation

     iteration #  1     ecut=    30.00 Ry     beta= 0.70
     Davidson diagonalization with overlap

     ethr =  1.00E-02,  avg # of iterations =  2.0

     negative rho (up, down):  4.644E-01 0.000E+00

     total energy              =   -1067.75549570 Ry
     estimated scf accuracy    <      59.99929552 Ry

[...]

     total energy              =   -1120.53234334 Ry
     estimated scf accuracy    <       0.00000114 Ry

     iteration # 70     ecut=    30.00 Ry     beta= 0.70
     Davidson diagonalization with overlap

     ethr =  1.66E-09,  avg # of iterations =  1.0

[...]

     End of self-consistent calculation

          k = 0.0000 0.0000 0.0000 (   781 PWs)   bands (ev):

   -34.4886 -34.4886 -34.3456 -34.3456 -34.2976 -34.2463 -34.1108 -34.1107
   -33.8589 -15.9675   1.0439   1.3989   1.3990   7.8111  11.9353  12.4419
    12.7009  12.7294  12.7294  13.0473  14.4022  14.7098  15.6980  15.6980
    16.4918  16.4918  16.7716  16.9963  17.2379  17.4879  18.5697  18.5774
    18.5774  18.9335  19.0205  19.0298  19.0298  19.0374

     occupation numbers
     1.0000   1.0000   1.0000   1.0000   1.0000   1.0000   1.0000   1.0000
     1.0000   1.0000   1.0000   1.0000   1.0000   1.0000   1.0000   1.0000
     1.0000   1.0000   1.0000   1.0000   1.0000   1.0000   1.0000   1.0000
     1.0000   1.0000   1.0000   1.0000   1.0000   1.0000   0.8029   0.3486
     0.3485  -0.0000  -0.0000  -0.0000  -0.0000  -0.0000

     the Fermi energy is    18.5750 ev

!    total energy              =   -1120.53234313 Ry
     estimated scf accuracy    <       0.00000021 Ry
     smearing contrib. (-TS)   =      -0.00067881 Ry
     internal energy E=F+TS    =   -1120.53166432 Ry

     The total energy is F=E-TS. E is the sum of the following terms:
     one-electron contribution =    -127.05040662 Ry
     hartree contribution      =     113.13910988 Ry
     xc contribution           =    -184.28019078 Ry
     ewald contribution        =    -514.02367229 Ry
     one-center paw contrib.   =    -408.31650451 Ry
      -> PAW hartree energy AE =      43.74860373 Ry
      -> PAW hartree energy PS =     -43.49817529 Ry
      -> PAW xc energy AE      =    -417.10141708 Ry
      -> PAW xc energy PS      =       8.53448413 Ry
      -> total E_H with PAW    =     113.38953832 Ry
      -> total E_XC with PAW   =    -592.84712372 Ry

     convergence has been achieved in  70 iterations

     negative rho (up, down):  5.121E-01 0.000E+00

     Forces acting on atoms (cartesian axes, Ry/au):

     atom    1 type  1   force =     0.00000000    0.00000000    0.08414132
     atom    2 type  2   force =     0.00000000    0.00000000    0.06491575
     atom    3 type  3   force =     0.00000000    0.00000000   -0.03615167
     atom    4 type  3   force =     0.00000000    0.00000000   -0.07675373
     atom    5 type  3   force =     0.00000000    0.00000000   -0.03615167
     The non-local contrib.  to forces
     atom    1 type  1   force =     0.00000000    0.00000000   -0.42422557
     atom    2 type  2   force =     0.00000000    0.00000000   -0.05221543
     atom    3 type  3   force =     0.00000000    0.00000000   -0.06185285
     atom    4 type  3   force =     0.00000000    0.00000000    0.00046182
     atom    5 type  3   force =     0.00000000    0.00000000   -0.06185285
     The ionic contribution  to forces
     atom    1 type  1   force =    -0.00000000   -0.00000000   -0.49609681
     atom    2 type  2   force =     0.00000000    0.00000000    2.49708466
     atom    3 type  3   force =    -0.00000000    0.00000000    3.88957711
     atom    4 type  3   force =     0.00000000    0.00000000   -9.78014208
     atom    5 type  3   force =     0.00000000   -0.00000000    3.88957711
     The local contribution  to forces
     atom    1 type  1   force =    -0.00000251   -0.00000485    1.00408712
     atom    2 type  2   force =    -0.00000532    0.00000392   -2.38125715
     atom    3 type  3   force =     0.00005979   -0.00003332   -3.79394559
     atom    4 type  3   force =     0.00000131   -0.00001008    9.72951425
     atom    5 type  3   force =     0.00003359   -0.00002271   -3.79391736
     The core correction contribution to forces
     atom    1 type  1   force =    -0.00000000   -0.00000001    0.00036622
     atom    2 type  2   force =    -0.00000005    0.00000008    0.00107532
     atom    3 type  3   force =    -0.00001064    0.00000959   -0.07017874
     atom    4 type  3   force =     0.00000011    0.00000015   -0.02572331
     atom    5 type  3   force =    -0.00001780    0.00000641   -0.07018270
     The Hubbard contrib.    to forces
     atom    1 type  1   force =     0.00000000    0.00000000    0.00000000
     atom    2 type  2   force =     0.00000000    0.00000000    0.00000000
     atom    3 type  3   force =     0.00000000    0.00000000    0.00000000
     atom    4 type  3   force =     0.00000000    0.00000000    0.00000000
     atom    5 type  3   force =     0.00000000    0.00000000    0.00000000
     The SCF correction term to forces
     atom    1 type  1   force =    -0.00000177   -0.00000292    0.00000897
     atom    2 type  2   force =     0.00000312   -0.00000111    0.00022696
     atom    3 type  3   force =    -0.00004051    0.00003233    0.00024773
     atom    4 type  3   force =    -0.00000348    0.00001579   -0.00086580
     atom    5 type  3   force =    -0.00002822    0.00001061    0.00022201

     Total force =     0.140708     Total SCF correction =     0.000957

     Computing stress (Cartesian axis) and pressure

     negative rho (up, down):  5.121E-01 0.000E+00
          total   stress  (Ry/bohr**3)                   (kbar)     P=       91.91
  -0.00045777   0.00000000   0.00000000          -67.34        0.00        0.00
   0.00000000  -0.00045777   0.00000000            0.00      -67.34        0.00
   0.00000000   0.00000000   0.00278995            0.00        0.00      410.42

     kinetic stress (kbar)  34533.10      0.00      0.00
                                0.00  34533.10      0.00
                                0.00      0.00  35006.40

     local   stress (kbar)   2951.48      0.05      0.07
                                0.05   2951.61     -0.04
                                0.07     -0.04  13714.55

     nonloc. stress (kbar)   3446.85      0.00      0.00
                                0.00   3446.85      0.00
                                0.00      0.00   4090.66

     hartree stress (kbar)  11505.63     -0.02     -0.02
                               -0.02  11505.60      0.01
                               -0.02      0.01   6894.11

     exc-cor stress (kbar)  21313.52     -0.00     -0.00
                               -0.00  21313.52      0.00
                               -0.00      0.00  21319.85

     corecor stress (kbar) -30799.67     -0.00      0.00
                               -0.00 -30799.67     -0.00
                                0.00     -0.00 -30783.18

     ewald   stress (kbar) -43018.30      0.00     -0.00
                                0.00 -43018.30     -0.00
                               -0.00     -0.00 -49831.97

     hubbard stress (kbar)      0.00      0.00      0.00
                                0.00      0.00      0.00
                                0.00      0.00      0.00

     DFT-D   stress (kbar)      0.00      0.00      0.00
                                0.00      0.00      0.00
                                0.00      0.00      0.00

     XDM     stress (kbar)      0.00      0.00      0.00
                                0.00      0.00      0.00
                                0.00      0.00      0.00

     dft-nl  stress (kbar)      0.00      0.00      0.00
                                0.00      0.00      0.00
                                0.00      0.00      0.00

     TS-vdW  stress (kbar)      0.00      0.00      0.00
                                0.00      0.00      0.00
                                0.00      0.00      0.00

[...]

                                0.00      0.00      0.00

     Writing all to output data dir calculations/myprefix.save/

     General routines

     Parallel routines

     PAW routines

   This run was terminated on:   8:38:11   6Mar2023

   JOB DONE.