     Program PWSCF v.7.0 starts on  6Mar2023 at 12:18:22

     R & G space division:  proc/nbgrp/npool/nimage =      32

     Reading input from espresso_4575.pwi
Warning: card &CELL ignored
Warning: card / ignored

     Current dimensions of program PWSCF are:
     Max number of different atomic species (ntypx) = 10
     Max number of k-points (npk) =  40000
     Max angular momentum in pseudopotentials (lmaxx) =  4
     file Al.pbe-n-kjpaw_psl.1.0.0.UPF: wavefunction(s)  3S 3P renormalized

     gamma-point specific algorithms are used
     Message from routine setup:
     using ibrav=0 with symmetry is DISCOURAGED, use correct ibrav instead

     Using Slab Decomposition

     bravais-lattice index     =            0
     lattice parameter (alat)  =       9.9058  a.u.
     unit-cell volume          =    1409.9522 (a.u.)^3
     number of atoms/cell      =           12
     number of atomic types    =            3
     number of electrons       =       112.00
     number of Kohn-Sham states=           67
     kinetic-energy cutoff     =      30.0000  Ry
     charge density cutoff     =     240.0000  Ry
     scf convergence threshold =      1.0E-06
     mixing beta               =       0.7000
     number of iterations used =            8  plain     mixing
     Exchange-correlation=  SLA  PW   PBX  PBC
                           (   1   4   3   4   0   0   0)

     celldm(1)=   9.905821  celldm(2)=   0.000000  celldm(3)=   0.000000
     celldm(4)=   0.000000  celldm(5)=   0.000000  celldm(6)=   0.000000

     crystal axes: (cart. coord. in units of alat)
               a(1) = (   1.000000   0.000000   0.000000 )
               a(2) = (   0.497759   0.867343   0.000000 )
               a(3) = (   0.000000   0.000000   1.672407 )

     reciprocal axes: (cart. coord. in units 2 pi/alat)
               b(1) = (  1.000000 -0.573890  0.000000 )
               b(2) = (  0.000000  1.152946  0.000000 )
               b(3) = (  0.000000  0.000000  0.597940 )

     PseudoPot. # 1 for Zr read from file:
     /home/pragov/projects/rrg-bengioy-ad/pragov/crystal_structure_design/SSSP/Zr_pbe_v1.uspp.F.UPF
     MD5 check sum: 5db81b1e868ab7776c4564c113de050b
     Pseudo is Ultrasoft + core correction, Zval = 12.0
     Generated by new atomic code, or converted to UPF format
     Using radial grid of  887 points,  6 beta functions with:
                l(1) =   0
                l(2) =   0
                l(3) =   1
                l(4) =   1
                l(5) =   2
                l(6) =   2
     Q(r) pseudized with  6 coefficients,  rinner =    1.200   1.200   1.200
                                                       1.200   1.200

     PseudoPot. # 2 for Al read from file:
     /home/pragov/projects/rrg-bengioy-ad/pragov/crystal_structure_design/SSSP/Al.pbe-n-kjpaw_psl.1.0.0.UPF
     MD5 check sum: cfc449ca30b5f3223ec38ddd88ac046d
     Pseudo is Projector augmented-wave + core cor, Zval =  3.0
     Generated using "atomic" code by A. Dal Corso  v.5.1
     Shape of augmentation charge: PSQ
     Using radial grid of 1135 points,  6 beta functions with:
                l(1) =   0
                l(2) =   0
                l(3) =   1
                l(4) =   1
                l(5) =   2
                l(6) =   2
     Q(r) pseudized with 0 coefficients

     PseudoPot. # 3 for V  read from file:
     /home/pragov/projects/rrg-bengioy-ad/pragov/crystal_structure_design/SSSP/v_pbe_v1.4.uspp.F.UPF
     MD5 check sum: 22b79981416ebb76fdaf5b1b8640f6fb
     Pseudo is Ultrasoft + core correction, Zval = 13.0
     Generated by new atomic code, or converted to UPF format
     Using radial grid of  853 points,  6 beta functions with:
                l(1) =   0
                l(2) =   0
                l(3) =   1
                l(4) =   1
                l(5) =   2
                l(6) =   2
     Q(r) pseudized with  8 coefficients,  rinner =    1.100   1.100   1.100
                                                       1.100   1.100

     atomic species   valence    mass     pseudopotential
        Zr            12.00    91.22400     Zr( 1.00)
        Al             3.00    26.98154     Al( 1.00)
        V             13.00    50.94150     V ( 1.00)

      2 Sym. Ops. (no inversion) found ( 1 have fractional translation)

                                    s                        frac. trans.

      isym =  1     identity

 cryst.   s( 1) = (     1          0          0      )
                  (     0          1          0      )
                  (     0          0          1      )

 cart.    s( 1) = (  1.0000000 -0.0000000  0.0000000 )
                  (  0.0000000  1.0000000  0.0000000 )
                  (  0.0000000  0.0000000  1.0000000 )

      isym =  2     inv. 180 deg rotation - cart. axis [0,0,1]

 cryst.   s( 2) = (     1          0          0      )    f =(  0.0000000 )
                  (     0          1          0      )       (  0.0000000 )
                  (     0          0         -1      )       ( -0.5000000 )

 cart.    s( 2) = (  1.0000000 -0.0000000  0.0000000 )    f =(  0.0000000 )
                  (  0.0000000  1.0000000  0.0000000 )       (  0.0000000 )
                  (  0.0000000  0.0000000 -1.0000000 )       ( -0.8362036 )

   Cartesian axes

     site n.     atom                  positions (alat units)
         1           Zr  tau(   1) = (   0.4993240   0.2891427   0.9409716  )
         2           Zr  tau(   2) = (   1.0025387   0.5805708   0.7283902  )
         3           Zr  tau(   3) = (   1.0025387   0.5805708   0.1078134  )
         4           Zr  tau(   4) = (   0.4993240   0.2891427   1.5676393  )
         5           Al  tau(   5) = (   1.4930988   0.8646569   0.8286276  )
         6           Al  tau(   6) = (   1.4930988   0.8646569   0.0075760  )
         7           Al  tau(   7) = (   1.0009832   0.2952696   1.2543055  )
         8           Al  tau(   8) = (   0.7543268   0.7212183   1.2543055  )
         9           V   tau(   9) = (   1.2448552   0.7208930   1.2543055  )
        10           V   tau(  10) = (   0.4998564   0.5605386   0.4181018  )
        11           V   tau(  11) = (   0.7349678   0.1545224   0.4181018  )
        12           V   tau(  12) = (   0.2594039   0.1502186   0.4181018  )

   Crystallographic axes

     site n.     atom                  positions (cryst. coord.)
         1           Zr  tau(   1) = (  0.3333880  0.3333660  0.5626450  )
         2           Zr  tau(   2) = (  0.6693550  0.6693670  0.4355340  )
         3           Zr  tau(   3) = (  0.6693550  0.6693670  0.0644660  )
         4           Zr  tau(   4) = (  0.3333880  0.3333660  0.9373550  )
         5           Al  tau(   5) = (  0.9968810  0.9969030  0.4954700  )
         6           Al  tau(   6) = (  0.9968810  0.9969030  0.0045300  )
         7           Al  tau(   7) = (  0.8315310  0.3404300  0.7500000  )
         8           Al  tau(   8) = (  0.3404270  0.8315260  0.7500000  )
         9           V   tau(   9) = (  0.8311420  0.8311510  0.7500000  )
        10           V   tau(  10) = (  0.1781690  0.6462710  0.2500000  )
        11           V   tau(  11) = (  0.6462890  0.1781560  0.2500000  )
        12           V   tau(  12) = (  0.1731950  0.1731940  0.2500000  )

     number of k points=     1  Methfessel-Paxton smearing, width (Ry)=  0.0010
                       cart. coord. in units 2pi/alat
        k(    1) = (   0.0000000   0.0000000   0.0000000), wk =   2.0000000

                       cryst. coord.
        k(    1) = (   0.0000000   0.0000000   0.0000000), wk =   2.0000000

     Check: negative core charge=   -0.000004

     Initial potential from superposition of free atoms

     starting charge     111.9773, renormalised to     112.0000

     negative rho (up, down):  2.448E-01 0.000E+00
     Starting wfcs are  108 randomized atomic wfcs
     Checking if some PAW data can be deallocated...

     Self-consistent Calculation

     iteration #  1     ecut=    30.00 Ry     beta= 0.70
     Davidson diagonalization with overlap

     ethr =  1.00E-02,  avg # of iterations =  2.0

     Threshold (ethr) on eigenvalues was too large:
     Diagonalizing with lowered threshold

     Davidson diagonalization with overlap

[...]

     negative rho (up, down):  2.487E-01 0.000E+00

     total energy              =   -1134.65383816 Ry
     estimated scf accuracy    <       0.98622527 Ry

[...]

     total energy              =   -1135.21907772 Ry
     estimated scf accuracy    <       0.00000171 Ry

     iteration # 27     ecut=    30.00 Ry     beta= 0.70
     Davidson diagonalization with overlap

     ethr =  1.53E-09,  avg # of iterations =  2.0

[...]

     End of self-consistent calculation

          k = 0.0000 0.0000 0.0000 (  1950 PWs)   bands (ev):

   -51.1282 -51.0280 -50.9967 -50.9488 -35.6495 -35.6326 -35.5435 -35.5235
   -25.4730 -25.1512 -25.1069 -25.0765 -24.8823 -24.7958 -24.7634 -24.7176
   -24.7160 -24.6882 -24.6733 -24.5501 -13.8383 -13.8098 -13.8073 -13.7903
   -13.7425 -13.7190 -13.5572 -13.5324 -13.5195 -13.5108 -13.5098 -13.4380
     4.5340   6.6406   6.9665   9.1535   9.5965   9.8754  10.1113  10.2899
    10.3985  10.6977  10.8408  10.9594  11.1236  11.2664  11.5181  11.7440
    11.7747  11.8203  11.8985  12.1238  12.3123  12.3159  12.4967  12.9027
    12.9079  12.9760  13.0043  13.1458  13.4845  13.8173  14.3047  14.4161
    14.5351  14.6701  14.7035

     occupation numbers
     1.0000   1.0000   1.0000   1.0000   1.0000   1.0000   1.0000   1.0000
     1.0000   1.0000   1.0000   1.0000   1.0000   1.0000   1.0000   1.0000
     1.0000   1.0000   1.0000   1.0000   1.0000   1.0000   1.0000   1.0000
     1.0000   1.0000   1.0000   1.0000   1.0000   1.0000   1.0000   1.0000
     1.0000   1.0000   1.0000   1.0000   1.0000   1.0000   1.0000   1.0000
     1.0000   1.0000   1.0000   1.0000   1.0000   1.0000   1.0000   1.0000
     1.0000   1.0000   1.0000   1.0000   1.0000   1.0000   1.0000   0.6605
     0.3395  -0.0000  -0.0000  -0.0000  -0.0000  -0.0000  -0.0000  -0.0000
    -0.0000  -0.0000  -0.0000

     the Fermi energy is    12.9053 ev

!    total energy              =   -1135.21907755 Ry
     estimated scf accuracy    <       0.00000027 Ry
     smearing contrib. (-TS)   =      -0.00050266 Ry
     internal energy E=F+TS    =   -1135.21857489 Ry

     The total energy is F=E-TS. E is the sum of the following terms:
     one-electron contribution =    -457.82312999 Ry
     hartree contribution      =     271.46216330 Ry
     xc contribution           =    -160.18205540 Ry
     ewald contribution        =    -649.87152701 Ry
     one-center paw contrib.   =    -138.80402579 Ry
      -> PAW hartree energy AE =       0.00000000 Ry
      -> PAW hartree energy PS =       0.00000000 Ry
      -> PAW xc energy AE      =       0.00000000 Ry
      -> PAW xc energy PS      =       0.00000000 Ry
      -> total E_H with PAW    =     271.46216330 Ry
      -> total E_XC with PAW   =    -160.18205540 Ry

     convergence has been achieved in  27 iterations

     negative rho (up, down):  2.512E-01 0.000E+00

     Forces acting on atoms (cartesian axes, Ry/au):

     atom    1 type  1   force =     0.01363729    0.00791692    0.06362625
     atom    2 type  1   force =     0.00091468    0.00052435    0.10262688
     atom    3 type  1   force =     0.00091468    0.00052435   -0.10262688
     atom    4 type  1   force =     0.01363729    0.00791692   -0.06362625
     atom    5 type  2   force =    -0.00794934   -0.00460892    0.04712633
     atom    6 type  2   force =    -0.00794934   -0.00460892   -0.04712633
     atom    7 type  2   force =     0.00967265   -0.00316854    0.00000000
     atom    8 type  2   force =     0.00208212    0.00998290    0.00000000
     atom    9 type  3   force =    -0.04828373   -0.02800378    0.00000000
     atom   10 type  3   force =     0.00290839   -0.00006732    0.00000000
     atom   11 type  3   force =     0.00140420    0.00258107    0.00000000
     atom   12 type  3   force =     0.01901111    0.01101098    0.00000000
     The non-local contrib.  to forces
     atom    1 type  1   force =    -0.00224950   -0.00136305   -0.00999592
     atom    2 type  1   force =    -0.01070708   -0.00617668    0.06662889
     atom    3 type  1   force =    -0.01070708   -0.00617668   -0.06662889
     atom    4 type  1   force =    -0.00224950   -0.00136305    0.00999592
     atom    5 type  2   force =     0.02356035    0.01361487    0.00432178
     atom    6 type  2   force =     0.02356035    0.01361487   -0.00432178
     atom    7 type  2   force =     0.00667820   -0.02556634    0.00000000
     atom    8 type  2   force =    -0.01883815    0.01850880    0.00000000
     atom    9 type  3   force =     0.01609533    0.00933237    0.00000000
     atom   10 type  3   force =    -0.04029303   -0.07990714    0.00000000
     atom   11 type  3   force =    -0.08933722    0.00482258    0.00000000
     atom   12 type  3   force =     0.07737814    0.04478526    0.00000000
     The ionic contribution  to forces
     atom    1 type  1   force =     0.05747993    0.03436167   14.34109041
     atom    2 type  1   force =    -1.38230907   -0.80087981   16.10456352
     atom    3 type  1   force =    -1.38230907   -0.80087981  -16.10456352
     atom    4 type  1   force =     0.05747993    0.03436167  -14.34109041
     atom    5 type  2   force =     0.68673708    0.39737251    4.67849727
     atom    6 type  2   force =     0.68673708    0.39737251   -4.67849727
     atom    7 type  2   force =    -0.12084497   -0.57009979    0.00000000
     atom    8 type  2   force =    -0.55478357    0.17884148    0.00000000
     atom    9 type  3   force =     1.54467519    0.89317204    0.00000000
     atom   10 type  3   force =     0.17597624    6.64735433    0.00000000
     atom   11 type  3   force =     5.85260215   -3.15588112    0.00000000
     atom   12 type  3   force =    -5.62144092   -3.25509569    0.00000000
     The local contribution  to forces
     atom    1 type  1   force =    -0.04232951   -0.02569672  -14.26865489
     atom    2 type  1   force =     1.39395473    0.80767076  -16.06460791
     atom    3 type  1   force =     1.39397155    0.80765194   16.06462978
     atom    4 type  1   force =    -0.04237984   -0.02570755   14.26865083
     atom    5 type  2   force =    -0.71568434   -0.41408740   -4.63529650
     atom    6 type  2   force =    -0.71567927   -0.41408391    4.63529166
     atom    7 type  2   force =     0.12440653    0.58995832   -0.00000572
     atom    8 type  2   force =     0.57381299   -0.18559991   -0.00000629
     atom    9 type  3   force =    -1.60789095   -0.92963188   -0.00000031
     atom   10 type  3   force =    -0.13459229   -6.57357840   -0.00001320
     atom   11 type  3   force =    -5.76797361    3.15491788   -0.00000457
     atom   12 type  3   force =     5.56835621    3.22424523    0.00002116
     The core correction contribution to forces
     atom    1 type  1   force =     0.00085334    0.00049808    0.00084086
     atom    2 type  1   force =    -0.00011826   -0.00006972   -0.00394843
     atom    3 type  1   force =    -0.00011519   -0.00006818    0.00394900
     atom    4 type  1   force =     0.00085137    0.00049703   -0.00084247
     atom    5 type  2   force =    -0.00255408   -0.00147546   -0.00047240
     atom    6 type  2   force =    -0.00255388   -0.00147532    0.00047271
     atom    7 type  2   force =    -0.00058681    0.00253719    0.00000015
     atom    8 type  2   force =     0.00190791   -0.00177047    0.00000011
     atom    9 type  3   force =    -0.00131586   -0.00077425   -0.00000022
     atom   10 type  3   force =     0.00178771    0.00589060   -0.00000134
     atom   11 type  3   force =     0.00600237   -0.00137672   -0.00000002
     atom   12 type  3   force =    -0.00512787   -0.00296413    0.00000025
     The Hubbard contrib.    to forces
     atom    1 type  1   force =     0.00000000    0.00000000    0.00000000
     atom    2 type  1   force =     0.00000000    0.00000000    0.00000000
     atom    3 type  1   force =     0.00000000    0.00000000    0.00000000
     atom    4 type  1   force =     0.00000000    0.00000000    0.00000000
     atom    5 type  2   force =     0.00000000    0.00000000    0.00000000
     atom    6 type  2   force =     0.00000000    0.00000000    0.00000000
     atom    7 type  2   force =     0.00000000    0.00000000    0.00000000
     atom    8 type  2   force =     0.00000000    0.00000000    0.00000000
     atom    9 type  3   force =     0.00000000    0.00000000    0.00000000
     atom   10 type  3   force =     0.00000000    0.00000000    0.00000000
     atom   11 type  3   force =     0.00000000    0.00000000    0.00000000
     atom   12 type  3   force =     0.00000000    0.00000000    0.00000000
     The SCF correction term to forces
     atom    1 type  1   force =    -0.00009941    0.00012030    0.00033099
     atom    2 type  1   force =     0.00006261   -0.00003686   -0.00000555
     atom    3 type  1   force =     0.00010189    0.00000651   -0.00000961
     atom    4 type  1   force =    -0.00008658    0.00011824   -0.00035492
     atom    5 type  2   force =    -0.00001204   -0.00003820    0.00007603
     atom    6 type  2   force =    -0.00001427   -0.00003955   -0.00007181
     atom    7 type  2   force =     0.00001752   -0.00000153    0.00000543
     atom    8 type  2   force =    -0.00001923   -0.00000062    0.00000602
     atom    9 type  3   force =     0.00015038   -0.00010567   -0.00000840
     atom   10 type  3   force =     0.00002759    0.00016968    0.00000529
     atom   11 type  3   force =     0.00010833    0.00009484    0.00001106
     atom   12 type  3   force =    -0.00015663    0.00003671   -0.00002384

     Total force =     0.195177     Total SCF correction =     0.000650

     Computing stress (Cartesian axis) and pressure

     negative rho (up, down):  2.512E-01 0.000E+00
          total   stress  (Ry/bohr**3)                   (kbar)     P=     -112.64
  -0.00106458  -0.00001717   0.00000000         -156.61       -2.53        0.00
  -0.00001717  -0.00104520   0.00000000           -2.53     -153.75        0.00
   0.00000000   0.00000000  -0.00018729            0.00        0.00      -27.55

     kinetic stress (kbar)  18320.73    -10.75      0.00
                              -10.75  18333.11      0.00
                                0.00      0.00  18649.04

     local   stress (kbar) -13097.32   2387.01      0.01
                             2387.01 -15837.50      0.01
                                0.01      0.01   9308.63

     nonloc. stress (kbar)   6061.29     22.98      0.00
                               22.98   6034.94      0.00
                                0.00      0.00   6042.34

     hartree stress (kbar)  12521.68  -1144.78     -0.00
                            -1144.78  13835.87     -0.01
                               -0.00     -0.01   1965.02

     exc-cor stress (kbar)   -768.76      0.04     -0.00
                                0.04   -768.80     -0.00
                               -0.00     -0.00   -768.45

     corecor stress (kbar)  -4122.77     -0.91     -0.00
                               -0.91  -4121.73     -0.00
                               -0.00     -0.00  -4121.92

     ewald   stress (kbar) -19071.46  -1256.11     -0.00
                            -1256.11 -17629.64      0.00
                               -0.00      0.00 -31102.19

     hubbard stress (kbar)      0.00      0.00      0.00
                                0.00      0.00      0.00
                                0.00      0.00      0.00

     DFT-D   stress (kbar)      0.00      0.00      0.00
                                0.00      0.00      0.00
                                0.00      0.00      0.00

     XDM     stress (kbar)      0.00      0.00      0.00
                                0.00      0.00      0.00
                                0.00      0.00      0.00

     dft-nl  stress (kbar)      0.00      0.00      0.00
                                0.00      0.00      0.00
                                0.00      0.00      0.00

     TS-vdW  stress (kbar)      0.00      0.00      0.00
                                0.00      0.00      0.00
                                0.00      0.00      0.00

[...]

                                0.00      0.00      0.00

     Writing all to output data dir calculations/myprefix.save/

     General routines

     Parallel routines

     PAW routines

   This run was terminated on:  12:18:29   6Mar2023

   JOB DONE.