     Program PWSCF v.7.0 starts on  3Mar2023 at 11: 8:52

     R & G space division:  proc/nbgrp/npool/nimage =      32

     Reading input from espresso_44.pwi
Warning: card &CELL ignored
Warning: card / ignored

     Current dimensions of program PWSCF are:
     Max number of different atomic species (ntypx) = 10
     Max number of k-points (npk) =  40000
     Max angular momentum in pseudopotentials (lmaxx) =  4
     file Cd.pbe-dn-rrkjus_psl.0.3.1.UPF: wavefunction(s)  4D renormalized

     gamma-point specific algorithms are used
     Message from routine setup:
     using ibrav=0 with symmetry is DISCOURAGED, use correct ibrav instead

     Using Slab Decomposition

     bravais-lattice index     =            0
     lattice parameter (alat)  =       8.3937  a.u.
     unit-cell volume          =     824.6497 (a.u.)^3
     number of atoms/cell      =            5
     number of atomic types    =            3
     number of electrons       =        58.00
     number of Kohn-Sham states=           35
     kinetic-energy cutoff     =      30.0000  Ry
     charge density cutoff     =     240.0000  Ry
     scf convergence threshold =      1.0E-06
     mixing beta               =       0.7000
     number of iterations used =            8  plain     mixing
     Exchange-correlation= PBE
                           (   1   4   3   4   0   0   0)

     celldm(1)=   8.393666  celldm(2)=   0.000000  celldm(3)=   0.000000
     celldm(4)=   0.000000  celldm(5)=   0.000000  celldm(6)=   0.000000

     crystal axes: (cart. coord. in units of alat)
               a(1) = (   1.000000   0.000000   0.000000 )
               a(2) = (  -0.500000   0.866025   0.000000 )
               a(3) = (   0.000000   0.000000   1.610215 )

     reciprocal axes: (cart. coord. in units 2 pi/alat)
               b(1) = (  1.000000  0.577351  0.000000 )
               b(2) = (  0.000000  1.154701  0.000000 )
               b(3) = (  0.000000  0.000000  0.621035 )

     PseudoPot. # 1 for Yb read from file:
     /home/pragov/projects/rrg-bengioy-ad/pragov/crystal_structure_design/SSSP/Yb.GGA-PBE-paw-v1.0.UPF
     MD5 check sum: 43b6465ad8021f06e3edb42ae292e187
     Pseudo is Projector augmented-wave + core cor, Zval = 24.0
     Generated using ATOMPAW code
     Shape of augmentation charge: BESSEL
     Using radial grid of 1117 points,  8 beta functions with:
                l(1) =   0
                l(2) =   0
                l(3) =   1
                l(4) =   1
                l(5) =   2
                l(6) =   2
                l(7) =   3
                l(8) =   3
     Q(r) pseudized with 0 coefficients

     PseudoPot. # 2 for Cd read from file:
     /home/pragov/projects/rrg-bengioy-ad/pragov/crystal_structure_design/SSSP/Cd.pbe-dn-rrkjus_psl.0.3.1.UPF
     MD5 check sum: 558e9f355611b531a870a69ef6ace9e2
     Pseudo is Ultrasoft + core correction, Zval = 12.0
     Generated using "atomic" code by A. Dal Corso  v.5.0.99 svn rev. 10869
     Using radial grid of 1239 points,  6 beta functions with:
                l(1) =   0
                l(2) =   0
                l(3) =   1
                l(4) =   1
                l(5) =   2
                l(6) =   2
     Q(r) pseudized with 0 coefficients

     PseudoPot. # 3 for As read from file:
     /home/pragov/projects/rrg-bengioy-ad/pragov/crystal_structure_design/SSSP/As.pbe-n-rrkjus_psl.0.2.UPF
     MD5 check sum: 767315de957beeeb34f87d97bf945c8f
     Pseudo is Ultrasoft + core correction, Zval =  5.0
     Generated using "atomic" code by A. Dal Corso  v.5.0.99 svn rev. 10869
     Using radial grid of 1209 points,  4 beta functions with:
                l(1) =   0
                l(2) =   0
                l(3) =   1
                l(4) =   1
     Q(r) pseudized with 0 coefficients

     atomic species   valence    mass     pseudopotential
        Yb            24.00   173.05400     Yb( 1.00)
        Cd            12.00   112.41400     Cd( 1.00)
        As             5.00    74.92159     As( 1.00)

     12 Sym. Ops., with inversion, found

                                    s                        frac. trans.

      isym =  1     identity

 cryst.   s( 1) = (     1          0          0      )
                  (     0          1          0      )
                  (     0          0          1      )

 cart.    s( 1) = (  1.0000000 -0.0000000  0.0000000 )
                  (  0.0000000  1.0000000  0.0000000 )
                  (  0.0000000  0.0000000  1.0000000 )

      isym =  2     180 deg rotation - cart. axis [1,0,0]

[...]

      isym =  3     120 deg rotation - cryst. axis [0,0,1]

[...]

      isym =  6     180 deg rotation - cryst. axis [1,1,0]

[...]

      isym =  7     inversion

[...]

      isym =  8     inv. 180 deg rotation - cart. axis [1,0,0]

[...]

      isym =  9     inv. 120 deg rotation - cryst. axis [0,0,1]

 cryst.   s( 9) = (     0         -1          0      )
                  (     1          1          0      )
                  (     0          0         -1      )

 cart.    s( 9) = (  0.5000002  0.8660255  0.0000000 )
                  ( -0.8660253  0.4999998  0.0000000 )
                  (  0.0000000  0.0000000 -1.0000000 )

[...]

 cryst.   s(10) = (     1          1          0      )
                  (    -1          0          0      )
                  (     0          0         -1      )

 cart.    s(10) = (  0.4999998 -0.8660255  0.0000000 )
                  (  0.8660253  0.5000002  0.0000000 )
                  (  0.0000000  0.0000000 -1.0000000 )

[...]

      isym = 12     inv. 180 deg rotation - cryst. axis [1,1,0]

 cryst.   s(12) = (     0         -1          0      )
                  (    -1          0          0      )
                  (     0          0          1      )

 cart.    s(12) = (  0.5000002 -0.8660253  0.0000000 )
                  ( -0.8660253 -0.5000002  0.0000000 )
                  (  0.0000000  0.0000000  1.0000000 )

   Cartesian axes

     site n.     atom                  positions (alat units)
         1           Yb  tau(   1) = (   0.0000000   0.0000000   0.0000000  )
         2           Cd  tau(   2) = (  -0.0000006   0.5773505   1.0267343  )
         3           Cd  tau(   3) = (   0.5000004   0.2886748   0.5834807  )
         4           As  tau(   4) = (  -0.0000006   0.5773505   0.3747695  )
         5           As  tau(   5) = (   0.5000004   0.2886748   1.2354455  )

   Crystallographic axes

     site n.     atom                  positions (cryst. coord.)
         1           Yb  tau(   1) = (  0.0000000  0.0000000  0.0000000  )
         2           Cd  tau(   2) = (  0.3333330  0.6666670  0.6376380  )
         3           Cd  tau(   3) = (  0.6666670  0.3333330  0.3623620  )
         4           As  tau(   4) = (  0.3333330  0.6666670  0.2327450  )
         5           As  tau(   5) = (  0.6666670  0.3333330  0.7672550  )

     number of k points=     1  Methfessel-Paxton smearing, width (Ry)=  0.0010
                       cart. coord. in units 2pi/alat
        k(    1) = (   0.0000000   0.0000000   0.0000000), wk =   2.0000000

                       cryst. coord.
        k(    1) = (   0.0000000   0.0000000   0.0000000), wk =   2.0000000

     Initial potential from superposition of free atoms

     starting charge      57.9857, renormalised to      58.0000
     Starting wfcs are   58 randomized atomic wfcs
     Checking if some PAW data can be deallocated...

     Self-consistent Calculation

     iteration #  1     ecut=    30.00 Ry     beta= 0.70
     Davidson diagonalization with overlap

     ethr =  1.00E-02,  avg # of iterations =  2.0

     total energy              =   -1290.38104581 Ry
     estimated scf accuracy    <       1.01140446 Ry

[...]

     total energy              =   -1291.17855195 Ry
     estimated scf accuracy    <       0.00000411 Ry

     iteration # 21     ecut=    30.00 Ry     beta= 0.70
     Davidson diagonalization with overlap

     ethr =  7.09E-09,  avg # of iterations =  1.0

     End of self-consistent calculation

          k = 0.0000 0.0000 0.0000 (  1149 PWs)   bands (ev):

   -42.5490 -15.0290 -14.5931 -14.5930  -1.8435  -1.2447   0.2522   0.2522
     0.2784   0.2784   0.6007   0.6007   0.6911   0.8505   0.8506   0.9938
     4.3417   8.1710   8.1711   8.6425   8.6450   8.6450   8.8100   8.8100
     8.9142   9.0767   9.4734   9.7633   9.8510   9.8510  10.1057  11.6175
    11.8995  11.8996  13.3525

     occupation numbers
     1.0000   1.0000   1.0000   1.0000   1.0000   1.0000   1.0000   1.0000
     1.0000   1.0000   1.0000   1.0000   1.0000   1.0000   1.0000   1.0000
     1.0000   1.0000   1.0000   1.0000   1.0000   1.0000   1.0000   1.0000
     1.0000   1.0000   1.0000   1.0000   0.5008   0.4992  -0.0000  -0.0000
    -0.0000  -0.0000  -0.0000

     the Fermi energy is     9.8510 ev

!    total energy              =   -1291.17855149 Ry
     estimated scf accuracy    <       0.00000077 Ry
     smearing contrib. (-TS)   =      -0.00056419 Ry
     internal energy E=F+TS    =   -1291.17798730 Ry

     The total energy is F=E-TS. E is the sum of the following terms:
     one-electron contribution =    -507.56073596 Ry
     hartree contribution      =     259.28251582 Ry
     xc contribution           =    -142.49927342 Ry
     ewald contribution        =    -416.10709828 Ry
     one-center paw contrib.   =    -484.29339545 Ry
      -> PAW hartree energy AE =     448.10627032 Ry
      -> PAW hartree energy PS =    -384.76085176 Ry
      -> PAW xc energy AE      =    -584.71829551 Ry
      -> PAW xc energy PS      =      37.07948151 Ry
      -> total E_H with PAW    =     322.62793437 Ry
      -> total E_XC with PAW   =    -690.13808743 Ry

     convergence has been achieved in  21 iterations

     Forces acting on atoms (cartesian axes, Ry/au):

     atom    1 type  1   force =     0.00000000    0.00000000    0.00000000
     atom    2 type  2   force =     0.00000000    0.00000000   -0.00875818
     atom    3 type  2   force =     0.00000000    0.00000000    0.00875818
     atom    4 type  3   force =     0.00000000   -0.00000000   -0.22904888
     atom    5 type  3   force =     0.00000000    0.00000000    0.22904888
     The non-local contrib.  to forces
     atom    1 type  1   force =     0.00000000    0.00000000    0.00000000
     atom    2 type  2   force =     0.00000000    0.00000000   -0.27869879
     atom    3 type  2   force =     0.00000000    0.00000000    0.27869879
     atom    4 type  3   force =     0.00000000    0.00000000    0.00742025
     atom    5 type  3   force =     0.00000000    0.00000000   -0.00742025
     The ionic contribution  to forces
     atom    1 type  1   force =    -0.00000000    0.00000000   -0.00000000
     atom    2 type  2   force =     0.00002881   -0.00001663   -4.82886705
     atom    3 type  2   force =    -0.00002881    0.00001663    4.82886705
     atom    4 type  3   force =     0.00001975   -0.00001140    2.59976229
     atom    5 type  3   force =    -0.00001975    0.00001140   -2.59976229
     The local contribution  to forces
     atom    1 type  1   force =     0.00015991    0.00044870    0.00255112
     atom    2 type  2   force =     0.00044591    0.00013121    5.09458935
     atom    3 type  2   force =    -0.00042813   -0.00002188   -5.09707075
     atom    4 type  3   force =    -0.00003129   -0.00003998   -2.83113970
     atom    5 type  3   force =    -0.00001283    0.00000533    2.83218666
     The core correction contribution to forces
     atom    1 type  1   force =     0.00000000    0.00000000   -0.00000000
     atom    2 type  2   force =     0.00001387   -0.00000023    0.00418693
     atom    3 type  2   force =    -0.00001398    0.00000552   -0.00419161
     atom    4 type  3   force =    -0.00000554   -0.00001072   -0.00508805
     atom    5 type  3   force =    -0.00000089    0.00000468    0.00521978
     The Hubbard contrib.    to forces
     atom    1 type  1   force =     0.00000000    0.00000000    0.00000000
     atom    2 type  2   force =     0.00000000    0.00000000    0.00000000
     atom    3 type  2   force =     0.00000000    0.00000000    0.00000000
     atom    4 type  3   force =     0.00000000    0.00000000    0.00000000
     atom    5 type  3   force =     0.00000000    0.00000000    0.00000000
     The SCF correction term to forces
     atom    1 type  1   force =    -0.00022055   -0.00051762   -0.00257692
     atom    2 type  2   force =    -0.00037868   -0.00021147    0.00011560
     atom    3 type  2   force =     0.00036807    0.00013495    0.00253891
     atom    4 type  3   force =    -0.00000633    0.00000406    0.00044272
     atom    5 type  3   force =     0.00002454    0.00001528   -0.00072862

     Total force =     0.324161     Total SCF correction =     0.003806

     Computing stress (Cartesian axis) and pressure

          total   stress  (Ry/bohr**3)                   (kbar)     P=      138.17
   0.00141968   0.00000000   0.00000000          208.84        0.00        0.00
   0.00000000   0.00141968   0.00000000            0.00      208.84        0.00
   0.00000000   0.00000000  -0.00002158            0.00        0.00       -3.17

     kinetic stress (kbar)  13209.68      0.00      0.00
                                0.00  13209.68      0.00
                                0.00      0.00  12820.26

     local   stress (kbar)  -2528.12      0.24     -0.47
                                0.24  -2528.30     -0.36
                               -0.47     -0.36   2355.17

     nonloc. stress (kbar)   2378.89      0.00      0.00
                                0.00   2378.89     -0.00
                                0.00      0.00   2328.82

     hartree stress (kbar)  16258.91     -0.04      0.29
                               -0.04  16258.84      0.23
                                0.29      0.23  13734.35

     exc-cor stress (kbar)   6287.98     -0.01      0.00
                               -0.01   6287.98      0.00
                                0.00      0.00   6282.59

     corecor stress (kbar) -11370.21      0.02     -0.01
                                0.02 -11370.23     -0.00
                               -0.01     -0.00 -11353.42

     ewald   stress (kbar) -24028.16      0.01     -0.00
                                0.01 -24028.15      0.00
                               -0.00      0.00 -26170.93

     hubbard stress (kbar)      0.00      0.00      0.00
                                0.00      0.00      0.00
                                0.00      0.00      0.00

     DFT-D   stress (kbar)      0.00      0.00      0.00
                                0.00      0.00      0.00
                                0.00      0.00      0.00

     XDM     stress (kbar)      0.00      0.00      0.00
                                0.00      0.00      0.00
                                0.00      0.00      0.00

     dft-nl  stress (kbar)      0.00      0.00      0.00
                                0.00      0.00      0.00
                                0.00      0.00      0.00

     TS-vdW  stress (kbar)      0.00      0.00      0.00
                                0.00      0.00      0.00
                                0.00      0.00      0.00

[...]

                                0.00      0.00      0.00

     Writing all to output data dir calculations/myprefix.save/

     General routines

     Parallel routines

     PAW routines

   This run was terminated on:  11: 9: 0   3Mar2023

   JOB DONE.