     Program PWSCF v.7.0 starts on  6Mar2023 at 13: 8:22

     R & G space division:  proc/nbgrp/npool/nimage =      32

     Reading input from espresso_4714.pwi
Warning: card &CELL ignored
Warning: card / ignored

     Current dimensions of program PWSCF are:
     Max number of different atomic species (ntypx) = 10
     Max number of k-points (npk) =  40000
     Max angular momentum in pseudopotentials (lmaxx) =  4
     file In.pbe-dn-rrkjus_psl.0.2.2.UPF: wavefunction(s)  5S renormalized

     gamma-point specific algorithms are used
     Message from routine setup:
     using ibrav=0 with symmetry is DISCOURAGED, use correct ibrav instead

     Using Slab Decomposition

     bravais-lattice index     =            0
     lattice parameter (alat)  =      11.4393  a.u.
     unit-cell volume          =    2178.6041 (a.u.)^3
     number of atoms/cell      =           20
     number of atomic types    =            3
     number of electrons       =       224.00
     number of Kohn-Sham states=          134
     kinetic-energy cutoff     =      30.0000  Ry
     charge density cutoff     =     240.0000  Ry
     scf convergence threshold =      1.0E-06
     mixing beta               =       0.7000
     number of iterations used =            8  plain     mixing
     Exchange-correlation=  SLA  PW   PBX  PBC
                           (   1   4   3   4   0   0   0)

     celldm(1)=  11.439271  celldm(2)=   0.000000  celldm(3)=   0.000000
     celldm(4)=   0.000000  celldm(5)=   0.000000  celldm(6)=   0.000000

     crystal axes: (cart. coord. in units of alat)
               a(1) = (   1.000000   0.000000   0.000000 )
               a(2) = (   0.000000   1.014926   0.000000 )
               a(3) = (  -0.016021   0.000000   1.433998 )

     reciprocal axes: (cart. coord. in units 2 pi/alat)
               b(1) = (  1.000000  0.000000  0.011172 )
               b(2) = (  0.000000  0.985293  0.000000 )
               b(3) = (  0.000000  0.000000  0.697351 )

     PseudoPot. # 1 for In read from file:
     /home/pragov/projects/rrg-bengioy-ad/pragov/crystal_structure_design/SSSP/In.pbe-dn-rrkjus_psl.0.2.2.UPF
     MD5 check sum: 25e7c42c3b55b68f4bf926be2e7201a4
     Pseudo is Ultrasoft + core correction, Zval = 13.0
     Generated using "atomic" code by A. Dal Corso  v.5.0.99 svn rev. 10869
     Using radial grid of 1241 points,  6 beta functions with:
                l(1) =   0
                l(2) =   0
                l(3) =   1
                l(4) =   1
                l(5) =   2
                l(6) =   2
     Q(r) pseudized with 0 coefficients

     PseudoPot. # 2 for Ag read from file:
     /home/pragov/projects/rrg-bengioy-ad/pragov/crystal_structure_design/SSSP/Ag_ONCV_PBE-1.0.oncvpsp.upf
     MD5 check sum: 94f47bd0669c641108e45594df92fabc
     Pseudo is Norm-conserving, Zval = 19.0
     Generated using ONCVPSP code by D. R. Hamann
     Using radial grid of 1398 points,  6 beta functions with:
                l(1) =   0
                l(2) =   0
                l(3) =   1
                l(4) =   1
                l(5) =   2
                l(6) =   2

     PseudoPot. # 3 for F  read from file:
     /home/pragov/projects/rrg-bengioy-ad/pragov/crystal_structure_design/SSSP/f_pbe_v1.4.uspp.F.UPF
     MD5 check sum: 4c38b6a325caf53ec0e86aed9459de46
     Pseudo is Ultrasoft, Zval =  7.0
     Generated by new atomic code, or converted to UPF format
     Using radial grid of  799 points,  4 beta functions with:
                l(1) =   0
                l(2) =   0
                l(3) =   1
                l(4) =   1
     Q(r) pseudized with  8 coefficients,  rinner =    0.950   0.950   0.950

     atomic species   valence    mass     pseudopotential
        In            13.00   114.81800     In( 1.00)
        Ag            19.00   107.86820     Ag( 1.00)
        F              7.00    18.99840     F ( 1.00)

      4 Sym. Ops., with inversion, found ( 2 have fractional translation)

                                    s                        frac. trans.

      isym =  1     identity

 cryst.   s( 1) = (     1          0          0      )
                  (     0          1          0      )
                  (     0          0          1      )

 cart.    s( 1) = (  1.0000000  0.0000000 -0.0000000 )
                  (  0.0000000  1.0000000  0.0000000 )
                  (  0.0000000  0.0000000  1.0000000 )

      isym =  2     180 deg rotation - cart. axis [0,1,0]

 cryst.   s( 2) = (    -1          0          0      )    f =( -0.5000000 )
                  (     0          1          0      )       ( -0.5000000 )
                  (     0          0         -1      )       (  0.5000000 )

 cart.    s( 2) = ( -1.0000000  0.0000000  0.0000000 )    f =( -0.5080103 )
                  (  0.0000000  1.0000000  0.0000000 )       ( -0.5074632 )
                  (  0.0000000  0.0000000 -1.0000000 )       (  0.7169992 )

      isym =  3     inversion

 cryst.   s( 3) = (    -1          0          0      )
                  (     0         -1          0      )
                  (     0          0         -1      )

 cart.    s( 3) = ( -1.0000000  0.0000000  0.0000000 )
                  (  0.0000000 -1.0000000  0.0000000 )
                  (  0.0000000  0.0000000 -1.0000000 )

      isym =  4     inv. 180 deg rotation - cart. axis [0,1,0]

 cryst.   s( 4) = (     1          0          0      )    f =(  0.5000000 )
                  (     0         -1          0      )       (  0.5000000 )
                  (     0          0          1      )       ( -0.5000000 )

 cart.    s( 4) = (  1.0000000  0.0000000 -0.0000000 )    f =(  0.5080103 )
                  (  0.0000000 -1.0000000  0.0000000 )       (  0.5074632 )
                  (  0.0000000  0.0000000  1.0000000 )       ( -0.7169992 )

   Cartesian axes

     site n.     atom                  positions (alat units)
         1           In  tau(   1) = (   0.0000000   0.0000000   0.0000000  )
         2           In  tau(   2) = (   0.4919897   0.5074632   0.7169992  )
         3           Ag  tau(   3) = (  -0.0080103   0.0000000   0.7169992  )
         4           Ag  tau(   4) = (   0.5000000   0.5074632   0.0000000  )
         5           Ag  tau(   5) = (   0.9809441   0.5663441   0.3668914  )
         6           Ag  tau(   6) = (   0.0030354   0.4485822   1.0671071  )
         7           Ag  tau(   7) = (   0.5110456   0.0588810   0.3501079  )
         8           Ag  tau(   8) = (   0.4729339   0.9560454   1.0838906  )
         9           F   tau(   9) = (   0.8398467   0.2898883   0.1111134  )
        10           F   tau(  10) = (   0.1441328   0.7250380   1.3228851  )
        11           F   tau(  11) = (   0.6521431   0.7973515   0.6058859  )
        12           F   tau(  12) = (   0.3318364   0.2175748   0.8281126  )
        13           F   tau(  13) = (   0.1219159   0.9462879   0.3225163  )
        14           F   tau(  14) = (   0.8620636   0.0686385   1.1114822  )
        15           F   tau(  15) = (   0.3700739   0.4388247   0.3944829  )
        16           F   tau(  16) = (   0.6139056   0.5761016   1.0395155  )
        17           F   tau(  17) = (   0.7090829   0.8401012   0.0825338  )
        18           F   tau(  18) = (   0.2748966   0.1748251   1.3514647  )
        19           F   tau(  19) = (   0.7829068   0.3326381   0.6344654  )
        20           F   tau(  20) = (   0.2010727   0.6822883   0.7995330  )

   Crystallographic axes

     site n.     atom                  positions (cryst. coord.)
         1           In  tau(   1) = (  0.0000000  0.0000000  0.0000000  )
         2           In  tau(   2) = (  0.5000000  0.5000000  0.5000000  )
         3           Ag  tau(   3) = ( -0.0000000  0.0000000  0.5000000  )
         4           Ag  tau(   4) = (  0.5000000  0.5000000  0.0000000  )
         5           Ag  tau(   5) = (  0.9850430  0.5580150  0.2558520  )
         6           Ag  tau(   6) = (  0.0149570  0.4419850  0.7441480  )
         7           Ag  tau(   7) = (  0.5149570  0.0580150  0.2441480  )
         8           Ag  tau(   8) = (  0.4850430  0.9419850  0.7558520  )
         9           F   tau(   9) = (  0.8410880  0.2856250  0.0774850  )
        10           F   tau(  10) = (  0.1589120  0.7143750  0.9225150  )
        11           F   tau(  11) = (  0.6589120  0.7856250  0.4225150  )
        12           F   tau(  12) = (  0.3410880  0.2143750  0.5774850  )
        13           F   tau(  13) = (  0.1255190  0.9323710  0.2249070  )
        14           F   tau(  14) = (  0.8744810  0.0676290  0.7750930  )
        15           F   tau(  15) = (  0.3744810  0.4323710  0.2750930  )
        16           F   tau(  16) = (  0.6255190  0.5676290  0.7249070  )
        17           F   tau(  17) = (  0.7100050  0.8277460  0.0575550  )
        18           F   tau(  18) = (  0.2899950  0.1722540  0.9424450  )
        19           F   tau(  19) = (  0.7899950  0.3277460  0.4424450  )
        20           F   tau(  20) = (  0.2100050  0.6722540  0.5575550  )

     number of k points=     1  Methfessel-Paxton smearing, width (Ry)=  0.0010
                       cart. coord. in units 2pi/alat
        k(    1) = (   0.0000000   0.0000000   0.0000000), wk =   2.0000000

                       cryst. coord.
        k(    1) = (   0.0000000   0.0000000   0.0000000), wk =   2.0000000

     Initial potential from superposition of free atoms

     starting charge     223.9908, renormalised to     224.0000
     Starting wfcs are  126 randomized atomic wfcs +    8 random wfcs

     Self-consistent Calculation

     iteration #  1     ecut=    30.00 Ry     beta= 0.70
     Davidson diagonalization with overlap

     ethr =  1.00E-02,  avg # of iterations =  7.0

     total energy              =   -2594.81091280 Ry
     estimated scf accuracy    <       2.34036212 Ry

[...]

     total energy              =   -2595.72688526 Ry
     estimated scf accuracy    <       0.00000148 Ry

     iteration #  9     ecut=    30.00 Ry     beta= 0.70
     Davidson diagonalization with overlap

     ethr =  6.63E-10,  avg # of iterations =  2.0

     End of self-consistent calculation

          k = 0.0000 0.0000 0.0000 (  3019 PWs)   bands (ev):

   -84.0789 -84.0789 -84.0789 -84.0789 -83.8780 -83.8779 -47.1517 -47.1514
   -47.1493 -47.1474 -47.1350 -47.1345 -47.1317 -47.1316 -47.1280 -47.1276
   -47.1271 -47.1270 -46.9715 -46.9700 -46.9333 -46.9301 -46.9226 -46.9202
   -16.0843 -16.0044 -15.9046 -15.8698 -15.8253 -15.8137 -15.7026 -15.6888
   -15.6655 -15.6391 -15.5649 -15.5589  -6.8855  -6.8840  -6.8672  -6.8665
    -6.8628  -6.8624  -6.8314  -6.8270  -6.7983  -6.7948   0.0406   0.0429
     1.4362   1.5868   1.5908   1.6243   1.6315   1.8610   1.8681   2.0356
     2.0632   2.1739   2.2185   2.2865   2.3311   2.5293   2.5444   2.7153
     2.7476   2.7552   2.7614   2.8022   2.8166   2.8899   2.9159   2.9363
     2.9854   3.0152   3.0629   3.0861   3.1882   3.1886   3.2015   3.2773
     3.3599   3.4101   4.7719   4.7745   4.7912   4.8091   4.8159   4.8231
     4.8550   4.8851   4.9124   4.9322   4.9829   4.9884   5.0017   5.0140
     5.0540   5.0913   5.1434   5.1804   5.2236   5.2361   5.3507   5.3576
     5.4369   5.5047   5.5620   5.5775   5.6693   5.7134   5.9277   5.9329
     6.7566   9.6257   9.7072  11.2297  11.2905  11.4206  11.9668  12.5319
    12.5792  12.6077  14.1510  14.3849  14.6874  14.8316  14.8581  14.8931
    14.9255  15.1757  15.2408  15.4635  16.3646  16.3976

     occupation numbers
     1.0000   1.0000   1.0000   1.0000   1.0000   1.0000   1.0000   1.0000
     1.0000   1.0000   1.0000   1.0000   1.0000   1.0000   1.0000   1.0000
     1.0000   1.0000   1.0000   1.0000   1.0000   1.0000   1.0000   1.0000
     1.0000   1.0000   1.0000   1.0000   1.0000   1.0000   1.0000   1.0000
     1.0000   1.0000   1.0000   1.0000   1.0000   1.0000   1.0000   1.0000
     1.0000   1.0000   1.0000   1.0000   1.0000   1.0000   1.0000   1.0000
     1.0000   1.0000   1.0000   1.0000   1.0000   1.0000   1.0000   1.0000
     1.0000   1.0000   1.0000   1.0000   1.0000   1.0000   1.0000   1.0000
     1.0000   1.0000   1.0000   1.0000   1.0000   1.0000   1.0000   1.0000
     1.0000   1.0000   1.0000   1.0000   1.0000   1.0000   1.0000   1.0000
     1.0000   1.0000   1.0000   1.0000   1.0000   1.0000   1.0000   1.0000
     1.0000   1.0000   1.0000   1.0000   1.0000   1.0000   1.0000   1.0000
     1.0000   1.0000   1.0000   1.0000   1.0000   1.0000   1.0000   1.0000
     1.0000   1.0000   1.0000   1.0000   1.0000   1.0000   1.0000   1.0000
    -0.0000  -0.0000  -0.0000  -0.0000  -0.0000  -0.0000  -0.0000  -0.0000
    -0.0000  -0.0000  -0.0000  -0.0000  -0.0000  -0.0000  -0.0000  -0.0000
    -0.0000  -0.0000  -0.0000  -0.0000  -0.0000  -0.0000

     the Fermi energy is     6.3014 ev

!    total energy              =   -2595.72688558 Ry
     estimated scf accuracy    <       0.00000011 Ry
     smearing contrib. (-TS)   =       0.00000000 Ry
     internal energy E=F+TS    =   -2595.72688558 Ry

     The total energy is F=E-TS. E is the sum of the following terms:
     one-electron contribution =   -1346.22070678 Ry
     hartree contribution      =     777.19798084 Ry
     xc contribution           =    -370.37876149 Ry
     ewald contribution        =   -1656.32539814 Ry

     convergence has been achieved in   9 iterations

     Forces acting on atoms (cartesian axes, Ry/au):

     atom    1 type  1   force =     0.00000000    0.00000000   -0.00000000
     atom    2 type  1   force =     0.00000000    0.00000000    0.00000000
     atom    3 type  2   force =     0.00000000    0.00000000    0.00000000
     atom    4 type  2   force =     0.00000000    0.00000000    0.00000000
     atom    5 type  2   force =     0.00019718   -0.00557925    0.00014194
     atom    6 type  2   force =    -0.00019718    0.00557925   -0.00014194
     atom    7 type  2   force =    -0.00019718   -0.00557925   -0.00014194
     atom    8 type  2   force =     0.00019718    0.00557925    0.00014194
     atom    9 type  3   force =     0.00534079    0.00613335    0.00541506
     atom   10 type  3   force =    -0.00534079   -0.00613335   -0.00541506
     atom   11 type  3   force =    -0.00534079    0.00613335   -0.00541506
     atom   12 type  3   force =     0.00534079   -0.00613335    0.00541506
     atom   13 type  3   force =    -0.00232475    0.00133632    0.00692744
     atom   14 type  3   force =     0.00232475   -0.00133632   -0.00692744
     atom   15 type  3   force =     0.00232475    0.00133632   -0.00692744
     atom   16 type  3   force =    -0.00232475   -0.00133632    0.00692744
     atom   17 type  3   force =    -0.00837099    0.00019625   -0.00019391
     atom   18 type  3   force =     0.00837099   -0.00019625    0.00019391
     atom   19 type  3   force =     0.00837099    0.00019625    0.00019391
     atom   20 type  3   force =    -0.00837099   -0.00019625   -0.00019391
     The non-local contrib.  to forces
     atom    1 type  1   force =     0.00000000    0.00000000    0.00000000
     atom    2 type  1   force =     0.00000000    0.00000000    0.00000000
     atom    3 type  2   force =     0.00000000    0.00000000    0.00000000
     atom    4 type  2   force =    -0.00000000    0.00000000   -0.00000000
     atom    5 type  2   force =    -0.00599542    0.06482463   -0.00704666
     atom    6 type  2   force =     0.00599542   -0.06482463    0.00704666
     atom    7 type  2   force =     0.00599542    0.06482463    0.00704666
     atom    8 type  2   force =    -0.00599542   -0.06482463   -0.00704666
     atom    9 type  3   force =     0.27553159   -0.46350033   -0.14050564
     atom   10 type  3   force =    -0.27553159    0.46350033    0.14050564
     atom   11 type  3   force =    -0.27553159   -0.46350033    0.14050564
     atom   12 type  3   force =     0.27553159    0.46350033   -0.14050564
     atom   13 type  3   force =    -0.20094765    0.00693997   -0.53534694
     atom   14 type  3   force =     0.20094765   -0.00693997    0.53534694
     atom   15 type  3   force =     0.20094765    0.00693997    0.53534694
     atom   16 type  3   force =    -0.20094765   -0.00693997   -0.53534694
     atom   17 type  3   force =     0.48284511    0.30312765   -0.10297798
     atom   18 type  3   force =    -0.48284511   -0.30312765    0.10297798
     atom   19 type  3   force =    -0.48284511    0.30312765    0.10297798
     atom   20 type  3   force =     0.48284511   -0.30312765   -0.10297798
     The ionic contribution  to forces
     atom    1 type  1   force =    -0.00000000   -0.00000000    0.00000000
     atom    2 type  1   force =     0.00000000   -0.00000000   -0.00000000
     atom    3 type  2   force =    -0.00000000   -0.00000000    0.00000000
     atom    4 type  2   force =     0.00000000    0.00000000    0.00000000
     atom    5 type  2   force =     2.02990757   -2.32999474   -1.41539419
     atom    6 type  2   force =    -2.02990757    2.32999474    1.41539419
     atom    7 type  2   force =    -2.02990757   -2.32999474    1.41539419
     atom    8 type  2   force =     2.02990757    2.32999474   -1.41539419
     atom    9 type  3   force =     0.41677728    1.52877577   -0.47653244
     atom   10 type  3   force =    -0.41677728   -1.52877577    0.47653244
     atom   11 type  3   force =    -0.41677728    1.52877577    0.47653244
     atom   12 type  3   force =     0.41677728   -1.52877577   -0.47653244
     atom   13 type  3   force =     1.89222843    1.30008352    1.84822113
     atom   14 type  3   force =    -1.89222843   -1.30008352   -1.84822113
     atom   15 type  3   force =    -1.89222843    1.30008352   -1.84822113
     atom   16 type  3   force =     1.89222843   -1.30008352    1.84822113
     atom   17 type  3   force =    -1.60861335   -1.53653474   -0.56543145
     atom   18 type  3   force =     1.60861335    1.53653474    0.56543145
     atom   19 type  3   force =     1.60861334   -1.53653473    0.56543145
     atom   20 type  3   force =    -1.60861334    1.53653474   -0.56543145
     The local contribution  to forces
     atom    1 type  1   force =    -0.00000406    0.00001299   -0.00001435
     atom    2 type  1   force =    -0.00000009   -0.00000467   -0.00000220
     atom    3 type  2   force =    -0.00001153    0.00001542    0.00001698
     atom    4 type  2   force =     0.00001327   -0.00001189    0.00001056
     atom    5 type  2   force =    -2.02376876    2.25958876    1.42227059
     atom    6 type  2   force =     2.02376238   -2.25961342   -1.42227455
     atom    7 type  2   force =     2.02381328    2.25966174   -1.42230225
     atom    8 type  2   force =    -2.02380361   -2.25965578    1.42230291
     atom    9 type  3   force =    -0.68698140   -1.05906102    0.62246506
     atom   10 type  3   force =     0.68698005    1.05905986   -0.62246866
     atom   11 type  3   force =     0.68699390   -1.05906502   -0.62246183
     atom   12 type  3   force =    -0.68698856    1.05906855    0.62246887
     atom   13 type  3   force =    -1.69359771   -1.30569269   -1.30589646
     atom   14 type  3   force =     1.69359832    1.30570070    1.30589729
     atom   15 type  3   force =     1.69360763   -1.30571689    1.30589805
     atom   16 type  3   force =    -1.69360856    1.30571346   -1.30589905
     atom   17 type  3   force =     1.11741587    1.23357801    0.66823845
     atom   18 type  3   force =    -1.11741618   -1.23357614   -0.66823822
     atom   19 type  3   force =    -1.11740950    1.23357275   -0.66822954
     atom   20 type  3   force =     1.11740525   -1.23357441    0.66823363
     The core correction contribution to forces
     atom    1 type  1   force =     0.00000098   -0.00000039    0.00000036
     atom    2 type  1   force =    -0.00000032    0.00000034    0.00000044
     atom    3 type  2   force =     0.00000000    0.00000000    0.00000000
     atom    4 type  2   force =     0.00000000    0.00000000    0.00000000
     atom    5 type  2   force =     0.00000000    0.00000000    0.00000000
     atom    6 type  2   force =     0.00000000    0.00000000    0.00000000
     atom    7 type  2   force =     0.00000000    0.00000000    0.00000000
     atom    8 type  2   force =     0.00000000    0.00000000    0.00000000
     atom    9 type  3   force =     0.00000000    0.00000000    0.00000000
     atom   10 type  3   force =     0.00000000    0.00000000    0.00000000
     atom   11 type  3   force =     0.00000000    0.00000000    0.00000000
     atom   12 type  3   force =     0.00000000    0.00000000    0.00000000
     atom   13 type  3   force =     0.00000000    0.00000000    0.00000000
     atom   14 type  3   force =     0.00000000    0.00000000    0.00000000
     atom   15 type  3   force =     0.00000000    0.00000000    0.00000000
     atom   16 type  3   force =     0.00000000    0.00000000    0.00000000
     atom   17 type  3   force =     0.00000000    0.00000000    0.00000000
     atom   18 type  3   force =     0.00000000    0.00000000    0.00000000
     atom   19 type  3   force =     0.00000000    0.00000000    0.00000000
     atom   20 type  3   force =     0.00000000    0.00000000    0.00000000
     The Hubbard contrib.    to forces
     atom    1 type  1   force =     0.00000000    0.00000000    0.00000000
     atom    2 type  1   force =     0.00000000    0.00000000    0.00000000
     atom    3 type  2   force =     0.00000000    0.00000000    0.00000000
     atom    4 type  2   force =     0.00000000    0.00000000    0.00000000
     atom    5 type  2   force =     0.00000000    0.00000000    0.00000000
     atom    6 type  2   force =     0.00000000    0.00000000    0.00000000
     atom    7 type  2   force =     0.00000000    0.00000000    0.00000000
     atom    8 type  2   force =     0.00000000    0.00000000    0.00000000
     atom    9 type  3   force =     0.00000000    0.00000000    0.00000000
     atom   10 type  3   force =     0.00000000    0.00000000    0.00000000
     atom   11 type  3   force =     0.00000000    0.00000000    0.00000000
     atom   12 type  3   force =     0.00000000    0.00000000    0.00000000
     atom   13 type  3   force =     0.00000000    0.00000000    0.00000000
     atom   14 type  3   force =     0.00000000    0.00000000    0.00000000
     atom   15 type  3   force =     0.00000000    0.00000000    0.00000000
     atom   16 type  3   force =     0.00000000    0.00000000    0.00000000
     atom   17 type  3   force =     0.00000000    0.00000000    0.00000000
     atom   18 type  3   force =     0.00000000    0.00000000    0.00000000
     atom   19 type  3   force =     0.00000000    0.00000000    0.00000000
     atom   20 type  3   force =     0.00000000    0.00000000    0.00000000
     The SCF correction term to forces
     atom    1 type  1   force =     0.00001272   -0.00002101    0.00002193
     atom    2 type  1   force =    -0.00000361    0.00000983    0.00000344
     atom    3 type  2   force =     0.00001530   -0.00001908   -0.00002230
     atom    4 type  2   force =    -0.00001656    0.00001615   -0.00001492
     atom    5 type  2   force =     0.00004488    0.00003024    0.00027882
     atom    6 type  2   force =    -0.00003116    0.00001102   -0.00027159
     atom    7 type  2   force =    -0.00011726   -0.00009336   -0.00031513
     atom    8 type  2   force =     0.00009483    0.00008216    0.00031531
     atom    9 type  3   force =     0.00001901   -0.00008673   -0.00002128
     atom   10 type  3   force =    -0.00001541    0.00008681    0.00002426
     atom   11 type  3   force =    -0.00002135   -0.00007345   -0.00000133
     atom   12 type  3   force =     0.00001584    0.00006693   -0.00000767
     atom   13 type  3   force =    -0.00000276    0.00000745   -0.00005460
     atom   14 type  3   force =     0.00000540   -0.00001692    0.00005397
     atom   15 type  3   force =     0.00000165    0.00002680    0.00004574
     atom   16 type  3   force =    -0.00000012   -0.00002388   -0.00004186
     atom   17 type  3   force =    -0.00000940    0.00003135   -0.00002715
     atom   18 type  3   force =     0.00001187   -0.00003689    0.00002677
     atom   19 type  3   force =     0.00002035    0.00002391    0.00001064
     atom   20 type  3   force =    -0.00001617   -0.00001989   -0.00001318

     Total force =     0.031748     Total SCF correction =     0.000663

     Computing stress (Cartesian axis) and pressure

          total   stress  (Ry/bohr**3)                   (kbar)     P=     -671.57
  -0.00463458   0.00000000  -0.00008866         -681.77        0.00      -13.04
   0.00000000  -0.00457655   0.00000000            0.00     -673.23        0.00
  -0.00008866   0.00000000  -0.00448456          -13.04        0.00     -659.70

     kinetic stress (kbar)  38295.19      0.00      5.14
                                0.00  38271.35      0.00
                                5.14      0.00  38290.45

     local   stress (kbar) -11331.04      0.03   -676.09
                                0.03 -14481.54      0.00
                             -676.09      0.00  -9503.48

     nonloc. stress (kbar)   -488.82      0.00     -6.63
                                0.00   -470.41      0.00
                               -6.63      0.00   -487.53

     hartree stress (kbar)  17274.89     -0.02    325.26
                               -0.02  18589.20     -0.00
                              325.26     -0.00  16614.37

     exc-cor stress (kbar)  -2961.32     -0.00     -0.11
                               -0.00  -2960.30     -0.00
                               -0.11     -0.00  -2963.46

     corecor stress (kbar)  -3954.31      0.00      0.13
                                0.00  -3954.32     -0.00
                                0.13     -0.00  -3954.17

     ewald   stress (kbar) -37516.36     -0.00    339.25
                               -0.00 -35667.20     -0.00
                              339.25     -0.00 -38655.90

     hubbard stress (kbar)      0.00      0.00      0.00
                                0.00      0.00      0.00
                                0.00      0.00      0.00

     DFT-D   stress (kbar)      0.00      0.00      0.00
                                0.00      0.00      0.00
                                0.00      0.00      0.00

     XDM     stress (kbar)      0.00      0.00      0.00
                                0.00      0.00      0.00
                                0.00      0.00      0.00

     dft-nl  stress (kbar)      0.00      0.00      0.00
                                0.00      0.00      0.00
                                0.00      0.00      0.00

     TS-vdW  stress (kbar)      0.00      0.00      0.00
                                0.00      0.00      0.00
                                0.00      0.00      0.00

[...]

                                0.00      0.00      0.00

     Writing all to output data dir calculations/myprefix.save/

     General routines

     Parallel routines

   This run was terminated on:  13: 8:26   6Mar2023

   JOB DONE.