     Program PWSCF v.7.0 starts on  4Mar2023 at 11:10: 3

     R & G space division:  proc/nbgrp/npool/nimage =      32

     Reading input from espresso_3002.pwi
Warning: card &CELL ignored
Warning: card / ignored

     Current dimensions of program PWSCF are:
     Max number of different atomic species (ntypx) = 10
     Max number of k-points (npk) =  40000
     Max angular momentum in pseudopotentials (lmaxx) =  4

     gamma-point specific algorithms are used
     Message from routine setup:
     using ibrav=0 with symmetry is DISCOURAGED, use correct ibrav instead

     Using Slab Decomposition

     bravais-lattice index     =            0
     lattice parameter (alat)  =      15.8678  a.u.
     unit-cell volume          =    1938.1857 (a.u.)^3
     number of atoms/cell      =           12
     number of atomic types    =            3
     number of electrons       =       156.00
     number of Kohn-Sham states=           94
     kinetic-energy cutoff     =      30.0000  Ry
     charge density cutoff     =     240.0000  Ry
     scf convergence threshold =      1.0E-06
     mixing beta               =       0.7000
     number of iterations used =            8  plain     mixing
     Exchange-correlation=  SLA  PW   PBX  PBC
                           (   1   4   3   4   0   0   0)

     celldm(1)=  15.867812  celldm(2)=   0.000000  celldm(3)=   0.000000
     celldm(4)=   0.000000  celldm(5)=   0.000000  celldm(6)=   0.000000

     crystal axes: (cart. coord. in units of alat)
               a(1) = (   1.000000   0.000000   0.000000 )
               a(2) = (   0.866175   0.499740   0.000000 )
               a(3) = (   0.432149   0.115725   0.970733 )

     reciprocal axes: (cart. coord. in units 2 pi/alat)
               b(1) = (  1.000000 -1.733250 -0.238551 )
               b(2) = (  0.000000  2.001039 -0.238551 )
               b(3) = (  0.000000  0.000000  1.030149 )

     PseudoPot. # 1 for Rb read from file:
     /home/pragov/projects/rrg-bengioy-ad/pragov/crystal_structure_design/SSSP/Rb_ONCV_PBE-1.0.oncvpsp.upf
     MD5 check sum: 55a5172d6bfbce6759a58e35d43f6aa9
     Pseudo is Norm-conserving, Zval =  9.0
     Generated using ONCVPSP code by D. R. Hamann
     Using radial grid of 2308 points,  6 beta functions with:
                l(1) =   0
                l(2) =   0
                l(3) =   1
                l(4) =   1
                l(5) =   2
                l(6) =   2

     PseudoPot. # 2 for Ag read from file:
     /home/pragov/projects/rrg-bengioy-ad/pragov/crystal_structure_design/SSSP/Ag_ONCV_PBE-1.0.oncvpsp.upf
     MD5 check sum: 94f47bd0669c641108e45594df92fabc
     Pseudo is Norm-conserving, Zval = 19.0
     Generated using ONCVPSP code by D. R. Hamann
     Using radial grid of 1398 points,  6 beta functions with:
                l(1) =   0
                l(2) =   0
                l(3) =   1
                l(4) =   1
                l(5) =   2
                l(6) =   2

     PseudoPot. # 3 for S  read from file:
     /home/pragov/projects/rrg-bengioy-ad/pragov/crystal_structure_design/SSSP/s_pbe_v1.4.uspp.F.UPF
     MD5 check sum: 88d86576ff6df21479756cfb9bdac1df
     Pseudo is Ultrasoft + core correction, Zval =  6.0
     Generated by new atomic code, or converted to UPF format
     Using radial grid of  907 points,  6 beta functions with:
                l(1) =   0
                l(2) =   0
                l(3) =   1
                l(4) =   1
                l(5) =   2
                l(6) =   2
     Q(r) pseudized with  8 coefficients,  rinner =    1.300   1.300   1.300
                                                       1.300   1.300

     atomic species   valence    mass     pseudopotential
        Rb             9.00    85.46780     Rb( 1.00)
        Ag            19.00   107.86820     Ag( 1.00)
        S              6.00    32.06000     S ( 1.00)

      2 Sym. Ops., with inversion, found

                                    s                        frac. trans.

      isym =  1     identity

 cryst.   s( 1) = (     1          0          0      )
                  (     0          1          0      )
                  (     0          0          1      )

 cart.    s( 1) = (  1.0000000 -0.0000000  0.0000000 )
                  (  0.0000000  1.0000000  0.0000000 )
                  (  0.0000000  0.0000000  1.0000000 )

      isym =  2     inversion

 cryst.   s( 2) = (    -1          0          0      )
                  (     0         -1          0      )
                  (     0          0         -1      )

 cart.    s( 2) = ( -1.0000000  0.0000000 -0.0000000 )
                  (  0.0000000 -1.0000000 -0.0000000 )
                  (  0.0000000  0.0000000 -1.0000000 )

   Cartesian axes

     site n.     atom                  positions (alat units)
         1           Rb  tau(   1) = (   0.6639809   0.1778065   0.9275228  )
         2           Rb  tau(   2) = (   1.6343437   0.4376586   0.0432102  )
         3           Ag  tau(   3) = (   1.2663776   0.3391214   0.3362347  )
         4           Ag  tau(   4) = (   1.0319471   0.2763436   0.6344983  )
         5           Ag  tau(   5) = (   1.5347922   0.4109998   0.5661325  )
         6           Ag  tau(   6) = (   0.7635325   0.2044653   0.4046006  )
         7           Ag  tau(   7) = (   0.3662939   0.0980893   0.5826485  )
         8           Ag  tau(   8) = (   1.9320308   0.5173758   0.3880845  )
         9           S   tau(   9) = (   0.4982770   0.1334329   0.2941564  )
        10           S   tau(  10) = (   1.8000477   0.4820322   0.6765767  )
        11           S   tau(  11) = (   1.3004460   0.3482446   0.7520395  )
        12           S   tau(  12) = (   0.9978786   0.2672205   0.2186935  )

   Crystallographic axes

     site n.     atom                  positions (cryst. coord.)
         1           Rb  tau(   1) = (  0.1345360  0.1345360  0.9554870  )
         2           Rb  tau(   2) = (  0.8654640  0.8654640  0.0445130  )
         3           Ag  tau(   3) = (  0.5983860  0.5983860  0.3463720  )
         4           Ag  tau(   4) = (  0.4016140  0.4016140  0.6536280  )
         5           Ag  tau(   5) = (  0.6873750  0.6873750  0.5832010  )
         6           Ag  tau(   6) = (  0.3126250  0.3126250  0.4167990  )
         7           Ag  tau(   7) = (  0.0572890  0.0572890  0.6002150  )
         8           Ag  tau(   8) = (  0.9427110  0.9427110  0.3997850  )
         9           S   tau(   9) = (  0.1968330  0.1968330  0.3030250  )
        10           S   tau(  10) = (  0.8031670  0.8031670  0.6969750  )
        11           S   tau(  11) = (  0.5174510  0.5174510  0.7747130  )
        12           S   tau(  12) = (  0.4825490  0.4825490  0.2252870  )

     number of k points=     1  Methfessel-Paxton smearing, width (Ry)=  0.0010
                       cart. coord. in units 2pi/alat
        k(    1) = (   0.0000000   0.0000000   0.0000000), wk =   2.0000000

                       cryst. coord.
        k(    1) = (   0.0000000   0.0000000   0.0000000), wk =   2.0000000

     Initial potential from superposition of free atoms

     starting charge     155.9486, renormalised to     156.0000
     Starting wfcs are   86 randomized atomic wfcs +    8 random wfcs

     Self-consistent Calculation

     iteration #  1     ecut=    30.00 Ry     beta= 0.70
     Davidson diagonalization with overlap

     ethr =  1.00E-02,  avg # of iterations =  5.0

     Threshold (ethr) on eigenvalues was too large:
     Diagonalizing with lowered threshold

     Davidson diagonalization with overlap

[...]

     total energy              =   -1916.51916037 Ry
     estimated scf accuracy    <       0.57162062 Ry

[...]

     c_bands:  1 eigenvalues not converged
     ethr =  2.36E-06,  avg # of iterations = 20.0

[...]

     total energy              =   -1916.65049220 Ry
     estimated scf accuracy    <       0.00001069 Ry

     iteration # 11     ecut=    30.00 Ry     beta= 0.70
     Davidson diagonalization with overlap

     ethr =  6.37E-09,  avg # of iterations =  2.0

     End of self-consistent calculation

          k = 0.0000 0.0000 0.0000 (  2703 PWs)   bands (ev):

   -83.7549 -83.7504 -83.4199 -83.4184 -83.4145 -83.4140 -46.8420 -46.8305
   -46.8287 -46.8067 -46.7552 -46.7393 -46.5432 -46.5228 -46.5122 -46.5058
   -46.4993 -46.4958 -46.4812 -46.4775 -46.4344 -46.4298 -46.4149 -46.4094
   -17.9732 -17.9589  -3.2221  -3.1333  -3.0230  -2.8714  -2.1465  -2.0164
    -1.9929  -1.9862  -1.9413  -1.8515   3.6231   3.7580   3.8619   3.9428
     4.0753   4.0776   4.1646   4.2352   4.3162   4.3820   4.4562   4.5017
     4.6062   4.8476   4.9030   4.9389   5.0633   5.0954   5.1593   5.2199
     5.3231   5.3291   5.4718   5.5255   5.6905   5.7242   5.7507   5.7577
     5.7660   5.8058   5.9236   6.0424   6.2919   7.2583   7.8712   8.0445
     8.1018   8.4423   8.6265   8.8760   9.0143   9.1885   9.2896  10.7722
    11.1858  11.5472  12.6676  12.8809  13.0758  13.4953  13.9548  13.9867
    14.3224  14.4431  14.5016  14.7952  15.6363  15.7197

     occupation numbers
     1.0000   1.0000   1.0000   1.0000   1.0000   1.0000   1.0000   1.0000
     1.0000   1.0000   1.0000   1.0000   1.0000   1.0000   1.0000   1.0000
     1.0000   1.0000   1.0000   1.0000   1.0000   1.0000   1.0000   1.0000
     1.0000   1.0000   1.0000   1.0000   1.0000   1.0000   1.0000   1.0000
     1.0000   1.0000   1.0000   1.0000   1.0000   1.0000   1.0000   1.0000
     1.0000   1.0000   1.0000   1.0000   1.0000   1.0000   1.0000   1.0000
     1.0000   1.0000   1.0000   1.0000   1.0000   1.0000   1.0000   1.0000
     1.0000   1.0000   1.0000   1.0000   1.0000   1.0000   1.0000   1.0000
     1.0000   1.0000   1.0000   1.0000   1.0000   1.0000   1.0000   1.0000
     1.0000   1.0000   1.0000   1.0000   1.0000   1.0000  -0.0000  -0.0000
    -0.0000  -0.0000  -0.0000  -0.0000  -0.0000  -0.0000  -0.0000  -0.0000
    -0.0000  -0.0000  -0.0000  -0.0000  -0.0000  -0.0000

     the Fermi energy is     9.2390 ev

!    total energy              =   -1916.65049345 Ry
     estimated scf accuracy    <       0.00000051 Ry
     smearing contrib. (-TS)   =       0.00000002 Ry
     internal energy E=F+TS    =   -1916.65049347 Ry

     The total energy is F=E-TS. E is the sum of the following terms:
     one-electron contribution =   -1617.12542888 Ry
     hartree contribution      =     851.39458198 Ry
     xc contribution           =    -211.44991218 Ry
     ewald contribution        =    -939.46973438 Ry

     convergence has been achieved in  11 iterations

     Forces acting on atoms (cartesian axes, Ry/au):

     atom    1 type  1   force =    -0.00330389   -0.00088461    0.00368333
     atom    2 type  1   force =     0.00330389    0.00088461   -0.00368333
     atom    3 type  2   force =    -0.05491497   -0.01470501    0.00306744
     atom    4 type  2   force =     0.05491497    0.01470501   -0.00306744
     atom    5 type  2   force =     0.00690286    0.00185114    0.02496253
     atom    6 type  2   force =    -0.00690286   -0.00185114   -0.02496253
     atom    7 type  2   force =    -0.00852013   -0.00228359   -0.03579435
     atom    8 type  2   force =     0.00852013    0.00228359    0.03579435
     atom    9 type  3   force =     0.04304682    0.01152728   -0.01547375
     atom   10 type  3   force =    -0.04304682   -0.01152728    0.01547375
     atom   11 type  3   force =    -0.00102563   -0.00027394    0.06300231
     atom   12 type  3   force =     0.00102563    0.00027394   -0.06300231
     The non-local contrib.  to forces
     atom    1 type  1   force =     0.01144176    0.00306394    0.00156818
     atom    2 type  1   force =    -0.01144176   -0.00306394   -0.00156818
     atom    3 type  2   force =     0.17131971    0.04587688    0.01130840
     atom    4 type  2   force =    -0.17131971   -0.04587688   -0.01130840
     atom    5 type  2   force =    -0.10406204   -0.02786666   -0.21836572
     atom    6 type  2   force =     0.10406204    0.02786666    0.21836572
     atom    7 type  2   force =    -0.06430274   -0.01721957    0.06652656
     atom    8 type  2   force =     0.06430274    0.01721957   -0.06652656
     atom    9 type  3   force =     0.03190176    0.00854493    0.27656415
     atom   10 type  3   force =    -0.03190176   -0.00854493   -0.27656415
     atom   11 type  3   force =    -0.06324591   -0.01693611   -0.45404319
     atom   12 type  3   force =     0.06324591    0.01693611    0.45404319
     The ionic contribution  to forces
     atom    1 type  1   force =     2.19023987    0.58652120    3.91405485
     atom    2 type  1   force =    -2.19023987   -0.58652120   -3.91405485
     atom    3 type  2   force =     8.66489543    2.32035996  -50.79806916
     atom    4 type  2   force =    -8.66489543   -2.32035996   50.79806916
     atom    5 type  2   force =     9.31003813    2.49312180   26.17745796
     atom    6 type  2   force =    -9.31003813   -2.49312180  -26.17745796
     atom    7 type  2   force =     5.61630539    1.50398239   32.91217050
     atom    8 type  2   force =    -5.61630539   -1.50398239  -32.91217050
     atom    9 type  3   force =     2.32583377    0.62283170  -19.93304678
     atom   10 type  3   force =    -2.32583377   -0.62283170   19.93304678
     atom   11 type  3   force =     1.80994346    0.48468217   22.09789102
     atom   12 type  3   force =    -1.80994346   -0.48468217  -22.09789102
     The local contribution  to forces
     atom    1 type  1   force =    -2.20464586   -0.59038141   -3.91255353
     atom    2 type  1   force =     2.20464172    0.59037537    3.91204926
     atom    3 type  2   force =    -8.88947431   -2.38050843   50.79088485
     atom    4 type  2   force =     8.88946780    2.38049000  -50.78990554
     atom    5 type  2   force =    -9.19834101   -2.46321008  -25.93487002
     atom    6 type  2   force =     9.19832221    2.46321958   25.93586847
     atom    7 type  2   force =    -5.55860538   -1.48853529  -33.01557410
     atom    8 type  2   force =     5.55862547    1.48852638   33.01651017
     atom    9 type  3   force =    -2.31278532   -0.61934393   19.65695789
     atom   10 type  3   force =     2.31252517    0.61926646  -19.65708007
     atom   11 type  3   force =    -1.75118197   -0.46894946  -21.60698698
     atom   12 type  3   force =     1.75105278    0.46890866   21.60664995
     The core correction contribution to forces
     atom    1 type  1   force =     0.00000000    0.00000000    0.00000000
     atom    2 type  1   force =     0.00000000    0.00000000    0.00000000
     atom    3 type  2   force =     0.00000000    0.00000000    0.00000000
     atom    4 type  2   force =     0.00000000    0.00000000    0.00000000
     atom    5 type  2   force =     0.00000000    0.00000000    0.00000000
     atom    6 type  2   force =     0.00000000    0.00000000    0.00000000
     atom    7 type  2   force =     0.00000000    0.00000000    0.00000000
     atom    8 type  2   force =     0.00000000    0.00000000    0.00000000
     atom    9 type  3   force =    -0.00169076   -0.00045310   -0.01577035
     atom   10 type  3   force =     0.00167754    0.00044923    0.01575230
     atom   11 type  3   force =     0.00359882    0.00096336    0.02593561
     atom   12 type  3   force =    -0.00360548   -0.00096574   -0.02595041
     The Hubbard contrib.    to forces
     atom    1 type  1   force =     0.00000000    0.00000000    0.00000000
     atom    2 type  1   force =     0.00000000    0.00000000    0.00000000
     atom    3 type  2   force =     0.00000000    0.00000000    0.00000000
     atom    4 type  2   force =     0.00000000    0.00000000    0.00000000
     atom    5 type  2   force =     0.00000000    0.00000000    0.00000000
     atom    6 type  2   force =     0.00000000    0.00000000    0.00000000
     atom    7 type  2   force =     0.00000000    0.00000000    0.00000000
     atom    8 type  2   force =     0.00000000    0.00000000    0.00000000
     atom    9 type  3   force =     0.00000000    0.00000000    0.00000000
     atom   10 type  3   force =     0.00000000    0.00000000    0.00000000
     atom   11 type  3   force =     0.00000000    0.00000000    0.00000000
     atom   12 type  3   force =     0.00000000    0.00000000    0.00000000
     The SCF correction term to forces
     atom    1 type  1   force =    -0.00034785   -0.00008965    0.00066471
     atom    2 type  1   force =     0.00033560    0.00009306   -0.00005869
     atom    3 type  2   force =    -0.00163622   -0.00042914   -0.00116538
     atom    4 type  2   force =     0.00168189    0.00045614   -0.00003141
     atom    5 type  2   force =    -0.00076933   -0.00020427    0.00051485
     atom    6 type  2   force =     0.00071390    0.00017408   -0.00196422
     atom    7 type  2   force =    -0.00187123   -0.00049925    0.00086193
     atom    8 type  2   force =     0.00194350    0.00053190   -0.00223953
     atom    9 type  3   force =    -0.00031865   -0.00008458   -0.00029924
     atom   10 type  3   force =     0.00038001    0.00010141    0.00019831
     atom   11 type  3   force =    -0.00018992   -0.00005082    0.00010298
     atom   12 type  3   force =     0.00022598    0.00006017    0.00004312

     Total force =     0.151628     Total SCF correction =     0.005227

     Computing stress (Cartesian axis) and pressure

          total   stress  (Ry/bohr**3)                   (kbar)     P=     -569.23
  -0.00394421  -0.00003741  -0.00008119         -580.21       -5.50      -11.94
  -0.00003741  -0.00381455  -0.00002174           -5.50     -561.14       -3.20
  -0.00008119  -0.00002174  -0.00384985          -11.94       -3.20     -566.33

     kinetic stress (kbar)  31918.43    -40.96    -28.62
                              -40.96  32060.42     -7.66
                              -28.62     -7.66  32116.60

     local   stress (kbar) -60148.00    848.22  -1443.44
                              848.22 -63088.35   -386.54
                            -1443.44   -386.54  48181.45

     nonloc. stress (kbar)   -557.45    -16.13     -0.60
                              -16.13   -501.56     -0.16
                               -0.60     -0.16   -643.01

     hartree stress (kbar)  38243.70   -408.02    669.77
                             -408.02  39658.11    179.36
                              669.77    179.36 -13282.38

     exc-cor stress (kbar)  -3602.23      0.34      0.02
                                0.34  -3603.41      0.01
                                0.02      0.01  -3608.30

     corecor stress (kbar)  -1181.37      1.43      0.11
                                1.43  -1186.33      0.03
                                0.11      0.03  -1179.83

     ewald   stress (kbar)  -5253.29   -390.38    790.82
                             -390.38  -3900.04    211.77
                              790.82    211.77 -62150.87

     hubbard stress (kbar)      0.00      0.00      0.00
                                0.00      0.00      0.00
                                0.00      0.00      0.00

     DFT-D   stress (kbar)      0.00      0.00      0.00
                                0.00      0.00      0.00
                                0.00      0.00      0.00

     XDM     stress (kbar)      0.00      0.00      0.00
                                0.00      0.00      0.00
                                0.00      0.00      0.00

     dft-nl  stress (kbar)      0.00      0.00      0.00
                                0.00      0.00      0.00
                                0.00      0.00      0.00

     TS-vdW  stress (kbar)      0.00      0.00      0.00
                                0.00      0.00      0.00
                                0.00      0.00      0.00

[...]

                                0.00      0.00      0.00

     Writing all to output data dir calculations/myprefix.save/

     General routines

     Parallel routines

   This run was terminated on:  11:10: 7   4Mar2023

   JOB DONE.