     Program PWSCF v.7.0 starts on  6Mar2023 at 11:24:55

     R & G space division:  proc/nbgrp/npool/nimage =      32

     Reading input from espresso_4437.pwi
Warning: card &CELL ignored
Warning: card / ignored

     Current dimensions of program PWSCF are:
     Max number of different atomic species (ntypx) = 10
     Max number of k-points (npk) =  40000
     Max angular momentum in pseudopotentials (lmaxx) =  4

     gamma-point specific algorithms are used
     Message from routine setup:
     using ibrav=0 with symmetry is DISCOURAGED, use correct ibrav instead

     Using Slab Decomposition

     bravais-lattice index     =            0
     lattice parameter (alat)  =       9.3747  a.u.
     unit-cell volume          =     582.5880 (a.u.)^3
     number of atoms/cell      =            4
     number of atomic types    =            3
     number of electrons       =        87.00
     number of Kohn-Sham states=           53
     kinetic-energy cutoff     =      30.0000  Ry
     charge density cutoff     =     240.0000  Ry
     scf convergence threshold =      1.0E-06
     mixing beta               =       0.7000
     number of iterations used =            8  plain     mixing
     Exchange-correlation= SLA  PW   PBE  PBE
                           (   1   4   3   4   0   0   0)

     celldm(1)=   9.374732  celldm(2)=   0.000000  celldm(3)=   0.000000
     celldm(4)=   0.000000  celldm(5)=   0.000000  celldm(6)=   0.000000

     crystal axes: (cart. coord. in units of alat)
               a(1) = (   1.000000   0.000000   0.000000 )
               a(2) = (   0.500000   0.866025   0.000000 )
               a(3) = (   0.500000   0.288675   0.816497 )

     reciprocal axes: (cart. coord. in units 2 pi/alat)
               b(1) = (  1.000000 -0.577350 -0.408248 )
               b(2) = (  0.000000  1.154701 -0.408248 )
               b(3) = (  0.000000  0.000000  1.224745 )

     PseudoPot. # 1 for Er read from file:
     /home/pragov/projects/rrg-bengioy-ad/pragov/crystal_structure_design/SSSP/Er.GGA-PBE-paw-v1.0.UPF
     MD5 check sum: 5952a841f12bc97f67d25f9d1b2e7e35
     Pseudo is Projector augmented-wave + core cor, Zval = 22.0
     Generated using ATOMPAW code
     Shape of augmentation charge: BESSEL
     Using radial grid of 1114 points,  8 beta functions with:
                l(1) =   0
                l(2) =   0
                l(3) =   1
                l(4) =   1
                l(5) =   2
                l(6) =   2
                l(7) =   3
                l(8) =   3
     Q(r) pseudized with 0 coefficients

     PseudoPot. # 2 for Lu read from file:
     /home/pragov/projects/rrg-bengioy-ad/pragov/crystal_structure_design/SSSP/Lu.GGA-PBE-paw-v1.0.UPF
     MD5 check sum: 9ceca61ee0c17e9380a83635bfffa61d
     Pseudo is Projector augmented-wave + core cor, Zval = 25.0
     Generated using ATOMPAW code
     Shape of augmentation charge: BESSEL
     Using radial grid of 1118 points,  8 beta functions with:
                l(1) =   0
                l(2) =   0
                l(3) =   1
                l(4) =   1
                l(5) =   2
                l(6) =   2
                l(7) =   3
                l(8) =   3
     Q(r) pseudized with 0 coefficients

     PseudoPot. # 3 for Zn read from file:
     /home/pragov/projects/rrg-bengioy-ad/pragov/crystal_structure_design/SSSP/Zn_pbe_v1.uspp.F.UPF
     MD5 check sum: df62231357ef9e81f77b2b3087fa5675
     Pseudo is Ultrasoft, Zval = 20.0
     Generated by new atomic code, or converted to UPF format
     Using radial grid of  943 points,  6 beta functions with:
                l(1) =   0
                l(2) =   0
                l(3) =   1
                l(4) =   1
                l(5) =   2
                l(6) =   2
     Q(r) pseudized with  8 coefficients,  rinner =    1.100   1.100   1.100
                                                       1.100   1.100

     atomic species   valence    mass     pseudopotential
        Er            22.00   167.25900     Er( 1.00)
        Lu            25.00   174.96680     Lu( 1.00)
        Zn            20.00    65.38000     Zn( 1.00)

     12 Sym. Ops., with inversion, found

                                    s                        frac. trans.

      isym =  1     identity

 cryst.   s( 1) = (     1          0          0      )
                  (     0          1          0      )
                  (     0          0          1      )

 cart.    s( 1) = (  1.0000000  0.0000000 -0.0000000 )
                  (  0.0000000  1.0000000 -0.0000000 )
                  (  0.0000000  0.0000000  1.0000000 )

      isym =  2     180 deg rotation - cart. axis [1,0,0]

[...]

      isym =  3     120 deg rotation - cryst. axis [0,0,1]

[...]

      isym =  6     180 deg rotation - cryst. axis [1,1,0]

[...]

      isym =  7     inversion

[...]

      isym =  8     inv. 180 deg rotation - cart. axis [1,0,0]

[...]

      isym =  9     inv. 120 deg rotation - cryst. axis [0,0,1]

 cryst.   s( 9) = (     1         -1          0      )
                  (     1          0          0      )
                  (     1          0         -1      )

 cart.    s( 9) = (  0.5000000  0.8660254  0.0000000 )
                  ( -0.8660254  0.5000000  0.0000000 )
                  (  0.0000000  0.0000000 -1.0000000 )

[...]

 cryst.   s(10) = (     0          1          0      )
                  (    -1          1          0      )
                  (     0          1         -1      )

 cart.    s(10) = (  0.5000000 -0.8660254  0.0000000 )
                  (  0.8660254  0.5000000 -0.0000000 )
                  (  0.0000000  0.0000000 -1.0000000 )

[...]

      isym = 12     inv. 180 deg rotation - cryst. axis [1,1,0]

 cryst.   s(12) = (     1         -1          0      )
                  (     0         -1          0      )
                  (     0         -1          1      )

 cart.    s(12) = (  0.5000000 -0.8660254  0.0000000 )
                  ( -0.8660254 -0.5000000  0.0000000 )
                  (  0.0000000  0.0000000  1.0000000 )

   Cartesian axes

     site n.     atom                  positions (alat units)
         1           Er  tau(   1) = (   1.0000000   0.5773503   0.4082483  )
         2           Lu  tau(   2) = (   0.0000000   0.0000000   0.0000000  )
         3           Zn  tau(   3) = (   0.5000000   0.2886751   0.2041241  )
         4           Zn  tau(   4) = (   1.5000000   0.8660254   0.6123724  )

   Crystallographic axes

     site n.     atom                  positions (cryst. coord.)
         1           Er  tau(   1) = (  0.5000000  0.5000000  0.5000000  )
         2           Lu  tau(   2) = (  0.0000000  0.0000000  0.0000000  )
         3           Zn  tau(   3) = (  0.2500000  0.2500000  0.2500000  )
         4           Zn  tau(   4) = (  0.7500000  0.7500000  0.7500000  )

     number of k points=     1  Methfessel-Paxton smearing, width (Ry)=  0.0010
                       cart. coord. in units 2pi/alat
        k(    1) = (   0.0000000   0.0000000   0.0000000), wk =   2.0000000

                       cryst. coord.
        k(    1) = (   0.0000000   0.0000000   0.0000000), wk =   2.0000000

     Initial potential from superposition of free atoms

     starting charge      86.9917, renormalised to      87.0000
     Starting wfcs are   90 randomized atomic wfcs
     Checking if some PAW data can be deallocated...

     Self-consistent Calculation

     iteration #  1     ecut=    30.00 Ry     beta= 0.70
     Davidson diagonalization with overlap

     ethr =  1.00E-02,  avg # of iterations =  2.0
     Minimization algorithm failed to find Fermi energy: reverting to bisection
     Possible cause: smearing is larger than the electronic band-gap.

     total energy              =   -2882.80202299 Ry
     estimated scf accuracy    <       5.37401653 Ry

[...]

     ethr =  6.18E-03,  avg # of iterations =  6.0

[...]

     ethr =  2.43E-06,  avg # of iterations =  1.0

[...]

     total energy              =   -2889.13714568 Ry
     estimated scf accuracy    <       0.00000127 Ry

     iteration # 32     ecut=    30.00 Ry     beta= 0.70
     Davidson diagonalization with overlap

     ethr =  1.46E-09,  avg # of iterations =  1.0
     Minimization algorithm failed to find Fermi energy: reverting to bisection
     Possible cause: smearing is larger than the electronic band-gap.

     End of self-consistent calculation

          k = 0.0000 0.0000 0.0000 (   820 PWs)   bands (ev):

  -112.2394-112.2349 -66.3169 -66.3169 -66.3169 -66.3002 -66.3002 -66.3002
   -42.2862 -33.7252 -12.9453 -12.9453 -12.9452  -8.0952  -8.0949  -8.0946
     6.6572   6.8508   6.8508   6.9588   6.9588   6.9588   7.0756   7.0756
     7.0756   7.1920   7.1920   9.0080   9.0080   9.0080   9.0352   9.0387
     9.0387   9.0387  12.4593  12.4593  12.4593  13.4687  14.3209  14.3217
    14.3219  14.4572  14.4573  14.4574  14.7914  14.7914  14.8378  19.1475
    19.1476  19.1476  19.6655  20.0306  20.0309

     occupation numbers
     1.0000   1.0000   1.0000   1.0000   1.0000   1.0000   1.0000   1.0000
     1.0000   1.0000   1.0000   1.0000   1.0000   1.0000   1.0000   1.0000
     1.0000   1.0000   1.0000   1.0000   1.0000   1.0000   1.0000   1.0000
     1.0000   1.0000   1.0000   1.0000   1.0000   1.0000   1.0000   1.0000
     1.0000   1.0000   1.0000   1.0000   1.0000   1.0000   1.0000   1.0000
     1.0000   0.8384   0.8319   0.8297  -0.0000  -0.0000  -0.0000  -0.0000
    -0.0000  -0.0000  -0.0000  -0.0000  -0.0000

     the Fermi energy is    14.4632 ev

!    total energy              =   -2889.13714276 Ry
     estimated scf accuracy    <       0.00000094 Ry
     smearing contrib. (-TS)   =      -0.00043266 Ry
     internal energy E=F+TS    =   -2889.13671010 Ry

     The total energy is F=E-TS. E is the sum of the following terms:
     one-electron contribution =   -1396.69165233 Ry
     hartree contribution      =     686.45055198 Ry
     xc contribution           =    -158.48798521 Ry
     ewald contribution        =   -1043.77783173 Ry
     one-center paw contrib.   =    -976.62979281 Ry
      -> PAW hartree energy AE =     347.04175074 Ry
      -> PAW hartree energy PS =    -310.18967112 Ry
      -> PAW xc energy AE      =    -554.53745575 Ry
      -> PAW xc energy PS      =      31.88023196 Ry
      -> total E_H with PAW    =     723.30263161 Ry
      -> total E_XC with PAW   =    -681.14520900 Ry

     convergence has been achieved in  32 iterations

     Forces acting on atoms (cartesian axes, Ry/au):

     atom    1 type  1   force =     0.00000000    0.00000000    0.00000000
     atom    2 type  2   force =     0.00000000    0.00000000    0.00000000
     atom    3 type  3   force =     0.00000000    0.00000000   -0.00011426
     atom    4 type  3   force =     0.00000000    0.00000000    0.00011426
     The non-local contrib.  to forces
     atom    1 type  1   force =     0.00000000    0.00000000    0.00000000
     atom    2 type  2   force =     0.00000000    0.00000000    0.00000000
     atom    3 type  3   force =     0.00000000    0.00000000    0.00004105
     atom    4 type  3   force =     0.00000000    0.00000000   -0.00004105
     The ionic contribution  to forces
     atom    1 type  1   force =     0.00000000    0.00000000    0.00000000
     atom    2 type  2   force =     0.00000000    0.00000000   -0.00000000
     atom    3 type  3   force =     0.00000000   -0.00000000   -0.00000000
     atom    4 type  3   force =     0.00000000   -0.00000000    0.00000000
     The local contribution  to forces
     atom    1 type  1   force =    -0.00051273    0.00102260   -0.00073316
     atom    2 type  2   force =     0.00006284   -0.00013737    0.00007359
     atom    3 type  3   force =    -0.00016160   -0.00020794    0.00011498
     atom    4 type  3   force =     0.00020487    0.00010711   -0.00002113
     The core correction contribution to forces
     atom    1 type  1   force =    -0.00000000    0.00000001   -0.00000001
     atom    2 type  2   force =     0.00000000   -0.00000000    0.00000000
     atom    3 type  3   force =     0.00000000    0.00000000    0.00000000
     atom    4 type  3   force =     0.00000000    0.00000000    0.00000000
     The Hubbard contrib.    to forces
     atom    1 type  1   force =     0.00000000    0.00000000    0.00000000
     atom    2 type  2   force =     0.00000000    0.00000000    0.00000000
     atom    3 type  3   force =     0.00000000    0.00000000    0.00000000
     atom    4 type  3   force =     0.00000000    0.00000000    0.00000000
     The SCF correction term to forces
     atom    1 type  1   force =     0.00051676   -0.00098380    0.00075760
     atom    2 type  2   force =    -0.00005759    0.00012786   -0.00009092
     atom    3 type  3   force =     0.00024082    0.00029005   -0.00028910
     atom    4 type  3   force =    -0.00028925   -0.00016999    0.00015764

     Total force =     0.000162     Total SCF correction =     0.001483
     SCF correction compared to forces is large: reduce conv_thr to get better values

     Computing stress (Cartesian axis) and pressure

          total   stress  (Ry/bohr**3)                   (kbar)     P=     -424.11
  -0.00287848   0.00000000   0.00000000         -423.44        0.00        0.00
   0.00000000  -0.00287848   0.00000000            0.00     -423.44        0.00
   0.00000000   0.00000000  -0.00289224            0.00        0.00     -425.46

     kinetic stress (kbar)  21690.96     -0.00      0.00
                               -0.00  21690.96      0.00
                               -0.00      0.00  21690.77

     local   stress (kbar)   8954.38     -0.38      1.21
                               -0.38   8952.14     -0.99
                                1.21     -0.99   8956.01

     nonloc. stress (kbar)  11765.27     -0.00      0.00
                               -0.00  11765.27      0.00
                                0.00      0.00  11761.57

     hartree stress (kbar)  57776.77      0.16     -0.45
                                0.16  57777.59      0.38
                               -0.45      0.38  57776.30

     exc-cor stress (kbar) -12756.15      0.00     -0.00
                                0.00 -12756.14      0.00
                               -0.00      0.00 -12756.15

     corecor stress (kbar)     -1.70     -0.00      0.00
                               -0.00     -1.70     -0.00
                                0.00     -0.00     -1.70

     ewald   stress (kbar) -87852.26      0.00     -0.00
                                0.00 -87852.26     -0.00
                               -0.00     -0.00 -87852.26

     hubbard stress (kbar)      0.00      0.00      0.00
                                0.00      0.00      0.00
                                0.00      0.00      0.00

     DFT-D   stress (kbar)      0.00      0.00      0.00
                                0.00      0.00      0.00
                                0.00      0.00      0.00

     XDM     stress (kbar)      0.00      0.00      0.00
                                0.00      0.00      0.00
                                0.00      0.00      0.00

     dft-nl  stress (kbar)      0.00      0.00      0.00
                                0.00      0.00      0.00
                                0.00      0.00      0.00

     TS-vdW  stress (kbar)      0.00      0.00      0.00
                                0.00      0.00      0.00
                                0.00      0.00      0.00

[...]

                                0.00      0.00      0.00

     Writing all to output data dir calculations/myprefix.save/

     General routines

     Parallel routines

     PAW routines

   This run was terminated on:  11:25: 7   6Mar2023

   JOB DONE.