     Program PWSCF v.7.0 starts on  6Mar2023 at  8:32:57

     R & G space division:  proc/nbgrp/npool/nimage =      32

     Reading input from espresso_4987.pwi
Warning: card &CELL ignored
Warning: card / ignored

     Current dimensions of program PWSCF are:
     Max number of different atomic species (ntypx) = 10
     Max number of k-points (npk) =  40000
     Max angular momentum in pseudopotentials (lmaxx) =  4
     file Ba.pbe-spn-kjpaw_psl.1.0.0.UPF: wavefunction(s)  5S 6S renormalized
     file Mg.pbe-n-kjpaw_psl.0.3.0.UPF: wavefunction(s)  3S renormalized
     file Al.pbe-n-kjpaw_psl.1.0.0.UPF: wavefunction(s)  3S 3P renormalized
     file O.pbe-n-kjpaw_psl.0.1.UPF: wavefunction(s)  2P renormalized

     gamma-point specific algorithms are used

     Using Slab Decomposition

     bravais-lattice index     =            0
     lattice parameter (alat)  =      10.0297  a.u.
     unit-cell volume          =    1674.2670 (a.u.)^3
     number of atoms/cell      =           20
     number of atomic types    =            7
     number of electrons       =       106.00
     number of Kohn-Sham states=           64
     kinetic-energy cutoff     =      30.0000  Ry
     charge density cutoff     =     240.0000  Ry
     scf convergence threshold =      1.0E-06
     mixing beta               =       0.7000
     number of iterations used =            8  plain     mixing
     Exchange-correlation=  SLA  PW   PBX  PBC
                           (   1   4   3   4   0   0   0)

     celldm(1)=  10.029674  celldm(2)=   0.000000  celldm(3)=   0.000000
     celldm(4)=   0.000000  celldm(5)=   0.000000  celldm(6)=   0.000000

     crystal axes: (cart. coord. in units of alat)
               a(1) = (   1.000000   0.000000   0.000000 )
               a(2) = (  -0.498374   0.869297   0.000000 )
               a(3) = (  -0.157623  -0.307015   1.908957 )

     reciprocal axes: (cart. coord. in units 2 pi/alat)
               b(1) = (  1.000000  0.573307  0.174775 )
               b(2) = (  0.000000  1.150355  0.185010 )
               b(3) = (  0.000000  0.000000  0.523846 )

     PseudoPot. # 1 for Ba read from file:
     /home/pragov/projects/rrg-bengioy-ad/pragov/crystal_structure_design/SSSP/Ba.pbe-spn-kjpaw_psl.1.0.0.UPF
     MD5 check sum: c432291d3e53af55f19d5e8866385beb
     Pseudo is Projector augmented-wave + core cor, Zval = 10.0
     Generated using "atomic" code by A. Dal Corso  v.5.1
     Shape of augmentation charge: PSQ
     Using radial grid of 1251 points,  7 beta functions with:
                l(1) =   0
                l(2) =   0
                l(3) =   0
                l(4) =   1
                l(5) =   1
                l(6) =   2
                l(7) =   2
     Q(r) pseudized with 0 coefficients

     PseudoPot. # 2 for Li read from file:
     /home/pragov/projects/rrg-bengioy-ad/pragov/crystal_structure_design/SSSP/li_pbe_v1.4.uspp.F.UPF
     MD5 check sum: e912e257baa3777c20ea3d68f190483c
     Pseudo is Ultrasoft, Zval =  3.0
     Generated by new atomic code, or converted to UPF format
     Using radial grid of  751 points,  5 beta functions with:
                l(1) =   0
                l(2) =   0
                l(3) =   0
                l(4) =   1
                l(5) =   1
     Q(r) pseudized with 10 coefficients,  rinner =    1.150   1.150   1.150

     PseudoPot. # 3 for Mg read from file:
     /home/pragov/projects/rrg-bengioy-ad/pragov/crystal_structure_design/SSSP/Mg.pbe-n-kjpaw_psl.0.3.0.UPF
     MD5 check sum: 24ecedc7f3e3cbe212e682f4413594e4
     Pseudo is Projector augmented-wave + core cor, Zval =  2.0
     Generated using "atomic" code by A. Dal Corso  v.5.0.99 svn rev. 10869
     Shape of augmentation charge: PSQ
     Using radial grid of 1129 points,  4 beta functions with:
                l(1) =   0
                l(2) =   0
                l(3) =   1
                l(4) =   1
     Q(r) pseudized with 0 coefficients

     PseudoPot. # 4 for Al read from file:
     /home/pragov/projects/rrg-bengioy-ad/pragov/crystal_structure_design/SSSP/Al.pbe-n-kjpaw_psl.1.0.0.UPF
     MD5 check sum: cfc449ca30b5f3223ec38ddd88ac046d
     Pseudo is Projector augmented-wave + core cor, Zval =  3.0
     Generated using "atomic" code by A. Dal Corso  v.5.1
     Shape of augmentation charge: PSQ
     Using radial grid of 1135 points,  6 beta functions with:
                l(1) =   0
                l(2) =   0
                l(3) =   1
                l(4) =   1
                l(5) =   2
                l(6) =   2
     Q(r) pseudized with 0 coefficients

     PseudoPot. # 5 for Si read from file:
     /home/pragov/projects/rrg-bengioy-ad/pragov/crystal_structure_design/SSSP/Si.pbe-n-rrkjus_psl.1.0.0.UPF
     MD5 check sum: 0b0bb1205258b0d07b9f9672cf965d36
     Pseudo is Ultrasoft + core correction, Zval =  4.0
     Generated using "atomic" code by A. Dal Corso  v.5.1
     Using radial grid of 1141 points,  6 beta functions with:
                l(1) =   0
                l(2) =   0
                l(3) =   1
                l(4) =   1
                l(5) =   2
                l(6) =   2
     Q(r) pseudized with 0 coefficients

     PseudoPot. # 6 for O  read from file:
     /home/pragov/projects/rrg-bengioy-ad/pragov/crystal_structure_design/SSSP/O.pbe-n-kjpaw_psl.0.1.UPF
     MD5 check sum: 0234752ac141de4415c5fc33072bef88
     Pseudo is Projector augmented-wave + core cor, Zval =  6.0
     Generated using "atomic" code by A. Dal Corso  v.5.0.99 svn rev. 10869
     Shape of augmentation charge: BESSEL
     Using radial grid of 1095 points,  4 beta functions with:
                l(1) =   0
                l(2) =   0
                l(3) =   1
                l(4) =   1
     Q(r) pseudized with 0 coefficients

     PseudoPot. # 7 for F  read from file:
     /home/pragov/projects/rrg-bengioy-ad/pragov/crystal_structure_design/SSSP/f_pbe_v1.4.uspp.F.UPF
     MD5 check sum: 4c38b6a325caf53ec0e86aed9459de46
     Pseudo is Ultrasoft, Zval =  7.0
     Generated by new atomic code, or converted to UPF format
     Using radial grid of  799 points,  4 beta functions with:
                l(1) =   0
                l(2) =   0
                l(3) =   1
                l(4) =   1
     Q(r) pseudized with  8 coefficients,  rinner =    0.950   0.950   0.950

     atomic species   valence    mass     pseudopotential
        Ba            10.00   137.32700     Ba( 1.00)
        Li             3.00     6.94000     Li( 1.00)
        Mg             2.00    24.30500     Mg( 1.00)
        Al             3.00    26.98154     Al( 1.00)
        Si             4.00    28.08500     Si( 1.00)
        O              6.00    15.99900     O ( 1.00)
        F              7.00    18.99840     F ( 1.00)

     No symmetry found

                                    s                        frac. trans.

      isym =  1     identity

 cryst.   s( 1) = (     1          0          0      )
                  (     0          1          0      )
                  (     0          0          1      )

 cart.    s( 1) = (  1.0000000  0.0000000 -0.0000000 )
                  (  0.0000000  1.0000000 -0.0000000 )
                  (  0.0000000  0.0000000  1.0000000 )

   Cartesian axes

     site n.     atom                  positions (alat units)
         1           Ba  tau(   1) = (   0.3435693   0.5629392   1.8583796  )
         2           Li  tau(   2) = (   0.1639085   0.2784559   0.9654705  )
         3           Mg  tau(   3) = (  -0.3272857   0.5714118   0.9601178  )
         4           Mg  tau(   4) = (   0.6748636  -0.0058971   0.9585849  )
         5           Al  tau(   5) = (  -0.1574368   0.2786758   1.4651898  )
         6           Si  tau(   6) = (   0.3438351  -0.0137338   1.4862207  )
         7           Si  tau(   7) = (   0.5023981   0.2844423   0.4376209  )
         8           Si  tau(   8) = (   0.0012326   0.5778187   0.4378423  )
         9           O   tau(   9) = (   0.1161233   0.1559415   1.6121012  )
        10           O   tau(  10) = (   0.2425264   0.4154182   0.3137314  )
        11           O   tau(  11) = (   0.6024573   0.1002466   1.6162627  )
        12           O   tau(  12) = (  -0.1880905   0.5752040   1.6177288  )
        13           O   tau(  13) = (  -0.2562932   0.4456172   0.3094420  )
        14           O   tau(  14) = (   0.5182372  -0.0036279   0.3060555  )
        15           O   tau(  15) = (  -0.1673246   0.2816001   1.1449049  )
        16           O   tau(  16) = (   0.3457786  -0.0191435   1.1820055  )
        17           O   tau(  17) = (   0.5096205   0.2804150   0.7359336  )
        18           O   tau(  18) = (  -0.0004944   0.5873397   0.7364930  )
        19           F   tau(  19) = (   0.3423410   0.5760462   1.1522410  )
        20           F   tau(  20) = (   0.0020576  -0.0252105   0.7477272  )

   Crystallographic axes

     site n.     atom                  positions (cryst. coord.)
         1           Ba  tau(   1) = (  0.9911040  0.9913990  0.9735050  )
         2           Li  tau(   2) = (  0.4922890  0.4989450  0.5057580  )
         3           Mg  tau(   3) = (  0.1681130  0.8349580  0.5029540  )
         4           Mg  tau(   4) = (  0.8390190  0.1705640  0.5021510  )
         5           Al  tau(   5) = (  0.2584080  0.5916510  0.7675340  )
         6           Si  tau(   6) = (  0.5957150  0.2591670  0.7785510  )
         7           Si  tau(   7) = (  0.7419560  0.4081740  0.2292460  )
         8           Si  tau(   8) = (  0.4090240  0.7457020  0.2293620  )
         9           O   tau(   9) = (  0.4872800  0.4776430  0.8444930  )
        10           O   tau(  10) = (  0.5355210  0.5359220  0.1643470  )
        11           O   tau(  11) = (  0.9424110  0.4143440  0.8466730  )
        12           O   tau(  12) = (  0.4244160  0.9609850  0.8474410  )
        13           O   tau(  13) = (  0.0532650  0.5698680  0.1621000  )
        14           O   tau(  14) = (  0.5696480  0.0524500  0.1603260  )
        15           O   tau(  15) = (  0.1942190  0.5357590  0.5997540  )
        16           O   tau(  16) = (  0.5413880  0.1966610  0.6191890  )
        17           O   tau(  17) = (  0.7990070  0.4587320  0.3855160  )
        18           O   tau(  18) = (  0.4649520  0.8119080  0.3858090  )
        19           F   tau(  19) = (  0.8739750  0.8758340  0.6035970  )
        20           F   tau(  20) = (  0.1182880  0.1093360  0.3916940  )

     number of k points=     1  Methfessel-Paxton smearing, width (Ry)=  0.0010
                       cart. coord. in units 2pi/alat
        k(    1) = (   0.0000000   0.0000000   0.0000000), wk =   2.0000000

                       cryst. coord.
        k(    1) = (   0.0000000   0.0000000   0.0000000), wk =   2.0000000

     Check: negative core charge=   -0.000008

     Initial potential from superposition of free atoms

     starting charge     105.5264, renormalised to     106.0000
     Starting wfcs are   82 randomized atomic wfcs
     Checking if some PAW data can be deallocated...

     Self-consistent Calculation

     iteration #  1     ecut=    30.00 Ry     beta= 0.70
     Davidson diagonalization with overlap

     ethr =  1.00E-02,  avg # of iterations =  5.0

     negative rho (up, down):  3.264E-02 0.000E+00

     total energy              =   -1105.58780498 Ry
     estimated scf accuracy    <       4.02266569 Ry

[...]

     negative rho (up, down):  1.370E-03 0.000E+00

[...]

     total energy              =   -1107.27087665 Ry
     estimated scf accuracy    <       0.00000721 Ry

     iteration # 11     ecut=    30.00 Ry     beta= 0.70
     Davidson diagonalization with overlap

     ethr =  6.80E-09,  avg # of iterations =  7.0

     End of self-consistent calculation

          k = 0.0000 0.0000 0.0000 (  2328 PWs)   bands (ev):

   -37.5627 -21.5270 -16.3158 -16.0815 -15.5121 -14.2064 -13.8890 -13.8780
   -12.8513 -12.6853 -12.6834 -12.6696 -12.2028 -10.9959  -6.6831  -6.6821
    -6.6815  -5.1068  -2.8203  -1.3916  -1.3388  -1.1198   0.1721   0.2121
     0.2525   0.5941   0.6875   0.8095   1.2072   1.2689   1.4713   1.5902
     1.6264   1.7463   1.8150   1.9847   2.0763   2.2846   2.4708   2.6718
     2.8745   2.9005   2.9565   3.1350   3.3699   3.4133   3.4945   3.6131
     3.6619   3.7399   4.0782   4.3469   4.4504   8.8650  10.2313  10.6992
    10.9030  10.9585  11.9002  11.9259  11.9684  12.3801  12.6108  13.3678

     occupation numbers
     1.0000   1.0000   1.0000   1.0000   1.0000   1.0000   1.0000   1.0000
     1.0000   1.0000   1.0000   1.0000   1.0000   1.0000   1.0000   1.0000
     1.0000   1.0000   1.0000   1.0000   1.0000   1.0000   1.0000   1.0000
     1.0000   1.0000   1.0000   1.0000   1.0000   1.0000   1.0000   1.0000
     1.0000   1.0000   1.0000   1.0000   1.0000   1.0000   1.0000   1.0000
     1.0000   1.0000   1.0000   1.0000   1.0000   1.0000   1.0000   1.0000
     1.0000   1.0000   1.0000   1.0000   1.0000  -0.0000  -0.0000  -0.0000
    -0.0000  -0.0000  -0.0000  -0.0000  -0.0000  -0.0000  -0.0000  -0.0000

     the Fermi energy is     7.1035 ev

!    total energy              =   -1107.27087781 Ry
     estimated scf accuracy    <       0.00000054 Ry
     smearing contrib. (-TS)   =       0.00000000 Ry
     internal energy E=F+TS    =   -1107.27087781 Ry

     The total energy is F=E-TS. E is the sum of the following terms:
     one-electron contribution =    -198.04369456 Ry
     hartree contribution      =     162.01577039 Ry
     xc contribution           =    -143.30049950 Ry
     ewald contribution        =    -360.69981999 Ry
     one-center paw contrib.   =    -567.24263414 Ry
      -> PAW hartree energy AE =      28.39024391 Ry
      -> PAW hartree energy PS =     -28.27769169 Ry
      -> PAW xc energy AE      =    -394.17150858 Ry
      -> PAW xc energy PS      =      19.11011528 Ry
      -> total E_H with PAW    =     162.12832260 Ry
      -> total E_XC with PAW   =    -518.36189280 Ry

     convergence has been achieved in  11 iterations

     Forces acting on atoms (cartesian axes, Ry/au):

     atom    1 type  1   force =    -0.00018601    0.00082376    0.02158144
     atom    2 type  2   force =    -0.00074310    0.00060206    0.00166835
     atom    3 type  3   force =    -0.00232487   -0.00121552    0.00094852
     atom    4 type  3   force =     0.00279996   -0.00066902    0.00029206
     atom    5 type  4   force =     0.00074354   -0.00149091    0.01302367
     atom    6 type  5   force =     0.00013495    0.00012169    0.01204617
     atom    7 type  5   force =    -0.00125942    0.00199532   -0.02533928
     atom    8 type  5   force =     0.00080693   -0.00108373   -0.02487234
     atom    9 type  6   force =     0.01872388    0.02261336   -0.02019201
     atom   10 type  6   force =    -0.00774043   -0.01385960    0.02059068
     atom   11 type  6   force =     0.00856917   -0.02490959   -0.02041796
     atom   12 type  6   force =    -0.02651045    0.00374295   -0.01923985
     atom   13 type  6   force =    -0.00683417    0.01344981    0.01776614
     atom   14 type  6   force =     0.01589517    0.00091532    0.01353003
     atom   15 type  6   force =     0.00137995   -0.00103226    0.00017166
     atom   16 type  6   force =    -0.00118267   -0.00086129    0.00431092
     atom   17 type  6   force =    -0.00177420    0.00026099    0.00031395
     atom   18 type  6   force =    -0.00015217   -0.00137538   -0.00028484
     atom   19 type  7   force =     0.00068043    0.00248073   -0.00205850
     atom   20 type  7   force =    -0.00102648   -0.00050871    0.00616119
     The non-local contrib.  to forces
     atom    1 type  1   force =     0.00050042    0.00123326   -0.03780572
     atom    2 type  2   force =     0.04360160   -0.00167696   -0.03710016
     atom    3 type  3   force =    -0.02660426    0.03909114   -0.03401993
     atom    4 type  3   force =    -0.02190988   -0.04712769   -0.03817891
     atom    5 type  4   force =     0.00760399   -0.00054379    0.11767358
     atom    6 type  5   force =    -0.00220569    0.00364596    0.09939409
     atom    7 type  5   force =    -0.00987958    0.00674205   -0.27956288
     atom    8 type  5   force =     0.00412903   -0.01265640   -0.27012696
     atom    9 type  6   force =     0.25753865   -0.42240801   -0.77461034
     atom   10 type  6   force =     0.11273676    0.19173038    1.01100626
     atom   11 type  6   force =    -0.50887987   -0.00338199   -0.79867090
     atom   12 type  6   force =     0.24582500    0.42046947   -0.80548106
     atom   13 type  6   force =     0.11151918   -0.17375890    1.05189096
     atom   14 type  6   force =    -0.20198518    0.00548591    1.07266149
     atom   15 type  6   force =    -0.16970824   -0.02484640    0.66039770
     atom   16 type  6   force =     0.06226882   -0.13230228    1.04039529
     atom   17 type  6   force =     0.12232924    0.00905241   -1.22810861
     atom   18 type  6   force =    -0.07497699    0.12338785   -1.20265045
     atom   19 type  7   force =     0.14776257    0.24770379   -0.48515503
     atom   20 type  7   force =    -0.11279347   -0.24359799    0.49553688
     The ionic contribution  to forces
     atom    1 type  1   force =     0.02879600    0.01296782    2.19906175
     atom    2 type  2   force =     0.20633337   -0.12006067   -0.02687419
     atom    3 type  3   force =     0.16392867   -0.02896473    0.12485416
     atom    4 type  3   force =    -0.23515651    0.08125495    0.07595979
     atom    5 type  4   force =     0.01882606    0.00291658    0.60574219
     atom    6 type  5   force =     0.00766299    0.02195480    0.64832800
     atom    7 type  5   force =    -0.04558668   -0.01700233   -1.63143301
     atom    8 type  5   force =    -0.00368346   -0.08868411   -1.64340870
     atom    9 type  6   force =    -1.62025672    1.52442386    4.28002386
     atom   10 type  6   force =    -0.34105750   -0.50281850   -5.44905282
     atom   11 type  6   force =     2.15003622    0.61924566    4.33888612
     atom   12 type  6   force =    -0.54622862   -2.12925329    4.34371410
     atom   13 type  6   force =    -0.21081337    0.44097208   -5.53631378
     atom   14 type  6   force =     0.50831440   -0.04487675   -5.60305397
     atom   15 type  6   force =    -0.39743471    0.08907491    0.34134358
     atom   16 type  6   force =     0.14366336   -0.06826102   -2.01674016
     atom   17 type  6   force =     0.11938367   -0.23414742    2.43969896
     atom   18 type  6   force =    -0.11035137    0.08162216    2.37021314
     atom   19 type  7   force =     0.05870953   -0.08497897    4.36842478
     atom   20 type  7   force =     0.10491467    0.44461495   -4.22937380
     The local contribution  to forces
     atom    1 type  1   force =    -0.02946086   -0.01321799   -2.14608331
     atom    2 type  2   force =    -0.25068932    0.12233389    0.06569879
     atom    3 type  3   force =    -0.14247360   -0.00671526   -0.09382949
     atom    4 type  3   force =     0.25679787   -0.04025731   -0.04198808
     atom    5 type  4   force =    -0.02468766   -0.00386608   -0.69852456
     atom    6 type  5   force =    -0.00559929   -0.02523690   -0.72547055
     atom    7 type  5   force =     0.05300524    0.01310575    1.85025489
     atom    8 type  5   force =     0.00087549    0.09879143    1.85459908
     atom    9 type  6   force =     1.38350098   -1.08352150   -3.53221998
     atom   10 type  6   force =     0.22178153    0.29926460    4.46806411
     atom   11 type  6   force =    -1.63734000   -0.64040206   -3.56748984
     atom   12 type  6   force =     0.27655070    1.71625177   -3.56438791
     atom   13 type  6   force =     0.09364246   -0.25559791    4.51200197
     atom   14 type  6   force =    -0.29259410    0.04035665    4.55392483
     atom   15 type  6   force =     0.56696548   -0.06550354   -0.99533995
     atom   16 type  6   force =    -0.20657310    0.19841883    0.98982441
     atom   17 type  6   force =    -0.24242002    0.22542381   -1.22206261
     atom   18 type  6   force =     0.18447840   -0.20516683   -1.17837895
     atom   19 type  7   force =    -0.20581132   -0.16028211   -3.88519473
     atom   20 type  7   force =     0.00688730   -0.20149749    3.73998908
     The core correction contribution to forces
     atom    1 type  1   force =    -0.00002081   -0.00006616    0.00628671
     atom    2 type  2   force =     0.00000000    0.00000000    0.00000000
     atom    3 type  3   force =     0.00284053   -0.00461640    0.00399007
     atom    4 type  3   force =     0.00306814    0.00545524    0.00454526
     atom    5 type  4   force =    -0.00097482    0.00000538   -0.01185141
     atom    6 type  5   force =     0.00024426   -0.00024171   -0.01022751
     atom    7 type  5   force =     0.00123046   -0.00085050    0.03541123
     atom    8 type  5   force =    -0.00054335    0.00147053    0.03412186
     atom    9 type  6   force =    -0.00210787    0.00414248    0.00659603
     atom   10 type  6   force =    -0.00120609   -0.00203887   -0.00931815
     atom   11 type  6   force =     0.00480138   -0.00033684    0.00684202
     atom   12 type  6   force =    -0.00265073   -0.00377242    0.00690194
     atom   13 type  6   force =    -0.00117319    0.00185519   -0.00974994
     atom   14 type  6   force =     0.00215212   -0.00006129   -0.00992293
     atom   15 type  6   force =     0.00162390    0.00024451   -0.00609205
     atom   16 type  6   force =    -0.00058765    0.00130278   -0.00908349
     atom   17 type  6   force =    -0.00111696   -0.00005916    0.01073415
     atom   18 type  6   force =     0.00070260   -0.00123921    0.01049619
     atom   19 type  7   force =     0.00000000    0.00000000    0.00000000
     atom   20 type  7   force =     0.00000000    0.00000000    0.00000000
     The Hubbard contrib.    to forces
     atom    1 type  1   force =     0.00000000    0.00000000    0.00000000
     atom    2 type  2   force =     0.00000000    0.00000000    0.00000000
     atom    3 type  3   force =     0.00000000    0.00000000    0.00000000
     atom    4 type  3   force =     0.00000000    0.00000000    0.00000000
     atom    5 type  4   force =     0.00000000    0.00000000    0.00000000
     atom    6 type  5   force =     0.00000000    0.00000000    0.00000000
     atom    7 type  5   force =     0.00000000    0.00000000    0.00000000
     atom    8 type  5   force =     0.00000000    0.00000000    0.00000000
     atom    9 type  6   force =     0.00000000    0.00000000    0.00000000
     atom   10 type  6   force =     0.00000000    0.00000000    0.00000000
     atom   11 type  6   force =     0.00000000    0.00000000    0.00000000
     atom   12 type  6   force =     0.00000000    0.00000000    0.00000000
     atom   13 type  6   force =     0.00000000    0.00000000    0.00000000
     atom   14 type  6   force =     0.00000000    0.00000000    0.00000000
     atom   15 type  6   force =     0.00000000    0.00000000    0.00000000
     atom   16 type  6   force =     0.00000000    0.00000000    0.00000000
     atom   17 type  6   force =     0.00000000    0.00000000    0.00000000
     atom   18 type  6   force =     0.00000000    0.00000000    0.00000000
     atom   19 type  7   force =     0.00000000    0.00000000    0.00000000
     atom   20 type  7   force =     0.00000000    0.00000000    0.00000000
     The SCF correction term to forces
     atom    1 type  1   force =     0.00000235   -0.00009374    0.00014768
     atom    2 type  2   force =     0.00001436    0.00000522   -0.00003042
     atom    3 type  3   force =    -0.00001312   -0.00001086   -0.00002061
     atom    4 type  3   force =     0.00000345    0.00000521   -0.00002033
     atom    5 type  4   force =    -0.00002093   -0.00000359    0.00000955
     atom    6 type  5   force =     0.00003577   -0.00000105    0.00004782
     atom    7 type  5   force =    -0.00002577   -0.00000024    0.00001616
     atom    8 type  5   force =     0.00003232   -0.00000576   -0.00003195
     atom    9 type  6   force =     0.00005194   -0.00002405    0.00004409
     atom   10 type  6   force =     0.00000796    0.00000221   -0.00008304
     atom   11 type  6   force =    -0.00004546   -0.00003494    0.00004031
     atom   12 type  6   force =    -0.00000370    0.00004684    0.00003876
     atom   13 type  6   force =    -0.00000615   -0.00002122   -0.00003739
     atom   14 type  6   force =     0.00001104    0.00001022   -0.00005371
     atom   15 type  6   force =    -0.00006338   -0.00000231   -0.00011195
     atom   16 type  6   force =     0.00004901   -0.00002017   -0.00005945
     atom   17 type  6   force =     0.00005297   -0.00000924    0.00007774
     atom   18 type  6   force =    -0.00000170    0.00002007    0.00006091
     atom   19 type  7   force =     0.00002274    0.00003744   -0.00010785
     atom   20 type  7   force =    -0.00003187   -0.00002876    0.00003470

     Total force =     0.085290     Total SCF correction =     0.000344

     Computing stress (Cartesian axis) and pressure

          total   stress  (Ry/bohr**3)                   (kbar)     P=     -307.99
  -0.00204722  -0.00000037   0.00000337         -301.16       -0.05        0.50
  -0.00000037  -0.00203317  -0.00001683           -0.05     -299.09       -2.48
   0.00000337  -0.00001683  -0.00220064            0.50       -2.48     -323.73

     kinetic stress (kbar)  14428.80      0.32     -8.76
                                0.32  14426.26     -9.73
                               -8.76     -9.73  14184.18

     local   stress (kbar)  -9045.08    -55.53     38.90
                              -55.53  -9075.96   -204.83
                               38.90   -204.83  -6583.52

     nonloc. stress (kbar)   2783.35      1.40      6.31
                                1.40   2791.63      4.29
                                6.31      4.29   2831.83

     hartree stress (kbar)   5153.48     38.53    -27.01
                               38.53   5179.33     75.87
                              -27.01     75.87   3902.28

     exc-cor stress (kbar)   -726.95     -0.04      0.20
                               -0.04   -726.94      0.37
                                0.20      0.37   -723.27

     corecor stress (kbar)  -2674.58      0.22     -0.78
                                0.22  -2675.19     -0.28
                               -0.78     -0.28  -2681.68

     ewald   stress (kbar) -10220.17     15.05     -8.37
                               15.05 -10218.21    131.83
                               -8.37    131.83 -11253.56

     hubbard stress (kbar)      0.00      0.00      0.00
                                0.00      0.00      0.00
                                0.00      0.00      0.00

     DFT-D   stress (kbar)      0.00      0.00      0.00
                                0.00      0.00      0.00
                                0.00      0.00      0.00

     XDM     stress (kbar)      0.00      0.00      0.00
                                0.00      0.00      0.00
                                0.00      0.00      0.00

     dft-nl  stress (kbar)      0.00      0.00      0.00
                                0.00      0.00      0.00
                                0.00      0.00      0.00

     TS-vdW  stress (kbar)      0.00      0.00      0.00
                                0.00      0.00      0.00
                                0.00      0.00      0.00

[...]

                                0.00      0.00      0.00

     Writing all to output data dir calculations/myprefix.save/

     General routines

     Parallel routines

     PAW routines

   This run was terminated on:   8:33: 3   6Mar2023

   JOB DONE.