     Program PWSCF v.7.0 starts on  3Mar2023 at 12:40:58

     R & G space division:  proc/nbgrp/npool/nimage =      32

     Reading input from espresso_304.pwi
Warning: card &CELL ignored
Warning: card / ignored

     Current dimensions of program PWSCF are:
     Max number of different atomic species (ntypx) = 10
     Max number of k-points (npk) =  40000
     Max angular momentum in pseudopotentials (lmaxx) =  4
     file Cd.pbe-dn-rrkjus_psl.0.3.1.UPF: wavefunction(s)  4D renormalized
     file Ga.pbe-dn-kjpaw_psl.1.0.0.UPF: wavefunction(s)  4S renormalized

     gamma-point specific algorithms are used
     Message from routine setup:
     using ibrav=0 with symmetry is DISCOURAGED, use correct ibrav instead

     Using Slab Decomposition

     bravais-lattice index     =            0
     lattice parameter (alat)  =      14.6978  a.u.
     unit-cell volume          =    1723.5512 (a.u.)^3
     number of atoms/cell      =            8
     number of atomic types    =            4
     number of electrons       =        80.00
     number of Kohn-Sham states=           48
     kinetic-energy cutoff     =      30.0000  Ry
     charge density cutoff     =     240.0000  Ry
     scf convergence threshold =      1.0E-06
     mixing beta               =       0.7000
     number of iterations used =            8  plain     mixing
     Exchange-correlation= SLA  PW   PBE  PBE
                           (   1   4   3   4   0   0   0)

     celldm(1)=  14.697795  celldm(2)=   0.000000  celldm(3)=   0.000000
     celldm(4)=   0.000000  celldm(5)=   0.000000  celldm(6)=   0.000000

     crystal axes: (cart. coord. in units of alat)
               a(1) = (   1.000000   0.000000   0.000000 )
               a(2) = (   0.335773   0.941943   0.000000 )
               a(3) = (  -0.667887  -0.470971   0.576293 )

     reciprocal axes: (cart. coord. in units 2 pi/alat)
               b(1) = (  1.000000 -0.356469  0.867615 )
               b(2) = (  0.000000  1.061636  0.867615 )
               b(3) = (  0.000000  0.000000  1.735229 )

     PseudoPot. # 1 for Cd read from file:
     /home/pragov/projects/rrg-bengioy-ad/pragov/crystal_structure_design/SSSP/Cd.pbe-dn-rrkjus_psl.0.3.1.UPF
     MD5 check sum: 558e9f355611b531a870a69ef6ace9e2
     Pseudo is Ultrasoft + core correction, Zval = 12.0
     Generated using "atomic" code by A. Dal Corso  v.5.0.99 svn rev. 10869
     Using radial grid of 1239 points,  6 beta functions with:
                l(1) =   0
                l(2) =   0
                l(3) =   1
                l(4) =   1
                l(5) =   2
                l(6) =   2
     Q(r) pseudized with 0 coefficients

     PseudoPot. # 2 for Ga read from file:
     /home/pragov/projects/rrg-bengioy-ad/pragov/crystal_structure_design/SSSP/Ga.pbe-dn-kjpaw_psl.1.0.0.UPF
     MD5 check sum: a27b4342b1af7e5f338de752e9ed7044
     Pseudo is Projector augmented-wave + core cor, Zval = 13.0
     Generated using "atomic" code by A. Dal Corso  v.5.1
     Shape of augmentation charge: PSQ
     Using radial grid of 1205 points,  6 beta functions with:
                l(1) =   0
                l(2) =   0
                l(3) =   1
                l(4) =   1
                l(5) =   2
                l(6) =   2
     Q(r) pseudized with 0 coefficients

     PseudoPot. # 3 for Cu read from file:
     /home/pragov/projects/rrg-bengioy-ad/pragov/crystal_structure_design/SSSP/Cu_pbe_v1.2.uspp.F.UPF
     MD5 check sum: 6e991ff952a84172a2a52a1c1e996048
     Pseudo is Ultrasoft + core correction, Zval = 19.0
     Generated by new atomic code, or converted to UPF format
     Using radial grid of  867 points,  6 beta functions with:
                l(1) =   0
                l(2) =   0
                l(3) =   1
                l(4) =   1
                l(5) =   2
                l(6) =   2
     Q(r) pseudized with  8 coefficients,  rinner =    1.150   1.150   1.150
                                                       1.150   1.150

     PseudoPot. # 4 for Te read from file:
     /home/pragov/projects/rrg-bengioy-ad/pragov/crystal_structure_design/SSSP/Te_pbe_v1.uspp.F.UPF
     MD5 check sum: c319670d6894cc26e93307826a071b75
     Pseudo is Ultrasoft + core correction, Zval =  6.0
     Generated by new atomic code, or converted to UPF format
     Using radial grid of  891 points,  5 beta functions with:
                l(1) =   0
                l(2) =   0
                l(3) =   1
                l(4) =   1
                l(5) =   2
     Q(r) pseudized with  6 coefficients,  rinner =    1.800   1.800   1.800
                                                       1.800   1.800

     atomic species   valence    mass     pseudopotential
        Cd            12.00   112.41400     Cd( 1.00)
        Ga            13.00    69.72300     Ga( 1.00)
        Cu            19.00    63.54600     Cu( 1.00)
        Te             6.00   127.60000     Te( 1.00)

      2 Sym. Ops. (no inversion) found

                                    s                        frac. trans.

      isym =  1     identity

 cryst.   s( 1) = (     1          0          0      )
                  (     0          1          0      )
                  (     0          0          1      )

 cart.    s( 1) = (  1.0000000 -0.0000000 -0.0000000 )
                  (  0.0000000  1.0000000 -0.0000000 )
                  (  0.0000000  0.0000000  1.0000000 )

      isym =  2     inv. 180 deg rotation - cart. axis [0,0,1]

 cryst.   s( 2) = (     1          0          0      )
                  (     0          1          0      )
                  (    -1         -1         -1      )

 cart.    s( 2) = (  1.0000000 -0.0000000 -0.0000000 )
                  (  0.0000000  1.0000000 -0.0000000 )
                  (  0.0000000  0.0000000 -1.0000000 )

   Cartesian axes

     site n.     atom                  positions (alat units)
         1           Cd  tau(   1) = (   0.5000000   0.0000000   0.2881463  )
         2           Cd  tau(   2) = (   0.1678867   0.4709714   0.2881463  )
         3           Ga  tau(   3) = (   0.6678867   0.4709714   0.0000000  )
         4           Cu  tau(   4) = (   0.0000000   0.0000000   0.0000000  )
         5           Te  tau(   5) = (   0.5186441   0.3657305   0.2920876  )
         6           Te  tau(   6) = (   0.6488014   0.8149190   0.0000000  )
         7           Te  tau(   7) = (  -0.1492426  -0.1052409   0.2842051  )
         8           Te  tau(   8) = (   0.9854573   0.3375056   0.0000000  )

   Crystallographic axes

     site n.     atom                  positions (cryst. coord.)
         1           Cd  tau(   1) = (  0.7500000  0.2500000  0.5000000  )
         2           Cd  tau(   2) = (  0.2500000  0.7500000  0.5000000  )
         3           Ga  tau(   3) = (  0.5000000  0.5000000  0.0000000  )
         4           Cu  tau(   4) = (  0.0000000  0.0000000  0.0000000  )
         5           Te  tau(   5) = (  0.6416920  0.6416920  0.5068390  )
         6           Te  tau(   6) = (  0.3583080  0.8651470  0.0000000  )
         7           Te  tau(   7) = (  0.1348530  0.1348530  0.4931610  )
         8           Te  tau(   8) = (  0.8651470  0.3583080  0.0000000  )

     number of k points=     1  Methfessel-Paxton smearing, width (Ry)=  0.0010
                       cart. coord. in units 2pi/alat
        k(    1) = (   0.0000000   0.0000000   0.0000000), wk =   2.0000000

                       cryst. coord.
        k(    1) = (   0.0000000   0.0000000   0.0000000), wk =   2.0000000

     Initial potential from superposition of free atoms

     starting charge      78.9864, renormalised to      80.0000
     Starting wfcs are   56 randomized atomic wfcs
     Checking if some PAW data can be deallocated...

     Self-consistent Calculation

     iteration #  1     ecut=    30.00 Ry     beta= 0.70
     Davidson diagonalization with overlap

     ethr =  1.00E-02,  avg # of iterations =  2.0

     total energy              =   -1030.55181849 Ry
     estimated scf accuracy    <       2.53766760 Ry

[...]

     total energy              =   -1032.05813032 Ry
     estimated scf accuracy    <       0.00000114 Ry

     iteration # 15     ecut=    30.00 Ry     beta= 0.70
     Davidson diagonalization with overlap

     ethr =  1.43E-09,  avg # of iterations =  3.0

     End of self-consistent calculation

          k = 0.0000 0.0000 0.0000 (  2407 PWs)   bands (ev):

  -105.9400 -63.4770 -63.2789 -63.2789  -9.9981  -9.9981  -9.9781  -9.9662
    -9.9245  -6.2696  -5.2889  -5.2888  -5.2325  -3.1143  -3.1143  -3.0270
    -3.0134  -3.0110  -2.9615  -2.9559  -2.8652  -2.7341  -2.7341  -0.9553
     1.0358   1.1824   2.2741   2.4150   2.5142   2.5142   2.9615   2.9616
     3.5510   3.7160   3.7702   3.7702   4.1658   5.5389   5.5390   5.5811
     5.6978   7.3954   7.5734   9.2030   9.2053   9.2053   9.3827   9.7950

     occupation numbers
     1.0000   1.0000   1.0000   1.0000   1.0000   1.0000   1.0000   1.0000
     1.0000   1.0000   1.0000   1.0000   1.0000   1.0000   1.0000   1.0000
     1.0000   1.0000   1.0000   1.0000   1.0000   1.0000   1.0000   1.0000
     1.0000   1.0000   1.0000   1.0000   1.0000   1.0000   1.0000   1.0000
     1.0000   1.0000   1.0000   1.0000   1.0000   1.0000   1.0000   1.0000
    -0.0000  -0.0000  -0.0000  -0.0000  -0.0000  -0.0000  -0.0000  -0.0000

     the Fermi energy is     5.6395 ev

!    total energy              =   -1032.05813043 Ry
     estimated scf accuracy    <       0.00000004 Ry
     smearing contrib. (-TS)   =       0.00000000 Ry
     internal energy E=F+TS    =   -1032.05813043 Ry

     The total energy is F=E-TS. E is the sum of the following terms:
     one-electron contribution =    -692.81861718 Ry
     hartree contribution      =     395.47186829 Ry
     xc contribution           =    -220.54373606 Ry
     ewald contribution        =    -403.23397270 Ry
     one-center paw contrib.   =    -110.93367277 Ry
      -> PAW hartree energy AE =       0.00000000 Ry
      -> PAW hartree energy PS =       0.00000000 Ry
      -> PAW xc energy AE      =       0.00000000 Ry
      -> PAW xc energy PS      =       0.00000000 Ry
      -> total E_H with PAW    =     395.47186829 Ry
      -> total E_XC with PAW   =    -220.54373606 Ry

     convergence has been achieved in  15 iterations

     Forces acting on atoms (cartesian axes, Ry/au):

     atom    1 type  1   force =     0.00000800   -0.00002717   -0.00002178
     atom    2 type  1   force =     0.00000800   -0.00002717    0.00002178
     atom    3 type  2   force =     0.00002707   -0.00000055   -0.00000000
     atom    4 type  3   force =     0.00000223    0.00018690   -0.00000000
     atom    5 type  4   force =     0.01068385    0.00750608    0.00079116
     atom    6 type  4   force =    -0.01116457   -0.00692619    0.00000000
     atom    7 type  4   force =     0.01068385    0.00750608   -0.00079116
     atom    8 type  4   force =    -0.01024843   -0.00821800    0.00000000
     The non-local contrib.  to forces
     atom    1 type  1   force =     0.00003012    0.00002572   -0.00001006
     atom    2 type  1   force =     0.00003012    0.00002572    0.00001006
     atom    3 type  2   force =     0.00000532    0.00004057   -0.00000000
     atom    4 type  3   force =     0.00004205    0.00013369   -0.00000000
     atom    5 type  4   force =     0.05287362    0.03719616    0.12807246
     atom    6 type  4   force =    -0.12680187    0.06725223    0.00000000
     atom    7 type  4   force =     0.05287362    0.03719616   -0.12807246
     atom    8 type  4   force =     0.02085773   -0.14209042    0.00000000
     The ionic contribution  to forces
     atom    1 type  1   force =    -0.00000000   -0.00000000   -0.00000000
     atom    2 type  1   force =    -0.00000000   -0.00000000    0.00000000
     atom    3 type  2   force =    -0.00000000   -0.00000000   -0.00000000
     atom    4 type  3   force =    -0.00000000    0.00000000   -0.00000000
     atom    5 type  4   force =    -2.10755225   -1.48617536   -1.97549246
     atom    6 type  4   force =     3.24601412   -0.12828276   -0.00000000
     atom    7 type  4   force =    -2.10755225   -1.48617536    1.97549246
     atom    8 type  4   force =     0.96909037    3.10063348    0.00000000
     The local contribution  to forces
     atom    1 type  1   force =     0.00005932   -0.00000863    0.00002677
     atom    2 type  1   force =    -0.00000256    0.00001359   -0.00004740
     atom    3 type  2   force =    -0.00003080   -0.00003965   -0.00004857
     atom    4 type  3   force =    -0.00007875   -0.00028229   -0.00012129
     atom    5 type  4   force =     2.05852101    1.45166566    1.83026300
     atom    6 type  4   force =    -3.11315631    0.04423502    0.00008036
     atom    7 type  4   force =     2.05850974    1.45166967   -1.83014545
     atom    8 type  4   force =    -1.00370263   -2.94716847    0.00006769
     The core correction contribution to forces
     atom    1 type  1   force =     0.00000091   -0.00000105    0.00000027
     atom    2 type  1   force =    -0.00000061   -0.00000107   -0.00000139
     atom    3 type  2   force =     0.00000009   -0.00000119   -0.00000134
     atom    4 type  3   force =     0.00000002    0.00000007   -0.00000006
     atom    5 type  4   force =     0.00681216    0.00479385    0.01792156
     atom    6 type  4   force =    -0.01715631    0.00983432   -0.00001003
     atom    7 type  4   force =     0.00681143    0.00479450   -0.01793489
     atom    8 type  4   force =     0.00351135   -0.01947088   -0.00000925
     The Hubbard contrib.    to forces
     atom    1 type  1   force =     0.00000000    0.00000000    0.00000000
     atom    2 type  1   force =     0.00000000    0.00000000    0.00000000
     atom    3 type  2   force =     0.00000000    0.00000000    0.00000000
     atom    4 type  3   force =     0.00000000    0.00000000    0.00000000
     atom    5 type  4   force =     0.00000000    0.00000000    0.00000000
     atom    6 type  4   force =     0.00000000    0.00000000    0.00000000
     atom    7 type  4   force =     0.00000000    0.00000000    0.00000000
     atom    8 type  4   force =     0.00000000    0.00000000    0.00000000
     The SCF correction term to forces
     atom    1 type  1   force =    -0.00007737   -0.00000178   -0.00003958
     atom    2 type  1   force =    -0.00000261   -0.00004793    0.00005969
     atom    3 type  2   force =     0.00006311    0.00002917    0.00007456
     atom    4 type  3   force =     0.00004955    0.00036487    0.00014019
     atom    5 type  4   force =     0.00003334    0.00005916    0.00008664
     atom    6 type  4   force =    -0.00005354    0.00006445    0.00001827
     atom    7 type  4   force =     0.00005858    0.00004662   -0.00007078
     atom    8 type  4   force =     0.00000541   -0.00009226    0.00002445

     Total force =     0.026219     Total SCF correction =     0.000467

     Computing stress (Cartesian axis) and pressure

          total   stress  (Ry/bohr**3)                   (kbar)     P=      -85.61
  -0.00077834  -0.00027642   0.00000000         -114.50      -40.66        0.00
  -0.00027642  -0.00058121   0.00000000          -40.66      -85.50        0.00
   0.00000000   0.00000000  -0.00038642            0.00        0.00      -56.84

     kinetic stress (kbar)   8814.02    -43.56     -0.00
                              -43.56   8845.09     -0.00
                               -0.00     -0.00   8875.79

     local   stress (kbar)  -2550.46    884.75      0.02
                              884.75  -3181.25      0.01
                                0.02      0.01  -3805.06

     nonloc. stress (kbar)  -1993.32     -7.98      0.00
                               -7.98  -1987.63      0.00
                                0.00      0.00  -1982.02

     hartree stress (kbar)  10960.83   -408.74     -0.01
                             -408.74  11252.26     -0.01
                               -0.01     -0.01  11540.43

     exc-cor stress (kbar)   5864.54     -0.19     -0.00
                               -0.19   5864.68     -0.00
                               -0.00     -0.00   5864.81

     corecor stress (kbar)  -9406.91      1.32     -0.00
                                1.32  -9407.85     -0.00
                               -0.00     -0.00  -9408.78

     ewald   stress (kbar) -11803.21   -466.26     -0.00
                             -466.26 -11470.80     -0.00
                               -0.00     -0.00 -11142.01

     hubbard stress (kbar)      0.00      0.00      0.00
                                0.00      0.00      0.00
                                0.00      0.00      0.00

     DFT-D   stress (kbar)      0.00      0.00      0.00
                                0.00      0.00      0.00
                                0.00      0.00      0.00

     XDM     stress (kbar)      0.00      0.00      0.00
                                0.00      0.00      0.00
                                0.00      0.00      0.00

     dft-nl  stress (kbar)      0.00      0.00      0.00
                                0.00      0.00      0.00
                                0.00      0.00      0.00

     TS-vdW  stress (kbar)      0.00      0.00      0.00
                                0.00      0.00      0.00
                                0.00      0.00      0.00

[...]

                                0.00      0.00      0.00

     Writing all to output data dir calculations/myprefix.save/

     General routines

     Parallel routines

     PAW routines

   This run was terminated on:  12:41: 3   3Mar2023

   JOB DONE.