     Program PWSCF v.7.0 starts on  4Mar2023 at 19:42:46

     R & G space division:  proc/nbgrp/npool/nimage =      32

     Reading input from espresso_7432.pwi
Warning: card &CELL ignored
Warning: card / ignored

     Current dimensions of program PWSCF are:
     Max number of different atomic species (ntypx) = 10
     Max number of k-points (npk) =  40000
     Max angular momentum in pseudopotentials (lmaxx) =  4

     gamma-point specific algorithms are used
     Message from routine setup:
     using ibrav=0 with symmetry is DISCOURAGED, use correct ibrav instead

     Using Slab Decomposition

     bravais-lattice index     =            0
     lattice parameter (alat)  =       8.0477  a.u.
     unit-cell volume          =     742.7287 (a.u.)^3
     number of atoms/cell      =            4
     number of atomic types    =            2
     number of electrons       =        52.00
     number of Kohn-Sham states=           31
     kinetic-energy cutoff     =      30.0000  Ry
     charge density cutoff     =     240.0000  Ry
     scf convergence threshold =      1.0E-06
     mixing beta               =       0.7000
     number of iterations used =            8  plain     mixing
     Exchange-correlation= SLA  PW   PBX  PBC
                           (   1   4   3   4   0   0   0)

     celldm(1)=   8.047743  celldm(2)=   0.000000  celldm(3)=   0.000000
     celldm(4)=   0.000000  celldm(5)=   0.000000  celldm(6)=   0.000000

     crystal axes: (cart. coord. in units of alat)
               a(1) = (   1.000000   0.000000   0.000000 )
               a(2) = (  -0.500000   0.866025   0.000000 )
               a(3) = (   0.000000   0.000000   1.645422 )

     reciprocal axes: (cart. coord. in units 2 pi/alat)
               b(1) = (  1.000000  0.577350  0.000000 )
               b(2) = (  0.000000  1.154701  0.000000 )
               b(3) = (  0.000000  0.000000  0.607747 )

     PseudoPot. # 1 for Cu read from file:
     /home/pragov/projects/rrg-bengioy-ad/pragov/crystal_structure_design/SSSP/Cu_pbe_v1.2.uspp.F.UPF
     MD5 check sum: 6e991ff952a84172a2a52a1c1e996048
     Pseudo is Ultrasoft + core correction, Zval = 19.0
     Generated by new atomic code, or converted to UPF format
     Using radial grid of  867 points,  6 beta functions with:
                l(1) =   0
                l(2) =   0
                l(3) =   1
                l(4) =   1
                l(5) =   2
                l(6) =   2
     Q(r) pseudized with  8 coefficients,  rinner =    1.150   1.150   1.150
                                                       1.150   1.150

     PseudoPot. # 2 for I  read from file:
     /home/pragov/projects/rrg-bengioy-ad/pragov/crystal_structure_design/SSSP/I.pbe-n-kjpaw_psl.0.2.UPF
     MD5 check sum: d4ef18d9c8f18dc85e5843bca1e50dc0
     Pseudo is Projector augmented-wave + core cor, Zval =  7.0
     Generated using "atomic" code by A. Dal Corso  v.5.0.99 svn rev. 10869
     Shape of augmentation charge: PSQ
     Using radial grid of 1247 points,  4 beta functions with:
                l(1) =   0
                l(2) =   0
                l(3) =   1
                l(4) =   1
     Q(r) pseudized with 0 coefficients

     atomic species   valence    mass     pseudopotential
        Cu            19.00    63.54600     Cu( 1.00)
        I              7.00   126.90447     I ( 1.00)

     12 Sym. Ops. (no inversion) found ( 6 have fractional translation)

                                    s                        frac. trans.

      isym =  1     identity

 cryst.   s( 1) = (     1          0          0      )
                  (     0          1          0      )
                  (     0          0          1      )

 cart.    s( 1) = (  1.0000000 -0.0000000  0.0000000 )
                  (  0.0000000  1.0000000  0.0000000 )
                  (  0.0000000  0.0000000  1.0000000 )

      isym =  2     180 deg rotation - cart. axis [0,0,1]

 cryst.   s( 2) = (    -1          0          0      )    f =( -0.0000000 )
                  (     0         -1          0      )       ( -0.0000000 )
                  (     0          0          1      )       ( -0.5000000 )

 cart.    s( 2) = ( -1.0000000  0.0000000  0.0000000 )    f =( -0.0000000 )
                  (  0.0000000 -1.0000000  0.0000000 )       ( -0.0000000 )
                  (  0.0000000  0.0000000  1.0000000 )       ( -0.8227110 )

      isym =  3      60 deg rotation - cryst. axis [0,0,1]

[...]

      isym =  6     120 deg rotation - cryst. axis [0,0,-1]

[...]

      isym =  7     inv. 180 deg rotation - cart. axis [0,1,0]

[...]

      isym =  8     inv. 180 deg rotation - cart. axis [1,0,0]

 cryst.   s( 8) = (    -1          0          0      )
                  (     1          1          0      )
                  (     0          0          1      )

 cart.    s( 8) = ( -1.0000000 -0.0000001  0.0000000 )
                  (  0.0000000  1.0000000  0.0000000 )
                  (  0.0000000  0.0000000  1.0000000 )

      isym =  9     inv. 180 deg rotation - cryst. axis [1,-1,0]

 cryst.   s( 9) = (     0          1          0      )    f =( -0.0000000 )
                  (     1          0          0      )       ( -0.0000000 )
                  (     0          0          1      )       ( -0.5000000 )

 cart.    s( 9) = ( -0.5000000  0.8660254  0.0000000 )    f =( -0.0000000 )
                  (  0.8660254  0.5000000  0.0000000 )       ( -0.0000000 )
                  (  0.0000000  0.0000000  1.0000000 )       ( -0.8227110 )

[...]

 cryst.   s(10) = (    -1         -1          0      )    f =( -0.0000000 )
                  (     0          1          0      )       ( -0.0000010 )
                  (     0          0          1      )       ( -0.5000000 )

 cart.    s(10) = ( -0.5000000 -0.8660255  0.0000000 )    f =(  0.0000005 )
                  ( -0.8660254  0.5000000  0.0000000 )       ( -0.0000009 )
                  (  0.0000000  0.0000000  1.0000000 )       ( -0.8227110 )

[...]

 cryst.   s(11) = (     1          1          0      )
                  (     0         -1          0      )
                  (     0          0          1      )

 cart.    s(11) = (  0.5000000  0.8660255  0.0000000 )
                  (  0.8660254 -0.5000000  0.0000000 )
                  (  0.0000000  0.0000000  1.0000000 )

      isym = 12     inv. 180 deg rotation - cryst. axis [1,1,0]

 cryst.   s(12) = (     0         -1          0      )
                  (    -1          0          0      )
                  (     0          0          1      )

 cart.    s(12) = (  0.5000000 -0.8660254  0.0000000 )
                  ( -0.8660254 -0.5000000  0.0000000 )
                  (  0.0000000  0.0000000  1.0000000 )

   Cartesian axes

     site n.     atom                  positions (alat units)
         1           Cu  tau(   1) = (  -0.0000005   0.5773505   0.6161644  )
         2           Cu  tau(   2) = (   0.5000005   0.2886748   1.4388754  )
         3           I   tau(   3) = (  -0.0000005   0.5773505   0.0008688  )
         4           I   tau(   4) = (   0.5000005   0.2886748   0.8235797  )

   Crystallographic axes

     site n.     atom                  positions (cryst. coord.)
         1           Cu  tau(   1) = (  0.3333330  0.6666670  0.3744720  )
         2           Cu  tau(   2) = (  0.6666670  0.3333330  0.8744720  )
         3           I   tau(   3) = (  0.3333330  0.6666670  0.0005280  )
         4           I   tau(   4) = (  0.6666670  0.3333330  0.5005280  )

     number of k points=     1  Methfessel-Paxton smearing, width (Ry)=  0.0010
                       cart. coord. in units 2pi/alat
        k(    1) = (   0.0000000   0.0000000   0.0000000), wk =   2.0000000

                       cryst. coord.
        k(    1) = (   0.0000000   0.0000000   0.0000000), wk =   2.0000000

     Check: negative core charge=   -0.000001

     Initial potential from superposition of free atoms

     starting charge      49.9998, renormalised to      52.0000
     Starting wfcs are   34 randomized atomic wfcs
     Checking if some PAW data can be deallocated...

     Self-consistent Calculation

     iteration #  1     ecut=    30.00 Ry     beta= 0.70
     Davidson diagonalization with overlap

     ethr =  1.00E-02,  avg # of iterations =  4.0

     total energy              =   -1561.14797009 Ry
     estimated scf accuracy    <       4.38373475 Ry

[...]

     negative rho (up, down):  9.272E-05 0.000E+00

[...]

     total energy              =   -1564.41914346 Ry
     estimated scf accuracy    <       0.00000171 Ry

     iteration # 18     ecut=    30.00 Ry     beta= 0.70
     Davidson diagonalization with overlap

     ethr =  2.53E-09,  avg # of iterations =  2.0

[...]

     End of self-consistent calculation

          k = 0.0000 0.0000 0.0000 (  1017 PWs)   bands (ev):

  -104.5638-104.5606 -62.0653 -62.0577 -61.9715 -61.9715 -61.9660 -61.9660
    -6.5493  -5.9070   1.4438   3.4866   3.5170   3.5170   3.5344   3.5344
     4.9767   4.9767   5.0527   5.0527   5.0832   6.4508   6.4508   7.0865
     7.2372   7.2372   8.2623   8.9769  11.7092  11.7092  11.8823

     occupation numbers
     1.0000   1.0000   1.0000   1.0000   1.0000   1.0000   1.0000   1.0000
     1.0000   1.0000   1.0000   1.0000   1.0000   1.0000   1.0000   1.0000
     1.0000   1.0000   1.0000   1.0000   1.0000   1.0000   1.0000   1.0000
     1.0000   1.0000  -0.0000  -0.0000  -0.0000  -0.0000  -0.0000

     the Fermi energy is     7.4591 ev

!    total energy              =   -1564.41914315 Ry
     estimated scf accuracy    <       0.00000045 Ry
     smearing contrib. (-TS)   =       0.00000000 Ry
     internal energy E=F+TS    =   -1564.41914315 Ry

     The total energy is F=E-TS. E is the sum of the following terms:
     one-electron contribution =    -831.38099978 Ry
     hartree contribution      =     436.47252003 Ry
     xc contribution           =    -161.89735812 Ry
     ewald contribution        =    -366.54011976 Ry
     one-center paw contrib.   =    -641.07318551 Ry
      -> PAW hartree energy AE =       0.00000000 Ry
      -> PAW hartree energy PS =       0.00000000 Ry
      -> PAW xc energy AE      =       0.00000000 Ry
      -> PAW xc energy PS      =       0.00000000 Ry
      -> total E_H with PAW    =     436.47252003 Ry
      -> total E_XC with PAW   =    -161.89735812 Ry

     convergence has been achieved in  18 iterations

     negative rho (up, down):  2.329E-03 0.000E+00

     Forces acting on atoms (cartesian axes, Ry/au):

     atom    1 type  1   force =    -0.00000000   -0.00000000   -0.07611260
     atom    2 type  1   force =     0.00000000   -0.00000000   -0.07611260
     atom    3 type  2   force =     0.00000000    0.00000000    0.07611260
     atom    4 type  2   force =     0.00000000    0.00000000    0.07611260
     The non-local contrib.  to forces
     atom    1 type  1   force =     0.00000000   -0.00000000    0.54352275
     atom    2 type  1   force =    -0.00000000    0.00000000    0.54352275
     atom    3 type  2   force =     0.00000000    0.00000000   -0.00873508
     atom    4 type  2   force =     0.00000000    0.00000000   -0.00873508
     The ionic contribution  to forces
     atom    1 type  1   force =     0.00003741   -0.00002160   -0.29022473
     atom    2 type  1   force =    -0.00003741    0.00002160   -0.29022473
     atom    3 type  2   force =     0.00003352   -0.00001935    0.29022473
     atom    4 type  2   force =    -0.00003352    0.00001935    0.29022473
     The local contribution  to forces
     atom    1 type  1   force =    -0.00005022    0.00002947   -0.32833944
     atom    2 type  1   force =     0.00004914   -0.00002849   -0.32872916
     atom    3 type  2   force =    -0.00003201    0.00001912   -0.21441902
     atom    4 type  2   force =     0.00003250   -0.00001823   -0.21420757
     The core correction contribution to forces
     atom    1 type  1   force =    -0.00000002   -0.00000002   -0.00081789
     atom    2 type  1   force =     0.00000001   -0.00000002   -0.00081779
     atom    3 type  2   force =     0.00000059   -0.00000010    0.00895593
     atom    4 type  2   force =    -0.00000039    0.00000051    0.00897120
     The Hubbard contrib.    to forces
     atom    1 type  1   force =     0.00000000    0.00000000    0.00000000
     atom    2 type  1   force =     0.00000000    0.00000000    0.00000000
     atom    3 type  2   force =     0.00000000    0.00000000    0.00000000
     atom    4 type  2   force =     0.00000000    0.00000000    0.00000000
     The SCF correction term to forces
     atom    1 type  1   force =     0.00000043   -0.00000211   -0.00025814
     atom    2 type  1   force =    -0.00000079   -0.00000196    0.00016958
     atom    3 type  2   force =    -0.00000035   -0.00000025    0.00009572
     atom    4 type  2   force =    -0.00000007   -0.00000062   -0.00012194

     Total force =     0.152225     Total SCF correction =     0.000346

     Computing stress (Cartesian axis) and pressure

     negative rho (up, down):  2.329E-03 0.000E+00
          total   stress  (Ry/bohr**3)                   (kbar)     P=      -15.16
   0.00025691   0.00000000   0.00000000           37.79        0.00        0.00
   0.00000000   0.00025691   0.00000000            0.00       37.79        0.00
   0.00000000   0.00000000  -0.00082293            0.00        0.00     -121.06

     kinetic stress (kbar)  13148.40      0.00      0.00
                                0.00  13148.40     -0.00
                                0.00     -0.00  12956.37

     local   stress (kbar) -18407.91     -0.09      0.00
                               -0.09 -18408.01      0.00
                                0.00      0.00 -19673.80

     nonloc. stress (kbar)   7045.10      0.00      0.00
                                0.00   7045.10      0.00
                                0.00      0.00   7062.37

     hartree stress (kbar)  28597.39      0.03     -0.00
                                0.03  28597.42     -0.00
                               -0.00     -0.00  29253.08

     exc-cor stress (kbar)   8684.20      0.00     -0.00
                                0.00   8684.20     -0.00
                               -0.00     -0.00   8686.40

     corecor stress (kbar) -14631.38     -0.00     -0.00
                               -0.00 -14631.38      0.00
                               -0.00      0.00 -14604.37

     ewald   stress (kbar) -24398.01      0.06      0.00
                                0.06 -24397.94     -0.00
                                0.00     -0.00 -23801.11

     hubbard stress (kbar)      0.00      0.00      0.00
                                0.00      0.00      0.00
                                0.00      0.00      0.00

     DFT-D   stress (kbar)      0.00      0.00      0.00
                                0.00      0.00      0.00
                                0.00      0.00      0.00

     XDM     stress (kbar)      0.00      0.00      0.00
                                0.00      0.00      0.00
                                0.00      0.00      0.00

     dft-nl  stress (kbar)      0.00      0.00      0.00
                                0.00      0.00      0.00
                                0.00      0.00      0.00

     TS-vdW  stress (kbar)      0.00      0.00      0.00
                                0.00      0.00      0.00
                                0.00      0.00      0.00

[...]

                                0.00      0.00      0.00

     Writing all to output data dir calculations/myprefix.save/

     General routines

     Parallel routines

     PAW routines

   This run was terminated on:  19:42:48   4Mar2023

   JOB DONE.