     Program PWSCF v.7.0 starts on  6Mar2023 at 14:13:20

     R & G space division:  proc/nbgrp/npool/nimage =      32

     Reading input from espresso_4886.pwi
Warning: card &CELL ignored
Warning: card / ignored

     Current dimensions of program PWSCF are:
     Max number of different atomic species (ntypx) = 10
     Max number of k-points (npk) =  40000
     Max angular momentum in pseudopotentials (lmaxx) =  4

     gamma-point specific algorithms are used
     Message from routine setup:
     using ibrav=0 with symmetry is DISCOURAGED, use correct ibrav instead

     Using Slab Decomposition

     bravais-lattice index     =            0
     lattice parameter (alat)  =      13.4767  a.u.
     unit-cell volume          =    1945.4143 (a.u.)^3
     number of atoms/cell      =           14
     number of atomic types    =            4
     number of electrons       =       138.00
     number of Kohn-Sham states=           83
     kinetic-energy cutoff     =      30.0000  Ry
     charge density cutoff     =     240.0000  Ry
     scf convergence threshold =      1.0E-06
     mixing beta               =       0.7000
     number of iterations used =            8  plain     mixing
     Exchange-correlation=  SLA  PW   PBX  PBC
                           (   1   4   3   4   0   0   0)

     celldm(1)=  13.476731  celldm(2)=   0.000000  celldm(3)=   0.000000
     celldm(4)=   0.000000  celldm(5)=   0.000000  celldm(6)=   0.000000

     crystal axes: (cart. coord. in units of alat)
               a(1) = (   1.000000   0.000000   0.000000 )
               a(2) = (   0.000000   0.865223   0.000000 )
               a(3) = (   0.000000   0.023273   0.918609 )

     reciprocal axes: (cart. coord. in units 2 pi/alat)
               b(1) = (  1.000000  0.000000  0.000000 )
               b(2) = (  0.000000  1.155772 -0.029281 )
               b(3) = (  0.000000  0.000000  1.088603 )

     PseudoPot. # 1 for Hf read from file:
     /home/pragov/projects/rrg-bengioy-ad/pragov/crystal_structure_design/SSSP/Hf-sp.oncvpsp.upf
     MD5 check sum: 417ed15784afe83d2e06dacf143de3f8
     Pseudo is Norm-conserving + core correction, Zval = 12.0
     Generated using ONCVPSP code by D. R. Hamann
     Using radial grid of 1656 points,  8 beta functions with:
                l(1) =   0
                l(2) =   0
                l(3) =   1
                l(4) =   1
                l(5) =   2
                l(6) =   2
                l(7) =   3
                l(8) =   3

     PseudoPot. # 2 for Cr read from file:
     /home/pragov/projects/rrg-bengioy-ad/pragov/crystal_structure_design/SSSP/cr_pbe_v1.5.uspp.F.UPF
     MD5 check sum: 0d52af634a40206e4dee301ad30da4bf
     Pseudo is Ultrasoft + core correction, Zval = 14.0
     Generated by new atomic code, or converted to UPF format
     Using radial grid of  857 points,  6 beta functions with:
                l(1) =   0
                l(2) =   0
                l(3) =   1
                l(4) =   1
                l(5) =   2
                l(6) =   2
     Q(r) pseudized with  8 coefficients,  rinner =    0.950   0.950   0.950
                                                       0.950   0.950

     PseudoPot. # 3 for Ag read from file:
     /home/pragov/projects/rrg-bengioy-ad/pragov/crystal_structure_design/SSSP/Ag_ONCV_PBE-1.0.oncvpsp.upf
     MD5 check sum: 94f47bd0669c641108e45594df92fabc
     Pseudo is Norm-conserving, Zval = 19.0
     Generated using ONCVPSP code by D. R. Hamann
     Using radial grid of 1398 points,  6 beta functions with:
                l(1) =   0
                l(2) =   0
                l(3) =   1
                l(4) =   1
                l(5) =   2
                l(6) =   2

     PseudoPot. # 4 for S  read from file:
     /home/pragov/projects/rrg-bengioy-ad/pragov/crystal_structure_design/SSSP/s_pbe_v1.4.uspp.F.UPF
     MD5 check sum: 88d86576ff6df21479756cfb9bdac1df
     Pseudo is Ultrasoft + core correction, Zval =  6.0
     Generated by new atomic code, or converted to UPF format
     Using radial grid of  907 points,  6 beta functions with:
                l(1) =   0
                l(2) =   0
                l(3) =   1
                l(4) =   1
                l(5) =   2
                l(6) =   2
     Q(r) pseudized with  8 coefficients,  rinner =    1.300   1.300   1.300
                                                       1.300   1.300

     atomic species   valence    mass     pseudopotential
        Hf            12.00   178.49000     Hf( 1.00)
        Cr            14.00    51.99610     Cr( 1.00)
        Ag            19.00   107.86820     Ag( 1.00)
        S              6.00    32.06000     S ( 1.00)

      2 Sym. Ops. (no inversion) found

                                    s                        frac. trans.

      isym =  1     identity

 cryst.   s( 1) = (     1          0          0      )
                  (     0          1          0      )
                  (     0          0          1      )

 cart.    s( 1) = (  1.0000000  0.0000000  0.0000000 )
                  (  0.0000000  1.0000000  0.0000000 )
                  (  0.0000000  0.0000000  1.0000000 )

      isym =  2     180 deg rotation - cart. axis [1,0,0]

 cryst.   s( 2) = (     1          0          0      )
                  (     0         -1          0      )
                  (     0          0         -1      )

 cart.    s( 2) = (  1.0000000  0.0000000  0.0000000 )
                  (  0.0000000 -1.0000000 -0.0000000 )
                  (  0.0000000  0.0000000 -1.0000000 )

   Cartesian axes

     site n.     atom                  positions (alat units)
         1           Hf  tau(   1) = (   0.2393340   0.0116363   0.4593044  )
         2           Hf  tau(   2) = (   0.5121310   0.4442476   0.4593044  )
         3           Cr  tau(   3) = (   0.7505540   0.0116363   0.4593044  )
         4           Cr  tau(   4) = (   0.0002250   0.4442476   0.4593044  )
         5           Ag  tau(   5) = (   0.9959510   0.4326113   0.0000000  )
         6           Ag  tau(   6) = (   0.5036230   0.4326113   0.0000000  )
         7           S   tau(   7) = (   0.9871270   0.7261937   0.6514553  )
         8           S   tau(   8) = (   0.5071110   0.7401994   0.6604825  )
         9           S   tau(   9) = (   0.2425000   0.3060575   0.6633871  )
        10           S   tau(  10) = (   0.7623620   0.2921001   0.6554421  )
        11           S   tau(  11) = (   0.2425000   0.5824377   0.2552217  )
        12           S   tau(  12) = (   0.7623620   0.5963952   0.2631667  )
        13           S   tau(  13) = (   0.5071110   0.1482959   0.2581263  )
        14           S   tau(  14) = (   0.9871270   0.1623015   0.2671535  )

   Crystallographic axes

     site n.     atom                  positions (cryst. coord.)
         1           Hf  tau(   1) = (  0.2393340  0.0000000  0.5000000  )
         2           Hf  tau(   2) = (  0.5121310  0.5000000  0.5000000  )
         3           Cr  tau(   3) = (  0.7505540  0.0000000  0.5000000  )
         4           Cr  tau(   4) = (  0.0002250  0.5000000  0.5000000  )
         5           Ag  tau(   5) = (  0.9959510  0.5000000  0.0000000  )
         6           Ag  tau(   6) = (  0.5036230  0.5000000  0.0000000  )
         7           S   tau(   7) = (  0.9871270  0.8202390  0.7091760  )
         8           S   tau(   8) = (  0.5071110  0.8361620  0.7190030  )
         9           S   tau(   9) = (  0.2425000  0.3343080  0.7221650  )
        10           S   tau(  10) = (  0.7623620  0.3184090  0.7135160  )
        11           S   tau(  11) = (  0.2425000  0.6656920  0.2778350  )
        12           S   tau(  12) = (  0.7623620  0.6815910  0.2864840  )
        13           S   tau(  13) = (  0.5071110  0.1638380  0.2809970  )
        14           S   tau(  14) = (  0.9871270  0.1797610  0.2908240  )

     number of k points=     1  Methfessel-Paxton smearing, width (Ry)=  0.0010
                       cart. coord. in units 2pi/alat
        k(    1) = (   0.0000000   0.0000000   0.0000000), wk =   2.0000000

                       cryst. coord.
        k(    1) = (   0.0000000   0.0000000   0.0000000), wk =   2.0000000

     Check: negative core charge=   -0.000004

     Initial potential from superposition of free atoms

     starting charge     135.9954, renormalised to     138.0000

     negative rho (up, down):  4.560E-03 0.000E+00
     Starting wfcs are   92 randomized atomic wfcs

     Self-consistent Calculation

     iteration #  1     ecut=    30.00 Ry     beta= 0.70
     Davidson diagonalization with overlap

     ethr =  1.00E-02,  avg # of iterations =  3.0

     total energy              =   -1298.34380628 Ry
     estimated scf accuracy    <      54.64752869 Ry

[...]

     negative rho (up, down):  4.059E-04 0.000E+00

[...]

     total energy              =   -1344.10500917 Ry
     estimated scf accuracy    <       0.00000254 Ry

     iteration # 26     ecut=    30.00 Ry     beta= 0.70
     Davidson diagonalization with overlap

     ethr =  1.84E-09,  avg # of iterations =  4.0

[...]

     End of self-consistent calculation

          k = 0.0000 0.0000 0.0000 (  2694 PWs)   bands (ev):

   -83.9805 -83.9565 -63.2711 -63.2272 -53.7527 -53.6227 -47.0696 -47.0634
   -46.9814 -46.9785 -46.9487 -46.9480 -34.6842 -34.6768 -34.6688 -34.5921
   -34.4159 -34.3513 -22.5436 -22.4405 -22.4314 -22.3752 -22.3484 -22.3227
    -5.0549  -3.7753  -3.7234  -3.6526  -3.6008  -3.5456  -3.4789  -3.2855
     2.6083   3.0704   3.1955   3.6950   3.8585   4.0532   4.1881   4.2682
     4.3851   4.4516   4.5223   4.5525   4.7780   4.9320   5.0118   5.1989
     5.3949   5.4326   5.5719   5.6149   5.6783   5.8215   5.8235   5.9262
     6.0911   6.1585   6.2958   6.4274   6.4438   6.8074   7.3576   7.3890
     8.0425   8.1132   8.5525   8.6256   8.6807   8.8174   8.8984   8.9722
     9.8115  10.0445  10.6427  10.6681  10.7775  11.1643  11.3368  11.3827
    11.6749  11.8637  11.9204

     occupation numbers
     1.0000   1.0000   1.0000   1.0000   1.0000   1.0000   1.0000   1.0000
     1.0000   1.0000   1.0000   1.0000   1.0000   1.0000   1.0000   1.0000
     1.0000   1.0000   1.0000   1.0000   1.0000   1.0000   1.0000   1.0000
     1.0000   1.0000   1.0000   1.0000   1.0000   1.0000   1.0000   1.0000
     1.0000   1.0000   1.0000   1.0000   1.0000   1.0000   1.0000   1.0000
     1.0000   1.0000   1.0000   1.0000   1.0000   1.0000   1.0000   1.0000
     1.0000   1.0000   1.0000   1.0000   1.0000   1.0000   1.0000   1.0000
     1.0000   1.0000   1.0000   1.0000   1.0000   1.0000   1.0000   1.0000
     1.0000   1.0000   1.0000   1.0000   1.0000  -0.0000  -0.0000  -0.0000
    -0.0000  -0.0000  -0.0000  -0.0000  -0.0000  -0.0000  -0.0000  -0.0000
    -0.0000  -0.0000  -0.0000

     the Fermi energy is     8.7458 ev

!    total energy              =   -1344.10500935 Ry
     estimated scf accuracy    <       0.00000054 Ry
     smearing contrib. (-TS)   =       0.00000000 Ry
     internal energy E=F+TS    =   -1344.10500935 Ry

     The total energy is F=E-TS. E is the sum of the following terms:
     one-electron contribution =    -764.67708341 Ry
     hartree contribution      =     424.66511879 Ry
     xc contribution           =    -223.43034483 Ry
     ewald contribution        =    -780.66269989 Ry

     convergence has been achieved in  26 iterations

     negative rho (up, down):  4.461E-03 0.000E+00

     Forces acting on atoms (cartesian axes, Ry/au):

     atom    1 type  1   force =    -0.00802623    0.00000000    0.00000000
     atom    2 type  1   force =     0.00846517    0.00000000    0.00000000
     atom    3 type  2   force =     0.02587270    0.00000000    0.00000000
     atom    4 type  2   force =    -0.03043362    0.00000000    0.00000000
     atom    5 type  3   force =     0.00107963    0.00000000    0.00000000
     atom    6 type  3   force =    -0.00205559    0.00000000    0.00000000
     atom    7 type  4   force =    -0.00308672   -0.01531225   -0.01373869
     atom    8 type  4   force =     0.00197078    0.00086581   -0.00295867
     atom    9 type  4   force =     0.00106611    0.00894397    0.00224447
     atom   10 type  4   force =     0.00259879   -0.00569028   -0.01325956
     atom   11 type  4   force =     0.00106611   -0.00894397   -0.00224447
     atom   12 type  4   force =     0.00259879    0.00569028    0.01325956
     atom   13 type  4   force =     0.00197078   -0.00086581    0.00295867
     atom   14 type  4   force =    -0.00308672    0.01531225    0.01373869
     The non-local contrib.  to forces
     atom    1 type  1   force =     0.01584219    0.00000000    0.00000000
     atom    2 type  1   force =    -0.02330513    0.00000000    0.00000000
     atom    3 type  2   force =    -0.02756032    0.00000000    0.00000000
     atom    4 type  2   force =     0.02104046    0.00000000    0.00000000
     atom    5 type  3   force =    -0.00126250    0.00000000    0.00000000
     atom    6 type  3   force =    -0.00313289    0.00000000    0.00000000
     atom    7 type  4   force =    -0.03950235   -0.10562820   -0.07355325
     atom    8 type  4   force =     0.02632106   -0.07975913   -0.05944002
     atom    9 type  4   force =    -0.00171497    0.08183223   -0.03176395
     atom   10 type  4   force =     0.01930085    0.03966725   -0.04991482
     atom   11 type  4   force =    -0.00171497   -0.08183223    0.03176395
     atom   12 type  4   force =     0.01930085   -0.03966725    0.04991482
     atom   13 type  4   force =     0.02632106    0.07975913    0.05944002
     atom   14 type  4   force =    -0.03950235    0.10562820    0.07355325
     The ionic contribution  to forces
     atom    1 type  1   force =     2.41616769   -0.00000000   -0.00000000
     atom    2 type  1   force =    -2.59893423   -0.00000000   -0.00000000
     atom    3 type  2   force =    -2.33531910    0.00000000    0.00000000
     atom    4 type  2   force =     2.59142614   -0.00000000   -0.00000000
     atom    5 type  3   force =     1.99860622    0.00000000    0.00000000
     atom    6 type  3   force =    -2.01202292   -0.00000000    0.00000000
     atom    7 type  4   force =     1.34942972    5.31061849    7.03413242
     atom    8 type  4   force =    -1.70505818    4.50008844    6.12595788
     atom    9 type  4   force =     1.78748222   -5.12065658    3.72361595
     atom   10 type  4   force =    -1.46181566   -4.55915879    5.14085009
     atom   11 type  4   force =     1.78748222    5.12065658   -3.72361595
     atom   12 type  4   force =    -1.46181566    4.55915879   -5.14085009
     atom   13 type  4   force =    -1.70505818   -4.50008844   -6.12595788
     atom   14 type  4   force =     1.34942972   -5.31061849   -7.03413242
     The local contribution  to forces
     atom    1 type  1   force =    -2.43865341   -0.00002924    0.00004088
     atom    2 type  1   force =     2.62975073    0.00001518    0.00001966
     atom    3 type  2   force =     2.38661443   -0.00012854    0.00005879
     atom    4 type  2   force =    -2.64134675    0.00012585    0.00009787
     atom    5 type  3   force =    -1.99605027    0.00007334   -0.00011154
     atom    6 type  3   force =     2.01255727    0.00004970   -0.00004368
     atom    7 type  4   force =    -1.31545176   -5.22634944   -6.97817187
     atom    8 type  4   force =     1.68227591   -4.42385010   -6.07244416
     atom    9 type  4   force =    -1.78469399    5.05255643   -3.69108042
     atom   10 type  4   force =     1.44627805    4.51568459   -5.10672718
     atom   11 type  4   force =    -1.78470087   -5.05252336    3.69110813
     atom   12 type  4   force =     1.44627205   -4.51565748    5.10672720
     atom   13 type  4   force =     1.68226807    4.42380626    6.07246305
     atom   14 type  4   force =    -1.31540420    5.22632706    6.97815680
     The core correction contribution to forces
     atom    1 type  1   force =    -0.00086670   -0.00000073    0.00000023
     atom    2 type  1   force =     0.00038850   -0.00000033   -0.00000000
     atom    3 type  2   force =     0.00149010   -0.00000075    0.00000007
     atom    4 type  2   force =    -0.00095192    0.00000034    0.00000084
     atom    5 type  3   force =     0.00000000    0.00000000    0.00000000
     atom    6 type  3   force =     0.00000000    0.00000000    0.00000000
     atom    7 type  4   force =     0.00253809    0.00616134    0.00349175
     atom    8 type  4   force =    -0.00171781    0.00427330    0.00262566
     atom    9 type  4   force =     0.00035181   -0.00474094    0.00112922
     atom   10 type  4   force =    -0.00148483   -0.00190420    0.00224546
     atom   11 type  4   force =     0.00035180    0.00474193   -0.00112833
     atom   12 type  4   force =    -0.00148430    0.00190405   -0.00224627
     atom   13 type  4   force =    -0.00171801   -0.00427359   -0.00262563
     atom   14 type  4   force =     0.00253875   -0.00616205   -0.00349212
     The Hubbard contrib.    to forces
     atom    1 type  1   force =     0.00000000    0.00000000    0.00000000
     atom    2 type  1   force =     0.00000000    0.00000000    0.00000000
     atom    3 type  2   force =     0.00000000    0.00000000    0.00000000
     atom    4 type  2   force =     0.00000000    0.00000000    0.00000000
     atom    5 type  3   force =     0.00000000    0.00000000    0.00000000
     atom    6 type  3   force =     0.00000000    0.00000000    0.00000000
     atom    7 type  4   force =     0.00000000    0.00000000    0.00000000
     atom    8 type  4   force =     0.00000000    0.00000000    0.00000000
     atom    9 type  4   force =     0.00000000    0.00000000    0.00000000
     atom   10 type  4   force =     0.00000000    0.00000000    0.00000000
     atom   11 type  4   force =     0.00000000    0.00000000    0.00000000
     atom   12 type  4   force =     0.00000000    0.00000000    0.00000000
     atom   13 type  4   force =     0.00000000    0.00000000    0.00000000
     atom   14 type  4   force =     0.00000000    0.00000000    0.00000000
     The SCF correction term to forces
     atom    1 type  1   force =    -0.00051388    0.00002151   -0.00004795
     atom    2 type  1   force =     0.00056741   -0.00002279   -0.00002280
     atom    3 type  2   force =     0.00064971    0.00013882   -0.00006345
     atom    4 type  2   force =    -0.00059943   -0.00013425   -0.00009505
     atom    5 type  3   force =    -0.00021171   -0.00008952    0.00013785
     atom    6 type  3   force =     0.00054507   -0.00004593    0.00005344
     atom    7 type  4   force =    -0.00010431   -0.00011869    0.00036069
     atom    8 type  4   force =     0.00015265    0.00011010    0.00034399
     atom    9 type  4   force =    -0.00035787   -0.00003777    0.00034880
     atom   10 type  4   force =     0.00032092    0.00002020    0.00027758
     atom   11 type  4   force =    -0.00034893    0.00002254   -0.00036715
     atom   12 type  4   force =     0.00032957   -0.00004851   -0.00029541
     atom   13 type  4   force =     0.00015923   -0.00007236   -0.00035887
     atom   14 type  4   force =    -0.00014050    0.00013329   -0.00034839

     Total force =     0.056847     Total SCF correction =     0.001819

     Computing stress (Cartesian axis) and pressure

     negative rho (up, down):  4.461E-03 0.000E+00
          total   stress  (Ry/bohr**3)                   (kbar)     P=     -304.97
  -0.00178952   0.00000000   0.00000000         -263.25        0.00        0.00
   0.00000000  -0.00225551  -0.00000933            0.00     -331.80       -1.37
   0.00000000  -0.00000933  -0.00217436            0.00       -1.37     -319.86

     kinetic stress (kbar)  19627.29      0.00      0.00
                                0.00  19508.38    -36.23
                                0.00    -36.23  19474.07

     local   stress (kbar) -18388.90      0.03     -0.00
                                0.03  -1760.70     40.71
                               -0.00     40.71 -13178.28

     nonloc. stress (kbar)   4555.00      0.00      0.00
                                0.00   4557.31    -27.48
                                0.00    -27.48   4576.23

     hartree stress (kbar)  14026.57     -0.01      0.01
                               -0.01   6419.25     12.47
                                0.01     12.47  11665.80

     exc-cor stress (kbar)    848.84     -0.00     -0.00
                               -0.00    848.46     -0.78
                               -0.00     -0.78    849.40

     corecor stress (kbar)  -5172.88      0.00      0.00
                                0.00  -5169.86      1.08
                                0.00      1.08  -5170.03

     ewald   stress (kbar) -15759.16     -0.00      0.00
                               -0.00 -24734.63      8.86
                                0.00      8.86 -18537.04

     hubbard stress (kbar)      0.00      0.00      0.00
                                0.00      0.00      0.00
                                0.00      0.00      0.00

     DFT-D   stress (kbar)      0.00      0.00      0.00
                                0.00      0.00      0.00
                                0.00      0.00      0.00

     XDM     stress (kbar)      0.00      0.00      0.00
                                0.00      0.00      0.00
                                0.00      0.00      0.00

     dft-nl  stress (kbar)      0.00      0.00      0.00
                                0.00      0.00      0.00
                                0.00      0.00      0.00

     TS-vdW  stress (kbar)      0.00      0.00      0.00
                                0.00      0.00      0.00
                                0.00      0.00      0.00

[...]

                                0.00      0.00      0.00

     Writing all to output data dir calculations/myprefix.save/

     General routines

     Parallel routines

   This run was terminated on:  14:13:25   6Mar2023

   JOB DONE.