     Program PWSCF v.7.0 starts on  3Mar2023 at 12:33:20

     R & G space division:  proc/nbgrp/npool/nimage =      32

     Reading input from espresso_286.pwi
Warning: card &CELL ignored
Warning: card / ignored

     Current dimensions of program PWSCF are:
     Max number of different atomic species (ntypx) = 10
     Max number of k-points (npk) =  40000
     Max angular momentum in pseudopotentials (lmaxx) =  4

     gamma-point specific algorithms are used
     Message from routine setup:
     using ibrav=0 with symmetry is DISCOURAGED, use correct ibrav instead

     Using Slab Decomposition

     bravais-lattice index     =            0
     lattice parameter (alat)  =      14.4970  a.u.
     unit-cell volume          =    1635.3857 (a.u.)^3
     number of atoms/cell      =            7
     number of atomic types    =            3
     number of electrons       =        86.00
     number of Kohn-Sham states=           52
     kinetic-energy cutoff     =      30.0000  Ry
     charge density cutoff     =     240.0000  Ry
     scf convergence threshold =      1.0E-06
     mixing beta               =       0.7000
     number of iterations used =            8  plain     mixing
     Exchange-correlation= SLA  PW   PBX  PBC
                           (   1   4   3   4   0   0   0)

     celldm(1)=  14.497024  celldm(2)=   0.000000  celldm(3)=   0.000000
     celldm(4)=   0.000000  celldm(5)=   0.000000  celldm(6)=   0.000000

     crystal axes: (cart. coord. in units of alat)
               a(1) = (   1.000000   0.000000   0.000000 )
               a(2) = (   0.345605   0.938380   0.000000 )
               a(3) = (  -0.672803  -0.469190   0.572012 )

     reciprocal axes: (cart. coord. in units 2 pi/alat)
               b(1) = (  1.000000 -0.368300  0.874108 )
               b(2) = (  0.000000  1.065666  0.874108 )
               b(3) = (  0.000000  0.000000  1.748216 )

     PseudoPot. # 1 for Cu read from file:
     /home/pragov/projects/rrg-bengioy-ad/pragov/crystal_structure_design/SSSP/Cu_pbe_v1.2.uspp.F.UPF
     MD5 check sum: 6e991ff952a84172a2a52a1c1e996048
     Pseudo is Ultrasoft + core correction, Zval = 19.0
     Generated by new atomic code, or converted to UPF format
     Using radial grid of  867 points,  6 beta functions with:
                l(1) =   0
                l(2) =   0
                l(3) =   1
                l(4) =   1
                l(5) =   2
                l(6) =   2
     Q(r) pseudized with  8 coefficients,  rinner =    1.150   1.150   1.150
                                                       1.150   1.150

     PseudoPot. # 2 for Hg read from file:
     /home/pragov/projects/rrg-bengioy-ad/pragov/crystal_structure_design/SSSP/Hg_ONCV_PBE-1.0.oncvpsp.upf
     MD5 check sum: dd5a8773074bfcf4280086d4d95875c4
     Pseudo is Norm-conserving, Zval = 20.0
     Generated using ONCVPSP code by D. R. Hamann
     Using radial grid of 1262 points,  8 beta functions with:
                l(1) =   0
                l(2) =   0
                l(3) =   1
                l(4) =   1
                l(5) =   2
                l(6) =   2
                l(7) =   3
                l(8) =   3

     PseudoPot. # 3 for I  read from file:
     /home/pragov/projects/rrg-bengioy-ad/pragov/crystal_structure_design/SSSP/I.pbe-n-kjpaw_psl.0.2.UPF
     MD5 check sum: d4ef18d9c8f18dc85e5843bca1e50dc0
     Pseudo is Projector augmented-wave + core cor, Zval =  7.0
     Generated using "atomic" code by A. Dal Corso  v.5.0.99 svn rev. 10869
     Shape of augmentation charge: PSQ
     Using radial grid of 1247 points,  4 beta functions with:
                l(1) =   0
                l(2) =   0
                l(3) =   1
                l(4) =   1
     Q(r) pseudized with 0 coefficients

     atomic species   valence    mass     pseudopotential
        Cu            19.00    63.54600     Cu( 1.00)
        Hg            20.00   200.59200     Hg( 1.00)
        I              7.00   126.90447     I ( 1.00)

      2 Sym. Ops. (no inversion) found

                                    s                        frac. trans.

      isym =  1     identity

 cryst.   s( 1) = (     1          0          0      )
                  (     0          1          0      )
                  (     0          0          1      )

 cart.    s( 1) = (  1.0000000 -0.0000000 -0.0000000 )
                  (  0.0000000  1.0000000 -0.0000000 )
                  (  0.0000000  0.0000000  1.0000000 )

      isym =  2     inv. 180 deg rotation - cart. axis [0,0,1]

 cryst.   s( 2) = (     1          0          0      )
                  (     0          1          0      )
                  (    -1         -1         -1      )

 cart.    s( 2) = (  1.0000000 -0.0000000  0.0000000 )
                  (  0.0000000  1.0000000  0.0000000 )
                  (  0.0000000  0.0000000 -1.0000000 )

   Cartesian axes

     site n.     atom                  positions (alat units)
         1           Cu  tau(   1) = (   0.1728027   0.4691900   0.2860058  )
         2           Cu  tau(   2) = (   0.5000000  -0.0000000   0.2860058  )
         3           Hg  tau(   3) = (   0.6728027   0.4691900   0.0000000  )
         4           I   tau(   4) = (   0.4923213   0.3433284   0.3058003  )
         5           I   tau(   5) = (   1.0282053   0.3442203   0.0000000  )
         6           I   tau(   6) = (  -0.1804813  -0.1258616   0.2662114  )
         7           I   tau(   7) = (   0.6783627   0.8458829   0.0000000  )

   Crystallographic axes

     site n.     atom                  positions (cryst. coord.)
         1           Cu  tau(   1) = (  0.2500000  0.7500000  0.5000000  )
         2           Cu  tau(   2) = (  0.7500000  0.2500000  0.5000000  )
         3           Hg  tau(   3) = (  0.5000000  0.5000000  0.0000000  )
         4           I   tau(   4) = (  0.6331760  0.6331760  0.5346050  )
         5           I   tau(   5) = (  0.9014290  0.3668240  0.0000000  )
         6           I   tau(   6) = (  0.0985710  0.0985710  0.4653950  )
         7           I   tau(   7) = (  0.3668240  0.9014290  0.0000000  )

     number of k points=     1  Methfessel-Paxton smearing, width (Ry)=  0.0010
                       cart. coord. in units 2pi/alat
        k(    1) = (   0.0000000   0.0000000   0.0000000), wk =   2.0000000

                       cryst. coord.
        k(    1) = (   0.0000000   0.0000000   0.0000000), wk =   2.0000000

     Check: negative core charge=   -0.000001

     Initial potential from superposition of free atoms

     starting charge      83.9996, renormalised to      86.0000
     Starting wfcs are   52 randomized atomic wfcs
     Checking if some PAW data can be deallocated...

     Self-consistent Calculation

     iteration #  1     ecut=    30.00 Ry     beta= 0.70
     Davidson diagonalization with overlap

     ethr =  1.00E-02,  avg # of iterations =  7.0

     total energy              =   -2628.77613685 Ry
     estimated scf accuracy    <       6.08464407 Ry

[...]

     total energy              =   -2633.00270358 Ry
     estimated scf accuracy    <       0.00000181 Ry

     iteration # 17     ecut=    30.00 Ry     beta= 0.70
     Davidson diagonalization with overlap

     ethr =  2.11E-09,  avg # of iterations =  2.0

     End of self-consistent calculation

          k = 0.0000 0.0000 0.0000 (  2259 PWs)   bands (ev):

  -111.1469-105.9760-105.9698 -63.4370 -63.4361 -63.3535 -63.3520 -63.3517
   -63.3503 -59.0093 -58.9957 -58.9861  -8.1171  -7.5156  -7.5029  -7.5016
    -1.8958  -1.8689  -1.8648  -1.7847  -1.7817  -0.3775   0.4718   1.5045
     1.6308   1.6833   1.9416   1.9422   2.2039   2.2050   2.6129   3.0911
     3.0921   3.7955   3.7982   3.8409   3.8419   3.8424   4.0651   4.2138
     5.0977   5.0981   5.1498   5.5439   7.6478   8.2634   9.6473   9.6489
     9.9974  10.3490  10.7153  10.7164

     occupation numbers
     1.0000   1.0000   1.0000   1.0000   1.0000   1.0000   1.0000   1.0000
     1.0000   1.0000   1.0000   1.0000   1.0000   1.0000   1.0000   1.0000
     1.0000   1.0000   1.0000   1.0000   1.0000   1.0000   1.0000   1.0000
     1.0000   1.0000   1.0000   1.0000   1.0000   1.0000   1.0000   1.0000
     1.0000   1.0000   1.0000   1.0000   1.0000   1.0000   1.0000   1.0000
     1.0000   1.0000   1.0000  -0.0000  -0.0000  -0.0000  -0.0000  -0.0000
    -0.0000  -0.0000  -0.0000  -0.0000

     the Fermi energy is     5.3659 ev

!    total energy              =   -2633.00270321 Ry
     estimated scf accuracy    <       0.00000052 Ry
     smearing contrib. (-TS)   =       0.00000000 Ry
     internal energy E=F+TS    =   -2633.00270321 Ry

     The total energy is F=E-TS. E is the sum of the following terms:
     one-electron contribution =   -1168.68742816 Ry
     hartree contribution      =     605.32966118 Ry
     xc contribution           =    -272.10023325 Ry
     ewald contribution        =    -515.45689372 Ry
     one-center paw contrib.   =   -1282.08780926 Ry
      -> PAW hartree energy AE =       0.00000000 Ry
      -> PAW hartree energy PS =       0.00000000 Ry
      -> PAW xc energy AE      =       0.00000000 Ry
      -> PAW xc energy PS      =       0.00000000 Ry
      -> total E_H with PAW    =     605.32966118 Ry
      -> total E_XC with PAW   =    -272.10023325 Ry

     convergence has been achieved in  17 iterations

     Forces acting on atoms (cartesian axes, Ry/au):

     atom    1 type  1   force =     0.00003586   -0.00000673   -0.00008797
     atom    2 type  1   force =     0.00003586   -0.00000673    0.00008797
     atom    3 type  2   force =     0.00038073   -0.00042361    0.00000000
     atom    4 type  3   force =     0.00094167    0.00070076   -0.00765265
     atom    5 type  3   force =    -0.00575304    0.00616838   -0.00000000
     atom    6 type  3   force =     0.00094167    0.00070076    0.00765265
     atom    7 type  3   force =     0.00341723   -0.00713282   -0.00000000
     The non-local contrib.  to forces
     atom    1 type  1   force =     0.00004054    0.00002607    0.00015080
     atom    2 type  1   force =     0.00004054    0.00002607   -0.00015080
     atom    3 type  2   force =     0.00042243    0.00011217    0.00000000
     atom    4 type  3   force =    -0.03006267   -0.02091642   -0.09551472
     atom    5 type  3   force =    -0.02440890    0.09932633    0.00000000
     atom    6 type  3   force =    -0.03006267   -0.02091642    0.09551472
     atom    7 type  3   force =     0.08441427   -0.05736851    0.00000000
     The ionic contribution  to forces
     atom    1 type  1   force =     0.00000000   -0.00000000    0.00000000
     atom    2 type  1   force =     0.00000000    0.00000000    0.00000000
     atom    3 type  2   force =     0.00000000    0.00000000    0.00000000
     atom    4 type  3   force =     4.85667352    3.38688103    5.15725207
     atom    5 type  3   force =    -1.90666520   -7.61709377   -0.00000000
     atom    6 type  3   force =     4.85667352    3.38688103   -5.15725207
     atom    7 type  3   force =    -7.80668184    0.84333172   -0.00000000
     The local contribution  to forces
     atom    1 type  1   force =    -0.00010368    0.00014593   -0.00037177
     atom    2 type  1   force =     0.00014385   -0.00013178    0.00006770
     atom    3 type  2   force =    -0.00009251   -0.00055107   -0.00005455
     atom    4 type  3   force =    -4.83151777   -3.36880184   -5.09976792
     atom    5 type  3   force =     1.91370062    7.55281231    0.00017696
     atom    6 type  3   force =    -4.83121316   -3.36965283    5.09981266
     atom    7 type  3   force =     7.74873277   -0.81400915   -0.00008728
     The core correction contribution to forces
     atom    1 type  1   force =    -0.00000004    0.00000018   -0.00000095
     atom    2 type  1   force =     0.00000010   -0.00000059   -0.00000037
     atom    3 type  2   force =     0.00000000    0.00000000    0.00000000
     atom    4 type  3   force =     0.00588370    0.00418513    0.03047245
     atom    5 type  3   force =     0.01140684   -0.02904739    0.00002759
     atom    6 type  3   force =     0.00594847    0.00410169   -0.03043952
     atom    7 type  3   force =    -0.02330186    0.02081367   -0.00002484
     The Hubbard contrib.    to forces
     atom    1 type  1   force =     0.00000000    0.00000000    0.00000000
     atom    2 type  1   force =     0.00000000    0.00000000    0.00000000
     atom    3 type  2   force =     0.00000000    0.00000000    0.00000000
     atom    4 type  3   force =     0.00000000    0.00000000    0.00000000
     atom    5 type  3   force =     0.00000000    0.00000000    0.00000000
     atom    6 type  3   force =     0.00000000    0.00000000    0.00000000
     atom    7 type  3   force =     0.00000000    0.00000000    0.00000000
     The SCF correction term to forces
     atom    1 type  1   force =     0.00000892    0.00003816   -0.00001687
     atom    2 type  1   force =    -0.00008382   -0.00008074    0.00002061
     atom    3 type  2   force =     0.00003814    0.00003367    0.00000452
     atom    4 type  3   force =    -0.00022713   -0.00016160   -0.00005327
     atom    5 type  3   force =     0.00020095    0.00018928   -0.00003394
     atom    6 type  3   force =    -0.00023779   -0.00016148    0.00005811
     atom    7 type  3   force =     0.00024122    0.00011784    0.00003793

     Total force =     0.015935     Total SCF correction =     0.000579

     Computing stress (Cartesian axis) and pressure

          total   stress  (Ry/bohr**3)                   (kbar)     P=     -223.94
  -0.00168056  -0.00022008  -0.00000000         -247.22      -32.38       -0.00
  -0.00022008  -0.00151991  -0.00000000          -32.38     -223.59       -0.00
  -0.00000000  -0.00000000  -0.00136658           -0.00       -0.00     -201.03

     kinetic stress (kbar)  12206.26    -25.84      0.00
                              -25.84  12225.11      0.00
                                0.00      0.00  12241.84

     local   stress (kbar) -13542.69   1989.79     -0.31
                             1989.79 -15008.51      0.86
                               -0.31      0.86 -16397.53

     nonloc. stress (kbar)   3732.52    -15.71      0.00
                              -15.71   3744.27      0.00
                                0.00      0.00   3757.52

     hartree stress (kbar)  17479.63   -926.52      0.08
                             -926.52  18162.03     -0.17
                                0.08     -0.17  18808.53

     exc-cor stress (kbar)   9303.03     -0.43     -0.00
                               -0.43   9303.35      0.00
                               -0.00      0.00   9303.64

     corecor stress (kbar) -13208.30     -0.03     -0.00
                               -0.03 -13208.27     -0.01
                               -0.00     -0.01 -13208.25

     ewald   stress (kbar) -16217.67  -1053.64      0.00
                            -1053.64 -15441.56      0.00
                                0.00      0.00 -14706.79

     hubbard stress (kbar)      0.00      0.00      0.00
                                0.00      0.00      0.00
                                0.00      0.00      0.00

     DFT-D   stress (kbar)      0.00      0.00      0.00
                                0.00      0.00      0.00
                                0.00      0.00      0.00

     XDM     stress (kbar)      0.00      0.00      0.00
                                0.00      0.00      0.00
                                0.00      0.00      0.00

     dft-nl  stress (kbar)      0.00      0.00      0.00
                                0.00      0.00      0.00
                                0.00      0.00      0.00

     TS-vdW  stress (kbar)      0.00      0.00      0.00
                                0.00      0.00      0.00
                                0.00      0.00      0.00

[...]

                                0.00      0.00      0.00

     Writing all to output data dir calculations/myprefix.save/

     General routines

     Parallel routines

     PAW routines

   This run was terminated on:  12:33:24   3Mar2023

   JOB DONE.