     Program PWSCF v.7.0 starts on  3Mar2023 at  3: 3:34

     R & G space division:  proc/nbgrp/npool/nimage =      32

     Reading input from espresso_13013.pwi
Warning: card &CELL ignored
Warning: card / ignored

     Current dimensions of program PWSCF are:
     Max number of different atomic species (ntypx) = 10
     Max number of k-points (npk) =  40000
     Max angular momentum in pseudopotentials (lmaxx) =  4
     file O.pbe-n-kjpaw_psl.0.1.UPF: wavefunction(s)  2P renormalized

     gamma-point specific algorithms are used
     Message from routine setup:
     using ibrav=0 with symmetry is DISCOURAGED, use correct ibrav instead

     Using Slab Decomposition

     bravais-lattice index     =            0
     lattice parameter (alat)  =       5.5145  a.u.
     unit-cell volume          =     967.2321 (a.u.)^3
     number of atoms/cell      =           16
     number of atomic types    =            3
     number of electrons       =       108.00
     number of Kohn-Sham states=           65
     kinetic-energy cutoff     =      30.0000  Ry
     charge density cutoff     =     240.0000  Ry
     scf convergence threshold =      1.0E-06
     mixing beta               =       0.7000
     number of iterations used =            8  plain     mixing
     Exchange-correlation= SLA  PW   PBX  PBC
                           (   1   4   3   4   0   0   0)

     celldm(1)=   5.514504  celldm(2)=   0.000000  celldm(3)=   0.000000
     celldm(4)=   0.000000  celldm(5)=   0.000000  celldm(6)=   0.000000

     crystal axes: (cart. coord. in units of alat)
               a(1) = (   1.000000   0.000000   0.000000 )
               a(2) = (  -0.069194   2.039775   0.000000 )
               a(3) = (  -0.034212  -0.000119   2.827672 )

     reciprocal axes: (cart. coord. in units 2 pi/alat)
               b(1) = (  1.000000  0.033922  0.012101 )
               b(2) = (  0.000000  0.490250  0.000021 )
               b(3) = (  0.000000  0.000000  0.353648 )

     PseudoPot. # 1 for Li read from file:
     /home/pragov/projects/rrg-bengioy-ad/pragov/crystal_structure_design/SSSP/li_pbe_v1.4.uspp.F.UPF
     MD5 check sum: e912e257baa3777c20ea3d68f190483c
     Pseudo is Ultrasoft, Zval =  3.0
     Generated by new atomic code, or converted to UPF format
     Using radial grid of  751 points,  5 beta functions with:
                l(1) =   0
                l(2) =   0
                l(3) =   0
                l(4) =   1
                l(5) =   1
     Q(r) pseudized with 10 coefficients,  rinner =    1.150   1.150   1.150

     PseudoPot. # 2 for Mn read from file:
     /home/pragov/projects/rrg-bengioy-ad/pragov/crystal_structure_design/SSSP/mn_pbe_v1.5.uspp.F.UPF
     MD5 check sum: 82ef2b46521d7a7d9e736dc3972e4928
     Pseudo is Ultrasoft + core correction, Zval = 15.0
     Generated by new atomic code, or converted to UPF format
     Using radial grid of  859 points,  6 beta functions with:
                l(1) =   0
                l(2) =   0
                l(3) =   1
                l(4) =   1
                l(5) =   2
                l(6) =   2
     Q(r) pseudized with  8 coefficients,  rinner =    0.950   0.950   0.950
                                                       0.950   0.950

     PseudoPot. # 3 for O  read from file:
     /home/pragov/projects/rrg-bengioy-ad/pragov/crystal_structure_design/SSSP/O.pbe-n-kjpaw_psl.0.1.UPF
     MD5 check sum: 0234752ac141de4415c5fc33072bef88
     Pseudo is Projector augmented-wave + core cor, Zval =  6.0
     Generated using "atomic" code by A. Dal Corso  v.5.0.99 svn rev. 10869
     Shape of augmentation charge: BESSEL
     Using radial grid of 1095 points,  4 beta functions with:
                l(1) =   0
                l(2) =   0
                l(3) =   1
                l(4) =   1
     Q(r) pseudized with 0 coefficients

     atomic species   valence    mass     pseudopotential
        Li             3.00     6.94000     Li( 1.00)
        Mn            15.00    54.93804     Mn( 1.00)
        O              6.00    15.99900     O ( 1.00)

      2 Sym. Ops., with inversion, found

                                    s                        frac. trans.

      isym =  1     identity

 cryst.   s( 1) = (     1          0          0      )
                  (     0          1          0      )
                  (     0          0          1      )

 cart.    s( 1) = (  1.0000000  0.0000000  0.0000000 )
                  (  0.0000000  1.0000000 -0.0000000 )
                  (  0.0000000  0.0000000  1.0000000 )

      isym =  2     inversion

 cryst.   s( 2) = (    -1          0          0      )
                  (     0         -1          0      )
                  (     0          0         -1      )

 cart.    s( 2) = ( -1.0000000 -0.0000000 -0.0000000 )
                  (  0.0000000 -1.0000000  0.0000000 )
                  (  0.0000000  0.0000000 -1.0000000 )

   Cartesian axes

     site n.     atom                  positions (alat units)
         1           Li  tau(   1) = (   0.9390436   1.5158144   0.7563712  )
         2           Li  tau(   2) = (   0.4828938  -0.0000595   1.4138362  )
         3           Li  tau(   3) = (   0.4654031   1.0198873   0.0000000  )
         4           Li  tau(   4) = (  -0.0424498   0.5238412   2.0713011  )
         5           Li  tau(   5) = (   0.4482969   1.0198278   1.4138362  )
         6           Mn  tau(   6) = (   0.9689359   0.5236870   0.7437202  )
         7           Mn  tau(   7) = (  -0.0723422   1.5159687   2.0839521  )
         8           Mn  tau(   8) = (   0.5000000   0.0000000   0.0000000  )
         9           O   tau(   9) = (   0.4709634   0.0575861   0.6979968  )
        10           O   tau(  10) = (  -0.0306518   0.5078894   1.3611764  )
        11           O   tau(  11) = (  -0.0495160   1.5567320   2.8000375  )
        12           O   tau(  12) = (   0.4286063   1.0773584   2.1235508  )
        13           O   tau(  13) = (   0.4679874   0.9622973   0.7041215  )
        14           O   tau(  14) = (   0.9272455   1.5317662   1.4664959  )
        15           O   tau(  15) = (   0.9461097   0.4829236   0.0276348  )
        16           O   tau(  16) = (   0.4256303   1.9820695   2.1296756  )

   Crystallographic axes

     site n.     atom                  positions (cryst. coord.)
         1           Li  tau(   1) = (  0.9996160  0.7431440  0.2674890  )
         2           Li  tau(   2) = (  0.5000000  0.0000000  0.5000000  )
         3           Li  tau(   3) = (  0.5000000  0.5000000  0.0000000  )
         4           Li  tau(   4) = (  0.0003840  0.2568560  0.7325110  )
         5           Li  tau(   5) = (  0.5000000  0.5000000  0.5000000  )
         6           Mn  tau(   6) = (  0.9957000  0.2567530  0.2630150  )
         7           Mn  tau(   7) = (  0.0043000  0.7432470  0.7369850  )
         8           Mn  tau(   8) = (  0.5000000  0.0000000  0.0000000  )
         9           O   tau(   9) = (  0.4813630  0.0282460  0.2468450  )
        10           O   tau(  10) = (  0.0030480  0.2490210  0.4813770  )
        11           O   tau(  11) = (  0.0371740  0.7632460  0.9902270  )
        12           O   tau(  12) = (  0.4908490  0.5282190  0.7509890  )
        13           O   tau(  13) = (  0.5091510  0.4717810  0.2490110  )
        14           O   tau(  14) = (  0.9969520  0.7509790  0.5186230  )
        15           O   tau(  15) = (  0.9628260  0.2367540  0.0097730  )
        16           O   tau(  16) = (  0.5186370  0.9717540  0.7531550  )

     number of k points=     1  Methfessel-Paxton smearing, width (Ry)=  0.0010
                       cart. coord. in units 2pi/alat
        k(    1) = (   0.0000000   0.0000000   0.0000000), wk =   2.0000000

                       cryst. coord.
        k(    1) = (   0.0000000   0.0000000   0.0000000), wk =   2.0000000

     Check: negative core charge=   -0.000027

     Initial potential from superposition of free atoms

     starting charge     104.2460, renormalised to     108.0000
     Starting wfcs are   96 randomized atomic wfcs
     Checking if some PAW data can be deallocated...

     Self-consistent Calculation

     iteration #  1     ecut=    30.00 Ry     beta= 0.70
     Davidson diagonalization with overlap

     ethr =  1.00E-02,  avg # of iterations =  3.0

     total energy              =   -1008.22465100 Ry
     estimated scf accuracy    <      40.21477676 Ry

[...]

     ethr =  3.57E-04,  avg # of iterations =  1.0
     Minimization algorithm failed to find Fermi energy: reverting to bisection
     Possible cause: smearing is larger than the electronic band-gap.

[...]

     total energy              =   -1039.03862885 Ry
     estimated scf accuracy    <       0.00034364 Ry

     iteration # 98     ecut=    30.00 Ry     beta= 0.70
     Davidson diagonalization with overlap

     ethr =  1.50E-09,  avg # of iterations =  1.0

     End of self-consistent calculation

          k = 0.0000 0.0000 0.0000 (  1344 PWs)   bands (ev):

   -71.3244 -71.3240 -70.9114 -40.6346 -40.6341 -40.0302 -39.7848 -39.7814
   -39.7268 -39.6546 -39.6518 -39.1105 -36.7937 -36.7933 -36.3005 -36.2076
   -36.1123 -10.8270 -10.3639  -9.8785  -9.6182  -9.5610  -9.4895  -9.3639
    -9.2990   2.1420   2.3222   2.5785   2.8610   3.1424   3.6034   3.8460
     3.9379   4.0152   4.0865   4.2233   4.3691   4.6924   5.2997   5.4642
     5.6533   5.7989   5.9377   6.0325   6.1407   6.1561   6.4415   6.5432
     6.6496   8.0801   8.3445   8.3492   8.6101   8.7735   8.7818   8.7825
     8.8219   9.1321  10.2079  10.2891  10.9980  11.1403  11.3611  11.4069
    13.6777

     occupation numbers
     1.0000   1.0000   1.0000   1.0000   1.0000   1.0000   1.0000   1.0000
     1.0000   1.0000   1.0000   1.0000   1.0000   1.0000   1.0000   1.0000
     1.0000   1.0000   1.0000   1.0000   1.0000   1.0000   1.0000   1.0000
     1.0000   1.0000   1.0000   1.0000   1.0000   1.0000   1.0000   1.0000
     1.0000   1.0000   1.0000   1.0000   1.0000   1.0000   1.0000   1.0000
     1.0000   1.0000   1.0000   1.0000   1.0000   1.0000   1.0000   1.0000
     1.0000   1.0000   1.0000   1.0000   1.0000   0.6642   0.1851   0.1507
    -0.0000  -0.0000  -0.0000  -0.0000  -0.0000  -0.0000  -0.0000  -0.0000
    -0.0000

     the Fermi energy is     8.7762 ev

!    total energy              =   -1039.03863016 Ry
     estimated scf accuracy    <       0.00000059 Ry
     smearing contrib. (-TS)   =      -0.00053951 Ry
     internal energy E=F+TS    =   -1039.03809065 Ry

     The total energy is F=E-TS. E is the sum of the following terms:
     one-electron contribution =    -586.44117729 Ry
     hartree contribution      =     338.19750929 Ry
     xc contribution           =    -156.16248394 Ry
     ewald contribution        =    -558.51924985 Ry
     one-center paw contrib.   =     -76.11268886 Ry
      -> PAW hartree energy AE =       0.00000000 Ry
      -> PAW hartree energy PS =       0.00000000 Ry
      -> PAW xc energy AE      =       0.00000000 Ry
      -> PAW xc energy PS      =       0.00000000 Ry
      -> total E_H with PAW    =     338.19750929 Ry
      -> total E_XC with PAW   =    -156.16248394 Ry

     convergence has been achieved in  98 iterations

     Forces acting on atoms (cartesian axes, Ry/au):

     atom    1 type  1   force =     0.00029378    0.00218924   -0.00529286
     atom    2 type  1   force =     0.00000000    0.00000000    0.00000000
     atom    3 type  1   force =     0.00000000    0.00000000    0.00000000
     atom    4 type  1   force =    -0.00029378   -0.00218924    0.00529286
     atom    5 type  1   force =     0.00000000    0.00000000    0.00000000
     atom    6 type  2   force =    -0.00616384   -0.01300992    0.01445297
     atom    7 type  2   force =     0.00616384    0.01300992   -0.01445297
     atom    8 type  2   force =     0.00000000    0.00000000    0.00000000
     atom    9 type  3   force =    -0.01027316    0.05966112   -0.03586892
     atom   10 type  3   force =    -0.00065733   -0.00059273   -0.05508874
     atom   11 type  3   force =    -0.04248895    0.12204231   -0.01010603
     atom   12 type  3   force =    -0.00006494    0.05462874   -0.01479313
     atom   13 type  3   force =     0.00006494   -0.05462874    0.01479313
     atom   14 type  3   force =     0.00065733    0.00059273    0.05508874
     atom   15 type  3   force =     0.04248895   -0.12204231    0.01010603
     atom   16 type  3   force =     0.01027316   -0.05966112    0.03586892
     The non-local contrib.  to forces
     atom    1 type  1   force =     0.00042748    0.01096008   -0.02781121
     atom    2 type  1   force =     0.00000000    0.00000000    0.00000000
     atom    3 type  1   force =     0.00000000    0.00000000    0.00000000
     atom    4 type  1   force =    -0.00042748   -0.01096008    0.02781121
     atom    5 type  1   force =     0.00000000    0.00000000    0.00000000
     atom    6 type  2   force =     0.01354212    0.08298895   -0.00620655
     atom    7 type  2   force =    -0.01354212   -0.08298895    0.00620655
     atom    8 type  2   force =     0.00000000    0.00000000    0.00000000
     atom    9 type  3   force =     0.00223425    0.20292317   -0.34275819
     atom   10 type  3   force =    -0.00024576   -0.01226524   -0.48070136
     atom   11 type  3   force =     0.00747811    0.47810289   -0.13529713
     atom   12 type  3   force =    -0.00988589    0.38496526   -0.05345000
     atom   13 type  3   force =     0.00988589   -0.38496526    0.05345000
     atom   14 type  3   force =     0.00024576    0.01226524    0.48070136
     atom   15 type  3   force =    -0.00747811   -0.47810289    0.13529713
     atom   16 type  3   force =    -0.00223425   -0.20292317    0.34275819
     The ionic contribution  to forces
     atom    1 type  1   force =    -0.02951871   -0.93476292    2.13236093
     atom    2 type  1   force =     0.00000000   -0.00000000    0.00000000
     atom    3 type  1   force =    -0.00000000    0.00000000   -0.00000000
     atom    4 type  1   force =     0.02951871    0.93476292   -2.13236093
     atom    5 type  1   force =    -0.00000000    0.00000000    0.00000000
     atom    6 type  2   force =     0.25910646    6.90252822   10.68116607
     atom    7 type  2   force =    -0.25910646   -6.90252822  -10.68116607
     atom    8 type  2   force =    -0.00000000    0.00000000    0.00000000
     atom    9 type  3   force =    -0.15100821  -12.70117552   10.10030586
     atom   10 type  3   force =    -0.00967158    0.20189148   13.30828298
     atom   11 type  3   force =    -1.39453749  -12.15707385    8.18541270
     atom   12 type  3   force =     0.06439716  -14.54166661   -1.89078859
     atom   13 type  3   force =    -0.06439716   14.54166661    1.89078859
     atom   14 type  3   force =     0.00967158   -0.20189148  -13.30828298
     atom   15 type  3   force =     1.39453749   12.15707385   -8.18541270
     atom   16 type  3   force =     0.15100821   12.70117552  -10.10030586
     The local contribution  to forces
     atom    1 type  1   force =     0.02938482    0.92601925   -2.10996877
     atom    2 type  1   force =     0.00004008   -0.00017100   -0.00011133
     atom    3 type  1   force =    -0.00000885   -0.00009037    0.00011256
     atom    4 type  1   force =    -0.02938437   -0.92599825    2.11011944
     atom    5 type  1   force =    -0.00003747    0.00016812   -0.00010036
     atom    6 type  2   force =    -0.27786584   -6.99306251  -10.65550681
     atom    7 type  2   force =     0.27797973    6.99290351   10.65423563
     atom    8 type  2   force =     0.00023826    0.00055969    0.00059605
     atom    9 type  3   force =     0.13871152   12.55906218   -9.79779444
     atom   10 type  3   force =     0.00915018   -0.19044446  -12.88700715
     atom   11 type  3   force =     1.34398415   11.80607304   -8.06072811
     atom   12 type  3   force =    -0.05469248   14.21452053    1.92930855
     atom   13 type  3   force =     0.05449493  -14.21471918   -1.92943837
     atom   14 type  3   force =    -0.00926939    0.19045053   12.88631204
     atom   15 type  3   force =    -1.34408767  -11.80607479    8.06129933
     atom   16 type  3   force =    -0.13851289  -12.55896393    9.79769878
     The core correction contribution to forces
     atom    1 type  1   force =     0.00000000    0.00000000    0.00000000
     atom    2 type  1   force =     0.00000000    0.00000000    0.00000000
     atom    3 type  1   force =     0.00000000    0.00000000    0.00000000
     atom    4 type  1   force =     0.00000000    0.00000000    0.00000000
     atom    5 type  1   force =     0.00000000    0.00000000    0.00000000
     atom    6 type  2   force =    -0.00087621   -0.00562725   -0.00693938
     atom    7 type  2   force =     0.00088364    0.00562750    0.00693596
     atom    8 type  2   force =     0.00000437    0.00000176   -0.00000271
     atom    9 type  3   force =    -0.00004151   -0.00116726    0.00374343
     atom   10 type  3   force =     0.00004009    0.00023879    0.00393269
     atom   11 type  3   force =     0.00056732   -0.00483080    0.00083850
     atom   12 type  3   force =     0.00008249   -0.00333016    0.00047147
     atom   13 type  3   force =    -0.00008294    0.00333057   -0.00047215
     atom   14 type  3   force =    -0.00004162   -0.00023864   -0.00393146
     atom   15 type  3   force =    -0.00056768    0.00483019   -0.00083847
     atom   16 type  3   force =     0.00004185    0.00116613   -0.00374354
     The Hubbard contrib.    to forces
     atom    1 type  1   force =     0.00000000    0.00000000    0.00000000
     atom    2 type  1   force =     0.00000000    0.00000000    0.00000000
     atom    3 type  1   force =     0.00000000    0.00000000    0.00000000
     atom    4 type  1   force =     0.00000000    0.00000000    0.00000000
     atom    5 type  1   force =     0.00000000    0.00000000    0.00000000
     atom    6 type  2   force =     0.00000000    0.00000000    0.00000000
     atom    7 type  2   force =     0.00000000    0.00000000    0.00000000
     atom    8 type  2   force =     0.00000000    0.00000000    0.00000000
     atom    9 type  3   force =     0.00000000    0.00000000    0.00000000
     atom   10 type  3   force =     0.00000000    0.00000000    0.00000000
     atom   11 type  3   force =     0.00000000    0.00000000    0.00000000
     atom   12 type  3   force =     0.00000000    0.00000000    0.00000000
     atom   13 type  3   force =     0.00000000    0.00000000    0.00000000
     atom   14 type  3   force =     0.00000000    0.00000000    0.00000000
     atom   15 type  3   force =     0.00000000    0.00000000    0.00000000
     atom   16 type  3   force =     0.00000000    0.00000000    0.00000000
     The SCF correction term to forces
     atom    1 type  1   force =     0.00000092   -0.00002881    0.00013757
     atom    2 type  1   force =    -0.00002575    0.00013722    0.00009991
     atom    3 type  1   force =     0.00000503    0.00008421   -0.00009249
     atom    4 type  1   force =     0.00000011    0.00000454   -0.00026548
     atom    5 type  1   force =     0.00002399   -0.00013602    0.00008542
     atom    6 type  2   force =    -0.00002275    0.00017568    0.00196142
     atom    7 type  2   force =    -0.00000334    0.00000911   -0.00064324
     atom    8 type  2   force =    -0.00016499   -0.00057376   -0.00065805
     atom    9 type  3   force =    -0.00016000   -0.00001962    0.00062649
     atom   10 type  3   force =     0.00002342   -0.00000755    0.00041576
     atom   11 type  3   force =    -0.00000917   -0.00024428   -0.00033753
     atom   12 type  3   force =     0.00002426    0.00015026   -0.00036007
     atom   13 type  3   force =     0.00015469    0.00006906    0.00043956
     atom   14 type  3   force =     0.00000468    0.00001284    0.00030145
     atom   15 type  3   force =     0.00005678    0.00021603   -0.00024480
     atom   16 type  3   force =    -0.00002053   -0.00015384   -0.00054659

     Total force =     0.238500     Total SCF correction =     0.002628

     Computing stress (Cartesian axis) and pressure

          total   stress  (Ry/bohr**3)                   (kbar)     P=     -540.93
  -0.00285345   0.00019396  -0.00007152         -419.76       28.53      -10.52
   0.00019396  -0.00405832  -0.00013141           28.53     -597.00      -19.33
  -0.00007152  -0.00013141  -0.00411968          -10.52      -19.33     -606.03

     kinetic stress (kbar)  28963.27    -34.10     -8.73
                              -34.10  28785.85     -2.55
                               -8.73     -2.55  27769.85

     local   stress (kbar) -44069.25  -2226.54   -169.80
                            -2226.54   -696.02 -17857.09
                             -169.80 -17857.09 -13041.81

     nonloc. stress (kbar)   8982.90    -40.30     13.55
                              -40.30   8877.49      0.23
                               13.55      0.23   8566.53

     hartree stress (kbar)  28299.68    789.84     60.09
                              789.84   8783.64   8056.77
                               60.09   8056.77  14352.71

     exc-cor stress (kbar)  -5265.39      3.52     -0.20
                                3.52  -5264.39      2.38
                               -0.20      2.38  -5265.97

     corecor stress (kbar)  -2158.12      1.18     -0.38
                                1.18  -2155.60     -0.09
                               -0.38     -0.09  -2143.68

     ewald   stress (kbar) -15172.85   1534.93     94.95
                             1534.93 -38927.97   9781.01
                               94.95   9781.01 -30843.65

     hubbard stress (kbar)      0.00      0.00      0.00
                                0.00      0.00      0.00
                                0.00      0.00      0.00

     DFT-D   stress (kbar)      0.00      0.00      0.00
                                0.00      0.00      0.00
                                0.00      0.00      0.00

     XDM     stress (kbar)      0.00      0.00      0.00
                                0.00      0.00      0.00
                                0.00      0.00      0.00

     dft-nl  stress (kbar)      0.00      0.00      0.00
                                0.00      0.00      0.00
                                0.00      0.00      0.00

     TS-vdW  stress (kbar)      0.00      0.00      0.00
                                0.00      0.00      0.00
                                0.00      0.00      0.00

[...]

                                0.00      0.00      0.00

     Writing all to output data dir calculations/myprefix.save/

     General routines

     Parallel routines

     PAW routines

   This run was terminated on:   3: 3:52   3Mar2023

   JOB DONE.