     Program PWSCF v.7.0 starts on  4Mar2023 at 18:23: 5

     R & G space division:  proc/nbgrp/npool/nimage =      32

     Reading input from espresso_7203.pwi
Warning: card &CELL ignored
Warning: card / ignored

     Current dimensions of program PWSCF are:
     Max number of different atomic species (ntypx) = 10
     Max number of k-points (npk) =  40000
     Max angular momentum in pseudopotentials (lmaxx) =  4
     file O.pbe-n-kjpaw_psl.0.1.UPF: wavefunction(s)  2P renormalized

     gamma-point specific algorithms are used
     Message from routine setup:
     using ibrav=0 with symmetry is DISCOURAGED, use correct ibrav instead

     Using Slab Decomposition

     bravais-lattice index     =            0
     lattice parameter (alat)  =      11.3006  a.u.
     unit-cell volume          =    1624.7899 (a.u.)^3
     number of atoms/cell      =           20
     number of atomic types    =            4
     number of electrons       =       174.00
     number of Kohn-Sham states=          104
     kinetic-energy cutoff     =      30.0000  Ry
     charge density cutoff     =     240.0000  Ry
     scf convergence threshold =      1.0E-06
     mixing beta               =       0.7000
     number of iterations used =            8  plain     mixing
     Exchange-correlation= SLA  PW   PBX  PBC
                           (   1   4   3   4   0   0   0)

     celldm(1)=  11.300640  celldm(2)=   0.000000  celldm(3)=   0.000000
     celldm(4)=   0.000000  celldm(5)=   0.000000  celldm(6)=   0.000000

     crystal axes: (cart. coord. in units of alat)
               a(1) = (   1.000000   0.000000   0.000000 )
               a(2) = (   0.000000   0.884579   0.000000 )
               a(3) = (   0.000000   0.855159   1.272775 )

     reciprocal axes: (cart. coord. in units 2 pi/alat)
               b(1) = (  1.000000  0.000000  0.000000 )
               b(2) = (  0.000000  1.130481 -0.759554 )
               b(3) = (  0.000000  0.000000  0.785685 )

     PseudoPot. # 1 for Zn read from file:
     /home/pragov/projects/rrg-bengioy-ad/pragov/crystal_structure_design/SSSP/Zn_pbe_v1.uspp.F.UPF
     MD5 check sum: df62231357ef9e81f77b2b3087fa5675
     Pseudo is Ultrasoft, Zval = 20.0
     Generated by new atomic code, or converted to UPF format
     Using radial grid of  943 points,  6 beta functions with:
                l(1) =   0
                l(2) =   0
                l(3) =   1
                l(4) =   1
                l(5) =   2
                l(6) =   2
     Q(r) pseudized with  8 coefficients,  rinner =    1.100   1.100   1.100
                                                       1.100   1.100

     PseudoPot. # 2 for Cu read from file:
     /home/pragov/projects/rrg-bengioy-ad/pragov/crystal_structure_design/SSSP/Cu_pbe_v1.2.uspp.F.UPF
     MD5 check sum: 6e991ff952a84172a2a52a1c1e996048
     Pseudo is Ultrasoft + core correction, Zval = 19.0
     Generated by new atomic code, or converted to UPF format
     Using radial grid of  867 points,  6 beta functions with:
                l(1) =   0
                l(2) =   0
                l(3) =   1
                l(4) =   1
                l(5) =   2
                l(6) =   2
     Q(r) pseudized with  8 coefficients,  rinner =    1.150   1.150   1.150
                                                       1.150   1.150

     PseudoPot. # 3 for Se read from file:
     /home/pragov/projects/rrg-bengioy-ad/pragov/crystal_structure_design/SSSP/Se_pbe_v1.uspp.F.UPF
     MD5 check sum: 1b3568f3a8ae88f9a2a0ad0698632c85
     Pseudo is Ultrasoft + core correction, Zval =  6.0
     Generated by new atomic code, or converted to UPF format
     Using radial grid of  877 points,  6 beta functions with:
                l(1) =   0
                l(2) =   0
                l(3) =   1
                l(4) =   1
                l(5) =   2
                l(6) =   2
     Q(r) pseudized with  8 coefficients,  rinner =    1.300   1.300   1.300
                                                       1.300   1.300

     PseudoPot. # 4 for O  read from file:
     /home/pragov/projects/rrg-bengioy-ad/pragov/crystal_structure_design/SSSP/O.pbe-n-kjpaw_psl.0.1.UPF
     MD5 check sum: 0234752ac141de4415c5fc33072bef88
     Pseudo is Projector augmented-wave + core cor, Zval =  6.0
     Generated using "atomic" code by A. Dal Corso  v.5.0.99 svn rev. 10869
     Shape of augmentation charge: BESSEL
     Using radial grid of 1095 points,  4 beta functions with:
                l(1) =   0
                l(2) =   0
                l(3) =   1
                l(4) =   1
     Q(r) pseudized with 0 coefficients

     atomic species   valence    mass     pseudopotential
        Zn            20.00    65.38000     Zn( 1.00)
        Cu            19.00    63.54600     Cu( 1.00)
        Se             6.00    78.97100     Se( 1.00)
        O              6.00    15.99900     O ( 1.00)

      4 Sym. Ops., with inversion, found ( 2 have fractional translation)

                                    s                        frac. trans.

      isym =  1     identity

 cryst.   s( 1) = (     1          0          0      )
                  (     0          1          0      )
                  (     0          0          1      )

 cart.    s( 1) = (  1.0000000  0.0000000  0.0000000 )
                  (  0.0000000  1.0000000 -0.0000000 )
                  (  0.0000000  0.0000000  1.0000000 )

      isym =  2     180 deg rotation - cart. axis [1,0,0]

 cryst.   s( 2) = (     1          0          0      )    f =(  0.5000000 )
                  (     0         -1          0      )       (  0.0000000 )
                  (     0          0         -1      )       (  0.5000000 )

 cart.    s( 2) = (  1.0000000  0.0000000  0.0000000 )    f =(  0.5000000 )
                  (  0.0000000 -1.0000000  0.0000000 )       (  0.4275795 )
                  (  0.0000000  0.0000000 -1.0000000 )       (  0.6363873 )

      isym =  3     inversion

 cryst.   s( 3) = (    -1          0          0      )
                  (     0         -1          0      )
                  (     0          0         -1      )

 cart.    s( 3) = ( -1.0000000  0.0000000  0.0000000 )
                  (  0.0000000 -1.0000000  0.0000000 )
                  (  0.0000000  0.0000000 -1.0000000 )

      isym =  4     inv. 180 deg rotation - cart. axis [1,0,0]

 cryst.   s( 4) = (    -1          0          0      )    f =(  0.5000000 )
                  (     0          1          0      )       (  0.0000000 )
                  (     0          0          1      )       (  0.5000000 )

 cart.    s( 4) = ( -1.0000000  0.0000000  0.0000000 )    f =(  0.5000000 )
                  (  0.0000000  1.0000000 -0.0000000 )       (  0.4275795 )
                  (  0.0000000  0.0000000  1.0000000 )       (  0.6363873 )

   Cartesian axes

     site n.     atom                  positions (alat units)
         1           Zn  tau(   1) = (   0.5000000   0.8698690   0.6363873  )
         2           Zn  tau(   2) = (   0.0000000   0.4422895   0.0000000  )
         3           Cu  tau(   3) = (   0.5000000   0.0000000   0.0000000  )
         4           Cu  tau(   4) = (   0.0000000   0.4275795   0.6363873  )
         5           Se  tau(   5) = (   0.5354860   1.3005863   0.9571672  )
         6           Se  tau(   6) = (   0.0354860   0.8667313   0.9519946  )
         7           Se  tau(   7) = (   0.4645140   0.4391518   0.3156074  )
         8           Se  tau(   8) = (   0.9645140   0.8730067   0.3207799  )
         9           O   tau(   9) = (   0.5762020   0.7078214   0.9607857  )
        10           O   tau(  10) = (   0.0762020   1.4594962   0.9483761  )
        11           O   tau(  11) = (   0.4237980   1.0319167   0.3119889  )
        12           O   tau(  12) = (   0.9237980   0.2802419   0.3243984  )
        13           O   tau(  13) = (   0.6975990   1.1985614   1.1763402  )
        14           O   tau(  14) = (   0.1975990   0.9687562   0.7328216  )
        15           O   tau(  15) = (   0.3021740   0.5320200   0.5420161  )
        16           O   tau(  16) = (   0.8021740   0.7801386   0.0943711  )
        17           O   tau(  17) = (   0.3024010   0.5411767   0.0964343  )
        18           O   tau(  18) = (   0.8024010   0.7709819   0.5399530  )
        19           O   tau(  19) = (   0.6978260   1.2077181   0.7307584  )
        20           O   tau(  20) = (   0.1978260   0.9595995   1.1784034  )

   Crystallographic axes

     site n.     atom                  positions (cryst. coord.)
         1           Zn  tau(   1) = (  0.5000000  0.5000000  0.5000000  )
         2           Zn  tau(   2) = (  0.0000000  0.5000000  0.0000000  )
         3           Cu  tau(   3) = (  0.5000000  0.0000000  0.0000000  )
         4           Cu  tau(   4) = (  0.0000000 -0.0000000  0.5000000  )
         5           Se  tau(   5) = (  0.5354860  0.7432680  0.7520320  )
         6           Se  tau(   6) = (  0.0354860  0.2567320  0.7479680  )
         7           Se  tau(   7) = (  0.4645140  0.2567320  0.2479680  )
         8           Se  tau(   8) = (  0.9645140  0.7432680  0.2520320  )
         9           O   tau(   9) = (  0.5762020  0.0704100  0.7548750  )
        10           O   tau(  10) = (  0.0762020  0.9295900  0.7451250  )
        11           O   tau(  11) = (  0.4237980  0.9295900  0.2451250  )
        12           O   tau(  12) = (  0.9237980  0.0704100  0.2548750  )
        13           O   tau(  13) = (  0.6975990  0.4614570  0.9242330  )
        14           O   tau(  14) = (  0.1975990  0.5385430  0.5757670  )
        15           O   tau(  15) = (  0.3021740  0.1897480  0.4258540  )
        16           O   tau(  16) = (  0.8021740  0.8102520  0.0741460  )
        17           O   tau(  17) = (  0.3024010  0.5385430  0.0757670  )
        18           O   tau(  18) = (  0.8024010  0.4614570  0.4242330  )
        19           O   tau(  19) = (  0.6978260  0.8102520  0.5741460  )
        20           O   tau(  20) = (  0.1978260  0.1897480  0.9258540  )

     number of k points=     1  Methfessel-Paxton smearing, width (Ry)=  0.0010
                       cart. coord. in units 2pi/alat
        k(    1) = (   0.0000000   0.0000000   0.0000000), wk =   2.0000000

                       cryst. coord.
        k(    1) = (   0.0000000   0.0000000   0.0000000), wk =   2.0000000

     Check: negative core charge=   -0.000011

     Initial potential from superposition of free atoms

     starting charge     171.9994, renormalised to     174.0000
     Starting wfcs are  116 randomized atomic wfcs
     Checking if some PAW data can be deallocated...

     Self-consistent Calculation

     iteration #  1     ecut=    30.00 Ry     beta= 0.70
     Davidson diagonalization with overlap

     ethr =  1.00E-02,  avg # of iterations =  2.0

     total energy              =   -2394.64456156 Ry
     estimated scf accuracy    <      13.59036617 Ry

[...]

     total energy              =   -2403.53749181 Ry
     estimated scf accuracy    <       0.00000246 Ry

     iteration # 25     ecut=    30.00 Ry     beta= 0.70
     Davidson diagonalization with overlap

     ethr =  1.41E-09,  avg # of iterations =  2.0

     End of self-consistent calculation

          k = 0.0000 0.0000 0.0000 (  2258 PWs)   bands (ev):

  -116.8794-116.8791-104.2312-104.2310 -71.0746 -71.0681 -71.0126 -71.0124
   -70.9508 -70.9462 -61.8538 -61.8529 -61.7315 -61.7281 -61.2317 -61.2309
   -13.5253 -13.0054 -12.9403 -12.8349 -11.1351 -10.9769 -10.8922 -10.8335
   -10.7823 -10.6922 -10.6205 -10.4837  -4.4263  -3.7872  -3.6598  -3.5063
     0.2894   0.3055   0.6956   0.7697   1.0156   1.0760   1.0853   1.1482
     1.4280   1.7001   1.7139   1.8473   2.0311   2.0915   2.1319   2.1642
     2.3275   2.5040   2.6148   2.7744   2.8851   2.9954   3.2715   3.6252
     3.6958   3.8329   4.0729   4.1615   4.5948   4.6812   4.7193   4.7776
     4.8536   4.8736   4.9868   5.1239   5.2566   5.3914   5.7410   5.7702
     5.8380   5.9404   6.0854   6.1884   6.2014   6.2948   6.3575   6.3853
     6.4525   6.4690   6.6597   6.8950   7.1347   7.1474   7.6755   7.6806
    11.3098  11.5001  11.7474  11.8787  11.9246  12.1059  12.4237  12.5855
    12.8370  12.8452  12.8546  13.7598  13.9223  14.4279  15.2293  15.5855

     occupation numbers
     1.0000   1.0000   1.0000   1.0000   1.0000   1.0000   1.0000   1.0000
     1.0000   1.0000   1.0000   1.0000   1.0000   1.0000   1.0000   1.0000
     1.0000   1.0000   1.0000   1.0000   1.0000   1.0000   1.0000   1.0000
     1.0000   1.0000   1.0000   1.0000   1.0000   1.0000   1.0000   1.0000
     1.0000   1.0000   1.0000   1.0000   1.0000   1.0000   1.0000   1.0000
     1.0000   1.0000   1.0000   1.0000   1.0000   1.0000   1.0000   1.0000
     1.0000   1.0000   1.0000   1.0000   1.0000   1.0000   1.0000   1.0000
     1.0000   1.0000   1.0000   1.0000   1.0000   1.0000   1.0000   1.0000
     1.0000   1.0000   1.0000   1.0000   1.0000   1.0000   1.0000   1.0000
     1.0000   1.0000   1.0000   1.0000   1.0000   1.0000   1.0000   1.0000
     1.0000   1.0000   1.0000   1.0000   1.0000   1.0000   0.6571   0.3429
    -0.0000  -0.0000  -0.0000  -0.0000  -0.0000  -0.0000  -0.0000  -0.0000
    -0.0000  -0.0000  -0.0000  -0.0000  -0.0000  -0.0000  -0.0000  -0.0000

     the Fermi energy is     7.6781 ev

!    total energy              =   -2403.53749180 Ry
     estimated scf accuracy    <       0.00000005 Ry
     smearing contrib. (-TS)   =      -0.00050528 Ry
     internal energy E=F+TS    =   -2403.53698653 Ry

     The total energy is F=E-TS. E is the sum of the following terms:
     one-electron contribution =   -1750.26806943 Ry
     hartree contribution      =     963.24618652 Ry
     xc contribution           =    -369.56434166 Ry
     ewald contribution        =   -1132.57008919 Ry
     one-center paw contrib.   =    -114.38067278 Ry
      -> PAW hartree energy AE =       0.00000000 Ry
      -> PAW hartree energy PS =       0.00000000 Ry
      -> PAW xc energy AE      =       0.00000000 Ry
      -> PAW xc energy PS      =       0.00000000 Ry
      -> total E_H with PAW    =     963.24618652 Ry
      -> total E_XC with PAW   =    -369.56434166 Ry

     convergence has been achieved in  25 iterations

     Forces acting on atoms (cartesian axes, Ry/au):

     atom    1 type  1   force =    -0.00000000    0.00000000    0.00000000
     atom    2 type  1   force =     0.00000000    0.00000000    0.00000000
     atom    3 type  2   force =    -0.00000000    0.00000000    0.00000000
     atom    4 type  2   force =    -0.00000000    0.00000000    0.00000000
     atom    5 type  3   force =     0.00541957   -0.00551415   -0.00072680
     atom    6 type  3   force =     0.00541957    0.00551415    0.00072680
     atom    7 type  3   force =    -0.00541957    0.00551415    0.00072680
     atom    8 type  3   force =    -0.00541957   -0.00551415   -0.00072680
     atom    9 type  4   force =    -0.01083495    0.00627817    0.00596525
     atom   10 type  4   force =    -0.01083495   -0.00627817   -0.00596525
     atom   11 type  4   force =     0.01083495   -0.00627817   -0.00596525
     atom   12 type  4   force =     0.01083495    0.00627817    0.00596525
     atom   13 type  4   force =     0.00767471    0.01321931    0.01135611
     atom   14 type  4   force =     0.00767471   -0.01321931   -0.01135611
     atom   15 type  4   force =     0.00130770   -0.01139009    0.00507843
     atom   16 type  4   force =     0.00130770    0.01139009   -0.00507843
     atom   17 type  4   force =    -0.00767471   -0.01321931   -0.01135611
     atom   18 type  4   force =    -0.00767471    0.01321931    0.01135611
     atom   19 type  4   force =    -0.00130770    0.01139009   -0.00507843
     atom   20 type  4   force =    -0.00130770   -0.01139009    0.00507843
     The non-local contrib.  to forces
     atom    1 type  1   force =    -0.00000000    0.00000000   -0.00000000
     atom    2 type  1   force =     0.00000000   -0.00000000    0.00000000
     atom    3 type  2   force =     0.00000000    0.00000000    0.00000000
     atom    4 type  2   force =     0.00000000    0.00000000   -0.00000000
     atom    5 type  3   force =     0.78235316    0.29110908    0.01139951
     atom    6 type  3   force =     0.78235316   -0.29110908   -0.01139951
     atom    7 type  3   force =    -0.78235316   -0.29110908   -0.01139951
     atom    8 type  3   force =    -0.78235316    0.29110908    0.01139951
     atom    9 type  4   force =    -0.30702358   -1.19252993    0.13652512
     atom   10 type  4   force =    -0.30702358    1.19252993   -0.13652512
     atom   11 type  4   force =     0.30702358    1.19252993   -0.13652512
     atom   12 type  4   force =     0.30702358   -1.19252993    0.13652512
     atom   13 type  4   force =    -0.20356045    0.73652310   -0.99833645
     atom   14 type  4   force =    -0.20356045   -0.73652310    0.99833645
     atom   15 type  4   force =     0.29975095   -0.56764026   -0.99207312
     atom   16 type  4   force =     0.29975095    0.56764026    0.99207312
     atom   17 type  4   force =     0.20356045   -0.73652310    0.99833645
     atom   18 type  4   force =     0.20356045    0.73652310   -0.99833645
     atom   19 type  4   force =    -0.29975095    0.56764026    0.99207312
     atom   20 type  4   force =    -0.29975095   -0.56764026   -0.99207312
     The ionic contribution  to forces
     atom    1 type  1   force =     0.00000000    0.00000000   -0.00000000
     atom    2 type  1   force =    -0.00000000    0.00000000    0.00000000
     atom    3 type  2   force =    -0.00000000    0.00000000    0.00000000
     atom    4 type  2   force =     0.00000000   -0.00000000   -0.00000000
     atom    5 type  3   force =    -5.27444792   -1.55494854   -0.14565563
     atom    6 type  3   force =    -5.27444792    1.55494854    0.14565563
     atom    7 type  3   force =     5.27444792    1.55494854    0.14565563
     atom    8 type  3   force =     5.27444792   -1.55494854   -0.14565563
     atom    9 type  4   force =     3.07042459   -1.76273922   -0.89323041
     atom   10 type  4   force =     3.07042459    1.76273922    0.89323041
     atom   11 type  4   force =    -3.07042459    1.76273922    0.89323041
     atom   12 type  4   force =    -3.07042459   -1.76273922   -0.89323041
     atom   13 type  4   force =    -5.03069402   -1.73845638   -1.02868159
     atom   14 type  4   force =    -5.03069402    1.73845638    1.02868159
     atom   15 type  4   force =     4.36202345    0.95663106   -0.94568218
     atom   16 type  4   force =     4.36202345   -0.95663106    0.94568218
     atom   17 type  4   force =     5.03069402    1.73845638    1.02868159
     atom   18 type  4   force =     5.03069402   -1.73845638   -1.02868159
     atom   19 type  4   force =    -4.36202345   -0.95663106    0.94568218
     atom   20 type  4   force =    -4.36202345    0.95663106   -0.94568218
     The local contribution  to forces
     atom    1 type  1   force =     0.00003324   -0.00004120    0.00004005
     atom    2 type  1   force =     0.00001167    0.00007021   -0.00007813
     atom    3 type  2   force =     0.00004455   -0.00005044   -0.00003665
     atom    4 type  2   force =     0.00000100    0.00006700    0.00010413
     atom    5 type  3   force =     4.59585316    1.29544722    0.13490885
     atom    6 type  3   force =     4.59589461   -1.29540948   -0.13475252
     atom    7 type  3   force =    -4.59585450   -1.29540650   -0.13491465
     atom    8 type  3   force =    -4.59591129    1.29533661    0.13474673
     atom    9 type  4   force =    -2.77731137    2.94976481    0.76463088
     atom   10 type  4   force =    -2.77726213   -2.94963317   -0.76429352
     atom   11 type  4   force =     2.77731532   -2.94978446   -0.76463274
     atom   12 type  4   force =     2.77725485    2.94965128    0.76428715
     atom   13 type  4   force =     5.24079615    1.02278847    2.02852084
     atom   14 type  4   force =     5.24086797   -1.02292132   -2.02843584
     atom   15 type  4   force =    -4.65810779   -0.40617743    1.93296886
     atom   16 type  4   force =    -4.65835112    0.40632258   -1.93304728
     atom   17 type  4   force =    -5.24079747   -1.02276709   -2.02854706
     atom   18 type  4   force =    -5.24087057    1.02290706    2.02846037
     atom   19 type  4   force =     4.65810530    0.40619549   -1.93294019
     atom   20 type  4   force =     4.65835194   -0.40634305    1.93302952
     The core correction contribution to forces
     atom    1 type  1   force =     0.00000000    0.00000000    0.00000000
     atom    2 type  1   force =     0.00000000    0.00000000    0.00000000
     atom    3 type  2   force =     0.00000003   -0.00000002   -0.00000001
     atom    4 type  2   force =     0.00000000    0.00000003    0.00000005
     atom    5 type  3   force =    -0.09835775   -0.03707259   -0.00130255
     atom    6 type  3   force =    -0.09835864    0.03707265    0.00129999
     atom    7 type  3   force =     0.09835733    0.03707307    0.00130205
     atom    8 type  3   force =     0.09835877   -0.03707346   -0.00129985
     atom    9 type  4   force =     0.00305421    0.01184466   -0.00179024
     atom   10 type  4   force =     0.00305426   -0.01184432    0.00179166
     atom   11 type  4   force =    -0.00305426   -0.01184476    0.00179028
     atom   12 type  4   force =    -0.00305431    0.01184461   -0.00179179
     atom   13 type  4   force =     0.00109354   -0.00769806    0.00988318
     atom   14 type  4   force =     0.00109383    0.00769748   -0.00988326
     atom   15 type  4   force =    -0.00223849    0.00588009    0.00983873
     atom   16 type  4   force =    -0.00223975   -0.00587930   -0.00983879
     atom   17 type  4   force =    -0.00109355    0.00769803   -0.00988305
     atom   18 type  4   force =    -0.00109374   -0.00769739    0.00988316
     atom   19 type  4   force =     0.00223850   -0.00588009   -0.00983885
     atom   20 type  4   force =     0.00223977    0.00587937    0.00983903
     The Hubbard contrib.    to forces
     atom    1 type  1   force =     0.00000000    0.00000000    0.00000000
     atom    2 type  1   force =     0.00000000    0.00000000    0.00000000
     atom    3 type  2   force =     0.00000000    0.00000000    0.00000000
     atom    4 type  2   force =     0.00000000    0.00000000    0.00000000
     atom    5 type  3   force =     0.00000000    0.00000000    0.00000000
     atom    6 type  3   force =     0.00000000    0.00000000    0.00000000
     atom    7 type  3   force =     0.00000000    0.00000000    0.00000000
     atom    8 type  3   force =     0.00000000    0.00000000    0.00000000
     atom    9 type  4   force =     0.00000000    0.00000000    0.00000000
     atom   10 type  4   force =     0.00000000    0.00000000    0.00000000
     atom   11 type  4   force =     0.00000000    0.00000000    0.00000000
     atom   12 type  4   force =     0.00000000    0.00000000    0.00000000
     atom   13 type  4   force =     0.00000000    0.00000000    0.00000000
     atom   14 type  4   force =     0.00000000    0.00000000    0.00000000
     atom   15 type  4   force =     0.00000000    0.00000000    0.00000000
     atom   16 type  4   force =     0.00000000    0.00000000    0.00000000
     atom   17 type  4   force =     0.00000000    0.00000000    0.00000000
     atom   18 type  4   force =     0.00000000    0.00000000    0.00000000
     atom   19 type  4   force =     0.00000000    0.00000000    0.00000000
     atom   20 type  4   force =     0.00000000    0.00000000    0.00000000
     The SCF correction term to forces
     atom    1 type  1   force =    -0.00004002    0.00005163   -0.00005057
     atom    2 type  1   force =    -0.00001528   -0.00009138    0.00009609
     atom    3 type  2   force =    -0.00005938    0.00007145    0.00004321
     atom    4 type  2   force =    -0.00000798   -0.00007867   -0.00012010
     atom    5 type  3   force =     0.00002274   -0.00003995   -0.00008225
     atom    6 type  3   force =    -0.00002486    0.00001761   -0.00008077
     atom    7 type  3   force =    -0.00002278    0.00000193    0.00008659
     atom    8 type  3   force =     0.00004439    0.00005272    0.00008707
     atom    9 type  4   force =     0.00001707   -0.00005710   -0.00012671
     atom   10 type  4   force =    -0.00002665   -0.00005926   -0.00012924
     atom   11 type  4   force =    -0.00002541    0.00007586    0.00012871
     atom   12 type  4   force =     0.00003303    0.00005091    0.00012801
     atom   13 type  4   force =     0.00003187    0.00004041   -0.00002830
     atom   14 type  4   force =    -0.00002429    0.00005593   -0.00006231
     atom   15 type  4   force =    -0.00008215   -0.00006095    0.00001877
     atom   16 type  4   force =     0.00008665   -0.00003395    0.00005399
     atom   17 type  4   force =    -0.00003175   -0.00006809    0.00006436
     atom   18 type  4   force =     0.00002944   -0.00003516    0.00003018
     atom   19 type  4   force =     0.00008302    0.00004009   -0.00005482
     atom   20 type  4   force =    -0.00008437    0.00006321   -0.00002595

     Total force =     0.055590     Total SCF correction =     0.000496

     Computing stress (Cartesian axis) and pressure

          total   stress  (Ry/bohr**3)                   (kbar)     P=     -537.17
  -0.00374445   0.00000000   0.00000000         -550.83        0.00        0.00
   0.00000000  -0.00372938  -0.00008113            0.00     -548.61      -11.93
   0.00000000  -0.00008113  -0.00348088            0.00      -11.93     -512.06

     kinetic stress (kbar)  23969.83      0.00      0.00
                                0.00  23652.45    -57.16
                                0.00    -57.16  23567.29

     local   stress (kbar) -23211.43      0.17     -0.09
                                0.17 -13119.22   -529.71
                               -0.09   -529.71 -18864.86

     nonloc. stress (kbar)   7215.54      0.00      0.00
                                0.00   7199.69    -44.11
                                0.00    -44.11   7148.18

     hartree stress (kbar)  31397.91     -0.10      0.04
                               -0.10  26708.83    156.15
                                0.04    156.15  29103.56

     exc-cor stress (kbar)   1663.12     -0.00      0.00
                               -0.00   1660.65     -0.24
                                0.00     -0.24   1664.45

     corecor stress (kbar)  -9613.97      0.00     -0.00
                                0.00  -9607.00      0.24
                               -0.00      0.24  -9605.98

     ewald   stress (kbar) -31971.82      0.00      0.00
                                0.00 -37044.02    462.90
                                0.00    462.90 -33524.69

     hubbard stress (kbar)      0.00      0.00      0.00
                                0.00      0.00      0.00
                                0.00      0.00      0.00

     DFT-D   stress (kbar)      0.00      0.00      0.00
                                0.00      0.00      0.00
                                0.00      0.00      0.00

     XDM     stress (kbar)      0.00      0.00      0.00
                                0.00      0.00      0.00
                                0.00      0.00      0.00

     dft-nl  stress (kbar)      0.00      0.00      0.00
                                0.00      0.00      0.00
                                0.00      0.00      0.00

     TS-vdW  stress (kbar)      0.00      0.00      0.00
                                0.00      0.00      0.00
                                0.00      0.00      0.00

[...]

                                0.00      0.00      0.00

     Writing all to output data dir calculations/myprefix.save/

     General routines

     Parallel routines

     PAW routines

   This run was terminated on:  18:23:12   4Mar2023

   JOB DONE.