     Program PWSCF v.7.0 starts on  4Mar2023 at 17:12:47

     R & G space division:  proc/nbgrp/npool/nimage =      32

     Reading input from espresso_7019.pwi
Warning: card &CELL ignored
Warning: card / ignored

     Current dimensions of program PWSCF are:
     Max number of different atomic species (ntypx) = 10
     Max number of k-points (npk) =  40000
     Max angular momentum in pseudopotentials (lmaxx) =  4

     gamma-point specific algorithms are used
     Message from routine setup:
     using ibrav=0 with symmetry is DISCOURAGED, use correct ibrav instead

     Using Slab Decomposition

     bravais-lattice index     =            0
     lattice parameter (alat)  =       9.5198  a.u.
     unit-cell volume          =     862.7593 (a.u.)^3
     number of atoms/cell      =            4
     number of atomic types    =            2
     number of electrons       =        54.00
     number of Kohn-Sham states=           32
     kinetic-energy cutoff     =      30.0000  Ry
     charge density cutoff     =     240.0000  Ry
     scf convergence threshold =      1.0E-06
     mixing beta               =       0.7000
     number of iterations used =            8  plain     mixing
     Exchange-correlation= SLA  PW   PBE  PBE
                           (   1   4   3   4   0   0   0)

     celldm(1)=   9.519845  celldm(2)=   0.000000  celldm(3)=   0.000000
     celldm(4)=   0.000000  celldm(5)=   0.000000  celldm(6)=   0.000000

     crystal axes: (cart. coord. in units of alat)
               a(1) = (   1.000000   0.000000   0.000000 )
               a(2) = (   0.000000   1.000000   0.000000 )
               a(3) = (   0.000000   0.000000   1.000000 )

     reciprocal axes: (cart. coord. in units 2 pi/alat)
               b(1) = (  1.000000  0.000000  0.000000 )
               b(2) = (  0.000000  1.000000  0.000000 )
               b(3) = (  0.000000  0.000000  1.000000 )

     PseudoPot. # 1 for Tl read from file:
     /home/pragov/projects/rrg-bengioy-ad/pragov/crystal_structure_design/SSSP/Tl_pbe_v1.2.uspp.F.UPF
     MD5 check sum: b76cf1f7e72655a2b2c53cf6385d7059
     Pseudo is Ultrasoft + core correction, Zval = 13.0
     Generated by new atomic code, or converted to UPF format
     Using radial grid of  899 points,  6 beta functions with:
                l(1) =   0
                l(2) =   0
                l(3) =   1
                l(4) =   1
                l(5) =   2
                l(6) =   2
     Q(r) pseudized with  6 coefficients,  rinner =    1.100   1.100   1.100
                                                       1.100   1.100

     PseudoPot. # 2 for Bi read from file:
     /home/pragov/projects/rrg-bengioy-ad/pragov/crystal_structure_design/SSSP/Bi_pbe_v1.uspp.F.UPF
     MD5 check sum: cceb9f28ec65b6d7ff33140f5b0b1758
     Pseudo is Ultrasoft + core correction, Zval = 15.0
     Generated by new atomic code, or converted to UPF format
     Using radial grid of  899 points,  6 beta functions with:
                l(1) =   0
                l(2) =   0
                l(3) =   1
                l(4) =   1
                l(5) =   2
                l(6) =   2
     Q(r) pseudized with  6 coefficients,  rinner =    1.000   1.000   1.000
                                                       1.000   1.000

     atomic species   valence    mass     pseudopotential
        Tl            13.00   204.38000     Tl( 1.00)
        Bi            15.00   208.98040     Bi( 1.00)

     48 Sym. Ops., with inversion, found

                                    s                        frac. trans.

      isym =  1     identity

 cryst.   s( 1) = (     1          0          0      )
                  (     0          1          0      )
                  (     0          0          1      )

 cart.    s( 1) = (  1.0000000  0.0000000  0.0000000 )
                  (  0.0000000  1.0000000  0.0000000 )
                  (  0.0000000  0.0000000  1.0000000 )

      isym =  2     180 deg rotation - cart. axis [0,0,1]

[...]

 cryst.   s( 9) = (     0          0          1      )
                  (     0         -1          0      )
                  (     1          0          0      )

 cart.    s( 9) = (  0.0000000  0.0000000  1.0000000 )
                  (  0.0000000 -1.0000000  0.0000000 )
                  (  1.0000000  0.0000000  0.0000000 )

[...]

 cryst.   s(10) = (     0          0         -1      )
                  (     0         -1          0      )
                  (    -1          0          0      )

 cart.    s(10) = (  0.0000000  0.0000000 -1.0000000 )
                  (  0.0000000 -1.0000000  0.0000000 )
                  ( -1.0000000  0.0000000  0.0000000 )

[...]

      isym = 24     120 deg rotation - cart. axis [-1,-1,1]

[...]

      isym = 25     inversion

[...]

      isym = 26     inv. 180 deg rotation - cart. axis [0,0,1]

[...]

      isym = 48     inv. 120 deg rotation - cart. axis [-1,-1,1]

 cryst.   s(48) = (     0         -1          0      )
                  (     0          0          1      )
                  (     1          0          0      )

 cart.    s(48) = (  0.0000000  0.0000000  1.0000000 )
                  ( -1.0000000  0.0000000  0.0000000 )
                  (  0.0000000  1.0000000  0.0000000 )

   Cartesian axes

     site n.     atom                  positions (alat units)
         1           Tl  tau(   1) = (   0.0000000   0.5000000   0.5000000  )
         2           Tl  tau(   2) = (   0.5000000   0.0000000   0.5000000  )
         3           Tl  tau(   3) = (   0.5000000   0.5000000   0.0000000  )
         4           Bi  tau(   4) = (   0.0000000   0.0000000   0.0000000  )

   Crystallographic axes

     site n.     atom                  positions (cryst. coord.)
         1           Tl  tau(   1) = (  0.0000000  0.5000000  0.5000000  )
         2           Tl  tau(   2) = (  0.5000000  0.0000000  0.5000000  )
         3           Tl  tau(   3) = (  0.5000000  0.5000000  0.0000000  )
         4           Bi  tau(   4) = (  0.0000000  0.0000000  0.0000000  )

     number of k points=     1  Methfessel-Paxton smearing, width (Ry)=  0.0010
                       cart. coord. in units 2pi/alat
        k(    1) = (   0.0000000   0.0000000   0.0000000), wk =   2.0000000

                       cryst. coord.
        k(    1) = (   0.0000000   0.0000000   0.0000000), wk =   2.0000000

     Check: negative core charge=   -0.000005

     Initial potential from superposition of free atoms

     starting charge      52.9854, renormalised to      54.0000

     negative rho (up, down):  2.057E-01 0.000E+00
     Starting wfcs are   36 randomized atomic wfcs

     Self-consistent Calculation

     iteration #  1     ecut=    30.00 Ry     beta= 0.70
     Davidson diagonalization with overlap

     ethr =  1.00E-02,  avg # of iterations =  2.0

     Threshold (ethr) on eigenvalues was too large:
     Diagonalizing with lowered threshold

     Davidson diagonalization with overlap

[...]

     negative rho (up, down):  1.993E-01 0.000E+00

     total energy              =    -620.12156730 Ry
     estimated scf accuracy    <       0.37812828 Ry

[...]

     total energy              =    -620.26333344 Ry
     estimated scf accuracy    <       0.00000283 Ry

     iteration #  8     ecut=    30.00 Ry     beta= 0.70
     Davidson diagonalization with overlap

     ethr =  5.24E-09,  avg # of iterations =  3.0

[...]

     End of self-consistent calculation

          k = 0.0000 0.0000 0.0000 (  1187 PWs)   bands (ev):

   -12.9928 -12.9927 -12.9710 -12.9710 -12.9710  -1.9844  -1.7439  -1.7438
    -1.7437  -1.5384  -1.5381  -1.3724  -1.3393  -1.3391  -1.3388  -1.3310
    -1.3308  -1.1446  -1.1339  -1.1338  -1.1337   2.8688   5.8410   5.8412
     7.3454   7.3454   7.3454  12.0412  12.0413  12.0413  13.5295  13.5295

     occupation numbers
     1.0000   1.0000   1.0000   1.0000   1.0000   1.0000   1.0000   1.0000
     1.0000   1.0000   1.0000   1.0000   1.0000   1.0000   1.0000   1.0000
     1.0000   1.0000   1.0000   1.0000   1.0000   1.0000   1.0000   1.0000
     1.0000   1.0000   1.0000  -0.0000  -0.0000  -0.0000  -0.0000  -0.0000

     the Fermi energy is    10.3163 ev

!    total energy              =    -620.26333395 Ry
     estimated scf accuracy    <       0.00000015 Ry
     smearing contrib. (-TS)   =       0.00000000 Ry
     internal energy E=F+TS    =    -620.26333395 Ry

     The total energy is F=E-TS. E is the sum of the following terms:
     one-electron contribution =    -118.54507998 Ry
     hartree contribution      =     100.99498529 Ry
     xc contribution           =    -250.90826798 Ry
     ewald contribution        =    -351.80497128 Ry

     convergence has been achieved in   8 iterations

     negative rho (up, down):  2.010E-01 0.000E+00

     Forces acting on atoms (cartesian axes, Ry/au):

     atom    1 type  1   force =     0.00000000    0.00000000    0.00000000
     atom    2 type  1   force =     0.00000000    0.00000000    0.00000000
     atom    3 type  1   force =     0.00000000    0.00000000    0.00000000
     atom    4 type  2   force =     0.00000000    0.00000000    0.00000000
     The non-local contrib.  to forces
     atom    1 type  1   force =     0.00000000    0.00000000    0.00000000
     atom    2 type  1   force =     0.00000000    0.00000000    0.00000000
     atom    3 type  1   force =     0.00000000    0.00000000    0.00000000
     atom    4 type  2   force =     0.00000000    0.00000000    0.00000000
     The ionic contribution  to forces
     atom    1 type  1   force =    -0.00000000    0.00000000    0.00000000
     atom    2 type  1   force =     0.00000000   -0.00000000    0.00000000
     atom    3 type  1   force =     0.00000000    0.00000000   -0.00000000
     atom    4 type  2   force =    -0.00000000   -0.00000000   -0.00000000
     The local contribution  to forces
     atom    1 type  1   force =     0.00014502   -0.00006562    0.00014823
     atom    2 type  1   force =    -0.00010968    0.00008027    0.00013818
     atom    3 type  1   force =    -0.00014112   -0.00012575   -0.00007005
     atom    4 type  2   force =     0.00016320    0.00009843   -0.00016222
     The core correction contribution to forces
     atom    1 type  1   force =     0.00000204   -0.00000178    0.00000333
     atom    2 type  1   force =     0.00000030    0.00000242    0.00000164
     atom    3 type  1   force =    -0.00000453   -0.00000821    0.00000177
     atom    4 type  2   force =     0.00000244    0.00000397   -0.00000222
     The Hubbard contrib.    to forces
     atom    1 type  1   force =     0.00000000    0.00000000    0.00000000
     atom    2 type  1   force =     0.00000000    0.00000000    0.00000000
     atom    3 type  1   force =     0.00000000    0.00000000    0.00000000
     atom    4 type  2   force =     0.00000000    0.00000000    0.00000000
     The SCF correction term to forces
     atom    1 type  1   force =    -0.00015553    0.00011308   -0.00017480
     atom    2 type  1   force =     0.00017730   -0.00013412   -0.00021477
     atom    3 type  1   force =     0.00016578    0.00012506    0.00012150
     atom    4 type  2   force =    -0.00018784   -0.00013096    0.00022248

     Total force =     0.000000     Total SCF correction =     0.000568

     Computing stress (Cartesian axis) and pressure

     negative rho (up, down):  2.010E-01 0.000E+00
          total   stress  (Ry/bohr**3)                   (kbar)     P=       21.45
   0.00014581   0.00000000   0.00000000           21.45        0.00        0.00
   0.00000000   0.00014581   0.00000000            0.00       21.45        0.00
   0.00000000   0.00000000   0.00014581            0.00        0.00       21.45

     kinetic stress (kbar)   5985.72      0.00      0.00
                                0.00   5985.72      0.00
                                0.00      0.00   5985.72

     local   stress (kbar)   2576.30     -0.01     -0.01
                               -0.01   2576.27      0.00
                               -0.01      0.00   2576.28

     nonloc. stress (kbar)  11707.54      0.00      0.00
                                0.00  11707.54      0.00
                                0.00      0.00  11707.54

     hartree stress (kbar)   5740.05      0.01      0.00
                                0.01   5740.07      0.00
                                0.00      0.00   5740.07

     exc-cor stress (kbar)  26898.16      0.00      0.00
                                0.00  26898.16     -0.00
                                0.00     -0.00  26898.16

     corecor stress (kbar) -32891.44      0.00     -0.00
                                0.00 -32891.44      0.00
                               -0.00      0.00 -32891.44

     ewald   stress (kbar) -19994.88      0.00     -0.00
                                0.00 -19994.88     -0.00
                               -0.00     -0.00 -19994.88

     hubbard stress (kbar)      0.00      0.00      0.00
                                0.00      0.00      0.00
                                0.00      0.00      0.00

     DFT-D   stress (kbar)      0.00      0.00      0.00
                                0.00      0.00      0.00
                                0.00      0.00      0.00

     XDM     stress (kbar)      0.00      0.00      0.00
                                0.00      0.00      0.00
                                0.00      0.00      0.00

     dft-nl  stress (kbar)      0.00      0.00      0.00
                                0.00      0.00      0.00
                                0.00      0.00      0.00

     TS-vdW  stress (kbar)      0.00      0.00      0.00
                                0.00      0.00      0.00
                                0.00      0.00      0.00

[...]

                                0.00      0.00      0.00

     Writing all to output data dir calculations/myprefix.save/

     General routines

     Parallel routines

   This run was terminated on:  17:12:49   4Mar2023

   JOB DONE.