     Program PWSCF v.7.0 starts on  3Mar2023 at 13:54: 7

     R & G space division:  proc/nbgrp/npool/nimage =      32

     Reading input from espresso_499.pwi
Warning: card &CELL ignored
Warning: card / ignored

     Current dimensions of program PWSCF are:
     Max number of different atomic species (ntypx) = 10
     Max number of k-points (npk) =  40000
     Max angular momentum in pseudopotentials (lmaxx) =  4

     gamma-point specific algorithms are used
     Message from routine setup:
     using ibrav=0 with symmetry is DISCOURAGED, use correct ibrav instead

     Using Slab Decomposition

     bravais-lattice index     =            0
     lattice parameter (alat)  =       8.4373  a.u.
     unit-cell volume          =     843.2472 (a.u.)^3
     number of atoms/cell      =            6
     number of atomic types    =            3
     number of electrons       =        76.00
     number of Kohn-Sham states=           46
     kinetic-energy cutoff     =      30.0000  Ry
     charge density cutoff     =     240.0000  Ry
     scf convergence threshold =      1.0E-06
     mixing beta               =       0.7000
     number of iterations used =            8  plain     mixing
     Exchange-correlation=  SLA  PW   PBX  PBC
                           (   1   4   3   4   0   0   0)

     celldm(1)=   8.437268  celldm(2)=   0.000000  celldm(3)=   0.000000
     celldm(4)=   0.000000  celldm(5)=   0.000000  celldm(6)=   0.000000

     crystal axes: (cart. coord. in units of alat)
               a(1) = (   1.000000   0.000000   0.000000 )
               a(2) = (  -0.500000   0.866025   0.000000 )
               a(3) = (   0.000000   0.000000   1.621133 )

     reciprocal axes: (cart. coord. in units 2 pi/alat)
               b(1) = (  1.000000  0.577350  0.000000 )
               b(2) = (  0.000000  1.154701  0.000000 )
               b(3) = (  0.000000  0.000000  0.616852 )

     PseudoPot. # 1 for Li read from file:
     /home/pragov/projects/rrg-bengioy-ad/pragov/crystal_structure_design/SSSP/li_pbe_v1.4.uspp.F.UPF
     MD5 check sum: e912e257baa3777c20ea3d68f190483c
     Pseudo is Ultrasoft, Zval =  3.0
     Generated by new atomic code, or converted to UPF format
     Using radial grid of  751 points,  5 beta functions with:
                l(1) =   0
                l(2) =   0
                l(3) =   0
                l(4) =   1
                l(5) =   1
     Q(r) pseudized with 10 coefficients,  rinner =    1.150   1.150   1.150

     PseudoPot. # 2 for Zn read from file:
     /home/pragov/projects/rrg-bengioy-ad/pragov/crystal_structure_design/SSSP/Zn_pbe_v1.uspp.F.UPF
     MD5 check sum: df62231357ef9e81f77b2b3087fa5675
     Pseudo is Ultrasoft, Zval = 20.0
     Generated by new atomic code, or converted to UPF format
     Using radial grid of  943 points,  6 beta functions with:
                l(1) =   0
                l(2) =   0
                l(3) =   1
                l(4) =   1
                l(5) =   2
                l(6) =   2
     Q(r) pseudized with  8 coefficients,  rinner =    1.100   1.100   1.100
                                                       1.100   1.100

     PseudoPot. # 3 for Sb read from file:
     /home/pragov/projects/rrg-bengioy-ad/pragov/crystal_structure_design/SSSP/sb_pbe_v1.4.uspp.F.UPF
     MD5 check sum: 9bc50dfb53373b713f5709b9110fe27f
     Pseudo is Ultrasoft + core correction, Zval = 15.0
     Generated by new atomic code, or converted to UPF format
     Using radial grid of  891 points,  6 beta functions with:
                l(1) =   0
                l(2) =   0
                l(3) =   1
                l(4) =   1
                l(5) =   2
                l(6) =   2
     Q(r) pseudized with  8 coefficients,  rinner =    1.350   1.350   1.350
                                                       1.350   1.350

     atomic species   valence    mass     pseudopotential
        Li             3.00     6.94000     Li( 1.00)
        Zn            20.00    65.38000     Zn( 1.00)
        Sb            15.00   121.76000     Sb( 1.00)

     12 Sym. Ops. (no inversion) found ( 6 have fractional translation)

                                    s                        frac. trans.

      isym =  1     identity

 cryst.   s( 1) = (     1          0          0      )
                  (     0          1          0      )
                  (     0          0          1      )

 cart.    s( 1) = (  1.0000000  0.0000000  0.0000000 )
                  (  0.0000000  1.0000000  0.0000000 )
                  (  0.0000000  0.0000000  1.0000000 )

      isym =  2     180 deg rotation - cart. axis [0,0,1]

 cryst.   s( 2) = (    -1          0          0      )    f =(  0.0000000 )
                  (     0         -1          0      )       (  0.0000000 )
                  (     0          0          1      )       (  0.5000000 )

 cart.    s( 2) = ( -1.0000000 -0.0000000  0.0000000 )    f =(  0.0000000 )
                  (  0.0000000 -1.0000000  0.0000000 )       (  0.0000000 )
                  (  0.0000000  0.0000000  1.0000000 )       (  0.8105666 )

      isym =  3      60 deg rotation - cryst. axis [0,0,1]

[...]

      isym =  6     120 deg rotation - cryst. axis [0,0,-1]

[...]

      isym =  7     inv. 180 deg rotation - cart. axis [0,1,0]

[...]

      isym =  8     inv. 180 deg rotation - cart. axis [1,0,0]

 cryst.   s( 8) = (    -1          0          0      )
                  (     1          1          0      )
                  (     0          0          1      )

 cart.    s( 8) = ( -1.0000000 -0.0000001  0.0000000 )
                  (  0.0000000  1.0000000  0.0000000 )
                  (  0.0000000  0.0000000  1.0000000 )

      isym =  9     inv. 180 deg rotation - cryst. axis [1,-1,0]

 cryst.   s( 9) = (     0          1          0      )    f =(  0.0000000 )
                  (     1          0          0      )       (  0.0000000 )
                  (     0          0          1      )       (  0.5000000 )

 cart.    s( 9) = ( -0.5000000  0.8660254  0.0000000 )    f =(  0.0000000 )
                  (  0.8660254  0.5000000  0.0000000 )       (  0.0000000 )
                  (  0.0000000  0.0000000  1.0000000 )       (  0.8105666 )

[...]

 cryst.   s(10) = (    -1         -1          0      )    f =(  0.0000000 )
                  (     0          1          0      )       (  0.0000000 )
                  (     0          0          1      )       (  0.5000000 )

 cart.    s(10) = ( -0.5000000 -0.8660254  0.0000000 )    f =(  0.0000000 )
                  ( -0.8660254  0.5000000  0.0000000 )       (  0.0000000 )
                  (  0.0000000  0.0000000  1.0000000 )       (  0.8105666 )

[...]

 cryst.   s(11) = (     1          1          0      )
                  (     0         -1          0      )
                  (     0          0          1      )

 cart.    s(11) = (  0.5000000  0.8660254  0.0000000 )
                  (  0.8660254 -0.5000000  0.0000000 )
                  (  0.0000000  0.0000000  1.0000000 )

      isym = 12     inv. 180 deg rotation - cryst. axis [1,1,0]

 cryst.   s(12) = (     0         -1          0      )
                  (    -1          0          0      )
                  (     0          0          1      )

 cart.    s(12) = (  0.5000000 -0.8660254  0.0000000 )
                  ( -0.8660254 -0.5000000  0.0000000 )
                  (  0.0000000  0.0000000  1.0000000 )

   Cartesian axes

     site n.     atom                  positions (alat units)
         1           Li  tau(   1) = (   0.0000000   0.0000000   1.0936294  )
         2           Li  tau(   2) = (   0.0000000   0.0000000   0.2830628  )
         3           Zn  tau(   3) = (  -0.0000005   0.5773505   0.0192688  )
         4           Zn  tau(   4) = (   0.5000005   0.2886748   0.8298354  )
         5           Sb  tau(   5) = (   0.5000005   0.2886748   1.4501134  )
         6           Sb  tau(   6) = (  -0.0000005   0.5773505   0.6395468  )

   Crystallographic axes

     site n.     atom                  positions (cryst. coord.)
         1           Li  tau(   1) = (  0.0000000  0.0000000  0.6746080  )
         2           Li  tau(   2) = (  0.0000000  0.0000000  0.1746080  )
         3           Zn  tau(   3) = (  0.3333330  0.6666670  0.0118860  )
         4           Zn  tau(   4) = (  0.6666670  0.3333330  0.5118860  )
         5           Sb  tau(   5) = (  0.6666670  0.3333330  0.8945060  )
         6           Sb  tau(   6) = (  0.3333330  0.6666670  0.3945060  )

     number of k points=     1  Methfessel-Paxton smearing, width (Ry)=  0.0010
                       cart. coord. in units 2pi/alat
        k(    1) = (   0.0000000   0.0000000   0.0000000), wk =   2.0000000

                       cryst. coord.
        k(    1) = (   0.0000000   0.0000000   0.0000000), wk =   2.0000000

     Check: negative core charge=   -0.000005

     Initial potential from superposition of free atoms

     starting charge      73.0982, renormalised to      76.0000
     Starting wfcs are   54 randomized atomic wfcs

     Self-consistent Calculation

     iteration #  1     ecut=    30.00 Ry     beta= 0.70
     Davidson diagonalization with overlap

     ethr =  1.00E-02,  avg # of iterations =  5.0

     total energy              =   -1215.86536534 Ry
     estimated scf accuracy    <     130.70676746 Ry

[...]

     total energy              =   -1320.58646843 Ry
     estimated scf accuracy    <       0.00000486 Ry

     iteration # 28     ecut=    30.00 Ry     beta= 0.70
     Davidson diagonalization with overlap

     ethr =  6.39E-09,  avg # of iterations =  2.0

     End of self-consistent calculation

          k = 0.0000 0.0000 0.0000 (  1173 PWs)   bands (ev):

  -118.4291-118.4245 -72.5869 -72.5759 -72.5338 -72.5338 -72.5149 -72.5148
   -39.0358 -39.0344 -18.6288 -18.6226 -18.5653 -18.5653 -18.5479 -18.5478
   -18.4665 -18.4665 -18.4503 -18.4503  -1.7007  -0.6687   0.5915   0.5928
     0.5928   0.6161   0.6161   0.7032   0.7032   0.7248   0.7248   1.0671
     3.3976   8.0468   8.0469   9.1794   9.1794   9.3471   9.3661   9.7212
    10.7546  10.7546  12.0133  12.8679  12.8680  13.8156

     occupation numbers
     1.0000   1.0000   1.0000   1.0000   1.0000   1.0000   1.0000   1.0000
     1.0000   1.0000   1.0000   1.0000   1.0000   1.0000   1.0000   1.0000
     1.0000   1.0000   1.0000   1.0000   1.0000   1.0000   1.0000   1.0000
     1.0000   1.0000   1.0000   1.0000   1.0000   1.0000   1.0000   1.0000
     1.0000   1.0000   1.0000   1.0000   1.0000   0.9598   0.0402  -0.0000
    -0.0000  -0.0000  -0.0000  -0.0000  -0.0000  -0.0000

     the Fermi energy is     9.3566 ev

!    total energy              =   -1320.58646855 Ry
     estimated scf accuracy    <       0.00000013 Ry
     smearing contrib. (-TS)   =      -0.00000720 Ry
     internal energy E=F+TS    =   -1320.58646136 Ry

     The total energy is F=E-TS. E is the sum of the following terms:
     one-electron contribution =   -1119.12831806 Ry
     hartree contribution      =     583.40603107 Ry
     xc contribution           =    -179.67060326 Ry
     ewald contribution        =    -605.19357111 Ry

     convergence has been achieved in  28 iterations

     Forces acting on atoms (cartesian axes, Ry/au):

     atom    1 type  1   force =     0.00000000    0.00000000    0.01172869
     atom    2 type  1   force =    -0.00000000   -0.00000000    0.01172869
     atom    3 type  2   force =    -0.00000000    0.00000000    0.04790057
     atom    4 type  2   force =    -0.00000000    0.00000000    0.04790057
     atom    5 type  3   force =     0.00000000   -0.00000000   -0.05962926
     atom    6 type  3   force =     0.00000000    0.00000000   -0.05962926
     The non-local contrib.  to forces
     atom    1 type  1   force =    -0.00000000   -0.00000000   -0.01482988
     atom    2 type  1   force =     0.00000000    0.00000000   -0.01482988
     atom    3 type  2   force =    -0.00000000   -0.00000000   -0.38752323
     atom    4 type  2   force =     0.00000000    0.00000000   -0.38752323
     atom    5 type  3   force =     0.00000000   -0.00000000    0.65202313
     atom    6 type  3   force =     0.00000000    0.00000000    0.65202313
     The ionic contribution  to forces
     atom    1 type  1   force =     0.00000509   -0.00000294    0.78011658
     atom    2 type  1   force =    -0.00000509    0.00000294    0.78011658
     atom    3 type  2   force =     0.00008193   -0.00004730   -0.51944465
     atom    4 type  2   force =    -0.00008193    0.00004730   -0.51944465
     atom    5 type  3   force =    -0.00007748    0.00004473   -0.26067193
     atom    6 type  3   force =     0.00007748   -0.00004473   -0.26067193
     The local contribution  to forces
     atom    1 type  1   force =     0.00000862    0.00001746   -0.75350705
     atom    2 type  1   force =    -0.00000220   -0.00001183   -0.75337538
     atom    3 type  2   force =    -0.00003646    0.00004224    0.95327731
     atom    4 type  2   force =    -0.00003266   -0.00013380    0.95344740
     atom    5 type  3   force =     0.00022239    0.00032820   -0.44699569
     atom    6 type  3   force =    -0.00046629   -0.00032412   -0.44607120
     The core correction contribution to forces
     atom    1 type  1   force =     0.00000000    0.00000000    0.00000000
     atom    2 type  1   force =     0.00000000    0.00000000    0.00000000
     atom    3 type  2   force =     0.00000000    0.00000000    0.00000000
     atom    4 type  2   force =     0.00000000    0.00000000    0.00000000
     atom    5 type  3   force =    -0.00000065    0.00000741   -0.00280716
     atom    6 type  3   force =    -0.00000370   -0.00000833   -0.00280280
     The Hubbard contrib.    to forces
     atom    1 type  1   force =     0.00000000    0.00000000    0.00000000
     atom    2 type  1   force =     0.00000000    0.00000000    0.00000000
     atom    3 type  2   force =     0.00000000    0.00000000    0.00000000
     atom    4 type  2   force =     0.00000000    0.00000000    0.00000000
     atom    5 type  3   force =     0.00000000    0.00000000    0.00000000
     atom    6 type  3   force =     0.00000000    0.00000000    0.00000000
     The SCF correction term to forces
     atom    1 type  1   force =    -0.00000479   -0.00000617    0.00006239
     atom    2 type  1   force =    -0.00000359    0.00000069   -0.00006007
     atom    3 type  2   force =    -0.00001754    0.00001806    0.00170039
     atom    4 type  2   force =     0.00005802    0.00000755    0.00154770
     atom    5 type  3   force =    -0.00009536   -0.00033370   -0.00118777
     atom    6 type  3   force =     0.00033963    0.00033803   -0.00186039

     Total force =     0.109432     Total SCF correction =     0.003243

     Computing stress (Cartesian axis) and pressure

          total   stress  (Ry/bohr**3)                   (kbar)     P=      -74.97
   0.00002878   0.00000000  -0.00000000            4.23        0.00       -0.00
   0.00000000   0.00002878  -0.00000000            0.00        4.23       -0.00
   0.00000000   0.00000000  -0.00158649            0.00        0.00     -233.38

     kinetic stress (kbar)  18683.39      0.00      0.00
                                0.00  18683.39      0.00
                                0.00      0.00  18499.44

     local   stress (kbar)  -9299.68     -0.22      0.01
                               -0.22  -9299.74      0.00
                                0.01      0.00  -5144.93

     nonloc. stress (kbar)  -1373.34     -0.00      0.00
                               -0.00  -1373.34      0.00
                                0.00      0.00  -1636.84

     hartree stress (kbar)  34406.48      0.12     -0.01
                                0.12  34406.44     -0.00
                               -0.01     -0.00  32962.68

     exc-cor stress (kbar)    -36.47      0.00     -0.00
                                0.00    -36.47     -0.00
                               -0.00     -0.00    -39.80

     corecor stress (kbar)  -8017.75      0.00      0.00
                                0.00  -8017.75      0.00
                                0.00      0.00  -8014.16

     ewald   stress (kbar) -34358.40      0.10      0.00
                                0.10 -34358.29     -0.00
                                0.00     -0.00 -36859.76

     hubbard stress (kbar)      0.00      0.00      0.00
                                0.00      0.00      0.00
                                0.00      0.00      0.00

     DFT-D   stress (kbar)      0.00      0.00      0.00
                                0.00      0.00      0.00
                                0.00      0.00      0.00

     XDM     stress (kbar)      0.00      0.00      0.00
                                0.00      0.00      0.00
                                0.00      0.00      0.00

     dft-nl  stress (kbar)      0.00      0.00      0.00
                                0.00      0.00      0.00
                                0.00      0.00      0.00

     TS-vdW  stress (kbar)      0.00      0.00      0.00
                                0.00      0.00      0.00
                                0.00      0.00      0.00

[...]

                                0.00      0.00      0.00

     Writing all to output data dir calculations/myprefix.save/

     General routines

     Parallel routines

   This run was terminated on:  13:54:10   3Mar2023

   JOB DONE.