     Program PWSCF v.7.0 starts on  6Mar2023 at 13:26:16

     R & G space division:  proc/nbgrp/npool/nimage =      32

     Reading input from espresso_4764.pwi
Warning: card &CELL ignored
Warning: card / ignored

     Current dimensions of program PWSCF are:
     Max number of different atomic species (ntypx) = 10
     Max number of k-points (npk) =  40000
     Max angular momentum in pseudopotentials (lmaxx) =  4
     file Al.pbe-n-kjpaw_psl.1.0.0.UPF: wavefunction(s)  3S 3P renormalized

     gamma-point specific algorithms are used
     Message from routine setup:
     using ibrav=0 with symmetry is DISCOURAGED, use correct ibrav instead

     Using Slab Decomposition

     bravais-lattice index     =            0
     lattice parameter (alat)  =       7.4730  a.u.
     unit-cell volume          =     725.1334 (a.u.)^3
     number of atoms/cell      =            7
     number of atomic types    =            3
     number of electrons       =        88.00
     number of Kohn-Sham states=           53
     kinetic-energy cutoff     =      30.0000  Ry
     charge density cutoff     =     240.0000  Ry
     scf convergence threshold =      1.0E-06
     mixing beta               =       0.7000
     number of iterations used =            8  plain     mixing
     Exchange-correlation=  SLA  PW   PBX  PBC
                           (   1   4   3   4   0   0   0)

     celldm(1)=   7.472988  celldm(2)=   0.000000  celldm(3)=   0.000000
     celldm(4)=   0.000000  celldm(5)=   0.000000  celldm(6)=   0.000000

     crystal axes: (cart. coord. in units of alat)
               a(1) = (   1.000000   0.000000   0.000000 )
               a(2) = (   0.000000   1.000000   0.000000 )
               a(3) = (   0.000000   0.000000   1.737541 )

     reciprocal axes: (cart. coord. in units 2 pi/alat)
               b(1) = (  1.000000  0.000000  0.000000 )
               b(2) = (  0.000000  1.000000  0.000000 )
               b(3) = (  0.000000  0.000000  0.575526 )

     PseudoPot. # 1 for Al read from file:
     /home/pragov/projects/rrg-bengioy-ad/pragov/crystal_structure_design/SSSP/Al.pbe-n-kjpaw_psl.1.0.0.UPF
     MD5 check sum: cfc449ca30b5f3223ec38ddd88ac046d
     Pseudo is Projector augmented-wave + core cor, Zval =  3.0
     Generated using "atomic" code by A. Dal Corso  v.5.1
     Shape of augmentation charge: PSQ
     Using radial grid of 1135 points,  6 beta functions with:
                l(1) =   0
                l(2) =   0
                l(3) =   1
                l(4) =   1
                l(5) =   2
                l(6) =   2
     Q(r) pseudized with 0 coefficients

     PseudoPot. # 2 for P  read from file:
     /home/pragov/projects/rrg-bengioy-ad/pragov/crystal_structure_design/SSSP/P.pbe-n-rrkjus_psl.1.0.0.UPF
     MD5 check sum: 8b930f418f0a4573dca56cd030ffe088
     Pseudo is Ultrasoft + core correction, Zval =  5.0
     Generated using "atomic" code by A. Dal Corso  v.5.1
     Using radial grid of 1147 points,  6 beta functions with:
                l(1) =   0
                l(2) =   0
                l(3) =   1
                l(4) =   1
                l(5) =   2
                l(6) =   2
     Q(r) pseudized with 0 coefficients

     PseudoPot. # 3 for Pt read from file:
     /home/pragov/projects/rrg-bengioy-ad/pragov/crystal_structure_design/SSSP/pt_pbe_v1.4.uspp.F.UPF
     MD5 check sum: f09d6de1a584b5a045c4fc126da2d0c4
     Pseudo is Ultrasoft + core correction, Zval = 16.0
     Generated by new atomic code, or converted to UPF format
     Using radial grid of  985 points,  6 beta functions with:
                l(1) =   0
                l(2) =   0
                l(3) =   1
                l(4) =   1
                l(5) =   2
                l(6) =   2
     Q(r) pseudized with  8 coefficients,  rinner =    1.300   1.300   1.300
                                                       1.300   1.300

     atomic species   valence    mass     pseudopotential
        Al             3.00    26.98154     Al( 1.00)
        P              5.00    30.97376     P ( 1.00)
        Pt            16.00   195.08400     Pt( 1.00)

     16 Sym. Ops., with inversion, found

                                    s                        frac. trans.

      isym =  1     identity

 cryst.   s( 1) = (     1          0          0      )
                  (     0          1          0      )
                  (     0          0          1      )

 cart.    s( 1) = (  1.0000000  0.0000000  0.0000000 )
                  (  0.0000000  1.0000000  0.0000000 )
                  (  0.0000000  0.0000000  1.0000000 )

      isym =  2     180 deg rotation - cart. axis [0,0,1]

[...]

      isym =  8      90 deg rotation - cart. axis [0,0,1]

[...]

      isym =  9     inversion

 cryst.   s( 9) = (    -1          0          0      )
                  (     0         -1          0      )
                  (     0          0         -1      )

 cart.    s( 9) = ( -1.0000000  0.0000000  0.0000000 )
                  (  0.0000000 -1.0000000  0.0000000 )
                  (  0.0000000  0.0000000 -1.0000000 )

      isym = 10     inv. 180 deg rotation - cart. axis [0,0,1]

 cryst.   s(10) = (     1          0          0      )
                  (     0          1          0      )
                  (     0          0         -1      )

 cart.    s(10) = (  1.0000000  0.0000000  0.0000000 )
                  (  0.0000000  1.0000000  0.0000000 )
                  (  0.0000000  0.0000000 -1.0000000 )

[...]

      isym = 16     inv.  90 deg rotation - cart. axis [0,0,1]

 cryst.   s(16) = (     0         -1          0      )
                  (     1          0          0      )
                  (     0          0         -1      )

 cart.    s(16) = (  0.0000000  1.0000000  0.0000000 )
                  ( -1.0000000  0.0000000  0.0000000 )
                  (  0.0000000  0.0000000 -1.0000000 )

   Cartesian axes

     site n.     atom                  positions (alat units)
         1           Al  tau(   1) = (   0.5000000   0.5000000   0.0000000  )
         2           P   tau(   2) = (   0.0000000   0.0000000   0.8687704  )
         3           Pt  tau(   3) = (   0.0000000   0.5000000   0.4986117  )
         4           Pt  tau(   4) = (   0.0000000   0.5000000   1.2389292  )
         5           Pt  tau(   5) = (   0.5000000   0.0000000   0.4986117  )
         6           Pt  tau(   6) = (   0.5000000   0.0000000   1.2389292  )
         7           Pt  tau(   7) = (   0.0000000   0.0000000   0.0000000  )

   Crystallographic axes

     site n.     atom                  positions (cryst. coord.)
         1           Al  tau(   1) = (  0.5000000  0.5000000  0.0000000  )
         2           P   tau(   2) = (  0.0000000  0.0000000  0.5000000  )
         3           Pt  tau(   3) = (  0.0000000  0.5000000  0.2869640  )
         4           Pt  tau(   4) = (  0.0000000  0.5000000  0.7130360  )
         5           Pt  tau(   5) = (  0.5000000  0.0000000  0.2869640  )
         6           Pt  tau(   6) = (  0.5000000  0.0000000  0.7130360  )
         7           Pt  tau(   7) = (  0.0000000  0.0000000  0.0000000  )

     number of k points=     1  Methfessel-Paxton smearing, width (Ry)=  0.0010
                       cart. coord. in units 2pi/alat
        k(    1) = (   0.0000000   0.0000000   0.0000000), wk =   2.0000000

                       cryst. coord.
        k(    1) = (   0.0000000   0.0000000   0.0000000), wk =   2.0000000

     Initial potential from superposition of free atoms

     starting charge      85.4975, renormalised to      88.0000

     negative rho (up, down):  9.233E-01 0.000E+00
     Starting wfcs are   68 randomized atomic wfcs
     Checking if some PAW data can be deallocated...

     Self-consistent Calculation

     iteration #  1     ecut=    30.00 Ry     beta= 0.70
     Davidson diagonalization with overlap

     ethr =  1.00E-02,  avg # of iterations =  3.0

     negative rho (up, down):  8.301E-01 0.000E+00

     total energy              =   -1102.54868522 Ry
     estimated scf accuracy    <       7.68333632 Ry

[...]

     total energy              =   -1106.72495472 Ry
     estimated scf accuracy    <       0.00000159 Ry

     iteration # 23     ecut=    30.00 Ry     beta= 0.70
     Davidson diagonalization with overlap

     ethr =  1.81E-09,  avg # of iterations =  1.0

[...]

     End of self-consistent calculation

          k = 0.0000 0.0000 0.0000 (  1032 PWs)   bands (ev):

   -34.4117 -34.4117 -34.3985 -34.3985 -34.1435 -34.1435 -34.1374 -34.1374
   -33.8347 -33.8152 -33.7861 -33.7168 -33.5602 -33.5270 -33.5270   5.1298
     9.4046   9.7708  12.1728  12.1878  12.1878  12.4716  12.5674  12.7766
    12.9043  13.4426  13.6696  13.6696  15.6582  15.6582  16.1804  16.5023
    16.6053  16.6461  16.6461  16.7101  17.1645  17.2614  17.6415  17.6415
    17.7820  17.9038  17.9038  18.5980  18.6366  20.4009  20.9127  23.1754
    23.2838  23.2838  23.6156  23.6156  23.8455

     occupation numbers
     1.0000   1.0000   1.0000   1.0000   1.0000   1.0000   1.0000   1.0000
     1.0000   1.0000   1.0000   1.0000   1.0000   1.0000   1.0000   1.0000
     1.0000   1.0000   1.0000   1.0000   1.0000   1.0000   1.0000   1.0000
     1.0000   1.0000   1.0000   1.0000   1.0000   1.0000   1.0000   1.0000
     1.0000   1.0000   1.0000   1.0000   1.0000   1.0000   1.0000   1.0000
     1.0000   1.0000   1.0000   1.0312  -0.0312  -0.0000  -0.0000  -0.0000
    -0.0000  -0.0000  -0.0000  -0.0000  -0.0000

     the Fermi energy is    18.6173 ev

!    total energy              =   -1106.72495440 Ry
     estimated scf accuracy    <       0.00000034 Ry
     smearing contrib. (-TS)   =       0.00022875 Ry
     internal energy E=F+TS    =   -1106.72518315 Ry

     The total energy is F=E-TS. E is the sum of the following terms:
     one-electron contribution =    -213.13417486 Ry
     hartree contribution      =     175.53775779 Ry
     xc contribution           =    -292.17688828 Ry
     ewald contribution        =    -742.31139500 Ry
     one-center paw contrib.   =     -34.64048281 Ry
      -> PAW hartree energy AE =       1.14543202 Ry
      -> PAW hartree energy PS =      -1.14224795 Ry
      -> PAW xc energy AE      =     -36.42409679 Ry
      -> PAW xc energy PS      =       1.78042990 Ry
      -> total E_H with PAW    =     175.54094187 Ry
      -> total E_XC with PAW   =    -326.82055516 Ry

     convergence has been achieved in  23 iterations

     negative rho (up, down):  8.693E-01 0.000E+00

     Forces acting on atoms (cartesian axes, Ry/au):

     atom    1 type  1   force =     0.00000000    0.00000000    0.00000000
     atom    2 type  2   force =     0.00000000    0.00000000    0.00000000
     atom    3 type  3   force =     0.00000000    0.00000000    0.01563701
     atom    4 type  3   force =     0.00000000    0.00000000   -0.01563701
     atom    5 type  3   force =     0.00000000    0.00000000    0.01563701
     atom    6 type  3   force =     0.00000000    0.00000000   -0.01563701
     atom    7 type  3   force =     0.00000000    0.00000000    0.00000000
     The non-local contrib.  to forces
     atom    1 type  1   force =     0.00000000    0.00000000    0.00000000
     atom    2 type  2   force =     0.00000000    0.00000000    0.00000000
     atom    3 type  3   force =     0.00000000    0.00000000    0.09134845
     atom    4 type  3   force =     0.00000000    0.00000000   -0.09134845
     atom    5 type  3   force =     0.00000000    0.00000000    0.09134845
     atom    6 type  3   force =     0.00000000    0.00000000   -0.09134845
     atom    7 type  3   force =     0.00000000    0.00000000    0.00000000
     The ionic contribution  to forces
     atom    1 type  1   force =     0.00000000    0.00000000    0.00000000
     atom    2 type  2   force =     0.00000000    0.00000000    0.00000000
     atom    3 type  3   force =     0.00000000   -0.00000000    0.42418018
     atom    4 type  3   force =     0.00000000    0.00000000   -0.42418018
     atom    5 type  3   force =    -0.00000000    0.00000000    0.42418018
     atom    6 type  3   force =     0.00000000    0.00000000   -0.42418018
     atom    7 type  3   force =    -0.00000000   -0.00000000    0.00000000
     The local contribution  to forces
     atom    1 type  1   force =     0.00000008    0.00000077   -0.00037314
     atom    2 type  2   force =     0.00000086   -0.00000213    0.00076565
     atom    3 type  3   force =    -0.00000042    0.00000065   -0.49605647
     atom    4 type  3   force =    -0.00000140    0.00000366    0.49680742
     atom    5 type  3   force =    -0.00000166   -0.00000173   -0.49605310
     atom    6 type  3   force =    -0.00000044   -0.00000259    0.49679757
     atom    7 type  3   force =     0.00000250    0.00000050   -0.00198934
     The core correction contribution to forces
     atom    1 type  1   force =     0.00000002    0.00000009   -0.00000006
     atom    2 type  2   force =     0.00000005   -0.00000011    0.00000009
     atom    3 type  3   force =     0.00000003    0.00000028   -0.00345305
     atom    4 type  3   force =     0.00000018   -0.00000036    0.00345342
     atom    5 type  3   force =     0.00000022    0.00000001   -0.00345446
     atom    6 type  3   force =    -0.00000045    0.00000019    0.00345402
     atom    7 type  3   force =     0.00000013    0.00000002   -0.00000020
     The Hubbard contrib.    to forces
     atom    1 type  1   force =     0.00000000    0.00000000    0.00000000
     atom    2 type  2   force =     0.00000000    0.00000000    0.00000000
     atom    3 type  3   force =     0.00000000    0.00000000    0.00000000
     atom    4 type  3   force =     0.00000000    0.00000000    0.00000000
     atom    5 type  3   force =     0.00000000    0.00000000    0.00000000
     atom    6 type  3   force =     0.00000000    0.00000000    0.00000000
     atom    7 type  3   force =     0.00000000    0.00000000    0.00000000
     The SCF correction term to forces
     atom    1 type  1   force =     0.00000000   -0.00000012    0.00033980
     atom    2 type  2   force =    -0.00000003    0.00000035   -0.00072416
     atom    3 type  3   force =    -0.00000007   -0.00000208   -0.00036984
     atom    4 type  3   force =     0.00000094   -0.00000210   -0.00035582
     atom    5 type  3   force =     0.00000014    0.00000150   -0.00037429
     atom    6 type  3   force =    -0.00000026    0.00000224   -0.00035134
     atom    7 type  3   force =    -0.00000060   -0.00000005    0.00192180

     Total force =     0.031274     Total SCF correction =     0.002205

     Computing stress (Cartesian axis) and pressure

     negative rho (up, down):  8.693E-01 0.000E+00
          total   stress  (Ry/bohr**3)                   (kbar)     P=      105.11
   0.00077102   0.00000000   0.00000000          113.42        0.00        0.00
   0.00000000   0.00077102   0.00000000            0.00      113.42        0.00
   0.00000000   0.00000000   0.00060148            0.00        0.00       88.48

     kinetic stress (kbar)  39761.19      0.00      0.00
                                0.00  39761.19      0.00
                                0.00      0.00  40431.04

     local   stress (kbar)   9619.67     -0.00     -0.00
                               -0.00   9619.67     -0.00
                               -0.00     -0.00   9314.50

     nonloc. stress (kbar)    -79.42      0.00      0.00
                                0.00    -79.42      0.00
                                0.00      0.00    495.48

     hartree stress (kbar)  11821.37     -0.00      0.00
                               -0.00  11821.37      0.00
                                0.00      0.00  11967.95

     exc-cor stress (kbar)  28315.53      0.00      0.00
                                0.00  28315.53      0.00
                                0.00      0.00  28333.33

     corecor stress (kbar) -39506.33     -0.00      0.00
                               -0.00 -39506.33      0.00
                                0.00      0.00 -39501.06

     ewald   stress (kbar) -49818.58      0.00      0.00
                                0.00 -49818.58      0.00
                                0.00      0.00 -50952.77

     hubbard stress (kbar)      0.00      0.00      0.00
                                0.00      0.00      0.00
                                0.00      0.00      0.00

     DFT-D   stress (kbar)      0.00      0.00      0.00
                                0.00      0.00      0.00
                                0.00      0.00      0.00

     XDM     stress (kbar)      0.00      0.00      0.00
                                0.00      0.00      0.00
                                0.00      0.00      0.00

     dft-nl  stress (kbar)      0.00      0.00      0.00
                                0.00      0.00      0.00
                                0.00      0.00      0.00

     TS-vdW  stress (kbar)      0.00      0.00      0.00
                                0.00      0.00      0.00
                                0.00      0.00      0.00

[...]

                                0.00      0.00      0.00

     Writing all to output data dir calculations/myprefix.save/

     General routines

     Parallel routines

     PAW routines

   This run was terminated on:  13:26:20   6Mar2023

   JOB DONE.