     Program PWSCF v.7.0 starts on  6Mar2023 at 12: 6:15

     R & G space division:  proc/nbgrp/npool/nimage =      32

     Reading input from espresso_4546.pwi
Warning: card &CELL ignored
Warning: card / ignored

     Current dimensions of program PWSCF are:
     Max number of different atomic species (ntypx) = 10
     Max number of k-points (npk) =  40000
     Max angular momentum in pseudopotentials (lmaxx) =  4
     file Mg.pbe-n-kjpaw_psl.0.3.0.UPF: wavefunction(s)  3S renormalized

     gamma-point specific algorithms are used
     Message from routine setup:
     using ibrav=0 with symmetry is DISCOURAGED, use correct ibrav instead

     Using Slab Decomposition

     bravais-lattice index     =            0
     lattice parameter (alat)  =      10.8683  a.u.
     unit-cell volume          =     997.8458 (a.u.)^3
     number of atoms/cell      =           12
     number of atomic types    =            3
     number of electrons       =        64.00
     number of Kohn-Sham states=           38
     kinetic-energy cutoff     =      30.0000  Ry
     charge density cutoff     =     240.0000  Ry
     scf convergence threshold =      1.0E-06
     mixing beta               =       0.7000
     number of iterations used =            8  plain     mixing
     Exchange-correlation= PBE
                           (   1   4   3   4   0   0   0)

     celldm(1)=  10.868267  celldm(2)=   0.000000  celldm(3)=   0.000000
     celldm(4)=   0.000000  celldm(5)=   0.000000  celldm(6)=   0.000000

     crystal axes: (cart. coord. in units of alat)
               a(1) = (   1.000000   0.000000   0.000000 )
               a(2) = (  -0.487468   0.873141   0.000000 )
               a(3) = (   0.000000   0.000000   0.890222 )

     reciprocal axes: (cart. coord. in units 2 pi/alat)
               b(1) = (  1.000000  0.558292  0.000000 )
               b(2) = (  0.000000  1.145290  0.000000 )
               b(3) = (  0.000000  0.000000  1.123316 )

     PseudoPot. # 1 for Mg read from file:
     /home/pragov/projects/rrg-bengioy-ad/pragov/crystal_structure_design/SSSP/Mg.pbe-n-kjpaw_psl.0.3.0.UPF
     MD5 check sum: 24ecedc7f3e3cbe212e682f4413594e4
     Pseudo is Projector augmented-wave + core cor, Zval =  2.0
     Generated using "atomic" code by A. Dal Corso  v.5.0.99 svn rev. 10869
     Shape of augmentation charge: PSQ
     Using radial grid of 1129 points,  4 beta functions with:
                l(1) =   0
                l(2) =   0
                l(3) =   1
                l(4) =   1
     Q(r) pseudized with 0 coefficients

     PseudoPot. # 2 for V  read from file:
     /home/pragov/projects/rrg-bengioy-ad/pragov/crystal_structure_design/SSSP/v_pbe_v1.4.uspp.F.UPF
     MD5 check sum: 22b79981416ebb76fdaf5b1b8640f6fb
     Pseudo is Ultrasoft + core correction, Zval = 13.0
     Generated by new atomic code, or converted to UPF format
     Using radial grid of  853 points,  6 beta functions with:
                l(1) =   0
                l(2) =   0
                l(3) =   1
                l(4) =   1
                l(5) =   2
                l(6) =   2
     Q(r) pseudized with  8 coefficients,  rinner =    1.100   1.100   1.100
                                                       1.100   1.100

     PseudoPot. # 3 for N  read from file:
     /home/pragov/projects/rrg-bengioy-ad/pragov/crystal_structure_design/SSSP/N.pbe-n-radius_5.UPF
     MD5 check sum: 16739722b17309cd8fe442a2ace49922
     Pseudo is Ultrasoft + core correction, Zval =  5.0
     Generated using "atomic" code by A. Dal Corso  v.5.1
     Using radial grid of 1085 points,  4 beta functions with:
                l(1) =   0
                l(2) =   0
                l(3) =   1
                l(4) =   1
     Q(r) pseudized with 0 coefficients

     atomic species   valence    mass     pseudopotential
        Mg             2.00    24.30500     Mg( 1.00)
        V             13.00    50.94150     V ( 1.00)
        N              5.00    14.00700     N ( 1.00)

      2 Sym. Ops. (no inversion) found ( 1 have fractional translation)

                                    s                        frac. trans.

      isym =  1     identity

 cryst.   s( 1) = (     1          0          0      )
                  (     0          1          0      )
                  (     0          0          1      )

 cart.    s( 1) = (  1.0000000  0.0000000  0.0000000 )
                  (  0.0000000  1.0000000  0.0000000 )
                  (  0.0000000  0.0000000  1.0000000 )

      isym =  2     180 deg rotation - cart. axis [0,0,1]

 cryst.   s( 2) = (    -1          0          0      )    f =( -0.0000000 )
                  (     0         -1          0      )       (  0.0000000 )
                  (     0          0          1      )       (  0.5000000 )

 cart.    s( 2) = ( -1.0000000 -0.0000000  0.0000000 )    f =( -0.0000000 )
                  (  0.0000000 -1.0000000  0.0000000 )       (  0.0000000 )
                  (  0.0000000  0.0000000  1.0000000 )       (  0.4451108 )

   Cartesian axes

     site n.     atom                  positions (alat units)
         1           Mg  tau(   1) = (   0.1820258   0.8718829   0.4641072  )
         2           Mg  tau(   2) = (   0.6725450   0.5839489   0.4641072  )
         3           Mg  tau(   3) = (   0.3305066   0.0012582   0.0189964  )
         4           Mg  tau(   4) = (  -0.1600127   0.2891922   0.0189964  )
         5           V   tau(   5) = (   0.1725005   0.2938687   0.4608597  )
         6           V   tau(   6) = (   0.3400319   0.5792723   0.0157489  )
         7           N   tau(   7) = (   0.1973077   0.8425453   0.0950614  )
         8           N   tau(   8) = (   0.6394798   0.5829910   0.0950614  )
         9           N   tau(   9) = (   0.3152246   0.0305957   0.5401722  )
        10           N   tau(  10) = (  -0.1269474   0.2901500   0.5401722  )
        11           N   tau(  11) = (   0.1863081   0.3173911   0.1371502  )
        12           N   tau(  12) = (   0.3262243   0.5557499   0.5822610  )

   Crystallographic axes

     site n.     atom                  positions (cryst. coord.)
         1           Mg  tau(   1) = (  0.6687910  0.9985590  0.5213390  )
         2           Mg  tau(   2) = (  0.9985590  0.6687910  0.5213390  )
         3           Mg  tau(   3) = (  0.3312090  0.0014410  0.0213390  )
         4           Mg  tau(   4) = (  0.0014410  0.3312090  0.0213390  )
         5           V   tau(   5) = (  0.3365650  0.3365650  0.5176910  )
         6           V   tau(   6) = (  0.6634350  0.6634350  0.0176910  )
         7           N   tau(   7) = (  0.6676940  0.9649590  0.1067840  )
         8           N   tau(   8) = (  0.9649590  0.6676940  0.1067840  )
         9           N   tau(   9) = (  0.3323060  0.0350410  0.6067840  )
        10           N   tau(  10) = (  0.0350410  0.3323060  0.6067840  )
        11           N   tau(  11) = (  0.3635050  0.3635050  0.1540630  )
        12           N   tau(  12) = (  0.6364950  0.6364950  0.6540630  )

     number of k points=     1  Methfessel-Paxton smearing, width (Ry)=  0.0010
                       cart. coord. in units 2pi/alat
        k(    1) = (   0.0000000   0.0000000   0.0000000), wk =   2.0000000

                       cryst. coord.
        k(    1) = (   0.0000000   0.0000000   0.0000000), wk =   2.0000000

     Check: negative core charge=   -0.000002

     Initial potential from superposition of free atoms

     starting charge      63.9938, renormalised to      64.0000

     negative rho (up, down):  2.642E-03 0.000E+00
     Starting wfcs are   60 randomized atomic wfcs
     Checking if some PAW data can be deallocated...

     Self-consistent Calculation

     iteration #  1     ecut=    30.00 Ry     beta= 0.70
     Davidson diagonalization with overlap

     ethr =  1.00E-02,  avg # of iterations =  2.0

     negative rho (up, down):  4.965E-03 0.000E+00

     total energy              =    -543.36050768 Ry
     estimated scf accuracy    <       5.67512294 Ry

[...]

     total energy              =    -546.57494611 Ry
     estimated scf accuracy    <       0.00000214 Ry

     iteration # 13     ecut=    30.00 Ry     beta= 0.70
     Davidson diagonalization with overlap

     ethr =  3.34E-09,  avg # of iterations =  3.0

[...]

     End of self-consistent calculation

          k = 0.0000 0.0000 0.0000 (  1403 PWs)   bands (ev):

   -57.6780 -57.6696 -31.7216 -31.6440 -31.5747 -31.5363 -31.4557 -31.4464
    -7.5132  -6.3506  -6.1684  -6.1014  -5.9444  -5.9377   2.4234   2.7552
     2.8975   3.0686   3.1026   3.2942   3.6193   3.7642   3.7856   3.9125
     4.1474   4.3107   4.4329   4.7553   4.8480   4.9273   5.0613   5.2573
     8.2030   8.3760   8.7051   9.3147   9.6719  10.0487

     occupation numbers
     1.0000   1.0000   1.0000   1.0000   1.0000   1.0000   1.0000   1.0000
     1.0000   1.0000   1.0000   1.0000   1.0000   1.0000   1.0000   1.0000
     1.0000   1.0000   1.0000   1.0000   1.0000   1.0000   1.0000   1.0000
     1.0000   1.0000   1.0000   1.0000   1.0000   1.0000   1.0000   1.0000
    -0.0000  -0.0000  -0.0000  -0.0000  -0.0000  -0.0000

     the Fermi energy is     5.9348 ev

!    total energy              =    -546.57494617 Ry
     estimated scf accuracy    <       0.00000048 Ry
     smearing contrib. (-TS)   =       0.00000000 Ry
     internal energy E=F+TS    =    -546.57494617 Ry

     The total energy is F=E-TS. E is the sum of the following terms:
     one-electron contribution =    -274.13231108 Ry
     hartree contribution      =     162.84091256 Ry
     xc contribution           =     -78.56135601 Ry
     ewald contribution        =    -231.48946344 Ry
     one-center paw contrib.   =    -125.23272820 Ry
      -> PAW hartree energy AE =       1.16202629 Ry
      -> PAW hartree energy PS =      -1.15997523 Ry
      -> PAW xc energy AE      =     -32.79876714 Ry
      -> PAW xc energy PS      =       1.48853395 Ry
      -> total E_H with PAW    =     162.84296362 Ry
      -> total E_XC with PAW   =    -109.87158920 Ry

     convergence has been achieved in  13 iterations

     negative rho (up, down):  4.080E-03 0.000E+00

     Forces acting on atoms (cartesian axes, Ry/au):

     atom    1 type  1   force =     0.00094595    0.00248363   -0.00065559
     atom    2 type  1   force =     0.00170654    0.00204545   -0.00065016
     atom    3 type  1   force =    -0.00094595   -0.00248363   -0.00065559
     atom    4 type  1   force =    -0.00170654   -0.00204545   -0.00065016
     atom    5 type  2   force =    -0.00682804   -0.01160066    0.01875750
     atom    6 type  2   force =     0.00682804    0.01160066    0.01875750
     atom    7 type  3   force =     0.01813359   -0.02362107   -0.00285699
     atom    8 type  3   force =    -0.02946380    0.00432923   -0.00284993
     atom    9 type  3   force =    -0.01813359    0.02362107   -0.00285699
     atom   10 type  3   force =     0.02946380   -0.00432923   -0.00284993
     atom   11 type  3   force =     0.00487770    0.00831670   -0.01174484
     atom   12 type  3   force =    -0.00487770   -0.00831670   -0.01174484
     The non-local contrib.  to forces
     atom    1 type  1   force =     0.00052319    0.00392435    0.00966341
     atom    2 type  1   force =     0.00317350    0.00238353    0.00967105
     atom    3 type  1   force =    -0.00052319   -0.00392435    0.00966341
     atom    4 type  1   force =    -0.00317350   -0.00238353    0.00967105
     atom    5 type  2   force =    -0.05694756   -0.09713137    0.05514323
     atom    6 type  2   force =     0.05694756    0.09713137    0.05514323
     atom    7 type  3   force =     0.02480990   -0.10638061    0.10440876
     atom    8 type  3   force =    -0.10490463   -0.03019258    0.10447475
     atom    9 type  3   force =    -0.02480990    0.10638061    0.10440876
     atom   10 type  3   force =     0.10490463    0.03019258    0.10447475
     atom   11 type  3   force =    -0.01287424   -0.02197257    0.11575091
     atom   12 type  3   force =     0.01287424    0.02197257    0.11575091
     The ionic contribution  to forces
     atom    1 type  1   force =    -0.32881940    0.64335372    0.03727659
     atom    2 type  1   force =     0.72202736    0.02650839    0.03727659
     atom    3 type  1   force =     0.32881940   -0.64335372    0.03727659
     atom    4 type  1   force =    -0.72202736   -0.02650839    0.03727659
     atom    5 type  2   force =    -1.79238978   -3.05348343    0.01411705
     atom    6 type  2   force =     1.79238979    3.05348343    0.01411705
     atom    7 type  3   force =    -4.30188103    7.99012964    1.92227075
     atom    8 type  3   force =     9.07353801    0.13878052    1.92227075
     atom    9 type  3   force =     4.30188103   -7.99012964    1.92227075
     atom   10 type  3   force =    -9.07353801   -0.13878052    1.92227075
     atom   11 type  3   force =    -3.31356325   -5.64492754   -3.93321173
     atom   12 type  3   force =     3.31356325    5.64492754   -3.93321173
     The local contribution  to forces
     atom    1 type  1   force =     0.32930602   -0.64447737   -0.04568566
     atom    2 type  1   force =    -0.72324546   -0.02662070   -0.04566763
     atom    3 type  1   force =    -0.32927897    0.64449741   -0.04571386
     atom    4 type  1   force =     0.72325876    0.02659334   -0.04571105
     atom    5 type  2   force =     1.83602159    3.12766676   -0.05063391
     atom    6 type  2   force =    -1.83648358   -3.12758229   -0.05082694
     atom    7 type  3   force =     4.29491322   -7.90751010   -2.02832033
     atom    8 type  3   force =    -8.99817494   -0.10449658   -2.02839314
     atom    9 type  3   force =    -4.29484348    7.90731651   -2.02828647
     atom   10 type  3   force =     8.99787673    0.10447659   -2.02833388
     atom   11 type  3   force =     3.33094340    5.67459095    3.80637133
     atom   12 type  3   force =    -3.33093477   -5.67447547    3.80644112
     The core correction contribution to forces
     atom    1 type  1   force =    -0.00007086   -0.00031414   -0.00190280
     atom    2 type  1   force =    -0.00024009   -0.00021576   -0.00190402
     atom    3 type  1   force =     0.00007084    0.00031383   -0.00190312
     atom    4 type  1   force =     0.00023953    0.00021622   -0.00190335
     atom    5 type  2   force =     0.00645917    0.01100466    0.00008864
     atom    6 type  2   force =    -0.00646742   -0.01100780    0.00008562
     atom    7 type  3   force =     0.00033863   -0.00006731   -0.00129872
     atom    8 type  3   force =    -0.00022506    0.00026308   -0.00129960
     atom    9 type  3   force =    -0.00033927    0.00006721   -0.00129908
     atom   10 type  3   force =     0.00022492   -0.00026336   -0.00129968
     atom   11 type  3   force =     0.00043099    0.00073467   -0.00056957
     atom   12 type  3   force =    -0.00043134   -0.00073531   -0.00057033
     The Hubbard contrib.    to forces
     atom    1 type  1   force =     0.00000000    0.00000000    0.00000000
     atom    2 type  1   force =     0.00000000    0.00000000    0.00000000
     atom    3 type  1   force =     0.00000000    0.00000000    0.00000000
     atom    4 type  1   force =     0.00000000    0.00000000    0.00000000
     atom    5 type  2   force =     0.00000000    0.00000000    0.00000000
     atom    6 type  2   force =     0.00000000    0.00000000    0.00000000
     atom    7 type  3   force =     0.00000000    0.00000000    0.00000000
     atom    8 type  3   force =     0.00000000    0.00000000    0.00000000
     atom    9 type  3   force =     0.00000000    0.00000000    0.00000000
     atom   10 type  3   force =     0.00000000    0.00000000    0.00000000
     atom   11 type  3   force =     0.00000000    0.00000000    0.00000000
     atom   12 type  3   force =     0.00000000    0.00000000    0.00000000
     The SCF correction term to forces
     atom    1 type  1   force =     0.00000926    0.00000103   -0.00000466
     atom    2 type  1   force =    -0.00000597   -0.00001097   -0.00002350
     atom    3 type  1   force =    -0.00003175   -0.00001282    0.00001702
     atom    4 type  1   force =    -0.00000117    0.00003594    0.00001205
     atom    5 type  2   force =     0.00001627    0.00031383    0.00002275
     atom    6 type  2   force =     0.00042942   -0.00045293    0.00025637
     atom    7 type  3   force =    -0.00006474    0.00019872    0.00009188
     atom    8 type  3   force =     0.00028344   -0.00002632    0.00009582
     atom    9 type  3   force =    -0.00003958   -0.00002221    0.00003781
     atom   10 type  3   force =    -0.00002386    0.00004436    0.00003773
     atom   11 type  3   force =    -0.00006586   -0.00012436   -0.00006417
     atom   12 type  3   force =     0.00004426   -0.00002160   -0.00017832

     Total force =     0.071678     Total SCF correction =     0.000875

     Computing stress (Cartesian axis) and pressure

     negative rho (up, down):  4.080E-03 0.000E+00
          total   stress  (Ry/bohr**3)                   (kbar)     P=      -85.51
  -0.00082744   0.00009733   0.00000000         -121.72       14.32        0.00
   0.00009733  -0.00071898   0.00000000           14.32     -105.77        0.00
   0.00000000   0.00000000  -0.00019735            0.00        0.00      -29.03

     kinetic stress (kbar)  14276.19    -29.23      0.00
                              -29.23  14243.49      0.00
                                0.00      0.00  14248.16

     local   stress (kbar)  -5403.40  -3209.88      0.03
                            -3209.88  -8987.66      0.01
                                0.03      0.01 -15851.76

     nonloc. stress (kbar)   2623.19      8.84      0.00
                                8.84   2633.06      0.00
                                0.00      0.00   2608.90

     hartree stress (kbar)   5693.14   1588.48     -0.03
                             1588.48   7467.01     -0.01
                               -0.03     -0.01  10846.28

     exc-cor stress (kbar)  -1973.17     -1.61      0.00
                               -1.61  -1974.96     -0.00
                                0.00     -0.00  -1980.31

     corecor stress (kbar)  -1535.24      0.35      0.00
                                0.35  -1534.85      0.00
                                0.00      0.00  -1527.80

     ewald   stress (kbar) -13802.43   1657.36     -0.00
                             1657.36 -11951.85      0.00
                               -0.00      0.00  -8372.52

     hubbard stress (kbar)      0.00      0.00      0.00
                                0.00      0.00      0.00
                                0.00      0.00      0.00

     DFT-D   stress (kbar)      0.00      0.00      0.00
                                0.00      0.00      0.00
                                0.00      0.00      0.00

     XDM     stress (kbar)      0.00      0.00      0.00
                                0.00      0.00      0.00
                                0.00      0.00      0.00

     dft-nl  stress (kbar)      0.00      0.00      0.00
                                0.00      0.00      0.00
                                0.00      0.00      0.00

     TS-vdW  stress (kbar)      0.00      0.00      0.00
                                0.00      0.00      0.00
                                0.00      0.00      0.00

[...]

                                0.00      0.00      0.00

     Writing all to output data dir calculations/myprefix.save/

     General routines

     Parallel routines

     PAW routines

   This run was terminated on:  12: 6:17   6Mar2023

   JOB DONE.