     Program PWSCF v.7.0 starts on  4Mar2023 at 22:18:31

     R & G space division:  proc/nbgrp/npool/nimage =      32

     Reading input from espresso_7874.pwi
Warning: card &CELL ignored
Warning: card / ignored

     Current dimensions of program PWSCF are:
     Max number of different atomic species (ntypx) = 10
     Max number of k-points (npk) =  40000
     Max angular momentum in pseudopotentials (lmaxx) =  4

     gamma-point specific algorithms are used
     Message from routine setup:
     using ibrav=0 with symmetry is DISCOURAGED, use correct ibrav instead

     Using Slab Decomposition

     bravais-lattice index     =            0
     lattice parameter (alat)  =      14.3421  a.u.
     unit-cell volume          =    1506.3696 (a.u.)^3
     number of atoms/cell      =            8
     number of atomic types    =            3
     number of electrons       =        52.00
     number of Kohn-Sham states=           31
     kinetic-energy cutoff     =      30.0000  Ry
     charge density cutoff     =     240.0000  Ry
     scf convergence threshold =      1.0E-06
     mixing beta               =       0.7000
     number of iterations used =            8  plain     mixing
     Exchange-correlation=  SLA  PW   PBX  PBC
                           (   1   4   3   4   0   0   0)

     celldm(1)=  14.342095  celldm(2)=   0.000000  celldm(3)=   0.000000
     celldm(4)=   0.000000  celldm(5)=   0.000000  celldm(6)=   0.000000

     crystal axes: (cart. coord. in units of alat)
               a(1) = (   1.000000   0.000000   0.000000 )
               a(2) = (  -0.848298   0.529519   0.000000 )
               a(3) = (   0.000000   0.000000   0.964300 )

     reciprocal axes: (cart. coord. in units 2 pi/alat)
               b(1) = (  1.000000  1.602015  0.000000 )
               b(2) = (  0.000000  1.888505  0.000000 )
               b(3) = (  0.000000  0.000000  1.037022 )

     PseudoPot. # 1 for Rb read from file:
     /home/pragov/projects/rrg-bengioy-ad/pragov/crystal_structure_design/SSSP/Rb_ONCV_PBE-1.0.oncvpsp.upf
     MD5 check sum: 55a5172d6bfbce6759a58e35d43f6aa9
     Pseudo is Norm-conserving, Zval =  9.0
     Generated using ONCVPSP code by D. R. Hamann
     Using radial grid of 2308 points,  6 beta functions with:
                l(1) =   0
                l(2) =   0
                l(3) =   1
                l(4) =   1
                l(5) =   2
                l(6) =   2

     PseudoPot. # 2 for Li read from file:
     /home/pragov/projects/rrg-bengioy-ad/pragov/crystal_structure_design/SSSP/li_pbe_v1.4.uspp.F.UPF
     MD5 check sum: e912e257baa3777c20ea3d68f190483c
     Pseudo is Ultrasoft, Zval =  3.0
     Generated by new atomic code, or converted to UPF format
     Using radial grid of  751 points,  5 beta functions with:
                l(1) =   0
                l(2) =   0
                l(3) =   0
                l(4) =   1
                l(5) =   1
     Q(r) pseudized with 10 coefficients,  rinner =    1.150   1.150   1.150

     PseudoPot. # 3 for Cl read from file:
     /home/pragov/projects/rrg-bengioy-ad/pragov/crystal_structure_design/SSSP/cl_pbe_v1.4.uspp.F.UPF
     MD5 check sum: fc6f6913ecf08c9257cb748ef0700058
     Pseudo is Ultrasoft + core correction, Zval =  7.0
     Generated by new atomic code, or converted to UPF format
     Using radial grid of  909 points,  6 beta functions with:
                l(1) =   0
                l(2) =   0
                l(3) =   1
                l(4) =   1
                l(5) =   2
                l(6) =   2
     Q(r) pseudized with  8 coefficients,  rinner =    1.300   1.300   1.300
                                                       1.300   1.300

     atomic species   valence    mass     pseudopotential
        Rb             9.00    85.46780     Rb( 1.00)
        Li             3.00     6.94000     Li( 1.00)
        Cl             7.00    35.45000     Cl( 1.00)

      4 Sym. Ops., with inversion, found ( 2 have fractional translation)

                                    s                        frac. trans.

      isym =  1     identity

 cryst.   s( 1) = (     1          0          0      )
                  (     0          1          0      )
                  (     0          0          1      )

 cart.    s( 1) = (  1.0000000 -0.0000000  0.0000000 )
                  (  0.0000000  1.0000000  0.0000000 )
                  (  0.0000000  0.0000000  1.0000000 )

      isym =  2     180 deg rotation - cart. axis [0,0,1]

 cryst.   s( 2) = (    -1          0          0      )    f =(  0.0000000 )
                  (     0         -1          0      )       (  0.0000000 )
                  (     0          0          1      )       (  0.5000000 )

 cart.    s( 2) = ( -1.0000000  0.0000000  0.0000000 )    f =(  0.0000000 )
                  (  0.0000000 -1.0000000  0.0000000 )       (  0.0000000 )
                  (  0.0000000  0.0000000  1.0000000 )       (  0.4821499 )

      isym =  3     inversion

 cryst.   s( 3) = (    -1          0          0      )
                  (     0         -1          0      )
                  (     0          0         -1      )

 cart.    s( 3) = ( -1.0000000  0.0000000  0.0000000 )
                  (  0.0000000 -1.0000000  0.0000000 )
                  (  0.0000000  0.0000000 -1.0000000 )

      isym =  4     inv. 180 deg rotation - cart. axis [0,0,1]

 cryst.   s( 4) = (     1          0          0      )    f =(  0.0000000 )
                  (     0          1          0      )       (  0.0000000 )
                  (     0          0         -1      )       (  0.5000000 )

 cart.    s( 4) = (  1.0000000 -0.0000000  0.0000000 )    f =(  0.0000000 )
                  (  0.0000000  1.0000000  0.0000000 )       (  0.0000000 )
                  (  0.0000000  0.0000000 -1.0000000 )       (  0.4821499 )

   Cartesian axes

     site n.     atom                  positions (alat units)
         1           Rb  tau(   1) = (  -0.1631542   0.3332323   0.2410749  )
         2           Rb  tau(   2) = (   0.3148563   0.1962870   0.7232248  )
         3           Li  tau(   3) = (  -0.6562487   0.4744990   0.2410749  )
         4           Li  tau(   4) = (   0.8079508   0.0550202   0.7232248  )
         5           Cl  tau(   5) = (   0.4270276   0.1641510   0.2410749  )
         6           Cl  tau(   6) = (  -0.2753256   0.3653683   0.7232248  )
         7           Cl  tau(   7) = (   0.0000000   0.0000000   0.0000000  )
         8           Cl  tau(   8) = (   0.0000000   0.0000000   0.4821499  )

   Crystallographic axes

     site n.     atom                  positions (cryst. coord.)
         1           Rb  tau(   1) = (  0.3706890  0.6293110  0.2500000  )
         2           Rb  tau(   2) = (  0.6293110  0.3706890  0.7500000  )
         3           Li  tau(   3) = (  0.1039060  0.8960940  0.2500000  )
         4           Li  tau(   4) = (  0.8960940  0.1039060  0.7500000  )
         5           Cl  tau(   5) = (  0.6900000  0.3100000  0.2500000  )
         6           Cl  tau(   6) = (  0.3100000  0.6900000  0.7500000  )
         7           Cl  tau(   7) = (  0.0000000  0.0000000  0.0000000  )
         8           Cl  tau(   8) = (  0.0000000  0.0000000  0.5000000  )

     number of k points=     1  Methfessel-Paxton smearing, width (Ry)=  0.0010
                       cart. coord. in units 2pi/alat
        k(    1) = (   0.0000000   0.0000000   0.0000000), wk =   2.0000000

                       cryst. coord.
        k(    1) = (   0.0000000   0.0000000   0.0000000), wk =   2.0000000

     Initial potential from superposition of free atoms

     starting charge      51.0490, renormalised to      52.0000

     negative rho (up, down):  6.111E-02 0.000E+00
     Starting wfcs are   36 randomized atomic wfcs

     Self-consistent Calculation

     iteration #  1     ecut=    30.00 Ry     beta= 0.70
     Davidson diagonalization with overlap

     ethr =  1.00E-02,  avg # of iterations =  3.0

     Threshold (ethr) on eigenvalues was too large:
     Diagonalizing with lowered threshold

     Davidson diagonalization with overlap

[...]

     negative rho (up, down):  6.158E-02 0.000E+00

     total energy              =    -260.77645604 Ry
     estimated scf accuracy    <       0.28761922 Ry

[...]

     total energy              =    -260.86972258 Ry
     estimated scf accuracy    <       0.00000133 Ry

     iteration #  7     ecut=    30.00 Ry     beta= 0.70
     Davidson diagonalization with overlap

     ethr =  2.57E-09,  avg # of iterations =  4.0

[...]

     End of self-consistent calculation

          k = 0.0000 0.0000 0.0000 (  2076 PWs)   bands (ev):

   -42.5961 -42.5957 -23.3623 -23.3597 -11.5697 -11.3569 -11.3567 -11.3317
    -7.5026  -7.4891  -7.4395  -7.4218  -7.3700  -7.3637  -0.9567  -0.3570
    -0.2439   0.1120   0.1344   0.2201   0.2263   0.7365   0.8293   0.8297
     0.8419   0.9075   5.9252   8.0003   8.0957   8.1088   8.5910

     occupation numbers
     1.0000   1.0000   1.0000   1.0000   1.0000   1.0000   1.0000   1.0000
     1.0000   1.0000   1.0000   1.0000   1.0000   1.0000   1.0000   1.0000
     1.0000   1.0000   1.0000   1.0000   1.0000   1.0000   1.0000   1.0000
     1.0000   1.0000  -0.0000  -0.0000  -0.0000  -0.0000  -0.0000

     the Fermi energy is     2.2947 ev

!    total energy              =    -260.86972307 Ry
     estimated scf accuracy    <       0.00000005 Ry
     smearing contrib. (-TS)   =       0.00000000 Ry
     internal energy E=F+TS    =    -260.86972307 Ry

     The total energy is F=E-TS. E is the sum of the following terms:
     one-electron contribution =     -76.95569180 Ry
     hartree contribution      =      52.48240446 Ry
     xc contribution           =     -60.03997400 Ry
     ewald contribution        =    -176.35646173 Ry

     convergence has been achieved in   7 iterations

     negative rho (up, down):  5.876E-02 0.000E+00

     Forces acting on atoms (cartesian axes, Ry/au):

     atom    1 type  1   force =     0.00563137   -0.00162124    0.00000000
     atom    2 type  1   force =    -0.00563137    0.00162124   -0.00000000
     atom    3 type  2   force =     0.01176286   -0.00335472   -0.00000000
     atom    4 type  2   force =    -0.01176286    0.00335472    0.00000000
     atom    5 type  3   force =    -0.01035261    0.00296424    0.00000000
     atom    6 type  3   force =     0.01035261   -0.00296424    0.00000000
     atom    7 type  3   force =     0.00000000    0.00000000   -0.00000000
     atom    8 type  3   force =     0.00000000    0.00000000   -0.00000000
     The non-local contrib.  to forces
     atom    1 type  1   force =    -0.01152360    0.00330187    0.00000000
     atom    2 type  1   force =     0.01152360   -0.00330187    0.00000000
     atom    3 type  2   force =     0.06160295   -0.01763647   -0.00000000
     atom    4 type  2   force =    -0.06160295    0.01763647   -0.00000000
     atom    5 type  3   force =     0.01322255   -0.00378950   -0.00000000
     atom    6 type  3   force =    -0.01322255    0.00378950   -0.00000000
     atom    7 type  3   force =     0.00000000    0.00000000    0.00000000
     atom    8 type  3   force =     0.00000000    0.00000000    0.00000000
     The ionic contribution  to forces
     atom    1 type  1   force =    -1.45337674    0.41637821   -0.00000000
     atom    2 type  1   force =     1.45337674   -0.41637821    0.00000000
     atom    3 type  2   force =     0.74777319   -0.21422970   -0.00000000
     atom    4 type  2   force =    -0.74777319    0.21422970    0.00000000
     atom    5 type  3   force =     1.02334886   -0.29317943   -0.00000000
     atom    6 type  3   force =    -1.02334886    0.29317943    0.00000000
     atom    7 type  3   force =    -0.00000000    0.00000000   -0.00000000
     atom    8 type  3   force =    -0.00000000    0.00000000    0.00000000
     The local contribution  to forces
     atom    1 type  1   force =     1.47086498   -0.42136269    0.00003016
     atom    2 type  1   force =    -1.47090011    0.42137784   -0.00002887
     atom    3 type  2   force =    -0.79765277    0.22851447    0.00000688
     atom    4 type  2   force =     0.79763398   -0.22852483    0.00001332
     atom    5 type  3   force =    -1.04641758    0.29981100    0.00001088
     atom    6 type  3   force =     1.04639947   -0.29974364   -0.00004653
     atom    7 type  3   force =    -0.00002134   -0.00000066    0.00000625
     atom    8 type  3   force =     0.00004760    0.00000445   -0.00000907
     The core correction contribution to forces
     atom    1 type  1   force =     0.00000000    0.00000000    0.00000000
     atom    2 type  1   force =     0.00000000    0.00000000    0.00000000
     atom    3 type  2   force =     0.00000000    0.00000000    0.00000000
     atom    4 type  2   force =     0.00000000    0.00000000    0.00000000
     atom    5 type  3   force =    -0.00078343    0.00022644   -0.00000217
     atom    6 type  3   force =     0.00078484   -0.00022318   -0.00000086
     atom    7 type  3   force =    -0.00000052    0.00000123   -0.00000177
     atom    8 type  3   force =    -0.00000041    0.00000024    0.00000173
     The Hubbard contrib.    to forces
     atom    1 type  1   force =     0.00000000    0.00000000    0.00000000
     atom    2 type  1   force =     0.00000000    0.00000000    0.00000000
     atom    3 type  2   force =     0.00000000    0.00000000    0.00000000
     atom    4 type  2   force =     0.00000000    0.00000000    0.00000000
     atom    5 type  3   force =     0.00000000    0.00000000    0.00000000
     atom    6 type  3   force =     0.00000000    0.00000000    0.00000000
     atom    7 type  3   force =     0.00000000    0.00000000    0.00000000
     atom    8 type  3   force =     0.00000000    0.00000000    0.00000000
     The SCF correction term to forces
     atom    1 type  1   force =    -0.00033838    0.00005556   -0.00001866
     atom    2 type  1   force =     0.00036330   -0.00008234    0.00002792
     atom    3 type  2   force =     0.00003324   -0.00000543   -0.00000758
     atom    4 type  2   force =    -0.00002693    0.00001095    0.00000178
     atom    5 type  3   force =     0.00028056   -0.00008788   -0.00001474
     atom    6 type  3   force =    -0.00025673    0.00005005    0.00004979
     atom    7 type  3   force =     0.00000720    0.00001475   -0.00001816
     atom    8 type  3   force =    -0.00004265   -0.00000059    0.00000333

     Total force =     0.024492     Total SCF correction =     0.000648

     Computing stress (Cartesian axis) and pressure

     negative rho (up, down):  5.876E-02 0.000E+00
          total   stress  (Ry/bohr**3)                   (kbar)     P=       32.17
  -0.00003259   0.00019853   0.00000000           -4.79       29.21        0.00
   0.00019853   0.00060351   0.00000000           29.21       88.78        0.00
   0.00000000   0.00000000   0.00008516            0.00        0.00       12.53

     kinetic stress (kbar)   5187.96     46.22      0.00
                               46.22   5336.05      0.00
                                0.00      0.00   5221.15

     local   stress (kbar)  -2091.31   -143.06     -0.00
                             -143.06  -2549.68      0.00
                               -0.00      0.00  -1614.38

     nonloc. stress (kbar)   2471.00      9.15      0.00
                                9.15   2500.30      0.00
                                0.00      0.00   2469.90

     hartree stress (kbar)   1687.13     55.58     -0.00
                               55.58   1865.20     -0.00
                               -0.00     -0.00   1572.85

     exc-cor stress (kbar)   -110.69     -0.20     -0.00
                               -0.20   -111.34     -0.00
                               -0.00     -0.00   -111.63

     corecor stress (kbar)  -1467.25     -0.68     -0.00
                               -0.68  -1469.44      0.00
                               -0.00      0.00  -1467.17

     ewald   stress (kbar)  -5681.63     62.21      0.00
                               62.21  -5482.32     -0.00
                                0.00     -0.00  -6058.20

     hubbard stress (kbar)      0.00      0.00      0.00
                                0.00      0.00      0.00
                                0.00      0.00      0.00

     DFT-D   stress (kbar)      0.00      0.00      0.00
                                0.00      0.00      0.00
                                0.00      0.00      0.00

     XDM     stress (kbar)      0.00      0.00      0.00
                                0.00      0.00      0.00
                                0.00      0.00      0.00

     dft-nl  stress (kbar)      0.00      0.00      0.00
                                0.00      0.00      0.00
                                0.00      0.00      0.00

     TS-vdW  stress (kbar)      0.00      0.00      0.00
                                0.00      0.00      0.00
                                0.00      0.00      0.00

[...]

                                0.00      0.00      0.00

     Writing all to output data dir calculations/myprefix.save/

     General routines

     Parallel routines

   This run was terminated on:  22:18:33   4Mar2023

   JOB DONE.