     Program PWSCF v.7.0 starts on  3Mar2023 at 14:17:11

     R & G space division:  proc/nbgrp/npool/nimage =      32

     Reading input from espresso_574.pwi
Warning: card &CELL ignored
Warning: card / ignored

     Current dimensions of program PWSCF are:
     Max number of different atomic species (ntypx) = 10
     Max number of k-points (npk) =  40000
     Max angular momentum in pseudopotentials (lmaxx) =  4
     file K.pbe-spn-kjpaw_psl.1.0.0.UPF: wavefunction(s)  3S renormalized
     file Ba.pbe-spn-kjpaw_psl.1.0.0.UPF: wavefunction(s)  5S 6S renormalized
     file Fe.pbe-spn-kjpaw_psl.0.2.1.UPF: wavefunction(s)  3D renormalized

     gamma-point specific algorithms are used
     Message from routine setup:
     using ibrav=0 with symmetry is DISCOURAGED, use correct ibrav instead

     Using Slab Decomposition

     bravais-lattice index     =            0
     lattice parameter (alat)  =      16.2745  a.u.
     unit-cell volume          =    1994.3771 (a.u.)^3
     number of atoms/cell      =           15
     number of atomic types    =            4
     number of electrons       =       154.00
     number of Kohn-Sham states=           92
     kinetic-energy cutoff     =      30.0000  Ry
     charge density cutoff     =     240.0000  Ry
     scf convergence threshold =      1.0E-06
     mixing beta               =       0.7000
     number of iterations used =            8  plain     mixing
     Exchange-correlation= PBE
                           (   1   4   3   4   0   0   0)

     celldm(1)=  16.274516  celldm(2)=   0.000000  celldm(3)=   0.000000
     celldm(4)=   0.000000  celldm(5)=   0.000000  celldm(6)=   0.000000

     crystal axes: (cart. coord. in units of alat)
               a(1) = (   1.000000   0.000000   0.000000 )
               a(2) = (   0.800663   0.599115   0.000000 )
               a(3) = (   0.299893   0.099780   0.772276 )

     reciprocal axes: (cart. coord. in units 2 pi/alat)
               b(1) = (  1.000000 -1.336408 -0.215656 )
               b(2) = (  0.000000  1.669128 -0.215656 )
               b(3) = (  0.000000  0.000000  1.294874 )

     PseudoPot. # 1 for K  read from file:
     /home/pragov/projects/rrg-bengioy-ad/pragov/crystal_structure_design/SSSP/K.pbe-spn-kjpaw_psl.1.0.0.UPF
     MD5 check sum: 7d58810084cac21f60fbe77ea2b688fd
     Pseudo is Projector augmented-wave + core cor, Zval =  9.0
     Generated using "atomic" code by A. Dal Corso  v.5.1
     Shape of augmentation charge: PSQ
     Using radial grid of 1165 points,  6 beta functions with:
                l(1) =   0
                l(2) =   0
                l(3) =   1
                l(4) =   1
                l(5) =   2
                l(6) =   2
     Q(r) pseudized with 0 coefficients

     PseudoPot. # 2 for Ba read from file:
     /home/pragov/projects/rrg-bengioy-ad/pragov/crystal_structure_design/SSSP/Ba.pbe-spn-kjpaw_psl.1.0.0.UPF
     MD5 check sum: c432291d3e53af55f19d5e8866385beb
     Pseudo is Projector augmented-wave + core cor, Zval = 10.0
     Generated using "atomic" code by A. Dal Corso  v.5.1
     Shape of augmentation charge: PSQ
     Using radial grid of 1251 points,  7 beta functions with:
                l(1) =   0
                l(2) =   0
                l(3) =   0
                l(4) =   1
                l(5) =   1
                l(6) =   2
                l(7) =   2
     Q(r) pseudized with 0 coefficients

     PseudoPot. # 3 for Fe read from file:
     /home/pragov/projects/rrg-bengioy-ad/pragov/crystal_structure_design/SSSP/Fe.pbe-spn-kjpaw_psl.0.2.1.UPF
     MD5 check sum: e86618425769142926afa95317d90200
     Pseudo is Projector augmented-wave + core cor, Zval = 16.0
     Generated using "atomic" code by A. Dal Corso  v.5.0.99 svn rev. 10869
     Shape of augmentation charge: PSQ
     Using radial grid of 1191 points,  6 beta functions with:
                l(1) =   0
                l(2) =   0
                l(3) =   1
                l(4) =   1
                l(5) =   2
                l(6) =   2
     Q(r) pseudized with 0 coefficients

     PseudoPot. # 4 for As read from file:
     /home/pragov/projects/rrg-bengioy-ad/pragov/crystal_structure_design/SSSP/As.pbe-n-rrkjus_psl.0.2.UPF
     MD5 check sum: 767315de957beeeb34f87d97bf945c8f
     Pseudo is Ultrasoft + core correction, Zval =  5.0
     Generated using "atomic" code by A. Dal Corso  v.5.0.99 svn rev. 10869
     Using radial grid of 1209 points,  4 beta functions with:
                l(1) =   0
                l(2) =   0
                l(3) =   1
                l(4) =   1
     Q(r) pseudized with 0 coefficients

     atomic species   valence    mass     pseudopotential
        K              9.00    39.09830     K ( 1.00)
        Ba            10.00   137.32700     Ba( 1.00)
        Fe            16.00    55.84500     Fe( 1.00)
        As             5.00    74.92159     As( 1.00)

      2 Sym. Ops., with inversion, found

                                    s                        frac. trans.

      isym =  1     identity

 cryst.   s( 1) = (     1          0          0      )
                  (     0          1          0      )
                  (     0          0          1      )

 cart.    s( 1) = (  1.0000000 -0.0000000 -0.0000000 )
                  (  0.0000000  1.0000000 -0.0000000 )
                  (  0.0000000  0.0000000  1.0000000 )

      isym =  2     inversion

 cryst.   s( 2) = (    -1          0          0      )
                  (     0         -1          0      )
                  (     0          0         -1      )

 cart.    s( 2) = ( -1.0000000  0.0000000  0.0000000 )
                  (  0.0000000 -1.0000000  0.0000000 )
                  (  0.0000000  0.0000000 -1.0000000 )

   Cartesian axes

     site n.     atom                  positions (alat units)
         1           K   tau(   1) = (   1.2064416   0.4014065   0.0001745  )
         2           K   tau(   2) = (   0.8941143   0.2974891   0.7721017  )
         3           Ba  tau(   3) = (   0.0000000   0.0000000   0.0000000  )
         4           Fe  tau(   4) = (   1.1003052   0.1990890   0.3861381  )
         5           Fe  tau(   5) = (   0.7008908   0.3997093   0.3857203  )
         6           Fe  tau(   6) = (   1.2999068   0.5990135   0.3865559  )
         7           Fe  tau(   7) = (   0.8006491   0.0998820   0.3857203  )
         8           Fe  tau(   8) = (   1.3996651   0.2991863   0.3865559  )
         9           Fe  tau(   9) = (   1.0002507   0.4998066   0.3861381  )
        10           As  tau(  10) = (   1.7974798   0.5980563   0.5385677  )
        11           As  tau(  11) = (   0.6004266   0.1997735   0.5361852  )
        12           As  tau(  12) = (   1.2027021   0.4001622   0.5382595  )
        13           As  tau(  13) = (   0.8978538   0.2987333   0.2340167  )
        14           As  tau(  14) = (   1.5001293   0.4991220   0.2360910  )
        15           As  tau(  15) = (   0.3030761   0.1008393   0.2337085  )

   Crystallographic axes

     site n.     atom                  positions (cryst. coord.)
         1           K   tau(   1) = (  0.6699610  0.6699610  0.0002260  )
         2           K   tau(   2) = (  0.3300390  0.3300390  0.9997740  )
         3           Ba  tau(   3) = (  0.0000000  0.0000000  0.0000000  )
         4           Fe  tau(   4) = (  0.7509680  0.2490320  0.5000000  )
         5           Fe  tau(   5) = (  0.0835330  0.5839830  0.4994590  )
         6           Fe  tau(   6) = (  0.4160170  0.9164670  0.5005410  )
         7           Fe  tau(   7) = (  0.5839830  0.0835330  0.4994590  )
         8           Fe  tau(   8) = (  0.9164670  0.4160170  0.5005410  )
         9           Fe  tau(   9) = (  0.2490320  0.7509680  0.5000000  )
        10           As  tau(  10) = (  0.8820870  0.8820870  0.6973770  )
        11           As  tau(  11) = (  0.2178160  0.2178160  0.6942920  )
        12           As  tau(  12) = (  0.5518430  0.5518430  0.6969780  )
        13           As  tau(  13) = (  0.4481570  0.4481570  0.3030220  )
        14           As  tau(  14) = (  0.7821840  0.7821840  0.3057080  )
        15           As  tau(  15) = (  0.1179130  0.1179130  0.3026230  )

     number of k points=     1  Methfessel-Paxton smearing, width (Ry)=  0.0010
                       cart. coord. in units 2pi/alat
        k(    1) = (   0.0000000   0.0000000   0.0000000), wk =   2.0000000

                       cryst. coord.
        k(    1) = (   0.0000000   0.0000000   0.0000000), wk =   2.0000000

     Check: negative core charge=   -0.000096

     Initial potential from superposition of free atoms

     starting charge     153.9413, renormalised to     154.0000
     Starting wfcs are  123 randomized atomic wfcs
     Checking if some PAW data can be deallocated...

     Self-consistent Calculation

     iteration #  1     ecut=    30.00 Ry     beta= 0.70
     Davidson diagonalization with overlap

     ethr =  1.00E-02,  avg # of iterations =  3.0

     total energy              =   -2742.29283973 Ry
     estimated scf accuracy    <       4.00709711 Ry

[...]

     total energy              =   -2745.31006829 Ry
     estimated scf accuracy    <       0.00000277 Ry

     iteration # 63     ecut=    30.00 Ry     beta= 0.70
     Davidson diagonalization with overlap

     ethr =  6.59E-10,  avg # of iterations =  3.0

     End of self-consistent calculation

          k = 0.0000 0.0000 0.0000 (  2758 PWs)   bands (ev):

   -77.1028 -77.0907 -77.0877 -77.0863 -77.0764 -77.0719 -42.9895 -42.9779
   -42.9464 -42.9256 -42.9048 -42.8985 -42.8580 -42.8463 -42.7983 -42.7840
   -42.7791 -42.7673 -42.4992 -42.4921 -42.4544 -42.4493 -42.4464 -42.4393
   -20.8287 -20.8053 -17.7238  -4.4786  -4.4641  -4.3818  -4.3624  -4.3384
    -4.2905  -3.2179  -3.0736  -3.0054  -2.4092  -1.0944  -1.0567  -0.6968
    -0.6756  -0.5535   4.9863   5.0952   5.1249   5.4768   5.6157   5.9090
     6.5018   6.6028   6.6342   6.7749   6.9615   7.0605   7.0959   7.2269
     7.2516   7.2794   7.2952   7.8604   7.8730   7.9978   8.0446   8.3016
     8.4035   8.4049   8.4179   8.9287   8.9342   8.9722   9.0367   9.0824
     9.1313   9.2526   9.2971   9.4253  10.0198  10.1720  10.1849  10.2401
    10.3023  10.3373  10.4300  10.7038  10.7984  11.1122  11.2328  12.3072
    12.5000  12.7576  12.8593  13.2365

     occupation numbers
     1.0000   1.0000   1.0000   1.0000   1.0000   1.0000   1.0000   1.0000
     1.0000   1.0000   1.0000   1.0000   1.0000   1.0000   1.0000   1.0000
     1.0000   1.0000   1.0000   1.0000   1.0000   1.0000   1.0000   1.0000
     1.0000   1.0000   1.0000   1.0000   1.0000   1.0000   1.0000   1.0000
     1.0000   1.0000   1.0000   1.0000   1.0000   1.0000   1.0000   1.0000
     1.0000   1.0000   1.0000   1.0000   1.0000   1.0000   1.0000   1.0000
     1.0000   1.0000   1.0000   1.0000   1.0000   1.0000   1.0000   1.0000
     1.0000   1.0000   1.0000   1.0000   1.0000   1.0000   1.0000   1.0000
     1.0000   1.0000   1.0000   1.0000   1.0000   1.0000   1.0000   1.0000
     1.0000   1.0000   1.0000   1.0000   1.0000  -0.0000  -0.0000  -0.0000
    -0.0000  -0.0000  -0.0000  -0.0000  -0.0000  -0.0000  -0.0000  -0.0000
    -0.0000  -0.0000  -0.0000  -0.0000

     the Fermi energy is    10.0985 ev

!    total energy              =   -2745.31006774 Ry
     estimated scf accuracy    <       0.00000085 Ry
     smearing contrib. (-TS)   =       0.00000000 Ry
     internal energy E=F+TS    =   -2745.31006774 Ry

     The total energy is F=E-TS. E is the sum of the following terms:
     one-electron contribution =   -1504.35574401 Ry
     hartree contribution      =     817.75199805 Ry
     xc contribution           =    -307.04554969 Ry
     ewald contribution        =    -809.44954269 Ry
     one-center paw contrib.   =    -942.21122940 Ry
      -> PAW hartree energy AE =      37.82263660 Ry
      -> PAW hartree energy PS =     -37.61260030 Ry
      -> PAW xc energy AE      =     -66.23046551 Ry
      -> PAW xc energy PS      =      10.60389795 Ry
      -> total E_H with PAW    =     817.96203435 Ry
      -> total E_XC with PAW   =    -362.67211725 Ry

     convergence has been achieved in  63 iterations

     Forces acting on atoms (cartesian axes, Ry/au):

     atom    1 type  1   force =    -0.00120066   -0.00042973    0.00018631
     atom    2 type  1   force =     0.00120066    0.00042973   -0.00018631
     atom    3 type  2   force =     0.00000000    0.00000000    0.00000000
     atom    4 type  3   force =    -0.00805883    0.02406217   -0.00004130
     atom    5 type  3   force =    -0.00079886   -0.01756949    0.00680333
     atom    6 type  3   force =     0.01129394   -0.01350243   -0.00713347
     atom    7 type  3   force =    -0.01129394    0.01350243    0.00713347
     atom    8 type  3   force =     0.00079886    0.01756949   -0.00680333
     atom    9 type  3   force =     0.00805883   -0.02406217    0.00004130
     atom   10 type  4   force =     0.00291366    0.00093255    0.06166440
     atom   11 type  4   force =     0.00132127    0.00052587    0.06702901
     atom   12 type  4   force =    -0.04137467   -0.01379093    0.10622578
     atom   13 type  4   force =     0.04137467    0.01379093   -0.10622578
     atom   14 type  4   force =    -0.00132127   -0.00052587   -0.06702901
     atom   15 type  4   force =    -0.00291366   -0.00093255   -0.06166440
     The non-local contrib.  to forces
     atom    1 type  1   force =    -0.00157247   -0.00054205    0.00129277
     atom    2 type  1   force =     0.00157247    0.00054205   -0.00129277
     atom    3 type  2   force =     0.00000000    0.00000000    0.00000000
     atom    4 type  3   force =     0.01670131   -0.05045151   -0.00007265
     atom    5 type  3   force =     0.00919338   -0.02383602    0.00313447
     atom    6 type  3   force =     0.00709596   -0.02447988   -0.00354595
     atom    7 type  3   force =    -0.00709596    0.02447988    0.00354595
     atom    8 type  3   force =    -0.00919338    0.02383602   -0.00313447
     atom    9 type  3   force =    -0.01670131    0.05045151    0.00007265
     atom   10 type  4   force =     0.02485909    0.00824069   -0.14089594
     atom   11 type  4   force =     0.00297123    0.00103797   -0.12436652
     atom   12 type  4   force =     0.00550924    0.00181462   -0.11232293
     atom   13 type  4   force =    -0.00550924   -0.00181462    0.11232293
     atom   14 type  4   force =    -0.00297123   -0.00103797    0.12436652
     atom   15 type  4   force =    -0.02485909   -0.00824069    0.14089594
     The ionic contribution  to forces
     atom    1 type  1   force =    -0.12924090   -0.04300095    0.01301336
     atom    2 type  1   force =     0.12924090    0.04300095   -0.01301336
     atom    3 type  2   force =     0.00000000   -0.00000000   -0.00000000
     atom    4 type  3   force =    -0.15197617    0.45676988   -0.00000000
     atom    5 type  3   force =    -0.19366044   -0.27027483   -0.04649169
     atom    6 type  3   force =     0.31698250   -0.10037406    0.04649169
     atom    7 type  3   force =    -0.31698249    0.10037405   -0.04649169
     atom    8 type  3   force =     0.19366044    0.27027484    0.04649169
     atom    9 type  3   force =     0.15197617   -0.45676988    0.00000000
     atom   10 type  4   force =     0.11605073    0.03861232   15.70198662
     atom   11 type  4   force =     0.07659257    0.02548383   15.61482629
     atom   12 type  4   force =    -0.20331959   -0.06764836   15.65209362
     atom   13 type  4   force =     0.20331959    0.06764836  -15.65209362
     atom   14 type  4   force =    -0.07659257   -0.02548383  -15.61482629
     atom   15 type  4   force =    -0.11605073   -0.03861232  -15.70198662
     The local contribution  to forces
     atom    1 type  1   force =     0.12952089    0.04293430   -0.01406436
     atom    2 type  1   force =    -0.12950181   -0.04291563    0.01404471
     atom    3 type  2   force =    -0.00011074    0.00024998    0.00015995
     atom    4 type  3   force =     0.13030084   -0.39062253   -0.00000219
     atom    5 type  3   force =     0.18212756    0.27624913    0.05713867
     atom    6 type  3   force =    -0.31159616    0.11196493   -0.05719046
     atom    7 type  3   force =     0.31172582   -0.11194478    0.05715102
     atom    8 type  3   force =    -0.18192334   -0.27616526   -0.05719967
     atom    9 type  3   force =    -0.13063071    0.39050974   -0.00001697
     atom   10 type  4   force =    -0.13378989   -0.04476304  -15.49069324
     atom   11 type  4   force =    -0.07702215   -0.02515003  -15.41227761
     atom   12 type  4   force =     0.15735645    0.05215469  -15.42283882
     atom   13 type  4   force =    -0.15743628   -0.05214159   15.42289228
     atom   14 type  4   force =     0.07715314    0.02518557   15.41227322
     atom   15 type  4   force =     0.13373754    0.04471184   15.49063300
     The core correction contribution to forces
     atom    1 type  1   force =     0.00011766    0.00003915   -0.00005459
     atom    2 type  1   force =    -0.00011777   -0.00003907    0.00005466
     atom    3 type  2   force =    -0.00000101    0.00000288    0.00000125
     atom    4 type  3   force =    -0.00284418    0.00852124   -0.00001313
     atom    5 type  3   force =     0.00153378    0.00025632   -0.00709969
     atom    6 type  3   force =    -0.00136979   -0.00070565    0.00706743
     atom    7 type  3   force =     0.00136934    0.00070610   -0.00706799
     atom    8 type  3   force =    -0.00153325   -0.00025747    0.00710021
     atom    9 type  3   force =     0.00284220   -0.00852303    0.00001275
     atom   10 type  4   force =    -0.00415707   -0.00138117   -0.00880791
     atom   11 type  4   force =    -0.00129167   -0.00043014   -0.01118966
     atom   12 type  4   force =    -0.00090411   -0.00029983   -0.01071683
     atom   13 type  4   force =     0.00090433    0.00029988    0.01071644
     atom   14 type  4   force =     0.00129157    0.00042957    0.01118988
     atom   15 type  4   force =     0.00415683    0.00138187    0.00880769
     The Hubbard contrib.    to forces
     atom    1 type  1   force =     0.00000000    0.00000000    0.00000000
     atom    2 type  1   force =     0.00000000    0.00000000    0.00000000
     atom    3 type  2   force =     0.00000000    0.00000000    0.00000000
     atom    4 type  3   force =     0.00000000    0.00000000    0.00000000
     atom    5 type  3   force =     0.00000000    0.00000000    0.00000000
     atom    6 type  3   force =     0.00000000    0.00000000    0.00000000
     atom    7 type  3   force =     0.00000000    0.00000000    0.00000000
     atom    8 type  3   force =     0.00000000    0.00000000    0.00000000
     atom    9 type  3   force =     0.00000000    0.00000000    0.00000000
     atom   10 type  4   force =     0.00000000    0.00000000    0.00000000
     atom   11 type  4   force =     0.00000000    0.00000000    0.00000000
     atom   12 type  4   force =     0.00000000    0.00000000    0.00000000
     atom   13 type  4   force =     0.00000000    0.00000000    0.00000000
     atom   14 type  4   force =     0.00000000    0.00000000    0.00000000
     atom   15 type  4   force =     0.00000000    0.00000000    0.00000000
     The SCF correction term to forces
     atom    1 type  1   force =    -0.00002714    0.00014098    0.00000002
     atom    2 type  1   force =     0.00000558   -0.00015738    0.00002133
     atom    3 type  2   force =     0.00003491   -0.00002096   -0.00006542
     atom    4 type  3   force =    -0.00023410   -0.00015186    0.00004986
     atom    5 type  3   force =     0.00000465    0.00003545    0.00012236
     atom    6 type  3   force =     0.00017901    0.00009235    0.00004830
     atom    7 type  3   force =    -0.00031307   -0.00011270    0.00000067
     atom    8 type  3   force =    -0.00021381   -0.00011911   -0.00006030
     atom    9 type  3   force =     0.00057900    0.00027254   -0.00002392
     atom   10 type  4   force =    -0.00005085    0.00022449    0.00007347
     atom   11 type  4   force =     0.00007245   -0.00041803    0.00003823
     atom   12 type  4   force =    -0.00001759    0.00018927    0.00000978
     atom   13 type  4   force =     0.00009534   -0.00019979   -0.00006478
     atom   14 type  4   force =    -0.00020102    0.00037850   -0.00003063
     atom   15 type  4   force =     0.00010015   -0.00017250   -0.00001583

     Total force =     0.213798     Total SCF correction =     0.001153

     Computing stress (Cartesian axis) and pressure

          total   stress  (Ry/bohr**3)                   (kbar)     P=     -235.68
  -0.00167718  -0.00006720   0.00002371         -246.72       -9.89        3.49
  -0.00006720  -0.00149741   0.00000781           -9.89     -220.28        1.15
   0.00002371   0.00000781  -0.00163170            3.49        1.15     -240.03

     kinetic stress (kbar)  18872.43     13.61    -16.78
                               13.61  18835.61     -5.56
                              -16.78     -5.56  19201.15

     local   stress (kbar) -36508.56    -21.70     22.86
                              -21.70 -36449.81      7.55
                               22.86      7.55  58438.28

     nonloc. stress (kbar)  -8675.09    -14.11     15.26
                              -14.11  -8637.33      5.07
                               15.26      5.07  -8668.40

     hartree stress (kbar)  34976.31     36.08    -10.96
                               36.08  34879.52     -3.62
                              -10.96     -3.62  -9538.51

     exc-cor stress (kbar)   1984.09      0.12     -0.80
                                0.12   1983.77     -0.26
                               -0.80     -0.26   1984.36

     corecor stress (kbar)  -7888.85     -0.26      0.00
                               -0.26  -7888.13     -0.00
                                0.00     -0.00  -7902.93

     ewald   stress (kbar)  -3007.05    -23.63     -6.10
                              -23.63  -2943.90     -2.03
                               -6.10     -2.03 -53753.98

     hubbard stress (kbar)      0.00      0.00      0.00
                                0.00      0.00      0.00
                                0.00      0.00      0.00

     DFT-D   stress (kbar)      0.00      0.00      0.00
                                0.00      0.00      0.00
                                0.00      0.00      0.00

     XDM     stress (kbar)      0.00      0.00      0.00
                                0.00      0.00      0.00
                                0.00      0.00      0.00

     dft-nl  stress (kbar)      0.00      0.00      0.00
                                0.00      0.00      0.00
                                0.00      0.00      0.00

     TS-vdW  stress (kbar)      0.00      0.00      0.00
                                0.00      0.00      0.00
                                0.00      0.00      0.00

[...]

                                0.00      0.00      0.00

     Writing all to output data dir calculations/myprefix.save/

     General routines

     Parallel routines

     PAW routines

   This run was terminated on:  14:17:30   3Mar2023

   JOB DONE.