     Program PWSCF v.7.0 starts on  3Mar2023 at 15:45:59

     R & G space division:  proc/nbgrp/npool/nimage =      32

     Reading input from espresso_810.pwi
Warning: card &CELL ignored
Warning: card / ignored

     Current dimensions of program PWSCF are:
     Max number of different atomic species (ntypx) = 10
     Max number of k-points (npk) =  40000
     Max angular momentum in pseudopotentials (lmaxx) =  4

     gamma-point specific algorithms are used
     Message from routine setup:
     using ibrav=0 with symmetry is DISCOURAGED, use correct ibrav instead

     Using Slab Decomposition

     bravais-lattice index     =            0
     lattice parameter (alat)  =      16.2056  a.u.
     unit-cell volume          =    1011.6887 (a.u.)^3
     number of atoms/cell      =            6
     number of atomic types    =            3
     number of electrons       =        78.00
     number of Kohn-Sham states=           47
     kinetic-energy cutoff     =      30.0000  Ry
     charge density cutoff     =     240.0000  Ry
     scf convergence threshold =      1.0E-06
     mixing beta               =       0.7000
     number of iterations used =            8  plain     mixing
     Exchange-correlation=  SLA  PW   PBX  PBC
                           (   1   4   3   4   0   0   0)

     celldm(1)=  16.205584  celldm(2)=   0.000000  celldm(3)=   0.000000
     celldm(4)=   0.000000  celldm(5)=   0.000000  celldm(6)=   0.000000

     crystal axes: (cart. coord. in units of alat)
               a(1) = (   1.000000   0.000000   0.000000 )
               a(2) = (   0.745550   0.666449   0.000000 )
               a(3) = (  -0.872775  -0.333225   0.356686 )

     reciprocal axes: (cart. coord. in units 2 pi/alat)
               b(1) = (  1.000000 -1.118691  1.401794 )
               b(2) = (  0.000000  1.500490  1.401794 )
               b(3) = (  0.000000  0.000000  2.803588 )

     PseudoPot. # 1 for Nd read from file:
     /home/pragov/projects/rrg-bengioy-ad/pragov/crystal_structure_design/SSSP/Nd.GGA-PBE-paw-v1.0.UPF
     MD5 check sum: 1d1e94942b6eb1cde76049b71bb7dcb0
     Pseudo is Projector augmented-wave + core cor, Zval = 14.0
     Generated using ATOMPAW code
     Shape of augmentation charge: BESSEL
     Using radial grid of 1105 points,  8 beta functions with:
                l(1) =   0
                l(2) =   0
                l(3) =   1
                l(4) =   1
                l(5) =   2
                l(6) =   2
                l(7) =   3
                l(8) =   3
     Q(r) pseudized with 0 coefficients

     PseudoPot. # 2 for Sc read from file:
     /home/pragov/projects/rrg-bengioy-ad/pragov/crystal_structure_design/SSSP/Sc_ONCV_PBE-1.0.oncvpsp.upf
     MD5 check sum: e21af8023abb52e52cb7cd3133e4a229
     Pseudo is Norm-conserving, Zval = 11.0
     Generated using ONCVPSP code by D. R. Hamann
     Using radial grid of 1662 points,  6 beta functions with:
                l(1) =   0
                l(2) =   0
                l(3) =   1
                l(4) =   1
                l(5) =   2
                l(6) =   2

     PseudoPot. # 3 for Ge read from file:
     /home/pragov/projects/rrg-bengioy-ad/pragov/crystal_structure_design/SSSP/ge_pbe_v1.4.uspp.F.UPF
     MD5 check sum: 9c9eaa91e581c3f09632fb3098b2c6b2
     Pseudo is Ultrasoft + core correction, Zval = 14.0
     Generated by new atomic code, or converted to UPF format
     Using radial grid of  873 points,  6 beta functions with:
                l(1) =   0
                l(2) =   0
                l(3) =   1
                l(4) =   1
                l(5) =   2
                l(6) =   2
     Q(r) pseudized with  8 coefficients,  rinner =    1.400   1.400   1.400
                                                       1.400   1.400

     atomic species   valence    mass     pseudopotential
        Nd            14.00   144.24200     Nd( 1.00)
        Sc            11.00    44.95591     Sc( 1.00)
        Ge            14.00    72.63000     Ge( 1.00)

      4 Sym. Ops., with inversion, found

                                    s                        frac. trans.

      isym =  1     identity

 cryst.   s( 1) = (     1          0          0      )
                  (     0          1          0      )
                  (     0          0          1      )

 cart.    s( 1) = (  1.0000000 -0.0000000  0.0000000 )
                  (  0.0000000  1.0000000 -0.0000000 )
                  (  0.0000000  0.0000000  1.0000000 )

      isym =  2     180 deg rotation - cart. axis [0,0,1]

[...]

      isym =  3     inversion

[...]

      isym =  4     inv. 180 deg rotation - cart. axis [0,0,1]

 cryst.   s( 4) = (     1          0          0      )
                  (     0          1          0      )
                  (    -1         -1         -1      )

 cart.    s( 4) = (  1.0000000 -0.0000000  0.0000000 )
                  (  0.0000000  1.0000000  0.0000000 )
                  (  0.0000000  0.0000000 -1.0000000 )

   Cartesian axes

     site n.     atom                  positions (alat units)
         1           Nd  tau(   1) = (   1.1809784   0.4508962   0.0000000  )
         2           Nd  tau(   2) = (   0.5645721   0.2155530   0.0000000  )
         3           Sc  tau(   3) = (   0.0636124  -0.1666123   0.1783429  )
         4           Sc  tau(   4) = (  -0.0636124   0.1666123   0.1783429  )
         5           Ge  tau(   5) = (   0.2146154   0.0819399   0.0000000  )
         6           Ge  tau(   6) = (   1.5309351   0.5845092   0.0000000  )

   Crystallographic axes

     site n.     atom                  positions (cryst. coord.)
         1           Nd  tau(   1) = (  0.6765650  0.6765650  0.0000000  )
         2           Nd  tau(   2) = (  0.3234350  0.3234350  0.0000000  )
         3           Sc  tau(   3) = (  0.5000000 -0.0000000  0.5000000  )
         4           Sc  tau(   4) = ( -0.0000000  0.5000000  0.5000000  )
         5           Ge  tau(   5) = (  0.1229500  0.1229500  0.0000000  )
         6           Ge  tau(   6) = (  0.8770500  0.8770500  0.0000000  )

     number of k points=     1  Methfessel-Paxton smearing, width (Ry)=  0.0010
                       cart. coord. in units 2pi/alat
        k(    1) = (   0.0000000   0.0000000   0.0000000), wk =   2.0000000

                       cryst. coord.
        k(    1) = (   0.0000000   0.0000000   0.0000000), wk =   2.0000000

     Initial potential from superposition of free atoms

     starting charge      77.9806, renormalised to      78.0000
     Starting wfcs are  102 randomized atomic wfcs
     Checking if some PAW data can be deallocated...

     Self-consistent Calculation

     iteration #  1     ecut=    30.00 Ry     beta= 0.70
     Davidson diagonalization with overlap

     ethr =  1.00E-02,  avg # of iterations =  1.0

     total energy              =   -1683.51916053 Ry
     estimated scf accuracy    <       1.96206646 Ry

[...]

     WARNING: integrated charge=    77.99941819, expected=    78.00000000

[...]

     WARNING: integrated charge=    77.99997216, expected=    78.00000000

[...]

     total energy              =   -1685.63549924 Ry
     estimated scf accuracy    <       0.00000161 Ry

     iteration # 68     ecut=    30.00 Ry     beta= 0.70
     Davidson diagonalization with overlap

     ethr =  1.36E-09,  avg # of iterations = 10.0

     End of self-consistent calculation

          k = 0.0000 0.0000 0.0000 (  1398 PWs)   bands (ev):

   -38.2813 -38.1962 -25.9401 -25.8947 -17.0003 -17.0003 -16.9312 -16.8366
   -16.6654 -16.6654 -13.0065 -13.0009 -13.0009 -12.9943 -12.9922 -12.9922
   -12.9769 -12.9742 -12.9702 -12.9696  -7.3137  -7.2043  -7.2043  -7.1018
    -7.0279  -7.0279   2.1024   3.0390   7.4738   9.4196   9.7061   9.8728
     9.8731  10.3810  10.3815  10.6186  10.8594  11.0217  11.0348  11.1124
    11.1134  11.1135  11.1308  11.2138  11.2692  11.2701  11.3611

     occupation numbers
     1.0000   1.0000   1.0000   1.0000   1.0000   1.0000   1.0000   1.0000
     1.0000   1.0000   1.0000   1.0000   1.0000   1.0000   1.0000   1.0000
     1.0000   1.0000   1.0000   1.0000   1.0000   1.0000   1.0000   1.0000
     1.0000   1.0000   1.0000   1.0000   1.0000   1.0000   1.0000   1.0000
     1.0000   1.0000   1.0000   1.0000   1.0000   1.0000   1.0003  -0.0001
    -0.0001  -0.0001  -0.0000  -0.0000  -0.0000  -0.0000  -0.0000

     the Fermi energy is    11.0725 ev

!    total energy              =   -1685.63549866 Ry
     estimated scf accuracy    <       0.00000070 Ry
     smearing contrib. (-TS)   =       0.00000386 Ry
     internal energy E=F+TS    =   -1685.63550253 Ry

     The total energy is F=E-TS. E is the sum of the following terms:
     one-electron contribution =    -378.77733910 Ry
     hartree contribution      =     245.36310193 Ry
     xc contribution           =    -168.08712256 Ry
     ewald contribution        =    -524.05032187 Ry
     one-center paw contrib.   =    -860.08382093 Ry
      -> PAW hartree energy AE =      81.29513086 Ry
      -> PAW hartree energy PS =     -80.92834161 Ry
      -> PAW xc energy AE      =    -442.95378916 Ry
      -> PAW xc energy PS      =      12.54508947 Ry
      -> total E_H with PAW    =     245.72989118 Ry
      -> total E_XC with PAW   =    -598.49582224 Ry

     convergence has been achieved in  68 iterations

     Forces acting on atoms (cartesian axes, Ry/au):

     atom    1 type  1   force =     0.05739400    0.02206856    0.00000000
     atom    2 type  1   force =    -0.05739400   -0.02206856   -0.00000000
     atom    3 type  2   force =     0.00000000    0.00000000    0.00000000
     atom    4 type  2   force =     0.00000000    0.00000000    0.00000000
     atom    5 type  3   force =    -0.05065258   -0.01938159   -0.00000000
     atom    6 type  3   force =     0.05065258    0.01938159    0.00000000
     The non-local contrib.  to forces
     atom    1 type  1   force =    -0.29822653   -0.11601726   -0.00000000
     atom    2 type  1   force =     0.29822653    0.11601726    0.00000000
     atom    3 type  2   force =     0.00000000    0.00000000   -0.00000000
     atom    4 type  2   force =     0.00000000    0.00000000    0.00000000
     atom    5 type  3   force =     0.26790117    0.10230738    0.00000000
     atom    6 type  3   force =    -0.26790117   -0.10230738   -0.00000000
     The ionic contribution  to forces
     atom    1 type  1   force =     5.28674354    2.01847255    0.00000000
     atom    2 type  1   force =    -5.28674354   -2.01847255   -0.00000000
     atom    3 type  2   force =    -0.00000000   -0.00000000    0.00000000
     atom    4 type  2   force =    -0.00000000   -0.00000000   -0.00000000
     atom    5 type  3   force =     8.19958419    3.13059173    0.00000000
     atom    6 type  3   force =    -8.19958419   -3.13059173   -0.00000000
     The local contribution  to forces
     atom    1 type  1   force =    -4.93254823   -1.88124094    0.00001488
     atom    2 type  1   force =     4.93214996    1.88097474   -0.00007741
     atom    3 type  2   force =     0.00018129    0.00006515    0.00002782
     atom    4 type  2   force =     0.00018252    0.00005687   -0.00002040
     atom    5 type  3   force =    -8.51108683   -3.24952714   -0.00000641
     atom    6 type  3   force =     8.51100192    3.24956159    0.00000655
     The core correction contribution to forces
     atom    1 type  1   force =     0.00006915    0.00002672    0.00000000
     atom    2 type  1   force =    -0.00006918   -0.00002675   -0.00000001
     atom    3 type  2   force =     0.00000000    0.00000000    0.00000000
     atom    4 type  2   force =     0.00000000    0.00000000    0.00000000
     atom    5 type  3   force =    -0.00902851   -0.00344238    0.00000003
     atom    6 type  3   force =     0.00902762    0.00344292    0.00000001
     The Hubbard contrib.    to forces
     atom    1 type  1   force =     0.00000000    0.00000000    0.00000000
     atom    2 type  1   force =     0.00000000    0.00000000    0.00000000
     atom    3 type  2   force =     0.00000000    0.00000000    0.00000000
     atom    4 type  2   force =     0.00000000    0.00000000    0.00000000
     atom    5 type  3   force =     0.00000000    0.00000000    0.00000000
     atom    6 type  3   force =     0.00000000    0.00000000    0.00000000
     The SCF correction term to forces
     atom    1 type  1   force =     0.00131875    0.00079149    0.00000435
     atom    2 type  1   force =    -0.00099509   -0.00059726    0.00004422
     atom    3 type  2   force =    -0.00018206   -0.00006624   -0.00003203
     atom    4 type  2   force =    -0.00017900   -0.00005770    0.00002203
     atom    5 type  3   force =     0.00198187    0.00068611    0.00000437
     atom    6 type  3   force =    -0.00188712   -0.00072652   -0.00000828

     Total force =     0.115952     Total SCF correction =     0.003504

     Computing stress (Cartesian axis) and pressure

          total   stress  (Ry/bohr**3)                   (kbar)     P=     -158.98
  -0.00109952  -0.00001108  -0.00000000         -161.75       -1.63       -0.00
  -0.00001108  -0.00107324  -0.00000000           -1.63     -157.88       -0.00
  -0.00000000  -0.00000000  -0.00106934           -0.00       -0.00     -157.31

     kinetic stress (kbar)  13144.33    -74.52      0.00
                              -74.52  13310.76      0.00
                                0.00      0.00  13339.31

     local   stress (kbar)   3671.71    602.76      0.14
                              602.76   2324.53      0.09
                                0.14      0.09   2093.76

     nonloc. stress (kbar)   2778.74     42.32      0.00
                               42.32   2683.74      0.00
                                0.00      0.00   2667.75

     hartree stress (kbar)  11369.52   -323.16     -0.03
                             -323.16  12091.95     -0.04
                               -0.03     -0.04  12215.66

     exc-cor stress (kbar)   3617.36     -1.43     -0.00
                               -1.43   3620.54     -0.00
                               -0.00     -0.00   3621.09

     corecor stress (kbar)  -8942.23      0.25      0.00
                                0.25  -8942.80      0.00
                                0.00      0.00  -8942.89

     ewald   stress (kbar) -25801.18   -247.86      0.00
                             -247.86 -25246.62      0.00
                                0.00      0.00 -25151.99

     hubbard stress (kbar)      0.00      0.00      0.00
                                0.00      0.00      0.00
                                0.00      0.00      0.00

     DFT-D   stress (kbar)      0.00      0.00      0.00
                                0.00      0.00      0.00
                                0.00      0.00      0.00

     XDM     stress (kbar)      0.00      0.00      0.00
                                0.00      0.00      0.00
                                0.00      0.00      0.00

     dft-nl  stress (kbar)      0.00      0.00      0.00
                                0.00      0.00      0.00
                                0.00      0.00      0.00

     TS-vdW  stress (kbar)      0.00      0.00      0.00
                                0.00      0.00      0.00
                                0.00      0.00      0.00

[...]

                                0.00      0.00      0.00

     Writing all to output data dir calculations/myprefix.save/

     General routines

     Parallel routines

     PAW routines

   This run was terminated on:  15:46:24   3Mar2023

   JOB DONE.