     Program PWSCF v.7.0 starts on  4Mar2023 at 18:17:59

     R & G space division:  proc/nbgrp/npool/nimage =      32

     Reading input from espresso_7191.pwi
Warning: card &CELL ignored
Warning: card / ignored

     Current dimensions of program PWSCF are:
     Max number of different atomic species (ntypx) = 10
     Max number of k-points (npk) =  40000
     Max angular momentum in pseudopotentials (lmaxx) =  4
     file Al.pbe-n-kjpaw_psl.1.0.0.UPF: wavefunction(s)  3S 3P renormalized

     gamma-point specific algorithms are used

     Using Slab Decomposition

     bravais-lattice index     =            0
     lattice parameter (alat)  =      13.2394  a.u.
     unit-cell volume          =    1693.2213 (a.u.)^3
     number of atoms/cell      =           14
     number of atomic types    =            5
     number of electrons       =       111.00
     number of Kohn-Sham states=           67
     kinetic-energy cutoff     =      30.0000  Ry
     charge density cutoff     =     240.0000  Ry
     scf convergence threshold =      1.0E-06
     mixing beta               =       0.7000
     number of iterations used =            8  plain     mixing
     Exchange-correlation=  SLA  PW   PBX  PBC
                           (   1   4   3   4   0   0   0)

     celldm(1)=  13.239445  celldm(2)=   0.000000  celldm(3)=   0.000000
     celldm(4)=   0.000000  celldm(5)=   0.000000  celldm(6)=   0.000000

     crystal axes: (cart. coord. in units of alat)
               a(1) = (   1.000000   0.000000   0.000000 )
               a(2) = (   0.502895   0.864347   0.000000 )
               a(3) = (   0.503131   0.289361   0.844143 )

     reciprocal axes: (cart. coord. in units 2 pi/alat)
               b(1) = (  1.000000 -0.581820 -0.396585 )
               b(2) = (  0.000000  1.156942 -0.396585 )
               b(3) = (  0.000000  0.000000  1.184633 )

     PseudoPot. # 1 for Ti read from file:
     /home/pragov/projects/rrg-bengioy-ad/pragov/crystal_structure_design/SSSP/ti_pbe_v1.4.uspp.F.UPF
     MD5 check sum: 88a00a6731bd790ddea75d31a80cb452
     Pseudo is Ultrasoft + core correction, Zval = 12.0
     Generated by new atomic code, or converted to UPF format
     Using radial grid of  851 points,  6 beta functions with:
                l(1) =   0
                l(2) =   0
                l(3) =   1
                l(4) =   1
                l(5) =   2
                l(6) =   2
     Q(r) pseudized with  6 coefficients,  rinner =    1.000   1.000   1.000
                                                       1.000   1.000

     PseudoPot. # 2 for Al read from file:
     /home/pragov/projects/rrg-bengioy-ad/pragov/crystal_structure_design/SSSP/Al.pbe-n-kjpaw_psl.1.0.0.UPF
     MD5 check sum: cfc449ca30b5f3223ec38ddd88ac046d
     Pseudo is Projector augmented-wave + core cor, Zval =  3.0
     Generated using "atomic" code by A. Dal Corso  v.5.1
     Shape of augmentation charge: PSQ
     Using radial grid of 1135 points,  6 beta functions with:
                l(1) =   0
                l(2) =   0
                l(3) =   1
                l(4) =   1
                l(5) =   2
                l(6) =   2
     Q(r) pseudized with 0 coefficients

     PseudoPot. # 3 for Cr read from file:
     /home/pragov/projects/rrg-bengioy-ad/pragov/crystal_structure_design/SSSP/cr_pbe_v1.5.uspp.F.UPF
     MD5 check sum: 0d52af634a40206e4dee301ad30da4bf
     Pseudo is Ultrasoft + core correction, Zval = 14.0
     Generated by new atomic code, or converted to UPF format
     Using radial grid of  857 points,  6 beta functions with:
                l(1) =   0
                l(2) =   0
                l(3) =   1
                l(4) =   1
                l(5) =   2
                l(6) =   2
     Q(r) pseudized with  8 coefficients,  rinner =    0.950   0.950   0.950
                                                       0.950   0.950

     PseudoPot. # 4 for Cu read from file:
     /home/pragov/projects/rrg-bengioy-ad/pragov/crystal_structure_design/SSSP/Cu_pbe_v1.2.uspp.F.UPF
     MD5 check sum: 6e991ff952a84172a2a52a1c1e996048
     Pseudo is Ultrasoft + core correction, Zval = 19.0
     Generated by new atomic code, or converted to UPF format
     Using radial grid of  867 points,  6 beta functions with:
                l(1) =   0
                l(2) =   0
                l(3) =   1
                l(4) =   1
                l(5) =   2
                l(6) =   2
     Q(r) pseudized with  8 coefficients,  rinner =    1.150   1.150   1.150
                                                       1.150   1.150

     PseudoPot. # 5 for S  read from file:
     /home/pragov/projects/rrg-bengioy-ad/pragov/crystal_structure_design/SSSP/s_pbe_v1.4.uspp.F.UPF
     MD5 check sum: 88d86576ff6df21479756cfb9bdac1df
     Pseudo is Ultrasoft + core correction, Zval =  6.0
     Generated by new atomic code, or converted to UPF format
     Using radial grid of  907 points,  6 beta functions with:
                l(1) =   0
                l(2) =   0
                l(3) =   1
                l(4) =   1
                l(5) =   2
                l(6) =   2
     Q(r) pseudized with  8 coefficients,  rinner =    1.300   1.300   1.300
                                                       1.300   1.300

     atomic species   valence    mass     pseudopotential
        Ti            12.00    47.86700     Ti( 1.00)
        Al             3.00    26.98154     Al( 1.00)
        Cr            14.00    51.99610     Cr( 1.00)
        Cu            19.00    63.54600     Cu( 1.00)
        S              6.00    32.06000     S ( 1.00)

     No symmetry found

                                    s                        frac. trans.

      isym =  1     identity

 cryst.   s( 1) = (     1          0          0      )
                  (     0          1          0      )
                  (     0          0          1      )

 cart.    s( 1) = (  1.0000000 -0.0000000  0.0000000 )
                  (  0.0000000  1.0000000  0.0000000 )
                  (  0.0000000  0.0000000  1.0000000 )

   Cartesian axes

     site n.     atom                  positions (alat units)
         1           Ti  tau(   1) = (   1.0030263   0.3173770   0.8383903  )
         2           Ti  tau(   2) = (   0.7787410   0.7073559   0.8383903  )
         3           Al  tau(   3) = (   1.5000383   0.8627045   0.3261879  )
         4           Al  tau(   4) = (   1.0021363   0.5763503   0.4301095  )
         5           Cr  tau(   5) = (   1.2390446   0.7126013   0.8409159  )
         6           Cu  tau(   6) = (   0.5017618   0.2885741   0.5216627  )
         7           S   tau(   7) = (   0.5069844   0.2915777   0.2047393  )
         8           S   tau(   8) = (   0.7623183   0.4384258   0.6327958  )
         9           S   tau(   9) = (   1.0099024   0.8495503   0.6341634  )
        10           S   tau(  10) = (   1.2421816   0.4456719   0.6341634  )
        11           S   tau(  11) = (   1.5000136   0.8626903   0.6535668  )
        12           S   tau(  12) = (   1.2376699   0.7118108   0.2068961  )
        13           S   tau(  13) = (   0.9970632   0.3044270   0.2066175  )
        14           S   tau(  14) = (   0.7645489   0.7087143   0.2066175  )

   Crystallographic axes

     site n.     atom                  positions (cryst. coord.)
         1           Ti  tau(   1) = (  0.4858770  0.0346940  0.9931850  )
         2           Ti  tau(   2) = (  0.0346940  0.4858770  0.9931850  )
         3           Al  tau(   3) = (  0.8687380  0.8687380  0.3864130  )
         4           Al  tau(   4) = (  0.4962290  0.4962290  0.5095220  )
         5           Cr  tau(   5) = (  0.4909440  0.4909440  0.9961770  )
         6           Cu  tau(   6) = (  0.1269800  0.1269800  0.6179790  )
         7           S   tau(   7) = (  0.2561420  0.2561420  0.2425410  )
         8           S   tau(   8) = (  0.2562760  0.2562760  0.7496310  )
         9           S   tau(   9) = (  0.2641170  0.7313810  0.7512510  )
        10           S   tau(  10) = (  0.7313810  0.2641170  0.7512510  )
        11           S   tau(  11) = (  0.7388880  0.7388880  0.7742370  )
        12           S   tau(  12) = (  0.7414720  0.7414720  0.2450960  )
        13           S   tau(  13) = (  0.7380000  0.2702630  0.2447660  )
        14           S   tau(  14) = (  0.2702630  0.7380000  0.2447660  )

     number of k points=     1  Methfessel-Paxton smearing, width (Ry)=  0.0010
                       cart. coord. in units 2pi/alat
        k(    1) = (   0.0000000   0.0000000   0.0000000), wk =   2.0000000

                       cryst. coord.
        k(    1) = (   0.0000000   0.0000000   0.0000000), wk =   2.0000000

     Check: negative core charge=   -0.000004

     Initial potential from superposition of free atoms

     starting charge     106.9950, renormalised to     111.0000

     negative rho (up, down):  3.198E-03 0.000E+00
     Starting wfcs are   83 randomized atomic wfcs
     Checking if some PAW data can be deallocated...

     Self-consistent Calculation

     iteration #  1     ecut=    30.00 Ry     beta= 0.70
     Davidson diagonalization with overlap

     ethr =  1.00E-02,  avg # of iterations =  3.0

     negative rho (up, down):  3.606E-03 0.000E+00

     total energy              =   -1055.42307017 Ry
     estimated scf accuracy    <      41.00706112 Ry

[...]

     total energy              =   -1090.05073524 Ry
     estimated scf accuracy    <       0.00001357 Ry

     iteration # 29     ecut=    30.00 Ry     beta= 0.70
     Davidson diagonalization with overlap

     ethr =  4.46E-09,  avg # of iterations =  1.0

[...]

     End of self-consistent calculation

          k = 0.0000 0.0000 0.0000 (  2364 PWs)   bands (ev):

  -104.1443 -63.2815 -61.5821 -61.5245 -61.4736 -48.7656 -48.7566 -34.8619
   -34.5471 -34.4114 -25.1398 -25.0937 -25.0453 -24.9921 -24.9850 -24.9420
    -5.9108  -4.5465  -4.3336  -4.2934  -4.1723  -3.9760  -3.8835  -3.8794
     0.9349   1.7773   2.0865   2.6813   2.7873   3.3227   3.3287   4.1543
     4.4077   4.5467   5.0218   5.2317   5.2926   5.3914   5.4078   5.7055
     5.7939   5.9268   6.0149   6.1071   6.2550   6.3061   6.3723   6.5320
     6.8325   6.9541   7.5213   7.6117   7.8930   7.9262   8.2551   8.2642
     8.7115   9.1516   9.5010   9.8100   9.8389  10.2096  10.4880  10.8831
    10.9295  11.0005  11.6138

     occupation numbers
     1.0000   1.0000   1.0000   1.0000   1.0000   1.0000   1.0000   1.0000
     1.0000   1.0000   1.0000   1.0000   1.0000   1.0000   1.0000   1.0000
     1.0000   1.0000   1.0000   1.0000   1.0000   1.0000   1.0000   1.0000
     1.0000   1.0000   1.0000   1.0000   1.0000   1.0000   1.0000   1.0000
     1.0000   1.0000   1.0000   1.0000   1.0000   1.0000   1.0000   1.0000
     1.0000   1.0000   1.0000   1.0000   1.0000   1.0000   1.0000   1.0000
     1.0000   1.0000   1.0000   1.0000   1.0000   1.0000   0.9639   0.5361
    -0.0000  -0.0000  -0.0000  -0.0000  -0.0000  -0.0000  -0.0000  -0.0000
    -0.0000  -0.0000  -0.0000

     the Fermi energy is     8.2648 ev

!    total energy              =   -1090.05073551 Ry
     estimated scf accuracy    <       0.00000078 Ry
     smearing contrib. (-TS)   =      -0.00027835 Ry
     internal energy E=F+TS    =   -1090.05045716 Ry

     The total energy is F=E-TS. E is the sum of the following terms:
     one-electron contribution =    -704.22995696 Ry
     hartree contribution      =     395.69677976 Ry
     xc contribution           =    -170.70324079 Ry
     ewald contribution        =    -541.50599605 Ry
     one-center paw contrib.   =     -69.30804312 Ry
      -> PAW hartree energy AE =       0.00000000 Ry
      -> PAW hartree energy PS =       0.00000000 Ry
      -> PAW xc energy AE      =       0.00000000 Ry
      -> PAW xc energy PS      =       0.00000000 Ry
      -> total E_H with PAW    =     395.69677976 Ry
      -> total E_XC with PAW   =    -170.70324079 Ry

     convergence has been achieved in  29 iterations

     negative rho (up, down):  2.284E-03 0.000E+00

     Forces acting on atoms (cartesian axes, Ry/au):

     atom    1 type  1   force =     0.01582864    0.01516673   -0.00357238
     atom    2 type  1   force =     0.02106992    0.00605835   -0.00356510
     atom    3 type  2   force =     0.00160188    0.00091089    0.00995379
     atom    4 type  2   force =     0.00413933    0.00238109   -0.01940504
     atom    5 type  3   force =    -0.03614154   -0.02078579   -0.01755962
     atom    6 type  4   force =    -0.00319541   -0.00170928   -0.00464702
     atom    7 type  5   force =    -0.00410122   -0.00238547   -0.03327311
     atom    8 type  5   force =     0.02765326    0.01590765    0.03583442
     atom    9 type  5   force =     0.01368783   -0.02954560    0.02169289
     atom   10 type  5   force =    -0.01861601    0.02668731    0.02170831
     atom   11 type  5   force =    -0.01081281   -0.00623351    0.01275199
     atom   12 type  5   force =     0.00182385    0.00101089   -0.00988463
     atom   13 type  5   force =    -0.01263246    0.00699967   -0.00501065
     atom   14 type  5   force =    -0.00030526   -0.01446294   -0.00502384
     The non-local contrib.  to forces
     atom    1 type  1   force =    -0.00003786    0.00135030    0.00722411
     atom    2 type  1   force =     0.00113836   -0.00072264    0.00724596
     atom    3 type  2   force =     0.00194055    0.00111312   -0.02997296
     atom    4 type  2   force =    -0.01061848   -0.00611679   -0.03709625
     atom    5 type  3   force =    -0.02145166   -0.01233515    0.01567763
     atom    6 type  4   force =     0.04443717    0.02566198    0.15819456
     atom    7 type  5   force =     0.05076331    0.02924662    0.05234707
     atom    8 type  5   force =    -0.01567508   -0.00901886   -0.11447738
     atom    9 type  5   force =     0.03591659    0.00173363   -0.08180241
     atom   10 type  5   force =     0.01955198    0.03013947   -0.08181317
     atom   11 type  5   force =    -0.02297981   -0.01321456   -0.14842392
     atom   12 type  5   force =     0.08056067    0.04633195    0.12049395
     atom   13 type  5   force =    -0.02251163   -0.08604062    0.11242508
     atom   14 type  5   force =    -0.08568279    0.02381701    0.11243051
     The ionic contribution  to forces
     atom    1 type  1   force =    -0.11811473   -6.35286893    0.98332216
     atom    2 type  1   force =    -5.55048551    3.09273429    0.98332216
     atom    3 type  2   force =     0.15942044    0.09168615    0.17861243
     atom    4 type  2   force =    -0.01981246   -0.01139457   -1.24935117
     atom    5 type  3   force =     5.39223481    3.10119090    1.18565792
     atom    6 type  4   force =    -1.03969458   -0.59795085   -0.74685402
     atom    7 type  5   force =    -0.64644754   -0.37178597    1.33975012
     atom    8 type  5   force =     2.43198347    1.39868631   -2.69023229
     atom    9 type  5   force =    -0.79211334   -2.13858851   -3.54217290
     atom   10 type  5   force =    -2.24683346    0.39082445   -3.54217290
     atom   11 type  5   force =     1.16335017    0.66906785   -6.21746673
     atom   12 type  5   force =     2.29528064    1.32006556    3.89491448
     atom   13 type  5   force =     1.15942252   -3.20618546    4.71133537
     atom   14 type  5   force =    -2.18819042    2.61451878    4.71133537
     The local contribution  to forces
     atom    1 type  1   force =     0.13431742    6.36975507   -0.99452336
     atom    2 type  1   force =     5.57325385   -3.08712132   -0.99463571
     atom    3 type  2   force =    -0.15935246   -0.09164006   -0.14155403
     atom    4 type  2   force =     0.03328156    0.01917673    1.26209566
     atom    5 type  3   force =    -5.40899317   -3.11074408   -1.21921112
     atom    6 type  4   force =     0.99208634    0.57038892    0.58369542
     atom    7 type  5   force =     0.59451669    0.34187075   -1.42173269
     atom    8 type  5   force =    -2.39019408   -1.37457549    2.83368666
     atom    9 type  5   force =     0.77197078    2.10808479    3.64088934
     atom   10 type  5   force =     2.21044206   -0.39281979    3.64086965
     atom   11 type  5   force =    -1.15254541   -0.66291641    6.37064959
     atom   12 type  5   force =    -2.36961337   -1.36288089   -4.01872396
     atom   13 type  5   force =    -1.15081940    3.29443203   -4.82271919
     atom   14 type  5   force =     2.26875042   -2.65148094   -4.82268893
     The core correction contribution to forces
     atom    1 type  1   force =    -0.00029198   -0.00312157    0.00089303
     atom    2 type  1   force =    -0.00284520    0.00131730    0.00089141
     atom    3 type  2   force =    -0.00038706   -0.00022244    0.00286010
     atom    4 type  2   force =     0.00128498    0.00074026    0.00489888
     atom    5 type  3   force =     0.00223052    0.00128260    0.00059870
     atom    6 type  4   force =    -0.00002665   -0.00001544   -0.00020100
     atom    7 type  5   force =    -0.00307834   -0.00177349   -0.00377817
     atom    8 type  5   force =     0.00147819    0.00085072    0.00702923
     atom    9 type  5   force =    -0.00217270   -0.00071986    0.00497374
     atom   10 type  5   force =    -0.00171361   -0.00151379    0.00497442
     atom   11 type  5   force =     0.00138311    0.00079519    0.00819837
     atom   12 type  5   force =    -0.00443123   -0.00254885   -0.00671900
     atom   13 type  5   force =     0.00134621    0.00476604   -0.00619608
     atom   14 type  5   force =     0.00479578   -0.00123367   -0.00619629
     The Hubbard contrib.    to forces
     atom    1 type  1   force =     0.00000000    0.00000000    0.00000000
     atom    2 type  1   force =     0.00000000    0.00000000    0.00000000
     atom    3 type  2   force =     0.00000000    0.00000000    0.00000000
     atom    4 type  2   force =     0.00000000    0.00000000    0.00000000
     atom    5 type  3   force =     0.00000000    0.00000000    0.00000000
     atom    6 type  4   force =     0.00000000    0.00000000    0.00000000
     atom    7 type  5   force =     0.00000000    0.00000000    0.00000000
     atom    8 type  5   force =     0.00000000    0.00000000    0.00000000
     atom    9 type  5   force =     0.00000000    0.00000000    0.00000000
     atom   10 type  5   force =     0.00000000    0.00000000    0.00000000
     atom   11 type  5   force =     0.00000000    0.00000000    0.00000000
     atom   12 type  5   force =     0.00000000    0.00000000    0.00000000
     atom   13 type  5   force =     0.00000000    0.00000000    0.00000000
     atom   14 type  5   force =     0.00000000    0.00000000    0.00000000
     The SCF correction term to forces
     atom    1 type  1   force =    -0.00004790    0.00005956   -0.00047285
     atom    2 type  1   force =     0.00000473   -0.00014157   -0.00037346
     atom    3 type  2   force =    -0.00002329   -0.00001818    0.00002372
     atom    4 type  2   force =     0.00000003   -0.00001684    0.00006331
     atom    5 type  3   force =    -0.00016573   -0.00017236   -0.00026727
     atom    6 type  4   force =    -0.00000138    0.00021381    0.00053349
     atom    7 type  5   force =     0.00014097    0.00006432    0.00015603
     atom    8 type  5   force =     0.00005706   -0.00002734   -0.00015633
     atom    9 type  5   force =     0.00008281   -0.00004795   -0.00017940
     atom   10 type  5   force =    -0.00006667    0.00006468   -0.00013422
     atom   11 type  5   force =    -0.00002456    0.00004212   -0.00018986
     atom   12 type  5   force =     0.00002343    0.00005083    0.00016538
     atom   13 type  5   force =    -0.00007386    0.00003537    0.00015964
     atom   14 type  5   force =     0.00001805   -0.00007642    0.00011095

     Total force =     0.104646     Total SCF correction =     0.001057

     Computing stress (Cartesian axis) and pressure

     negative rho (up, down):  2.284E-03 0.000E+00
          total   stress  (Ry/bohr**3)                   (kbar)     P=      -39.57
  -0.00038455  -0.00009325  -0.00006601          -56.57      -13.72       -9.71
  -0.00009325  -0.00027570  -0.00003795          -13.72      -40.56       -5.58
  -0.00006601  -0.00003795  -0.00014663           -9.71       -5.58      -21.57

     kinetic stress (kbar)  11445.31    -33.62    -52.95
                              -33.62  11484.36    -30.49
                              -52.95    -30.49  11472.40

     local   stress (kbar) -11873.33   -447.24    -29.94
                             -447.24 -11352.64    -17.11
                              -29.94    -17.11  -6608.46

     nonloc. stress (kbar)   6610.54    -11.06    -14.69
                              -11.06   6623.37     -8.46
                              -14.69     -8.46   6602.48

     hartree stress (kbar)  12366.61    198.30    -10.64
                              198.30  12135.76     -6.17
                              -10.64     -6.17   9875.30

     exc-cor stress (kbar)   -182.80     -0.06     -0.32
                               -0.06   -182.74     -0.18
                               -0.32     -0.18   -181.08

     corecor stress (kbar)  -3769.23      0.71      0.61
                                0.71  -3770.06      0.35
                                0.61      0.35  -3769.10

     ewald   stress (kbar) -14653.67    279.25     98.21
                              279.25 -14978.62     56.49
                               98.21     56.49 -17413.11

     hubbard stress (kbar)      0.00      0.00      0.00
                                0.00      0.00      0.00
                                0.00      0.00      0.00

     DFT-D   stress (kbar)      0.00      0.00      0.00
                                0.00      0.00      0.00
                                0.00      0.00      0.00

     XDM     stress (kbar)      0.00      0.00      0.00
                                0.00      0.00      0.00
                                0.00      0.00      0.00

     dft-nl  stress (kbar)      0.00      0.00      0.00
                                0.00      0.00      0.00
                                0.00      0.00      0.00

     TS-vdW  stress (kbar)      0.00      0.00      0.00
                                0.00      0.00      0.00
                                0.00      0.00      0.00

[...]

                                0.00      0.00      0.00

     Writing all to output data dir calculations/myprefix.save/

     General routines

     Parallel routines

     PAW routines

   This run was terminated on:  18:18: 7   4Mar2023

   JOB DONE.