     Program PWSCF v.7.0 starts on  4Mar2023 at 17:36:11

     R & G space division:  proc/nbgrp/npool/nimage =      32

     Reading input from espresso_7077.pwi
Warning: card &CELL ignored
Warning: card / ignored

     Current dimensions of program PWSCF are:
     Max number of different atomic species (ntypx) = 10
     Max number of k-points (npk) =  40000
     Max angular momentum in pseudopotentials (lmaxx) =  4
     file Al.pbe-n-kjpaw_psl.1.0.0.UPF: wavefunction(s)  3S 3P renormalized

     gamma-point specific algorithms are used
     Message from routine setup:
     using ibrav=0 with symmetry is DISCOURAGED, use correct ibrav instead

     Using Slab Decomposition

     bravais-lattice index     =            0
     lattice parameter (alat)  =      10.2798  a.u.
     unit-cell volume          =    1468.0200 (a.u.)^3
     number of atoms/cell      =           12
     number of atomic types    =            3
     number of electrons       =       152.00
     number of Kohn-Sham states=           91
     kinetic-energy cutoff     =      30.0000  Ry
     charge density cutoff     =     240.0000  Ry
     scf convergence threshold =      1.0E-06
     mixing beta               =       0.7000
     number of iterations used =            8  plain     mixing
     Exchange-correlation= SLA  PW   PBE  PBE
                           (   1   4   3   4   0   0   0)

     celldm(1)=  10.279786  celldm(2)=   0.000000  celldm(3)=   0.000000
     celldm(4)=   0.000000  celldm(5)=   0.000000  celldm(6)=   0.000000

     crystal axes: (cart. coord. in units of alat)
               a(1) = (   1.000000   0.000000   0.000000 )
               a(2) = (  -0.500000   0.866025   0.000000 )
               a(3) = (   0.000000   0.000000   1.560447 )

     reciprocal axes: (cart. coord. in units 2 pi/alat)
               b(1) = (  1.000000  0.577350  0.000000 )
               b(2) = (  0.000000  1.154701  0.000000 )
               b(3) = (  0.000000  0.000000  0.640842 )

     PseudoPot. # 1 for Lu read from file:
     /home/pragov/projects/rrg-bengioy-ad/pragov/crystal_structure_design/SSSP/Lu.GGA-PBE-paw-v1.0.UPF
     MD5 check sum: 9ceca61ee0c17e9380a83635bfffa61d
     Pseudo is Projector augmented-wave + core cor, Zval = 25.0
     Generated using ATOMPAW code
     Shape of augmentation charge: BESSEL
     Using radial grid of 1118 points,  8 beta functions with:
                l(1) =   0
                l(2) =   0
                l(3) =   1
                l(4) =   1
                l(5) =   2
                l(6) =   2
                l(7) =   3
                l(8) =   3
     Q(r) pseudized with 0 coefficients

     PseudoPot. # 2 for Al read from file:
     /home/pragov/projects/rrg-bengioy-ad/pragov/crystal_structure_design/SSSP/Al.pbe-n-kjpaw_psl.1.0.0.UPF
     MD5 check sum: cfc449ca30b5f3223ec38ddd88ac046d
     Pseudo is Projector augmented-wave + core cor, Zval =  3.0
     Generated using "atomic" code by A. Dal Corso  v.5.1
     Shape of augmentation charge: PSQ
     Using radial grid of 1135 points,  6 beta functions with:
                l(1) =   0
                l(2) =   0
                l(3) =   1
                l(4) =   1
                l(5) =   2
                l(6) =   2
     Q(r) pseudized with 0 coefficients

     PseudoPot. # 3 for Co read from file:
     /home/pragov/projects/rrg-bengioy-ad/pragov/crystal_structure_design/SSSP/Co_pbe_v1.2.uspp.F.UPF
     MD5 check sum: 5f91765df6ddd3222702df6e7b74a16d
     Pseudo is Ultrasoft + core correction, Zval = 17.0
     Generated by new atomic code, or converted to UPF format
     Using radial grid of  863 points,  6 beta functions with:
                l(1) =   0
                l(2) =   0
                l(3) =   1
                l(4) =   1
                l(5) =   2
                l(6) =   2
     Q(r) pseudized with  8 coefficients,  rinner =    1.200   1.200   1.200
                                                       1.200   1.200

     atomic species   valence    mass     pseudopotential
        Lu            25.00   174.96680     Lu( 1.00)
        Al             3.00    26.98154     Al( 1.00)
        Co            17.00    58.93319     Co( 1.00)

     24 Sym. Ops., with inversion, found (12 have fractional translation)

                                    s                        frac. trans.

      isym =  1     identity

 cryst.   s( 1) = (     1          0          0      )
                  (     0          1          0      )
                  (     0          0          1      )

 cart.    s( 1) = (  1.0000000 -0.0000000  0.0000000 )
                  (  0.0000000  1.0000000  0.0000000 )
                  (  0.0000000  0.0000000  1.0000000 )

      isym =  2     180 deg rotation - cart. axis [0,0,1]

 cryst.   s( 2) = (    -1          0          0      )    f =( -0.0000000 )
                  (     0         -1          0      )       ( -0.0000000 )
                  (     0          0          1      )       (  0.5000000 )

 cart.    s( 2) = ( -1.0000000  0.0000000  0.0000000 )    f =( -0.0000000 )
                  (  0.0000000 -1.0000000  0.0000000 )       ( -0.0000000 )
                  (  0.0000000  0.0000000  1.0000000 )       (  0.7802237 )

[...]

      isym =  4     180 deg rotation - cart. axis [1,0,0]

[...]

      isym =  5      60 deg rotation - cryst. axis [0,0,1]

[...]

 cryst.   s( 8) = (    -1         -1          0      )
                  (     1          0          0      )
                  (     0          0          1      )

 cart.    s( 8) = ( -0.4999999  0.8660255  0.0000000 )
                  ( -0.8660253 -0.5000001  0.0000000 )
                  (  0.0000000  0.0000000  1.0000000 )

[...]

 cryst.   s( 9) = (     0         -1          0      )    f =( -0.0000000 )
                  (    -1          0          0      )       ( -0.0000000 )
                  (     0          0         -1      )       (  0.5000000 )

 cart.    s( 9) = (  0.5000001 -0.8660253  0.0000000 )    f =( -0.0000000 )
                  ( -0.8660253 -0.5000001  0.0000000 )       ( -0.0000000 )
                  (  0.0000000  0.0000000 -1.0000000 )       (  0.7802237 )

[...]

 cryst.   s(10) = (     1          1          0      )    f =(  0.0000000 )
                  (     0         -1          0      )       (  0.0000010 )
                  (     0          0         -1      )       (  0.5000000 )

 cart.    s(10) = (  0.4999999  0.8660256  0.0000000 )    f =( -0.0000005 )
                  (  0.8660253 -0.4999999  0.0000000 )       (  0.0000009 )
                  (  0.0000000  0.0000000 -1.0000000 )       (  0.7802237 )

[...]

 cryst.   s(11) = (    -1         -1          0      )
                  (     0          1          0      )
                  (     0          0         -1      )

 cart.    s(11) = ( -0.4999999 -0.8660256  0.0000000 )
                  ( -0.8660253  0.4999999  0.0000000 )
                  (  0.0000000  0.0000000 -1.0000000 )

      isym = 12     180 deg rotation - cryst. axis [1,1,0]

[...]

      isym = 13     inversion

[...]

      isym = 14     inv. 180 deg rotation - cart. axis [0,0,1]

[...]

      isym = 16     inv. 180 deg rotation - cart. axis [1,0,0]

[...]

      isym = 17     inv.  60 deg rotation - cryst. axis [0,0,1]

[...]

 cryst.   s(22) = (    -1         -1          0      )    f =( -0.0000000 )
                  (     0          1          0      )       (  0.0000010 )
                  (     0          0          1      )       (  0.5000000 )

 cart.    s(22) = ( -0.4999999 -0.8660256  0.0000000 )    f =( -0.0000005 )
                  ( -0.8660253  0.4999999  0.0000000 )       (  0.0000009 )
                  (  0.0000000  0.0000000  1.0000000 )       (  0.7802237 )

[...]

      isym = 24     inv. 180 deg rotation - cryst. axis [1,1,0]

 cryst.   s(24) = (     0         -1          0      )
                  (    -1          0          0      )
                  (     0          0          1      )

 cart.    s(24) = (  0.5000001 -0.8660253  0.0000000 )
                  ( -0.8660253 -0.5000001  0.0000000 )
                  (  0.0000000  0.0000000  1.0000000 )

   Cartesian axes

     site n.     atom                  positions (alat units)
         1           Lu  tau(   1) = (   0.5000005   0.2886748   1.4738456  )
         2           Lu  tau(   2) = (  -0.0000006   0.5773505   0.0866017  )
         3           Lu  tau(   3) = (  -0.0000006   0.5773505   0.6936220  )
         4           Lu  tau(   4) = (   0.5000005   0.2886748   0.8668254  )
         5           Al  tau(   5) = (   0.2438565   0.1407906   0.3901118  )
         6           Al  tau(   6) = (   0.7561435   0.1407906   0.3901118  )
         7           Al  tau(   7) = (   0.4999999   0.5844441   0.3901118  )
         8           Al  tau(   8) = (  -0.0000000   0.2815812   1.1703355  )
         9           Al  tau(   9) = (  -0.2561436   0.7252347   1.1703355  )
        10           Al  tau(  10) = (   0.2561434   0.7252347   1.1703355  )
        11           Co  tau(  11) = (   0.0000000   0.0000000   0.0000000  )
        12           Co  tau(  12) = (   0.0000000   0.0000000   0.7802237  )

   Crystallographic axes

     site n.     atom                  positions (cryst. coord.)
         1           Lu  tau(   1) = (  0.6666670  0.3333330  0.9445020  )
         2           Lu  tau(   2) = (  0.3333330  0.6666670  0.0554980  )
         3           Lu  tau(   3) = (  0.3333330  0.6666670  0.4445020  )
         4           Lu  tau(   4) = (  0.6666670  0.3333330  0.5554980  )
         5           Al  tau(   5) = (  0.3251420  0.1625710  0.2500000  )
         6           Al  tau(   6) = (  0.8374290  0.1625710  0.2500000  )
         7           Al  tau(   7) = (  0.8374290  0.6748580  0.2500000  )
         8           Al  tau(   8) = (  0.1625710  0.3251420  0.7500000  )
         9           Al  tau(   9) = (  0.1625710  0.8374290  0.7500000  )
        10           Al  tau(  10) = (  0.6748580  0.8374290  0.7500000  )
        11           Co  tau(  11) = (  0.0000000  0.0000000  0.0000000  )
        12           Co  tau(  12) = (  0.0000000  0.0000000  0.5000000  )

     number of k points=     1  Methfessel-Paxton smearing, width (Ry)=  0.0010
                       cart. coord. in units 2pi/alat
        k(    1) = (   0.0000000   0.0000000   0.0000000), wk =   2.0000000

                       cryst. coord.
        k(    1) = (   0.0000000   0.0000000   0.0000000), wk =   2.0000000

     Check: negative core charge=   -0.000005

     Initial potential from superposition of free atoms

     starting charge     149.9712, renormalised to     152.0000
     Starting wfcs are  178 randomized atomic wfcs
     Checking if some PAW data can be deallocated...

     Self-consistent Calculation

     iteration #  1     ecut=    30.00 Ry     beta= 0.70
     Davidson diagonalization with overlap

     ethr =  1.00E-02,  avg # of iterations =  4.0

     total energy              =   -5115.76367585 Ry
     estimated scf accuracy    <      35.54342809 Ry

[...]

     c_bands:  1 eigenvalues not converged
     ethr =  3.75E-06,  avg # of iterations = 20.0

[...]

     c_bands:  1 eigenvalues not converged
     ethr =  1.38E-06,  avg # of iterations = 20.0

[...]

     total energy              =   -5154.94045690 Ry
     estimated scf accuracy    <       0.00000105 Ry

     iteration # 33     ecut=    30.00 Ry     beta= 0.70
     Davidson diagonalization with overlap

     ethr =  6.93E-10,  avg # of iterations =  2.0

     End of self-consistent calculation

          k = 0.0000 0.0000 0.0000 (  2039 PWs)   bands (ev):

   -82.3131 -82.3126 -46.2051 -46.2014 -45.2091 -45.2091 -45.2087 -45.2087
   -43.3255 -43.3161 -43.2962 -43.2870 -14.2333 -14.2099 -14.0549 -14.0549
   -14.0297 -14.0297 -14.0196 -14.0056 -13.8000 -13.8000 -13.7754 -13.7754
     3.7733   5.2899   7.2432   7.9599   7.9732   7.9733   7.9758   7.9758
     7.9860   8.0002   8.0072   8.0072   8.0155   8.0192   8.0192   8.0205
     8.0206   8.0300   8.0471   8.0472   8.0598   8.0599   8.0663   8.0663
     8.0671   8.0698   8.0728   8.1156   8.1271   8.1334   8.1351   8.8411
     9.5538   9.5539   9.7238   9.7238   9.8292  10.6222  10.6222  10.7181
    10.7182  10.7532  10.7694  10.7694  10.7862  11.3917  11.5305  11.5305
    11.7475  11.7475  12.3678  12.3678  12.4608  12.7033  12.7033  13.7000
    13.9454  13.9454  14.5970  14.7302  15.2729  15.2729  15.8689  16.5942
    16.5943  17.1991  17.3366

     occupation numbers
     1.0000   1.0000   1.0000   1.0000   1.0000   1.0000   1.0000   1.0000
     1.0000   1.0000   1.0000   1.0000   1.0000   1.0000   1.0000   1.0000
     1.0000   1.0000   1.0000   1.0000   1.0000   1.0000   1.0000   1.0000
     1.0000   1.0000   1.0000   1.0000   1.0000   1.0000   1.0000   1.0000
     1.0000   1.0000   1.0000   1.0000   1.0000   1.0000   1.0000   1.0000
     1.0000   1.0000   1.0000   1.0000   1.0000   1.0000   1.0000   1.0000
     1.0000   1.0000   1.0000   1.0000   1.0000   1.0000   1.0000   1.0000
     1.0000   1.0000   1.0000   1.0000   1.0000   1.0000   1.0000   1.0000
     1.0000   1.0000   1.0000   1.0000   1.0000   1.0000   1.0000   1.0000
     1.0000   1.0000   1.0000   1.0000  -0.0000  -0.0000  -0.0000  -0.0000
    -0.0000  -0.0000  -0.0000  -0.0000  -0.0000  -0.0000  -0.0000  -0.0000
    -0.0000  -0.0000  -0.0000

     the Fermi energy is    12.4150 ev

!    total energy              =   -5154.94045684 Ry
     estimated scf accuracy    <       0.00000021 Ry
     smearing contrib. (-TS)   =       0.00000015 Ry
     internal energy E=F+TS    =   -5154.94045700 Ry

     The total energy is F=E-TS. E is the sum of the following terms:
     one-electron contribution =   -2351.22859831 Ry
     hartree contribution      =    1094.26589920 Ry
     xc contribution           =    -246.56457569 Ry
     ewald contribution        =   -1479.44550128 Ry
     one-center paw contrib.   =   -2171.96768093 Ry
      -> PAW hartree energy AE =     491.52376401 Ry
      -> PAW hartree energy PS =    -423.15447719 Ry
      -> PAW xc energy AE      =    -599.33544569 Ry
      -> PAW xc energy PS      =      40.02979033 Ry
      -> total E_H with PAW    =    1162.63518603 Ry
      -> total E_XC with PAW   =    -805.87023105 Ry

     convergence has been achieved in  33 iterations

     Forces acting on atoms (cartesian axes, Ry/au):

     atom    1 type  1   force =    -0.00000000    0.00000000   -0.04917308
     atom    2 type  1   force =     0.00000000   -0.00000000    0.04917308
     atom    3 type  1   force =    -0.00000000    0.00000000   -0.04917308
     atom    4 type  1   force =     0.00000000   -0.00000000    0.04917308
     atom    5 type  2   force =     0.02848103    0.01644354    0.00000000
     atom    6 type  2   force =    -0.02848103    0.01644353    0.00000000
     atom    7 type  2   force =    -0.00000000   -0.03288707    0.00000000
     atom    8 type  2   force =    -0.00000000    0.03288707    0.00000000
     atom    9 type  2   force =     0.02848103   -0.01644353   -0.00000000
     atom   10 type  2   force =    -0.02848103   -0.01644354   -0.00000000
     atom   11 type  3   force =     0.00000000    0.00000000   -0.00000000
     atom   12 type  3   force =    -0.00000000   -0.00000000    0.00000000
     The non-local contrib.  to forces
     atom    1 type  1   force =    -0.00000000   -0.00000000   -0.09104424
     atom    2 type  1   force =     0.00000000    0.00000000    0.09104424
     atom    3 type  1   force =    -0.00000000   -0.00000000   -0.09104424
     atom    4 type  1   force =     0.00000000    0.00000000    0.09104424
     atom    5 type  2   force =    -0.00050454   -0.00029129    0.00000000
     atom    6 type  2   force =     0.00050454   -0.00029129    0.00000000
     atom    7 type  2   force =    -0.00000000    0.00058259   -0.00000000
     atom    8 type  2   force =    -0.00000000   -0.00058259    0.00000000
     atom    9 type  2   force =    -0.00050454    0.00029129    0.00000000
     atom   10 type  2   force =     0.00050454    0.00029129    0.00000000
     atom   11 type  3   force =     0.00000000   -0.00000000    0.00000000
     atom   12 type  3   force =     0.00000000    0.00000000    0.00000000
     The ionic contribution  to forces
     atom    1 type  1   force =    -0.00016655    0.00009616   -2.69056544
     atom    2 type  1   force =     0.00016655   -0.00009616    2.69056544
     atom    3 type  1   force =     0.00016655   -0.00009616   -2.69056544
     atom    4 type  1   force =    -0.00016655    0.00009616    2.69056544
     atom    5 type  2   force =     0.64432218    0.37202480   -0.00000000
     atom    6 type  2   force =    -0.64432217    0.37199952   -0.00000000
     atom    7 type  2   force =    -0.00002173   -0.74401177    0.00000000
     atom    8 type  2   force =     0.00002173    0.74401177    0.00000000
     atom    9 type  2   force =     0.64432217   -0.37199952    0.00000000
     atom   10 type  2   force =    -0.64432218   -0.37202480    0.00000000
     atom   11 type  3   force =     0.00000000    0.00000000   -0.00000000
     atom   12 type  3   force =     0.00000000    0.00000000    0.00000000
     The local contribution  to forces
     atom    1 type  1   force =     0.00019193   -0.00006541    2.73174238
     atom    2 type  1   force =    -0.00005755    0.00030071   -2.73149852
     atom    3 type  1   force =    -0.00005007    0.00067980    2.73131383
     atom    4 type  1   force =     0.00018775   -0.00028379   -2.73169447
     atom    5 type  2   force =    -0.61471788   -0.35495319   -0.00002489
     atom    6 type  2   force =     0.61471780   -0.35493930   -0.00002453
     atom    7 type  2   force =     0.00001091    0.70985265   -0.00002610
     atom    8 type  2   force =    -0.00003749   -0.70985549    0.00003243
     atom    9 type  2   force =    -0.61475919    0.35489967    0.00002890
     atom   10 type  2   force =     0.61475529    0.35494307    0.00002738
     atom   11 type  3   force =     0.00000058    0.00001142   -0.00008559
     atom   12 type  3   force =    -0.00002606   -0.00000844    0.00007341
     The core correction contribution to forces
     atom    1 type  1   force =     0.00000000   -0.00000000   -0.00000424
     atom    2 type  1   force =     0.00000000    0.00000000    0.00000424
     atom    3 type  1   force =     0.00000000    0.00000000   -0.00000424
     atom    4 type  1   force =     0.00000000   -0.00000000    0.00000424
     atom    5 type  2   force =    -0.00060069   -0.00034707    0.00000126
     atom    6 type  2   force =     0.00060085   -0.00034719    0.00000122
     atom    7 type  2   force =    -0.00000008    0.00069432    0.00000113
     atom    8 type  2   force =    -0.00000045   -0.00069450   -0.00000093
     atom    9 type  2   force =    -0.00060176    0.00034692   -0.00000116
     atom   10 type  2   force =     0.00060145    0.00034739   -0.00000111
     atom   11 type  3   force =     0.00000013    0.00000001    0.00000001
     atom   12 type  3   force =    -0.00000000   -0.00000007   -0.00000030
     The Hubbard contrib.    to forces
     atom    1 type  1   force =     0.00000000    0.00000000    0.00000000
     atom    2 type  1   force =     0.00000000    0.00000000    0.00000000
     atom    3 type  1   force =     0.00000000    0.00000000    0.00000000
     atom    4 type  1   force =     0.00000000    0.00000000    0.00000000
     atom    5 type  2   force =     0.00000000    0.00000000    0.00000000
     atom    6 type  2   force =     0.00000000    0.00000000    0.00000000
     atom    7 type  2   force =     0.00000000    0.00000000    0.00000000
     atom    8 type  2   force =     0.00000000    0.00000000    0.00000000
     atom    9 type  2   force =     0.00000000    0.00000000    0.00000000
     atom   10 type  2   force =     0.00000000    0.00000000    0.00000000
     atom   11 type  3   force =     0.00000000    0.00000000    0.00000000
     atom   12 type  3   force =     0.00000000    0.00000000    0.00000000
     The SCF correction term to forces
     atom    1 type  1   force =    -0.00000767   -0.00002074    0.00062280
     atom    2 type  1   force =    -0.00011576   -0.00024894   -0.00102088
     atom    3 type  1   force =    -0.00014820   -0.00071399    0.00117704
     atom    4 type  1   force =     0.00000420    0.00025634   -0.00069345
     atom    5 type  2   force =    -0.00000823    0.00000611    0.00003404
     atom    6 type  2   force =     0.00000853    0.00001295    0.00003336
     atom    7 type  2   force =     0.00000601   -0.00000422    0.00003481
     atom    8 type  2   force =     0.00000718    0.00000623   -0.00003744
     atom    9 type  2   force =     0.00001375    0.00000599   -0.00003549
     atom   10 type  2   force =    -0.00001357   -0.00000234   -0.00003522
     atom   11 type  3   force =     0.00000701   -0.00001115    0.00011348
     atom   12 type  3   force =     0.00003098    0.00000567   -0.00012019

     Total force =     0.127127     Total SCF correction =     0.002002

     Computing stress (Cartesian axis) and pressure

          total   stress  (Ry/bohr**3)                   (kbar)     P=     -124.36
  -0.00056763  -0.00000000   0.00000000          -83.50       -0.00        0.00
  -0.00000000  -0.00056763   0.00000000           -0.00      -83.50        0.00
   0.00000000   0.00000000  -0.00140082            0.00        0.00     -206.07

     kinetic stress (kbar)  13476.45      0.00      0.00
                                0.00  13476.45      0.00
                                0.00      0.00  12996.25

     local   stress (kbar) -23394.34     -0.02     -0.00
                               -0.02 -23394.39     -0.01
                               -0.00     -0.01  20428.88

     nonloc. stress (kbar)  15998.68      0.00      0.00
                                0.00  15998.68      0.00
                                0.00      0.00  15656.38

     hartree stress (kbar)  43688.74      0.00     -0.00
                                0.00  43688.77      0.01
                               -0.00      0.01  22275.00

     exc-cor stress (kbar)  -6629.75     -0.00     -0.00
                               -0.00  -6629.75      0.00
                               -0.00      0.00  -6633.17

     corecor stress (kbar)  -1042.70      0.00      0.00
                                0.00  -1042.70      0.00
                                0.00      0.00  -1040.56

     ewald   stress (kbar) -42180.58      0.02      0.00
                                0.02 -42180.56      0.00
                                0.00      0.00 -63888.85

     hubbard stress (kbar)      0.00      0.00      0.00
                                0.00      0.00      0.00
                                0.00      0.00      0.00

     DFT-D   stress (kbar)      0.00      0.00      0.00
                                0.00      0.00      0.00
                                0.00      0.00      0.00

     XDM     stress (kbar)      0.00      0.00      0.00
                                0.00      0.00      0.00
                                0.00      0.00      0.00

     dft-nl  stress (kbar)      0.00      0.00      0.00
                                0.00      0.00      0.00
                                0.00      0.00      0.00

     TS-vdW  stress (kbar)      0.00      0.00      0.00
                                0.00      0.00      0.00
                                0.00      0.00      0.00

[...]

                                0.00      0.00      0.00

     Writing all to output data dir calculations/myprefix.save/

     General routines

     Parallel routines

     PAW routines

   This run was terminated on:  17:36:27   4Mar2023

   JOB DONE.