     Program PWSCF v.7.0 starts on  6Mar2023 at 13:10:58

     R & G space division:  proc/nbgrp/npool/nimage =      32

     Reading input from espresso_4722.pwi
Warning: card &CELL ignored
Warning: card / ignored

     Current dimensions of program PWSCF are:
     Max number of different atomic species (ntypx) = 10
     Max number of k-points (npk) =  40000
     Max angular momentum in pseudopotentials (lmaxx) =  4

     gamma-point specific algorithms are used
     Message from routine setup:
     using ibrav=0 with symmetry is DISCOURAGED, use correct ibrav instead

     Using Slab Decomposition

     bravais-lattice index     =            0
     lattice parameter (alat)  =      21.4610  a.u.
     unit-cell volume          =    3798.1795 (a.u.)^3
     number of atoms/cell      =           20
     number of atomic types    =            2
     number of electrons       =       140.00
     number of Kohn-Sham states=           84
     kinetic-energy cutoff     =      30.0000  Ry
     charge density cutoff     =     240.0000  Ry
     scf convergence threshold =      1.0E-06
     mixing beta               =       0.7000
     number of iterations used =            8  plain     mixing
     Exchange-correlation= PBE
                           (   1   4   3   4   0   0   0)

     celldm(1)=  21.460987  celldm(2)=   0.000000  celldm(3)=   0.000000
     celldm(4)=   0.000000  celldm(5)=   0.000000  celldm(6)=   0.000000

     crystal axes: (cart. coord. in units of alat)
               a(1) = (   1.000000   0.000000   0.000000 )
               a(2) = (   0.258177   0.966098   0.000000 )
               a(3) = (  -0.348203  -0.848854   0.397746 )

     reciprocal axes: (cart. coord. in units 2 pi/alat)
               b(1) = (  1.000000 -0.267237  0.305115 )
               b(2) = (  0.000000  1.035092  2.209055 )
               b(3) = (  0.000000  0.000000  2.514170 )

     PseudoPot. # 1 for Sr read from file:
     /home/pragov/projects/rrg-bengioy-ad/pragov/crystal_structure_design/SSSP/Sr_pbe_v1.uspp.F.UPF
     MD5 check sum: 6b418c05fbe9db5448babca5e47b7a5b
     Pseudo is Ultrasoft + core correction, Zval = 10.0
     Generated by new atomic code, or converted to UPF format
     Using radial grid of  883 points,  6 beta functions with:
                l(1) =   0
                l(2) =   0
                l(3) =   1
                l(4) =   1
                l(5) =   2
                l(6) =   2
     Q(r) pseudized with  6 coefficients,  rinner =    1.400   1.400   1.400
                                                       1.400   1.400

     PseudoPot. # 2 for Si read from file:
     /home/pragov/projects/rrg-bengioy-ad/pragov/crystal_structure_design/SSSP/Si.pbe-n-rrkjus_psl.1.0.0.UPF
     MD5 check sum: 0b0bb1205258b0d07b9f9672cf965d36
     Pseudo is Ultrasoft + core correction, Zval =  4.0
     Generated using "atomic" code by A. Dal Corso  v.5.1
     Using radial grid of 1141 points,  6 beta functions with:
                l(1) =   0
                l(2) =   0
                l(3) =   1
                l(4) =   1
                l(5) =   2
                l(6) =   2
     Q(r) pseudized with 0 coefficients

     atomic species   valence    mass     pseudopotential
        Sr            10.00    87.62000     Sr( 1.00)
        Si             4.00    28.08500     Si( 1.00)

      2 Sym. Ops., with inversion, found

                                    s                        frac. trans.

      isym =  1     identity

 cryst.   s( 1) = (     1          0          0      )
                  (     0          1          0      )
                  (     0          0          1      )

 cart.    s( 1) = (  1.0000000 -0.0000000  0.0000000 )
                  (  0.0000000  1.0000000 -0.0000000 )
                  (  0.0000000  0.0000000  1.0000000 )

      isym =  2     inversion

 cryst.   s( 2) = (    -1          0          0      )
                  (     0         -1          0      )
                  (     0          0         -1      )

 cart.    s( 2) = ( -1.0000000  0.0000000 -0.0000000 )
                  (  0.0000000 -1.0000000  0.0000000 )
                  (  0.0000000  0.0000000 -1.0000000 )

   Cartesian axes

     site n.     atom                  positions (alat units)
         1           Sr  tau(   1) = (   0.5650325   0.0760202   0.3318225  )
         2           Sr  tau(   2) = (  -0.2193212  -0.5262489   0.3318225  )
         3           Sr  tau(   3) = (   0.3449413   0.0412235   0.0659232  )
         4           Sr  tau(   4) = (   0.4618957  -0.6015403   0.2818624  )
         5           Sr  tau(   5) = (   1.1292950   0.6434926   0.0659232  )
         6           Sr  tau(   6) = (   0.0000000   0.0000000   0.0000000  )
         7           Sr  tau(   7) = (   0.3715027   0.3784456   0.1988728  )
         8           Sr  tau(   8) = (   0.1899010  -0.2473136   0.1158832  )
         9           Sr  tau(   9) = (   0.6290886   0.4830488   0.0000000  )
        10           Sr  tau(  10) = (   0.5384711  -0.2612018   0.1988728  )
        11           Si  tau(  11) = (   0.5841844   0.2057870   0.0715648  )
        12           Si  tau(  12) = (   0.1416258  -0.0071352   0.2604999  )
        13           Si  tau(  13) = (   0.9396448   0.2559093   0.1372457  )
        14           Si  tau(  14) = (   0.1336367   0.1957990   0.1988728  )
        15           Si  tau(  15) = (   0.9085440   0.4548489   0.0715648  )
        16           Si  tau(  16) = (  -0.0296710  -0.1386656   0.2604999  )
        17           Si  tau(  17) = (   0.0014298  -0.3376051   0.3261808  )
        18           Si  tau(  18) = (   0.3257894  -0.0885432   0.3261808  )
        19           Si  tau(  19) = (   0.7763371  -0.0785553   0.1988728  )
        20           Si  tau(  20) = (   0.7683480   0.1243790   0.1372457  )

   Crystallographic axes

     site n.     atom                  positions (cryst. coord.)
         1           Sr  tau(   1) = (  0.6459610  0.8117020  0.8342580  )
         2           Sr  tau(   2) = (  0.0225560  0.1882980  0.8342580  )
         3           Sr  tau(   3) = (  0.3540390  0.1882980  0.1657420  )
         4           Sr  tau(   4) = (  0.7086500  0.0000000  0.7086500  )
         5           Sr  tau(   5) = (  0.9774440  0.8117020  0.1657420  )
         6           Sr  tau(   6) = (  0.0000000  0.0000000  0.0000000  )
         7           Sr  tau(   7) = (  0.3310470  0.8310470  0.5000000  )
         8           Sr  tau(   8) = (  0.2913500 -0.0000000  0.2913500  )
         9           Sr  tau(   9) = (  0.5000000  0.5000000  0.0000000  )
        10           Sr  tau(  10) = (  0.6689530  0.1689530  0.5000000  )
        11           Si  tau(  11) = (  0.5510260  0.3710990  0.1799260  )
        12           Si  tau(  12) = (  0.2230150  0.5680730  0.6549410  )
        13           Si  tau(  13) = (  0.9131320  0.5680730  0.3450590  )
        14           Si  tau(  14) = (  0.1419910  0.6419910  0.5000000  )
        15           Si  tau(  15) = (  0.8088270  0.6289010  0.1799260  )
        16           Si  tau(  16) = (  0.0868680  0.4319270  0.6549410  )
        17           Si  tau(  17) = (  0.1911730  0.3710990  0.8200740  )
        18           Si  tau(  18) = (  0.4489740  0.6289010  0.8200740  )
        19           Si  tau(  19) = (  0.8580090  0.3580090  0.5000000  )
        20           Si  tau(  20) = (  0.7769850  0.4319270  0.3450590  )

     number of k points=     1  Methfessel-Paxton smearing, width (Ry)=  0.0010
                       cart. coord. in units 2pi/alat
        k(    1) = (   0.0000000   0.0000000   0.0000000), wk =   2.0000000

                       cryst. coord.
        k(    1) = (   0.0000000   0.0000000   0.0000000), wk =   2.0000000

     Check: negative core charge=   -0.000003

     Initial potential from superposition of free atoms

     starting charge     139.6579, renormalised to     140.0000

     negative rho (up, down):  6.354E-01 0.000E+00
     Starting wfcs are  170 randomized atomic wfcs

     Self-consistent Calculation

     iteration #  1     ecut=    30.00 Ry     beta= 0.70
     Davidson diagonalization with overlap

     ethr =  1.00E-02,  avg # of iterations =  4.0

     negative rho (up, down):  6.404E-01 0.000E+00

     total energy              =    -816.04924724 Ry
     estimated scf accuracy    <       1.83922198 Ry

[...]

     c_bands:  1 eigenvalues not converged
     ethr =  4.26E-05,  avg # of iterations = 20.0

[...]

     ethr =  4.26E-05,  avg # of iterations =  2.0
     Minimization algorithm failed to find Fermi energy: reverting to bisection
     Possible cause: smearing is larger than the electronic band-gap.

[...]

     total energy              =    -816.95384803 Ry
     estimated scf accuracy    <       0.00009175 Ry

     iteration # 53     ecut=    30.00 Ry     beta= 0.70
     Davidson diagonalization with overlap

     ethr =  7.82E-10,  avg # of iterations =  3.0

[...]

     End of self-consistent calculation

          k = 0.0000 0.0000 0.0000 (  5248 PWs)   bands (ev):

   -28.1734 -28.1731 -27.7282 -27.7014 -27.6988 -27.6880 -27.6853 -27.5934
   -27.5891 -27.4316 -14.1894 -11.8150 -10.2968 -10.2834 -10.2618 -10.2543
   -10.1537 -10.0374  -9.9859  -9.9752  -9.9439  -9.9302  -9.9294  -9.8780
    -9.8700  -9.8252  -9.7628  -9.7365  -9.7358  -9.7342  -9.7243  -9.7229
    -9.6988  -9.6600  -9.6574  -9.6522  -9.6230  -9.5749  -9.5016  -9.4384
    -2.6010  -1.7733  -1.4468  -0.5899  -0.0282   0.4164   1.1079   1.2043
     2.1449   3.3484   3.7205   4.1386   4.6803   4.9596   5.0841   5.0879
     5.2533   5.3532   5.4839   5.6055   5.9080   6.3214   6.4292   6.4316
     6.8171   6.8702   6.9214   6.9354   7.8841   7.8922   7.8929   7.9013
     8.0103   8.1577   8.2388   8.5560   8.7720   8.8203   9.0274   9.4849
     9.6371   9.7345   9.7861   9.8838

     occupation numbers
     1.0000   1.0000   1.0000   1.0000   1.0000   1.0000   1.0000   1.0000
     1.0000   1.0000   1.0000   1.0000   1.0000   1.0000   1.0000   1.0000
     1.0000   1.0000   1.0000   1.0000   1.0000   1.0000   1.0000   1.0000
     1.0000   1.0000   1.0000   1.0000   1.0000   1.0000   1.0000   1.0000
     1.0000   1.0000   1.0000   1.0000   1.0000   1.0000   1.0000   1.0000
     1.0000   1.0000   1.0000   1.0000   1.0000   1.0000   1.0000   1.0000
     1.0000   1.0000   1.0000   1.0000   1.0000   1.0000   1.0000   1.0000
     1.0000   1.0000   1.0000   1.0000   1.0000   1.0000   1.0000   1.0000
     1.0000   1.0000   1.0000   1.0000   0.9296   0.5271   0.4814   0.0618
    -0.0000  -0.0000  -0.0000  -0.0000  -0.0000  -0.0000  -0.0000  -0.0000
    -0.0000  -0.0000  -0.0000  -0.0000

     the Fermi energy is     7.8926 ev

!    total energy              =    -816.95384899 Ry
     estimated scf accuracy    <       0.00000073 Ry
     smearing contrib. (-TS)   =      -0.00063883 Ry
     internal energy E=F+TS    =    -816.95321016 Ry

     The total energy is F=E-TS. E is the sum of the following terms:
     one-electron contribution =    -156.87377042 Ry
     hartree contribution      =     122.08307270 Ry
     xc contribution           =    -244.22279249 Ry
     ewald contribution        =    -537.93971996 Ry

     convergence has been achieved in  53 iterations

     negative rho (up, down):  6.502E-01 0.000E+00

     Forces acting on atoms (cartesian axes, Ry/au):

     atom    1 type  1   force =     0.03272189    0.01307768    0.00354940
     atom    2 type  1   force =    -0.02247008   -0.02427286    0.00206870
     atom    3 type  1   force =    -0.03272189   -0.01307768   -0.00354940
     atom    4 type  1   force =     0.00066846   -0.00874458    0.00272958
     atom    5 type  1   force =     0.02247008    0.02427286   -0.00206870
     atom    6 type  1   force =     0.00000000    0.00000000    0.00000000
     atom    7 type  1   force =     0.01364410    0.00712984    0.00098615
     atom    8 type  1   force =    -0.00066846    0.00874458   -0.00272958
     atom    9 type  1   force =     0.00000000    0.00000000    0.00000000
     atom   10 type  1   force =    -0.01364410   -0.00712984   -0.00098615
     atom   11 type  2   force =     0.00551727   -0.00758435    0.00348435
     atom   12 type  2   force =     0.03124198    0.02078107    0.00094547
     atom   13 type  2   force =     0.01333250    0.04062964   -0.00895903
     atom   14 type  2   force =    -0.00114953   -0.01453002    0.00402477
     atom   15 type  2   force =     0.01877617   -0.01882183    0.00980005
     atom   16 type  2   force =    -0.01333250   -0.04062964    0.00895903
     atom   17 type  2   force =    -0.01877617    0.01882183   -0.00980005
     atom   18 type  2   force =    -0.00551727    0.00758435   -0.00348435
     atom   19 type  2   force =     0.00114953    0.01453002   -0.00402477
     atom   20 type  2   force =    -0.03124198   -0.02078107   -0.00094547
     The non-local contrib.  to forces
     atom    1 type  1   force =     0.08116181    0.05471074    0.00224090
     atom    2 type  1   force =    -0.06838606   -0.06868856    0.00476944
     atom    3 type  1   force =    -0.08116181   -0.05471074   -0.00224090
     atom    4 type  1   force =     0.06486061   -0.09318083    0.04214658
     atom    5 type  1   force =     0.06838606    0.06868856   -0.00476944
     atom    6 type  1   force =     0.00000000    0.00000000    0.00000000
     atom    7 type  1   force =     0.02719480    0.01874581    0.00062934
     atom    8 type  1   force =    -0.06486061    0.09318083   -0.04214658
     atom    9 type  1   force =     0.00000000    0.00000000    0.00000000
     atom   10 type  1   force =    -0.02719480   -0.01874581   -0.00062934
     atom   11 type  2   force =     0.01615638   -0.02524169    0.01109732
     atom   12 type  2   force =    -0.00696627    0.00542806   -0.00317571
     atom   13 type  2   force =    -0.00099143   -0.00771258    0.00204868
     atom   14 type  2   force =    -0.03260290   -0.02834588    0.00097783
     atom   15 type  2   force =     0.02657446   -0.02543337    0.01351443
     atom   16 type  2   force =     0.00099143    0.00771258   -0.00204868
     atom   17 type  2   force =    -0.02657446    0.02543337   -0.01351443
     atom   18 type  2   force =    -0.01615638    0.02524169   -0.01109732
     atom   19 type  2   force =     0.03260290    0.02834588   -0.00097783
     atom   20 type  2   force =     0.00696627   -0.00542806    0.00317571
     The ionic contribution  to forces
     atom    1 type  1   force =    -1.68515466   -1.60897083    0.09286804
     atom    2 type  1   force =     1.98943646    1.21253025    0.09287257
     atom    3 type  1   force =     1.68515466    1.60897083   -0.09286804
     atom    4 type  1   force =    -0.76816328    1.00042891   -0.46876245
     atom    5 type  1   force =    -1.98943646   -1.21253025   -0.09287257
     atom    6 type  1   force =    -0.00000000   -0.00000000    0.00000000
     atom    7 type  1   force =    -1.17512664   -0.90236005    0.00000966
     atom    8 type  1   force =     0.76816328   -1.00042891    0.46876245
     atom    9 type  1   force =     0.00000000   -0.00000000    0.00000000
     atom   10 type  1   force =     1.17512664    0.90236005   -0.00000966
     atom   11 type  2   force =    -1.30112836   -0.01113406   -0.29121681
     atom   12 type  2   force =     0.32415451    0.42878221   -0.05301629
     atom   13 type  2   force =     0.49793630    0.20248747    0.05301524
     atom   14 type  2   force =     1.04080887    0.79920233   -0.00000017
     atom   15 type  2   force =     0.34665708    1.25409130   -0.29120662
     atom   16 type  2   force =    -0.49793630   -0.20248747   -0.05301524
     atom   17 type  2   force =    -0.34665708   -1.25409130    0.29120662
     atom   18 type  2   force =     1.30112836    0.01113406    0.29121681
     atom   19 type  2   force =    -1.04080887   -0.79920233    0.00000017
     atom   20 type  2   force =    -0.32415451   -0.42878221    0.05301629
     The local contribution  to forces
     atom    1 type  1   force =     1.64252018    1.57043699   -0.09115732
     atom    2 type  1   force =    -1.94893927   -1.17166097   -0.09575385
     atom    3 type  1   force =    -1.64195140   -1.57084361    0.09140657
     atom    4 type  1   force =     0.70897055   -0.92212750    0.43228767
     atom    5 type  1   force =     1.94833652    1.17236833    0.09540999
     atom    6 type  1   force =    -0.00050996   -0.00022974   -0.00004667
     atom    7 type  1   force =     1.16347005    0.89179694    0.00046447
     atom    8 type  1   force =    -0.70897369    0.92206228   -0.43226712
     atom    9 type  1   force =     0.00034287    0.00003899    0.00006499
     atom   10 type  1   force =    -1.16300006   -0.89174954   -0.00037250
     atom   11 type  2   force =     1.29236768    0.02608104    0.28482614
     atom   12 type  2   force =    -0.28611442   -0.41348219    0.05711576
     atom   13 type  2   force =    -0.48317949   -0.15559037   -0.06349904
     atom   14 type  2   force =    -1.01281853   -0.78790586    0.00300589
     atom   15 type  2   force =    -0.35271846   -1.24924027    0.28840472
     atom   16 type  2   force =     0.48280518    0.15557029    0.06341981
     atom   17 type  2   force =     0.35255155    1.24949925   -0.28851775
     atom   18 type  2   force =    -1.29203024   -0.02616472   -0.28472854
     atom   19 type  2   force =     1.01264948    0.78775008   -0.00299903
     atom   20 type  2   force =     0.28607602    0.41343163   -0.05710818
     The core correction contribution to forces
     atom    1 type  1   force =    -0.00637419   -0.00342469   -0.00043392
     atom    2 type  1   force =     0.00557994    0.00455499   -0.00007975
     atom    3 type  1   force =     0.00637685    0.00342518    0.00043435
     atom    4 type  1   force =    -0.00537125    0.00633126   -0.00308179
     atom    5 type  1   force =    -0.00557575   -0.00454878    0.00007892
     atom    6 type  1   force =    -0.00000240   -0.00000472    0.00000085
     atom    7 type  1   force =    -0.00178673   -0.00129865   -0.00002159
     atom    8 type  1   force =     0.00536754   -0.00633252    0.00308145
     atom    9 type  1   force =    -0.00000352   -0.00000052   -0.00000067
     atom   10 type  1   force =     0.00178676    0.00130075    0.00002099
     atom   11 type  2   force =    -0.00196687    0.00258201   -0.00120638
     atom   12 type  2   force =     0.00040022    0.00001575    0.00008572
     atom   13 type  2   force =    -0.00067969    0.00157030   -0.00061671
     atom   14 type  2   force =     0.00370747    0.00255077    0.00008711
     atom   15 type  2   force =    -0.00180962    0.00214432   -0.00104201
     atom   16 type  2   force =     0.00067671   -0.00157139    0.00061637
     atom   17 type  2   force =     0.00180907   -0.00214422    0.00104157
     atom   18 type  2   force =     0.00196873   -0.00257868    0.00120576
     atom   19 type  2   force =    -0.00370962   -0.00255402   -0.00008673
     atom   20 type  2   force =    -0.00039809   -0.00001364   -0.00008579
     The Hubbard contrib.    to forces
     atom    1 type  1   force =     0.00000000    0.00000000    0.00000000
     atom    2 type  1   force =     0.00000000    0.00000000    0.00000000
     atom    3 type  1   force =     0.00000000    0.00000000    0.00000000
     atom    4 type  1   force =     0.00000000    0.00000000    0.00000000
     atom    5 type  1   force =     0.00000000    0.00000000    0.00000000
     atom    6 type  1   force =     0.00000000    0.00000000    0.00000000
     atom    7 type  1   force =     0.00000000    0.00000000    0.00000000
     atom    8 type  1   force =     0.00000000    0.00000000    0.00000000
     atom    9 type  1   force =     0.00000000    0.00000000    0.00000000
     atom   10 type  1   force =     0.00000000    0.00000000    0.00000000
     atom   11 type  2   force =     0.00000000    0.00000000    0.00000000
     atom   12 type  2   force =     0.00000000    0.00000000    0.00000000
     atom   13 type  2   force =     0.00000000    0.00000000    0.00000000
     atom   14 type  2   force =     0.00000000    0.00000000    0.00000000
     atom   15 type  2   force =     0.00000000    0.00000000    0.00000000
     atom   16 type  2   force =     0.00000000    0.00000000    0.00000000
     atom   17 type  2   force =     0.00000000    0.00000000    0.00000000
     atom   18 type  2   force =     0.00000000    0.00000000    0.00000000
     atom   19 type  2   force =     0.00000000    0.00000000    0.00000000
     atom   20 type  2   force =     0.00000000    0.00000000    0.00000000
     The SCF correction term to forces
     atom    1 type  1   force =     0.00059394    0.00030430    0.00004381
     atom    2 type  1   force =    -0.00012692   -0.00093306    0.00024625
     atom    3 type  1   force =    -0.00111498    0.00005949   -0.00026926
     atom    4 type  1   force =     0.00033903   -0.00020547    0.00013542
     atom    5 type  1   force =     0.00079395    0.00037052    0.00007036
     atom    6 type  1   force =     0.00046931    0.00013876    0.00006459
     atom    7 type  1   force =    -0.00009697    0.00027174   -0.00010125
     atom    8 type  1   force =    -0.00039776    0.00025383   -0.00016393
     atom    9 type  1   force =    -0.00038554   -0.00001835   -0.00008110
     atom   10 type  1   force =    -0.00035224   -0.00026936   -0.00000115
     atom   11 type  2   force =     0.00010800    0.00013919   -0.00001581
     atom   12 type  2   force =    -0.00022565    0.00004643   -0.00006443
     atom   13 type  2   force =     0.00022371   -0.00014131    0.00009222
     atom   14 type  2   force =    -0.00026058   -0.00006881   -0.00003878
     atom   15 type  2   force =     0.00006299   -0.00035564    0.00011905
     atom   16 type  2   force =     0.00010739    0.00013022   -0.00001382
     atom   17 type  2   force =     0.00008502    0.00015291   -0.00002653
     atom   18 type  2   force =    -0.00040816   -0.00003716   -0.00008096
     atom   19 type  2   force =     0.00039949    0.00015296    0.00004576
     atom   20 type  2   force =     0.00027474    0.00002039    0.00005607

     Total force =     0.119367     Total SCF correction =     0.002342

     Computing stress (Cartesian axis) and pressure

     negative rho (up, down):  6.502E-01 0.000E+00
          total   stress  (Ry/bohr**3)                   (kbar)     P=      -18.93
  -0.00033460  -0.00009454  -0.00015858          -49.22      -13.91      -23.33
  -0.00009454  -0.00043108   0.00024986          -13.91      -63.41       36.76
  -0.00015858   0.00024986   0.00037961          -23.33       36.76       55.84

     kinetic stress (kbar)   6078.47    -11.99    -57.62
                              -11.99   6071.52     78.98
                              -57.62     78.98   6312.32

     local   stress (kbar)  -3908.30    110.95     47.01
                              110.95  -3970.23    -60.45
                               47.01    -60.45  -4232.04

     nonloc. stress (kbar)   5190.01     -2.82     12.57
                               -2.82   5186.84    -14.99
                               12.57    -14.99   5145.40

     hartree stress (kbar)   1504.45    -48.50    -33.33
                              -48.50   1529.42     43.69
                              -33.33     43.69   1694.45

     exc-cor stress (kbar)   3340.67     -0.17      0.11
                               -0.17   3340.82     -0.16
                                0.11     -0.16   3340.48

     corecor stress (kbar)  -5280.29      0.87      1.03
                                0.87  -5280.82     -1.32
                                1.03     -1.32  -5285.35

     ewald   stress (kbar)  -6974.24    -62.25      6.90
                              -62.25  -6940.96     -8.98
                                6.90     -8.98  -6919.43

     hubbard stress (kbar)      0.00      0.00      0.00
                                0.00      0.00      0.00
                                0.00      0.00      0.00

     DFT-D   stress (kbar)      0.00      0.00      0.00
                                0.00      0.00      0.00
                                0.00      0.00      0.00

     XDM     stress (kbar)      0.00      0.00      0.00
                                0.00      0.00      0.00
                                0.00      0.00      0.00

     dft-nl  stress (kbar)      0.00      0.00      0.00
                                0.00      0.00      0.00
                                0.00      0.00      0.00

     TS-vdW  stress (kbar)      0.00      0.00      0.00
                                0.00      0.00      0.00
                                0.00      0.00      0.00

[...]

                                0.00      0.00      0.00

     Writing all to output data dir calculations/myprefix.save/

     General routines

     Parallel routines

   This run was terminated on:  13:11:12   6Mar2023

   JOB DONE.