     Program PWSCF v.7.0 starts on  4Mar2023 at 18: 1: 5

     R & G space division:  proc/nbgrp/npool/nimage =      32

     Reading input from espresso_7141.pwi
Warning: card &CELL ignored
Warning: card / ignored

     Current dimensions of program PWSCF are:
     Max number of different atomic species (ntypx) = 10
     Max number of k-points (npk) =  40000
     Max angular momentum in pseudopotentials (lmaxx) =  4

     gamma-point specific algorithms are used
     Message from routine setup:
     using ibrav=0 with symmetry is DISCOURAGED, use correct ibrav instead

     Using Slab Decomposition

     bravais-lattice index     =            0
     lattice parameter (alat)  =       8.6533  a.u.
     unit-cell volume          =     379.1387 (a.u.)^3
     number of atoms/cell      =            4
     number of atomic types    =            2
     number of electrons       =        25.00
     number of Kohn-Sham states=           17
     kinetic-energy cutoff     =      30.0000  Ry
     charge density cutoff     =     240.0000  Ry
     scf convergence threshold =      1.0E-06
     mixing beta               =       0.7000
     number of iterations used =            8  plain     mixing
     Exchange-correlation=  SLA  PW   PBX  PBC
                           (   1   4   3   4   0   0   0)

     celldm(1)=   8.653320  celldm(2)=   0.000000  celldm(3)=   0.000000
     celldm(4)=   0.000000  celldm(5)=   0.000000  celldm(6)=   0.000000

     crystal axes: (cart. coord. in units of alat)
               a(1) = (   1.000000   0.000000   0.000000 )
               a(2) = (   0.263968   0.964531   0.000000 )
               a(3) = (  -0.631984  -0.482266   0.606643 )

     reciprocal axes: (cart. coord. in units 2 pi/alat)
               b(1) = (  1.000000 -0.273675  0.824208 )
               b(2) = (  0.000000  1.036773  0.824208 )
               b(3) = (  0.000000  0.000000  1.648415 )

     PseudoPot. # 1 for Li read from file:
     /home/pragov/projects/rrg-bengioy-ad/pragov/crystal_structure_design/SSSP/li_pbe_v1.4.uspp.F.UPF
     MD5 check sum: e912e257baa3777c20ea3d68f190483c
     Pseudo is Ultrasoft, Zval =  3.0
     Generated by new atomic code, or converted to UPF format
     Using radial grid of  751 points,  5 beta functions with:
                l(1) =   0
                l(2) =   0
                l(3) =   0
                l(4) =   1
                l(5) =   1
     Q(r) pseudized with 10 coefficients,  rinner =    1.150   1.150   1.150

     PseudoPot. # 2 for Pt read from file:
     /home/pragov/projects/rrg-bengioy-ad/pragov/crystal_structure_design/SSSP/pt_pbe_v1.4.uspp.F.UPF
     MD5 check sum: f09d6de1a584b5a045c4fc126da2d0c4
     Pseudo is Ultrasoft + core correction, Zval = 16.0
     Generated by new atomic code, or converted to UPF format
     Using radial grid of  985 points,  6 beta functions with:
                l(1) =   0
                l(2) =   0
                l(3) =   1
                l(4) =   1
                l(5) =   2
                l(6) =   2
     Q(r) pseudized with  8 coefficients,  rinner =    1.300   1.300   1.300
                                                       1.300   1.300

     atomic species   valence    mass     pseudopotential
        Li             3.00     6.94000     Li( 1.00)
        Pt            16.00   195.08400     Pt( 1.00)

      4 Sym. Ops., with inversion, found

                                    s                        frac. trans.

      isym =  1     identity

 cryst.   s( 1) = (     1          0          0      )
                  (     0          1          0      )
                  (     0          0          1      )

 cart.    s( 1) = (  1.0000000  0.0000000  0.0000000 )
                  (  0.0000000  1.0000000 -0.0000000 )
                  (  0.0000000  0.0000000  1.0000000 )

      isym =  2     180 deg rotation - cart. axis [0,0,1]

[...]

      isym =  3     inversion

[...]

      isym =  4     inv. 180 deg rotation - cart. axis [0,0,1]

 cryst.   s( 4) = (     1          0          0      )
                  (     0          1          0      )
                  (    -1         -1         -1      )

 cart.    s( 4) = (  1.0000000  0.0000000  0.0000000 )
                  (  0.0000000  1.0000000  0.0000000 )
                  (  0.0000000  0.0000000 -1.0000000 )

   Cartesian axes

     site n.     atom                  positions (alat units)
         1           Li  tau(   1) = (   0.5000000  -0.0000000   0.3033216  )
         2           Li  tau(   2) = (   0.1319840   0.4822657   0.3033216  )
         3           Li  tau(   3) = (   0.6319840   0.4822657   0.0000000  )
         4           Pt  tau(   4) = (   0.0000000   0.0000000   0.0000000  )

   Crystallographic axes

     site n.     atom                  positions (cryst. coord.)
         1           Li  tau(   1) = (  0.7500000  0.2500000  0.5000000  )
         2           Li  tau(   2) = (  0.2500000  0.7500000  0.5000000  )
         3           Li  tau(   3) = (  0.5000000  0.5000000  0.0000000  )
         4           Pt  tau(   4) = (  0.0000000  0.0000000  0.0000000  )

     number of k points=     1  Methfessel-Paxton smearing, width (Ry)=  0.0010
                       cart. coord. in units 2pi/alat
        k(    1) = (   0.0000000   0.0000000   0.0000000), wk =   2.0000000

                       cryst. coord.
        k(    1) = (   0.0000000   0.0000000   0.0000000), wk =   2.0000000

     Check: negative core charge=   -0.000001

     Initial potential from superposition of free atoms

     starting charge      23.1478, renormalised to      25.0000

     negative rho (up, down):  2.029E-01 0.000E+00
     Starting wfcs are   27 randomized atomic wfcs

     Self-consistent Calculation

     iteration #  1     ecut=    30.00 Ry     beta= 0.70
     Davidson diagonalization with overlap

     ethr =  1.00E-02,  avg # of iterations =  3.0

     negative rho (up, down):  1.595E-01 0.000E+00

     total energy              =    -247.03918273 Ry
     estimated scf accuracy    <      11.66621080 Ry

[...]

     total energy              =    -254.25569852 Ry
     estimated scf accuracy    <       0.00000141 Ry

     iteration # 12     ecut=    30.00 Ry     beta= 0.70
     Davidson diagonalization with overlap

     ethr =  5.65E-09,  avg # of iterations =  4.0

[...]

     End of self-consistent calculation

          k = 0.0000 0.0000 0.0000 (   536 PWs)   bands (ev):

   -44.4846 -44.3931 -44.3928 -38.5167 -37.8771 -37.8403   1.7866   4.4165
     4.7299   4.7300   4.8523   5.4626  10.4323  12.3679  12.3679  13.1475
    14.1098

     occupation numbers
     1.0000   1.0000   1.0000   1.0000   1.0000   1.0000   1.0000   1.0000
     1.0000   1.0000   1.0000   1.0000   0.5000  -0.0000  -0.0000  -0.0000
    -0.0000

     the Fermi energy is    10.4323 ev

!    total energy              =    -254.25569860 Ry
     estimated scf accuracy    <       0.00000028 Ry
     smearing contrib. (-TS)   =      -0.00028209 Ry
     internal energy E=F+TS    =    -254.25541650 Ry

     The total energy is F=E-TS. E is the sum of the following terms:
     one-electron contribution =    -105.21901250 Ry
     hartree contribution      =      57.61793388 Ry
     xc contribution           =     -67.24195353 Ry
     ewald contribution        =    -139.41238436 Ry

     convergence has been achieved in  12 iterations

     negative rho (up, down):  1.780E-01 0.000E+00

     Forces acting on atoms (cartesian axes, Ry/au):

     atom    1 type  1   force =     0.00000000    0.00000000    0.00001756
     atom    2 type  1   force =     0.00000000    0.00000000   -0.00001756
     atom    3 type  1   force =     0.00000000    0.00000000    0.00000000
     atom    4 type  2   force =     0.00000000    0.00000000    0.00000000
     The non-local contrib.  to forces
     atom    1 type  1   force =     0.00000000    0.00000000    0.00000680
     atom    2 type  1   force =     0.00000000    0.00000000   -0.00000680
     atom    3 type  1   force =     0.00000000    0.00000000    0.00000000
     atom    4 type  2   force =     0.00000000    0.00000000   -0.00000000
     The ionic contribution  to forces
     atom    1 type  1   force =     0.00000000   -0.00000000    0.00000000
     atom    2 type  1   force =    -0.00000000    0.00000000    0.00000000
     atom    3 type  1   force =    -0.00000000    0.00000000   -0.00000000
     atom    4 type  2   force =     0.00000000   -0.00000000   -0.00000000
     The local contribution  to forces
     atom    1 type  1   force =     0.00003047    0.00000463   -0.00000408
     atom    2 type  1   force =     0.00001107    0.00001507    0.00000207
     atom    3 type  1   force =    -0.00000515   -0.00000742   -0.00000892
     atom    4 type  2   force =    -0.00039971    0.00001600    0.00002989
     The core correction contribution to forces
     atom    1 type  1   force =     0.00000000    0.00000000    0.00000000
     atom    2 type  1   force =     0.00000000    0.00000000    0.00000000
     atom    3 type  1   force =     0.00000000    0.00000000    0.00000000
     atom    4 type  2   force =    -0.00001190    0.00000588   -0.00000168
     The Hubbard contrib.    to forces
     atom    1 type  1   force =     0.00000000    0.00000000    0.00000000
     atom    2 type  1   force =     0.00000000    0.00000000    0.00000000
     atom    3 type  1   force =     0.00000000    0.00000000    0.00000000
     atom    4 type  2   force =     0.00000000    0.00000000    0.00000000
     The SCF correction term to forces
     atom    1 type  1   force =    -0.00003992    0.00000313    0.00002059
     atom    2 type  1   force =    -0.00001429   -0.00001179   -0.00000710
     atom    3 type  1   force =    -0.00000961    0.00001565    0.00001400
     atom    4 type  2   force =     0.00045073    0.00002319   -0.00012930

     Total force =     0.000025     Total SCF correction =     0.000473
     SCF correction compared to forces is large: reduce conv_thr to get better values

     Computing stress (Cartesian axis) and pressure

     negative rho (up, down):  1.780E-01 0.000E+00
          total   stress  (Ry/bohr**3)                   (kbar)     P=      -81.25
   0.00020750   0.00122683   0.00000000           30.52      180.47        0.00
   0.00122683  -0.00046427   0.00000000          180.47      -68.30        0.00
   0.00000000   0.00000000  -0.00140030            0.00        0.00     -205.99

     kinetic stress (kbar)  17478.68    170.41      0.00
                              170.41  17385.46      0.00
                                0.00      0.00  17255.40

     local   stress (kbar)    513.74   1260.01     -0.01
                             1260.01   -175.90     -0.02
                               -0.01     -0.02  -1137.34

     nonloc. stress (kbar)  -1215.96    -16.40     -0.00
                              -16.40  -1207.07     -0.00
                               -0.00     -0.00  -1194.58

     hartree stress (kbar)   7114.70   -544.51     -0.01
                             -544.51   7412.71     -0.00
                               -0.01     -0.00   7828.23

     exc-cor stress (kbar)   9548.83      0.72      0.00
                                0.72   9548.44      0.00
                                0.00      0.00   9547.89

     corecor stress (kbar) -14952.06     -0.48     -0.00
                               -0.48 -14951.80     -0.00
                               -0.00     -0.00 -14951.43

     ewald   stress (kbar) -18457.43   -689.28      0.00
                             -689.28 -18080.15      0.00
                                0.00      0.00 -17554.16

     hubbard stress (kbar)      0.00      0.00      0.00
                                0.00      0.00      0.00
                                0.00      0.00      0.00

     DFT-D   stress (kbar)      0.00      0.00      0.00
                                0.00      0.00      0.00
                                0.00      0.00      0.00

     XDM     stress (kbar)      0.00      0.00      0.00
                                0.00      0.00      0.00
                                0.00      0.00      0.00

     dft-nl  stress (kbar)      0.00      0.00      0.00
                                0.00      0.00      0.00
                                0.00      0.00      0.00

     TS-vdW  stress (kbar)      0.00      0.00      0.00
                                0.00      0.00      0.00
                                0.00      0.00      0.00

[...]

                                0.00      0.00      0.00

     Writing all to output data dir calculations/myprefix.save/

     General routines

     Parallel routines

   This run was terminated on:  18: 1: 7   4Mar2023

   JOB DONE.