     Program PWSCF v.7.0 starts on  3Mar2023 at  3:16:41

     R & G space division:  proc/nbgrp/npool/nimage =      32

     Reading input from espresso_13025.pwi
Warning: card &CELL ignored
Warning: card / ignored

     Current dimensions of program PWSCF are:
     Max number of different atomic species (ntypx) = 10
     Max number of k-points (npk) =  40000
     Max angular momentum in pseudopotentials (lmaxx) =  4

     gamma-point specific algorithms are used
     Message from routine setup:
     using ibrav=0 with symmetry is DISCOURAGED, use correct ibrav instead

     Using Slab Decomposition

     bravais-lattice index     =            0
     lattice parameter (alat)  =      16.2535  a.u.
     unit-cell volume          =    2501.8132 (a.u.)^3
     number of atoms/cell      =           18
     number of atomic types    =            3
     number of electrons       =       250.00
     number of Kohn-Sham states=          150
     kinetic-energy cutoff     =      30.0000  Ry
     charge density cutoff     =     240.0000  Ry
     scf convergence threshold =      1.0E-06
     mixing beta               =       0.7000
     number of iterations used =            8  plain     mixing
     Exchange-correlation=  SLA  PW   PBX  PBC
                           (   1   4   3   4   0   0   0)

     celldm(1)=  16.253501  celldm(2)=   0.000000  celldm(3)=   0.000000
     celldm(4)=   0.000000  celldm(5)=   0.000000  celldm(6)=   0.000000

     crystal axes: (cart. coord. in units of alat)
               a(1) = (   1.000000   0.000000   0.000000 )
               a(2) = (  -0.500000   0.866025   0.000000 )
               a(3) = (   0.000000   0.000000   0.672796 )

     reciprocal axes: (cart. coord. in units 2 pi/alat)
               b(1) = (  1.000000  0.577350  0.000000 )
               b(2) = (  0.000000  1.154701  0.000000 )
               b(3) = (  0.000000  0.000000  1.486334 )

     PseudoPot. # 1 for Hf read from file:
     /home/pragov/projects/rrg-bengioy-ad/pragov/crystal_structure_design/SSSP/Hf-sp.oncvpsp.upf
     MD5 check sum: 417ed15784afe83d2e06dacf143de3f8
     Pseudo is Norm-conserving + core correction, Zval = 12.0
     Generated using ONCVPSP code by D. R. Hamann
     Using radial grid of 1656 points,  8 beta functions with:
                l(1) =   0
                l(2) =   0
                l(3) =   1
                l(4) =   1
                l(5) =   2
                l(6) =   2
                l(7) =   3
                l(8) =   3

     PseudoPot. # 2 for Zn read from file:
     /home/pragov/projects/rrg-bengioy-ad/pragov/crystal_structure_design/SSSP/Zn_pbe_v1.uspp.F.UPF
     MD5 check sum: df62231357ef9e81f77b2b3087fa5675
     Pseudo is Ultrasoft, Zval = 20.0
     Generated by new atomic code, or converted to UPF format
     Using radial grid of  943 points,  6 beta functions with:
                l(1) =   0
                l(2) =   0
                l(3) =   1
                l(4) =   1
                l(5) =   2
                l(6) =   2
     Q(r) pseudized with  8 coefficients,  rinner =    1.100   1.100   1.100
                                                       1.100   1.100

     PseudoPot. # 3 for Sb read from file:
     /home/pragov/projects/rrg-bengioy-ad/pragov/crystal_structure_design/SSSP/sb_pbe_v1.4.uspp.F.UPF
     MD5 check sum: 9bc50dfb53373b713f5709b9110fe27f
     Pseudo is Ultrasoft + core correction, Zval = 15.0
     Generated by new atomic code, or converted to UPF format
     Using radial grid of  891 points,  6 beta functions with:
                l(1) =   0
                l(2) =   0
                l(3) =   1
                l(4) =   1
                l(5) =   2
                l(6) =   2
     Q(r) pseudized with  8 coefficients,  rinner =    1.350   1.350   1.350
                                                       1.350   1.350

     atomic species   valence    mass     pseudopotential
        Hf            12.00   178.49000     Hf( 1.00)
        Zn            20.00    65.38000     Zn( 1.00)
        Sb            15.00   121.76000     Sb( 1.00)

     24 Sym. Ops., with inversion, found (12 have fractional translation)

                                    s                        frac. trans.

      isym =  1     identity

 cryst.   s( 1) = (     1          0          0      )
                  (     0          1          0      )
                  (     0          0          1      )

 cart.    s( 1) = (  1.0000000  0.0000000  0.0000000 )
                  (  0.0000000  1.0000000  0.0000000 )
                  (  0.0000000  0.0000000  1.0000000 )

      isym =  2     180 deg rotation - cart. axis [0,0,1]

 cryst.   s( 2) = (    -1          0          0      )    f =(  0.0000000 )
                  (     0         -1          0      )       (  0.0000000 )
                  (     0          0          1      )       ( -0.5000000 )

 cart.    s( 2) = ( -1.0000000 -0.0000000  0.0000000 )    f =( -0.0000000 )
                  (  0.0000000 -1.0000000  0.0000000 )       (  0.0000000 )
                  (  0.0000000  0.0000000  1.0000000 )       ( -0.3363981 )

[...]

      isym =  4     180 deg rotation - cart. axis [1,0,0]

[...]

      isym =  5      60 deg rotation - cryst. axis [0,0,1]

[...]

 cryst.   s( 6) = (     0         -1          0      )    f =(  0.0000000 )
                  (     1          1          0      )       (  0.0000000 )
                  (     0          0          1      )       ( -0.5000000 )

 cart.    s( 6) = (  0.5000000  0.8660254  0.0000000 )    f =( -0.0000000 )
                  ( -0.8660254  0.5000000  0.0000000 )       (  0.0000000 )
                  (  0.0000000  0.0000000  1.0000000 )       ( -0.3363981 )

[...]

 cryst.   s( 9) = (     0         -1          0      )
                  (    -1          0          0      )
                  (     0          0         -1      )

 cart.    s( 9) = (  0.5000000 -0.8660254  0.0000000 )
                  ( -0.8660254 -0.5000000  0.0000000 )
                  (  0.0000000  0.0000000 -1.0000000 )

[...]

 cryst.   s(10) = (     1          1          0      )
                  (     0         -1          0      )
                  (     0          0         -1      )

 cart.    s(10) = (  0.5000000  0.8660254  0.0000000 )
                  (  0.8660254 -0.5000000  0.0000000 )
                  (  0.0000000  0.0000000 -1.0000000 )

[...]

 cryst.   s(11) = (    -1         -1          0      )    f =(  0.0000000 )
                  (     0          1          0      )       (  0.0000000 )
                  (     0          0         -1      )       ( -0.5000000 )

 cart.    s(11) = ( -0.5000000 -0.8660254  0.0000000 )    f =(  0.0000000 )
                  ( -0.8660254  0.5000000  0.0000000 )       (  0.0000000 )
                  (  0.0000000  0.0000000 -1.0000000 )       ( -0.3363981 )

      isym = 12     180 deg rotation - cryst. axis [1,1,0]

[...]

      isym = 13     inversion

[...]

      isym = 14     inv. 180 deg rotation - cart. axis [0,0,1]

[...]

      isym = 16     inv. 180 deg rotation - cart. axis [1,0,0]

[...]

      isym = 17     inv.  60 deg rotation - cryst. axis [0,0,1]

[...]

 cryst.   s(22) = (    -1         -1          0      )
                  (     0          1          0      )
                  (     0          0          1      )

 cart.    s(22) = ( -0.5000000 -0.8660254  0.0000000 )
                  ( -0.8660254  0.5000000  0.0000000 )
                  (  0.0000000  0.0000000  1.0000000 )

[...]

      isym = 24     inv. 180 deg rotation - cryst. axis [1,1,0]

 cryst.   s(24) = (     0         -1          0      )    f =(  0.0000000 )
                  (    -1          0          0      )       (  0.0000000 )
                  (     0          0          1      )       ( -0.5000000 )

 cart.    s(24) = (  0.5000000 -0.8660254  0.0000000 )    f =(  0.0000000 )
                  ( -0.8660254 -0.5000000  0.0000000 )       (  0.0000000 )
                  (  0.0000000  0.0000000  1.0000000 )       ( -0.3363981 )

   Cartesian axes

     site n.     atom                  positions (alat units)
         1           Hf  tau(   1) = (   0.3654440   0.6329676   0.1681990  )
         2           Hf  tau(   2) = (   0.7308880   0.0000000   0.5045971  )
         3           Hf  tau(   3) = (   0.8654440   0.2330578   0.1681990  )
         4           Hf  tau(   4) = (   0.6345560   0.6329676   0.5045971  )
         5           Hf  tau(   5) = (   0.1345560   0.2330578   0.5045971  )
         6           Hf  tau(   6) = (   0.2691120   0.0000000   0.1681990  )
         7           Hf  tau(   7) = (  -0.0000005   0.5773506   0.3363981  )
         8           Hf  tau(   8) = (   0.5000005   0.2886748   0.0000000  )
         9           Hf  tau(   9) = (   0.5000005   0.2886748   0.3363981  )
        10           Hf  tau(  10) = (  -0.0000005   0.5773506   0.0000000  )
        11           Zn  tau(  11) = (   0.0000000   0.0000000   0.0000000  )
        12           Zn  tau(  12) = (   0.0000000   0.0000000   0.3363981  )
        13           Sb  tau(  13) = (   0.3860410   0.0000000   0.5045971  )
        14           Sb  tau(  14) = (   0.1930205   0.3343213   0.1681990  )
        15           Sb  tau(  15) = (   0.6930205   0.5317041   0.1681990  )
        16           Sb  tau(  16) = (   0.8069795   0.3343213   0.5045971  )
        17           Sb  tau(  17) = (   0.3069795   0.5317041   0.5045971  )
        18           Sb  tau(  18) = (   0.6139590   0.0000000   0.1681990  )

   Crystallographic axes

     site n.     atom                  positions (cryst. coord.)
         1           Hf  tau(   1) = (  0.7308880  0.7308880  0.2500000  )
         2           Hf  tau(   2) = (  0.7308880  0.0000000  0.7500000  )
         3           Hf  tau(   3) = (  1.0000000  0.2691120  0.2500000  )
         4           Hf  tau(   4) = (  1.0000000  0.7308880  0.7500000  )
         5           Hf  tau(   5) = (  0.2691120  0.2691120  0.7500000  )
         6           Hf  tau(   6) = (  0.2691120  0.0000000  0.2500000  )
         7           Hf  tau(   7) = (  0.3333330  0.6666670  0.5000000  )
         8           Hf  tau(   8) = (  0.6666670  0.3333330  0.0000000  )
         9           Hf  tau(   9) = (  0.6666670  0.3333330  0.5000000  )
        10           Hf  tau(  10) = (  0.3333330  0.6666670  0.0000000  )
        11           Zn  tau(  11) = (  0.0000000  0.0000000  0.0000000  )
        12           Zn  tau(  12) = (  0.0000000  0.0000000  0.5000000  )
        13           Sb  tau(  13) = (  0.3860410  0.0000000  0.7500000  )
        14           Sb  tau(  14) = (  0.3860410  0.3860410  0.2500000  )
        15           Sb  tau(  15) = (  1.0000000  0.6139590  0.2500000  )
        16           Sb  tau(  16) = (  1.0000000  0.3860410  0.7500000  )
        17           Sb  tau(  17) = (  0.6139590  0.6139590  0.7500000  )
        18           Sb  tau(  18) = (  0.6139590  0.0000000  0.2500000  )

     number of k points=     1  Methfessel-Paxton smearing, width (Ry)=  0.0010
                       cart. coord. in units 2pi/alat
        k(    1) = (   0.0000000   0.0000000   0.0000000), wk =   2.0000000

                       cryst. coord.
[...]
     Starting wfcs are  180 randomized atomic wfcs

     Self-consistent Calculation

     iteration #  1     ecut=    30.00 Ry     beta= 0.70
     Davidson diagonalization with overlap

     ethr =  1.00E-02,  avg # of iterations =  3.0

     total energy              =   -2952.74555942 Ry
     estimated scf accuracy    <     246.78118703 Ry

[...]

     total energy              =   -3160.99877485 Ry
     estimated scf accuracy    <       0.00000183 Ry

     iteration # 25     ecut=    30.00 Ry     beta= 0.70
     Davidson diagonalization with overlap

     ethr =  4.18E-10,  avg # of iterations =  3.0

     End of self-consistent calculation

          k = 0.0000 0.0000 0.0000 (  3469 PWs)   bands (ev):

  -110.6451-110.6429 -64.7347 -64.7347 -64.7223 -64.7223 -64.6923 -64.6863
   -46.8614 -46.8605 -46.8597 -46.8525 -46.8518 -46.8401 -46.3136 -46.3131
   -46.2707 -46.2639 -15.6893 -15.6887 -15.6875 -15.6645 -15.6639 -15.6527
   -15.6261 -15.6056 -15.6028 -15.6021 -15.5975 -15.5968 -15.5512 -15.5212
   -15.5205 -15.4672 -15.4665 -15.4304 -15.4250 -15.4228 -15.1677 -15.1676
   -15.1650 -15.1649 -15.0734 -15.0734 -15.0639 -15.0638 -14.4766 -14.4688
   -13.7169 -13.7153 -13.7149 -13.7129 -13.7129 -13.7117 -13.7018 -13.7018
   -13.7013 -13.7009 -13.6969 -13.6918 -13.6789 -13.6773 -13.6768 -13.6502
   -13.6423 -13.6408 -13.6403 -13.6329 -13.6324 -13.6284 -13.6234 -13.6185
   -13.6180 -13.6148 -13.6142 -13.6047 -13.6041 -13.6012   3.6429   4.9836
     4.9840   5.7759   5.7763   6.0946   8.1298   8.2581   8.2581   8.4592
     8.4592   8.4690   8.4690   8.6879   8.6879   8.7267   9.0992   9.1859
    10.1559  10.3416  10.3419  11.0893  11.0894  11.3796  11.3800  11.7744
    11.7746  11.9900  12.2282  12.3952  12.3953  12.9793  12.9797  12.9894
    13.2045  13.2658  13.4013  13.5221  13.9710  13.9713  14.5525  14.5528
    14.6098  14.8228  14.8232  15.0619  15.1651  15.1652  15.7679  15.7680
    17.1173  17.1198  17.2635  17.3689  17.3689  17.3751  17.4701  17.4704
    17.5014  17.7138  17.7140  17.8014  17.8017  18.3345  18.3668  18.3671
    18.3750  18.3752  18.4120  18.4123  18.7840  18.7963

     occupation numbers
     1.0000   1.0000   1.0000   1.0000   1.0000   1.0000   1.0000   1.0000
     1.0000   1.0000   1.0000   1.0000   1.0000   1.0000   1.0000   1.0000
     1.0000   1.0000   1.0000   1.0000   1.0000   1.0000   1.0000   1.0000
     1.0000   1.0000   1.0000   1.0000   1.0000   1.0000   1.0000   1.0000
     1.0000   1.0000   1.0000   1.0000   1.0000   1.0000   1.0000   1.0000
     1.0000   1.0000   1.0000   1.0000   1.0000   1.0000   1.0000   1.0000
     1.0000   1.0000   1.0000   1.0000   1.0000   1.0000   1.0000   1.0000
     1.0000   1.0000   1.0000   1.0000   1.0000   1.0000   1.0000   1.0000
     1.0000   1.0000   1.0000   1.0000   1.0000   1.0000   1.0000   1.0000
     1.0000   1.0000   1.0000   1.0000   1.0000   1.0000   1.0000   1.0000
     1.0000   1.0000   1.0000   1.0000   1.0000   1.0000   1.0000   1.0000
     1.0000   1.0000   1.0000   1.0000   1.0000   1.0000   1.0000   1.0000
     1.0000   1.0000   1.0000   1.0000   1.0000   1.0000   1.0000   1.0000
     1.0000   1.0000   1.0000   1.0000   1.0000   1.0000   1.0000   1.0000
     1.0000   1.0000   1.0000   1.0000   1.0000   1.0000   1.0000   1.0000
     1.0000   1.0000   1.0000   1.0000   0.5030   0.4970  -0.0000  -0.0000
    -0.0000  -0.0000  -0.0000  -0.0000  -0.0000  -0.0000  -0.0000  -0.0000
    -0.0000  -0.0000  -0.0000  -0.0000  -0.0000  -0.0000  -0.0000  -0.0000
    -0.0000  -0.0000  -0.0000  -0.0000  -0.0000  -0.0000

     the Fermi energy is    15.1652 ev

!    total energy              =   -3160.99877450 Ry
     estimated scf accuracy    <       0.00000089 Ry
     smearing contrib. (-TS)   =      -0.00056417 Ry
     internal energy E=F+TS    =   -3160.99821033 Ry

     The total energy is F=E-TS. E is the sum of the following terms:
     one-electron contribution =   -1458.33703079 Ry
     hartree contribution      =     857.42711852 Ry
     xc contribution           =    -634.82133466 Ry
     ewald contribution        =   -1925.26696340 Ry

     convergence has been achieved in  25 iterations

     Forces acting on atoms (cartesian axes, Ry/au):

     atom    1 type  1   force =     0.01951103    0.03379410    0.00000000
     atom    2 type  1   force =     0.03902207    0.00000000    0.00000000
     atom    3 type  1   force =     0.01951103   -0.03379410    0.00000000
     atom    4 type  1   force =    -0.01951103    0.03379410    0.00000000
     atom    5 type  1   force =    -0.01951103   -0.03379410    0.00000000
     atom    6 type  1   force =    -0.03902207   -0.00000000    0.00000000
     atom    7 type  1   force =    -0.00000000    0.00000000    0.00000000
     atom    8 type  1   force =     0.00000000   -0.00000000    0.00000000
     atom    9 type  1   force =     0.00000000   -0.00000000    0.00000000
     atom   10 type  1   force =    -0.00000000    0.00000000    0.00000000
     atom   11 type  2   force =     0.00000000    0.00000000    0.00000000
     atom   12 type  2   force =    -0.00000000   -0.00000000    0.00000000
     atom   13 type  3   force =    -0.00239339   -0.00000000   -0.00000000
     atom   14 type  3   force =    -0.00119670   -0.00207274    0.00000000
     atom   15 type  3   force =    -0.00119670    0.00207274   -0.00000000
     atom   16 type  3   force =     0.00119670   -0.00207274   -0.00000000
     atom   17 type  3   force =     0.00119670    0.00207274   -0.00000000
     atom   18 type  3   force =     0.00239339    0.00000000    0.00000000
     The non-local contrib.  to forces
     atom    1 type  1   force =    -0.02355289   -0.04079481   -0.00000000
     atom    2 type  1   force =    -0.04710579   -0.00000000    0.00000000
     atom    3 type  1   force =    -0.02355289    0.04079481   -0.00000000
     atom    4 type  1   force =     0.02355289   -0.04079481    0.00000000
     atom    5 type  1   force =     0.02355289    0.04079481    0.00000000
     atom    6 type  1   force =     0.04710579    0.00000000    0.00000000
     atom    7 type  1   force =    -0.00000000   -0.00000000    0.00000000
     atom    8 type  1   force =     0.00000000   -0.00000000    0.00000000
     atom    9 type  1   force =    -0.00000000    0.00000000    0.00000000
     atom   10 type  1   force =    -0.00000000    0.00000000    0.00000000
     atom   11 type  2   force =     0.00000000    0.00000000    0.00000000
     atom   12 type  2   force =     0.00000000    0.00000000    0.00000000
     atom   13 type  3   force =    -0.06895643   -0.00000000   -0.00000000
     atom   14 type  3   force =    -0.03447822   -0.05971802    0.00000000
     atom   15 type  3   force =    -0.03447822    0.05971802   -0.00000000
     atom   16 type  3   force =     0.03447822   -0.05971802    0.00000000
     atom   17 type  3   force =     0.03447822    0.05971802    0.00000000
     atom   18 type  3   force =     0.06895643    0.00000000    0.00000000
     The ionic contribution  to forces
     atom    1 type  1   force =    -7.33782360  -12.70948345    0.00000000
     atom    2 type  1   force =   -14.67556685   -0.00004645   -0.00000000
     atom    3 type  1   force =    -7.33774333   12.70943685    0.00000000
     atom    4 type  1   force =     7.33774333  -12.70943685   -0.00000000
     atom    5 type  1   force =     7.33782360   12.70948345   -0.00000000
     atom    6 type  1   force =    14.67556685    0.00004645    0.00000000
     atom    7 type  1   force =     0.00011439   -0.00006604    0.00000000
     atom    8 type  1   force =    -0.00011439    0.00006604    0.00000000
     atom    9 type  1   force =    -0.00011439    0.00006604   -0.00000000
     atom   10 type  1   force =     0.00011439   -0.00006604   -0.00000000
     atom   11 type  2   force =    -0.00000000   -0.00000000   -0.00000000
     atom   12 type  2   force =    -0.00000000   -0.00000000    0.00000000
     atom   13 type  3   force =     6.80413571    0.00005555   -0.00000000
     atom   14 type  3   force =     3.40211601    5.89263785    0.00000000
     atom   15 type  3   force =     3.40201981   -5.89258212    0.00000000
     atom   16 type  3   force =    -3.40201981    5.89258212   -0.00000000
     atom   17 type  3   force =    -3.40211601   -5.89263785   -0.00000000
     atom   18 type  3   force =    -6.80413571   -0.00005555    0.00000000
     The local contribution  to forces
     atom    1 type  1   force =     7.37910727   12.78143194   -0.00005274
     atom    2 type  1   force =    14.75788362    0.00083651    0.00004477
     atom    3 type  1   force =     7.37833307  -12.78075031   -0.00004056
     atom    4 type  1   force =    -7.37811717   12.78079696    0.00004387
     atom    5 type  1   force =    -7.37964481  -12.78107341    0.00005173
     atom    6 type  1   force =   -14.75788126   -0.00069056   -0.00004740
     atom    7 type  1   force =    -0.00073694    0.00014007    0.00021548
     atom    8 type  1   force =     0.00093012   -0.00053667   -0.00025031
     atom    9 type  1   force =     0.00094410   -0.00054143    0.00025027
     atom   10 type  1   force =    -0.00072838    0.00013530   -0.00021359
     atom   11 type  2   force =    -0.00027780    0.00057745   -0.00046334
     atom   12 type  2   force =    -0.00027747    0.00058210    0.00046229
     atom   13 type  3   force =    -6.73766512   -0.00061636    0.00004599
     atom   14 type  3   force =    -3.36940891   -5.83515680   -0.00006049
     atom   15 type  3   force =    -3.36791251    5.83522306   -0.00004123
     atom   16 type  3   force =     3.36869119   -5.83563207    0.00003829
     atom   17 type  3   force =     3.36842449    5.83519085    0.00005971
     atom   18 type  3   force =     6.73804833    0.00062330   -0.00004269
     The core correction contribution to forces
     atom    1 type  1   force =     0.00178337    0.00309441   -0.00000013
     atom    2 type  1   force =     0.00355191    0.00001947    0.00000014
     atom    3 type  1   force =     0.00175826   -0.00308279    0.00000004
     atom    4 type  1   force =    -0.00175887    0.00308084    0.00000001
     atom    5 type  1   force =    -0.00178735   -0.00309286    0.00000006
     atom    6 type  1   force =    -0.00355146   -0.00001442   -0.00000014
     atom    7 type  1   force =    -0.00002200    0.00001530    0.00000184
     atom    8 type  1   force =     0.00002194   -0.00001812   -0.00000271
     atom    9 type  1   force =     0.00002232   -0.00001823    0.00000270
     atom   10 type  1   force =    -0.00002190    0.00001508   -0.00000171
     atom   11 type  2   force =     0.00000000    0.00000000    0.00000000
     atom   12 type  2   force =     0.00000000    0.00000000    0.00000000
     atom   13 type  3   force =     0.00049944    0.00000549    0.00000027
     atom   14 type  3   force =     0.00024840    0.00043588   -0.00000051
     atom   15 type  3   force =     0.00024441   -0.00043647   -0.00000018
     atom   16 type  3   force =    -0.00024422    0.00043339    0.00000015
     atom   17 type  3   force =    -0.00024994   -0.00043667    0.00000044
     atom   18 type  3   force =    -0.00049702   -0.00000324   -0.00000020
     The Hubbard contrib.    to forces
     atom    1 type  1   force =     0.00000000    0.00000000    0.00000000
     atom    2 type  1   force =     0.00000000    0.00000000    0.00000000
     atom    3 type  1   force =     0.00000000    0.00000000    0.00000000
     atom    4 type  1   force =     0.00000000    0.00000000    0.00000000
     atom    5 type  1   force =     0.00000000    0.00000000    0.00000000
     atom    6 type  1   force =     0.00000000    0.00000000    0.00000000
     atom    7 type  1   force =     0.00000000    0.00000000    0.00000000
     atom    8 type  1   force =     0.00000000    0.00000000    0.00000000
     atom    9 type  1   force =     0.00000000    0.00000000    0.00000000
     atom   10 type  1   force =     0.00000000    0.00000000    0.00000000
     atom   11 type  2   force =     0.00000000    0.00000000    0.00000000
     atom   12 type  2   force =     0.00000000    0.00000000    0.00000000
     atom   13 type  3   force =     0.00000000    0.00000000    0.00000000
     atom   14 type  3   force =     0.00000000    0.00000000    0.00000000
     atom   15 type  3   force =     0.00000000    0.00000000    0.00000000
     atom   16 type  3   force =     0.00000000    0.00000000    0.00000000
     atom   17 type  3   force =     0.00000000    0.00000000    0.00000000
     atom   18 type  3   force =     0.00000000    0.00000000    0.00000000
     The SCF correction term to forces
     atom    1 type  1   force =    -0.00001033   -0.00039515    0.00005224
     atom    2 type  1   force =     0.00022737   -0.00067756   -0.00004376
     atom    3 type  1   force =     0.00055864   -0.00026575    0.00003966
     atom    4 type  1   force =    -0.00078601    0.00020472   -0.00004326
     atom    5 type  1   force =     0.00056016    0.00002576   -0.00005076
     atom    6 type  1   force =    -0.00023396    0.00055424    0.00004622
     atom    7 type  1   force =     0.00057298   -0.00001329   -0.00020413
     atom    8 type  1   force =    -0.00077538    0.00041027    0.00023695
     atom    9 type  1   force =    -0.00078826    0.00041480   -0.00023665
     atom   10 type  1   force =     0.00056456   -0.00000937    0.00020274
     atom   11 type  2   force =     0.00031996   -0.00064331    0.00052442
     atom   12 type  2   force =     0.00032345   -0.00065456   -0.00051919
     atom   13 type  3   force =    -0.00049805    0.00062031   -0.00004645
     atom   14 type  3   force =     0.00040550   -0.00016857    0.00006141
     atom   15 type  3   force =    -0.00116254    0.00014587    0.00004053
     atom   16 type  3   force =     0.00034940    0.00026077   -0.00003682
     atom   17 type  3   force =     0.00062163    0.00013007   -0.00006065
     atom   18 type  3   force =     0.00009990   -0.00062086    0.00004176

     Total force =     0.095764     Total SCF correction =     0.003098

     Computing stress (Cartesian axis) and pressure

          total   stress  (Ry/bohr**3)                   (kbar)     P=     -333.11
  -0.00213644  -0.00000000   0.00000000         -314.28       -0.00        0.00
  -0.00000000  -0.00213644  -0.00000000           -0.00     -314.28       -0.00
  -0.00000000   0.00000000  -0.00252047           -0.00        0.00     -370.77

     kinetic stress (kbar)  22848.26      0.00      0.00
                                0.00  22848.26      0.00
                                0.00      0.00  23077.50

     local   stress (kbar)   4185.67      0.50      0.00
                                0.50   4186.47     -0.00
                                0.00     -0.00  -6213.04

     nonloc. stress (kbar)   5078.52      0.00      0.00
                                0.00   5078.52     -0.00
                               -0.00      0.00   5142.40

     hartree stress (kbar)  15050.75     -0.50     -0.00
                               -0.50  15049.97     -0.00
                               -0.00     -0.00  20315.46

     exc-cor stress (kbar)   9394.13     -0.00      0.00
                               -0.00   9394.13      0.00
                                0.00      0.00   9398.50

     corecor stress (kbar) -17541.34     -0.00     -0.00
                               -0.00 -17541.34     -0.00
                               -0.00     -0.00 -17547.66

     ewald   stress (kbar) -39330.28     -0.01     -0.00
                               -0.01 -39330.29      0.00
                               -0.00      0.00 -34543.94

     hubbard stress (kbar)      0.00      0.00      0.00
                                0.00      0.00      0.00
                                0.00      0.00      0.00

     DFT-D   stress (kbar)      0.00      0.00      0.00
                                0.00      0.00      0.00
                                0.00      0.00      0.00

     XDM     stress (kbar)      0.00      0.00      0.00
                                0.00      0.00      0.00
                                0.00      0.00      0.00

     dft-nl  stress (kbar)      0.00      0.00      0.00
                                0.00      0.00      0.00
                                0.00      0.00      0.00

     TS-vdW  stress (kbar)      0.00      0.00      0.00
                                0.00      0.00      0.00
                                0.00      0.00      0.00

[...]

                                0.00      0.00      0.00

     Writing all to output data dir calculations/myprefix.save/

     General routines

     Parallel routines

   This run was terminated on:   3:16:58   3Mar2023

   JOB DONE.