     Program PWSCF v.7.0 starts on  6Mar2023 at 10: 2:13

     R & G space division:  proc/nbgrp/npool/nimage =      32

     Reading input from espresso_4218.pwi
Warning: card &CELL ignored
Warning: card / ignored

     Current dimensions of program PWSCF are:
     Max number of different atomic species (ntypx) = 10
     Max number of k-points (npk) =  40000
     Max angular momentum in pseudopotentials (lmaxx) =  4
     file Ga.pbe-dn-kjpaw_psl.1.0.0.UPF: wavefunction(s)  4S renormalized

     gamma-point specific algorithms are used
     Message from routine setup:
     using ibrav=0 with symmetry is DISCOURAGED, use correct ibrav instead

     Using Slab Decomposition

     bravais-lattice index     =            0
     lattice parameter (alat)  =      10.1949  a.u.
     unit-cell volume          =     798.1038 (a.u.)^3
     number of atoms/cell      =            7
     number of atomic types    =            3
     number of electrons       =        88.00
     number of Kohn-Sham states=           53
     kinetic-energy cutoff     =      30.0000  Ry
     charge density cutoff     =     240.0000  Ry
     scf convergence threshold =      1.0E-06
     mixing beta               =       0.7000
     number of iterations used =            8  plain     mixing
     Exchange-correlation= SLA  PW   PBX  PBC
                           (   1   4   3   4   0   0   0)

     celldm(1)=  10.194888  celldm(2)=   0.000000  celldm(3)=   0.000000
     celldm(4)=   0.000000  celldm(5)=   0.000000  celldm(6)=   0.000000

     crystal axes: (cart. coord. in units of alat)
               a(1) = (   1.000000   0.000000   0.000000 )
               a(2) = (  -0.486562   0.873646   0.000000 )
               a(3) = (  -0.256719  -0.436823   0.862137 )

     reciprocal axes: (cart. coord. in units 2 pi/alat)
               b(1) = (  1.000000  0.556933  0.579954 )
               b(2) = (  0.000000  1.144628  0.579954 )
               b(3) = (  0.000000  0.000000  1.159908 )

     PseudoPot. # 1 for Zr read from file:
     /home/pragov/projects/rrg-bengioy-ad/pragov/crystal_structure_design/SSSP/Zr_pbe_v1.uspp.F.UPF
     MD5 check sum: 5db81b1e868ab7776c4564c113de050b
     Pseudo is Ultrasoft + core correction, Zval = 12.0
     Generated by new atomic code, or converted to UPF format
     Using radial grid of  887 points,  6 beta functions with:
                l(1) =   0
                l(2) =   0
                l(3) =   1
                l(4) =   1
                l(5) =   2
                l(6) =   2
     Q(r) pseudized with  6 coefficients,  rinner =    1.200   1.200   1.200
                                                       1.200   1.200

     PseudoPot. # 2 for Ti read from file:
     /home/pragov/projects/rrg-bengioy-ad/pragov/crystal_structure_design/SSSP/ti_pbe_v1.4.uspp.F.UPF
     MD5 check sum: 88a00a6731bd790ddea75d31a80cb452
     Pseudo is Ultrasoft + core correction, Zval = 12.0
     Generated by new atomic code, or converted to UPF format
     Using radial grid of  851 points,  6 beta functions with:
                l(1) =   0
                l(2) =   0
                l(3) =   1
                l(4) =   1
                l(5) =   2
                l(6) =   2
     Q(r) pseudized with  6 coefficients,  rinner =    1.000   1.000   1.000
                                                       1.000   1.000

     PseudoPot. # 3 for Ga read from file:
     /home/pragov/projects/rrg-bengioy-ad/pragov/crystal_structure_design/SSSP/Ga.pbe-dn-kjpaw_psl.1.0.0.UPF
     MD5 check sum: a27b4342b1af7e5f338de752e9ed7044
     Pseudo is Projector augmented-wave + core cor, Zval = 13.0
     Generated using "atomic" code by A. Dal Corso  v.5.1
     Shape of augmentation charge: PSQ
     Using radial grid of 1205 points,  6 beta functions with:
                l(1) =   0
                l(2) =   0
                l(3) =   1
                l(4) =   1
                l(5) =   2
                l(6) =   2
     Q(r) pseudized with 0 coefficients

     atomic species   valence    mass     pseudopotential
        Zr            12.00    91.22400     Zr( 1.00)
        Ti            12.00    47.86700     Ti( 1.00)
        Ga            13.00    69.72300     Ga( 1.00)

      4 Sym. Ops., with inversion, found

                                    s                        frac. trans.

      isym =  1     identity

 cryst.   s( 1) = (     1          0          0      )
                  (     0          1          0      )
                  (     0          0          1      )

 cart.    s( 1) = (  1.0000000 -0.0000000  0.0000000 )
                  (  0.0000000  1.0000000  0.0000000 )
                  (  0.0000000  0.0000000  1.0000000 )

      isym =  2     180 deg rotation - cart. axis [0,0,1]

[...]

      isym =  3     inversion

[...]

      isym =  4     inv. 180 deg rotation - cart. axis [0,0,1]

 cryst.   s( 4) = (     1          0          0      )
                  (     0          1          0      )
                  (    -1         -1         -1      )

 cart.    s( 4) = (  1.0000000 -0.0000000  0.0000000 )
                  (  0.0000000  1.0000000  0.0000000 )
                  (  0.0000000  0.0000000 -1.0000000 )

   Cartesian axes

     site n.     atom                  positions (alat units)
         1           Zr  tau(   1) = (   0.0000000   0.0000000   0.0000000  )
         2           Ti  tau(   2) = (  -0.2432810   0.4368230   0.4310687  )
         3           Ti  tau(   3) = (   0.5000000  -0.0000000   0.4310687  )
         4           Ga  tau(   4) = (   0.0000003   0.0000004   0.5233304  )
         5           Ga  tau(   5) = (   0.2567187   0.4368226   0.3388071  )
         6           Ga  tau(   6) = (   0.5488165   0.2651586   0.0000000  )
         7           Ga  tau(   7) = (  -0.0353786   0.6084875   0.0000000  )

   Crystallographic axes

     site n.     atom                  positions (cryst. coord.)
         1           Zr  tau(   1) = (  0.0000000  0.0000000  0.0000000  )
         2           Ti  tau(   2) = (  0.2500000  0.7500000  0.5000000  )
         3           Ti  tau(   3) = (  0.7500000  0.2500000  0.5000000  )
         4           Ga  tau(   4) = (  0.3035080  0.3035080  0.6070150  )
         5           Ga  tau(   5) = (  0.6964920  0.6964920  0.3929850  )
         6           Ga  tau(   6) = (  0.6964920  0.3035080  0.0000000  )
         7           Ga  tau(   7) = (  0.3035080  0.6964920  0.0000000  )

     number of k points=     1  Methfessel-Paxton smearing, width (Ry)=  0.0010
                       cart. coord. in units 2pi/alat
        k(    1) = (   0.0000000   0.0000000   0.0000000), wk =   2.0000000

                       cryst. coord.
        k(    1) = (   0.0000000   0.0000000   0.0000000), wk =   2.0000000

     Check: negative core charge=   -0.000004

     Initial potential from superposition of free atoms

     starting charge      85.9859, renormalised to      88.0000

     negative rho (up, down):  6.695E-02 0.000E+00
     Starting wfcs are   69 randomized atomic wfcs
     Checking if some PAW data can be deallocated...

     Self-consistent Calculation

     iteration #  1     ecut=    30.00 Ry     beta= 0.70
     Davidson diagonalization with overlap

     ethr =  1.00E-02,  avg # of iterations =  2.0

     negative rho (up, down):  6.304E-02 0.000E+00

     total energy              =   -1444.59705994 Ry
     estimated scf accuracy    <       7.12624042 Ry

[...]

     total energy              =   -1449.49849337 Ry
     estimated scf accuracy    <       0.00000320 Ry

     iteration # 13     ecut=    30.00 Ry     beta= 0.70
     Davidson diagonalization with overlap

     ethr =  3.64E-09,  avg # of iterations =  4.0

[...]

     End of self-consistent calculation

          k = 0.0000 0.0000 0.0000 (  1097 PWs)   bands (ev):

   -44.1159 -44.0433 -36.0699 -20.5312 -20.5232 -20.4582 -20.4524 -20.3293
   -19.7390 -14.1852 -14.0784 -14.0362  -1.6024  -1.5776  -1.5610  -1.5343
    -1.4950  -1.4915  -1.4780  -1.4328  -1.4261  -1.4046  -1.3763  -1.3717
    -1.3652  -1.3193  -1.3128  -1.2848  -1.2479  -1.2157  -1.2038  -1.1147
     2.9318   7.1136   8.3667   8.3681  10.2974  10.5190  10.5225  11.5401
    11.5451  11.5503  12.3042  12.4040  12.7270  14.1134  14.5467  14.8586
    15.3284  15.3322  15.8602  15.8678  16.4765

     occupation numbers
     1.0000   1.0000   1.0000   1.0000   1.0000   1.0000   1.0000   1.0000
     1.0000   1.0000   1.0000   1.0000   1.0000   1.0000   1.0000   1.0000
     1.0000   1.0000   1.0000   1.0000   1.0000   1.0000   1.0000   1.0000
     1.0000   1.0000   1.0000   1.0000   1.0000   1.0000   1.0000   1.0000
     1.0000   1.0000   1.0000   1.0000   1.0000   1.0000   1.0000   1.0000
     1.0000   1.0000   1.0000   1.0000  -0.0000  -0.0000  -0.0000  -0.0000
    -0.0000  -0.0000  -0.0000  -0.0000  -0.0000

     the Fermi energy is    12.5708 ev

!    total energy              =   -1449.49849380 Ry
     estimated scf accuracy    <       0.00000069 Ry
     smearing contrib. (-TS)   =       0.00000000 Ry
     internal energy E=F+TS    =   -1449.49849380 Ry

     The total energy is F=E-TS. E is the sum of the following terms:
     one-electron contribution =    -442.54226211 Ry
     hartree contribution      =     294.95384540 Ry
     xc contribution           =    -206.48604886 Ry
     ewald contribution        =    -651.89991159 Ry
     one-center paw contrib.   =    -443.52411664 Ry
      -> PAW hartree energy AE =       0.00000000 Ry
      -> PAW hartree energy PS =       0.00000000 Ry
      -> PAW xc energy AE      =       0.00000000 Ry
      -> PAW xc energy PS      =       0.00000000 Ry
      -> total E_H with PAW    =     294.95384540 Ry
      -> total E_XC with PAW   =    -206.48604886 Ry

     convergence has been achieved in  13 iterations

     negative rho (up, down):  6.466E-02 0.000E+00

     Forces acting on atoms (cartesian axes, Ry/au):

     atom    1 type  1   force =     0.00000000    0.00000000    0.00000000
     atom    2 type  2   force =     0.00000000    0.00000000    0.00157029
     atom    3 type  2   force =     0.00000000    0.00000000   -0.00157029
     atom    4 type  3   force =     0.00000000    0.00000000    0.01620978
     atom    5 type  3   force =     0.00000000    0.00000000   -0.01620978
     atom    6 type  3   force =    -0.01396938    0.00732738   -0.00000000
     atom    7 type  3   force =     0.01396938   -0.00732738    0.00000000
     The non-local contrib.  to forces
     atom    1 type  1   force =     0.00000000    0.00000000    0.00000000
     atom    2 type  2   force =     0.00000000    0.00000000    0.00061013
     atom    3 type  2   force =     0.00000000    0.00000000   -0.00061013
     atom    4 type  3   force =     0.00000000    0.00000000    0.03932257
     atom    5 type  3   force =     0.00000000    0.00000000   -0.03932257
     atom    6 type  3   force =    -0.03468133    0.01782972   -0.00000000
     atom    7 type  3   force =     0.03468133   -0.01782972    0.00000000
     The ionic contribution  to forces
     atom    1 type  1   force =     0.00000000   -0.00000000    0.00000000
     atom    2 type  2   force =    -0.00004100    0.00002410   -0.00000000
     atom    3 type  2   force =     0.00004100   -0.00002410   -0.00000000
     atom    4 type  3   force =    -0.00003733   -0.00006353   -1.32643885
     atom    5 type  3   force =     0.00003734    0.00006353    1.32643885
     atom    6 type  3   force =     1.14358321   -0.67207882    0.00000000
     atom    7 type  3   force =    -1.14358321    0.67207883    0.00000000
     The local contribution  to forces
     atom    1 type  1   force =    -0.00004720    0.00014818    0.00002547
     atom    2 type  2   force =    -0.00144362    0.00026582    0.00106675
     atom    3 type  2   force =     0.00167164   -0.00043996   -0.00100460
     atom    4 type  3   force =    -0.00013279    0.00186390    1.30302597
     atom    5 type  3   force =     0.00015169   -0.00150430   -1.30338794
     atom    6 type  3   force =    -1.12282129    0.66223260    0.00056797
     atom    7 type  3   force =     1.12310166   -0.66187471   -0.00036040
     The core correction contribution to forces
     atom    1 type  1   force =    -0.00000056    0.00000275    0.00000087
     atom    2 type  2   force =    -0.00006645    0.00007709   -0.00002982
     atom    3 type  2   force =     0.00007029   -0.00008013    0.00003237
     atom    4 type  3   force =    -0.00004164    0.00003222   -0.00075255
     atom    5 type  3   force =     0.00004584   -0.00002299    0.00074296
     atom    6 type  3   force =     0.00069223   -0.00034446    0.00007759
     atom    7 type  3   force =    -0.00068528    0.00035663   -0.00007054
     The Hubbard contrib.    to forces
     atom    1 type  1   force =     0.00000000    0.00000000    0.00000000
     atom    2 type  2   force =     0.00000000    0.00000000    0.00000000
     atom    3 type  2   force =     0.00000000    0.00000000    0.00000000
     atom    4 type  3   force =     0.00000000    0.00000000    0.00000000
     atom    5 type  3   force =     0.00000000    0.00000000    0.00000000
     atom    6 type  3   force =     0.00000000    0.00000000    0.00000000
     atom    7 type  3   force =     0.00000000    0.00000000    0.00000000
     The SCF correction term to forces
     atom    1 type  1   force =     0.00004037   -0.00011597   -0.00003735
     atom    2 type  2   force =    -0.00006418    0.00008848   -0.00006310
     atom    3 type  2   force =    -0.00017874    0.00009890    0.00002576
     atom    4 type  3   force =     0.00000747   -0.00020336    0.00115939
     atom    5 type  3   force =    -0.00012922   -0.00037070   -0.00057433
     atom    6 type  3   force =    -0.00080937   -0.00040845    0.00027251
     atom    7 type  3   force =     0.00038773   -0.00015519   -0.00065928

     Total force =     0.032064     Total SCF correction =     0.001857

     Computing stress (Cartesian axis) and pressure

     negative rho (up, down):  6.466E-02 0.000E+00
          total   stress  (Ry/bohr**3)                   (kbar)     P=      -22.20
  -0.00007493  -0.00035768  -0.00000000          -11.02      -52.62       -0.00
  -0.00035768  -0.00051140  -0.00000000          -52.62      -75.23       -0.00
  -0.00000000  -0.00000000   0.00013356           -0.00       -0.00       19.65

     kinetic stress (kbar)  16724.29    116.50      0.00
                              116.50  16856.96      0.00
                                0.00      0.00  16648.79

     local   stress (kbar)   6076.16   2167.36      0.16
                             2167.36   8489.82     -0.37
                                0.16     -0.37   4803.59

     nonloc. stress (kbar)   7410.30    -18.42      0.00
                              -18.42   7381.92      0.00
                                0.00      0.00   7425.43

     hartree stress (kbar)  18273.95   -870.42     -0.81
                             -870.42  17304.59      0.38
                               -0.81      0.38  18786.82

     exc-cor stress (kbar)   4518.27      1.55     -0.04
                                1.55   4519.99      0.03
                               -0.04      0.03   4517.47

     corecor stress (kbar) -13215.90      0.42      0.17
                                0.42 -13215.75     -0.01
                                0.17     -0.01 -13216.29

     ewald   stress (kbar) -39798.10  -1449.61     -0.01
                            -1449.61 -41412.76     -0.02
                               -0.01     -0.02 -38946.17

     hubbard stress (kbar)      0.00      0.00      0.00
                                0.00      0.00      0.00
                                0.00      0.00      0.00

     DFT-D   stress (kbar)      0.00      0.00      0.00
                                0.00      0.00      0.00
                                0.00      0.00      0.00

     XDM     stress (kbar)      0.00      0.00      0.00
                                0.00      0.00      0.00
                                0.00      0.00      0.00

     dft-nl  stress (kbar)      0.00      0.00      0.00
                                0.00      0.00      0.00
                                0.00      0.00      0.00

     TS-vdW  stress (kbar)      0.00      0.00      0.00
                                0.00      0.00      0.00
                                0.00      0.00      0.00

[...]

                                0.00      0.00      0.00

     Writing all to output data dir calculations/myprefix.save/

     General routines

     Parallel routines

     PAW routines

   This run was terminated on:  10: 2:16   6Mar2023

   JOB DONE.