     Program PWSCF v.7.0 starts on  6Mar2023 at 10:53: 0

     R & G space division:  proc/nbgrp/npool/nimage =      32

     Reading input from espresso_4356.pwi
Warning: card &CELL ignored
Warning: card / ignored

     Current dimensions of program PWSCF are:
     Max number of different atomic species (ntypx) = 10
     Max number of k-points (npk) =  40000
     Max angular momentum in pseudopotentials (lmaxx) =  4
     file O.pbe-n-kjpaw_psl.0.1.UPF: wavefunction(s)  2P renormalized

     gamma-point specific algorithms are used
     Message from routine setup:
     using ibrav=0 with symmetry is DISCOURAGED, use correct ibrav instead

     Using Slab Decomposition

     bravais-lattice index     =            0
     lattice parameter (alat)  =      10.3921  a.u.
     unit-cell volume          =    1353.7142 (a.u.)^3
     number of atoms/cell      =           14
     number of atomic types    =            2
     number of electrons       =       120.00
     number of Kohn-Sham states=           72
     kinetic-energy cutoff     =      30.0000  Ry
     charge density cutoff     =     240.0000  Ry
     scf convergence threshold =      1.0E-06
     mixing beta               =       0.7000
     number of iterations used =            8  plain     mixing
     Exchange-correlation= SLA  PW   PBX  PBC
                           (   1   4   3   4   0   0   0)

     celldm(1)=  10.392145  celldm(2)=   0.000000  celldm(3)=   0.000000
     celldm(4)=   0.000000  celldm(5)=   0.000000  celldm(6)=   0.000000

     crystal axes: (cart. coord. in units of alat)
               a(1) = (   1.000000   0.000000   0.000000 )
               a(2) = (  -0.735493   0.677532   0.000000 )
               a(3) = (   0.000000   0.000000   1.780251 )

     reciprocal axes: (cart. coord. in units 2 pi/alat)
               b(1) = (  1.000000  1.085546  0.000000 )
               b(2) = (  0.000000  1.475944  0.000000 )
               b(3) = (  0.000000  0.000000  0.561718 )

     PseudoPot. # 1 for Sb read from file:
     /home/pragov/projects/rrg-bengioy-ad/pragov/crystal_structure_design/SSSP/sb_pbe_v1.4.uspp.F.UPF
     MD5 check sum: 9bc50dfb53373b713f5709b9110fe27f
     Pseudo is Ultrasoft + core correction, Zval = 15.0
     Generated by new atomic code, or converted to UPF format
     Using radial grid of  891 points,  6 beta functions with:
                l(1) =   0
                l(2) =   0
                l(3) =   1
                l(4) =   1
                l(5) =   2
                l(6) =   2
     Q(r) pseudized with  8 coefficients,  rinner =    1.350   1.350   1.350
                                                       1.350   1.350

     PseudoPot. # 2 for O  read from file:
     /home/pragov/projects/rrg-bengioy-ad/pragov/crystal_structure_design/SSSP/O.pbe-n-kjpaw_psl.0.1.UPF
     MD5 check sum: 0234752ac141de4415c5fc33072bef88
     Pseudo is Projector augmented-wave + core cor, Zval =  6.0
     Generated using "atomic" code by A. Dal Corso  v.5.0.99 svn rev. 10869
     Shape of augmentation charge: BESSEL
     Using radial grid of 1095 points,  4 beta functions with:
                l(1) =   0
                l(2) =   0
                l(3) =   1
                l(4) =   1
     Q(r) pseudized with 0 coefficients

     atomic species   valence    mass     pseudopotential
        Sb            15.00   121.76000     Sb( 1.00)
        O              6.00    15.99900     O ( 1.00)

      4 Sym. Ops., with inversion, found ( 2 have fractional translation)

                                    s                        frac. trans.

      isym =  1     identity

 cryst.   s( 1) = (     1          0          0      )
                  (     0          1          0      )
                  (     0          0          1      )

 cart.    s( 1) = (  1.0000000  0.0000000  0.0000000 )
                  (  0.0000000  1.0000000  0.0000000 )
                  (  0.0000000  0.0000000  1.0000000 )

      isym =  2     180 deg rotation - cart. axis [0,0,1]

 cryst.   s( 2) = (    -1          0          0      )    f =( -0.0000000 )
                  (     0         -1          0      )       (  0.0000000 )
                  (     0          0          1      )       (  0.5000000 )

 cart.    s( 2) = ( -1.0000000 -0.0000000  0.0000000 )    f =( -0.0000000 )
                  (  0.0000000 -1.0000000  0.0000000 )       (  0.0000000 )
                  (  0.0000000  0.0000000  1.0000000 )       (  0.8901256 )

      isym =  3     inversion

 cryst.   s( 3) = (    -1          0          0      )
                  (     0         -1          0      )
                  (     0          0         -1      )

 cart.    s( 3) = ( -1.0000000 -0.0000000  0.0000000 )
                  (  0.0000000 -1.0000000  0.0000000 )
                  (  0.0000000  0.0000000 -1.0000000 )

      isym =  4     inv. 180 deg rotation - cart. axis [0,0,1]

 cryst.   s( 4) = (     1          0          0      )    f =(  0.0000000 )
                  (     0          1          0      )       (  0.0000000 )
                  (     0          0         -1      )       (  0.5000000 )

 cart.    s( 4) = (  1.0000000  0.0000000  0.0000000 )    f =(  0.0000000 )
                  (  0.0000000  1.0000000  0.0000000 )       (  0.0000000 )
                  (  0.0000000  0.0000000 -1.0000000 )       (  0.8901256 )

   Cartesian axes

     site n.     atom                  positions (alat units)
         1           Sb  tau(   1) = (   0.3660574   0.2474897   1.0040902  )
         2           Sb  tau(   2) = (  -0.1015503   0.4300427   0.7761611  )
         3           Sb  tau(   3) = (  -0.1015503   0.4300427   0.1139646  )
         4           Sb  tau(   4) = (   0.3660574   0.2474897   1.6662867  )
         5           O   tau(   5) = (   0.4927397   0.1980333   1.3351884  )
         6           O   tau(   6) = (   0.0460135   0.3724342   1.1040851  )
         7           O   tau(   7) = (  -0.4160823   0.5528353   0.9529169  )
         8           O   tau(   8) = (   0.6805895   0.1246971   0.8273344  )
         9           O   tau(   9) = (   0.2184937   0.3050983   0.6761661  )
        10           O   tau(  10) = (  -0.2282326   0.4794992   0.4450628  )
        11           O   tau(  11) = (   0.2184937   0.3050983   0.2139595  )
        12           O   tau(  12) = (   0.0460135   0.3724342   1.5662917  )
        13           O   tau(  13) = (   0.6805895   0.1246971   0.0627912  )
        14           O   tau(  14) = (  -0.4160823   0.5528353   1.7174600  )

   Crystallographic axes

     site n.     atom                  positions (cryst. coord.)
         1           Sb  tau(   1) = (  0.6347190  0.3652810  0.5640160  )
         2           Sb  tau(   2) = (  0.3652810  0.6347190  0.4359840  )
         3           Sb  tau(   3) = (  0.3652810  0.6347190  0.0640160  )
         4           Sb  tau(   4) = (  0.6347190  0.3652810  0.9359840  )
         5           O   tau(   5) = (  0.7077140  0.2922860  0.7500000  )
         6           O   tau(   6) = (  0.4503080  0.5496920  0.6201850  )
         7           O   tau(   7) = (  0.1840460  0.8159540  0.5352710  )
         8           O   tau(   8) = (  0.8159540  0.1840460  0.4647290  )
         9           O   tau(   9) = (  0.5496920  0.4503080  0.3798150  )
        10           O   tau(  10) = (  0.2922860  0.7077140  0.2500000  )
        11           O   tau(  11) = (  0.5496920  0.4503080  0.1201850  )
        12           O   tau(  12) = (  0.4503080  0.5496920  0.8798150  )
        13           O   tau(  13) = (  0.8159540  0.1840460  0.0352710  )
        14           O   tau(  14) = (  0.1840460  0.8159540  0.9647290  )

     number of k points=     1  Methfessel-Paxton smearing, width (Ry)=  0.0010
                       cart. coord. in units 2pi/alat
        k(    1) = (   0.0000000   0.0000000   0.0000000), wk =   2.0000000

                       cryst. coord.
        k(    1) = (   0.0000000   0.0000000   0.0000000), wk =   2.0000000

     Check: negative core charge=   -0.000012

     Initial potential from superposition of free atoms

     starting charge     115.9999, renormalised to     120.0000
     Starting wfcs are   76 randomized atomic wfcs
     Checking if some PAW data can be deallocated...

     Self-consistent Calculation

     iteration #  1     ecut=    30.00 Ry     beta= 0.70
     Davidson diagonalization with overlap

     ethr =  1.00E-02,  avg # of iterations =  5.0

     total energy              =   -1153.62908591 Ry
     estimated scf accuracy    <       3.93956936 Ry

[...]

     total energy              =   -1155.41737996 Ry
     estimated scf accuracy    <       0.00000405 Ry

     iteration # 12     ecut=    30.00 Ry     beta= 0.70
     Davidson diagonalization with overlap

     ethr =  3.37E-09,  avg # of iterations =  2.0

     End of self-consistent calculation

          k = 0.0000 0.0000 0.0000 (  1880 PWs)   bands (ev):

   -22.7493 -22.7166 -22.7157 -22.7131 -22.7127 -22.6566 -22.6059 -22.5770
   -22.5770 -22.5719 -22.5269 -22.5233 -22.5036 -22.4955 -22.4921 -22.4839
   -22.4836 -22.4799 -22.4378 -22.4352 -13.7154 -13.4466 -11.8094 -11.2733
   -11.0753 -10.9707 -10.9534 -10.7266  -9.9862  -9.9127  -2.9546  -1.8840
    -0.4205  -0.4124  -0.3079   0.6135   1.0342   1.1203   1.3706   1.4487
     1.6662   2.4682   2.5207   2.9256   3.7849   3.8310   4.4356   4.5550
     4.5602   4.6461   4.7314   4.9356   4.9590   5.1312   5.1797   5.2339
     5.3851   5.5735   5.8544   6.5471   6.8967   9.0746   9.6848  11.1181
    12.3829  13.3862  13.7852  14.7055  14.9933  14.9984  15.1657  15.2444

     occupation numbers
     1.0000   1.0000   1.0000   1.0000   1.0000   1.0000   1.0000   1.0000
     1.0000   1.0000   1.0000   1.0000   1.0000   1.0000   1.0000   1.0000
     1.0000   1.0000   1.0000   1.0000   1.0000   1.0000   1.0000   1.0000
     1.0000   1.0000   1.0000   1.0000   1.0000   1.0000   1.0000   1.0000
     1.0000   1.0000   1.0000   1.0000   1.0000   1.0000   1.0000   1.0000
     1.0000   1.0000   1.0000   1.0000   1.0000   1.0000   1.0000   1.0000
     1.0000   1.0000   1.0000   1.0000   1.0000   1.0000   1.0000   1.0000
     1.0000   1.0000   1.0000   1.0000  -0.0000  -0.0000  -0.0000  -0.0000
    -0.0000  -0.0000  -0.0000  -0.0000  -0.0000  -0.0000  -0.0000  -0.0000

     the Fermi energy is     6.7109 ev

!    total energy              =   -1155.41738054 Ry
     estimated scf accuracy    <       0.00000022 Ry
     smearing contrib. (-TS)   =       0.00000000 Ry
     internal energy E=F+TS    =   -1155.41738054 Ry

     The total energy is F=E-TS. E is the sum of the following terms:
     one-electron contribution =    -566.65726384 Ry
     hartree contribution      =     353.91943399 Ry
     xc contribution           =    -251.22712119 Ry
     ewald contribution        =    -596.13863781 Ry
     one-center paw contrib.   =     -95.31379169 Ry
      -> PAW hartree energy AE =       0.00000000 Ry
      -> PAW hartree energy PS =       0.00000000 Ry
      -> PAW xc energy AE      =       0.00000000 Ry
      -> PAW xc energy PS      =       0.00000000 Ry
      -> total E_H with PAW    =     353.91943399 Ry
      -> total E_XC with PAW   =    -251.22712119 Ry

     convergence has been achieved in  12 iterations

     Forces acting on atoms (cartesian axes, Ry/au):

     atom    1 type  1   force =     0.04515304   -0.01762975   -0.03248743
     atom    2 type  1   force =    -0.04515304    0.01762975    0.03248743
     atom    3 type  1   force =    -0.04515304    0.01762975   -0.03248743
     atom    4 type  1   force =     0.04515304   -0.01762975    0.03248743
     atom    5 type  2   force =     0.00630571   -0.00246178    0.00000000
     atom    6 type  2   force =    -0.01032043    0.00402858    0.02497966
     atom    7 type  2   force =    -0.03434382    0.01340779    0.00349580
     atom    8 type  2   force =     0.03434382   -0.01340779   -0.00349580
     atom    9 type  2   force =     0.01032043   -0.00402858   -0.02497966
     atom   10 type  2   force =    -0.00630571    0.00246178    0.00000000
     atom   11 type  2   force =     0.01032043   -0.00402858    0.02497966
     atom   12 type  2   force =    -0.01032043    0.00402858   -0.02497966
     atom   13 type  2   force =     0.03434382   -0.01340779    0.00349580
     atom   14 type  2   force =    -0.03434382    0.01340779   -0.00349580
     The non-local contrib.  to forces
     atom    1 type  1   force =     0.29682512   -0.11588135    0.08068446
     atom    2 type  1   force =    -0.29682512    0.11588135   -0.08068446
     atom    3 type  1   force =    -0.29682512    0.11588135    0.08068446
     atom    4 type  1   force =     0.29682512   -0.11588135   -0.08068446
     atom    5 type  2   force =    -1.38156152    0.53935860    0.00000000
     atom    6 type  2   force =     0.70206122   -0.27408345   -1.46814798
     atom    7 type  2   force =     0.55864119   -0.21809186   -0.18070053
     atom    8 type  2   force =    -0.55864119    0.21809186    0.18070053
     atom    9 type  2   force =    -0.70206122    0.27408345    1.46814798
     atom   10 type  2   force =     1.38156152   -0.53935860    0.00000000
     atom   11 type  2   force =    -0.70206122    0.27408345   -1.46814798
     atom   12 type  2   force =     0.70206122   -0.27408345    1.46814798
     atom   13 type  2   force =    -0.55864119    0.21809186   -0.18070053
     atom   14 type  2   force =     0.55864119   -0.21809186    0.18070053
     The ionic contribution  to forces
     atom    1 type  1   force =    -2.02099361    0.78899131    6.60592060
     atom    2 type  1   force =     2.02099361   -0.78899131   -6.60592060
     atom    3 type  1   force =     2.02099361   -0.78899131    6.60592060
     atom    4 type  1   force =    -2.02099361    0.78899131   -6.60592060
     atom    5 type  2   force =     6.96760591   -2.72013750    0.00000000
     atom    6 type  2   force =    -4.35164880    1.69887380   12.60004330
     atom    7 type  2   force =    -4.05822267    1.58432090    2.63912211
     atom    8 type  2   force =     4.05822267   -1.58432090   -2.63912211
     atom    9 type  2   force =     4.35164880   -1.69887380  -12.60004330
     atom   10 type  2   force =    -6.96760591    2.72013750   -0.00000000
     atom   11 type  2   force =     4.35164880   -1.69887380   12.60004330
     atom   12 type  2   force =    -4.35164880    1.69887380  -12.60004330
     atom   13 type  2   force =     4.05822267   -1.58432090    2.63912211
     atom   14 type  2   force =    -4.05822267    1.58432090   -2.63912211
     The local contribution  to forces
     atom    1 type  1   force =     1.76982134   -0.69093308   -6.71849029
     atom    2 type  1   force =    -1.77010341    0.69103799    6.71860887
     atom    3 type  1   force =    -1.77012098    0.69104587   -6.71856382
     atom    4 type  1   force =     1.76981629   -0.69092972    6.71848156
     atom    5 type  2   force =    -5.59440571    2.18403904   -0.00001326
     atom    6 type  2   force =     3.64618785   -1.42346959  -11.12205747
     atom    7 type  2   force =     3.47199638   -1.35546415   -2.45697440
     atom    8 type  2   force =    -3.47183918    1.35540512    2.45712125
     atom    9 type  2   force =    -3.64623214    1.42348492   11.12193850
     atom   10 type  2   force =     5.59494819   -2.18425711   -0.00000608
     atom   11 type  2   force =    -3.64619119    1.42346933  -11.12189937
     atom   12 type  2   force =     3.64621912   -1.42347863   11.12206480
     atom   13 type  2   force =    -3.47183797    1.35540458   -2.45711924
     atom   14 type  2   force =     3.47196473   -1.35545188    2.45696668
     The core correction contribution to forces
     atom    1 type  1   force =    -0.00085363    0.00033323   -0.00098422
     atom    2 type  1   force =     0.00085486   -0.00033384    0.00099104
     atom    3 type  1   force =     0.00085358   -0.00033339   -0.00098898
     atom    4 type  1   force =    -0.00085283    0.00033301    0.00098403
     atom    5 type  2   force =     0.01524038   -0.00594983   -0.00000000
     atom    6 type  2   force =    -0.00708032    0.00276414    0.01506089
     atom    7 type  2   force =    -0.00671000    0.00261954    0.00205042
     atom    8 type  2   force =     0.00670960   -0.00261939   -0.00204776
     atom    9 type  2   force =     0.00708237   -0.00276492   -0.01506386
     atom   10 type  2   force =    -0.01523399    0.00594730   -0.00000012
     atom   11 type  2   force =     0.00708256   -0.00276499    0.01506424
     atom   12 type  2   force =    -0.00708012    0.00276406   -0.01506042
     atom   13 type  2   force =     0.00670968   -0.00261941    0.00204777
     atom   14 type  2   force =    -0.00671014    0.00261961   -0.00205025
     The Hubbard contrib.    to forces
     atom    1 type  1   force =     0.00000000    0.00000000    0.00000000
     atom    2 type  1   force =     0.00000000    0.00000000    0.00000000
     atom    3 type  1   force =     0.00000000    0.00000000    0.00000000
     atom    4 type  1   force =     0.00000000    0.00000000    0.00000000
     atom    5 type  2   force =     0.00000000    0.00000000    0.00000000
     atom    6 type  2   force =     0.00000000    0.00000000    0.00000000
     atom    7 type  2   force =     0.00000000    0.00000000    0.00000000
     atom    8 type  2   force =     0.00000000    0.00000000    0.00000000
     atom    9 type  2   force =     0.00000000    0.00000000    0.00000000
     atom   10 type  2   force =     0.00000000    0.00000000    0.00000000
     atom   11 type  2   force =     0.00000000    0.00000000    0.00000000
     atom   12 type  2   force =     0.00000000    0.00000000    0.00000000
     atom   13 type  2   force =     0.00000000    0.00000000    0.00000000
     atom   14 type  2   force =     0.00000000    0.00000000    0.00000000
     The SCF correction term to forces
     atom    1 type  1   force =     0.00036213   -0.00014273    0.00039323
     atom    2 type  1   force =    -0.00006130    0.00003098   -0.00048106
     atom    3 type  1   force =    -0.00003193    0.00001843    0.00044292
     atom    4 type  1   force =     0.00038365   -0.00015356   -0.00040562
     atom    5 type  2   force =    -0.00038985    0.00015573    0.00001549
     atom    6 type  2   force =     0.00023203   -0.00008397   -0.00000763
     atom    7 type  2   force =    -0.00006418    0.00002889    0.00008897
     atom    8 type  2   force =    -0.00012765    0.00004317   -0.00005829
     atom    9 type  2   force =    -0.00004389    0.00001328   -0.00004155
     atom   10 type  2   force =     0.00020799   -0.00007950    0.00000217
     atom   11 type  2   force =    -0.00009196    0.00003219    0.00001268
     atom   12 type  2   force =     0.00019580   -0.00007328   -0.00000151
     atom   13 type  2   force =    -0.00012216    0.00004110    0.00005242
     atom   14 type  2   force =    -0.00003382    0.00001816   -0.00008258

     Total force =     0.148945     Total SCF correction =     0.001217

     Computing stress (Cartesian axis) and pressure

          total   stress  (Ry/bohr**3)                   (kbar)     P=     -436.82
  -0.00368931   0.00069681   0.00000000         -542.72      102.50        0.00
   0.00069681  -0.00217646   0.00000000          102.50     -320.17        0.00
   0.00000000   0.00000000  -0.00304254            0.00        0.00     -447.57

     kinetic stress (kbar)  22565.93    300.64      0.00
                              300.64  23218.66      0.00
                                0.00      0.00  22681.33

     local   stress (kbar) -20087.46   5102.15      0.00
                             5102.15  -9010.23     -0.00
                                0.00     -0.00  -1616.06

     nonloc. stress (kbar)   1953.88    -21.00      0.00
                              -21.00   1908.29      0.00
                                0.00      0.00   1995.69

     hartree stress (kbar)  16834.03  -1938.49     -0.00
                            -1938.49  12625.39      0.00
                               -0.00      0.00   9000.22

     exc-cor stress (kbar)   4250.26     -3.13      0.00
                               -3.13   4243.46     -0.00
                                0.00     -0.00   4249.22

     corecor stress (kbar) -10447.91      0.40      0.00
                                0.40 -10447.04     -0.00
                                0.00     -0.00 -10447.08

     ewald   stress (kbar) -15611.44  -3338.07     -0.00
                            -3338.07 -22858.70     -0.00
                               -0.00     -0.00 -26310.90

     hubbard stress (kbar)      0.00      0.00      0.00
                                0.00      0.00      0.00
                                0.00      0.00      0.00

     DFT-D   stress (kbar)      0.00      0.00      0.00
                                0.00      0.00      0.00
                                0.00      0.00      0.00

     XDM     stress (kbar)      0.00      0.00      0.00
                                0.00      0.00      0.00
                                0.00      0.00      0.00

     dft-nl  stress (kbar)      0.00      0.00      0.00
                                0.00      0.00      0.00
                                0.00      0.00      0.00

     TS-vdW  stress (kbar)      0.00      0.00      0.00
                                0.00      0.00      0.00
                                0.00      0.00      0.00

[...]

                                0.00      0.00      0.00

     Writing all to output data dir calculations/myprefix.save/

     General routines

     Parallel routines

     PAW routines

   This run was terminated on:  10:53: 2   6Mar2023

   JOB DONE.