     Program PWSCF v.7.0 starts on  3Mar2023 at 11:58:34

     R & G space division:  proc/nbgrp/npool/nimage =      32

     Reading input from espresso_181.pwi
Warning: card &CELL ignored
Warning: card / ignored

     Current dimensions of program PWSCF are:
     Max number of different atomic species (ntypx) = 10
     Max number of k-points (npk) =  40000
     Max angular momentum in pseudopotentials (lmaxx) =  4

     gamma-point specific algorithms are used
     Message from routine setup:
     using ibrav=0 with symmetry is DISCOURAGED, use correct ibrav instead

     Using Slab Decomposition

     bravais-lattice index     =            0
     lattice parameter (alat)  =       8.8287  a.u.
     unit-cell volume          =    1335.4759 (a.u.)^3
     number of atoms/cell      =           18
     number of atomic types    =            3
     number of electrons       =       166.00
     number of Kohn-Sham states=          100
     kinetic-energy cutoff     =      30.0000  Ry
     charge density cutoff     =     240.0000  Ry
     scf convergence threshold =      1.0E-06
     mixing beta               =       0.7000
     number of iterations used =            8  plain     mixing
     Exchange-correlation=  SLA  PW   PBX  PBC
                           (   1   4   3   4   0   0   0)

     celldm(1)=   8.828689  celldm(2)=   0.000000  celldm(3)=   0.000000
     celldm(4)=   0.000000  celldm(5)=   0.000000  celldm(6)=   0.000000

     crystal axes: (cart. coord. in units of alat)
               a(1) = (   1.000000   0.000000   0.000000 )
               a(2) = (   0.000000   1.000000   0.000000 )
               a(3) = (   0.000000   0.000000   1.940651 )

     reciprocal axes: (cart. coord. in units 2 pi/alat)
               b(1) = (  1.000000  0.000000  0.000000 )
               b(2) = (  0.000000  1.000000  0.000000 )
               b(3) = (  0.000000  0.000000  0.515291 )

     PseudoPot. # 1 for Li read from file:
     /home/pragov/projects/rrg-bengioy-ad/pragov/crystal_structure_design/SSSP/li_pbe_v1.4.uspp.F.UPF
     MD5 check sum: e912e257baa3777c20ea3d68f190483c
     Pseudo is Ultrasoft, Zval =  3.0
     Generated by new atomic code, or converted to UPF format
     Using radial grid of  751 points,  5 beta functions with:
                l(1) =   0
                l(2) =   0
                l(3) =   0
                l(4) =   1
                l(5) =   1
     Q(r) pseudized with 10 coefficients,  rinner =    1.150   1.150   1.150

     PseudoPot. # 2 for Cu read from file:
     /home/pragov/projects/rrg-bengioy-ad/pragov/crystal_structure_design/SSSP/Cu_pbe_v1.2.uspp.F.UPF
     MD5 check sum: 6e991ff952a84172a2a52a1c1e996048
     Pseudo is Ultrasoft + core correction, Zval = 19.0
     Generated by new atomic code, or converted to UPF format
     Using radial grid of  867 points,  6 beta functions with:
                l(1) =   0
                l(2) =   0
                l(3) =   1
                l(4) =   1
                l(5) =   2
                l(6) =   2
     Q(r) pseudized with  8 coefficients,  rinner =    1.150   1.150   1.150
                                                       1.150   1.150

     PseudoPot. # 3 for F  read from file:
     /home/pragov/projects/rrg-bengioy-ad/pragov/crystal_structure_design/SSSP/f_pbe_v1.4.uspp.F.UPF
     MD5 check sum: 4c38b6a325caf53ec0e86aed9459de46
     Pseudo is Ultrasoft, Zval =  7.0
     Generated by new atomic code, or converted to UPF format
     Using radial grid of  799 points,  4 beta functions with:
                l(1) =   0
                l(2) =   0
                l(3) =   1
                l(4) =   1
     Q(r) pseudized with  8 coefficients,  rinner =    0.950   0.950   0.950

     atomic species   valence    mass     pseudopotential
        Li             3.00     6.94000     Li( 1.00)
        Cu            19.00    63.54600     Cu( 1.00)
        F              7.00    18.99840     F ( 1.00)

     16 Sym. Ops., with inversion, found ( 8 have fractional translation)

                                    s                        frac. trans.

      isym =  1     identity

 cryst.   s( 1) = (     1          0          0      )
                  (     0          1          0      )
                  (     0          0          1      )

 cart.    s( 1) = (  1.0000000  0.0000000  0.0000000 )
                  (  0.0000000  1.0000000  0.0000000 )
                  (  0.0000000  0.0000000  1.0000000 )

      isym =  2     180 deg rotation - cart. axis [0,0,1]

[...]

 cryst.   s( 3) = (    -1          0          0      )    f =(  0.5000000 )
                  (     0          1          0      )       (  0.5000000 )
                  (     0          0         -1      )       (  0.5000000 )

 cart.    s( 3) = ( -1.0000000  0.0000000  0.0000000 )    f =(  0.5000000 )
                  (  0.0000000  1.0000000  0.0000000 )       (  0.5000000 )
                  (  0.0000000  0.0000000 -1.0000000 )       (  0.9703254 )

[...]

      isym =  8      90 deg rotation - cart. axis [0,0,1]

 cryst.   s( 8) = (     0          1          0      )    f =(  0.5000000 )
                  (    -1          0          0      )       (  0.5000000 )
                  (     0          0          1      )       ( -0.5000000 )

 cart.    s( 8) = (  0.0000000 -1.0000000  0.0000000 )    f =(  0.5000000 )
                  (  1.0000000  0.0000000  0.0000000 )       (  0.5000000 )
                  (  0.0000000  0.0000000  1.0000000 )       ( -0.9703254 )

      isym =  9     inversion

 cryst.   s( 9) = (    -1          0          0      )
                  (     0         -1          0      )
                  (     0          0         -1      )

 cart.    s( 9) = ( -1.0000000  0.0000000  0.0000000 )
                  (  0.0000000 -1.0000000  0.0000000 )
                  (  0.0000000  0.0000000 -1.0000000 )

      isym = 10     inv. 180 deg rotation - cart. axis [0,0,1]

 cryst.   s(10) = (     1          0          0      )
                  (     0          1          0      )
                  (     0          0         -1      )

 cart.    s(10) = (  1.0000000  0.0000000  0.0000000 )
                  (  0.0000000  1.0000000  0.0000000 )
                  (  0.0000000  0.0000000 -1.0000000 )

[...]

 cryst.   s(11) = (     1          0          0      )    f =(  0.5000000 )
                  (     0         -1          0      )       (  0.5000000 )
                  (     0          0          1      )       ( -0.5000000 )

 cart.    s(11) = (  1.0000000  0.0000000  0.0000000 )    f =(  0.5000000 )
                  (  0.0000000 -1.0000000  0.0000000 )       (  0.5000000 )
                  (  0.0000000  0.0000000  1.0000000 )       ( -0.9703254 )

[...]

 cryst.   s(14) = (     0          1          0      )
                  (     1          0          0      )
                  (     0          0          1      )

 cart.    s(14) = (  0.0000000  1.0000000  0.0000000 )
                  (  1.0000000  0.0000000  0.0000000 )
                  (  0.0000000  0.0000000  1.0000000 )

[...]

      isym = 16     inv.  90 deg rotation - cart. axis [0,0,1]

 cryst.   s(16) = (     0         -1          0      )    f =(  0.5000000 )
                  (     1          0          0      )       (  0.5000000 )
                  (     0          0         -1      )       (  0.5000000 )

 cart.    s(16) = (  0.0000000  1.0000000  0.0000000 )    f =(  0.5000000 )
                  ( -1.0000000  0.0000000  0.0000000 )       (  0.5000000 )
                  (  0.0000000  0.0000000 -1.0000000 )       (  0.9703254 )

   Cartesian axes

     site n.     atom                  positions (alat units)
         1           Li  tau(   1) = (   0.5000000   0.5000000   0.0000000  )
         2           Li  tau(   2) = (   0.0000000   0.0000000   0.9703254  )
         3           Cu  tau(   3) = (   0.5000000   0.5000000   1.2976938  )
         4           Cu  tau(   4) = (   0.5000000   0.5000000   0.6429570  )
         5           Cu  tau(   5) = (   0.0000000   0.0000000   1.6132824  )
         6           Cu  tau(   6) = (   0.0000000   0.0000000   0.3273684  )
         7           F   tau(   7) = (   0.6897190   0.3102810   0.9703254  )
         8           F   tau(   8) = (   0.6976400   0.3023600   1.6078622  )
         9           F   tau(   9) = (   0.6976400   0.3023600   0.3327886  )
        10           F   tau(  10) = (   0.8023600   0.8023600   1.3031140  )
        11           F   tau(  11) = (   0.8023600   0.8023600   0.6375368  )
        12           F   tau(  12) = (   0.8102810   0.8102810   0.0000000  )
        13           F   tau(  13) = (   0.1897190   0.1897190   0.0000000  )
        14           F   tau(  14) = (   0.1976400   0.1976400   1.3031140  )
        15           F   tau(  15) = (   0.1976400   0.1976400   0.6375368  )
        16           F   tau(  16) = (   0.3023600   0.6976400   0.3327886  )
        17           F   tau(  17) = (   0.3023600   0.6976400   1.6078622  )
        18           F   tau(  18) = (   0.3102810   0.6897190   0.9703254  )

   Crystallographic axes

     site n.     atom                  positions (cryst. coord.)
         1           Li  tau(   1) = (  0.5000000  0.5000000  0.0000000  )
         2           Li  tau(   2) = (  0.0000000  0.0000000  0.5000000  )
         3           Cu  tau(   3) = (  0.5000000  0.5000000  0.6686900  )
         4           Cu  tau(   4) = (  0.5000000  0.5000000  0.3313100  )
         5           Cu  tau(   5) = (  0.0000000  0.0000000  0.8313100  )
         6           Cu  tau(   6) = (  0.0000000  0.0000000  0.1686900  )
         7           F   tau(   7) = (  0.6897190  0.3102810  0.5000000  )
         8           F   tau(   8) = (  0.6976400  0.3023600  0.8285170  )
         9           F   tau(   9) = (  0.6976400  0.3023600  0.1714830  )
        10           F   tau(  10) = (  0.8023600  0.8023600  0.6714830  )
        11           F   tau(  11) = (  0.8023600  0.8023600  0.3285170  )
        12           F   tau(  12) = (  0.8102810  0.8102810  0.0000000  )
        13           F   tau(  13) = (  0.1897190  0.1897190  0.0000000  )
        14           F   tau(  14) = (  0.1976400  0.1976400  0.6714830  )
        15           F   tau(  15) = (  0.1976400  0.1976400  0.3285170  )
        16           F   tau(  16) = (  0.3023600  0.6976400  0.1714830  )
        17           F   tau(  17) = (  0.3023600  0.6976400  0.8285170  )
        18           F   tau(  18) = (  0.3102810  0.6897190  0.5000000  )

     number of k points=     1  Methfessel-Paxton smearing, width (Ry)=  0.0010
                       cart. coord. in units 2pi/alat
        k(    1) = (   0.0000000   0.0000000   0.0000000), wk =   2.0000000

                       cryst. coord.
        k(    1) = (   0.0000000   0.0000000   0.0000000), wk =   2.0000000

     Initial potential from superposition of free atoms

     starting charge     161.0985, renormalised to     166.0000
     Starting wfcs are  110 randomized atomic wfcs

     Self-consistent Calculation

     iteration #  1     ecut=    30.00 Ry     beta= 0.70
     Davidson diagonalization with overlap

     ethr =  1.00E-02,  avg # of iterations =  2.0

     total energy              =   -2225.94737589 Ry
     estimated scf accuracy    <       2.59090887 Ry

[...]

     total energy              =   -2227.43601492 Ry
     estimated scf accuracy    <       0.00005626 Ry

     iteration # 41     ecut=    30.00 Ry     beta= 0.70
     Davidson diagonalization with overlap

     ethr =  9.40E-10,  avg # of iterations =  1.0

     End of self-consistent calculation

          k = 0.0000 0.0000 0.0000 (  1863 PWs)   bands (ev):

  -108.6717-108.6703-108.6701-108.6690 -66.2807 -66.2780 -66.2751 -66.2729
   -65.9019 -65.9019 -65.8993 -65.8993 -65.8696 -65.8695 -65.8669 -65.8668
   -38.5733 -38.5725 -18.5898 -18.2960 -18.2569 -17.9002 -17.8366 -17.8364
   -17.7754 -17.7752 -17.7749 -17.7380 -17.7378 -17.7334  -2.3113  -2.0755
    -1.4605  -1.4353  -1.1362  -1.0251  -1.0251  -1.0027  -0.9618  -0.9617
    -0.6834  -0.6440  -0.5975  -0.1933  -0.1208  -0.0573  -0.0573   0.1132
     0.1231   0.1231   0.3400   0.3963   0.3963   0.4221   0.4519   0.4519
     0.9199   0.9200   1.2772   1.6110   1.6174   1.6174   1.6507   1.7832
     1.8965   1.8965   2.0247   2.1100   2.1318   2.1518   2.1710   2.2575
     2.2576   2.4127   2.6993   2.6994   2.7918   2.7926   3.0156   3.1381
     3.5070   3.5070   3.9336   3.9441   3.9441   4.1280   9.0254  11.1243
    12.1812  14.3860  14.3860  14.8022  15.7470  16.4429  16.5353  16.5354
    16.8919  16.8920  17.2195  17.2964

     occupation numbers
     1.0000   1.0000   1.0000   1.0000   1.0000   1.0000   1.0000   1.0000
     1.0000   1.0000   1.0000   1.0000   1.0000   1.0000   1.0000   1.0000
     1.0000   1.0000   1.0000   1.0000   1.0000   1.0000   1.0000   1.0000
     1.0000   1.0000   1.0000   1.0000   1.0000   1.0000   1.0000   1.0000
     1.0000   1.0000   1.0000   1.0000   1.0000   1.0000   1.0000   1.0000
     1.0000   1.0000   1.0000   1.0000   1.0000   1.0000   1.0000   1.0000
     1.0000   1.0000   1.0000   1.0000   1.0000   1.0000   1.0000   1.0000
     1.0000   1.0000   1.0000   1.0000   1.0000   1.0000   1.0000   1.0000
     1.0000   1.0000   1.0000   1.0000   1.0000   1.0000   1.0000   1.0000
     1.0000   1.0000   1.0000   1.0000   1.0000   1.0000   1.0000   1.0000
     1.0000   1.0000   0.7277   0.1362   0.1361  -0.0000  -0.0000  -0.0000
    -0.0000  -0.0000  -0.0000  -0.0000  -0.0000  -0.0000  -0.0000  -0.0000
    -0.0000  -0.0000  -0.0000  -0.0000

     the Fermi energy is     3.9374 ev

!    total energy              =   -2227.43601512 Ry
     estimated scf accuracy    <       0.00000023 Ry
     smearing contrib. (-TS)   =      -0.00045156 Ry
     internal energy E=F+TS    =   -2227.43556357 Ry

     The total energy is F=E-TS. E is the sum of the following terms:
     one-electron contribution =   -1830.49512815 Ry
     hartree contribution      =     984.55783135 Ry
     xc contribution           =    -273.56131126 Ry
     ewald contribution        =   -1107.93695550 Ry

     convergence has been achieved in  41 iterations

     Forces acting on atoms (cartesian axes, Ry/au):

     atom    1 type  1   force =     0.00000000    0.00000000    0.00000000
     atom    2 type  1   force =     0.00000000    0.00000000   -0.00000000
     atom    3 type  2   force =     0.00000000    0.00000000    0.01561219
     atom    4 type  2   force =     0.00000000    0.00000000   -0.01561219
     atom    5 type  2   force =     0.00000000    0.00000000   -0.01561219
     atom    6 type  2   force =     0.00000000    0.00000000    0.01561219
     atom    7 type  3   force =    -0.00690189    0.00690189    0.00000000
     atom    8 type  3   force =     0.00283276   -0.00283276   -0.00021382
     atom    9 type  3   force =     0.00283276   -0.00283276    0.00021382
     atom   10 type  3   force =    -0.00283276   -0.00283276    0.00021382
     atom   11 type  3   force =    -0.00283276   -0.00283276   -0.00021382
     atom   12 type  3   force =     0.00690189    0.00690189    0.00000000
     atom   13 type  3   force =    -0.00690189   -0.00690189    0.00000000
     atom   14 type  3   force =     0.00283276    0.00283276    0.00021382
     atom   15 type  3   force =     0.00283276    0.00283276   -0.00021382
     atom   16 type  3   force =    -0.00283276    0.00283276    0.00021382
     atom   17 type  3   force =    -0.00283276    0.00283276   -0.00021382
     atom   18 type  3   force =     0.00690189   -0.00690189    0.00000000
     The non-local contrib.  to forces
     atom    1 type  1   force =     0.00000000    0.00000000    0.00000000
     atom    2 type  1   force =     0.00000000    0.00000000   -0.00000000
     atom    3 type  2   force =     0.00000000    0.00000000   -0.02776957
     atom    4 type  2   force =     0.00000000    0.00000000    0.02776957
     atom    5 type  2   force =     0.00000000    0.00000000    0.02776957
     atom    6 type  2   force =     0.00000000    0.00000000   -0.02776957
     atom    7 type  3   force =    -0.39287301    0.39287301   -0.00000000
     atom    8 type  3   force =     0.01735460   -0.01735460   -0.39134978
     atom    9 type  3   force =     0.01735460   -0.01735460    0.39134978
     atom   10 type  3   force =    -0.01735460   -0.01735460    0.39134978
     atom   11 type  3   force =    -0.01735460   -0.01735460   -0.39134978
     atom   12 type  3   force =     0.39287301    0.39287301    0.00000000
     atom   13 type  3   force =    -0.39287301   -0.39287301    0.00000000
     atom   14 type  3   force =     0.01735460    0.01735460    0.39134978
     atom   15 type  3   force =     0.01735460    0.01735460   -0.39134978
     atom   16 type  3   force =    -0.01735460    0.01735460    0.39134978
     atom   17 type  3   force =    -0.01735460    0.01735460   -0.39134978
     atom   18 type  3   force =     0.39287301   -0.39287301    0.00000000
     The ionic contribution  to forces
     atom    1 type  1   force =     0.00000000    0.00000000   -0.00000000
     atom    2 type  1   force =    -0.00000000    0.00000000    0.00000000
     atom    3 type  2   force =     0.00000000    0.00000000    1.35875834
     atom    4 type  2   force =     0.00000000    0.00000000   -1.35875834
     atom    5 type  2   force =     0.00000000    0.00000000   -1.35875834
     atom    6 type  2   force =     0.00000000    0.00000000    1.35875834
     atom    7 type  3   force =    11.02405292  -11.02405292    0.00000000
     atom    8 type  3   force =    -1.76601597    1.76601597    9.52374863
     atom    9 type  3   force =    -1.76601597    1.76601597   -9.52374863
     atom   10 type  3   force =     1.76601597    1.76601597   -9.52374863
     atom   11 type  3   force =     1.76601597    1.76601597    9.52374863
     atom   12 type  3   force =   -11.02405292  -11.02405292   -0.00000000
     atom   13 type  3   force =    11.02405292   11.02405292   -0.00000000
     atom   14 type  3   force =    -1.76601597   -1.76601597   -9.52374863
     atom   15 type  3   force =    -1.76601597   -1.76601597    9.52374863
     atom   16 type  3   force =     1.76601597   -1.76601597   -9.52374863
     atom   17 type  3   force =     1.76601597   -1.76601597    9.52374863
     atom   18 type  3   force =   -11.02405292   11.02405292    0.00000000
     The local contribution  to forces
     atom    1 type  1   force =     0.00000998    0.00000679    0.00002692
     atom    2 type  1   force =     0.00000907    0.00000417   -0.00001996
     atom    3 type  2   force =    -0.00004018   -0.00004265   -1.31540491
     atom    4 type  2   force =    -0.00003787   -0.00004258    1.31520681
     atom    5 type  2   force =    -0.00001326    0.00001369    1.31450647
     atom    6 type  2   force =    -0.00000734    0.00001047   -1.31438357
     atom    7 type  3   force =   -10.63814495   10.63813999   -0.00003200
     atom    8 type  3   force =     1.75149173   -1.75147705   -9.13272894
     atom    9 type  3   force =     1.75150664   -1.75149234    9.13276365
     atom   10 type  3   force =    -1.75165469   -1.75165631    9.13244537
     atom   11 type  3   force =    -1.75163517   -1.75163692   -9.13250674
     atom   12 type  3   force =    10.63803081   10.63803326    0.00006153
     atom   13 type  3   force =   -10.63804203  -10.63804278    0.00005854
     atom   14 type  3   force =     1.75165012    1.75164490    9.13238526
     atom   15 type  3   force =     1.75162997    1.75162321   -9.13244812
     atom   16 type  3   force =    -1.75150073    1.75150881    9.13278133
     atom   17 type  3   force =    -1.75148357    1.75149227   -9.13274761
     atom   18 type  3   force =    10.63813425  -10.63814297   -0.00003248
     The core correction contribution to forces
     atom    1 type  1   force =     0.00000000    0.00000000    0.00000000
     atom    2 type  1   force =     0.00000000    0.00000000    0.00000000
     atom    3 type  2   force =    -0.00000003   -0.00000007    0.00003660
     atom    4 type  2   force =    -0.00000003   -0.00000007   -0.00003662
     atom    5 type  2   force =     0.00000003    0.00000007   -0.00003670
     atom    6 type  2   force =     0.00000003    0.00000006    0.00003671
     atom    7 type  3   force =     0.00000000    0.00000000    0.00000000
     atom    8 type  3   force =     0.00000000    0.00000000    0.00000000
     atom    9 type  3   force =     0.00000000    0.00000000    0.00000000
     atom   10 type  3   force =     0.00000000    0.00000000    0.00000000
     atom   11 type  3   force =     0.00000000    0.00000000    0.00000000
     atom   12 type  3   force =     0.00000000    0.00000000    0.00000000
     atom   13 type  3   force =     0.00000000    0.00000000    0.00000000
     atom   14 type  3   force =     0.00000000    0.00000000    0.00000000
     atom   15 type  3   force =     0.00000000    0.00000000    0.00000000
     atom   16 type  3   force =     0.00000000    0.00000000    0.00000000
     atom   17 type  3   force =     0.00000000    0.00000000    0.00000000
     atom   18 type  3   force =     0.00000000    0.00000000    0.00000000
     The Hubbard contrib.    to forces
     atom    1 type  1   force =     0.00000000    0.00000000    0.00000000
     atom    2 type  1   force =     0.00000000    0.00000000    0.00000000
     atom    3 type  2   force =     0.00000000    0.00000000    0.00000000
     atom    4 type  2   force =     0.00000000    0.00000000    0.00000000
     atom    5 type  2   force =     0.00000000    0.00000000    0.00000000
     atom    6 type  2   force =     0.00000000    0.00000000    0.00000000
     atom    7 type  3   force =     0.00000000    0.00000000    0.00000000
     atom    8 type  3   force =     0.00000000    0.00000000    0.00000000
     atom    9 type  3   force =     0.00000000    0.00000000    0.00000000
     atom   10 type  3   force =     0.00000000    0.00000000    0.00000000
     atom   11 type  3   force =     0.00000000    0.00000000    0.00000000
     atom   12 type  3   force =     0.00000000    0.00000000    0.00000000
     atom   13 type  3   force =     0.00000000    0.00000000    0.00000000
     atom   14 type  3   force =     0.00000000    0.00000000    0.00000000
     atom   15 type  3   force =     0.00000000    0.00000000    0.00000000
     atom   16 type  3   force =     0.00000000    0.00000000    0.00000000
     atom   17 type  3   force =     0.00000000    0.00000000    0.00000000
     atom   18 type  3   force =     0.00000000    0.00000000    0.00000000
     The SCF correction term to forces
     atom    1 type  1   force =    -0.00000753   -0.00000542   -0.00002588
     atom    2 type  1   force =    -0.00000639   -0.00000307    0.00001880
     atom    3 type  2   force =     0.00003443    0.00003402    0.00001461
     atom    4 type  2   force =     0.00003589    0.00003422    0.00020766
     atom    5 type  2   force =     0.00001977   -0.00000555    0.00090511
     atom    6 type  2   force =     0.00001456   -0.00000238   -0.00105304
     atom    7 type  3   force =     0.00006047   -0.00005560    0.00003479
     atom    8 type  3   force =    -0.00000738   -0.00000101    0.00012954
     atom    9 type  3   force =    -0.00001345    0.00000489   -0.00016372
     atom   10 type  3   force =     0.00015073    0.00015235    0.00019125
     atom   11 type  3   force =     0.00013118    0.00013227   -0.00012784
     atom   12 type  3   force =     0.00004864    0.00004516   -0.00006340
     atom   13 type  3   force =    -0.00004011   -0.00003890   -0.00006075
     atom   14 type  3   force =    -0.00015060   -0.00014773    0.00022422
     atom   15 type  3   force =    -0.00012909   -0.00012532   -0.00015789
     atom   16 type  3   force =     0.00000933   -0.00001521   -0.00017316
     atom   17 type  3   force =     0.00000213   -0.00000779    0.00014041
     atom   18 type  3   force =    -0.00005163    0.00006177    0.00003573

     Total force =     0.038533     Total SCF correction =     0.001545

     Computing stress (Cartesian axis) and pressure

          total   stress  (Ry/bohr**3)                   (kbar)     P=     -387.73
  -0.00260425   0.00000000   0.00000000         -383.10        0.00        0.00
   0.00000000  -0.00260425   0.00000000            0.00     -383.10        0.00
   0.00000000   0.00000000  -0.00269867            0.00        0.00     -396.99

     kinetic stress (kbar)  28495.02      0.00      0.00
                                0.00  28495.02      0.00
                                0.00      0.00  27866.84

     local   stress (kbar) -17701.87     -0.01     -0.00
                               -0.01 -17701.83     -0.00
                               -0.00     -0.00 -39011.34

     nonloc. stress (kbar)  10357.49      0.00      0.00
                                0.00  10357.49      0.00
                                0.00      0.00  10044.49

     hartree stress (kbar)  33231.61      0.00      0.00
                                0.00  33231.59      0.00
                                0.00      0.00  41987.62

     exc-cor stress (kbar)  -9433.73      0.00      0.00
                                0.00  -9433.73      0.00
                                0.00      0.00  -9429.64

     corecor stress (kbar)   -159.14     -0.00     -0.00
                               -0.00   -159.14     -0.00
                               -0.00     -0.00   -158.67

     ewald   stress (kbar) -45172.49     -0.00     -0.00
                               -0.00 -45172.49     -0.00
                               -0.00     -0.00 -31696.27

     hubbard stress (kbar)      0.00      0.00      0.00
                                0.00      0.00      0.00
                                0.00      0.00      0.00

     DFT-D   stress (kbar)      0.00      0.00      0.00
                                0.00      0.00      0.00
                                0.00      0.00      0.00

     XDM     stress (kbar)      0.00      0.00      0.00
                                0.00      0.00      0.00
                                0.00      0.00      0.00

     dft-nl  stress (kbar)      0.00      0.00      0.00
                                0.00      0.00      0.00
                                0.00      0.00      0.00

     TS-vdW  stress (kbar)      0.00      0.00      0.00
                                0.00      0.00      0.00
                                0.00      0.00      0.00

[...]

                                0.00      0.00      0.00

     Writing all to output data dir calculations/myprefix.save/

     General routines

     Parallel routines

   This run was terminated on:  11:58:38   3Mar2023

   JOB DONE.