     Program PWSCF v.7.0 starts on  4Mar2023 at 20:14:11

     R & G space division:  proc/nbgrp/npool/nimage =      32

     Reading input from espresso_7532.pwi
Warning: card &CELL ignored
Warning: card / ignored

     Current dimensions of program PWSCF are:
     Max number of different atomic species (ntypx) = 10
     Max number of k-points (npk) =  40000
     Max angular momentum in pseudopotentials (lmaxx) =  4
     file Ga.pbe-dn-kjpaw_psl.1.0.0.UPF: wavefunction(s)  4S renormalized
     file O.pbe-n-kjpaw_psl.0.1.UPF: wavefunction(s)  2P renormalized

     gamma-point specific algorithms are used
     Message from routine setup:
     using ibrav=0 with symmetry is DISCOURAGED, use correct ibrav instead

     Using Slab Decomposition

     bravais-lattice index     =            0
     lattice parameter (alat)  =      12.3163  a.u.
     unit-cell volume          =     338.3747 (a.u.)^3
     number of atoms/cell      =            4
     number of atomic types    =            3
     number of electrons       =        44.00
     number of Kohn-Sham states=           26
     kinetic-energy cutoff     =      30.0000  Ry
     charge density cutoff     =     240.0000  Ry
     scf convergence threshold =      1.0E-06
     mixing beta               =       0.7000
     number of iterations used =            8  plain     mixing
     Exchange-correlation= SLA  PW   PBX  PBC
                           (   1   4   3   4   0   0   0)

     celldm(1)=  12.316311  celldm(2)=   0.000000  celldm(3)=   0.000000
     celldm(4)=   0.000000  celldm(5)=   0.000000  celldm(6)=   0.000000

     crystal axes: (cart. coord. in units of alat)
               a(1) = (   1.000000   0.000000   0.000000 )
               a(2) = (   0.891430   0.453159   0.000000 )
               a(3) = (   0.891430   0.213573   0.399674 )

     reciprocal axes: (cart. coord. in units 2 pi/alat)
               b(1) = (  1.000000 -1.967147 -1.179210 )
               b(2) = (  0.000000  2.206733 -1.179210 )
               b(3) = (  0.000000  0.000000  2.502041 )

     PseudoPot. # 1 for Ga read from file:
     /home/pragov/projects/rrg-bengioy-ad/pragov/crystal_structure_design/SSSP/Ga.pbe-dn-kjpaw_psl.1.0.0.UPF
     MD5 check sum: a27b4342b1af7e5f338de752e9ed7044
     Pseudo is Projector augmented-wave + core cor, Zval = 13.0
     Generated using "atomic" code by A. Dal Corso  v.5.1
     Shape of augmentation charge: PSQ
     Using radial grid of 1205 points,  6 beta functions with:
                l(1) =   0
                l(2) =   0
                l(3) =   1
                l(4) =   1
                l(5) =   2
                l(6) =   2
     Q(r) pseudized with 0 coefficients

     PseudoPot. # 2 for Ag read from file:
     /home/pragov/projects/rrg-bengioy-ad/pragov/crystal_structure_design/SSSP/Ag_ONCV_PBE-1.0.oncvpsp.upf
     MD5 check sum: 94f47bd0669c641108e45594df92fabc
     Pseudo is Norm-conserving, Zval = 19.0
     Generated using ONCVPSP code by D. R. Hamann
     Using radial grid of 1398 points,  6 beta functions with:
                l(1) =   0
                l(2) =   0
                l(3) =   1
                l(4) =   1
                l(5) =   2
                l(6) =   2

     PseudoPot. # 3 for O  read from file:
     /home/pragov/projects/rrg-bengioy-ad/pragov/crystal_structure_design/SSSP/O.pbe-n-kjpaw_psl.0.1.UPF
     MD5 check sum: 0234752ac141de4415c5fc33072bef88
     Pseudo is Projector augmented-wave + core cor, Zval =  6.0
     Generated using "atomic" code by A. Dal Corso  v.5.0.99 svn rev. 10869
     Shape of augmentation charge: BESSEL
     Using radial grid of 1095 points,  4 beta functions with:
                l(1) =   0
                l(2) =   0
                l(3) =   1
                l(4) =   1
     Q(r) pseudized with 0 coefficients

     atomic species   valence    mass     pseudopotential
        Ga            13.00    69.72300     Ga( 1.00)
        Ag            19.00   107.86820     Ag( 1.00)
        O              6.00    15.99900     O ( 1.00)

      2 Sym. Ops., with inversion, found

                                    s                        frac. trans.

      isym =  1     identity

 cryst.   s( 1) = (     1          0          0      )
                  (     0          1          0      )
                  (     0          0          1      )

 cart.    s( 1) = (  1.0000000 -0.0000000  0.0000000 )
                  (  0.0000000  1.0000000  0.0000000 )
                  (  0.0000000  0.0000000  1.0000000 )

      isym =  2     inversion

 cryst.   s( 2) = (    -1          0          0      )
                  (     0         -1          0      )
                  (     0          0         -1      )

 cart.    s( 2) = ( -1.0000000  0.0000000 -0.0000000 )
                  (  0.0000000 -1.0000000 -0.0000000 )
                  (  0.0000000  0.0000000 -1.0000000 )

   Cartesian axes

     site n.     atom                  positions (alat units)
         1           Ga  tau(   1) = (   1.3914299   0.3333661   0.1998369  )
         2           Ag  tau(   2) = (   0.0000000   0.0000000   0.0000000  )
         3           O   tau(   3) = (   2.4683354   0.5913767   0.3545018  )
         4           O   tau(   4) = (   0.3145244   0.0753554   0.0451719  )

   Crystallographic axes

     site n.     atom                  positions (cryst. coord.)
         1           Ga  tau(   1) = (  0.5000000  0.5000000  0.5000000  )
         2           Ag  tau(   2) = (  0.0000000  0.0000000  0.0000000  )
         3           O   tau(   3) = (  0.8869780  0.8869780  0.8869780  )
         4           O   tau(   4) = (  0.1130220  0.1130220  0.1130220  )

     number of k points=     1  Methfessel-Paxton smearing, width (Ry)=  0.0010
                       cart. coord. in units 2pi/alat
        k(    1) = (   0.0000000   0.0000000   0.0000000), wk =   2.0000000

                       cryst. coord.
        k(    1) = (   0.0000000   0.0000000   0.0000000), wk =   2.0000000

     Check: negative core charge=   -0.000010

     Initial potential from superposition of free atoms

     starting charge      43.9968, renormalised to      44.0000
     Starting wfcs are   27 randomized atomic wfcs
     Checking if some PAW data can be deallocated...

     Self-consistent Calculation

     iteration #  1     ecut=    30.00 Ry     beta= 0.70
     Davidson diagonalization with overlap

     ethr =  1.00E-02,  avg # of iterations =  2.0

     total energy              =    -646.96490175 Ry
     estimated scf accuracy    <       1.34921164 Ry

[...]

     total energy              =    -647.54598722 Ry
     estimated scf accuracy    <       0.00000953 Ry

     iteration # 13     ecut=    30.00 Ry     beta= 0.70
     Davidson diagonalization with overlap

     ethr =  2.17E-08,  avg # of iterations =  2.0

     End of self-consistent calculation

          k = 0.0000 0.0000 0.0000 (   458 PWs)   bands (ev):

   -80.7659 -44.2355 -43.4334 -43.4334  -8.2941  -6.0325  -5.5317  -5.5316
    -5.4891  -5.3913  -5.3912   4.2437   7.2380   8.4333   8.4334   8.6170
     8.6170   8.7790   9.8307   9.8307  10.8978  10.8978  11.4093  16.1358
    16.4755  20.9143

     occupation numbers
     1.0000   1.0000   1.0000   1.0000   1.0000   1.0000   1.0000   1.0000
     1.0000   1.0000   1.0000   1.0000   1.0000   1.0000   1.0000   1.0000
     1.0000   1.0000   1.0000   1.0000   1.0000   1.0000  -0.0000  -0.0000
    -0.0000  -0.0000

     the Fermi energy is    11.0941 ev

!    total energy              =    -647.54598927 Ry
     estimated scf accuracy    <       0.00000007 Ry
     smearing contrib. (-TS)   =       0.00000000 Ry
     internal energy E=F+TS    =    -647.54598927 Ry

     The total energy is F=E-TS. E is the sum of the following terms:
     one-electron contribution =    -236.53682468 Ry
     hartree contribution      =     149.18381712 Ry
     xc contribution           =     -80.43353340 Ry
     ewald contribution        =    -349.79693470 Ry
     one-center paw contrib.   =    -129.96251360 Ry
      -> PAW hartree energy AE =     132.09201574 Ry
      -> PAW hartree energy PS =    -130.01933999 Ry
      -> PAW xc energy AE      =    -150.26330008 Ry
      -> PAW xc energy PS      =      37.15727257 Ry
      -> total E_H with PAW    =     151.25649287 Ry
      -> total E_XC with PAW   =    -193.53956091 Ry

     convergence has been achieved in  13 iterations

     Forces acting on atoms (cartesian axes, Ry/au):

     atom    1 type  1   force =     0.00000000    0.00000000    0.00000000
     atom    2 type  2   force =     0.00000000    0.00000000    0.00000000
     atom    3 type  3   force =     0.11215470    0.02687743    0.01615613
     atom    4 type  3   force =    -0.11215470   -0.02687743   -0.01615613
     The non-local contrib.  to forces
     atom    1 type  1   force =     0.00000000    0.00000000    0.00000000
     atom    2 type  2   force =     0.00000000    0.00000000    0.00000000
     atom    3 type  3   force =     0.04908229    0.01195810    0.00743637
     atom    4 type  3   force =    -0.04908229   -0.01195810   -0.00743637
     The ionic contribution  to forces
     atom    1 type  1   force =     0.00000000   -0.00000000    0.00000000
     atom    2 type  2   force =    -0.00000000   -0.00000000   -0.00000000
     atom    3 type  3   force =     3.27336752    0.78425053    0.47011784
     atom    4 type  3   force =    -3.27336752   -0.78425053   -0.47011784
     The local contribution  to forces
     atom    1 type  1   force =    -0.00121569   -0.00032622    0.00052109
     atom    2 type  2   force =     0.00059134    0.00014960    0.00006637
     atom    3 type  3   force =    -3.20716794   -0.76869654   -0.46100901
     atom    4 type  3   force =     3.20728682    0.76870639    0.46121167
     The core correction contribution to forces
     atom    1 type  1   force =    -0.00002768   -0.00000754    0.00001392
     atom    2 type  2   force =     0.00000000    0.00000000    0.00000000
     atom    3 type  3   force =    -0.00300519   -0.00072301   -0.00043584
     atom    4 type  3   force =     0.00300828    0.00072405    0.00043959
     The Hubbard contrib.    to forces
     atom    1 type  1   force =     0.00000000    0.00000000    0.00000000
     atom    2 type  2   force =     0.00000000    0.00000000    0.00000000
     atom    3 type  3   force =     0.00000000    0.00000000    0.00000000
     atom    4 type  3   force =     0.00000000    0.00000000    0.00000000
     The SCF correction term to forces
     atom    1 type  1   force =     0.00189024    0.00048754   -0.00064771
     atom    2 type  2   force =    -0.00067355   -0.00016780   -0.00008719
     atom    3 type  3   force =    -0.00001767    0.00010201    0.00010816
     atom    4 type  3   force =     0.00010434   -0.00008559   -0.00019179

     Total force =     0.164694     Total SCF correction =     0.002190

     Computing stress (Cartesian axis) and pressure

          total   stress  (Ry/bohr**3)                   (kbar)     P=     -834.12
  -0.00631568  -0.00024121  -0.00014443         -929.07      -35.48      -21.25
  -0.00024121  -0.00536571  -0.00003399          -35.48     -789.32       -5.00
  -0.00014443  -0.00003399  -0.00532939          -21.25       -5.00     -783.98

     kinetic stress (kbar)  40419.71   -764.01   -458.08
                             -764.01  43425.31   -109.71
                             -458.08   -109.71  43542.57

     local   stress (kbar)  -2521.88   1224.76    734.18
                             1224.76  -7340.79    175.87
                              734.18    175.87  -7528.78

     nonloc. stress (kbar)   1104.68    130.54     78.38
                              130.54    591.63     18.84
                               78.38     18.84    571.50

     hartree stress (kbar)  20274.74   -502.57   -301.26
                             -502.57  22252.17    -72.15
                             -301.26    -72.15  22329.30

     exc-cor stress (kbar)  -2523.73     -1.54     -0.92
                               -1.54  -2517.66     -0.22
                               -0.92     -0.22  -2517.43

     corecor stress (kbar)  -6658.84      2.04      1.22
                                2.04  -6666.88      0.29
                                1.22      0.29  -6667.19

     ewald   stress (kbar) -51023.74   -124.71    -74.76
                             -124.71 -50533.11    -17.91
                              -74.76    -17.91 -50513.95

     hubbard stress (kbar)      0.00      0.00      0.00
                                0.00      0.00      0.00
                                0.00      0.00      0.00

     DFT-D   stress (kbar)      0.00      0.00      0.00
                                0.00      0.00      0.00
                                0.00      0.00      0.00

     XDM     stress (kbar)      0.00      0.00      0.00
                                0.00      0.00      0.00
                                0.00      0.00      0.00

     dft-nl  stress (kbar)      0.00      0.00      0.00
                                0.00      0.00      0.00
                                0.00      0.00      0.00

     TS-vdW  stress (kbar)      0.00      0.00      0.00
                                0.00      0.00      0.00
                                0.00      0.00      0.00

[...]

                                0.00      0.00      0.00

     Writing all to output data dir calculations/myprefix.save/

     General routines

     Parallel routines

     PAW routines

   This run was terminated on:  20:14:13   4Mar2023

   JOB DONE.