     Program PWSCF v.7.0 starts on  6Mar2023 at 10:16: 6

     R & G space division:  proc/nbgrp/npool/nimage =      32

     Reading input from espresso_4250.pwi
Warning: card &CELL ignored
Warning: card / ignored

     Current dimensions of program PWSCF are:
     Max number of different atomic species (ntypx) = 10
     Max number of k-points (npk) =  40000
     Max angular momentum in pseudopotentials (lmaxx) =  4
     file Mg.pbe-n-kjpaw_psl.0.3.0.UPF: wavefunction(s)  3S renormalized
     file O.pbe-n-kjpaw_psl.0.1.UPF: wavefunction(s)  2P renormalized

     gamma-point specific algorithms are used

     Using Slab Decomposition

     bravais-lattice index     =            0
     lattice parameter (alat)  =       9.7804  a.u.
     unit-cell volume          =    1487.5054 (a.u.)^3
     number of atoms/cell      =           20
     number of atomic types    =            4
     number of electrons       =       134.00
     number of Kohn-Sham states=           80
     kinetic-energy cutoff     =      30.0000  Ry
     charge density cutoff     =     240.0000  Ry
     scf convergence threshold =      1.0E-06
     mixing beta               =       0.7000
     number of iterations used =            8  plain     mixing
     Exchange-correlation= SLA  PW   PBX  PBC
                           (   1   4   3   4   0   0   0)

     celldm(1)=   9.780422  celldm(2)=   0.000000  celldm(3)=   0.000000
     celldm(4)=   0.000000  celldm(5)=   0.000000  celldm(6)=   0.000000

     crystal axes: (cart. coord. in units of alat)
               a(1) = (   1.000000   0.000000   0.000000 )
               a(2) = (  -0.013537   1.474964   0.000000 )
               a(3) = (  -0.005016  -0.091370   1.077964 )

     reciprocal axes: (cart. coord. in units 2 pi/alat)
               b(1) = (  1.000000  0.009178  0.005431 )
               b(2) = (  0.000000  0.677983  0.057467 )
               b(3) = (  0.000000  0.000000  0.927674 )

     PseudoPot. # 1 for Mg read from file:
     /home/pragov/projects/rrg-bengioy-ad/pragov/crystal_structure_design/SSSP/Mg.pbe-n-kjpaw_psl.0.3.0.UPF
     MD5 check sum: 24ecedc7f3e3cbe212e682f4413594e4
     Pseudo is Projector augmented-wave + core cor, Zval =  2.0
     Generated using "atomic" code by A. Dal Corso  v.5.0.99 svn rev. 10869
     Shape of augmentation charge: PSQ
     Using radial grid of 1129 points,  4 beta functions with:
                l(1) =   0
                l(2) =   0
                l(3) =   1
                l(4) =   1
     Q(r) pseudized with 0 coefficients

     PseudoPot. # 2 for V  read from file:
     /home/pragov/projects/rrg-bengioy-ad/pragov/crystal_structure_design/SSSP/v_pbe_v1.4.uspp.F.UPF
     MD5 check sum: 22b79981416ebb76fdaf5b1b8640f6fb
     Pseudo is Ultrasoft + core correction, Zval = 13.0
     Generated by new atomic code, or converted to UPF format
     Using radial grid of  853 points,  6 beta functions with:
                l(1) =   0
                l(2) =   0
                l(3) =   1
                l(4) =   1
                l(5) =   2
                l(6) =   2
     Q(r) pseudized with  8 coefficients,  rinner =    1.100   1.100   1.100
                                                       1.100   1.100

     PseudoPot. # 3 for W  read from file:
     /home/pragov/projects/rrg-bengioy-ad/pragov/crystal_structure_design/SSSP/W_pbe_v1.2.uspp.F.UPF
     MD5 check sum: 9c083fa34c2a2ea0f02f1f893e16e1c8
     Pseudo is Ultrasoft + core correction, Zval = 14.0
     Generated by new atomic code, or converted to UPF format
     Using radial grid of  923 points,  8 beta functions with:
                l(1) =   0
                l(2) =   0
                l(3) =   0
                l(4) =   1
                l(5) =   1
                l(6) =   2
                l(7) =   2
                l(8) =   3
     Q(r) pseudized with  6 coefficients,  rinner =    1.350   1.350   1.350
                                                       1.350   1.350   1.350
                                                       1.350

     PseudoPot. # 4 for O  read from file:
     /home/pragov/projects/rrg-bengioy-ad/pragov/crystal_structure_design/SSSP/O.pbe-n-kjpaw_psl.0.1.UPF
     MD5 check sum: 0234752ac141de4415c5fc33072bef88
     Pseudo is Projector augmented-wave + core cor, Zval =  6.0
     Generated using "atomic" code by A. Dal Corso  v.5.0.99 svn rev. 10869
     Shape of augmentation charge: BESSEL
     Using radial grid of 1095 points,  4 beta functions with:
                l(1) =   0
                l(2) =   0
                l(3) =   1
                l(4) =   1
     Q(r) pseudized with 0 coefficients

     atomic species   valence    mass     pseudopotential
        Mg             2.00    24.30500     Mg( 1.00)
        V             13.00    50.94150     V ( 1.00)
        W             14.00   183.84000     W ( 1.00)
        O              6.00    15.99900     O ( 1.00)

     No symmetry found

                                    s                        frac. trans.

      isym =  1     identity

 cryst.   s( 1) = (     1          0          0      )
                  (     0          1          0      )
                  (     0          0          1      )

 cart.    s( 1) = (  1.0000000  0.0000000  0.0000000 )
                  (  0.0000000  1.0000000  0.0000000 )
                  (  0.0000000  0.0000000  1.0000000 )

   Cartesian axes

     site n.     atom                  positions (alat units)
         1           Mg  tau(   1) = (   0.5037861   0.3333676   0.9988051  )
         2           Mg  tau(   2) = (  -0.0003373   1.1169781   0.4594123  )
         3           Mg  tau(   3) = (   0.0067601   0.3725933   0.4524874  )
         4           Mg  tau(   4) = (   0.4975261   1.0645906   0.9914513  )
         5           V   tau(   5) = (   0.4976357   1.4150173   0.5490385  )
         6           V   tau(   6) = (   0.0069555   0.7232926   0.0092770  )
         7           W   tau(   7) = (   0.5043595   0.6736098   0.5524578  )
         8           W   tau(   8) = (   0.0000357   1.4566019   0.0134519  )
         9           O   tau(   9) = (   0.2083650   0.5322793   0.7556627  )
        10           O   tau(  10) = (   0.7040706   1.3163693   0.2167549  )
        11           O   tau(  11) = (   0.3258405  -0.0164042   0.9190239  )
        12           O   tau(  12) = (   0.8217000   0.7673666   0.3801075  )
        13           O   tau(  13) = (   0.8721476   0.3445558   0.0497524  )
        14           O   tau(  14) = (   0.3635808   1.0368965   0.5882850  )
        15           O   tau(  15) = (   0.3083054   0.5773813   0.2271454  )
        16           O   tau(  16) = (   0.7984398   1.2694920   0.7654862  )
        17           O   tau(  17) = (   0.1748517   0.0266657   0.3746336  )
        18           O   tau(  18) = (   0.6642440   0.7182509   0.9133258  )
        19           O   tau(  19) = (   0.6430311   0.2976205   0.5867252  )
        20           O   tau(  20) = (   0.1395650   1.0817058   0.0475943  )

   Crystallographic axes

     site n.     atom                  positions (cryst. coord.)
         1           Mg  tau(   1) = (  0.5122700  0.2834160  0.9265660  )
         2           Mg  tau(   2) = (  0.0124090  0.7836930  0.4261850  )
         3           Mg  tau(   3) = (  0.0126370  0.2786150  0.4197610  )
         4           Mg  tau(   4) = (  0.5126810  0.7787500  0.9197440  )
         5           V   tau(   5) = (  0.5136040  0.9909090  0.5093290  )
         6           V   tau(   6) = (  0.0136440  0.4909130  0.0086060  )
         7           W   tau(   7) = (  0.5135420  0.4884440  0.5125010  )
         8           W   tau(   8) = (  0.0134770  0.9883240  0.0124790  )
         9           O   tau(   9) = (  0.2173540  0.4043020  0.7010090  )
        10           O   tau(  10) = (  0.7173290  0.9049320  0.2010780  )
        11           O   tau(  11) = (  0.3306810  0.0416920  0.8525550  )
        12           O   tau(  12) = (  0.8308070  0.5421050  0.3526160  )
        13           O   tau(  13) = (  0.8755800  0.2364620  0.0461540  )
        14           O   tau(  14) = (  0.3762920  0.7368050  0.5457370  )
        15           O   tau(  15) = (  0.3148380  0.4045080  0.2107170  )
        16           O   tau(  16) = (  0.8142480  0.9046840  0.7101220  )
        17           O   tau(  17) = (  0.1771310  0.0396080  0.3475380  )
        18           O   tau(  18) = (  0.6757960  0.5394480  0.8472690  )
        19           O   tau(  19) = (  0.6489490  0.2354990  0.5442900  )
        20           O   tau(  20) = (  0.1497510  0.7361130  0.0441520  )

     number of k points=     1  Methfessel-Paxton smearing, width (Ry)=  0.0010
                       cart. coord. in units 2pi/alat
        k(    1) = (   0.0000000   0.0000000   0.0000000), wk =   2.0000000

                       cryst. coord.
        k(    1) = (   0.0000000   0.0000000   0.0000000), wk =   2.0000000

     Check: negative core charge=   -0.000008

     Initial potential from superposition of free atoms

     starting charge     133.7932, renormalised to     134.0000

     negative rho (up, down):  1.257E-01 0.000E+00
     Starting wfcs are  110 randomized atomic wfcs
     Checking if some PAW data can be deallocated...

     Self-consistent Calculation

     iteration #  1     ecut=    30.00 Ry     beta= 0.70
     Davidson diagonalization with overlap

     ethr =  1.00E-02,  avg # of iterations =  2.0

     negative rho (up, down):  1.203E-01 0.000E+00

     total energy              =   -1240.41124282 Ry
     estimated scf accuracy    <       5.78071754 Ry

[...]

     total energy              =   -1243.61966462 Ry
     estimated scf accuracy    <       0.00000262 Ry

     iteration # 22     ecut=    30.00 Ry     beta= 0.70
     Davidson diagonalization with overlap

     ethr =  1.96E-09,  avg # of iterations =  2.0

[...]

     End of self-consistent calculation

          k = 0.0000 0.0000 0.0000 (  2079 PWs)   bands (ev):

   -65.8732 -65.8702 -55.2329 -55.2324 -30.2281 -30.2261 -30.0291 -30.0226
   -30.0182 -30.0174 -29.1889 -29.1848 -29.0439 -29.0413 -28.9423 -28.9362
   -10.2549  -9.6808  -9.3262  -9.2074  -9.1090  -9.0862  -9.0256  -8.7684
    -8.6994  -8.6568  -8.5690  -8.5062   2.5110   2.5961   2.7277   3.0395
     3.1042   3.1146   3.2894   3.4062   3.4603   3.5236   4.2791   4.3393
     4.4654   4.5515   4.5899   4.7136   4.7678   4.9821   5.2907   5.3430
     5.5614   5.9405   5.9681   5.9908   6.0990   6.3555   6.3804   6.5454
     6.6023   6.6478   6.6920   6.8028   6.8720   7.0613   7.0961   7.1434
     9.9326  10.0120  10.0346  10.1036  10.1923  10.5542  10.8820  10.9531
    10.9800  11.1870  11.4864  11.5207  12.4320  12.7176  12.7748  12.8559

     occupation numbers
     1.0000   1.0000   1.0000   1.0000   1.0000   1.0000   1.0000   1.0000
     1.0000   1.0000   1.0000   1.0000   1.0000   1.0000   1.0000   1.0000
     1.0000   1.0000   1.0000   1.0000   1.0000   1.0000   1.0000   1.0000
     1.0000   1.0000   1.0000   1.0000   1.0000   1.0000   1.0000   1.0000
     1.0000   1.0000   1.0000   1.0000   1.0000   1.0000   1.0000   1.0000
     1.0000   1.0000   1.0000   1.0000   1.0000   1.0000   1.0000   1.0000
     1.0000   1.0000   1.0000   1.0000   1.0000   1.0000   1.0000   1.0000
     1.0000   1.0000   1.0000   1.0000   1.0000   1.0000   1.0000   1.0000
     1.0000   1.0000   1.0010  -0.0010  -0.0000  -0.0000  -0.0000  -0.0000
    -0.0000  -0.0000  -0.0000  -0.0000  -0.0000  -0.0000  -0.0000  -0.0000

     the Fermi energy is    10.0691 ev

!    total energy              =   -1243.61966421 Ry
     estimated scf accuracy    <       0.00000093 Ry
     smearing contrib. (-TS)   =       0.00001075 Ry
     internal energy E=F+TS    =   -1243.61967496 Ry

     The total energy is F=E-TS. E is the sum of the following terms:
     one-electron contribution =    -404.31135982 Ry
     hartree contribution      =     270.95205608 Ry
     xc contribution           =    -217.66893365 Ry
     ewald contribution        =    -653.27853926 Ry
     one-center paw contrib.   =    -239.31289831 Ry
      -> PAW hartree energy AE =       0.81828786 Ry
      -> PAW hartree energy PS =      -0.81707191 Ry
      -> PAW xc energy AE      =     -32.60585324 Ry
      -> PAW xc energy PS      =       1.32515272 Ry
      -> total E_H with PAW    =     270.95327202 Ry
      -> total E_XC with PAW   =    -248.94963416 Ry

     convergence has been achieved in  22 iterations

     negative rho (up, down):  1.227E-01 0.000E+00

     Forces acting on atoms (cartesian axes, Ry/au):

     atom    1 type  1   force =    -0.00772424    0.00382669   -0.00313778
     atom    2 type  1   force =    -0.00749897    0.00413316   -0.00267852
     atom    3 type  1   force =     0.00411667    0.00907011   -0.00077502
     atom    4 type  1   force =     0.00464160    0.00980356   -0.00060992
     atom    5 type  2   force =     0.01302764   -0.02118606    0.01093357
     atom    6 type  2   force =     0.01343678   -0.02225799    0.01272189
     atom    7 type  3   force =    -0.02124559    0.00012979   -0.00775595
     atom    8 type  3   force =    -0.02197960    0.00065950   -0.00626922
     atom    9 type  4   force =    -0.03007866    0.01551223    0.04423277
     atom   10 type  4   force =    -0.02887840    0.01362000    0.04349801
     atom   11 type  4   force =     0.01237401    0.00370631   -0.02847782
     atom   12 type  4   force =     0.01149258    0.00257638   -0.02775437
     atom   13 type  4   force =     0.03852994   -0.01727812   -0.01793101
     atom   14 type  4   force =     0.03695452   -0.01935925   -0.01783873
     atom   15 type  4   force =     0.00958006    0.02807703    0.03737647
     atom   16 type  4   force =     0.01201095    0.02735396    0.03965791
     atom   17 type  4   force =     0.01735620   -0.02110498   -0.02205640
     atom   18 type  4   force =     0.02042355   -0.02151991   -0.02013872
     atom   19 type  4   force =    -0.03696111    0.00348702   -0.01645590
     atom   20 type  4   force =    -0.03957791    0.00075059   -0.01654126
     The non-local contrib.  to forces
     atom    1 type  1   force =    -0.01267682   -0.00359926   -0.01420201
     atom    2 type  1   force =    -0.01149531   -0.00355186   -0.01319913
     atom    3 type  1   force =    -0.00443675    0.03502765   -0.00517288
     atom    4 type  1   force =    -0.00190449    0.03519218   -0.00503216
     atom    5 type  2   force =     0.01639501   -0.02094753    0.01166875
     atom    6 type  2   force =     0.01634977   -0.01945906    0.01178528
     atom    7 type  3   force =    -0.00571379   -0.00781880   -0.00151280
     atom    8 type  3   force =    -0.00612473   -0.00716506   -0.00140385
     atom    9 type  4   force =     0.28284077    0.16401602   -0.13167647
     atom   10 type  4   force =     0.29146537    0.15434880   -0.13470963
     atom   11 type  4   force =    -0.31576691   -0.12195784    0.07750414
     atom   12 type  4   force =    -0.31755430   -0.12484169    0.08069087
     atom   13 type  4   force =     0.18847649   -0.24118029   -0.04777426
     atom   14 type  4   force =     0.18322835   -0.24573642   -0.04447267
     atom   15 type  4   force =     0.07039247    0.14869952    0.26950120
     atom   16 type  4   force =     0.07049078    0.14688980    0.27170711
     atom   17 type  4   force =     0.00062313   -0.08885188   -0.39397764
     atom   18 type  4   force =     0.00900528   -0.08542750   -0.39853160
     atom   19 type  4   force =    -0.17816786    0.26356568   -0.05242884
     atom   20 type  4   force =    -0.18538343    0.26402651   -0.05454861
     The ionic contribution  to forces
     atom    1 type  1   force =    -0.01998642   -0.61149652    0.65686822
     atom    2 type  1   force =    -0.01865912   -0.62474993    0.65455012
     atom    3 type  1   force =    -0.03722688   -0.40347632    0.70099323
     atom    4 type  1   force =    -0.02433808   -0.41818599    0.70822917
     atom    5 type  2   force =     0.00298009    0.73222748   -1.60541024
     atom    6 type  2   force =    -0.01029030    0.76197543   -1.56371175
     atom    7 type  3   force =    -0.21457953    1.39182991   -2.00525426
     atom    8 type  3   force =    -0.23881821    1.39484464   -1.98344067
     atom    9 type  4   force =    -3.84778056   -3.76190952   -0.55109953
     atom   10 type  4   force =    -3.84475148   -3.76515701   -0.54194685
     atom   11 type  4   force =     4.14326219    3.11847933    0.83517507
     atom   12 type  4   force =     4.17907978    3.10727747    0.79649313
     atom   13 type  4   force =    -4.54614545    0.71722431    0.40258851
     atom   14 type  4   force =    -4.57001541    0.62288616    0.37169800
     atom   15 type  4   force =     1.70468841   -3.33809203   -2.53223968
     atom   16 type  4   force =     1.81448383   -3.36863448   -2.45754500
     atom   17 type  4   force =    -1.96518693    2.66004501    3.37995156
     atom   18 type  4   force =    -1.88388565    2.63875182    3.49035885
     atom   19 type  4   force =     4.70119593   -0.35216100    0.61773397
     atom   20 type  4   force =     4.67597377   -0.50167876    0.62600813
     The local contribution  to forces
     atom    1 type  1   force =     0.02352742    0.61708478   -0.64631456
     atom    2 type  1   force =     0.02139427    0.63082631   -0.64437645
     atom    3 type  1   force =     0.04505385    0.38081769   -0.69594245
     atom    4 type  1   force =     0.03044886    0.39632299   -0.70314599
     atom    5 type  2   force =    -0.00558907   -0.73014989    1.60192024
     atom    6 type  2   force =     0.00827553   -0.76193444    1.56217785
     atom    7 type  3   force =     0.19788153   -1.38459731    1.99692353
     atom    8 type  3   force =     0.22176449   -1.38824280    1.97668834
     atom    9 type  4   force =     3.53711362    3.61474124    0.72592340
     atom   10 type  4   force =     3.52652202    3.62612353    0.71980236
     atom   11 type  4   force =    -3.81736554   -2.99405195   -0.94157606
     atom   12 type  4   force =    -3.85235482   -2.98059536   -0.90467661
     atom   13 type  4   force =     4.39801426   -0.49624552   -0.37328591
     atom   14 type  4   force =     4.42571470   -0.39818598   -0.34566226
     atom   15 type  4   force =    -1.76472634    3.21884050    2.30293133
     atom   16 type  4   force =    -1.87252042    3.25096327    2.22788332
     atom   17 type  4   force =     1.98266253   -2.59341680   -3.01191089
     atom   18 type  4   force =     1.89561944   -2.57538079   -3.11624162
     atom   19 type  4   force =    -4.56192155    0.09407039   -0.58239206
     atom   20 type  4   force =    -4.53188828    0.24174998   -0.58842509
     The core correction contribution to forces
     atom    1 type  1   force =     0.00141460    0.00172669    0.00049896
     atom    2 type  1   force =     0.00126992    0.00172463    0.00037849
     atom    3 type  1   force =     0.00073937   -0.00341033   -0.00065563
     atom    4 type  1   force =     0.00042045   -0.00341107   -0.00068415
     atom    5 type  2   force =    -0.00079498   -0.00256532    0.00263066
     atom    6 type  2   force =    -0.00075655   -0.00253763    0.00270075
     atom    7 type  3   force =     0.00114755    0.00106958    0.00186283
     atom    8 type  3   force =     0.00112562    0.00111617    0.00191827
     atom    9 type  4   force =    -0.00220151   -0.00154840    0.00078572
     atom   10 type  4   force =    -0.00228836   -0.00143283    0.00080862
     atom   11 type  4   force =     0.00232022    0.00097350    0.00004113
     atom   12 type  4   force =     0.00234015    0.00101827    0.00000792
     atom   13 type  4   force =    -0.00190849    0.00226477    0.00058871
     atom   14 type  4   force =    -0.00183714    0.00234099    0.00055620
     atom   15 type  4   force =    -0.00065112   -0.00161479   -0.00260608
     atom   16 type  4   force =    -0.00068639   -0.00159365   -0.00266502
     atom   17 type  4   force =    -0.00039537    0.00085807    0.00412179
     atom   18 type  4   force =    -0.00052113    0.00082258    0.00413488
     atom   19 type  4   force =     0.00177882   -0.00277487    0.00051797
     atom   20 type  4   force =     0.00187467   -0.00272793    0.00053492
     The Hubbard contrib.    to forces
     atom    1 type  1   force =     0.00000000    0.00000000    0.00000000
     atom    2 type  1   force =     0.00000000    0.00000000    0.00000000
     atom    3 type  1   force =     0.00000000    0.00000000    0.00000000
     atom    4 type  1   force =     0.00000000    0.00000000    0.00000000
     atom    5 type  2   force =     0.00000000    0.00000000    0.00000000
     atom    6 type  2   force =     0.00000000    0.00000000    0.00000000
     atom    7 type  3   force =     0.00000000    0.00000000    0.00000000
     atom    8 type  3   force =     0.00000000    0.00000000    0.00000000
     atom    9 type  4   force =     0.00000000    0.00000000    0.00000000
     atom   10 type  4   force =     0.00000000    0.00000000    0.00000000
     atom   11 type  4   force =     0.00000000    0.00000000    0.00000000
     atom   12 type  4   force =     0.00000000    0.00000000    0.00000000
     atom   13 type  4   force =     0.00000000    0.00000000    0.00000000
     atom   14 type  4   force =     0.00000000    0.00000000    0.00000000
     atom   15 type  4   force =     0.00000000    0.00000000    0.00000000
     atom   16 type  4   force =     0.00000000    0.00000000    0.00000000
     atom   17 type  4   force =     0.00000000    0.00000000    0.00000000
     atom   18 type  4   force =     0.00000000    0.00000000    0.00000000
     atom   19 type  4   force =     0.00000000    0.00000000    0.00000000
     atom   20 type  4   force =     0.00000000    0.00000000    0.00000000
     The SCF correction term to forces
     atom    1 type  1   force =    -0.00000341    0.00011484    0.00001049
     atom    2 type  1   force =    -0.00000911   -0.00011216   -0.00003267
     atom    3 type  1   force =    -0.00001330    0.00011525    0.00000159
     atom    4 type  1   force =     0.00001448   -0.00011072    0.00002209
     atom    5 type  2   force =     0.00003620    0.00025303    0.00012305
     atom    6 type  2   force =    -0.00014205   -0.00029846   -0.00023135
     atom    7 type  3   force =     0.00001827   -0.00034976    0.00022363
     atom    8 type  3   force =     0.00007284    0.00011038   -0.00003243
     atom    9 type  4   force =    -0.00005136    0.00021672    0.00029854
     atom   10 type  4   force =     0.00017366   -0.00025866   -0.00045762
     atom   11 type  4   force =    -0.00007633    0.00026709    0.00037677
     atom   12 type  4   force =    -0.00001861   -0.00027848   -0.00027080
     atom   13 type  4   force =     0.00009274    0.00066244   -0.00004918
     atom   14 type  4   force =    -0.00013637   -0.00066018    0.00004087
     atom   15 type  4   force =    -0.00012374    0.00024766   -0.00021142
     atom   16 type  4   force =     0.00024276   -0.00026715    0.00027637
     atom   17 type  4   force =    -0.00034755    0.00026445   -0.00024235
     atom   18 type  4   force =     0.00020523   -0.00028218    0.00013965
     atom   19 type  4   force =     0.00015316    0.00079065    0.00011194
     atom   20 type  4   force =    -0.00015502   -0.00061537   -0.00011174

     Total force =     0.160647     Total SCF correction =     0.002001

     Computing stress (Cartesian axis) and pressure

     negative rho (up, down):  1.227E-01 0.000E+00
          total   stress  (Ry/bohr**3)                   (kbar)     P=     -469.00
  -0.00314020   0.00010865  -0.00008106         -461.94       15.98      -11.92
   0.00010865  -0.00335223  -0.00019271           15.98     -493.13      -28.35
  -0.00008106  -0.00019271  -0.00307213          -11.92      -28.35     -451.93

     kinetic stress (kbar)  24792.37     -7.29    -17.56
                               -7.29  24536.18     -9.46
                              -17.56     -9.46  24792.12

     local   stress (kbar)  -6924.69   -468.23    206.18
                             -468.23  -6398.87    542.67
                              206.18    542.67  -6134.58

     nonloc. stress (kbar)   -353.32     -1.65     -4.88
                               -1.65   -352.05      9.01
                               -4.88      9.01   -370.88

     hartree stress (kbar)   8939.57    122.18    -27.25
                              122.18   8946.54   -304.75
                              -27.25   -304.75   8909.37

     exc-cor stress (kbar)    747.91      0.84     -0.59
                                0.84    742.89      1.66
                               -0.59      1.66    742.00

     corecor stress (kbar)  -6477.05      0.83      0.99
                                0.83  -6468.55     -4.54
                                0.99     -4.54  -6470.73

     ewald   stress (kbar) -21186.72    369.31   -168.81
                              369.31 -21499.27   -262.94
                             -168.81   -262.94 -21919.21

     hubbard stress (kbar)      0.00      0.00      0.00
                                0.00      0.00      0.00
                                0.00      0.00      0.00

     DFT-D   stress (kbar)      0.00      0.00      0.00
                                0.00      0.00      0.00
                                0.00      0.00      0.00

     XDM     stress (kbar)      0.00      0.00      0.00
                                0.00      0.00      0.00
                                0.00      0.00      0.00

     dft-nl  stress (kbar)      0.00      0.00      0.00
                                0.00      0.00      0.00
                                0.00      0.00      0.00

     TS-vdW  stress (kbar)      0.00      0.00      0.00
                                0.00      0.00      0.00
                                0.00      0.00      0.00

[...]

                                0.00      0.00      0.00

     Writing all to output data dir calculations/myprefix.save/

     General routines

     Parallel routines

     PAW routines

   This run was terminated on:  10:16:11   6Mar2023

   JOB DONE.