     Program PWSCF v.7.0 starts on  3Mar2023 at 13:12:42

     R & G space division:  proc/nbgrp/npool/nimage =      32

     Reading input from espresso_388.pwi
Warning: card &CELL ignored
Warning: card / ignored

     Current dimensions of program PWSCF are:
     Max number of different atomic species (ntypx) = 10
     Max number of k-points (npk) =  40000
     Max angular momentum in pseudopotentials (lmaxx) =  4

     gamma-point specific algorithms are used
     Message from routine setup:
     using ibrav=0 with symmetry is DISCOURAGED, use correct ibrav instead

     Using Slab Decomposition

     bravais-lattice index     =            0
     lattice parameter (alat)  =      10.8487  a.u.
     unit-cell volume          =     558.6454 (a.u.)^3
     number of atoms/cell      =            5
     number of atomic types    =            3
     number of electrons       =        82.00
     number of Kohn-Sham states=           49
     kinetic-energy cutoff     =      30.0000  Ry
     charge density cutoff     =     240.0000  Ry
     scf convergence threshold =      1.0E-06
     mixing beta               =       0.7000
     number of iterations used =            8  plain     mixing
     Exchange-correlation=  SLA  PW   PBX  PBC
                           (   1   4   3   4   0   0   0)

     celldm(1)=  10.848710  celldm(2)=   0.000000  celldm(3)=   0.000000
     celldm(4)=   0.000000  celldm(5)=   0.000000  celldm(6)=   0.000000

     crystal axes: (cart. coord. in units of alat)
               a(1) = (   1.000000   0.000000   0.000000 )
               a(2) = (   0.493732   0.869614   0.000000 )
               a(3) = (  -0.746866  -0.434807   0.503124 )

     reciprocal axes: (cart. coord. in units 2 pi/alat)
               b(1) = (  1.000000 -0.567760  0.993790 )
               b(2) = (  0.000000  1.149935  0.993790 )
               b(3) = (  0.000000  0.000000  1.987580 )

     PseudoPot. # 1 for Gd read from file:
     /home/pragov/projects/rrg-bengioy-ad/pragov/crystal_structure_design/SSSP/Gd.GGA-PBE-paw-v1.0.UPF
     MD5 check sum: 3e8e0d208da550914ae52eaf991d13de
     Pseudo is Projector augmented-wave + core cor, Zval = 18.0
     Generated using ATOMPAW code
     Shape of augmentation charge: BESSEL
     Using radial grid of 1110 points,  8 beta functions with:
                l(1) =   0
                l(2) =   0
                l(3) =   1
                l(4) =   1
                l(5) =   2
                l(6) =   2
                l(7) =   3
                l(8) =   3
     Q(r) pseudized with 0 coefficients

     PseudoPot. # 2 for Ni read from file:
     /home/pragov/projects/rrg-bengioy-ad/pragov/crystal_structure_design/SSSP/ni_pbe_v1.4.uspp.F.UPF
     MD5 check sum: 1ee80287db30b12d2bc1f57a5b5d6409
     Pseudo is Ultrasoft + core correction, Zval = 18.0
     Generated by new atomic code, or converted to UPF format
     Using radial grid of  865 points,  6 beta functions with:
                l(1) =   0
                l(2) =   0
                l(3) =   1
                l(4) =   1
                l(5) =   2
                l(6) =   2
     Q(r) pseudized with 10 coefficients,  rinner =    0.980   0.980   0.980
                                                       0.980   0.980

     PseudoPot. # 3 for Ge read from file:
     /home/pragov/projects/rrg-bengioy-ad/pragov/crystal_structure_design/SSSP/ge_pbe_v1.4.uspp.F.UPF
     MD5 check sum: 9c9eaa91e581c3f09632fb3098b2c6b2
     Pseudo is Ultrasoft + core correction, Zval = 14.0
     Generated by new atomic code, or converted to UPF format
     Using radial grid of  873 points,  6 beta functions with:
                l(1) =   0
                l(2) =   0
                l(3) =   1
                l(4) =   1
                l(5) =   2
                l(6) =   2
     Q(r) pseudized with  8 coefficients,  rinner =    1.400   1.400   1.400
                                                       1.400   1.400

     atomic species   valence    mass     pseudopotential
        Gd            18.00   157.25000     Gd( 1.00)
        Ni            18.00    58.69340     Ni( 1.00)
        Ge            14.00    72.63000     Ge( 1.00)

      4 Sym. Ops., with inversion, found

                                    s                        frac. trans.

      isym =  1     identity

 cryst.   s( 1) = (     1          0          0      )
                  (     0          1          0      )
                  (     0          0          1      )

 cart.    s( 1) = (  1.0000000  0.0000000 -0.0000000 )
                  (  0.0000000  1.0000000 -0.0000000 )
                  (  0.0000000  0.0000000  1.0000000 )

      isym =  2     180 deg rotation - cart. axis [0,0,1]

[...]

      isym =  3     inversion

[...]

      isym =  4     inv. 180 deg rotation - cart. axis [0,0,1]

 cryst.   s( 4) = (     1          0          0      )
                  (     0          1          0      )
                  (    -1         -1         -1      )

 cart.    s( 4) = (  1.0000000  0.0000000 -0.0000000 )
                  (  0.0000000  1.0000000 -0.0000000 )
                  (  0.0000000  0.0000000 -1.0000000 )

   Cartesian axes

     site n.     atom                  positions (alat units)
         1           Gd  tau(   1) = (   0.0000000   0.0000000   0.0000000  )
         2           Ni  tau(   2) = (   0.2468659   0.4348071   0.2515621  )
         3           Ni  tau(   3) = (   0.5000000   0.0000000   0.2515621  )
         4           Ge  tau(   4) = (   0.5547422   0.3229573   0.0000000  )
         5           Ge  tau(   5) = (   0.9389897   0.5466569   0.0000000  )

   Crystallographic axes

     site n.     atom                  positions (cryst. coord.)
         1           Gd  tau(   1) = (  0.0000000  0.0000000  0.0000000  )
         2           Ni  tau(   2) = (  0.2500000  0.7500000  0.5000000  )
         3           Ni  tau(   3) = (  0.7500000  0.2500000  0.5000000  )
         4           Ge  tau(   4) = (  0.3713800  0.3713800  0.0000000  )
         5           Ge  tau(   5) = (  0.6286200  0.6286200  0.0000000  )

     number of k points=     1  Methfessel-Paxton smearing, width (Ry)=  0.0010
                       cart. coord. in units 2pi/alat
        k(    1) = (   0.0000000   0.0000000   0.0000000), wk =   2.0000000

                       cryst. coord.
        k(    1) = (   0.0000000   0.0000000   0.0000000), wk =   2.0000000

     Check: negative core charge=   -0.000005

     Initial potential from superposition of free atoms

     starting charge      77.9931, renormalised to      82.0000
     Starting wfcs are   76 randomized atomic wfcs
     Checking if some PAW data can be deallocated...

     Self-consistent Calculation

     iteration #  1     ecut=    30.00 Ry     beta= 0.70
     Davidson diagonalization with overlap

     ethr =  1.00E-02,  avg # of iterations =  4.0

     total energy              =   -1758.98197038 Ry
     estimated scf accuracy    <      42.82114659 Ry

[...]

     c_bands:  1 eigenvalues not converged
     ethr =  1.21E-06,  avg # of iterations = 20.0

[...]

     total energy              =   -1796.41145942 Ry
     estimated scf accuracy    <       0.00009710 Ry

     iteration # 76     ecut=    30.00 Ry     beta= 0.70
     Davidson diagonalization with overlap

     ethr =  1.51E-09,  avg # of iterations =  1.0

     End of self-consistent calculation

          k = 0.0000 0.0000 0.0000 (   779 PWs)   bands (ev):

   -89.2185 -89.2157 -49.7313 -49.6972 -49.6128 -49.2682 -49.2462 -48.8301
   -27.3665  -9.9983  -9.9119  -9.8615  -9.8575  -9.8515  -9.8391  -9.8301
    -9.7999  -9.6911  -8.9755  -5.5317  -5.4619  -5.3291   3.1386   7.0679
     9.0332  11.2737  11.3984  11.8536  12.1136  12.3194  12.4813  12.6319
    12.9412  13.2346  13.3465  13.5601  14.3860  14.3885  14.4141  14.4959
    14.5882  14.6040  14.7970  14.8390  14.9615  16.5828  16.6412  18.3351
    18.3636

     occupation numbers
     1.0000   1.0000   1.0000   1.0000   1.0000   1.0000   1.0000   1.0000
     1.0000   1.0000   1.0000   1.0000   1.0000   1.0000   1.0000   1.0000
     1.0000   1.0000   1.0000   1.0000   1.0000   1.0000   1.0000   1.0000
     1.0000   1.0000   1.0000   1.0000   1.0000   1.0000   1.0000   1.0000
     1.0000   1.0000   1.0000   1.0000   1.0000   1.0000   1.0000   1.0000
     0.9103   0.0897  -0.0000  -0.0000  -0.0000  -0.0000  -0.0000  -0.0000
    -0.0000

     the Fermi energy is    14.5961 ev

!    total energy              =   -1796.41145980 Ry
     estimated scf accuracy    <       0.00000008 Ry
     smearing contrib. (-TS)   =      -0.00013322 Ry
     internal energy E=F+TS    =   -1796.41132657 Ry

     The total energy is F=E-TS. E is the sum of the following terms:
     one-electron contribution =    -803.06253293 Ry
     hartree contribution      =     466.89127982 Ry
     xc contribution           =    -210.46199570 Ry
     ewald contribution        =    -783.94143182 Ry
     one-center paw contrib.   =    -465.83664593 Ry
      -> PAW hartree energy AE =     185.70794479 Ry
      -> PAW hartree energy PS =    -176.09941229 Ry
      -> PAW xc energy AE      =    -496.91659872 Ry
      -> PAW xc energy PS      =      21.47142028 Ry
      -> total E_H with PAW    =     476.49981232 Ry
      -> total E_XC with PAW   =    -685.90717414 Ry

     convergence has been achieved in  76 iterations

     Forces acting on atoms (cartesian axes, Ry/au):

     atom    1 type  1   force =     0.00000000    0.00000000    0.00000000
     atom    2 type  2   force =     0.00000000    0.00000000   -0.05741491
     atom    3 type  2   force =     0.00000000    0.00000000    0.05741491
     atom    4 type  3   force =    -0.08262806   -0.06769257    0.00000000
     atom    5 type  3   force =     0.08262806    0.06769257   -0.00000000
     The non-local contrib.  to forces
     atom    1 type  1   force =     0.00000000    0.00000000    0.00000000
     atom    2 type  2   force =     0.00000000    0.00000000    0.06573510
     atom    3 type  2   force =     0.00000000    0.00000000   -0.06573510
     atom    4 type  3   force =    -0.04916676   -0.02936419    0.00000000
     atom    5 type  3   force =     0.04916676    0.02936419   -0.00000000
     The ionic contribution  to forces
     atom    1 type  1   force =     0.00000000    0.00000000    0.00000000
     atom    2 type  2   force =    -0.00000000    0.00000000    0.00000000
     atom    3 type  2   force =     0.00000000   -0.00000000   -0.00000000
     atom    4 type  3   force =    17.53361617   10.20764254   -0.00000000
     atom    5 type  3   force =   -17.53361617  -10.20764254    0.00000000
     The local contribution  to forces
     atom    1 type  1   force =     0.00031047   -0.00145771   -0.00037111
     atom    2 type  2   force =     0.00132117   -0.00394421   -0.11869737
     atom    3 type  2   force =    -0.00116420    0.00405290    0.11867279
     atom    4 type  3   force =   -17.56355572  -10.24432516    0.00413592
     atom    5 type  3   force =    17.56344228   10.24466453   -0.00404110
     The core correction contribution to forces
     atom    1 type  1   force =     0.00000001   -0.00000005   -0.00000001
     atom    2 type  2   force =    -0.00001025    0.00007894   -0.00448289
     atom    3 type  2   force =     0.00001181   -0.00008032    0.00448280
     atom    4 type  3   force =    -0.00336942   -0.00131185    0.00005411
     atom    5 type  3   force =     0.00336841    0.00131373   -0.00005344
     The Hubbard contrib.    to forces
     atom    1 type  1   force =     0.00000000    0.00000000    0.00000000
     atom    2 type  2   force =     0.00000000    0.00000000    0.00000000
     atom    3 type  2   force =     0.00000000    0.00000000    0.00000000
     atom    4 type  3   force =     0.00000000    0.00000000    0.00000000
     atom    5 type  3   force =     0.00000000    0.00000000    0.00000000
     The SCF correction term to forces
     atom    1 type  1   force =    -0.00025046    0.00112450    0.00025987
     atom    2 type  2   force =    -0.00005309   -0.00004740    0.00002731
     atom    3 type  2   force =    -0.00005444   -0.00004179   -0.00000852
     atom    4 type  3   force =    -0.00015237   -0.00034023   -0.00004526
     atom    5 type  3   force =     0.00026673   -0.00001365   -0.00004697

     Total force =     0.171500     Total SCF correction =     0.001273

     Computing stress (Cartesian axis) and pressure

          total   stress  (Ry/bohr**3)                   (kbar)     P=     -656.71
  -0.00387572  -0.00078630   0.00000000         -570.14     -115.67        0.00
  -0.00078630  -0.00566619   0.00000000         -115.67     -833.53        0.00
   0.00000000   0.00000000  -0.00385075            0.00        0.00     -566.46

     kinetic stress (kbar)  26348.26    -60.59     -0.00
                              -60.59  25929.83     -0.00
                               -0.00     -0.00  26052.93

     local   stress (kbar)  17957.57  18618.62      4.03
                            18618.62  -2130.01      7.65
                                4.03      7.65 -12781.68

     nonloc. stress (kbar)  13313.03   -310.25     -0.00
                             -310.25  13152.31     -0.00
                               -0.00     -0.00  13293.91

     hartree stress (kbar)  32885.10  -8840.76     -0.55
                            -8840.76  42474.02     -5.10
                               -0.55     -5.10  47584.84

     exc-cor stress (kbar)   3928.25     -1.53     -0.01
                               -1.53   3925.12     -0.20
                               -0.01     -0.20   3924.65

     corecor stress (kbar) -17132.40      4.51      0.05
                                4.51 -17131.44      0.29
                                0.05      0.29 -17133.35

     ewald   stress (kbar) -77869.94  -9525.66     -0.00
                            -9525.66 -67053.37     -0.00
                               -0.00     -0.00 -61507.76

     hubbard stress (kbar)      0.00      0.00      0.00
                                0.00      0.00      0.00
                                0.00      0.00      0.00

     DFT-D   stress (kbar)      0.00      0.00      0.00
                                0.00      0.00      0.00
                                0.00      0.00      0.00

     XDM     stress (kbar)      0.00      0.00      0.00
                                0.00      0.00      0.00
                                0.00      0.00      0.00

     dft-nl  stress (kbar)      0.00      0.00      0.00
                                0.00      0.00      0.00
                                0.00      0.00      0.00

     TS-vdW  stress (kbar)      0.00      0.00      0.00
                                0.00      0.00      0.00
                                0.00      0.00      0.00

[...]

                                0.00      0.00      0.00

     Writing all to output data dir calculations/myprefix.save/

     General routines

     Parallel routines

     PAW routines

   This run was terminated on:  13:13: 5   3Mar2023

   JOB DONE.