     Program PWSCF v.7.0 starts on  4Mar2023 at 17:17:16

     R & G space division:  proc/nbgrp/npool/nimage =      32

     Reading input from espresso_7030.pwi
Warning: card &CELL ignored
Warning: card / ignored

     Current dimensions of program PWSCF are:
     Max number of different atomic species (ntypx) = 10
     Max number of k-points (npk) =  40000
     Max angular momentum in pseudopotentials (lmaxx) =  4

     gamma-point specific algorithms are used
     Message from routine setup:
     using ibrav=0 with symmetry is DISCOURAGED, use correct ibrav instead

     Using Slab Decomposition

     bravais-lattice index     =            0
     lattice parameter (alat)  =       8.6931  a.u.
     unit-cell volume          =     464.5241 (a.u.)^3
     number of atoms/cell      =            4
     number of atomic types    =            3
     number of electrons       =        54.00
     number of Kohn-Sham states=           32
     kinetic-energy cutoff     =      30.0000  Ry
     charge density cutoff     =     240.0000  Ry
     scf convergence threshold =      1.0E-06
     mixing beta               =       0.7000
     number of iterations used =            8  plain     mixing
     Exchange-correlation=  SLA  PW   PBX  PBC
                           (   1   4   3   4   0   0   0)

     celldm(1)=   8.693095  celldm(2)=   0.000000  celldm(3)=   0.000000
     celldm(4)=   0.000000  celldm(5)=   0.000000  celldm(6)=   0.000000

     crystal axes: (cart. coord. in units of alat)
               a(1) = (   1.000000   0.000000   0.000000 )
               a(2) = (   0.500000   0.866025   0.000000 )
               a(3) = (   0.500000   0.288675   0.816497 )

     reciprocal axes: (cart. coord. in units 2 pi/alat)
               b(1) = (  1.000000 -0.577350 -0.408248 )
               b(2) = (  0.000000  1.154701 -0.408248 )
               b(3) = (  0.000000  0.000000  1.224745 )

     PseudoPot. # 1 for Sc read from file:
     /home/pragov/projects/rrg-bengioy-ad/pragov/crystal_structure_design/SSSP/Sc_ONCV_PBE-1.0.oncvpsp.upf
     MD5 check sum: e21af8023abb52e52cb7cd3133e4a229
     Pseudo is Norm-conserving, Zval = 11.0
     Generated using ONCVPSP code by D. R. Hamann
     Using radial grid of 1662 points,  6 beta functions with:
                l(1) =   0
                l(2) =   0
                l(3) =   1
                l(4) =   1
                l(5) =   2
                l(6) =   2

     PseudoPot. # 2 for Os read from file:
     /home/pragov/projects/rrg-bengioy-ad/pragov/crystal_structure_design/SSSP/Os_pbe_v1.2.uspp.F.UPF
     MD5 check sum: a3fb40a04f0c37c25c34bbc47164c9a8
     Pseudo is Ultrasoft + core correction, Zval = 16.0
     Generated by new atomic code, or converted to UPF format
     Using radial grid of  983 points,  8 beta functions with:
                l(1) =   0
                l(2) =   0
                l(3) =   1
                l(4) =   1
                l(5) =   2
                l(6) =   2
                l(7) =   3
                l(8) =   3
     Q(r) pseudized with  8 coefficients,  rinner =    1.150   1.150   1.150
                                                       1.150   1.150   1.150
                                                       1.150

     PseudoPot. # 3 for Pt read from file:
     /home/pragov/projects/rrg-bengioy-ad/pragov/crystal_structure_design/SSSP/pt_pbe_v1.4.uspp.F.UPF
     MD5 check sum: f09d6de1a584b5a045c4fc126da2d0c4
     Pseudo is Ultrasoft + core correction, Zval = 16.0
     Generated by new atomic code, or converted to UPF format
     Using radial grid of  985 points,  6 beta functions with:
                l(1) =   0
                l(2) =   0
                l(3) =   1
                l(4) =   1
                l(5) =   2
                l(6) =   2
     Q(r) pseudized with  8 coefficients,  rinner =    1.300   1.300   1.300
                                                       1.300   1.300

     atomic species   valence    mass     pseudopotential
        Sc            11.00    44.95591     Sc( 1.00)
        Os            16.00   190.23000     Os( 1.00)
        Pt            16.00   195.08400     Pt( 1.00)

     12 Sym. Ops., with inversion, found

                                    s                        frac. trans.

      isym =  1     identity

 cryst.   s( 1) = (     1          0          0      )
                  (     0          1          0      )
                  (     0          0          1      )

 cart.    s( 1) = (  1.0000000  0.0000000  0.0000000 )
                  (  0.0000000  1.0000000  0.0000000 )
                  (  0.0000000  0.0000000  1.0000000 )

      isym =  2     180 deg rotation - cart. axis [1,0,0]

[...]

      isym =  3     120 deg rotation - cryst. axis [0,0,1]

[...]

      isym =  6     180 deg rotation - cryst. axis [1,1,0]

[...]

      isym =  7     inversion

[...]

      isym =  8     inv. 180 deg rotation - cart. axis [1,0,0]

[...]

      isym =  9     inv. 120 deg rotation - cryst. axis [0,0,1]

 cryst.   s( 9) = (     1         -1          0      )
                  (     1          0          0      )
                  (     1          0         -1      )

 cart.    s( 9) = (  0.5000000  0.8660254  0.0000000 )
                  ( -0.8660254  0.5000000 -0.0000000 )
                  (  0.0000000  0.0000000 -1.0000000 )

[...]

 cryst.   s(10) = (     0          1          0      )
                  (    -1          1          0      )
                  (     0          1         -1      )

 cart.    s(10) = (  0.5000000 -0.8660254  0.0000000 )
                  (  0.8660254  0.5000000  0.0000000 )
                  (  0.0000000  0.0000000 -1.0000000 )

[...]

      isym = 12     inv. 180 deg rotation - cryst. axis [1,1,0]

 cryst.   s(12) = (     1         -1          0      )
                  (     0         -1          0      )
                  (     0         -1          1      )

 cart.    s(12) = (  0.5000000 -0.8660254  0.0000000 )
                  ( -0.8660254 -0.5000000 -0.0000000 )
                  (  0.0000000  0.0000000  1.0000000 )

   Cartesian axes

     site n.     atom                  positions (alat units)
         1           Sc  tau(   1) = (   0.5000000   0.2886751   0.2041241  )
         2           Sc  tau(   2) = (   1.5000000   0.8660254   0.6123724  )
         3           Os  tau(   3) = (   1.0000000   0.5773503   0.4082483  )
         4           Pt  tau(   4) = (   0.0000000   0.0000000   0.0000000  )

   Crystallographic axes

     site n.     atom                  positions (cryst. coord.)
         1           Sc  tau(   1) = (  0.2500000  0.2500000  0.2500000  )
         2           Sc  tau(   2) = (  0.7500000  0.7500000  0.7500000  )
         3           Os  tau(   3) = (  0.5000000  0.5000000  0.5000000  )
         4           Pt  tau(   4) = (  0.0000000  0.0000000  0.0000000  )

     number of k points=     1  Methfessel-Paxton smearing, width (Ry)=  0.0010
                       cart. coord. in units 2pi/alat
        k(    1) = (   0.0000000   0.0000000   0.0000000), wk =   2.0000000

                       cryst. coord.
        k(    1) = (   0.0000000   0.0000000   0.0000000), wk =   2.0000000

     Check: negative core charge=   -0.000001

     Initial potential from superposition of free atoms

     starting charge      52.9947, renormalised to      54.0000

     negative rho (up, down):  3.115E-01 0.000E+00
     Starting wfcs are   45 randomized atomic wfcs

     Self-consistent Calculation

     iteration #  1     ecut=    30.00 Ry     beta= 0.70
     Davidson diagonalization with overlap

     ethr =  1.00E-02,  avg # of iterations =  2.0

     negative rho (up, down):  2.813E-01 0.000E+00

     total energy              =    -589.41400888 Ry
     estimated scf accuracy    <       5.38898693 Ry

[...]

     total energy              =    -592.93523084 Ry
     estimated scf accuracy    <       0.00106804 Ry

     iteration # 67     ecut=    30.00 Ry     beta= 0.70
     Davidson diagonalization with overlap

     ethr =  1.54E-08,  avg # of iterations =  1.0

[...]

     End of self-consistent calculation

          k = 0.0000 0.0000 0.0000 (   622 PWs)   bands (ev):

   -68.4849 -36.4981 -36.4981 -36.4981 -30.7776 -30.7064 -27.8859 -27.8859
   -27.8859  -9.5786  -9.5786  -9.5786  -9.3598  -9.3598  -9.3598   9.3821
    12.0637  12.0637  12.9217  12.9217  12.9217  15.6604  15.6604  15.6604
    16.5999  16.5999  16.5999  16.6073  16.6073  20.3500  20.3500  21.0978

     occupation numbers
     1.0000   1.0000   1.0000   1.0000   1.0000   1.0000   1.0000   1.0000
     1.0000   1.0000   1.0000   1.0000   1.0000   1.0000   1.0000   1.0000
     1.0000   1.0000   1.0000   1.0000   1.0000   1.0000   1.0000   1.0000
     0.7757   0.7756   0.7754   0.3368   0.3365  -0.0000  -0.0000  -0.0000

     the Fermi energy is    16.6046 ev

!    total energy              =    -592.93523576 Ry
     estimated scf accuracy    <       0.00000008 Ry
     smearing contrib. (-TS)   =      -0.00106879 Ry
     internal energy E=F+TS    =    -592.93416697 Ry

     The total energy is F=E-TS. E is the sum of the following terms:
     one-electron contribution =    -125.73354480 Ry
     hartree contribution      =      91.18895674 Ry
     xc contribution           =    -118.51504538 Ry
     ewald contribution        =    -439.87453354 Ry

     convergence has been achieved in  67 iterations

     negative rho (up, down):  2.920E-01 0.000E+00

     Forces acting on atoms (cartesian axes, Ry/au):

     atom    1 type  1   force =     0.00000000    0.00000000    0.00000525
     atom    2 type  1   force =     0.00000000    0.00000000   -0.00000525
     atom    3 type  2   force =     0.00000000    0.00000000   -0.00000000
     atom    4 type  3   force =    -0.00000000   -0.00000000    0.00000000
     The non-local contrib.  to forces
     atom    1 type  1   force =     0.00000000    0.00000000    0.00000099
     atom    2 type  1   force =    -0.00000000   -0.00000000   -0.00000099
     atom    3 type  2   force =     0.00000000    0.00000000   -0.00000000
     atom    4 type  3   force =     0.00000000    0.00000000   -0.00000000
     The ionic contribution  to forces
     atom    1 type  1   force =     0.00000000    0.00000000   -0.00000000
     atom    2 type  1   force =    -0.00000000   -0.00000000   -0.00000000
     atom    3 type  2   force =     0.00000000   -0.00000000    0.00000000
     atom    4 type  3   force =    -0.00000000    0.00000000    0.00000000
     The local contribution  to forces
     atom    1 type  1   force =     0.00003648   -0.00004825    0.00002897
     atom    2 type  1   force =    -0.00002203   -0.00004207    0.00000617
     atom    3 type  2   force =     0.00008326    0.00039498   -0.00042815
     atom    4 type  3   force =     0.00005572   -0.00006881   -0.00001632
     The core correction contribution to forces
     atom    1 type  1   force =     0.00000000    0.00000000    0.00000000
     atom    2 type  1   force =     0.00000000    0.00000000    0.00000000
     atom    3 type  2   force =    -0.00000732   -0.00000951    0.00001831
     atom    4 type  3   force =    -0.00000953   -0.00001197    0.00003172
     The Hubbard contrib.    to forces
     atom    1 type  1   force =     0.00000000    0.00000000    0.00000000
     atom    2 type  1   force =     0.00000000    0.00000000    0.00000000
     atom    3 type  2   force =     0.00000000    0.00000000    0.00000000
     atom    4 type  3   force =     0.00000000    0.00000000    0.00000000
     The SCF correction term to forces
     atom    1 type  1   force =    -0.00002354    0.00002757   -0.00002651
     atom    2 type  1   force =     0.00001730    0.00003434   -0.00001225
     atom    3 type  2   force =    -0.00002226   -0.00021556    0.00022091
     atom    4 type  3   force =    -0.00004116    0.00005779   -0.00001411

     Total force =     0.000007     Total SCF correction =     0.000323
     SCF correction compared to forces is large: reduce conv_thr to get better values

     Computing stress (Cartesian axis) and pressure

     negative rho (up, down):  2.920E-01 0.000E+00
          total   stress  (Ry/bohr**3)                   (kbar)     P=     -129.78
  -0.00088229   0.00000000   0.00000000         -129.79        0.00        0.00
   0.00000000  -0.00088229   0.00000000            0.00     -129.79        0.00
  -0.00000000   0.00000000  -0.00088219           -0.00        0.00     -129.78

     kinetic stress (kbar)  39190.99     -0.00     -0.00
                                0.00  39190.99     -0.00
                               -0.00      0.00  39190.91

     local   stress (kbar)  22889.89     -0.18      0.42
                               -0.18  22890.03      0.15
                                0.42      0.15  22890.08

     nonloc. stress (kbar) -16697.10     -0.00      0.00
                                0.00 -16697.10      0.00
                                0.00      0.00 -16697.08

     hartree stress (kbar)   9625.89      0.07     -0.17
                                0.07   9625.91     -0.01
                               -0.17     -0.01   9625.84

     exc-cor stress (kbar)   9426.50      0.00     -0.00
                                0.00   9426.50     -0.00
                               -0.00     -0.00   9426.50

     corecor stress (kbar) -18133.01     -0.01      0.01
                               -0.01 -18133.00      0.01
                                0.01      0.01 -18133.01

     ewald   stress (kbar) -46433.02     -0.00      0.00
                               -0.00 -46433.02     -0.00
                                0.00     -0.00 -46433.02

     hubbard stress (kbar)      0.00      0.00      0.00
                                0.00      0.00      0.00
                                0.00      0.00      0.00

     DFT-D   stress (kbar)      0.00      0.00      0.00
                                0.00      0.00      0.00
                                0.00      0.00      0.00

     XDM     stress (kbar)      0.00      0.00      0.00
                                0.00      0.00      0.00
                                0.00      0.00      0.00

     dft-nl  stress (kbar)      0.00      0.00      0.00
                                0.00      0.00      0.00
                                0.00      0.00      0.00

     TS-vdW  stress (kbar)      0.00      0.00      0.00
                                0.00      0.00      0.00
                                0.00      0.00      0.00

[...]

                                0.00      0.00      0.00

     Writing all to output data dir calculations/myprefix.save/

     General routines

     Parallel routines

   This run was terminated on:  17:17:20   4Mar2023

   JOB DONE.