     Program PWSCF v.7.0 starts on  6Mar2023 at 14:12:29

     R & G space division:  proc/nbgrp/npool/nimage =      32

     Reading input from espresso_4882.pwi
Warning: card &CELL ignored
Warning: card / ignored

     Current dimensions of program PWSCF are:
     Max number of different atomic species (ntypx) = 10
     Max number of k-points (npk) =  40000
     Max angular momentum in pseudopotentials (lmaxx) =  4
     file Al.pbe-n-kjpaw_psl.1.0.0.UPF: wavefunction(s)  3S 3P renormalized

     gamma-point specific algorithms are used
     Message from routine setup:
     using ibrav=0 with symmetry is DISCOURAGED, use correct ibrav instead

     Using Slab Decomposition

     bravais-lattice index     =            0
     lattice parameter (alat)  =      10.3971  a.u.
     unit-cell volume          =     790.9684 (a.u.)^3
     number of atoms/cell      =            6
     number of atomic types    =            3
     number of electrons       =        84.00
     number of Kohn-Sham states=           50
     kinetic-energy cutoff     =      30.0000  Ry
     charge density cutoff     =     240.0000  Ry
     scf convergence threshold =      1.0E-06
     mixing beta               =       0.7000
     number of iterations used =            8  plain     mixing
     Exchange-correlation=  SLA  PW   PBX  PBC
                           (   1   4   3   4   0   0   0)

     celldm(1)=  10.397071  celldm(2)=   0.000000  celldm(3)=   0.000000
     celldm(4)=   0.000000  celldm(5)=   0.000000  celldm(6)=   0.000000

     crystal axes: (cart. coord. in units of alat)
               a(1) = (   1.000000   0.000000   0.000000 )
               a(2) = (  -0.730839   0.682550   0.000000 )
               a(3) = (   0.000000   0.000000   1.031079 )

     reciprocal axes: (cart. coord. in units 2 pi/alat)
               b(1) = (  1.000000  1.070748  0.000000 )
               b(2) = (  0.000000  1.465095  0.000000 )
               b(3) = (  0.000000  0.000000  0.969858 )

     PseudoPot. # 1 for Lu read from file:
     /home/pragov/projects/rrg-bengioy-ad/pragov/crystal_structure_design/SSSP/Lu.GGA-PBE-paw-v1.0.UPF
     MD5 check sum: 9ceca61ee0c17e9380a83635bfffa61d
     Pseudo is Projector augmented-wave + core cor, Zval = 25.0
     Generated using ATOMPAW code
     Shape of augmentation charge: BESSEL
     Using radial grid of 1118 points,  8 beta functions with:
                l(1) =   0
                l(2) =   0
                l(3) =   1
                l(4) =   1
                l(5) =   2
                l(6) =   2
                l(7) =   3
                l(8) =   3
     Q(r) pseudized with 0 coefficients

     PseudoPot. # 2 for Al read from file:
     /home/pragov/projects/rrg-bengioy-ad/pragov/crystal_structure_design/SSSP/Al.pbe-n-kjpaw_psl.1.0.0.UPF
     MD5 check sum: cfc449ca30b5f3223ec38ddd88ac046d
     Pseudo is Projector augmented-wave + core cor, Zval =  3.0
     Generated using "atomic" code by A. Dal Corso  v.5.1
     Shape of augmentation charge: PSQ
     Using radial grid of 1135 points,  6 beta functions with:
                l(1) =   0
                l(2) =   0
                l(3) =   1
                l(4) =   1
                l(5) =   2
                l(6) =   2
     Q(r) pseudized with 0 coefficients

     PseudoPot. # 3 for Ge read from file:
     /home/pragov/projects/rrg-bengioy-ad/pragov/crystal_structure_design/SSSP/ge_pbe_v1.4.uspp.F.UPF
     MD5 check sum: 9c9eaa91e581c3f09632fb3098b2c6b2
     Pseudo is Ultrasoft + core correction, Zval = 14.0
     Generated by new atomic code, or converted to UPF format
     Using radial grid of  873 points,  6 beta functions with:
                l(1) =   0
                l(2) =   0
                l(3) =   1
                l(4) =   1
                l(5) =   2
                l(6) =   2
     Q(r) pseudized with  8 coefficients,  rinner =    1.400   1.400   1.400
                                                       1.400   1.400

     atomic species   valence    mass     pseudopotential
        Lu            25.00   174.96680     Lu( 1.00)
        Al             3.00    26.98154     Al( 1.00)
        Ge            14.00    72.63000     Ge( 1.00)

      4 Sym. Ops., with inversion, found ( 2 have fractional translation)

                                    s                        frac. trans.

      isym =  1     identity

 cryst.   s( 1) = (     1          0          0      )
                  (     0          1          0      )
                  (     0          0          1      )

 cart.    s( 1) = (  1.0000000  0.0000000  0.0000000 )
                  (  0.0000000  1.0000000  0.0000000 )
                  (  0.0000000  0.0000000  1.0000000 )

      isym =  2     180 deg rotation - cart. axis [0,0,1]

 cryst.   s( 2) = (    -1          0          0      )    f =( -0.0000000 )
                  (     0         -1          0      )       ( -0.0000000 )
                  (     0          0          1      )       ( -0.5000000 )

 cart.    s( 2) = ( -1.0000000 -0.0000000  0.0000000 )    f =( -0.0000000 )
                  (  0.0000000 -1.0000000  0.0000000 )       ( -0.0000000 )
                  (  0.0000000  0.0000000  1.0000000 )       ( -0.5155393 )

      isym =  3     inversion

 cryst.   s( 3) = (    -1          0          0      )
                  (     0         -1          0      )
                  (     0          0         -1      )

 cart.    s( 3) = ( -1.0000000 -0.0000000  0.0000000 )
                  (  0.0000000 -1.0000000  0.0000000 )
                  (  0.0000000  0.0000000 -1.0000000 )

      isym =  4     inv. 180 deg rotation - cart. axis [0,0,1]

 cryst.   s( 4) = (     1          0          0      )    f =(  0.0000000 )
                  (     0          1          0      )       (  0.0000000 )
                  (     0          0         -1      )       (  0.5000000 )

 cart.    s( 4) = (  1.0000000  0.0000000  0.0000000 )    f =(  0.0000000 )
                  (  0.0000000  1.0000000  0.0000000 )       (  0.0000000 )
                  (  0.0000000  0.0000000 -1.0000000 )       (  0.5155393 )

   Cartesian axes

     site n.     atom                  positions (alat units)
         1           Lu  tau(   1) = (   0.4639747   0.2113795   0.2577696  )
         2           Lu  tau(   2) = (  -0.1948138   0.4711703   0.7733089  )
         3           Al  tau(   3) = (   0.0000000   0.0000000   0.0000000  )
         4           Al  tau(   4) = (   0.0000000   0.0000000   0.5155393  )
         5           Ge  tau(   5) = (  -0.0521251   0.4149016   0.2577696  )
         6           Ge  tau(   6) = (   0.3212861   0.2676483   0.7733089  )

   Crystallographic axes

     site n.     atom                  positions (cryst. coord.)
         1           Lu  tau(   1) = (  0.6903090  0.3096910  0.2500000  )
         2           Lu  tau(   2) = (  0.3096910  0.6903090  0.7500000  )
         3           Al  tau(   3) = (  0.0000000  0.0000000  0.0000000  )
         4           Al  tau(   4) = (  0.0000000  0.0000000  0.5000000  )
         5           Ge  tau(   5) = (  0.3921300  0.6078700  0.2500000  )
         6           Ge  tau(   6) = (  0.6078700  0.3921300  0.7500000  )

     number of k points=     1  Methfessel-Paxton smearing, width (Ry)=  0.0010
                       cart. coord. in units 2pi/alat
        k(    1) = (   0.0000000   0.0000000   0.0000000), wk =   2.0000000

                       cryst. coord.
        k(    1) = (   0.0000000   0.0000000   0.0000000), wk =   2.0000000

     Initial potential from superposition of free atoms

     starting charge      83.9861, renormalised to      84.0000
     Starting wfcs are   90 randomized atomic wfcs
     Checking if some PAW data can be deallocated...

     Self-consistent Calculation

     iteration #  1     ecut=    30.00 Ry     beta= 0.70
     Davidson diagonalization with overlap

     ethr =  1.00E-02,  avg # of iterations =  2.0

     Threshold (ethr) on eigenvalues was too large:
     Diagonalizing with lowered threshold

     Davidson diagonalization with overlap

[...]

     total energy              =   -2666.51926752 Ry
     estimated scf accuracy    <       0.23156047 Ry

[...]

     total energy              =   -2666.58399334 Ry
     estimated scf accuracy    <       0.00000613 Ry

     iteration #  8     ecut=    30.00 Ry     beta= 0.70
     Davidson diagonalization with overlap

     ethr =  7.30E-09,  avg # of iterations =  4.0

     End of self-consistent calculation

          k = 0.0000 0.0000 0.0000 (  1093 PWs)   bands (ev):

   -43.4634 -43.4555 -14.4032 -14.2456 -14.1919 -14.1829 -13.8972 -13.8299
   -10.9938 -10.9920 -10.9866 -10.9778 -10.9436 -10.9408 -10.9239 -10.9176
   -10.9160 -10.9152   1.7472   4.1834   7.6221   7.8329   7.8651   7.8680
     7.8732   7.8739   7.9037   7.9084   7.9138   7.9154   7.9511   7.9945
     8.0122   8.0163   8.0166   9.1349  10.2702  10.4974  11.1612  11.2516
    11.4903  12.1676  13.5287  14.1796  15.0671  15.3741  15.7742  16.0820
    17.0523  17.3256

     occupation numbers
     1.0000   1.0000   1.0000   1.0000   1.0000   1.0000   1.0000   1.0000
     1.0000   1.0000   1.0000   1.0000   1.0000   1.0000   1.0000   1.0000
     1.0000   1.0000   1.0000   1.0000   1.0000   1.0000   1.0000   1.0000
     1.0000   1.0000   1.0000   1.0000   1.0000   1.0000   1.0000   1.0000
     1.0000   1.0000   1.0000   1.0000   1.0000   1.0000   1.0000   1.0000
     1.0000   1.0000  -0.0000  -0.0000  -0.0000  -0.0000  -0.0000  -0.0000
    -0.0000  -0.0000

     the Fermi energy is    12.6913 ev

!    total energy              =   -2666.58399468 Ry
     estimated scf accuracy    <       0.00000033 Ry
     smearing contrib. (-TS)   =       0.00000000 Ry
     internal energy E=F+TS    =   -2666.58399468 Ry

     The total energy is F=E-TS. E is the sum of the following terms:
     one-electron contribution =   -1173.41495474 Ry
     hartree contribution      =     567.33860830 Ry
     xc contribution           =    -204.80380913 Ry
     ewald contribution        =    -804.53621964 Ry
     one-center paw contrib.   =   -1051.16761946 Ry
      -> PAW hartree energy AE =     491.26654950 Ry
      -> PAW hartree energy PS =    -422.85348772 Ry
      -> PAW xc energy AE      =    -599.33139080 Ry
      -> PAW xc energy PS      =      40.01503125 Ry
      -> total E_H with PAW    =     635.75167007 Ry
      -> total E_XC with PAW   =    -764.12016868 Ry

     convergence has been achieved in   8 iterations

     Forces acting on atoms (cartesian axes, Ry/au):

     atom    1 type  1   force =     0.10802970   -0.04271914    0.00000000
     atom    2 type  1   force =    -0.10802970    0.04271914    0.00000000
     atom    3 type  2   force =     0.00000000   -0.00000000    0.00000000
     atom    4 type  2   force =     0.00000000    0.00000000    0.00000000
     atom    5 type  3   force =    -0.02949290    0.01165034    0.00000000
     atom    6 type  3   force =     0.02949290   -0.01165034    0.00000000
     The non-local contrib.  to forces
     atom    1 type  1   force =    -0.02851028    0.01113876    0.00000000
     atom    2 type  1   force =     0.02851028   -0.01113876    0.00000000
     atom    3 type  2   force =     0.00000000    0.00000000    0.00000000
     atom    4 type  2   force =     0.00000000    0.00000000    0.00000000
     atom    5 type  3   force =     0.29521246   -0.11642209    0.00000000
     atom    6 type  3   force =    -0.29521246    0.11642209    0.00000000
     The ionic contribution  to forces
     atom    1 type  1   force =    -7.78815000    3.07122740   -0.00000000
     atom    2 type  1   force =     7.78814999   -3.07122740   -0.00000000
     atom    3 type  2   force =     0.00000000   -0.00000000    0.00000000
     atom    4 type  2   force =     0.00000000   -0.00000000   -0.00000000
     atom    5 type  3   force =     9.74246739   -3.84190505   -0.00000000
     atom    6 type  3   force =    -9.74246739    3.84190505    0.00000000
     The local contribution  to forces
     atom    1 type  1   force =     7.92445232   -3.12486011    0.00208316
     atom    2 type  1   force =    -7.92433667    3.12479035   -0.00246270
     atom    3 type  2   force =     0.00002314   -0.00000880   -0.00005098
     atom    4 type  2   force =     0.00001119    0.00000455    0.00005573
     atom    5 type  3   force =   -10.06119194    3.96755250    0.00144729
     atom    6 type  3   force =    10.06120162   -3.96764297   -0.00132988
     The core correction contribution to forces
     atom    1 type  1   force =     0.00000533   -0.00000210    0.00000001
     atom    2 type  1   force =    -0.00000533    0.00000210   -0.00000001
     atom    3 type  2   force =     0.00000123   -0.00000034   -0.00000033
     atom    4 type  2   force =     0.00000077    0.00000020    0.00000126
     atom    5 type  3   force =    -0.00545436    0.00215058    0.00000866
     atom    6 type  3   force =     0.00545534   -0.00215300   -0.00000688
     The Hubbard contrib.    to forces
     atom    1 type  1   force =     0.00000000    0.00000000    0.00000000
     atom    2 type  1   force =     0.00000000    0.00000000    0.00000000
     atom    3 type  2   force =     0.00000000    0.00000000    0.00000000
     atom    4 type  2   force =     0.00000000    0.00000000    0.00000000
     atom    5 type  3   force =     0.00000000    0.00000000    0.00000000
     atom    6 type  3   force =     0.00000000    0.00000000    0.00000000
     The SCF correction term to forces
     atom    1 type  1   force =     0.00019852   -0.00021278   -0.00250294
     atom    2 type  1   force =    -0.00038177    0.00030315    0.00290917
     atom    3 type  2   force =    -0.00001153    0.00000139    0.00004151
     atom    4 type  2   force =    -0.00000517   -0.00000205   -0.00004238
     atom    5 type  3   force =    -0.00048654    0.00026691   -0.00164969
     atom    6 type  3   force =     0.00055568   -0.00018900    0.00161544

     Total force =     0.170299     Total SCF correction =     0.004587

     Computing stress (Cartesian axis) and pressure

          total   stress  (Ry/bohr**3)                   (kbar)     P=      -10.95
   0.00018137   0.00024001   0.00000000           26.68       35.31        0.00
   0.00024001   0.00069550   0.00000000           35.31      102.31        0.00
   0.00000000   0.00000000  -0.00110019            0.00        0.00     -161.84

     kinetic stress (kbar)  10867.26     98.53      0.00
                               98.53  11078.30      0.00
                                0.00      0.00  10501.04

     local   stress (kbar)   5201.06   1030.47     -0.03
                             1030.47   7407.88      0.01
                               -0.03      0.01 -12644.55

     nonloc. stress (kbar)  12824.58     54.32      0.00
                               54.32  12940.89      0.00
                                0.00      0.00  12707.03

     hartree stress (kbar)  32472.39   -218.44      0.02
                             -218.44  32004.54     -0.01
                                0.02     -0.01  41037.26

     exc-cor stress (kbar)   2861.59      2.76      0.00
                                2.76   2867.51     -0.00
                                0.00     -0.00   2857.98

     corecor stress (kbar) -11795.64     -0.81     -0.00
                               -0.81 -11797.39     -0.00
                               -0.00     -0.00 -11796.15

     ewald   stress (kbar) -52404.55   -931.53      0.00
                             -931.53 -54399.42     -0.00
                                0.00     -0.00 -42824.46

     hubbard stress (kbar)      0.00      0.00      0.00
                                0.00      0.00      0.00
                                0.00      0.00      0.00

     DFT-D   stress (kbar)      0.00      0.00      0.00
                                0.00      0.00      0.00
                                0.00      0.00      0.00

     XDM     stress (kbar)      0.00      0.00      0.00
                                0.00      0.00      0.00
                                0.00      0.00      0.00

     dft-nl  stress (kbar)      0.00      0.00      0.00
                                0.00      0.00      0.00
                                0.00      0.00      0.00

     TS-vdW  stress (kbar)      0.00      0.00      0.00
                                0.00      0.00      0.00
                                0.00      0.00      0.00

[...]

                                0.00      0.00      0.00

     Writing all to output data dir calculations/myprefix.save/

     General routines

     Parallel routines

     PAW routines

   This run was terminated on:  14:12:34   6Mar2023

   JOB DONE.