     Program PWSCF v.7.0 starts on  3Mar2023 at 14:19:20

     R & G space division:  proc/nbgrp/npool/nimage =      32

     Reading input from espresso_580.pwi
Warning: card &CELL ignored
Warning: card / ignored

     Current dimensions of program PWSCF are:
     Max number of different atomic species (ntypx) = 10
     Max number of k-points (npk) =  40000
     Max angular momentum in pseudopotentials (lmaxx) =  4
     file Ga.pbe-dn-kjpaw_psl.1.0.0.UPF: wavefunction(s)  4S renormalized

     gamma-point specific algorithms are used
     Message from routine setup:
     using ibrav=0 with symmetry is DISCOURAGED, use correct ibrav instead

     Using Slab Decomposition

     bravais-lattice index     =            0
     lattice parameter (alat)  =      16.4004  a.u.
     unit-cell volume          =    2598.7625 (a.u.)^3
     number of atoms/cell      =           20
     number of atomic types    =            1
     number of electrons       =       260.00
     number of Kohn-Sham states=          156
     kinetic-energy cutoff     =      30.0000  Ry
     charge density cutoff     =     240.0000  Ry
     scf convergence threshold =      1.0E-06
     mixing beta               =       0.7000
     number of iterations used =            8  plain     mixing
     Exchange-correlation= SLA  PW   PBX  PBC
                           (   1   4   3   4   0   0   0)

     celldm(1)=  16.400411  celldm(2)=   0.000000  celldm(3)=   0.000000
     celldm(4)=   0.000000  celldm(5)=   0.000000  celldm(6)=   0.000000

     crystal axes: (cart. coord. in units of alat)
               a(1) = (   1.000000   0.000000   0.000000 )
               a(2) = (  -0.246535   0.969134   0.000000 )
               a(3) = (   0.000000   0.000000   0.607881 )

     reciprocal axes: (cart. coord. in units 2 pi/alat)
               b(1) = (  1.000000  0.254387  0.000000 )
               b(2) = (  0.000000  1.031849  0.000000 )
               b(3) = (  0.000000  0.000000  1.645059 )

     PseudoPot. # 1 for Ga read from file:
     /home/pragov/projects/rrg-bengioy-ad/pragov/crystal_structure_design/SSSP/Ga.pbe-dn-kjpaw_psl.1.0.0.UPF
     MD5 check sum: a27b4342b1af7e5f338de752e9ed7044
     Pseudo is Projector augmented-wave + core cor, Zval = 13.0
     Generated using "atomic" code by A. Dal Corso  v.5.1
     Shape of augmentation charge: PSQ
     Using radial grid of 1205 points,  6 beta functions with:
                l(1) =   0
                l(2) =   0
                l(3) =   1
                l(4) =   1
                l(5) =   2
                l(6) =   2
     Q(r) pseudized with 0 coefficients

     atomic species   valence    mass     pseudopotential
        Ga            13.00    69.72300     Ga( 1.00)

      4 Sym. Ops., with inversion, found ( 2 have fractional translation)

                                    s                        frac. trans.

      isym =  1     identity

 cryst.   s( 1) = (     1          0          0      )
                  (     0          1          0      )
                  (     0          0          1      )

 cart.    s( 1) = (  1.0000000  0.0000000  0.0000000 )
                  (  0.0000000  1.0000000  0.0000000 )
                  (  0.0000000  0.0000000  1.0000000 )

      isym =  2     180 deg rotation - cart. axis [0,0,1]

 cryst.   s( 2) = (    -1          0          0      )    f =(  0.0000000 )
                  (     0         -1          0      )       (  0.0000000 )
                  (     0          0          1      )       (  0.5000000 )

 cart.    s( 2) = ( -1.0000000 -0.0000000  0.0000000 )    f =(  0.0000000 )
                  (  0.0000000 -1.0000000  0.0000000 )       (  0.0000000 )
                  (  0.0000000  0.0000000  1.0000000 )       (  0.3039405 )

      isym =  3     inversion

 cryst.   s( 3) = (    -1          0          0      )
                  (     0         -1          0      )
                  (     0          0         -1      )

 cart.    s( 3) = ( -1.0000000 -0.0000000  0.0000000 )
                  (  0.0000000 -1.0000000  0.0000000 )
                  (  0.0000000  0.0000000 -1.0000000 )

      isym =  4     inv. 180 deg rotation - cart. axis [0,0,1]

 cryst.   s( 4) = (     1          0          0      )    f =(  0.0000000 )
                  (     0          1          0      )       (  0.0000000 )
                  (     0          0         -1      )       (  0.5000000 )

 cart.    s( 4) = (  1.0000000  0.0000000  0.0000000 )    f =(  0.0000000 )
                  (  0.0000000  1.0000000  0.0000000 )       (  0.0000000 )
                  (  0.0000000  0.0000000 -1.0000000 )       (  0.3039405 )

   Cartesian axes

     site n.     atom                  positions (alat units)
         1           Ga  tau(   1) = (   0.2725423   0.2194953   0.4559108  )
         2           Ga  tau(   2) = (   0.5100706   0.3809016   0.3023515  )
         3           Ga  tau(   3) = (   0.4809228   0.7496386   0.1519703  )
         4           Ga  tau(   4) = (   0.7555621   0.6136440   0.1519703  )
         5           Ga  tau(   5) = (   0.1051759   0.8909665   0.4559108  )
         6           Ga  tau(   6) = (   0.6482892   0.0781674   0.1519703  )
         7           Ga  tau(   7) = (  -0.0840712   0.6475501   0.4559108  )
         8           Ga  tau(   8) = (  -0.2458767   0.9686222   0.4559108  )
         9           Ga  tau(   9) = (  -0.0020970   0.3554899   0.4559108  )
        10           Ga  tau(  10) = (   0.3450343   0.0856084   0.1519703  )
        11           Ga  tau(  11) = (   0.5100706   0.3809016   0.0015890  )
        12           Ga  tau(  12) = (   0.0202597   0.7617112   0.1519703  )
        13           Ga  tau(  13) = (   0.1455291   0.3182432   0.1519703  )
        14           Ga  tau(  14) = (   0.7332054   0.2074228   0.4559108  )
        15           Ga  tau(  15) = (   0.2433944   0.5882323   0.6062921  )
        16           Ga  tau(  16) = (   0.8375363   0.3215838   0.1519703  )
        17           Ga  tau(  17) = (   0.9993418   0.0005117   0.1519703  )
        18           Ga  tau(  18) = (   0.6079360   0.6508907   0.4559108  )
        19           Ga  tau(  19) = (   0.2433944   0.5882323   0.3055296  )
        20           Ga  tau(  20) = (   0.4084308   0.8835255   0.4559108  )

   Crystallographic axes

     site n.     atom                  positions (cryst. coord.)
         1           Ga  tau(   1) = (  0.3283790  0.2264860  0.7500000  )
         2           Ga  tau(   2) = (  0.6069670  0.3930330  0.4973860  )
         3           Ga  tau(   3) = (  0.6716210  0.7735140  0.2500000  )
         4           Ga  tau(   4) = (  0.9116650  0.6331880  0.2500000  )
         5           Ga  tau(   5) = (  0.3318260  0.9193430  0.7500000  )
         6           Ga  tau(   6) = (  0.6681740  0.0806570  0.2500000  )
         7           Ga  tau(   7) = (  0.0806570  0.6681740  0.7500000  )
         8           Ga  tau(   8) = (  0.0005280  0.9994720  0.7500000  )
         9           Ga  tau(   9) = (  0.0883350  0.3668120  0.7500000  )
        10           Ga  tau(  10) = (  0.3668120  0.0883350  0.2500000  )
        11           Ga  tau(  11) = (  0.6069670  0.3930330  0.0026140  )
        12           Ga  tau(  12) = (  0.2140290  0.7859710  0.2500000  )
        13           Ga  tau(  13) = (  0.2264860  0.3283790  0.2500000  )
        14           Ga  tau(  14) = (  0.7859710  0.2140290  0.7500000  )
        15           Ga  tau(  15) = (  0.3930330  0.6069670  0.9973860  )
        16           Ga  tau(  16) = (  0.9193430  0.3318260  0.2500000  )
        17           Ga  tau(  17) = (  0.9994720  0.0005280  0.2500000  )
        18           Ga  tau(  18) = (  0.7735140  0.6716210  0.7500000  )
        19           Ga  tau(  19) = (  0.3930330  0.6069670  0.5026140  )
        20           Ga  tau(  20) = (  0.6331880  0.9116650  0.7500000  )

     number of k points=     1  Methfessel-Paxton smearing, width (Ry)=  0.0010
                       cart. coord. in units 2pi/alat
        k(    1) = (   0.0000000   0.0000000   0.0000000), wk =   2.0000000

                       cryst. coord.
        k(    1) = (   0.0000000   0.0000000   0.0000000), wk =   2.0000000

     Check: negative core charge=   -0.000002

     Initial potential from superposition of free atoms

     starting charge     259.9409, renormalised to     260.0000
     Starting wfcs are  180 randomized atomic wfcs
     Checking if some PAW data can be deallocated...

     Self-consistent Calculation

     iteration #  1     ecut=    30.00 Ry     beta= 0.70
     Davidson diagonalization with overlap

     ethr =  1.00E-02,  avg # of iterations =  3.0

     Threshold (ethr) on eigenvalues was too large:
     Diagonalizing with lowered threshold

     Davidson diagonalization with overlap

[...]

     total energy              =   -5557.78108630 Ry
     estimated scf accuracy    <       0.19872301 Ry

[...]

     total energy              =   -5557.82918585 Ry
     estimated scf accuracy    <       0.00000273 Ry

     iteration # 12     ecut=    30.00 Ry     beta= 0.70
     Davidson diagonalization with overlap

     ethr =  1.05E-09,  avg # of iterations =  2.0

     End of self-consistent calculation

          k = 0.0000 0.0000 0.0000 (  3622 PWs)   bands (ev):

    -5.8164  -5.7922  -5.7795  -5.7700  -5.7581  -5.7357  -5.7255  -5.7244
    -5.6955  -5.6811  -5.6790  -5.6782  -5.6720  -5.6697  -5.6497  -5.6467
    -5.6462  -5.6422  -5.6418  -5.6401  -5.6377  -5.6287  -5.6216  -5.6212
    -5.6141  -5.5990  -5.5893  -5.5834  -5.5787  -5.5728  -5.5595  -5.5592
    -5.5515  -5.5303  -5.5263  -5.5260  -5.5258  -5.5223  -5.5149  -5.5113
    -5.5095  -5.5010  -5.4879  -5.4822  -5.4811  -5.4793  -5.4687  -5.4683
    -5.4679  -5.4496  -5.4451  -5.4408  -5.4379  -5.4365  -5.4191  -5.4145
    -5.4115  -5.4104  -5.4016  -5.3862  -5.3857  -5.3812  -5.3776  -5.3684
    -5.3639  -5.3596  -5.3440  -5.3335  -5.3051  -5.2995  -5.2978  -5.2959
    -5.2939  -5.2590  -5.2387  -5.2332  -5.2154  -5.2139  -5.2133  -5.2075
    -5.2026  -5.1955  -5.1814  -5.1794  -5.1432  -5.1004  -5.0980  -5.0819
    -5.0627  -5.0591  -5.0443  -5.0282  -5.0190  -5.0062  -4.9773  -4.9758
    -4.9542  -4.9320  -4.8891  -4.8293  -1.5487   0.4017   0.4669   0.7800
     0.8341   1.6171   1.8274   3.5115   3.5183   4.2244   4.7024   5.2847
     5.4108   5.4619   5.8758   6.3363   6.4668   6.7669   6.8478   6.8500
     6.9461   7.0139   7.1948   7.5103   7.6770   7.7897   8.1185   8.1340
     8.1438   8.2650   8.4787   8.9438   9.4151   9.4730  10.7993  11.1564
    11.1885  11.4332  11.4495  11.5453  11.7008  12.1749  12.6166  12.6509
    12.6644  13.2559  13.2629  13.2779  13.3205  13.5885  13.8987  14.1096
    14.3518  14.6643  15.5906  15.6004

     occupation numbers
     1.0000   1.0000   1.0000   1.0000   1.0000   1.0000   1.0000   1.0000
     1.0000   1.0000   1.0000   1.0000   1.0000   1.0000   1.0000   1.0000
     1.0000   1.0000   1.0000   1.0000   1.0000   1.0000   1.0000   1.0000
     1.0000   1.0000   1.0000   1.0000   1.0000   1.0000   1.0000   1.0000
     1.0000   1.0000   1.0000   1.0000   1.0000   1.0000   1.0000   1.0000
     1.0000   1.0000   1.0000   1.0000   1.0000   1.0000   1.0000   1.0000
     1.0000   1.0000   1.0000   1.0000   1.0000   1.0000   1.0000   1.0000
     1.0000   1.0000   1.0000   1.0000   1.0000   1.0000   1.0000   1.0000
     1.0000   1.0000   1.0000   1.0000   1.0000   1.0000   1.0000   1.0000
     1.0000   1.0000   1.0000   1.0000   1.0000   1.0000   1.0000   1.0000
     1.0000   1.0000   1.0000   1.0000   1.0000   1.0000   1.0000   1.0000
     1.0000   1.0000   1.0000   1.0000   1.0000   1.0000   1.0000   1.0000
     1.0000   1.0000   1.0000   1.0000   1.0000   1.0000   1.0000   1.0000
     1.0000   1.0000   1.0000   1.0000   1.0000   1.0000   1.0000   1.0000
     1.0000   1.0000   1.0000   1.0000   1.0000   1.0000   1.0000   1.0000
     1.0000   1.0000   1.0000   1.0000   1.0000   1.0000   1.0000   1.0000
     1.0000   1.0000  -0.0000  -0.0000  -0.0000  -0.0000  -0.0000  -0.0000
    -0.0000  -0.0000  -0.0000  -0.0000  -0.0000  -0.0000  -0.0000  -0.0000
    -0.0000  -0.0000  -0.0000  -0.0000  -0.0000  -0.0000  -0.0000  -0.0000
    -0.0000  -0.0000  -0.0000  -0.0000

     the Fermi energy is     8.3656 ev

!    total energy              =   -5557.82918617 Ry

     total all-electron energy =    -77761.122391 Ry
     estimated scf accuracy    <       0.00000018 Ry
     smearing contrib. (-TS)   =       0.00000000 Ry
     internal energy E=F+TS    =   -5557.82918617 Ry

     The total energy is F=E-TS. E is the sum of the following terms:
     one-electron contribution =   -1898.55510150 Ry
     hartree contribution      =    1223.73201831 Ry
     xc contribution           =    -761.73350462 Ry
     ewald contribution        =   -1902.61702815 Ry
     one-center paw contrib.   =   -2218.65557021 Ry
      -> PAW hartree energy AE =     139.66404136 Ry
      -> PAW hartree energy PS =    -137.45583253 Ry
      -> PAW xc energy AE      =    -150.73089949 Ry
      -> PAW xc energy PS      =      37.58300945 Ry
      -> total E_H with PAW    =    1225.94022713 Ry
      -> total E_XC with PAW   =    -874.88139466 Ry

     convergence has been achieved in  12 iterations

     Forces acting on atoms (cartesian axes, Ry/au):

     atom    1 type  1   force =     0.00493057   -0.00686386    0.00000000
     atom    2 type  1   force =     0.00818130   -0.00640396   -0.02024483
     atom    3 type  1   force =    -0.00493057    0.00686386   -0.00000000
     atom    4 type  1   force =    -0.02171128    0.00831824    0.00000000
     atom    5 type  1   force =    -0.00787834   -0.01520639   -0.00000000
     atom    6 type  1   force =     0.00787834    0.01520639    0.00000000
     atom    7 type  1   force =     0.01280928    0.01146997    0.00000000
     atom    8 type  1   force =     0.00980647   -0.00763866    0.00000000
     atom    9 type  1   force =     0.02171128   -0.00831824    0.00000000
     atom   10 type  1   force =    -0.01351235    0.01885812    0.00000000
     atom   11 type  1   force =     0.00818130   -0.00640396    0.02024483
     atom   12 type  1   force =     0.00944235   -0.00720036   -0.00000000
     atom   13 type  1   force =    -0.00765220    0.00294201    0.00000000
     atom   14 type  1   force =    -0.00944235    0.00720036    0.00000000
     atom   15 type  1   force =    -0.00818130    0.00640396   -0.02024483
     atom   16 type  1   force =    -0.01280928   -0.01146997    0.00000000
     atom   17 type  1   force =    -0.00980647    0.00763866    0.00000000
     atom   18 type  1   force =     0.00765220   -0.00294201    0.00000000
     atom   19 type  1   force =    -0.00818130    0.00640396    0.02024483
     atom   20 type  1   force =     0.01351235   -0.01885812   -0.00000000
     The non-local contrib.  to forces
     atom    1 type  1   force =    -0.05052519    0.11039939    0.00000000
     atom    2 type  1   force =     0.00438693   -0.00340834    0.12843938
     atom    3 type  1   force =     0.05052519   -0.11039939    0.00000000
     atom    4 type  1   force =     0.06847701   -0.16840915    0.00000000
     atom    5 type  1   force =    -0.06393199    0.02334458    0.00000000
     atom    6 type  1   force =     0.06393199   -0.02334458    0.00000000
     atom    7 type  1   force =    -0.03835911    0.05620928    0.00000000
     atom    8 type  1   force =    -0.19149276    0.14886380   -0.00000000
     atom    9 type  1   force =    -0.06847701    0.16840915    0.00000000
     atom   10 type  1   force =     0.18013570   -0.02478386    0.00000000
     atom   11 type  1   force =     0.00438693   -0.00340834   -0.12843938
     atom   12 type  1   force =    -0.07642351    0.05937756    0.00000000
     atom   13 type  1   force =     0.11933886   -0.02173640    0.00000000
     atom   14 type  1   force =     0.07642351   -0.05937756    0.00000000
     atom   15 type  1   force =    -0.00438693    0.00340834    0.12843938
     atom   16 type  1   force =     0.03835911   -0.05620928    0.00000000
     atom   17 type  1   force =     0.19149276   -0.14886380   -0.00000000
     atom   18 type  1   force =    -0.11933886    0.02173640    0.00000000
     atom   19 type  1   force =    -0.00438693    0.00340834   -0.12843938
     atom   20 type  1   force =    -0.18013570    0.02478386    0.00000000
     The ionic contribution  to forces
     atom    1 type  1   force =     0.22842773   -1.84738367    0.00000000
     atom    2 type  1   force =     0.50221623   -0.39045419   -0.96283056
     atom    3 type  1   force =    -0.22842773    1.84738367    0.00000000
     atom    4 type  1   force =     1.56969875   -0.73854314    0.00000000
     atom    5 type  1   force =     0.77309272    1.97625204    0.00000000
     atom    6 type  1   force =    -0.77309272   -1.97625204    0.00000000
     atom    7 type  1   force =    -1.72465853   -1.23644549    0.00000000
     atom    8 type  1   force =     0.61402738   -0.47738315    0.00000000
     atom    9 type  1   force =    -1.56969875    0.73854314    0.00000000
     atom   10 type  1   force =     1.10273274   -1.33917163    0.00000000
     atom   11 type  1   force =     0.50221623   -0.39045419    0.96283056
     atom   12 type  1   force =    -0.20830922    0.16195257    0.00000000
     atom   13 type  1   force =    -1.84667757   -0.23406750    0.00000000
     atom   14 type  1   force =     0.20830922   -0.16195257    0.00000000
     atom   15 type  1   force =    -0.50221623    0.39045419   -0.96283056
     atom   16 type  1   force =     1.72465853    1.23644549    0.00000000
     atom   17 type  1   force =    -0.61402738    0.47738315    0.00000000
     atom   18 type  1   force =     1.84667757    0.23406750    0.00000000
     atom   19 type  1   force =    -0.50221623    0.39045419    0.96283056
     atom   20 type  1   force =    -1.10273274    1.33917163    0.00000000
     The local contribution  to forces
     atom    1 type  1   force =    -0.17382285    1.73197453   -0.00001123
     atom    2 type  1   force =    -0.49730186    0.38712383    0.81563446
     atom    3 type  1   force =     0.17409850   -1.73196169   -0.00000196
     atom    4 type  1   force =    -1.65969616    0.91268928    0.00000223
     atom    5 type  1   force =    -0.71893595   -2.01597929   -0.00000319
     atom    6 type  1   force =     0.71933117    2.01550519   -0.00000085
     atom    7 type  1   force =     1.77593295    1.19399843    0.00000311
     atom    8 type  1   force =    -0.41677785    0.32345250   -0.00000181
     atom    9 type  1   force =     1.65915379   -0.91257793   -0.00000489
     atom   10 type  1   force =    -1.29346065    1.38295507    0.00000628
     atom   11 type  1   force =    -0.49731881    0.38711910   -0.81562977
     atom   12 type  1   force =     0.29292847   -0.22790788   -0.00000803
     atom   13 type  1   force =     1.72147818    0.25851541   -0.00001000
     atom   14 type  1   force =    -0.29309853    0.22762315   -0.00000001
     atom   15 type  1   force =     0.49778496   -0.38652032    0.81558666
     atom   16 type  1   force =    -1.77649480   -1.19376786   -0.00000494
     atom   17 type  1   force =     0.41617681   -0.32416796   -0.00000162
     atom   18 type  1   force =    -1.72152690   -0.25825053    0.00000423
     atom   19 type  1   force =     0.49778597   -0.38651768   -0.81559226
     atom   20 type  1   force =     1.29375096   -1.38338355    0.00000399
     The core correction contribution to forces
     atom    1 type  1   force =     0.00082908   -0.00193319   -0.00000044
     atom    2 type  1   force =    -0.00041154    0.00032142   -0.00150626
     atom    3 type  1   force =    -0.00082790    0.00193348    0.00000006
     atom    4 type  1   force =    -0.00012092    0.00274492    0.00000002
     atom    5 type  1   force =     0.00209130    0.00060731   -0.00000018
     atom    6 type  1   force =    -0.00208963   -0.00060780   -0.00000003
     atom    7 type  1   force =    -0.00007514   -0.00217530    0.00000000
     atom    8 type  1   force =     0.00347155   -0.00269995   -0.00000003
     atom    9 type  1   force =     0.00011932   -0.00274733   -0.00000042
     atom   10 type  1   force =    -0.00269287   -0.00056208    0.00000025
     atom   11 type  1   force =    -0.00041211    0.00032139    0.00150655
     atom   12 type  1   force =     0.00096856   -0.00075432   -0.00000020
     atom   13 type  1   force =    -0.00207540    0.00032647   -0.00000030
     atom   14 type  1   force =    -0.00096992    0.00075216    0.00000001
     atom   15 type  1   force =     0.00041289   -0.00032034   -0.00150652
     atom   16 type  1   force =     0.00007370    0.00217706   -0.00000016
     atom   17 type  1   force =    -0.00347271    0.00269828   -0.00000001
     atom   18 type  1   force =     0.00207671   -0.00032614    0.00000019
     atom   19 type  1   force =     0.00041286   -0.00032034    0.00150642
     atom   20 type  1   force =     0.00269143    0.00056071    0.00000000
     The Hubbard contrib.    to forces
     atom    1 type  1   force =     0.00000000    0.00000000    0.00000000
     atom    2 type  1   force =     0.00000000    0.00000000    0.00000000
     atom    3 type  1   force =     0.00000000    0.00000000    0.00000000
     atom    4 type  1   force =     0.00000000    0.00000000    0.00000000
     atom    5 type  1   force =     0.00000000    0.00000000    0.00000000
     atom    6 type  1   force =     0.00000000    0.00000000    0.00000000
     atom    7 type  1   force =     0.00000000    0.00000000    0.00000000
     atom    8 type  1   force =     0.00000000    0.00000000    0.00000000
     atom    9 type  1   force =     0.00000000    0.00000000    0.00000000
     atom   10 type  1   force =     0.00000000    0.00000000    0.00000000
     atom   11 type  1   force =     0.00000000    0.00000000    0.00000000
     atom   12 type  1   force =     0.00000000    0.00000000    0.00000000
     atom   13 type  1   force =     0.00000000    0.00000000    0.00000000
     atom   14 type  1   force =     0.00000000    0.00000000    0.00000000
     atom   15 type  1   force =     0.00000000    0.00000000    0.00000000
     atom   16 type  1   force =     0.00000000    0.00000000    0.00000000
     atom   17 type  1   force =     0.00000000    0.00000000    0.00000000
     atom   18 type  1   force =     0.00000000    0.00000000    0.00000000
     atom   19 type  1   force =     0.00000000    0.00000000    0.00000000
     atom   20 type  1   force =     0.00000000    0.00000000    0.00000000
     The SCF correction term to forces
     atom    1 type  1   force =     0.00001408    0.00007175    0.00001940
     atom    2 type  1   force =    -0.00073130   -0.00000453    0.00001281
     atom    3 type  1   force =    -0.00030634   -0.00009954    0.00000560
     atom    4 type  1   force =    -0.00005155   -0.00018816   -0.00000209
     atom    5 type  1   force =    -0.00019523    0.00058650    0.00000644
     atom    6 type  1   force =    -0.00020328   -0.00007686    0.00001181
     atom    7 type  1   force =    -0.00002008   -0.00011938   -0.00000843
     atom    8 type  1   force =     0.00060389    0.00013988    0.00000030
     atom    9 type  1   force =     0.00063233    0.00003026    0.00001438
     atom   10 type  1   force =    -0.00025052    0.00041919   -0.00000841
     atom   11 type  1   force =    -0.00070681   -0.00000546   -0.00002346
     atom   12 type  1   force =     0.00028212    0.00013844    0.00001289
     atom   13 type  1   force =     0.00028575   -0.00010633    0.00001873
     atom   14 type  1   force =    -0.00010256    0.00016190   -0.00000466
     atom   15 type  1   force =     0.00020797   -0.00063989    0.00007394
     atom   16 type  1   force =     0.00060499   -0.00011779    0.00002077
     atom   17 type  1   force =     0.00004980    0.00060073    0.00000426
     atom   18 type  1   force =    -0.00023430   -0.00017960   -0.00000127
     atom   19 type  1   force =     0.00020032   -0.00063999   -0.00005779
     atom   20 type  1   force =    -0.00008486    0.00000782   -0.00000115

     Total force =     0.079215     Total SCF correction =     0.002152

     Computing stress (Cartesian axis) and pressure

          total   stress  (Ry/bohr**3)                   (kbar)     P=       15.84
  -0.00023281  -0.00077921   0.00000000          -34.25     -114.63        0.00
  -0.00077921  -0.00062924   0.00000000         -114.63      -92.56        0.00
   0.00000000   0.00000000   0.00118512            0.00        0.00      174.34

     kinetic stress (kbar)  10956.15   -121.23      0.00
                             -121.23  10894.48      0.00
                                0.00      0.00  11281.09

     local   stress (kbar)   7976.79    373.53      0.00
                              373.53   8166.83     -0.00
                                0.00     -0.00   5368.87

     nonloc. stress (kbar)   3434.39    -21.68      0.00
                              -21.68   3423.36      0.00
                                0.00      0.00   3522.02

     hartree stress (kbar)  22705.88   -158.16     -0.00
                             -158.16  22625.41      0.00
                               -0.00      0.00  23939.06

     exc-cor stress (kbar)   7583.65     -1.23     -0.00
                               -1.23   7583.02      0.00
                               -0.00      0.00   7589.16

     corecor stress (kbar) -16432.47      2.00      0.00
                                2.00 -16431.46     -0.00
                                0.00     -0.00 -16439.51

     ewald   stress (kbar) -36258.63   -187.84     -0.00
                             -187.84 -36354.20     -0.00
                               -0.00     -0.00 -35086.36

     hubbard stress (kbar)      0.00      0.00      0.00
                                0.00      0.00      0.00
                                0.00      0.00      0.00

     DFT-D   stress (kbar)      0.00      0.00      0.00
                                0.00      0.00      0.00
                                0.00      0.00      0.00

     XDM     stress (kbar)      0.00      0.00      0.00
                                0.00      0.00      0.00
                                0.00      0.00      0.00

     dft-nl  stress (kbar)      0.00      0.00      0.00
                                0.00      0.00      0.00
                                0.00      0.00      0.00

     TS-vdW  stress (kbar)      0.00      0.00      0.00
                                0.00      0.00      0.00
                                0.00      0.00      0.00

[...]

                                0.00      0.00      0.00

     Writing all to output data dir calculations/myprefix.save/

     General routines

     Parallel routines

     PAW routines

   This run was terminated on:  14:19:26   3Mar2023

   JOB DONE.