     Program PWSCF v.7.0 starts on  4Mar2023 at 20:29:41

     R & G space division:  proc/nbgrp/npool/nimage =      32

     Reading input from espresso_7573.pwi
Warning: card &CELL ignored
Warning: card / ignored

     Current dimensions of program PWSCF are:
     Max number of different atomic species (ntypx) = 10
     Max number of k-points (npk) =  40000
     Max angular momentum in pseudopotentials (lmaxx) =  4
     file K.pbe-spn-kjpaw_psl.1.0.0.UPF: wavefunction(s)  3S renormalized
     file In.pbe-dn-rrkjus_psl.0.2.2.UPF: wavefunction(s)  5S renormalized

     gamma-point specific algorithms are used
     Message from routine setup:
     using ibrav=0 with symmetry is DISCOURAGED, use correct ibrav instead

     Using Slab Decomposition

     bravais-lattice index     =            0
     lattice parameter (alat)  =      12.6310  a.u.
     unit-cell volume          =    1424.9615 (a.u.)^3
     number of atoms/cell      =           10
     number of atomic types    =            4
     number of electrons       =        82.00
     number of Kohn-Sham states=           49
     kinetic-energy cutoff     =      30.0000  Ry
     charge density cutoff     =     240.0000  Ry
     scf convergence threshold =      1.0E-06
     mixing beta               =       0.7000
     number of iterations used =            8  plain     mixing
     Exchange-correlation=  SLA  PW   PBX  PBC
                           (   1   4   3   4   0   0   0)

     celldm(1)=  12.631048  celldm(2)=   0.000000  celldm(3)=   0.000000
     celldm(4)=   0.000000  celldm(5)=   0.000000  celldm(6)=   0.000000

     crystal axes: (cart. coord. in units of alat)
               a(1) = (   1.000000   0.000000   0.000000 )
               a(2) = (   0.500000   0.866025   0.000000 )
               a(3) = (   0.500000   0.288675   0.816497 )

     reciprocal axes: (cart. coord. in units 2 pi/alat)
               b(1) = (  1.000000 -0.577350 -0.408248 )
               b(2) = (  0.000000  1.154701 -0.408248 )
               b(3) = (  0.000000  0.000000  1.224745 )

     PseudoPot. # 1 for Cs read from file:
     /home/pragov/projects/rrg-bengioy-ad/pragov/crystal_structure_design/SSSP/Cs_pbe_v1.uspp.F.UPF
     MD5 check sum: 3476d69cb178dfad3ffaa59df4e07ca4
     Pseudo is Ultrasoft + core correction, Zval =  9.0
     Generated by new atomic code, or converted to UPF format
     Using radial grid of  905 points,  6 beta functions with:
                l(1) =   0
                l(2) =   0
                l(3) =   1
                l(4) =   1
                l(5) =   2
                l(6) =   2
     Q(r) pseudized with  6 coefficients,  rinner =    1.500   1.500   1.500
                                                       1.500   1.500

     PseudoPot. # 2 for K  read from file:
     /home/pragov/projects/rrg-bengioy-ad/pragov/crystal_structure_design/SSSP/K.pbe-spn-kjpaw_psl.1.0.0.UPF
     MD5 check sum: 7d58810084cac21f60fbe77ea2b688fd
     Pseudo is Projector augmented-wave + core cor, Zval =  9.0
     Generated using "atomic" code by A. Dal Corso  v.5.1
     Shape of augmentation charge: PSQ
     Using radial grid of 1165 points,  6 beta functions with:
                l(1) =   0
                l(2) =   0
                l(3) =   1
                l(4) =   1
                l(5) =   2
                l(6) =   2
     Q(r) pseudized with 0 coefficients

     PseudoPot. # 3 for In read from file:
     /home/pragov/projects/rrg-bengioy-ad/pragov/crystal_structure_design/SSSP/In.pbe-dn-rrkjus_psl.0.2.2.UPF
     MD5 check sum: 25e7c42c3b55b68f4bf926be2e7201a4
     Pseudo is Ultrasoft + core correction, Zval = 13.0
     Generated using "atomic" code by A. Dal Corso  v.5.0.99 svn rev. 10869
     Using radial grid of 1241 points,  6 beta functions with:
                l(1) =   0
                l(2) =   0
                l(3) =   1
                l(4) =   1
                l(5) =   2
                l(6) =   2
     Q(r) pseudized with 0 coefficients

     PseudoPot. # 4 for F  read from file:
     /home/pragov/projects/rrg-bengioy-ad/pragov/crystal_structure_design/SSSP/f_pbe_v1.4.uspp.F.UPF
     MD5 check sum: 4c38b6a325caf53ec0e86aed9459de46
     Pseudo is Ultrasoft, Zval =  7.0
     Generated by new atomic code, or converted to UPF format
     Using radial grid of  799 points,  4 beta functions with:
                l(1) =   0
                l(2) =   0
                l(3) =   1
                l(4) =   1
     Q(r) pseudized with  8 coefficients,  rinner =    0.950   0.950   0.950

     atomic species   valence    mass     pseudopotential
        Cs             9.00   132.90545     Cs( 1.00)
        K              9.00    39.09830     K ( 1.00)
        In            13.00   114.81800     In( 1.00)
        F              7.00    18.99840     F ( 1.00)

     12 Sym. Ops., with inversion, found

                                    s                        frac. trans.

      isym =  1     identity

 cryst.   s( 1) = (     1          0          0      )
                  (     0          1          0      )
                  (     0          0          1      )

 cart.    s( 1) = (  1.0000000  0.0000000  0.0000000 )
                  (  0.0000000  1.0000000 -0.0000000 )
                  (  0.0000000  0.0000000  1.0000000 )

      isym =  2     180 deg rotation - cart. axis [1,0,0]

[...]

      isym =  3     120 deg rotation - cryst. axis [0,0,1]

[...]

      isym =  6     180 deg rotation - cryst. axis [1,1,0]

[...]

      isym =  7     inversion

[...]

      isym =  8     inv. 180 deg rotation - cart. axis [1,0,0]

[...]

      isym =  9     inv. 120 deg rotation - cryst. axis [0,0,1]

 cryst.   s( 9) = (     1         -1          0      )
                  (     1          0          0      )
                  (     1          0         -1      )

 cart.    s( 9) = (  0.5000000  0.8660254 -0.0000000 )
                  ( -0.8660254  0.5000000 -0.0000000 )
                  (  0.0000000  0.0000000 -1.0000000 )

[...]

 cryst.   s(10) = (     0          1          0      )
                  (    -1          1          0      )
                  (     0          1         -1      )

 cart.    s(10) = (  0.5000000 -0.8660254  0.0000000 )
                  (  0.8660254  0.5000000 -0.0000000 )
                  (  0.0000000  0.0000000 -1.0000000 )

[...]

      isym = 12     inv. 180 deg rotation - cryst. axis [1,1,0]

 cryst.   s(12) = (     1         -1          0      )
                  (     0         -1          0      )
                  (     0         -1          1      )

 cart.    s(12) = (  0.5000000 -0.8660254  0.0000000 )
                  ( -0.8660254 -0.5000000  0.0000000 )
                  (  0.0000000  0.0000000  1.0000000 )

   Cartesian axes

     site n.     atom                  positions (alat units)
         1           Cs  tau(   1) = (   0.5000000   0.2886751   0.2041241  )
         2           Cs  tau(   2) = (   1.5000000   0.8660254   0.6123724  )
         3           K   tau(   3) = (   1.0000000   0.5773503   0.4082483  )
         4           In  tau(   4) = (   0.0000000   0.0000000   0.0000000  )
         5           F   tau(   5) = (   1.0000000   0.8960649   0.6336136  )
         6           F   tau(   6) = (   0.7239850   0.7367076   0.1828830  )
         7           F   tau(   7) = (   1.2760150   0.4179929   0.6336136  )
         8           F   tau(   8) = (   1.2760150   0.7367076   0.1828830  )
         9           F   tau(   9) = (   0.7239850   0.4179929   0.6336136  )
        10           F   tau(  10) = (   1.0000000   0.2586356   0.1828830  )

   Crystallographic axes

     site n.     atom                  positions (cryst. coord.)
         1           Cs  tau(   1) = (  0.2500000  0.2500000  0.2500000  )
         2           Cs  tau(   2) = (  0.7500000  0.7500000  0.7500000  )
         3           K   tau(   3) = (  0.5000000  0.5000000  0.5000000  )
         4           In  tau(   4) = (  0.0000000  0.0000000  0.0000000  )
         5           F   tau(   5) = (  0.2239850  0.7760150  0.7760150  )
         6           F   tau(   6) = (  0.2239850  0.7760150  0.2239850  )
         7           F   tau(   7) = (  0.7760150  0.2239850  0.7760150  )
         8           F   tau(   8) = (  0.7760150  0.7760150  0.2239850  )
         9           F   tau(   9) = (  0.2239850  0.2239850  0.7760150  )
        10           F   tau(  10) = (  0.7760150  0.2239850  0.2239850  )

     number of k points=     1  Methfessel-Paxton smearing, width (Ry)=  0.0010
                       cart. coord. in units 2pi/alat
        k(    1) = (   0.0000000   0.0000000   0.0000000), wk =   2.0000000

                       cryst. coord.
        k(    1) = (   0.0000000   0.0000000   0.0000000), wk =   2.0000000

     Check: negative core charge=   -0.000001

     Initial potential from superposition of free atoms

     starting charge      81.8987, renormalised to      82.0000
     Starting wfcs are   67 randomized atomic wfcs
     Checking if some PAW data can be deallocated...

     Self-consistent Calculation

     iteration #  1     ecut=    30.00 Ry     beta= 0.70
     Davidson diagonalization with overlap

     ethr =  1.00E-02,  avg # of iterations =  3.0

     total energy              =    -675.78511365 Ry
     estimated scf accuracy    <       1.47836030 Ry

[...]

     total energy              =    -676.49248509 Ry
     estimated scf accuracy    <       0.00000331 Ry

     iteration #  8     ecut=    30.00 Ry     beta= 0.70
     Davidson diagonalization with overlap

     ethr =  4.04E-09,  avg # of iterations =  2.0

     End of self-consistent calculation

          k = 0.0000 0.0000 0.0000 (  1920 PWs)   bands (ev):

   -23.9691 -17.6402 -17.3845 -17.3841 -17.3559 -17.3553 -17.3553 -16.0312
   -16.0168  -8.7477  -8.7477  -8.7476  -8.6564  -8.6564  -7.5024  -7.5024
    -7.5024  -3.1412  -3.1411  -3.1411  -2.8918  -2.8918  -2.8918  -1.6315
     0.2965   0.2968   0.2969   1.3032   1.3032   1.3035   1.4825   1.4825
     1.4828   1.6249   1.6253   1.6279   1.6279   1.6280   1.8602   1.8603
     1.8606   7.1438   9.7970   9.7970  10.1105  10.1105  10.1106  10.8504
    11.6873

     occupation numbers
     1.0000   1.0000   1.0000   1.0000   1.0000   1.0000   1.0000   1.0000
     1.0000   1.0000   1.0000   1.0000   1.0000   1.0000   1.0000   1.0000
     1.0000   1.0000   1.0000   1.0000   1.0000   1.0000   1.0000   1.0000
     1.0000   1.0000   1.0000   1.0000   1.0000   1.0000   1.0000   1.0000
     1.0000   1.0000   1.0000   1.0000   1.0000   1.0000   1.0000   1.0000
     1.0000  -0.0000  -0.0000  -0.0000  -0.0000  -0.0000  -0.0000  -0.0000
    -0.0000

     the Fermi energy is     2.8412 ev

!    total energy              =    -676.49248537 Ry
     estimated scf accuracy    <       0.00000034 Ry
     smearing contrib. (-TS)   =       0.00000000 Ry
     internal energy E=F+TS    =    -676.49248537 Ry

     The total energy is F=E-TS. E is the sum of the following terms:
     one-electron contribution =    -305.12717268 Ry
     hartree contribution      =     201.70824364 Ry
     xc contribution           =    -176.24254584 Ry
     ewald contribution        =    -341.41470725 Ry
     one-center paw contrib.   =     -55.41630323 Ry
      -> PAW hartree energy AE =       0.00000000 Ry
      -> PAW hartree energy PS =       0.00000000 Ry
      -> PAW xc energy AE      =       0.00000000 Ry
      -> PAW xc energy PS      =       0.00000000 Ry
      -> total E_H with PAW    =     201.70824364 Ry
      -> total E_XC with PAW   =    -176.24254584 Ry

     convergence has been achieved in   8 iterations

     Forces acting on atoms (cartesian axes, Ry/au):

     atom    1 type  1   force =    -0.00000000    0.00000000    0.00000317
     atom    2 type  1   force =    -0.00000000   -0.00000000   -0.00000317
     atom    3 type  2   force =    -0.00000000   -0.00000000    0.00000000
     atom    4 type  3   force =     0.00000000    0.00000000    0.00000000
     atom    5 type  4   force =    -0.00000000    0.00255675    0.00180047
     atom    6 type  4   force =    -0.00221421    0.00127837   -0.00180047
     atom    7 type  4   force =     0.00221421   -0.00127837    0.00180047
     atom    8 type  4   force =     0.00221421    0.00127837   -0.00180047
     atom    9 type  4   force =    -0.00221421   -0.00127837    0.00180047
     atom   10 type  4   force =     0.00000000   -0.00255675   -0.00180047
     The non-local contrib.  to forces
     atom    1 type  1   force =     0.00000000    0.00000000   -0.00000410
     atom    2 type  1   force =     0.00000000    0.00000000    0.00000410
     atom    3 type  2   force =    -0.00000000   -0.00000000    0.00000000
     atom    4 type  3   force =     0.00000000    0.00000000   -0.00000000
     atom    5 type  4   force =     0.00000000    0.49662829    0.35118279
     atom    6 type  4   force =    -0.43009272    0.24831415   -0.35118279
     atom    7 type  4   force =     0.43009272   -0.24831415    0.35118279
     atom    8 type  4   force =     0.43009272    0.24831415   -0.35118279
     atom    9 type  4   force =    -0.43009272   -0.24831415    0.35118279
     atom   10 type  4   force =     0.00000000   -0.49662829   -0.35118279
     The ionic contribution  to forces
     atom    1 type  1   force =    -0.00000000    0.00000000    0.00000000
     atom    2 type  1   force =    -0.00000000    0.00000000    0.00000000
     atom    3 type  2   force =     0.00000000   -0.00000000   -0.00000000
     atom    4 type  3   force =    -0.00000000    0.00000000    0.00000000
     atom    5 type  4   force =    -0.00000000   -7.11551048   -5.03142571
     atom    6 type  4   force =     6.16221284   -3.55775524    5.03142571
     atom    7 type  4   force =    -6.16221284    3.55775524   -5.03142571
     atom    8 type  4   force =    -6.16221284   -3.55775524    5.03142571
     atom    9 type  4   force =     6.16221284    3.55775524   -5.03142571
     atom   10 type  4   force =     0.00000000    7.11551048    5.03142571
     The local contribution  to forces
     atom    1 type  1   force =     0.00001079   -0.00000757   -0.00002897
     atom    2 type  1   force =     0.00001233    0.00001928    0.00001295
     atom    3 type  2   force =     0.00003375   -0.00006304    0.00004681
     atom    4 type  3   force =     0.00001128    0.00000382   -0.00000229
     atom    5 type  4   force =     0.00000739    6.62145629    4.68209967
     atom    6 type  4   force =    -5.73432563    3.31073036   -4.68209274
     atom    7 type  4   force =     5.73433787   -3.31072229    4.68207884
     atom    8 type  4   force =     5.73432490    3.31071920   -4.68208343
     atom    9 type  4   force =    -5.73431573   -3.31071111    4.68207786
     atom   10 type  4   force =    -0.00000134   -6.62145096   -4.68208861
     The core correction contribution to forces
     atom    1 type  1   force =     0.00000031    0.00000185    0.00000099
     atom    2 type  1   force =     0.00000125   -0.00000045   -0.00000168
     atom    3 type  2   force =     0.00000060   -0.00000081    0.00000115
     atom    4 type  3   force =     0.00000203   -0.00000223   -0.00000163
     atom    5 type  4   force =     0.00000000    0.00000000    0.00000000
     atom    6 type  4   force =     0.00000000    0.00000000    0.00000000
     atom    7 type  4   force =     0.00000000    0.00000000    0.00000000
     atom    8 type  4   force =     0.00000000    0.00000000    0.00000000
     atom    9 type  4   force =     0.00000000    0.00000000    0.00000000
     atom   10 type  4   force =     0.00000000    0.00000000    0.00000000
     The Hubbard contrib.    to forces
     atom    1 type  1   force =     0.00000000    0.00000000    0.00000000
     atom    2 type  1   force =     0.00000000    0.00000000    0.00000000
     atom    3 type  2   force =     0.00000000    0.00000000    0.00000000
     atom    4 type  3   force =     0.00000000    0.00000000    0.00000000
     atom    5 type  4   force =     0.00000000    0.00000000    0.00000000
     atom    6 type  4   force =     0.00000000    0.00000000    0.00000000
     atom    7 type  4   force =     0.00000000    0.00000000    0.00000000
     atom    8 type  4   force =     0.00000000    0.00000000    0.00000000
     atom    9 type  4   force =     0.00000000    0.00000000    0.00000000
     atom   10 type  4   force =     0.00000000    0.00000000    0.00000000
     The SCF correction term to forces
     atom    1 type  1   force =    -0.00000265    0.00000687    0.00003323
     atom    2 type  1   force =     0.00000009   -0.00001221   -0.00002057
     atom    3 type  2   force =    -0.00001564    0.00004852   -0.00002348
     atom    4 type  3   force =    -0.00000385   -0.00001270    0.00001180
     atom    5 type  4   force =    -0.00001275   -0.00000414   -0.00004528
     atom    6 type  4   force =    -0.00000937   -0.00002612    0.00006400
     atom    7 type  4   force =    -0.00000854    0.00000724   -0.00003301
     atom    8 type  4   force =     0.00000073   -0.00000789    0.00004933
     atom    9 type  4   force =    -0.00001469   -0.00000124   -0.00004404
     atom   10 type  4   force =     0.00000113   -0.00000688    0.00002516

     Total force =     0.007660     Total SCF correction =     0.000137

     Computing stress (Cartesian axis) and pressure

          total   stress  (Ry/bohr**3)                   (kbar)     P=      -57.45
  -0.00039052   0.00000000  -0.00000000          -57.45        0.00       -0.00
   0.00000000  -0.00039052   0.00000000            0.00      -57.45        0.00
   0.00000000   0.00000000  -0.00039049            0.00        0.00      -57.44

     kinetic stress (kbar)  12631.77     -0.00      0.00
                                0.00  12631.77     -0.00
                               -0.00     -0.00  12631.77

     local   stress (kbar)  -8601.20     -0.00      0.01
                               -0.00  -8601.24     -0.03
                                0.01     -0.03  -8601.21

     nonloc. stress (kbar)   4432.16     -0.00      0.00
                               -0.00   4432.16     -0.00
                                0.00     -0.00   4432.16

     hartree stress (kbar)   6941.07      0.00     -0.01
                                0.00   6941.09      0.02
                               -0.01      0.02   6941.07

     exc-cor stress (kbar)   4535.99     -0.00      0.00
                               -0.00   4535.99      0.00
                                0.00      0.00   4535.99

     corecor stress (kbar)  -8248.65      0.00      0.00
                                0.00  -8248.65     -0.00
                                0.00     -0.00  -8248.65

     ewald   stress (kbar) -11748.58     -0.00      0.00
                               -0.00 -11748.58     -0.00
                                0.00     -0.00 -11748.58

     hubbard stress (kbar)      0.00      0.00      0.00
                                0.00      0.00      0.00
                                0.00      0.00      0.00

     DFT-D   stress (kbar)      0.00      0.00      0.00
                                0.00      0.00      0.00
                                0.00      0.00      0.00

     XDM     stress (kbar)      0.00      0.00      0.00
                                0.00      0.00      0.00
                                0.00      0.00      0.00

     dft-nl  stress (kbar)      0.00      0.00      0.00
                                0.00      0.00      0.00
                                0.00      0.00      0.00

     TS-vdW  stress (kbar)      0.00      0.00      0.00
                                0.00      0.00      0.00
                                0.00      0.00      0.00

[...]

                                0.00      0.00      0.00

     Writing all to output data dir calculations/myprefix.save/

     General routines

     Parallel routines

     PAW routines

   This run was terminated on:  20:29:44   4Mar2023

   JOB DONE.