     Program PWSCF v.7.0 starts on  6Mar2023 at 13: 9:19

     R & G space division:  proc/nbgrp/npool/nimage =      32

     Reading input from espresso_4718.pwi
Warning: card &CELL ignored
Warning: card / ignored

     Current dimensions of program PWSCF are:
     Max number of different atomic species (ntypx) = 10
     Max number of k-points (npk) =  40000
     Max angular momentum in pseudopotentials (lmaxx) =  4

     gamma-point specific algorithms are used
     Message from routine setup:
     using ibrav=0 with symmetry is DISCOURAGED, use correct ibrav instead

     Using Slab Decomposition

     bravais-lattice index     =            0
     lattice parameter (alat)  =      16.6083  a.u.
     unit-cell volume          =    2887.0292 (a.u.)^3
     number of atoms/cell      =           16
     number of atomic types    =            2
     number of electrons       =       334.00
     number of Kohn-Sham states=          200
     kinetic-energy cutoff     =      30.0000  Ry
     charge density cutoff     =     240.0000  Ry
     scf convergence threshold =      1.0E-06
     mixing beta               =       0.7000
     number of iterations used =            8  plain     mixing
     Exchange-correlation= SLA  PW   PBE  PBE
                           (   1   4   3   4   0   0   0)

     celldm(1)=  16.608278  celldm(2)=   0.000000  celldm(3)=   0.000000
     celldm(4)=   0.000000  celldm(5)=   0.000000  celldm(6)=   0.000000

     crystal axes: (cart. coord. in units of alat)
               a(1) = (   1.000000   0.000000   0.000000 )
               a(2) = (  -0.500000   0.866025   0.000000 )
               a(3) = (   0.000000   0.000000   0.727691 )

     reciprocal axes: (cart. coord. in units 2 pi/alat)
               b(1) = (  1.000000  0.577350  0.000000 )
               b(2) = (  0.000000  1.154701  0.000000 )
               b(3) = (  0.000000  0.000000  1.374211 )

     PseudoPot. # 1 for Lu read from file:
     /home/pragov/projects/rrg-bengioy-ad/pragov/crystal_structure_design/SSSP/Lu.GGA-PBE-paw-v1.0.UPF
     MD5 check sum: 9ceca61ee0c17e9380a83635bfffa61d
     Pseudo is Projector augmented-wave + core cor, Zval = 25.0
     Generated using ATOMPAW code
     Shape of augmentation charge: BESSEL
     Using radial grid of 1118 points,  8 beta functions with:
                l(1) =   0
                l(2) =   0
                l(3) =   1
                l(4) =   1
                l(5) =   2
                l(6) =   2
                l(7) =   3
                l(8) =   3
     Q(r) pseudized with 0 coefficients

     PseudoPot. # 2 for Sn read from file:
     /home/pragov/projects/rrg-bengioy-ad/pragov/crystal_structure_design/SSSP/Sn_pbe_v1.uspp.F.UPF
     MD5 check sum: 4cf58ce39ec5d5d420df3dd08604eb00
     Pseudo is Ultrasoft + core correction, Zval = 14.0
     Generated by new atomic code, or converted to UPF format
     Using radial grid of  891 points,  6 beta functions with:
                l(1) =   0
                l(2) =   0
                l(3) =   1
                l(4) =   1
                l(5) =   2
                l(6) =   2
     Q(r) pseudized with  6 coefficients,  rinner =    1.200   1.200   1.200
                                                       1.200   1.200

     atomic species   valence    mass     pseudopotential
        Lu            25.00   174.96680     Lu( 1.00)
        Sn            14.00   118.71000     Sn( 1.00)

     24 Sym. Ops., with inversion, found (12 have fractional translation)

                                    s                        frac. trans.

      isym =  1     identity

 cryst.   s( 1) = (     1          0          0      )
                  (     0          1          0      )
                  (     0          0          1      )

 cart.    s( 1) = (  1.0000000  0.0000000  0.0000000 )
                  (  0.0000000  1.0000000  0.0000000 )
                  (  0.0000000  0.0000000  1.0000000 )

      isym =  2     180 deg rotation - cart. axis [0,0,1]

 cryst.   s( 2) = (    -1          0          0      )    f =( -0.0000000 )
                  (     0         -1          0      )       (  0.0000000 )
                  (     0          0          1      )       ( -0.5000000 )

 cart.    s( 2) = ( -1.0000000 -0.0000000  0.0000000 )    f =( -0.0000000 )
                  (  0.0000000 -1.0000000  0.0000000 )       (  0.0000000 )
                  (  0.0000000  0.0000000  1.0000000 )       ( -0.3638453 )

[...]

      isym =  4     180 deg rotation - cart. axis [1,0,0]

[...]

      isym =  5      60 deg rotation - cryst. axis [0,0,1]

[...]

 cryst.   s( 6) = (     0         -1          0      )    f =(  0.0000000 )
                  (     1          1          0      )       (  0.0000010 )
                  (     0          0          1      )       ( -0.5000000 )

 cart.    s( 6) = (  0.5000000  0.8660254  0.0000000 )    f =( -0.0000005 )
                  ( -0.8660254  0.5000000  0.0000000 )       (  0.0000009 )
                  (  0.0000000  0.0000000  1.0000000 )       ( -0.3638453 )

[...]

 cryst.   s( 9) = (     0         -1          0      )
                  (    -1          0          0      )
                  (     0          0         -1      )

 cart.    s( 9) = (  0.5000000 -0.8660254  0.0000000 )
                  ( -0.8660254 -0.5000000  0.0000000 )
                  (  0.0000000  0.0000000 -1.0000000 )

[...]

 cryst.   s(10) = (     1          1          0      )
                  (     0         -1          0      )
                  (     0          0         -1      )

 cart.    s(10) = (  0.5000000  0.8660255  0.0000000 )
                  (  0.8660254 -0.5000000  0.0000000 )
                  (  0.0000000  0.0000000 -1.0000000 )

[...]

 cryst.   s(11) = (    -1         -1          0      )    f =( -0.0000000 )
                  (     0          1          0      )       (  0.0000010 )
                  (     0          0         -1      )       (  0.5000000 )

 cart.    s(11) = ( -0.5000000 -0.8660255  0.0000000 )    f =( -0.0000005 )
                  ( -0.8660254  0.5000000  0.0000000 )       (  0.0000009 )
                  (  0.0000000  0.0000000 -1.0000000 )       (  0.3638453 )

      isym = 12     180 deg rotation - cryst. axis [1,1,0]

[...]

      isym = 13     inversion

[...]

      isym = 14     inv. 180 deg rotation - cart. axis [0,0,1]

[...]

      isym = 16     inv. 180 deg rotation - cart. axis [1,0,0]

[...]

      isym = 17     inv.  60 deg rotation - cryst. axis [0,0,1]

[...]

 cryst.   s(22) = (    -1         -1          0      )
                  (     0          1          0      )
                  (     0          0          1      )

 cart.    s(22) = ( -0.5000000 -0.8660255  0.0000000 )
                  ( -0.8660254  0.5000000  0.0000000 )
                  (  0.0000000  0.0000000  1.0000000 )

[...]

      isym = 24     inv. 180 deg rotation - cryst. axis [1,1,0]

 cryst.   s(24) = (     0         -1          0      )    f =(  0.0000000 )
                  (    -1          0          0      )       (  0.0000000 )
                  (     0          0          1      )       ( -0.5000000 )

 cart.    s(24) = (  0.5000000 -0.8660254  0.0000000 )    f =(  0.0000000 )
                  ( -0.8660254 -0.5000000  0.0000000 )       (  0.0000000 )
                  (  0.0000000  0.0000000  1.0000000 )       ( -0.3638453 )

   Cartesian axes

     site n.     atom                  positions (alat units)
         1           Lu  tau(   1) = (   0.5000005   0.2886748   0.0000000  )
         2           Lu  tau(   2) = (  -0.0000005   0.5773505   0.0000000  )
         3           Lu  tau(   3) = (  -0.0000005   0.5773505   0.3638453  )
         4           Lu  tau(   4) = (   0.5000005   0.2886748   0.3638453  )
         5           Lu  tau(   5) = (   0.3803140   0.6587231   0.5457679  )
         6           Lu  tau(   6) = (   0.2393720   0.0000000   0.5457679  )
         7           Lu  tau(   7) = (  -0.1196860   0.2073022   0.5457679  )
         8           Lu  tau(   8) = (   0.1196860   0.2073022   0.1819226  )
         9           Lu  tau(   9) = (   0.7606280   0.0000000   0.1819226  )
        10           Lu  tau(  10) = (   0.6196860   0.6587231   0.1819226  )
        11           Sn  tau(  11) = (   0.1968205   0.3409031   0.5457679  )
        12           Sn  tau(  12) = (   0.6063590   0.0000000   0.5457679  )
        13           Sn  tau(  13) = (   0.6968205   0.5251223   0.5457679  )
        14           Sn  tau(  14) = (   0.3031795   0.5251223   0.1819226  )
        15           Sn  tau(  15) = (   0.3936410   0.0000000   0.1819226  )
        16           Sn  tau(  16) = (   0.8031795   0.3409031   0.1819226  )

   Crystallographic axes

     site n.     atom                  positions (cryst. coord.)
         1           Lu  tau(   1) = (  0.6666670  0.3333330  0.0000000  )
         2           Lu  tau(   2) = (  0.3333330  0.6666670  0.0000000  )
         3           Lu  tau(   3) = (  0.3333330  0.6666670  0.5000000  )
         4           Lu  tau(   4) = (  0.6666670  0.3333330  0.5000000  )
         5           Lu  tau(   5) = (  0.7606280  0.7606280  0.7500000  )
         6           Lu  tau(   6) = (  0.2393720  0.0000000  0.7500000  )
         7           Lu  tau(   7) = ( -0.0000000  0.2393720  0.7500000  )
         8           Lu  tau(   8) = (  0.2393720  0.2393720  0.2500000  )
         9           Lu  tau(   9) = (  0.7606280  0.0000000  0.2500000  )
        10           Lu  tau(  10) = (  1.0000000  0.7606280  0.2500000  )
        11           Sn  tau(  11) = (  0.3936410  0.3936410  0.7500000  )
        12           Sn  tau(  12) = (  0.6063590  0.0000000  0.7500000  )
        13           Sn  tau(  13) = (  1.0000000  0.6063590  0.7500000  )
        14           Sn  tau(  14) = (  0.6063590  0.6063590  0.2500000  )
        15           Sn  tau(  15) = (  0.3936410  0.0000000  0.2500000  )
        16           Sn  tau(  16) = (  1.0000000  0.3936410  0.2500000  )

     number of k points=     1  Methfessel-Paxton smearing, width (Ry)=  0.0010
                       cart. coord. in units 2pi/alat
        k(    1) = (   0.0000000   0.0000000   0.0000000), wk =   2.0000000

                       cryst. coord.
        k(    1) = (   0.0000000   0.0000000   0.0000000), wk =   2.0000000

     Initial potential from superposition of free atoms

     starting charge     327.9620, renormalised to     334.0000
     Starting wfcs are  374 randomized atomic wfcs
     Checking if some PAW data can be deallocated...

     Self-consistent Calculation

     iteration #  1     ecut=    30.00 Ry     beta= 0.70
     Davidson diagonalization with overlap

     ethr =  1.00E-02,  avg # of iterations =  3.0

     total energy              =  -11729.95900580 Ry
     estimated scf accuracy    <      48.06842857 Ry

[...]

     c_bands:  1 eigenvalues not converged
     ethr =  1.68E-05,  avg # of iterations = 20.0

[...]

     total energy              =  -11781.70872521 Ry
     estimated scf accuracy    <       0.00000207 Ry

     iteration # 23     ecut=    30.00 Ry     beta= 0.70
     Davidson diagonalization with overlap

     ethr =  6.19E-10,  avg # of iterations =  2.0

     End of self-consistent calculation

          k = 0.0000 0.0000 0.0000 (  4004 PWs)   bands (ev):

   -42.7686 -42.7645 -42.7643 -42.7638 -42.7622 -42.7615 -42.3467 -42.3463
   -42.3198 -42.3194 -13.4703 -13.4678 -13.4502 -13.4330 -13.4327 -13.4317
   -13.4313 -13.4200 -13.4198 -13.3833 -13.3737 -13.3733 -13.3612 -13.3611
   -13.3599 -13.3596 -13.3559 -13.3517 -13.1917 -13.1838 -13.0673 -13.0673
   -13.0661 -13.0661 -13.0108 -13.0108 -13.0102 -13.0102 -12.6569 -12.6551
    -6.8129  -6.8107  -6.8061  -6.8053  -6.8052  -6.8046  -6.8042  -6.8029
    -6.8022  -6.7974  -6.7797  -6.7790  -6.7783  -6.7778  -6.7776  -6.7773
    -6.7765  -6.7759  -6.7721  -6.7716  -6.7713  -6.7700  -6.7685  -6.7638
    -6.7621  -6.7580  -6.7573  -6.7454  -6.7448  -6.7395   4.8332   6.4082
     6.4088   7.0675   7.0680   7.1656   8.6542   8.6580   8.6585   8.6588
     8.6589   8.6624   8.6625   8.6650   8.6651   8.6652   8.6703   8.6715
     8.6718   8.6737   8.6737   8.6742   8.6755   8.6757   8.6763   8.6793
     8.6797   8.6832   8.6835   8.6838   8.6844   8.6848   8.6867   8.6872
     8.6897   8.6940   8.6940   8.6952   8.6968   8.6973   8.6977   8.6989
     8.6991   8.7010   8.7014   8.7029   8.7030   8.7035   9.0305   9.0458
     9.0461   9.0482   9.0489   9.0495   9.0543   9.0550   9.0554   9.0554
     9.0588   9.0588   9.0647   9.0647   9.0678   9.0678   9.0679   9.0854
     9.0854   9.0861   9.0861   9.0965   9.1322   9.1322   9.1380   9.1380
     9.1557   9.1591   9.1710  10.1734  10.4853  10.5230  10.5233  11.2177
    11.2178  11.6089  11.6094  12.3128  12.3128  12.7619  12.7622  12.7655
    12.7886  12.8508  13.1433  13.1436  13.3563  13.3607  13.6616  13.7539
    13.7541  14.0715  14.4379  14.4381  14.6253  15.0703  15.0704  15.2303
    15.4994  15.4996  15.8003  15.8003  15.8765  16.8473  16.8475  16.9142
    16.9143  17.1880  17.4933  17.6047  17.6047  17.6739  17.6742  17.7558
    17.7558  17.9226  17.9228  17.9482  18.1758  18.1760  18.3116  18.3709

     occupation numbers
     1.0000   1.0000   1.0000   1.0000   1.0000   1.0000   1.0000   1.0000
     1.0000   1.0000   1.0000   1.0000   1.0000   1.0000   1.0000   1.0000
     1.0000   1.0000   1.0000   1.0000   1.0000   1.0000   1.0000   1.0000
     1.0000   1.0000   1.0000   1.0000   1.0000   1.0000   1.0000   1.0000
     1.0000   1.0000   1.0000   1.0000   1.0000   1.0000   1.0000   1.0000
     1.0000   1.0000   1.0000   1.0000   1.0000   1.0000   1.0000   1.0000
     1.0000   1.0000   1.0000   1.0000   1.0000   1.0000   1.0000   1.0000
     1.0000   1.0000   1.0000   1.0000   1.0000   1.0000   1.0000   1.0000
     1.0000   1.0000   1.0000   1.0000   1.0000   1.0000   1.0000   1.0000
     1.0000   1.0000   1.0000   1.0000   1.0000   1.0000   1.0000   1.0000
     1.0000   1.0000   1.0000   1.0000   1.0000   1.0000   1.0000   1.0000
     1.0000   1.0000   1.0000   1.0000   1.0000   1.0000   1.0000   1.0000
     1.0000   1.0000   1.0000   1.0000   1.0000   1.0000   1.0000   1.0000
     1.0000   1.0000   1.0000   1.0000   1.0000   1.0000   1.0000   1.0000
     1.0000   1.0000   1.0000   1.0000   1.0000   1.0000   1.0000   1.0000
     1.0000   1.0000   1.0000   1.0000   1.0000   1.0000   1.0000   1.0000
     1.0000   1.0000   1.0000   1.0000   1.0000   1.0000   1.0000   1.0000
     1.0000   1.0000   1.0000   1.0000   1.0000   1.0000   1.0000   1.0000
     1.0000   1.0000   1.0000   1.0000   1.0000   1.0000   1.0000   1.0000
     1.0000   1.0000   1.0000   1.0000   1.0000   1.0000   1.0000   1.0000
     1.0000   1.0000   1.0000   1.0000   1.0000   1.0000   1.0000  -0.0000
    -0.0000  -0.0000  -0.0000  -0.0000  -0.0000  -0.0000  -0.0000  -0.0000
    -0.0000  -0.0000  -0.0000  -0.0000  -0.0000  -0.0000  -0.0000  -0.0000
    -0.0000  -0.0000  -0.0000  -0.0000  -0.0000  -0.0000  -0.0000  -0.0000
    -0.0000  -0.0000  -0.0000  -0.0000  -0.0000  -0.0000  -0.0000  -0.0000

     the Fermi energy is    13.7071 ev

!    total energy              =  -11781.70872497 Ry
     estimated scf accuracy    <       0.00000091 Ry
     smearing contrib. (-TS)   =       0.00000017 Ry
     internal energy E=F+TS    =  -11781.70872515 Ry

     The total energy is F=E-TS. E is the sum of the following terms:
     one-electron contribution =   -4608.10164753 Ry
     hartree contribution      =    2110.41504633 Ry
     xc contribution           =    -699.61660291 Ry
     ewald contribution        =   -3675.43176225 Ry
     one-center paw contrib.   =   -4908.97375878 Ry
      -> PAW hartree energy AE =     491.07196314 Ry
      -> PAW hartree energy PS =    -422.72009675 Ry
      -> PAW xc energy AE      =    -599.33086787 Ry
      -> PAW xc energy PS      =      40.01718606 Ry
      -> total E_H with PAW    =    2178.76691272 Ry
      -> total E_XC with PAW   =   -1258.93028472 Ry

     convergence has been achieved in  23 iterations

     Forces acting on atoms (cartesian axes, Ry/au):

     atom    1 type  1   force =     0.00000000    0.00000000    0.00000000
     atom    2 type  1   force =     0.00000000   -0.00000000    0.00000000
     atom    3 type  1   force =     0.00000000    0.00000000   -0.00000000
     atom    4 type  1   force =     0.00000000    0.00000000    0.00000000
     atom    5 type  1   force =    -0.01153949   -0.01998699    0.00000000
     atom    6 type  1   force =     0.02307898    0.00000000    0.00000000
     atom    7 type  1   force =    -0.01153949    0.01998698    0.00000000
     atom    8 type  1   force =     0.01153949    0.01998699    0.00000000
     atom    9 type  1   force =    -0.02307898   -0.00000000    0.00000000
     atom   10 type  1   force =     0.01153949   -0.01998698   -0.00000000
     atom   11 type  2   force =     0.01274533    0.02207556   -0.00000000
     atom   12 type  2   force =    -0.02549066   -0.00000000   -0.00000000
     atom   13 type  2   force =     0.01274533   -0.02207556    0.00000000
     atom   14 type  2   force =    -0.01274533   -0.02207556   -0.00000000
     atom   15 type  2   force =     0.02549066    0.00000000    0.00000000
     atom   16 type  2   force =    -0.01274533    0.02207556    0.00000000
     The non-local contrib.  to forces
     atom    1 type  1   force =     0.00000000    0.00000000    0.00000000
     atom    2 type  1   force =    -0.00000000   -0.00000000    0.00000000
     atom    3 type  1   force =     0.00000000   -0.00000000    0.00000000
     atom    4 type  1   force =    -0.00000000   -0.00000000    0.00000000
     atom    5 type  1   force =     0.01325193    0.02295302   -0.00000000
     atom    6 type  1   force =    -0.02650386   -0.00000000   -0.00000000
     atom    7 type  1   force =     0.01325193   -0.02295302   -0.00000000
     atom    8 type  1   force =    -0.01325193   -0.02295302    0.00000000
     atom    9 type  1   force =     0.02650386    0.00000000   -0.00000000
     atom   10 type  1   force =    -0.01325193    0.02295302    0.00000000
     atom   11 type  2   force =    -0.00372633   -0.00645419   -0.00000000
     atom   12 type  2   force =     0.00745266    0.00000000    0.00000000
     atom   13 type  2   force =    -0.00372633    0.00645419    0.00000000
     atom   14 type  2   force =     0.00372633    0.00645419    0.00000000
     atom   15 type  2   force =    -0.00745266   -0.00000000    0.00000000
     atom   16 type  2   force =     0.00372633   -0.00645419    0.00000000
     The ionic contribution  to forces
     atom    1 type  1   force =    -0.00027994    0.00016162    0.00000000
     atom    2 type  1   force =     0.00027993   -0.00016163   -0.00000000
     atom    3 type  1   force =     0.00027993   -0.00016163    0.00000000
     atom    4 type  1   force =    -0.00027994    0.00016162   -0.00000000
     atom    5 type  1   force =     4.62100925    8.00382331   -0.00000000
     atom    6 type  1   force =    -9.24229855    0.00016134    0.00000000
     atom    7 type  1   force =     4.62128944   -8.00398441   -0.00000000
     atom    8 type  1   force =    -4.62100926   -8.00382331   -0.00000000
     atom    9 type  1   force =     9.24229855   -0.00016134   -0.00000000
     atom   10 type  1   force =    -4.62128944    8.00398441   -0.00000000
     atom   11 type  2   force =    -0.65103977   -1.12763403    0.00000000
     atom   12 type  2   force =     1.30223494   -0.00008908   -0.00000000
     atom   13 type  2   force =    -0.65119468    1.12772396   -0.00000000
     atom   14 type  2   force =     0.65103977    1.12763403   -0.00000000
     atom   15 type  2   force =    -1.30223494    0.00008908   -0.00000000
     atom   16 type  2   force =     0.65119468   -1.12772396   -0.00000000
     The local contribution  to forces
     atom    1 type  1   force =     0.00101136    0.00248812    0.00033821
     atom    2 type  1   force =     0.00125358   -0.00240219    0.00039089
     atom    3 type  1   force =     0.00133791   -0.00237736   -0.00040859
     atom    4 type  1   force =     0.00067695    0.00239224   -0.00030966
     atom    5 type  1   force =    -4.64732981   -8.04958871    0.00071415
     atom    6 type  1   force =     9.29232740    0.00020637    0.00064315
     atom    7 type  1   force =    -4.64787103    8.04953795    0.00065679
     atom    8 type  1   force =     4.64516105    8.05001873   -0.00076680
     atom    9 type  1   force =    -9.29265070   -0.00005850   -0.00068554
     atom   10 type  1   force =     4.64473196   -8.05025069   -0.00066254
     atom   11 type  2   force =     0.66917213    1.16129038    0.00041711
     atom   12 type  2   force =    -1.33782000   -0.00018317    0.00040494
     atom   13 type  2   force =     0.66965122   -1.16104649    0.00041091
     atom   14 type  2   force =    -0.66968340   -1.15959476   -0.00040942
     atom   15 type  2   force =     1.33984442   -0.00030174   -0.00041568
     atom   16 type  2   force =    -0.66942825    1.15998666   -0.00040618
     The core correction contribution to forces
     atom    1 type  1   force =     0.00000000    0.00000001    0.00000000
     atom    2 type  1   force =     0.00000000   -0.00000001    0.00000000
     atom    3 type  1   force =     0.00000000   -0.00000001   -0.00000000
     atom    4 type  1   force =    -0.00000000    0.00000001   -0.00000000
     atom    5 type  1   force =     0.00000043    0.00000073    0.00000000
     atom    6 type  1   force =    -0.00000086    0.00000000    0.00000000
     atom    7 type  1   force =     0.00000042   -0.00000073    0.00000000
     atom    8 type  1   force =    -0.00000043   -0.00000073   -0.00000000
     atom    9 type  1   force =     0.00000085    0.00000000   -0.00000000
     atom   10 type  1   force =    -0.00000043    0.00000073   -0.00000000
     atom   11 type  2   force =    -0.00180592   -0.00311258    0.00000268
     atom   12 type  2   force =     0.00361387   -0.00000213    0.00000261
     atom   13 type  2   force =    -0.00180209    0.00311334    0.00000262
     atom   14 type  2   force =     0.00180491    0.00312075   -0.00000228
     atom   15 type  2   force =    -0.00360513   -0.00000136   -0.00000274
     atom   16 type  2   force =     0.00180667   -0.00311581   -0.00000249
     The Hubbard contrib.    to forces
     atom    1 type  1   force =     0.00000000    0.00000000    0.00000000
     atom    2 type  1   force =     0.00000000    0.00000000    0.00000000
     atom    3 type  1   force =     0.00000000    0.00000000    0.00000000
     atom    4 type  1   force =     0.00000000    0.00000000    0.00000000
     atom    5 type  1   force =     0.00000000    0.00000000    0.00000000
     atom    6 type  1   force =     0.00000000    0.00000000    0.00000000
     atom    7 type  1   force =     0.00000000    0.00000000    0.00000000
     atom    8 type  1   force =     0.00000000    0.00000000    0.00000000
     atom    9 type  1   force =     0.00000000    0.00000000    0.00000000
     atom   10 type  1   force =     0.00000000    0.00000000    0.00000000
     atom   11 type  2   force =     0.00000000    0.00000000    0.00000000
     atom   12 type  2   force =     0.00000000    0.00000000    0.00000000
     atom   13 type  2   force =     0.00000000    0.00000000    0.00000000
     atom   14 type  2   force =     0.00000000    0.00000000    0.00000000
     atom   15 type  2   force =     0.00000000    0.00000000    0.00000000
     atom   16 type  2   force =     0.00000000    0.00000000    0.00000000
     The SCF correction term to forces
     atom    1 type  1   force =    -0.00078818   -0.00283461   -0.00034945
     atom    2 type  1   force =    -0.00165442    0.00280880   -0.00042598
     atom    3 type  1   force =    -0.00175467    0.00276303    0.00045551
     atom    4 type  1   force =    -0.00038780   -0.00274822    0.00032707
     atom    5 type  1   force =     0.00132438    0.00296520   -0.00085547
     atom    6 type  1   force =    -0.00030939   -0.00057556   -0.00081065
     atom    7 type  1   force =     0.00201090   -0.00258363   -0.00080482
     atom    8 type  1   force =     0.00056936   -0.00329371    0.00091354
     atom    9 type  1   force =     0.00070094   -0.00003826    0.00081934
     atom   10 type  1   force =     0.00160232    0.00350541    0.00080161
     atom   11 type  2   force =     0.00013925   -0.00199405   -0.00045661
     atom   12 type  2   force =    -0.00096587    0.00024048   -0.00044023
     atom   13 type  2   force =    -0.00015407    0.00168586   -0.00044807
     atom   14 type  2   force =     0.00037023    0.00033253    0.00044118
     atom   15 type  2   force =    -0.00105276    0.00019472    0.00044872
     atom   16 type  2   force =    -0.00001872   -0.00060697    0.00043980

     Total force =     0.084229     Total SCF correction =     0.010076
     SCF correction compared to forces is large: reduce conv_thr to get better values

     Computing stress (Cartesian axis) and pressure

          total   stress  (Ry/bohr**3)                   (kbar)     P=       -6.50
  -0.00001601  -0.00000000   0.00000000           -2.36       -0.00        0.00
  -0.00000000  -0.00001601   0.00000000           -0.00       -2.36        0.00
  -0.00000000  -0.00000000  -0.00010056           -0.00       -0.00      -14.79

     kinetic stress (kbar)  13072.96      0.00      0.00
                                0.00  13072.96      0.00
                                0.00      0.00  13120.68

     local   stress (kbar)   3720.20      0.01      0.00
                                0.01   3720.52     -0.00
                                0.00     -0.00   5995.35

     nonloc. stress (kbar)  18297.55      0.00      0.00
                                0.00  18297.55      0.00
                               -0.00     -0.00  18277.18

     hartree stress (kbar)  36000.79     -0.01     -0.00
                               -0.01  36000.56      0.00
                               -0.00      0.00  35532.29

     exc-cor stress (kbar)   -481.73     -0.00     -0.00
                               -0.00   -481.73      0.00
                               -0.00      0.00   -485.50

     corecor stress (kbar)  -8801.18      0.00      0.00
                                0.00  -8801.18     -0.00
                                0.00     -0.00  -8799.61

     ewald   stress (kbar) -61811.00      0.01     -0.00
                                0.01 -61810.99      0.00
                               -0.00      0.00 -63655.18

     hubbard stress (kbar)      0.00      0.00      0.00
                                0.00      0.00      0.00
                                0.00      0.00      0.00

     DFT-D   stress (kbar)      0.00      0.00      0.00
                                0.00      0.00      0.00
                                0.00      0.00      0.00

     XDM     stress (kbar)      0.00      0.00      0.00
                                0.00      0.00      0.00
                                0.00      0.00      0.00

     dft-nl  stress (kbar)      0.00      0.00      0.00
                                0.00      0.00      0.00
                                0.00      0.00      0.00

     TS-vdW  stress (kbar)      0.00      0.00      0.00
                                0.00      0.00      0.00
                                0.00      0.00      0.00

[...]

                                0.00      0.00      0.00

     Writing all to output data dir calculations/myprefix.save/

     General routines

     Parallel routines

     PAW routines

   This run was terminated on:  13: 9:37   6Mar2023

   JOB DONE.