     Program PWSCF v.7.0 starts on  6Mar2023 at  9:47:46

     R & G space division:  proc/nbgrp/npool/nimage =      32

     Reading input from espresso_4185.pwi
Warning: card &CELL ignored
Warning: card / ignored

     Current dimensions of program PWSCF are:
     Max number of different atomic species (ntypx) = 10
     Max number of k-points (npk) =  40000
     Max angular momentum in pseudopotentials (lmaxx) =  4

     gamma-point specific algorithms are used
     Message from routine setup:
     using ibrav=0 with symmetry is DISCOURAGED, use correct ibrav instead

     Using Slab Decomposition

     bravais-lattice index     =            0
     lattice parameter (alat)  =      11.0036  a.u.
     unit-cell volume          =     578.6130 (a.u.)^3
     number of atoms/cell      =            5
     number of atomic types    =            3
     number of electrons       =        58.00
     number of Kohn-Sham states=           35
     kinetic-energy cutoff     =      30.0000  Ry
     charge density cutoff     =     240.0000  Ry
     scf convergence threshold =      1.0E-06
     mixing beta               =       0.7000
     number of iterations used =            8  plain     mixing
     Exchange-correlation= PBE
                           (   1   4   3   4   0   0   0)

     celldm(1)=  11.003650  celldm(2)=   0.000000  celldm(3)=   0.000000
     celldm(4)=   0.000000  celldm(5)=   0.000000  celldm(6)=   0.000000

     crystal axes: (cart. coord. in units of alat)
               a(1) = (   1.000000   0.000000   0.000000 )
               a(2) = (   0.498231   0.867044   0.000000 )
               a(3) = (  -0.749116  -0.433522   0.500884 )

     reciprocal axes: (cart. coord. in units 2 pi/alat)
               b(1) = (  1.000000 -0.574632  0.998236 )
               b(2) = (  0.000000  1.153344  0.998236 )
               b(3) = (  0.000000  0.000000  1.996472 )

     PseudoPot. # 1 for Ce read from file:
     /home/pragov/projects/rrg-bengioy-ad/pragov/crystal_structure_design/SSSP/Ce.GGA-PBE-paw-v1.0.UPF
     MD5 check sum: f2b950f613061344c13339c8d844425d
     Pseudo is Projector augmented-wave + core cor, Zval = 12.0
     Generated using ATOMPAW code
     Shape of augmentation charge: BESSEL
     Using radial grid of 1102 points,  8 beta functions with:
                l(1) =   0
                l(2) =   0
                l(3) =   1
                l(4) =   1
                l(5) =   2
                l(6) =   2
                l(7) =   3
                l(8) =   3
     Q(r) pseudized with 0 coefficients

     PseudoPot. # 2 for P  read from file:
     /home/pragov/projects/rrg-bengioy-ad/pragov/crystal_structure_design/SSSP/P.pbe-n-rrkjus_psl.1.0.0.UPF
     MD5 check sum: 8b930f418f0a4573dca56cd030ffe088
     Pseudo is Ultrasoft + core correction, Zval =  5.0
     Generated using "atomic" code by A. Dal Corso  v.5.1
     Using radial grid of 1147 points,  6 beta functions with:
                l(1) =   0
                l(2) =   0
                l(3) =   1
                l(4) =   1
                l(5) =   2
                l(6) =   2
     Q(r) pseudized with 0 coefficients

     PseudoPot. # 3 for Pd read from file:
     /home/pragov/projects/rrg-bengioy-ad/pragov/crystal_structure_design/SSSP/Pd_ONCV_PBE-1.0.oncvpsp.upf
     MD5 check sum: eb77f42b51d86fb18e25f68156a31cf1
     Pseudo is Norm-conserving, Zval = 18.0
     Generated using ONCVPSP code by D. R. Hamann
     Using radial grid of 1410 points,  6 beta functions with:
                l(1) =   0
                l(2) =   0
                l(3) =   1
                l(4) =   1
                l(5) =   2
                l(6) =   2

     atomic species   valence    mass     pseudopotential
        Ce            12.00   140.11600     Ce( 1.00)
        P              5.00    30.97376     P ( 1.00)
        Pd            18.00   106.42000     Pd( 1.00)

      4 Sym. Ops., with inversion, found

                                    s                        frac. trans.

      isym =  1     identity

 cryst.   s( 1) = (     1          0          0      )
                  (     0          1          0      )
                  (     0          0          1      )

 cart.    s( 1) = (  1.0000000  0.0000000 -0.0000000 )
                  (  0.0000000  1.0000000  0.0000000 )
                  (  0.0000000  0.0000000  1.0000000 )

      isym =  2     180 deg rotation - cart. axis [0,0,1]

[...]

      isym =  3     inversion

[...]

      isym =  4     inv. 180 deg rotation - cart. axis [0,0,1]

 cryst.   s( 4) = (     1          0          0      )
                  (     0          1          0      )
                  (    -1         -1         -1      )

 cart.    s( 4) = (  1.0000000  0.0000000 -0.0000000 )
                  (  0.0000000  1.0000000 -0.0000000 )
                  (  0.0000000  0.0000000 -1.0000000 )

   Cartesian axes

     site n.     atom                  positions (alat units)
         1           Ce  tau(   1) = (   0.0000000   0.0000000   0.0000000  )
         2           P   tau(   2) = (   0.5827146   0.3372238   0.0000000  )
         3           P   tau(   3) = (   0.9155168   0.5298203   0.0000000  )
         4           Pd  tau(   4) = (   0.5000000   0.0000000   0.2504418  )
         5           Pd  tau(   5) = (   0.2491157   0.4335220   0.2504418  )

   Crystallographic axes

     site n.     atom                  positions (cryst. coord.)
         1           Ce  tau(   1) = (  0.0000000  0.0000000  0.0000000  )
         2           P   tau(   2) = (  0.3889350  0.3889350  0.0000000  )
         3           P   tau(   3) = (  0.6110650  0.6110650  0.0000000  )
         4           Pd  tau(   4) = (  0.7500000  0.2500000  0.5000000  )
         5           Pd  tau(   5) = (  0.2500000  0.7500000  0.5000000  )

     number of k points=     1  Methfessel-Paxton smearing, width (Ry)=  0.0010
                       cart. coord. in units 2pi/alat
        k(    1) = (   0.0000000   0.0000000   0.0000000), wk =   2.0000000

                       cryst. coord.
        k(    1) = (   0.0000000   0.0000000   0.0000000), wk =   2.0000000

     Initial potential from superposition of free atoms

     starting charge      57.9920, renormalised to      58.0000
     Starting wfcs are   60 randomized atomic wfcs
     Checking if some PAW data can be deallocated...

     Self-consistent Calculation

     iteration #  1     ecut=    30.00 Ry     beta= 0.70
     Davidson diagonalization with overlap

     ethr =  1.00E-02,  avg # of iterations =  2.0

     total energy              =   -1012.01756152 Ry
     estimated scf accuracy    <       3.64762730 Ry

[...]

     negative rho (up, down):  8.890E-06 0.000E+00

[...]

     total energy              =   -1016.26098104 Ry
     estimated scf accuracy    <       0.00000218 Ry

     iteration # 53     ecut=    30.00 Ry     beta= 0.70
     Davidson diagonalization with overlap

     ethr =  3.00E-09,  avg # of iterations =  1.0

     End of self-consistent calculation

          k = 0.0000 0.0000 0.0000 (   819 PWs)   bands (ev):

   -69.9190 -69.9029 -35.4988 -35.4769 -35.3803 -35.3803 -35.2777 -35.2777
   -18.4475  -1.4803  -1.0758  -1.0757   2.7133   5.8271   8.3620  10.5182
    10.5182  10.9926  11.9932  12.2881  12.2882  12.7461  12.9644  13.6876
    14.0253  14.0253  14.7824  15.2204  15.2204  15.2223  16.2458  16.3130
    16.3946  16.3946  16.3949

     occupation numbers
     1.0000   1.0000   1.0000   1.0000   1.0000   1.0000   1.0000   1.0000
     1.0000   1.0000   1.0000   1.0000   1.0000   1.0000   1.0000   1.0000
     1.0000   1.0000   1.0000   1.0000   1.0000   1.0000   1.0000   1.0000
     1.0000   1.0000   1.0000   0.7058   0.7038   0.5903  -0.0000  -0.0000
    -0.0000  -0.0000  -0.0000

     the Fermi energy is    15.2238 ev

!    total energy              =   -1016.26098099 Ry
     estimated scf accuracy    <       0.00000019 Ry
     smearing contrib. (-TS)   =      -0.00073576 Ry
     internal energy E=F+TS    =   -1016.26024523 Ry

     The total energy is F=E-TS. E is the sum of the following terms:
     one-electron contribution =    -267.88874325 Ry
     hartree contribution      =     166.76117820 Ry
     xc contribution           =     -68.96906319 Ry
     ewald contribution        =    -437.90660001 Ry
     one-center paw contrib.   =    -408.25701698 Ry
      -> PAW hartree energy AE =      43.86139596 Ry
      -> PAW hartree energy PS =     -43.59065154 Ry
      -> PAW xc energy AE      =    -417.08213036 Ry
      -> PAW xc energy PS      =       8.55436896 Ry
      -> total E_H with PAW    =     167.03192262 Ry
      -> total E_XC with PAW   =    -477.49682459 Ry

     convergence has been achieved in  53 iterations

     Forces acting on atoms (cartesian axes, Ry/au):

     atom    1 type  1   force =     0.00000000    0.00000000   -0.00000000
     atom    2 type  2   force =    -0.00668122   -0.00387169    0.00000000
     atom    3 type  2   force =     0.00668122    0.00387169   -0.00000000
     atom    4 type  3   force =     0.00000000    0.00000000    0.00000281
     atom    5 type  3   force =     0.00000000    0.00000000   -0.00000281
     The non-local contrib.  to forces
     atom    1 type  1   force =     0.00000000    0.00000000    0.00000000
     atom    2 type  2   force =    -0.13573847   -0.07855712    0.00000000
     atom    3 type  2   force =     0.13573847    0.07855712   -0.00000000
     atom    4 type  3   force =     0.00000000    0.00000000   -0.00000108
     atom    5 type  3   force =     0.00000000    0.00000000    0.00000108
     The ionic contribution  to forces
     atom    1 type  1   force =     0.00000000    0.00000000    0.00000000
     atom    2 type  2   force =     6.66763225    3.85863692   -0.00000000
     atom    3 type  2   force =    -6.66763225   -3.85863692    0.00000000
     atom    4 type  3   force =    -0.00000000   -0.00000000   -0.00000000
     atom    5 type  3   force =    -0.00000000    0.00000000   -0.00000000
     The local contribution  to forces
     atom    1 type  1   force =    -0.00085970    0.00126003    0.00020375
     atom    2 type  2   force =    -6.54697249   -3.78928167   -0.00006136
     atom    3 type  2   force =     6.54738740    3.78858294   -0.00005631
     atom    4 type  3   force =     0.00004432    0.00040013    0.00003119
     atom    5 type  3   force =     0.00002113    0.00038287    0.00004555
     The core correction contribution to forces
     atom    1 type  1   force =    -0.00000050    0.00000078    0.00000012
     atom    2 type  2   force =     0.00854094    0.00493669   -0.00000117
     atom    3 type  2   force =    -0.00853521   -0.00494533   -0.00000045
     atom    4 type  3   force =     0.00000000    0.00000000    0.00000000
     atom    5 type  3   force =     0.00000000    0.00000000    0.00000000
     The Hubbard contrib.    to forces
     atom    1 type  1   force =     0.00000000    0.00000000    0.00000000
     atom    2 type  2   force =     0.00000000    0.00000000    0.00000000
     atom    3 type  2   force =     0.00000000    0.00000000    0.00000000
     atom    4 type  3   force =     0.00000000    0.00000000    0.00000000
     atom    5 type  3   force =     0.00000000    0.00000000    0.00000000
     The SCF correction term to forces
     atom    1 type  1   force =     0.00041534   -0.00051314   -0.00008315
     atom    2 type  2   force =    -0.00002487    0.00020569    0.00002777
     atom    3 type  2   force =    -0.00015859    0.00012607    0.00002614
     atom    4 type  3   force =    -0.00015415   -0.00018656    0.00000392
     atom    5 type  3   force =    -0.00011784   -0.00015984   -0.00001823

     Total force =     0.010921     Total SCF correction =     0.000792

     Computing stress (Cartesian axis) and pressure

          total   stress  (Ry/bohr**3)                   (kbar)     P=     -530.83
  -0.00408155  -0.00049259   0.00000000         -600.42      -72.46        0.00
  -0.00049259  -0.00351548   0.00000000          -72.46     -517.15        0.00
   0.00000000   0.00000000  -0.00322852            0.00        0.00     -474.93

     kinetic stress (kbar)  34005.76   -315.65     -0.00
                             -315.65  34368.53     -0.00
                               -0.00     -0.00  34551.52

     local   stress (kbar)   1446.94  17591.05     -0.02
                            17591.05 -18769.84      0.03
                               -0.02      0.03 -28949.79

     nonloc. stress (kbar)   8934.44    -65.40     -0.00
                              -65.40   9009.60     -0.00
                               -0.00     -0.00   9047.58

     hartree stress (kbar)   6364.12  -8099.75      0.00
                            -8099.75  15672.88     -0.01
                                0.00     -0.01  20359.93

     exc-cor stress (kbar)  -4894.17      1.84      0.00
                                1.84  -4896.28     -0.00
                                0.00     -0.00  -4897.34

     corecor stress (kbar)   -535.08      3.09     -0.00
                                3.09   -538.63      0.00
                               -0.00      0.00   -540.43

     ewald   stress (kbar) -45922.43  -9187.64      0.00
                            -9187.64 -35363.40      0.00
                                0.00      0.00 -30046.40

     hubbard stress (kbar)      0.00      0.00      0.00
                                0.00      0.00      0.00
                                0.00      0.00      0.00

     DFT-D   stress (kbar)      0.00      0.00      0.00
                                0.00      0.00      0.00
                                0.00      0.00      0.00

     XDM     stress (kbar)      0.00      0.00      0.00
                                0.00      0.00      0.00
                                0.00      0.00      0.00

     dft-nl  stress (kbar)      0.00      0.00      0.00
                                0.00      0.00      0.00
                                0.00      0.00      0.00

     TS-vdW  stress (kbar)      0.00      0.00      0.00
                                0.00      0.00      0.00
                                0.00      0.00      0.00

[...]

                                0.00      0.00      0.00

     Writing all to output data dir calculations/myprefix.save/

     General routines

     Parallel routines

     PAW routines

   This run was terminated on:   9:48: 2   6Mar2023

   JOB DONE.