     Program PWSCF v.7.0 starts on  6Mar2023 at 11:26: 5

     R & G space division:  proc/nbgrp/npool/nimage =      32

     Reading input from espresso_4440.pwi
Warning: card &CELL ignored
Warning: card / ignored

     Current dimensions of program PWSCF are:
     Max number of different atomic species (ntypx) = 10
     Max number of k-points (npk) =  40000
     Max angular momentum in pseudopotentials (lmaxx) =  4
     file Mg.pbe-n-kjpaw_psl.0.3.0.UPF: wavefunction(s)  3S renormalized

     gamma-point specific algorithms are used
     Message from routine setup:
     using ibrav=0 with symmetry is DISCOURAGED, use correct ibrav instead

     Using Slab Decomposition

     bravais-lattice index     =            0
     lattice parameter (alat)  =       9.7633  a.u.
     unit-cell volume          =     658.0822 (a.u.)^3
     number of atoms/cell      =            4
     number of atomic types    =            2
     number of electrons       =        27.00
     number of Kohn-Sham states=           18
     kinetic-energy cutoff     =      30.0000  Ry
     charge density cutoff     =     240.0000  Ry
     scf convergence threshold =      1.0E-06
     mixing beta               =       0.7000
     number of iterations used =            8  plain     mixing
     Exchange-correlation= SLA  PW   PBX  PBC
                           (   1   4   3   4   0   0   0)

     celldm(1)=   9.763339  celldm(2)=   0.000000  celldm(3)=   0.000000
     celldm(4)=   0.000000  celldm(5)=   0.000000  celldm(6)=   0.000000

     crystal axes: (cart. coord. in units of alat)
               a(1) = (   1.000000   0.000000   0.000000 )
               a(2) = (   0.500000   0.866025   0.000000 )
               a(3) = (   0.500000   0.288675   0.816497 )

     reciprocal axes: (cart. coord. in units 2 pi/alat)
               b(1) = (  1.000000 -0.577350 -0.408248 )
               b(2) = (  0.000000  1.154701 -0.408248 )
               b(3) = (  0.000000  0.000000  1.224745 )

     PseudoPot. # 1 for Ho read from file:
     /home/pragov/projects/rrg-bengioy-ad/pragov/crystal_structure_design/SSSP/Ho.GGA-PBE-paw-v1.0.UPF
     MD5 check sum: 3d93cae5f38e6cc822e0e70538981326
     Pseudo is Projector augmented-wave + core cor, Zval = 21.0
     Generated using ATOMPAW code
     Shape of augmentation charge: BESSEL
     Using radial grid of 1114 points,  8 beta functions with:
                l(1) =   0
                l(2) =   0
                l(3) =   1
                l(4) =   1
                l(5) =   2
                l(6) =   2
                l(7) =   3
                l(8) =   3
     Q(r) pseudized with 0 coefficients

     PseudoPot. # 2 for Mg read from file:
     /home/pragov/projects/rrg-bengioy-ad/pragov/crystal_structure_design/SSSP/Mg.pbe-n-kjpaw_psl.0.3.0.UPF
     MD5 check sum: 24ecedc7f3e3cbe212e682f4413594e4
     Pseudo is Projector augmented-wave + core cor, Zval =  2.0
     Generated using "atomic" code by A. Dal Corso  v.5.0.99 svn rev. 10869
     Shape of augmentation charge: PSQ
     Using radial grid of 1129 points,  4 beta functions with:
                l(1) =   0
                l(2) =   0
                l(3) =   1
                l(4) =   1
     Q(r) pseudized with 0 coefficients

     atomic species   valence    mass     pseudopotential
        Ho            21.00   164.93033     Ho( 1.00)
        Mg             2.00    24.30500     Mg( 1.00)

     12 Sym. Ops., with inversion, found

                                    s                        frac. trans.

      isym =  1     identity

 cryst.   s( 1) = (     1          0          0      )
                  (     0          1          0      )
                  (     0          0          1      )

 cart.    s( 1) = (  1.0000000  0.0000000  0.0000000 )
                  (  0.0000000  1.0000000  0.0000000 )
                  (  0.0000000  0.0000000  1.0000000 )

      isym =  2     180 deg rotation - cart. axis [1,0,0]

[...]

      isym =  3     120 deg rotation - cryst. axis [0,0,1]

[...]

      isym =  6     180 deg rotation - cryst. axis [1,1,0]

[...]

      isym =  7     inversion

[...]

      isym =  8     inv. 180 deg rotation - cart. axis [1,0,0]

[...]

      isym =  9     inv. 120 deg rotation - cryst. axis [0,0,1]

 cryst.   s( 9) = (     1         -1          0      )
                  (     1          0          0      )
                  (     1          0         -1      )

 cart.    s( 9) = (  0.5000000  0.8660254 -0.0000000 )
                  ( -0.8660254  0.5000000 -0.0000000 )
                  (  0.0000000  0.0000000 -1.0000000 )

[...]

 cryst.   s(10) = (     0          1          0      )
                  (    -1          1          0      )
                  (     0          1         -1      )

 cart.    s(10) = (  0.5000000 -0.8660254  0.0000000 )
                  (  0.8660254  0.5000000 -0.0000000 )
                  (  0.0000000  0.0000000 -1.0000000 )

[...]

      isym = 12     inv. 180 deg rotation - cryst. axis [1,1,0]

 cryst.   s(12) = (     1         -1          0      )
                  (     0         -1          0      )
                  (     0         -1          1      )

 cart.    s(12) = (  0.5000000 -0.8660254  0.0000000 )
                  ( -0.8660254 -0.5000000  0.0000000 )
                  (  0.0000000  0.0000000  1.0000000 )

   Cartesian axes

     site n.     atom                  positions (alat units)
         1           Ho  tau(   1) = (   0.0000000   0.0000000   0.0000000  )
         2           Mg  tau(   2) = (   0.5000000   0.2886751   0.2041241  )
         3           Mg  tau(   3) = (   1.0000000   0.5773503   0.4082483  )
         4           Mg  tau(   4) = (   1.5000000   0.8660254   0.6123724  )

   Crystallographic axes

     site n.     atom                  positions (cryst. coord.)
         1           Ho  tau(   1) = (  0.0000000  0.0000000  0.0000000  )
         2           Mg  tau(   2) = (  0.2500000  0.2500000  0.2500000  )
         3           Mg  tau(   3) = (  0.5000000  0.5000000  0.5000000  )
         4           Mg  tau(   4) = (  0.7500000  0.7500000  0.7500000  )

     number of k points=     1  Methfessel-Paxton smearing, width (Ry)=  0.0010
                       cart. coord. in units 2pi/alat
        k(    1) = (   0.0000000   0.0000000   0.0000000), wk =   2.0000000

                       cryst. coord.
        k(    1) = (   0.0000000   0.0000000   0.0000000), wk =   2.0000000

     Initial potential from superposition of free atoms

     starting charge      26.9929, renormalised to      27.0000
     Starting wfcs are   44 randomized atomic wfcs
     Checking if some PAW data can be deallocated...

     Self-consistent Calculation

     iteration #  1     ecut=    30.00 Ry     beta= 0.70
     Davidson diagonalization with overlap

     ethr =  1.00E-02,  avg # of iterations =  2.0

     total energy              =    -918.93583414 Ry
     estimated scf accuracy    <       9.67337463 Ry

[...]

     negative rho (up, down):  1.236E-04 0.000E+00

[...]

     negative rho (up, down):  8.644E-05 0.000E+00

[...]

     total energy              =    -929.83346710 Ry
     estimated scf accuracy    <       0.00000274 Ry

     iteration # 70     ecut=    30.00 Ry     beta= 0.70
     Davidson diagonalization with overlap

     ethr =  1.01E-08,  avg # of iterations =  8.0

     End of self-consistent calculation

          k = 0.0000 0.0000 0.0000 (   919 PWs)   bands (ev):

   -39.3506 -14.5917 -14.5916 -14.5916   0.1306   6.4275   6.6129   6.6139
     6.6139   6.6455   6.6455   6.6455   6.7265   6.7265   6.7266   8.2567
     8.2567   8.2569

     occupation numbers
     1.0000   1.0000   1.0000   1.0000   1.0000   1.0000   1.0000   1.0000
     1.0000   1.0000   1.0000   1.0000   0.5014   0.5007   0.4979  -0.0000
    -0.0000  -0.0000

     the Fermi energy is     6.7265 ev

!    total energy              =    -929.83346691 Ry

     total all-electron energy =     -2030.996093 Ry
     estimated scf accuracy    <       0.00000078 Ry
     smearing contrib. (-TS)   =      -0.00084628 Ry
     internal energy E=F+TS    =    -929.83262064 Ry

     The total energy is F=E-TS. E is the sum of the following terms:
     one-electron contribution =    -303.60848921 Ry
     hartree contribution      =     155.27093474 Ry
     xc contribution           =     -35.07481260 Ry
     ewald contribution        =    -168.36959480 Ry
     one-center paw contrib.   =    -578.05065877 Ry
      -> PAW hartree energy AE =     299.56252862 Ry
      -> PAW hartree energy PS =    -273.37909498 Ry
      -> PAW xc energy AE      =    -539.59750489 Ry
      -> PAW xc energy PS      =      29.22898929 Ry
      -> total E_H with PAW    =     181.45436838 Ry
      -> total E_XC with PAW   =    -545.44332820 Ry

     convergence has been achieved in  70 iterations

     Forces acting on atoms (cartesian axes, Ry/au):

     atom    1 type  1   force =     0.00000000   -0.00000000    0.00000000
     atom    2 type  2   force =     0.00000000   -0.00000000    0.00002228
     atom    3 type  2   force =     0.00000000   -0.00000000    0.00000000
     atom    4 type  2   force =     0.00000000    0.00000000   -0.00002228
     The non-local contrib.  to forces
     atom    1 type  1   force =     0.00000000    0.00000000   -0.00000000
     atom    2 type  2   force =     0.00000000   -0.00000000   -0.00000956
     atom    3 type  2   force =     0.00000000    0.00000000    0.00000000
     atom    4 type  2   force =     0.00000000    0.00000000    0.00000956
     The ionic contribution  to forces
     atom    1 type  1   force =     0.00000000   -0.00000000   -0.00000000
     atom    2 type  2   force =     0.00000000    0.00000000    0.00000000
     atom    3 type  2   force =     0.00000000    0.00000000    0.00000000
     atom    4 type  2   force =    -0.00000000    0.00000000    0.00000000
     The local contribution  to forces
     atom    1 type  1   force =    -0.00114404   -0.00096109    0.00004104
     atom    2 type  2   force =     0.00001277   -0.00001223    0.00006638
     atom    3 type  2   force =     0.00002015    0.00000635    0.00001188
     atom    4 type  2   force =     0.00001976    0.00000565   -0.00006418
     The core correction contribution to forces
     atom    1 type  1   force =    -0.00000002   -0.00000001   -0.00000000
     atom    2 type  2   force =     0.00000181   -0.00000151    0.00000183
     atom    3 type  2   force =     0.00000098    0.00000010    0.00000098
     atom    4 type  2   force =     0.00000092    0.00000028   -0.00000131
     The Hubbard contrib.    to forces
     atom    1 type  1   force =     0.00000000    0.00000000    0.00000000
     atom    2 type  2   force =     0.00000000    0.00000000    0.00000000
     atom    3 type  2   force =     0.00000000    0.00000000    0.00000000
     atom    4 type  2   force =     0.00000000    0.00000000    0.00000000
     The SCF correction term to forces
     atom    1 type  1   force =     0.00094937    0.00084522   -0.00002896
     atom    2 type  2   force =     0.00000123    0.00000105   -0.00003414
     atom    3 type  2   force =    -0.00000689   -0.00000441   -0.00000034
     atom    4 type  2   force =    -0.00000633   -0.00000531    0.00003589

     Total force =     0.000032     Total SCF correction =     0.001272
     SCF correction compared to forces is large: reduce conv_thr to get better values

     Computing stress (Cartesian axis) and pressure

          total   stress  (Ry/bohr**3)                   (kbar)     P=      -50.98
  -0.00035047  -0.00000000  -0.00000000          -51.56       -0.00       -0.00
  -0.00000000  -0.00035047   0.00000000           -0.00      -51.56        0.00
  -0.00000000   0.00000000  -0.00033870           -0.00        0.00      -49.82

     kinetic stress (kbar)   3880.60     -0.00      0.00
                               -0.00   3880.60     -0.00
                                0.00     -0.00   3880.99

     local   stress (kbar)  -5874.88     -0.38     -0.43
                               -0.38  -5875.01     -0.03
                               -0.43     -0.03  -5879.54

     nonloc. stress (kbar)   5276.39      0.00     -0.00
                                0.00   5276.39     -0.00
                               -0.00     -0.00   5280.42

     hartree stress (kbar)  11568.90      0.15      0.16
                                0.15  11568.94      0.02
                                0.16      0.02  11570.82

     exc-cor stress (kbar)  -1871.21      0.00      0.00
                                0.00  -1871.21      0.00
                                0.00      0.00  -1871.20

     corecor stress (kbar)   -485.74      0.00      0.00
                                0.00   -485.74      0.00
                                0.00      0.00   -485.74

     ewald   stress (kbar) -12545.56     -0.00     -0.00
                               -0.00 -12545.56     -0.00
                               -0.00     -0.00 -12545.56

     hubbard stress (kbar)      0.00      0.00      0.00
                                0.00      0.00      0.00
                                0.00      0.00      0.00

     DFT-D   stress (kbar)      0.00      0.00      0.00
                                0.00      0.00      0.00
                                0.00      0.00      0.00

     XDM     stress (kbar)      0.00      0.00      0.00
                                0.00      0.00      0.00
                                0.00      0.00      0.00

     dft-nl  stress (kbar)      0.00      0.00      0.00
                                0.00      0.00      0.00
                                0.00      0.00      0.00

     TS-vdW  stress (kbar)      0.00      0.00      0.00
                                0.00      0.00      0.00
                                0.00      0.00      0.00

[...]

                                0.00      0.00      0.00

     Writing all to output data dir calculations/myprefix.save/

     General routines

     Parallel routines

     PAW routines

   This run was terminated on:  11:26:25   6Mar2023

   JOB DONE.