     Program PWSCF v.7.0 starts on  3Mar2023 at 12:12:52

     R & G space division:  proc/nbgrp/npool/nimage =      32

     Reading input from espresso_223.pwi
Warning: card &CELL ignored
Warning: card / ignored

     Current dimensions of program PWSCF are:
     Max number of different atomic species (ntypx) = 10
     Max number of k-points (npk) =  40000
     Max angular momentum in pseudopotentials (lmaxx) =  4

     gamma-point specific algorithms are used

     Using Slab Decomposition

     bravais-lattice index     =            0
     lattice parameter (alat)  =      13.6676  a.u.
     unit-cell volume          =     536.2485 (a.u.)^3
     number of atoms/cell      =            4
     number of atomic types    =            3
     number of electrons       =        49.00
     number of Kohn-Sham states=           30
     kinetic-energy cutoff     =      30.0000  Ry
     charge density cutoff     =     240.0000  Ry
     scf convergence threshold =      1.0E-06
     mixing beta               =       0.7000
     number of iterations used =            8  plain     mixing
     Exchange-correlation= SLA  PW   PBE  PBE
                           (   1   4   3   4   0   0   0)

     celldm(1)=  13.667639  celldm(2)=   0.000000  celldm(3)=   0.000000
     celldm(4)=   0.000000  celldm(5)=   0.000000  celldm(6)=   0.000000

     crystal axes: (cart. coord. in units of alat)
               a(1) = (   1.000000   0.000000   0.000000 )
               a(2) = (   0.873266   0.487244   0.000000 )
               a(3) = (   0.873266   0.227140   0.431062 )

     reciprocal axes: (cart. coord. in units 2 pi/alat)
               b(1) = (  1.000000 -1.792257 -1.081453 )
               b(2) = (  0.000000  2.052361 -1.081453 )
               b(3) = (  0.000000  0.000000  2.319854 )

     PseudoPot. # 1 for Ni read from file:
     /home/pragov/projects/rrg-bengioy-ad/pragov/crystal_structure_design/SSSP/ni_pbe_v1.4.uspp.F.UPF
     MD5 check sum: 1ee80287db30b12d2bc1f57a5b5d6409
     Pseudo is Ultrasoft + core correction, Zval = 18.0
     Generated by new atomic code, or converted to UPF format
     Using radial grid of  865 points,  6 beta functions with:
                l(1) =   0
                l(2) =   0
                l(3) =   1
                l(4) =   1
                l(5) =   2
                l(6) =   2
     Q(r) pseudized with 10 coefficients,  rinner =    0.980   0.980   0.980
                                                       0.980   0.980

     PseudoPot. # 2 for Ag read from file:
     /home/pragov/projects/rrg-bengioy-ad/pragov/crystal_structure_design/SSSP/Ag_ONCV_PBE-1.0.oncvpsp.upf
     MD5 check sum: 94f47bd0669c641108e45594df92fabc
     Pseudo is Norm-conserving, Zval = 19.0
     Generated using ONCVPSP code by D. R. Hamann
     Using radial grid of 1398 points,  6 beta functions with:
                l(1) =   0
                l(2) =   0
                l(3) =   1
                l(4) =   1
                l(5) =   2
                l(6) =   2

     PseudoPot. # 3 for Se read from file:
     /home/pragov/projects/rrg-bengioy-ad/pragov/crystal_structure_design/SSSP/Se_pbe_v1.uspp.F.UPF
     MD5 check sum: 1b3568f3a8ae88f9a2a0ad0698632c85
     Pseudo is Ultrasoft + core correction, Zval =  6.0
     Generated by new atomic code, or converted to UPF format
     Using radial grid of  877 points,  6 beta functions with:
                l(1) =   0
                l(2) =   0
                l(3) =   1
                l(4) =   1
                l(5) =   2
                l(6) =   2
     Q(r) pseudized with  8 coefficients,  rinner =    1.300   1.300   1.300
                                                       1.300   1.300

     atomic species   valence    mass     pseudopotential
        Ni            18.00    58.69340     Ni( 1.00)
        Ag            19.00   107.86820     Ag( 1.00)
        Se             6.00    78.97100     Se( 1.00)

     No symmetry found

                                    s                        frac. trans.

      isym =  1     identity

 cryst.   s( 1) = (     1          0          0      )
                  (     0          1          0      )
                  (     0          0          1      )

 cart.    s( 1) = (  1.0000000  0.0000000  0.0000000 )
                  (  0.0000000  1.0000000  0.0000000 )
                  (  0.0000000  0.0000000  1.0000000 )

   Cartesian axes

     site n.     atom                  positions (alat units)
         1           Ni  tau(   1) = (   2.7386796   0.7123413   0.4298291  )
         2           Ag  tau(   2) = (   0.4090355   0.1063917   0.0641971  )
         3           Se  tau(   3) = (   0.7479328   0.1945402   0.1173862  )
         4           Se  tau(   4) = (   1.9929166   0.5183654   0.3127834  )

   Crystallographic axes

     site n.     atom                  positions (cryst. coord.)
         1           Ni  tau(   1) = (  0.9971410  0.9971410  0.9971410  )
         2           Ag  tau(   2) = (  0.1489280  0.1489280  0.1489280  )
         3           Se  tau(   3) = (  0.2723190  0.2723190  0.2723190  )
         4           Se  tau(   4) = (  0.7256120  0.7256120  0.7256120  )

     number of k points=     1  Methfessel-Paxton smearing, width (Ry)=  0.0010
                       cart. coord. in units 2pi/alat
        k(    1) = (   0.0000000   0.0000000   0.0000000), wk =   2.0000000

                       cryst. coord.
        k(    1) = (   0.0000000   0.0000000   0.0000000), wk =   2.0000000

     Check: negative core charge=   -0.000002

     Initial potential from superposition of free atoms

     starting charge      46.9996, renormalised to      49.0000
     Starting wfcs are   31 randomized atomic wfcs

     Self-consistent Calculation

     iteration #  1     ecut=    30.00 Ry     beta= 0.70
     Davidson diagonalization with overlap

     ethr =  1.00E-02,  avg # of iterations =  3.0

     total energy              =    -656.35429172 Ry
     estimated scf accuracy    <      74.56236698 Ry

[...]

     total energy              =    -716.67361631 Ry
     estimated scf accuracy    <       0.00000112 Ry

     iteration # 26     ecut=    30.00 Ry     beta= 0.70
     Davidson diagonalization with overlap

     ethr =  2.29E-09,  avg # of iterations = 18.0

     End of self-consistent calculation

          k = 0.0000 0.0000 0.0000 (   726 PWs)   bands (ev):

   -94.0574 -82.9672 -54.5844 -54.5844 -53.9812 -46.0318 -45.9047 -45.9047
    -4.3099  -2.5752   3.8932   5.3481   5.7696   5.7696   6.0457   6.0457
     6.3000   6.3000   7.7807   7.7807   8.2488   9.4203  10.2220  10.2220
    11.3041  11.3041  11.4595  15.2744  16.9844  17.3128

     occupation numbers
     1.0000   1.0000   1.0000   1.0000   1.0000   1.0000   1.0000   1.0000
     1.0000   1.0000   1.0000   1.0000   1.0000   1.0000   1.0000   1.0000
     1.0000   1.0000   1.0000   1.0000   1.0000   1.0000   1.0000   1.0000
     0.2508   0.2492  -0.0000  -0.0000  -0.0000  -0.0000

     the Fermi energy is    11.2999 ev

!    total energy              =    -716.67361661 Ry
     estimated scf accuracy    <       0.00000016 Ry
     smearing contrib. (-TS)   =      -0.00041261 Ry
     internal energy E=F+TS    =    -716.67320400 Ry

     The total energy is F=E-TS. E is the sum of the following terms:
     one-electron contribution =    -479.59500701 Ry
     hartree contribution      =     258.20878530 Ry
     xc contribution           =    -122.29287416 Ry
     ewald contribution        =    -372.99410813 Ry

     convergence has been achieved in  26 iterations

     Forces acting on atoms (cartesian axes, Ry/au):

     atom    1 type  1   force =     0.00624194    0.00167282    0.00096076
     atom    2 type  2   force =     0.04664679    0.01212336    0.00730472
     atom    3 type  3   force =    -0.05641381   -0.01470140   -0.00873450
     atom    4 type  3   force =     0.00352508    0.00090522    0.00046901
     The non-local contrib.  to forces
     atom    1 type  1   force =    -0.00966755   -0.00251211   -0.00157725
     atom    2 type  2   force =    -0.21807156   -0.05673468   -0.03419002
     atom    3 type  3   force =    -0.52533860   -0.13662887   -0.08250742
     atom    4 type  3   force =     0.65134529    0.16939759    0.10226018
     The ionic contribution  to forces
     atom    1 type  1   force =   -10.34407996   -2.69053553   -1.62347843
     atom    2 type  2   force =    13.51870646    3.51626826    2.12172879
     atom    3 type  3   force =    -6.83824210   -1.77865343   -1.07324320
     atom    4 type  3   force =     3.66361561    0.95292070    0.57499283
     The local contribution  to forces
     atom    1 type  1   force =    10.36003675    2.69462928    1.62605705
     atom    2 type  2   force =   -13.25464520   -3.44764039   -2.08052395
     atom    3 type  3   force =     7.24047879    1.88324982    1.13658231
     atom    4 type  3   force =    -4.22895794   -1.09993178   -0.66385655
     The core correction contribution to forces
     atom    1 type  1   force =     0.00071504    0.00018608    0.00011355
     atom    2 type  2   force =     0.00000000    0.00000000    0.00000000
     atom    3 type  3   force =     0.06650780    0.01729618    0.01044729
     atom    4 type  3   force =    -0.08228158   -0.02139851   -0.01291854
     The Hubbard contrib.    to forces
     atom    1 type  1   force =     0.00000000    0.00000000    0.00000000
     atom    2 type  2   force =     0.00000000    0.00000000    0.00000000
     atom    3 type  3   force =     0.00000000    0.00000000    0.00000000
     atom    4 type  3   force =     0.00000000    0.00000000    0.00000000
     The SCF correction term to forces
     atom    1 type  1   force =    -0.00085260   -0.00010103   -0.00016664
     atom    2 type  2   force =     0.00056683    0.00022403    0.00027742
     atom    3 type  3   force =     0.00009006    0.00002876   -0.00002596
     atom    4 type  3   force =    -0.00028655   -0.00008892   -0.00002138

     Total force =     0.076859     Total SCF correction =     0.001146

     Computing stress (Cartesian axis) and pressure

          total   stress  (Ry/bohr**3)                   (kbar)     P=     -541.62
  -0.00328530   0.00016219   0.00009717         -483.28       23.86       14.29
   0.00016219  -0.00386654   0.00002526           23.86     -568.79        3.72
   0.00009717   0.00002526  -0.00389381           14.29        3.72     -572.80

     kinetic stress (kbar)  28753.72     21.00     12.49
                               21.00  28678.51      3.24
                               12.49      3.24  28674.11

     local   stress (kbar) -13700.76   1678.12   1013.23
                             1678.12 -19716.08    263.55
                             1013.23    263.55 -19991.91

     nonloc. stress (kbar)   5707.64     20.55     12.21
                               20.55   5634.02      3.17
                               12.21      3.17   5629.83

     hartree stress (kbar)  21241.55   -969.12   -585.14
                             -969.12  24715.40   -152.19
                             -585.14   -152.19  24875.55

     exc-cor stress (kbar)   7681.06      2.34      1.41
                                2.34   7672.69      0.37
                                1.41      0.37   7672.28

     corecor stress (kbar) -14264.65      5.17      3.11
                                5.17 -14283.17      0.81
                                3.11      0.81 -14283.94

     ewald   stress (kbar) -35901.85   -734.19   -443.01
                             -734.19 -33270.14   -115.23
                             -443.01   -115.23 -33148.71

     hubbard stress (kbar)      0.00      0.00      0.00
                                0.00      0.00      0.00
                                0.00      0.00      0.00

     DFT-D   stress (kbar)      0.00      0.00      0.00
                                0.00      0.00      0.00
                                0.00      0.00      0.00

     XDM     stress (kbar)      0.00      0.00      0.00
                                0.00      0.00      0.00
                                0.00      0.00      0.00

     dft-nl  stress (kbar)      0.00      0.00      0.00
                                0.00      0.00      0.00
                                0.00      0.00      0.00

     TS-vdW  stress (kbar)      0.00      0.00      0.00
                                0.00      0.00      0.00
                                0.00      0.00      0.00

[...]

                                0.00      0.00      0.00

     Writing all to output data dir calculations/myprefix.save/

     General routines

     Parallel routines

   This run was terminated on:  12:12:55   3Mar2023

   JOB DONE.