     Program PWSCF v.7.0 starts on  3Mar2023 at 14: 2:25

     R & G space division:  proc/nbgrp/npool/nimage =      32

     Reading input from espresso_527.pwi
Warning: card &CELL ignored
Warning: card / ignored

     Current dimensions of program PWSCF are:
     Max number of different atomic species (ntypx) = 10
     Max number of k-points (npk) =  40000
     Max angular momentum in pseudopotentials (lmaxx) =  4

     gamma-point specific algorithms are used
     Message from routine setup:
     using ibrav=0 with symmetry is DISCOURAGED, use correct ibrav instead

     Using Slab Decomposition

     bravais-lattice index     =            0
     lattice parameter (alat)  =      14.7549  a.u.
     unit-cell volume          =     922.9575 (a.u.)^3
     number of atoms/cell      =            7
     number of atomic types    =            3
     number of electrons       =        65.00
     number of Kohn-Sham states=           40
     kinetic-energy cutoff     =      30.0000  Ry
     charge density cutoff     =     240.0000  Ry
     scf convergence threshold =      1.0E-06
     mixing beta               =       0.7000
     number of iterations used =            8  plain     mixing
     Exchange-correlation=  SLA  PW   PBX  PBC
                           (   1   4   3   4   0   0   0)

     celldm(1)=  14.754905  celldm(2)=   0.000000  celldm(3)=   0.000000
     celldm(4)=   0.000000  celldm(5)=   0.000000  celldm(6)=   0.000000

     crystal axes: (cart. coord. in units of alat)
               a(1) = (   1.000000   0.000000   0.000000 )
               a(2) = (   0.687170   0.726496   0.000000 )
               a(3) = (  -0.843585  -0.363248   0.395493 )

     reciprocal axes: (cart. coord. in units 2 pi/alat)
               b(1) = (  1.000000 -0.945869  1.264244 )
               b(2) = (  0.000000  1.376469  1.264244 )
               b(3) = (  0.000000  0.000000  2.528489 )

     PseudoPot. # 1 for Cs read from file:
     /home/pragov/projects/rrg-bengioy-ad/pragov/crystal_structure_design/SSSP/Cs_pbe_v1.uspp.F.UPF
     MD5 check sum: 3476d69cb178dfad3ffaa59df4e07ca4
     Pseudo is Ultrasoft + core correction, Zval =  9.0
     Generated by new atomic code, or converted to UPF format
     Using radial grid of  905 points,  6 beta functions with:
                l(1) =   0
                l(2) =   0
                l(3) =   1
                l(4) =   1
                l(5) =   2
                l(6) =   2
     Q(r) pseudized with  6 coefficients,  rinner =    1.500   1.500   1.500
                                                       1.500   1.500

     PseudoPot. # 2 for Cu read from file:
     /home/pragov/projects/rrg-bengioy-ad/pragov/crystal_structure_design/SSSP/Cu_pbe_v1.2.uspp.F.UPF
     MD5 check sum: 6e991ff952a84172a2a52a1c1e996048
     Pseudo is Ultrasoft + core correction, Zval = 19.0
     Generated by new atomic code, or converted to UPF format
     Using radial grid of  867 points,  6 beta functions with:
                l(1) =   0
                l(2) =   0
                l(3) =   1
                l(4) =   1
                l(5) =   2
                l(6) =   2
     Q(r) pseudized with  8 coefficients,  rinner =    1.150   1.150   1.150
                                                       1.150   1.150

     PseudoPot. # 3 for F  read from file:
     /home/pragov/projects/rrg-bengioy-ad/pragov/crystal_structure_design/SSSP/f_pbe_v1.4.uspp.F.UPF
     MD5 check sum: 4c38b6a325caf53ec0e86aed9459de46
     Pseudo is Ultrasoft, Zval =  7.0
     Generated by new atomic code, or converted to UPF format
     Using radial grid of  799 points,  4 beta functions with:
                l(1) =   0
                l(2) =   0
                l(3) =   1
                l(4) =   1
     Q(r) pseudized with  8 coefficients,  rinner =    0.950   0.950   0.950

     atomic species   valence    mass     pseudopotential
        Cs             9.00   132.90545     Cs( 1.00)
        Cu            19.00    63.54600     Cu( 1.00)
        F              7.00    18.99840     F ( 1.00)

      4 Sym. Ops., with inversion, found

                                    s                        frac. trans.

      isym =  1     identity

 cryst.   s( 1) = (     1          0          0      )
                  (     0          1          0      )
                  (     0          0          1      )

 cart.    s( 1) = (  1.0000000  0.0000000 -0.0000000 )
                  (  0.0000000  1.0000000  0.0000000 )
                  (  0.0000000  0.0000000  1.0000000 )

      isym =  2     180 deg rotation - cart. axis [0,0,1]

[...]

      isym =  3     inversion

[...]

      isym =  4     inv. 180 deg rotation - cart. axis [0,0,1]

 cryst.   s( 4) = (     1          0          0      )
                  (     0          1          0      )
                  (    -1         -1         -1      )

 cart.    s( 4) = (  1.0000000  0.0000000 -0.0000000 )
                  (  0.0000000  1.0000000 -0.0000000 )
                  (  0.0000000  0.0000000 -1.0000000 )

   Cartesian axes

     site n.     atom                  positions (alat units)
         1           Cs  tau(   1) = (   0.2444929   0.1052788   0.0000000  )
         2           Cs  tau(   2) = (   1.4426774   0.6212176   0.0000000  )
         3           Cu  tau(   3) = (   0.8435851   0.3632482   0.0000000  )
         4           F   tau(   4) = (   0.6148150   0.2647396   0.0000000  )
         5           F   tau(   5) = (   1.0723553   0.4617567   0.0000000  )
         6           F   tau(   6) = (  -0.0782074   0.1816241   0.1977466  )
         7           F   tau(   7) = (   0.0782074  -0.1816241   0.1977466  )

   Crystallographic axes

     site n.     atom                  positions (cryst. coord.)
         1           Cs  tau(   1) = (  0.1449130  0.1449130  0.0000000  )
         2           Cs  tau(   2) = (  0.8550870  0.8550870  0.0000000  )
         3           Cu  tau(   3) = (  0.5000000  0.5000000  0.0000000  )
         4           F   tau(   4) = (  0.3644060  0.3644060  0.0000000  )
         5           F   tau(   5) = (  0.6355940  0.6355940  0.0000000  )
         6           F   tau(   6) = (  0.0000000  0.5000000  0.5000000  )
         7           F   tau(   7) = (  0.5000000 -0.0000000  0.5000000  )

     number of k points=     1  Methfessel-Paxton smearing, width (Ry)=  0.0010
                       cart. coord. in units 2pi/alat
        k(    1) = (   0.0000000   0.0000000   0.0000000), wk =   2.0000000

                       cryst. coord.
        k(    1) = (   0.0000000   0.0000000   0.0000000), wk =   2.0000000

     Initial potential from superposition of free atoms

     starting charge      63.9212, renormalised to      65.0000
     Starting wfcs are   55 randomized atomic wfcs

     Self-consistent Calculation

     iteration #  1     ecut=    30.00 Ry     beta= 0.70
     Davidson diagonalization with overlap

     ethr =  1.00E-02,  avg # of iterations =  2.0

     Threshold (ethr) on eigenvalues was too large:
     Diagonalizing with lowered threshold

     Davidson diagonalization with overlap

[...]

     total energy              =    -724.31225406 Ry
     estimated scf accuracy    <       0.60715553 Ry

[...]

     total energy              =    -724.56997166 Ry
     estimated scf accuracy    <       0.00001013 Ry

     iteration #  9     ecut=    30.00 Ry     beta= 0.70
     Davidson diagonalization with overlap

     ethr =  1.56E-08,  avg # of iterations =  2.0

     End of self-consistent calculation

          k = 0.0000 0.0000 0.0000 (  1264 PWs)   bands (ev):

  -107.0755 -65.0955 -64.0870 -64.0867 -16.6390 -16.4558 -15.8587 -15.6195
   -14.2943 -14.2768  -1.8314  -1.3247  -1.3247  -1.2365  -1.2365  -1.0468
     0.5447   1.2794   1.7420   1.7422   2.0335   2.0335   2.6696   2.6697
     2.8773   3.1600   3.2771   3.2773   3.6221   3.7115   3.7116   3.8476
     4.1065   9.0515  10.6837  11.8462  11.8799  12.0027  12.6862  12.7883

     occupation numbers
     1.0000   1.0000   1.0000   1.0000   1.0000   1.0000   1.0000   1.0000
     1.0000   1.0000   1.0000   1.0000   1.0000   1.0000   1.0000   1.0000
     1.0000   1.0000   1.0000   1.0000   1.0000   1.0000   1.0000   1.0000
     1.0000   1.0000   1.0000   1.0000   1.0000   1.0000   1.0000   1.0000
     0.5000  -0.0000  -0.0000  -0.0000  -0.0000  -0.0000  -0.0000  -0.0000

     the Fermi energy is     4.1065 ev

!    total energy              =    -724.56997295 Ry
     estimated scf accuracy    <       0.00000073 Ry
     smearing contrib. (-TS)   =      -0.00028209 Ry
     internal energy E=F+TS    =    -724.56969086 Ry

     The total energy is F=E-TS. E is the sum of the following terms:
     one-electron contribution =    -660.52837595 Ry
     hartree contribution      =     363.10806182 Ry
     xc contribution           =    -136.97308841 Ry
     ewald contribution        =    -290.17628832 Ry

     convergence has been achieved in   9 iterations

     Forces acting on atoms (cartesian axes, Ry/au):

     atom    1 type  1   force =    -0.02953392   -0.01271613    0.00000000
     atom    2 type  1   force =     0.02953392    0.01271613   -0.00000000
     atom    3 type  2   force =     0.00000000    0.00000000   -0.00000000
     atom    4 type  3   force =     0.02370035    0.01020677   -0.00000000
     atom    5 type  3   force =    -0.02370035   -0.01020677    0.00000000
     atom    6 type  3   force =     0.00000000    0.00000000    0.00000000
     atom    7 type  3   force =     0.00000000    0.00000000    0.00000000
     The non-local contrib.  to forces
     atom    1 type  1   force =     0.02943195    0.01267149   -0.00000000
     atom    2 type  1   force =    -0.02943195   -0.01267149    0.00000000
     atom    3 type  2   force =     0.00000000    0.00000000   -0.00000000
     atom    4 type  3   force =     0.54979749    0.23673813   -0.00000000
     atom    5 type  3   force =    -0.54979749   -0.23673813    0.00000000
     atom    6 type  3   force =     0.00000000    0.00000000    0.00000000
     atom    7 type  3   force =     0.00000000    0.00000000   -0.00000000
     The ionic contribution  to forces
     atom    1 type  1   force =    13.00335583    5.59925164   -0.00000000
     atom    2 type  1   force =   -13.00335583   -5.59925164    0.00000000
     atom    3 type  2   force =    -0.00000000   -0.00000000    0.00000000
     atom    4 type  3   force =   -22.19927153   -9.55901762    0.00000000
     atom    5 type  3   force =    22.19927154    9.55901762   -0.00000000
     atom    6 type  3   force =    -0.00000000    0.00000000   -0.00000000
     atom    7 type  3   force =    -0.00000000   -0.00000000    0.00000000
     The local contribution  to forces
     atom    1 type  1   force =   -13.05751895   -5.62255807    0.00005444
     atom    2 type  1   force =    13.05746321    5.62257672    0.00000806
     atom    3 type  2   force =    -0.00006984   -0.00003519    0.00000451
     atom    4 type  3   force =    21.67343491    9.33258748    0.00000539
     atom    5 type  3   force =   -21.67345213   -9.33261556   -0.00000954
     atom    6 type  3   force =    -0.00001324    0.00000410    0.00000489
     atom    7 type  3   force =    -0.00002800   -0.00001338    0.00000165
     The core correction contribution to forces
     atom    1 type  1   force =    -0.00544879   -0.00234051    0.00001449
     atom    2 type  1   force =     0.00542293    0.00233848    0.00000360
     atom    3 type  2   force =    -0.00000018   -0.00000010   -0.00000010
     atom    4 type  3   force =     0.00000000    0.00000000    0.00000000
     atom    5 type  3   force =     0.00000000    0.00000000    0.00000000
     atom    6 type  3   force =     0.00000000    0.00000000    0.00000000
     atom    7 type  3   force =     0.00000000    0.00000000    0.00000000
     The Hubbard contrib.    to forces
     atom    1 type  1   force =     0.00000000    0.00000000    0.00000000
     atom    2 type  1   force =     0.00000000    0.00000000    0.00000000
     atom    3 type  2   force =     0.00000000    0.00000000    0.00000000
     atom    4 type  3   force =     0.00000000    0.00000000    0.00000000
     atom    5 type  3   force =     0.00000000    0.00000000    0.00000000
     atom    6 type  3   force =     0.00000000    0.00000000    0.00000000
     atom    7 type  3   force =     0.00000000    0.00000000    0.00000000
     The SCF correction term to forces
     atom    1 type  1   force =     0.00059137    0.00025640    0.00000293
     atom    2 type  1   force =    -0.00061909   -0.00027886    0.00000395
     atom    3 type  2   force =     0.00009964   -0.00003581    0.00000017
     atom    4 type  3   force =    -0.00026205   -0.00010093   -0.00001827
     atom    5 type  3   force =     0.00027620    0.00012959   -0.00001058
     atom    6 type  3   force =     0.00001250    0.00000018   -0.00000423
     atom    7 type  3   force =     0.00002574    0.00001288    0.00000095

     Total force =     0.058307     Total SCF correction =     0.001030

     Computing stress (Cartesian axis) and pressure

          total   stress  (Ry/bohr**3)                   (kbar)     P=     -145.66
  -0.00144178  -0.00032148   0.00000000         -212.09      -47.29        0.00
  -0.00032148  -0.00083362   0.00000000          -47.29     -122.63        0.00
   0.00000000   0.00000000  -0.00069521            0.00        0.00     -102.27

     kinetic stress (kbar)  14255.00   -194.27     -0.00
                             -194.27  14622.51     -0.00
                               -0.00     -0.00  14706.18

     local   stress (kbar)  -2146.18  14161.38     -0.19
                            14161.38 -28935.82      0.46
                               -0.19      0.46 -35033.78

     nonloc. stress (kbar)   8345.05   -103.51     -0.00
                             -103.51   8540.87     -0.00
                               -0.00     -0.00   8585.44

     hartree stress (kbar)   9209.31  -7177.33      0.09
                            -7177.33  22786.94     -0.21
                                0.09     -0.21  25877.53

     exc-cor stress (kbar)   2697.58      0.38      0.00
                                0.38   2696.87     -0.00
                                0.00     -0.00   2696.71

     corecor stress (kbar)  -7694.96      1.60      0.00
                                1.60  -7697.98      0.00
                                0.00      0.00  -7698.67

     ewald   stress (kbar) -24877.89  -6735.54      0.00
                            -6735.54 -12136.01      0.00
                                0.00      0.00  -9235.69

     hubbard stress (kbar)      0.00      0.00      0.00
                                0.00      0.00      0.00
                                0.00      0.00      0.00

     DFT-D   stress (kbar)      0.00      0.00      0.00
                                0.00      0.00      0.00
                                0.00      0.00      0.00

     XDM     stress (kbar)      0.00      0.00      0.00
                                0.00      0.00      0.00
                                0.00      0.00      0.00

     dft-nl  stress (kbar)      0.00      0.00      0.00
                                0.00      0.00      0.00
                                0.00      0.00      0.00

     TS-vdW  stress (kbar)      0.00      0.00      0.00
                                0.00      0.00      0.00
                                0.00      0.00      0.00

[...]

                                0.00      0.00      0.00

     Writing all to output data dir calculations/myprefix.save/

     General routines

     Parallel routines

   This run was terminated on:  14: 2:27   3Mar2023

   JOB DONE.