     Program PWSCF v.7.0 starts on  4Mar2023 at 18:22:35

     R & G space division:  proc/nbgrp/npool/nimage =      32

     Reading input from espresso_7201.pwi
Warning: card &CELL ignored
Warning: card / ignored

     Current dimensions of program PWSCF are:
     Max number of different atomic species (ntypx) = 10
     Max number of k-points (npk) =  40000
     Max angular momentum in pseudopotentials (lmaxx) =  4
     file K.pbe-spn-kjpaw_psl.1.0.0.UPF: wavefunction(s)  3S renormalized

     gamma-point specific algorithms are used
     Message from routine setup:
     using ibrav=0 with symmetry is DISCOURAGED, use correct ibrav instead

     Using Slab Decomposition

     bravais-lattice index     =            0
     lattice parameter (alat)  =      17.0901  a.u.
     unit-cell volume          =    3392.4038 (a.u.)^3
     number of atoms/cell      =            8
     number of atomic types    =            2
     number of electrons       =        72.00
     number of Kohn-Sham states=           43
     kinetic-energy cutoff     =      30.0000  Ry
     charge density cutoff     =     240.0000  Ry
     scf convergence threshold =      1.0E-06
     mixing beta               =       0.7000
     number of iterations used =            8  plain     mixing
     Exchange-correlation=  SLA  PW   PBX  PBC
                           (   1   4   3   4   0   0   0)

     celldm(1)=  17.090086  celldm(2)=   0.000000  celldm(3)=   0.000000
     celldm(4)=   0.000000  celldm(5)=   0.000000  celldm(6)=   0.000000

     crystal axes: (cart. coord. in units of alat)
               a(1) = (   1.000000   0.000000   0.000000 )
               a(2) = (  -0.500000   0.866025   0.000000 )
               a(3) = (   0.000000   0.000000   0.784773 )

     reciprocal axes: (cart. coord. in units 2 pi/alat)
               b(1) = (  1.000000  0.577350  0.000000 )
               b(2) = (  0.000000  1.154701  0.000000 )
               b(3) = (  0.000000  0.000000  1.274253 )

     PseudoPot. # 1 for K  read from file:
     /home/pragov/projects/rrg-bengioy-ad/pragov/crystal_structure_design/SSSP/K.pbe-spn-kjpaw_psl.1.0.0.UPF
     MD5 check sum: 7d58810084cac21f60fbe77ea2b688fd
     Pseudo is Projector augmented-wave + core cor, Zval =  9.0
     Generated using "atomic" code by A. Dal Corso  v.5.1
     Shape of augmentation charge: PSQ
     Using radial grid of 1165 points,  6 beta functions with:
                l(1) =   0
                l(2) =   0
                l(3) =   1
                l(4) =   1
                l(5) =   2
                l(6) =   2
     Q(r) pseudized with 0 coefficients

     PseudoPot. # 2 for Na read from file:
     /home/pragov/projects/rrg-bengioy-ad/pragov/crystal_structure_design/SSSP/na_pbe_v1.5.uspp.F.UPF
     MD5 check sum: 44600605ef58000f06b90626533354dc
     Pseudo is Ultrasoft, Zval =  9.0
     Generated by new atomic code, or converted to UPF format
     Using radial grid of  819 points,  5 beta functions with:
                l(1) =   0
                l(2) =   0
                l(3) =   1
                l(4) =   1
                l(5) =   2
     Q(r) pseudized with  8 coefficients,  rinner =    1.250   1.250   1.250
                                                       1.250   1.250

     atomic species   valence    mass     pseudopotential
        K              9.00    39.09830     K ( 1.00)
        Na             9.00    22.98977     Na( 1.00)

     24 Sym. Ops., with inversion, found (12 have fractional translation)

                                    s                        frac. trans.

      isym =  1     identity

 cryst.   s( 1) = (     1          0          0      )
                  (     0          1          0      )
                  (     0          0          1      )

 cart.    s( 1) = (  1.0000000  0.0000000  0.0000000 )
                  (  0.0000000  1.0000000  0.0000000 )
                  (  0.0000000  0.0000000  1.0000000 )

      isym =  2     180 deg rotation - cart. axis [0,0,1]

 cryst.   s( 2) = (    -1          0          0      )    f =( -0.0000000 )
                  (     0         -1          0      )       (  0.0000000 )
                  (     0          0          1      )       (  0.5000000 )

 cart.    s( 2) = ( -1.0000000 -0.0000000  0.0000000 )    f =( -0.0000000 )
                  (  0.0000000 -1.0000000  0.0000000 )       (  0.0000000 )
                  (  0.0000000  0.0000000  1.0000000 )       (  0.3923866 )

[...]

      isym =  4     180 deg rotation - cart. axis [1,0,0]

[...]

      isym =  5      60 deg rotation - cryst. axis [0,0,1]

[...]

 cryst.   s( 8) = (    -1         -1          0      )
                  (     1          0          0      )
                  (     0          0          1      )

 cart.    s( 8) = ( -0.5000000  0.8660254  0.0000000 )
                  ( -0.8660254 -0.5000000  0.0000000 )
                  (  0.0000000  0.0000000  1.0000000 )

[...]

 cryst.   s( 9) = (     0         -1          0      )    f =(  0.0000000 )
                  (    -1          0          0      )       (  0.0000000 )
                  (     0          0         -1      )       (  0.5000000 )

 cart.    s( 9) = (  0.5000000 -0.8660254  0.0000000 )    f =(  0.0000000 )
                  ( -0.8660254 -0.5000000  0.0000000 )       (  0.0000000 )
                  (  0.0000000  0.0000000 -1.0000000 )       (  0.3923866 )

[...]

 cryst.   s(10) = (     1          1          0      )    f =(  0.0000000 )
                  (     0         -1          0      )       (  0.0000000 )
                  (     0          0         -1      )       (  0.5000000 )

 cart.    s(10) = (  0.5000000  0.8660254  0.0000000 )    f =(  0.0000000 )
                  (  0.8660254 -0.5000000  0.0000000 )       (  0.0000000 )
                  (  0.0000000  0.0000000 -1.0000000 )       (  0.3923866 )

[...]

 cryst.   s(11) = (    -1         -1          0      )
                  (     0          1          0      )
                  (     0          0         -1      )

 cart.    s(11) = ( -0.5000000 -0.8660254  0.0000000 )
                  ( -0.8660254  0.5000000  0.0000000 )
                  (  0.0000000  0.0000000 -1.0000000 )

      isym = 12     180 deg rotation - cryst. axis [1,1,0]

[...]

      isym = 13     inversion

[...]

      isym = 14     inv. 180 deg rotation - cart. axis [0,0,1]

[...]

      isym = 16     inv. 180 deg rotation - cart. axis [1,0,0]

[...]

      isym = 17     inv.  60 deg rotation - cryst. axis [0,0,1]

[...]

 cryst.   s(22) = (    -1         -1          0      )    f =( -0.0000000 )
                  (     0          1          0      )       (  0.0000000 )
                  (     0          0          1      )       (  0.5000000 )

 cart.    s(22) = ( -0.5000000 -0.8660254  0.0000000 )    f =( -0.0000000 )
                  ( -0.8660254  0.5000000  0.0000000 )       (  0.0000000 )
                  (  0.0000000  0.0000000  1.0000000 )       (  0.3923866 )

[...]

      isym = 24     inv. 180 deg rotation - cryst. axis [1,1,0]

 cryst.   s(24) = (     0         -1          0      )
                  (    -1          0          0      )
                  (     0          0          1      )

 cart.    s(24) = (  0.5000000 -0.8660254  0.0000000 )
                  ( -0.8660254 -0.5000000  0.0000000 )
                  (  0.0000000  0.0000000  1.0000000 )

   Cartesian axes

     site n.     atom                  positions (alat units)
         1           K   tau(   1) = (   0.7424635   0.1486888   0.5885799  )
         2           K   tau(   2) = (   0.2575365   0.1486888   0.5885799  )
         3           K   tau(   3) = (   0.5000000   0.5686479   0.5885799  )
         4           K   tau(   4) = (  -0.2424635   0.7173366   0.1961933  )
         5           K   tau(   5) = (   0.2424635   0.7173366   0.1961933  )
         6           K   tau(   6) = (   0.0000000   0.2973775   0.1961933  )
         7           Na  tau(   7) = (   0.5000005   0.2886748   0.1961933  )
         8           Na  tau(   8) = (  -0.0000005   0.5773506   0.5885799  )

   Crystallographic axes

     site n.     atom                  positions (cryst. coord.)
         1           K   tau(   1) = (  0.8283090  0.1716910  0.7500000  )
         2           K   tau(   2) = (  0.3433820  0.1716910  0.7500000  )
         3           K   tau(   3) = (  0.8283090  0.6566180  0.7500000  )
         4           K   tau(   4) = (  0.1716910  0.8283090  0.2500000  )
         5           K   tau(   5) = (  0.6566180  0.8283090  0.2500000  )
         6           K   tau(   6) = (  0.1716910  0.3433820  0.2500000  )
         7           Na  tau(   7) = (  0.6666670  0.3333330  0.2500000  )
         8           Na  tau(   8) = (  0.3333330  0.6666670  0.7500000  )

     number of k points=     1  Methfessel-Paxton smearing, width (Ry)=  0.0010
                       cart. coord. in units 2pi/alat
        k(    1) = (   0.0000000   0.0000000   0.0000000), wk =   2.0000000

                       cryst. coord.
        k(    1) = (   0.0000000   0.0000000   0.0000000), wk =   2.0000000

     Check: negative core charge=   -0.000003

     Initial potential from superposition of free atoms

     starting charge      71.8744, renormalised to      72.0000
     Starting wfcs are   58 randomized atomic wfcs
     Checking if some PAW data can be deallocated...

     Self-consistent Calculation

     iteration #  1     ecut=    30.00 Ry     beta= 0.70
     Davidson diagonalization with overlap

     ethr =  1.00E-02,  avg # of iterations =  5.0

     Threshold (ethr) on eigenvalues was too large:
     Diagonalizing with lowered threshold

     Davidson diagonalization with overlap

[...]

     total energy              =    -868.42577225 Ry
     estimated scf accuracy    <       0.15617042 Ry

[...]

     total energy              =    -868.50722560 Ry
     estimated scf accuracy    <       0.00000745 Ry

     iteration # 74     ecut=    30.00 Ry     beta= 0.70
     Davidson diagonalization with overlap

     ethr =  2.52E-09,  avg # of iterations =  1.0

     End of self-consistent calculation

          k = 0.0000 0.0000 0.0000 (  4671 PWs)   bands (ev):

   -50.8411 -50.8406 -30.3857 -30.3813 -30.3805 -30.3801 -30.3785 -30.3779
   -22.7567 -22.7541 -22.7496 -22.7492 -22.7481 -22.7477 -13.9358 -13.9101
   -13.9095 -13.8836 -13.8803 -13.8795 -13.8755 -13.8750 -13.8707 -13.8701
   -13.8656 -13.8643 -13.8575 -13.8294 -13.8072 -13.8071 -13.8045 -13.8043
    -0.4892   1.6079   2.0758   2.0840   2.0843   2.1212   2.1223   2.5064
     2.6097   3.5391   4.1157

     occupation numbers
     1.0000   1.0000   1.0000   1.0000   1.0000   1.0000   1.0000   1.0000
     1.0000   1.0000   1.0000   1.0000   1.0000   1.0000   1.0000   1.0000
     1.0000   1.0000   1.0000   1.0000   1.0000   1.0000   1.0000   1.0000
     1.0000   1.0000   1.0000   1.0000   1.0000   1.0000   1.0000   1.0000
     1.0000   1.0000   0.9402   0.5382   0.5224  -0.0005  -0.0003  -0.0000
    -0.0000  -0.0000  -0.0000

     the Fermi energy is     2.0846 ev

!    total energy              =    -868.50722560 Ry
     estimated scf accuracy    <       0.00000058 Ry
     smearing contrib. (-TS)   =      -0.00058722 Ry
     internal energy E=F+TS    =    -868.50663838 Ry

     The total energy is F=E-TS. E is the sum of the following terms:
     one-electron contribution =    -398.95578865 Ry
     hartree contribution      =     207.39210666 Ry
     xc contribution           =     -95.64998651 Ry
     ewald contribution        =    -248.78912165 Ry
     one-center paw contrib.   =    -332.50384822 Ry
      -> PAW hartree energy AE =      37.59401180 Ry
      -> PAW hartree energy PS =     -37.38384721 Ry
      -> PAW xc energy AE      =     -66.20427163 Ry
      -> PAW xc energy PS      =      10.57679900 Ry
      -> total E_H with PAW    =     207.60227125 Ry
      -> total E_XC with PAW   =    -151.27745914 Ry

     convergence has been achieved in  74 iterations

     Forces acting on atoms (cartesian axes, Ry/au):

     atom    1 type  1   force =     0.00000219   -0.00000126    0.00000000
     atom    2 type  1   force =    -0.00000219   -0.00000126    0.00000000
     atom    3 type  1   force =     0.00000000    0.00000253    0.00000000
     atom    4 type  1   force =    -0.00000219    0.00000126    0.00000000
     atom    5 type  1   force =     0.00000219    0.00000126    0.00000000
     atom    6 type  1   force =     0.00000000   -0.00000253    0.00000000
     atom    7 type  2   force =     0.00000000    0.00000000    0.00000000
     atom    8 type  2   force =     0.00000000    0.00000000    0.00000000
     The non-local contrib.  to forces
     atom    1 type  1   force =    -0.00048837    0.00028196    0.00000000
     atom    2 type  1   force =     0.00048837    0.00028196    0.00000000
     atom    3 type  1   force =     0.00000000   -0.00056392    0.00000000
     atom    4 type  1   force =     0.00048837   -0.00028196    0.00000000
     atom    5 type  1   force =    -0.00048837   -0.00028196   -0.00000000
     atom    6 type  1   force =     0.00000000    0.00056392    0.00000000
     atom    7 type  2   force =    -0.00000000   -0.00000000    0.00000000
     atom    8 type  2   force =     0.00000000    0.00000000    0.00000000
     The ionic contribution  to forces
     atom    1 type  1   force =     0.51216488   -0.29569854    0.00000000
     atom    2 type  1   force =    -0.51216487   -0.29568443    0.00000000
     atom    3 type  1   force =    -0.00001220    0.59139000    0.00000000
     atom    4 type  1   force =    -0.51216488    0.29569854   -0.00000000
     atom    5 type  1   force =     0.51216487    0.29568443   -0.00000000
     atom    6 type  1   force =     0.00001220   -0.59139000   -0.00000000
     atom    7 type  2   force =    -0.00001343    0.00000775   -0.00000000
     atom    8 type  2   force =     0.00001343   -0.00000775    0.00000000
     The local contribution  to forces
     atom    1 type  1   force =    -0.50956817    0.30127064   -0.00005619
     atom    2 type  1   force =     0.51251234    0.29100644   -0.00005151
     atom    3 type  1   force =    -0.00779145   -0.59010545   -0.00005285
     atom    4 type  1   force =     0.51611959   -0.29111486    0.00005034
     atom    5 type  1   force =    -0.50659909   -0.30146118    0.00005515
     atom    6 type  1   force =    -0.00437141    0.59044141    0.00005132
     atom    7 type  2   force =     0.00318114   -0.00092245    0.00002364
     atom    8 type  2   force =    -0.00294363    0.00064932   -0.00002277
     The core correction contribution to forces
     atom    1 type  1   force =     0.00013617    0.00020774   -0.00000020
     atom    2 type  1   force =     0.00001658   -0.00023228   -0.00000013
     atom    3 type  1   force =    -0.00031224    0.00009049   -0.00000021
     atom    4 type  1   force =     0.00011479    0.00023771    0.00000012
     atom    5 type  1   force =     0.00023748   -0.00021325    0.00000018
     atom    6 type  1   force =    -0.00020173   -0.00008033    0.00000014
     atom    7 type  2   force =     0.00000000    0.00000000    0.00000000
     atom    8 type  2   force =     0.00000000    0.00000000    0.00000000
     The Hubbard contrib.    to forces
     atom    1 type  1   force =     0.00000000    0.00000000    0.00000000
     atom    2 type  1   force =     0.00000000    0.00000000    0.00000000
     atom    3 type  1   force =     0.00000000    0.00000000    0.00000000
     atom    4 type  1   force =     0.00000000    0.00000000    0.00000000
     atom    5 type  1   force =     0.00000000    0.00000000    0.00000000
     atom    6 type  1   force =     0.00000000    0.00000000    0.00000000
     atom    7 type  2   force =     0.00000000    0.00000000    0.00000000
     atom    8 type  2   force =     0.00000000    0.00000000    0.00000000
     The SCF correction term to forces
     atom    1 type  1   force =    -0.00031631    0.00038414    0.00005104
     atom    2 type  1   force =     0.00096092   -0.00047994    0.00004775
     atom    3 type  1   force =    -0.00021838   -0.00015560    0.00004926
     atom    4 type  1   force =     0.00010526    0.00073184   -0.00004711
     atom    5 type  1   force =    -0.00047478   -0.00030804   -0.00005023
     atom    6 type  1   force =    -0.00061298    0.00003487   -0.00004756
     atom    7 type  2   force =    -0.00038099   -0.00048699   -0.00004379
     atom    8 type  2   force =     0.00066657    0.00038045    0.00003877

     Total force =     0.000006     Total SCF correction =     0.001925
     SCF correction compared to forces is large: reduce conv_thr to get better values

     Computing stress (Cartesian axis) and pressure

          total   stress  (Ry/bohr**3)                   (kbar)     P=       -8.38
   0.00001746  -0.00000000   0.00000000            2.57       -0.00        0.00
  -0.00000000   0.00001746   0.00000000           -0.00        2.57        0.00
  -0.00000000  -0.00000000  -0.00020582           -0.00       -0.00      -30.28

     kinetic stress (kbar)   4925.36     -0.00      0.00
                               -0.00   4925.36      0.00
                                0.00      0.00   4867.43

     local   stress (kbar)   -727.38      0.68     -0.00
                                0.68   -726.75      0.00
                               -0.00      0.00   -996.38

     nonloc. stress (kbar)  -2258.93      0.00      0.00
                                0.00  -2258.93      0.00
                                0.00      0.00  -2262.68

     hartree stress (kbar)   2960.17     -0.42      0.00
                               -0.42   2959.74     -0.00
                                0.00     -0.00   3073.25

     exc-cor stress (kbar)   -537.14     -0.00      0.00
                               -0.00   -537.14     -0.00
                                0.00     -0.00   -537.24

     corecor stress (kbar)   -702.07      0.01      0.00
                                0.01   -702.06     -0.00
                                0.00     -0.00   -701.48

     ewald   stress (kbar)  -3657.54     -0.00      0.00
                               -0.00  -3657.54     -0.00
                                0.00     -0.00  -3473.18

     hubbard stress (kbar)      0.00      0.00      0.00
                                0.00      0.00      0.00
                                0.00      0.00      0.00

     DFT-D   stress (kbar)      0.00      0.00      0.00
                                0.00      0.00      0.00
                                0.00      0.00      0.00

     XDM     stress (kbar)      0.00      0.00      0.00
                                0.00      0.00      0.00
                                0.00      0.00      0.00

     dft-nl  stress (kbar)      0.00      0.00      0.00
                                0.00      0.00      0.00
                                0.00      0.00      0.00

     TS-vdW  stress (kbar)      0.00      0.00      0.00
                                0.00      0.00      0.00
                                0.00      0.00      0.00

[...]

                                0.00      0.00      0.00

     Writing all to output data dir calculations/myprefix.save/

     General routines

     Parallel routines

     PAW routines

   This run was terminated on:  18:22:49   4Mar2023

   JOB DONE.