     Program PWSCF v.7.0 starts on  6Mar2023 at 10:52:15

     R & G space division:  proc/nbgrp/npool/nimage =      32

     Reading input from espresso_4354.pwi
Warning: card &CELL ignored
Warning: card / ignored

     Current dimensions of program PWSCF are:
     Max number of different atomic species (ntypx) = 10
     Max number of k-points (npk) =  40000
     Max angular momentum in pseudopotentials (lmaxx) =  4

     gamma-point specific algorithms are used
     Message from routine setup:
     using ibrav=0 with symmetry is DISCOURAGED, use correct ibrav instead

     Using Slab Decomposition

     bravais-lattice index     =            0
     lattice parameter (alat)  =       8.1541  a.u.
     unit-cell volume          =    1467.4606 (a.u.)^3
     number of atoms/cell      =           12
     number of atomic types    =            3
     number of electrons       =       124.00
     number of Kohn-Sham states=           74
     kinetic-energy cutoff     =      30.0000  Ry
     charge density cutoff     =     240.0000  Ry
     scf convergence threshold =      1.0E-06
     mixing beta               =       0.7000
     number of iterations used =            8  plain     mixing
     Exchange-correlation= PBE
                           (   1   4   3   4   0   0   0)

     celldm(1)=   8.154115  celldm(2)=   0.000000  celldm(3)=   0.000000
     celldm(4)=   0.000000  celldm(5)=   0.000000  celldm(6)=   0.000000

     crystal axes: (cart. coord. in units of alat)
               a(1) = (   1.000000   0.000000   0.000000 )
               a(2) = (   0.000000   1.624640   0.000000 )
               a(3) = (   0.000000   0.000000   1.666015 )

     reciprocal axes: (cart. coord. in units 2 pi/alat)
               b(1) = (  1.000000  0.000000  0.000000 )
               b(2) = (  0.000000  0.615521  0.000000 )
               b(3) = (  0.000000  0.000000  0.600235 )

     PseudoPot. # 1 for Y  read from file:
     /home/pragov/projects/rrg-bengioy-ad/pragov/crystal_structure_design/SSSP/Y_pbe_v1.uspp.F.UPF
     MD5 check sum: 2cf71db95cafeb975fc457bd7f14888e
     Pseudo is Ultrasoft + core correction, Zval = 11.0
     Generated by new atomic code, or converted to UPF format
     Using radial grid of  885 points,  6 beta functions with:
                l(1) =   0
                l(2) =   0
                l(3) =   1
                l(4) =   1
                l(5) =   2
                l(6) =   2
     Q(r) pseudized with  6 coefficients,  rinner =    1.200   1.200   1.200
                                                       1.200   1.200

     PseudoPot. # 2 for Si read from file:
     /home/pragov/projects/rrg-bengioy-ad/pragov/crystal_structure_design/SSSP/Si.pbe-n-rrkjus_psl.1.0.0.UPF
     MD5 check sum: 0b0bb1205258b0d07b9f9672cf965d36
     Pseudo is Ultrasoft + core correction, Zval =  4.0
     Generated using "atomic" code by A. Dal Corso  v.5.1
     Using radial grid of 1141 points,  6 beta functions with:
                l(1) =   0
                l(2) =   0
                l(3) =   1
                l(4) =   1
                l(5) =   2
                l(6) =   2
     Q(r) pseudized with 0 coefficients

     PseudoPot. # 3 for Ru read from file:
     /home/pragov/projects/rrg-bengioy-ad/pragov/crystal_structure_design/SSSP/Ru_ONCV_PBE-1.0.oncvpsp.upf
     MD5 check sum: be037bb81c227cfb9b1461a9f099f4bd
     Pseudo is Norm-conserving, Zval = 16.0
     Generated using ONCVPSP code by D. R. Hamann
     Using radial grid of 1458 points,  6 beta functions with:
                l(1) =   0
                l(2) =   0
                l(3) =   1
                l(4) =   1
                l(5) =   2
                l(6) =   2

     atomic species   valence    mass     pseudopotential
        Y             11.00    88.90584     Y ( 1.00)
        Si             4.00    28.08500     Si( 1.00)
        Ru            16.00   101.07000     Ru( 1.00)

      8 Sym. Ops., with inversion, found ( 6 have fractional translation)

                                    s                        frac. trans.

      isym =  1     identity

 cryst.   s( 1) = (     1          0          0      )
                  (     0          1          0      )
                  (     0          0          1      )

 cart.    s( 1) = (  1.0000000  0.0000000  0.0000000 )
                  (  0.0000000  1.0000000  0.0000000 )
                  (  0.0000000  0.0000000  1.0000000 )

      isym =  2     180 deg rotation - cart. axis [0,0,1]

 cryst.   s( 2) = (    -1          0          0      )    f =(  0.0000000 )
                  (     0         -1          0      )       ( -0.5000000 )
                  (     0          0          1      )       ( -0.5000000 )

 cart.    s( 2) = ( -1.0000000  0.0000000  0.0000000 )    f =(  0.0000000 )
                  (  0.0000000 -1.0000000  0.0000000 )       ( -0.8123200 )
                  (  0.0000000  0.0000000  1.0000000 )       ( -0.8330073 )

[...]

      isym =  4     180 deg rotation - cart. axis [1,0,0]

[...]

      isym =  5     inversion

 cryst.   s( 5) = (    -1          0          0      )
                  (     0         -1          0      )
                  (     0          0         -1      )

 cart.    s( 5) = ( -1.0000000  0.0000000  0.0000000 )
                  (  0.0000000 -1.0000000  0.0000000 )
                  (  0.0000000  0.0000000 -1.0000000 )

      isym =  6     inv. 180 deg rotation - cart. axis [0,0,1]

[...]

      isym =  8     inv. 180 deg rotation - cart. axis [1,0,0]

 cryst.   s( 8) = (    -1          0          0      )    f =(  0.5000000 )
                  (     0          1          0      )       (  0.0000000 )
                  (     0          0          1      )       (  0.0000000 )

 cart.    s( 8) = ( -1.0000000  0.0000000  0.0000000 )    f =(  0.5000000 )
                  (  0.0000000  1.0000000  0.0000000 )       (  0.0000000 )
                  (  0.0000000  0.0000000  1.0000000 )       (  0.0000000 )

   Cartesian axes

     site n.     atom                  positions (alat units)
         1           Y   tau(   1) = (   0.7500000   0.0165795   0.3110916  )
         2           Y   tau(   2) = (   0.2500000   0.7957405   1.1440988  )
         3           Y   tau(   3) = (   0.7500000   0.8288994   0.5219157  )
         4           Y   tau(   4) = (   0.2500000   1.6080605   1.3549230  )
         5           Si  tau(   5) = (   0.2500000   0.4934909   0.1761794  )
         6           Si  tau(   6) = (   0.2500000   1.3058109   0.6568279  )
         7           Si  tau(   7) = (   0.7500000   1.1311491   1.4898351  )
         8           Si  tau(   8) = (   0.7500000   0.3188291   1.0091866  )
         9           Ru  tau(   9) = (   0.2500000   1.0615576   0.1108749  )
        10           Ru  tau(  10) = (   0.2500000   0.2492376   0.7221323  )
        11           Ru  tau(  11) = (   0.7500000   1.3754023   0.9438822  )
        12           Ru  tau(  12) = (   0.7500000   0.5630823   1.5551396  )

   Crystallographic axes

     site n.     atom                  positions (cryst. coord.)
         1           Y   tau(   1) = (  0.7500000  0.0102050  0.1867280  )
         2           Y   tau(   2) = (  0.2500000  0.4897950  0.6867280  )
         3           Y   tau(   3) = (  0.7500000  0.5102050  0.3132720  )
         4           Y   tau(   4) = (  0.2500000  0.9897950  0.8132720  )
         5           Si  tau(   5) = (  0.2500000  0.3037540  0.1057490  )
         6           Si  tau(   6) = (  0.2500000  0.8037540  0.3942510  )
         7           Si  tau(   7) = (  0.7500000  0.6962460  0.8942510  )
         8           Si  tau(   8) = (  0.7500000  0.1962460  0.6057490  )
         9           Ru  tau(   9) = (  0.2500000  0.6534110  0.0665510  )
        10           Ru  tau(  10) = (  0.2500000  0.1534110  0.4334490  )
        11           Ru  tau(  11) = (  0.7500000  0.8465890  0.5665510  )
        12           Ru  tau(  12) = (  0.7500000  0.3465890  0.9334490  )

     number of k points=     1  Methfessel-Paxton smearing, width (Ry)=  0.0010
                       cart. coord. in units 2pi/alat
        k(    1) = (   0.0000000   0.0000000   0.0000000), wk =   2.0000000

                       cryst. coord.
        k(    1) = (   0.0000000   0.0000000   0.0000000), wk =   2.0000000

     Check: negative core charge=   -0.000004

     Initial potential from superposition of free atoms

     starting charge     123.9777, renormalised to     124.0000

     negative rho (up, down):  1.750E-01 0.000E+00
     Starting wfcs are  108 randomized atomic wfcs

     Self-consistent Calculation

     iteration #  1     ecut=    30.00 Ry     beta= 0.70
     Davidson diagonalization with overlap

     ethr =  1.00E-02,  avg # of iterations =  2.0

     negative rho (up, down):  1.775E-01 0.000E+00

     total energy              =   -1149.13374817 Ry
     estimated scf accuracy    <       2.22895894 Ry

[...]

     total energy              =   -1150.63803606 Ry
     estimated scf accuracy    <       0.00000330 Ry

     iteration # 14     ecut=    30.00 Ry     beta= 0.70
     Davidson diagonalization with overlap

     ethr =  2.66E-09,  avg # of iterations =  2.0

[...]

     End of self-consistent calculation

          k = 0.0000 0.0000 0.0000 (  2026 PWs)   bands (ev):

   -57.9776 -57.9771 -57.9712 -57.9708 -28.0980 -28.0968 -28.0788 -28.0599
   -28.0565 -28.0555 -28.0508 -28.0397 -27.7816 -27.7685 -27.7363 -27.7332
   -27.5768 -27.5249 -27.5030 -27.4927  -7.9140  -7.8364  -7.8045  -7.7703
    -7.6353  -7.6082  -7.6023  -7.5510  -7.5248  -7.5183  -7.4976  -7.4573
     4.8097   6.3308   6.3548   6.5308   9.8643  10.1112  10.3826  10.3966
    10.3986  10.4877  10.6581  10.7279  10.8229  11.2427  11.3603  11.7496
    11.8047  11.9548  12.1410  12.3740  12.7462  12.8011  12.8415  12.9726
    13.3168  13.5311  13.5887  13.8342  14.1009  14.3106  14.4964  14.8991
    15.2938  15.7744  15.7838  15.9987  16.8448  17.1022  17.1685  17.4051
    17.5676  17.5926

     occupation numbers
     1.0000   1.0000   1.0000   1.0000   1.0000   1.0000   1.0000   1.0000
     1.0000   1.0000   1.0000   1.0000   1.0000   1.0000   1.0000   1.0000
     1.0000   1.0000   1.0000   1.0000   1.0000   1.0000   1.0000   1.0000
     1.0000   1.0000   1.0000   1.0000   1.0000   1.0000   1.0000   1.0000
     1.0000   1.0000   1.0000   1.0000   1.0000   1.0000   1.0000   1.0000
     1.0000   1.0000   1.0000   1.0000   1.0000   1.0000   1.0000   1.0000
     1.0000   1.0000   1.0000   1.0000   1.0000   1.0000   1.0000   1.0000
     1.0000   1.0000   1.0000   1.0000   1.0000   1.0000  -0.0000  -0.0000
    -0.0000  -0.0000  -0.0000  -0.0000  -0.0000  -0.0000  -0.0000  -0.0000
    -0.0000  -0.0000

     the Fermi energy is    14.3957 ev

!    total energy              =   -1150.63803622 Ry
     estimated scf accuracy    <       0.00000036 Ry
     smearing contrib. (-TS)   =       0.00000000 Ry
     internal energy E=F+TS    =   -1150.63803622 Ry

     The total energy is F=E-TS. E is the sum of the following terms:
     one-electron contribution =    -374.18187379 Ry
     hartree contribution      =     242.45993315 Ry
     xc contribution           =    -192.56995013 Ry
     ewald contribution        =    -826.34614545 Ry

     convergence has been achieved in  14 iterations

     negative rho (up, down):  1.761E-01 0.000E+00

     Forces acting on atoms (cartesian axes, Ry/au):

     atom    1 type  1   force =    -0.00000000    0.02945341   -0.00357577
     atom    2 type  1   force =     0.00000000   -0.02945341   -0.00357577
     atom    3 type  1   force =    -0.00000000    0.02945341    0.00357577
     atom    4 type  1   force =     0.00000000   -0.02945341    0.00357577
     atom    5 type  2   force =     0.00000000   -0.00243719    0.02557693
     atom    6 type  2   force =     0.00000000   -0.00243719   -0.02557693
     atom    7 type  2   force =     0.00000000    0.00243719   -0.02557693
     atom    8 type  2   force =     0.00000000    0.00243719    0.02557693
     atom    9 type  3   force =     0.00000000    0.04027645    0.02055562
     atom   10 type  3   force =     0.00000000    0.04027645   -0.02055562
     atom   11 type  3   force =     0.00000000   -0.04027645    0.02055562
     atom   12 type  3   force =     0.00000000   -0.04027645   -0.02055562
     The non-local contrib.  to forces
     atom    1 type  1   force =    -0.00000000   -0.03086282    0.09713894
     atom    2 type  1   force =     0.00000000    0.03086282    0.09713894
     atom    3 type  1   force =    -0.00000000   -0.03086282   -0.09713894
     atom    4 type  1   force =     0.00000000    0.03086282   -0.09713894
     atom    5 type  2   force =     0.00000000    0.00402604   -0.00798770
     atom    6 type  2   force =     0.00000000    0.00402604    0.00798770
     atom    7 type  2   force =     0.00000000   -0.00402604    0.00798770
     atom    8 type  2   force =     0.00000000   -0.00402604   -0.00798770
     atom    9 type  3   force =     0.00000000   -0.01502388   -0.02169929
     atom   10 type  3   force =     0.00000000   -0.01502388    0.02169929
     atom   11 type  3   force =     0.00000000    0.01502388   -0.02169929
     atom   12 type  3   force =     0.00000000    0.01502388    0.02169929
     The ionic contribution  to forces
     atom    1 type  1   force =     0.00000000   -1.34527662   -5.60747730
     atom    2 type  1   force =    -0.00000000    1.34527662   -5.60747730
     atom    3 type  1   force =    -0.00000000   -1.34527662    5.60747730
     atom    4 type  1   force =    -0.00000000    1.34527662    5.60747730
     atom    5 type  2   force =     0.00000000   -2.59190370    0.83574031
     atom    6 type  2   force =    -0.00000000   -2.59190370   -0.83574031
     atom    7 type  2   force =     0.00000000    2.59190370   -0.83574031
     atom    8 type  2   force =    -0.00000000    2.59190370    0.83574031
     atom    9 type  3   force =    -0.00000000    6.67786478    3.07445998
     atom   10 type  3   force =    -0.00000000    6.67786478   -3.07445998
     atom   11 type  3   force =     0.00000000   -6.67786478    3.07445998
     atom   12 type  3   force =    -0.00000000   -6.67786478   -3.07445998
     The local contribution  to forces
     atom    1 type  1   force =    -0.00000132    1.40303691    5.51501215
     atom    2 type  1   force =     0.00001867   -1.40315236    5.51520932
     atom    3 type  1   force =     0.00000012    1.40295659   -5.51473774
     atom    4 type  1   force =     0.00000427   -1.40316235   -5.51546061
     atom    5 type  2   force =     0.00000187    2.58524256   -0.80348609
     atom    6 type  2   force =     0.00000181    2.58463010    0.80353553
     atom    7 type  2   force =    -0.00000217   -2.58518213    0.80323952
     atom    8 type  2   force =     0.00000170   -2.58458562   -0.80328150
     atom    9 type  3   force =     0.00000022   -6.62364918   -3.03325954
     atom   10 type  3   force =     0.00000541   -6.62104096    3.03354964
     atom   11 type  3   force =    -0.00000191    6.62152589   -3.03144402
     atom   12 type  3   force =    -0.00001001    6.62387866    3.03118405
     The core correction contribution to forces
     atom    1 type  1   force =     0.00000000    0.00248806   -0.00838415
     atom    2 type  1   force =     0.00000061   -0.00249093   -0.00838616
     atom    3 type  1   force =     0.00000018    0.00248845    0.00838868
     atom    4 type  1   force =     0.00000017   -0.00248648    0.00838218
     atom    5 type  2   force =     0.00000010    0.00050926    0.00120908
     atom    6 type  2   force =     0.00000004    0.00050924   -0.00120650
     atom    7 type  2   force =    -0.00000052   -0.00050875   -0.00120970
     atom    8 type  2   force =    -0.00000002   -0.00050822    0.00120828
     atom    9 type  3   force =     0.00000000    0.00000000    0.00000000
     atom   10 type  3   force =     0.00000000    0.00000000    0.00000000
     atom   11 type  3   force =     0.00000000    0.00000000    0.00000000
     atom   12 type  3   force =     0.00000000    0.00000000    0.00000000
     The Hubbard contrib.    to forces
     atom    1 type  1   force =     0.00000000    0.00000000    0.00000000
     atom    2 type  1   force =     0.00000000    0.00000000    0.00000000
     atom    3 type  1   force =     0.00000000    0.00000000    0.00000000
     atom    4 type  1   force =     0.00000000    0.00000000    0.00000000
     atom    5 type  2   force =     0.00000000    0.00000000    0.00000000
     atom    6 type  2   force =     0.00000000    0.00000000    0.00000000
     atom    7 type  2   force =     0.00000000    0.00000000    0.00000000
     atom    8 type  2   force =     0.00000000    0.00000000    0.00000000
     atom    9 type  3   force =     0.00000000    0.00000000    0.00000000
     atom   10 type  3   force =     0.00000000    0.00000000    0.00000000
     atom   11 type  3   force =     0.00000000    0.00000000    0.00000000
     atom   12 type  3   force =     0.00000000    0.00000000    0.00000000
     The SCF correction term to forces
     atom    1 type  1   force =     0.00000009    0.00005485    0.00012640
     atom    2 type  1   force =    -0.00000894    0.00005773   -0.00004632
     atom    3 type  1   force =     0.00000128    0.00014751   -0.00040374
     atom    4 type  1   force =     0.00000105    0.00003535    0.00031212
     atom    5 type  2   force =    -0.00000033   -0.00028599    0.00010179
     atom    6 type  2   force =    -0.00000128    0.00029020   -0.00012325
     atom    7 type  2   force =     0.00000079    0.00023746    0.00012012
     atom    8 type  2   force =    -0.00000072   -0.00031924   -0.00009856
     atom    9 type  3   force =    -0.00000273    0.00104283    0.00105180
     atom   10 type  3   force =    -0.00000702   -0.00149560   -0.00142703
     atom   11 type  3   force =    -0.00000228    0.00097521   -0.00075963
     atom   12 type  3   force =     0.00000940   -0.00126489    0.00110221

     Total force =     0.119752     Total SCF correction =     0.003390

     Computing stress (Cartesian axis) and pressure

     negative rho (up, down):  1.761E-01 0.000E+00
          total   stress  (Ry/bohr**3)                   (kbar)     P=      -76.28
  -0.00052279   0.00000000   0.00000000          -76.90        0.00        0.00
   0.00000000  -0.00049954   0.00000000            0.00      -73.48        0.00
   0.00000000   0.00000000  -0.00053320            0.00        0.00      -78.44

     kinetic stress (kbar)  22817.72      0.00      0.00
                                0.00  23031.36      0.00
                                0.00      0.00  23045.04

     local   stress (kbar) -10078.21      0.00      0.00
                                0.00  -6333.49     -0.12
                                0.00     -0.12  -7528.08

     nonloc. stress (kbar)   9299.31      0.00      0.00
                                0.00   9207.46      0.00
                                0.00      0.00   9199.54

     hartree stress (kbar)   9029.86     -0.00     -0.00
                               -0.00   7491.79      0.06
                               -0.00      0.06   7783.66

     exc-cor stress (kbar)   1591.22     -0.00     -0.00
                               -0.00   1589.28      0.00
                               -0.00      0.00   1592.02

     corecor stress (kbar)  -6378.23      0.00     -0.00
                                0.00  -6376.74      0.00
                               -0.00      0.00  -6375.55

     ewald   stress (kbar) -26358.58      0.00     -0.00
                                0.00 -28683.14     -0.00
                               -0.00     -0.00 -27795.06

     hubbard stress (kbar)      0.00      0.00      0.00
                                0.00      0.00      0.00
                                0.00      0.00      0.00

     DFT-D   stress (kbar)      0.00      0.00      0.00
                                0.00      0.00      0.00
                                0.00      0.00      0.00

     XDM     stress (kbar)      0.00      0.00      0.00
                                0.00      0.00      0.00
                                0.00      0.00      0.00

     dft-nl  stress (kbar)      0.00      0.00      0.00
                                0.00      0.00      0.00
                                0.00      0.00      0.00

     TS-vdW  stress (kbar)      0.00      0.00      0.00
                                0.00      0.00      0.00
                                0.00      0.00      0.00

[...]

                                0.00      0.00      0.00

     Writing all to output data dir calculations/myprefix.save/

     General routines

     Parallel routines

   This run was terminated on:  10:52:18   6Mar2023

   JOB DONE.