     Program PWSCF v.7.0 starts on  3Mar2023 at 11:28:27

     R & G space division:  proc/nbgrp/npool/nimage =      32

     Reading input from espresso_93.pwi
Warning: card &CELL ignored
Warning: card / ignored

     Current dimensions of program PWSCF are:
     Max number of different atomic species (ntypx) = 10
     Max number of k-points (npk) =  40000
     Max angular momentum in pseudopotentials (lmaxx) =  4
     file O.pbe-n-kjpaw_psl.0.1.UPF: wavefunction(s)  2P renormalized

     gamma-point specific algorithms are used
     Message from routine setup:
     using ibrav=0 with symmetry is DISCOURAGED, use correct ibrav instead

     Using Slab Decomposition

     bravais-lattice index     =            0
     lattice parameter (alat)  =       8.0631  a.u.
     unit-cell volume          =    1495.3011 (a.u.)^3
     number of atoms/cell      =           16
     number of atomic types    =            4
     number of electrons       =        96.00
     number of Kohn-Sham states=           58
     kinetic-energy cutoff     =      30.0000  Ry
     charge density cutoff     =     240.0000  Ry
     scf convergence threshold =      1.0E-06
     mixing beta               =       0.7000
     number of iterations used =            8  plain     mixing
     Exchange-correlation= SLA  PW   PBX  PBC
                           (   1   4   3   4   0   0   0)

     celldm(1)=   8.063116  celldm(2)=   0.000000  celldm(3)=   0.000000
     celldm(4)=   0.000000  celldm(5)=   0.000000  celldm(6)=   0.000000

     crystal axes: (cart. coord. in units of alat)
               a(1) = (   1.000000   0.000000   0.000000 )
               a(2) = (  -0.479002   1.487927   0.000000 )
               a(3) = (   0.024008  -0.278040   1.917072 )

     reciprocal axes: (cart. coord. in units 2 pi/alat)
               b(1) = (  1.000000  0.321926  0.034167 )
               b(2) = (  0.000000  0.672076  0.097474 )
               b(3) = (  0.000000  0.000000  0.521629 )

     PseudoPot. # 1 for La read from file:
     /home/pragov/projects/rrg-bengioy-ad/pragov/crystal_structure_design/SSSP/La.GGA-PBE-paw-v1.0.UPF
     MD5 check sum: 436541e95c1ad8901025bd0b0ed42ae2
     Pseudo is Projector augmented-wave + core cor, Zval = 11.0
     Generated using ATOMPAW code
     Shape of augmentation charge: BESSEL
     Using radial grid of 1101 points,  8 beta functions with:
                l(1) =   0
                l(2) =   0
                l(3) =   1
                l(4) =   1
                l(5) =   2
                l(6) =   2
                l(7) =   3
                l(8) =   3
     Q(r) pseudized with 0 coefficients

     PseudoPot. # 2 for B  read from file:
     /home/pragov/projects/rrg-bengioy-ad/pragov/crystal_structure_design/SSSP/b_pbe_v1.4.uspp.F.UPF
     MD5 check sum: cc6de2960df11db49a60e589f9ebb39b
     Pseudo is Ultrasoft + core correction, Zval =  3.0
     Generated by new atomic code, or converted to UPF format
     Using radial grid of  781 points,  4 beta functions with:
                l(1) =   0
                l(2) =   0
                l(3) =   1
                l(4) =   1
     Q(r) pseudized with  8 coefficients,  rinner =    1.100   1.100   1.100

     PseudoPot. # 3 for Cl read from file:
     /home/pragov/projects/rrg-bengioy-ad/pragov/crystal_structure_design/SSSP/cl_pbe_v1.4.uspp.F.UPF
     MD5 check sum: fc6f6913ecf08c9257cb748ef0700058
     Pseudo is Ultrasoft + core correction, Zval =  7.0
     Generated by new atomic code, or converted to UPF format
     Using radial grid of  909 points,  6 beta functions with:
                l(1) =   0
                l(2) =   0
                l(3) =   1
                l(4) =   1
                l(5) =   2
                l(6) =   2
     Q(r) pseudized with  8 coefficients,  rinner =    1.300   1.300   1.300
                                                       1.300   1.300

     PseudoPot. # 4 for O  read from file:
     /home/pragov/projects/rrg-bengioy-ad/pragov/crystal_structure_design/SSSP/O.pbe-n-kjpaw_psl.0.1.UPF
     MD5 check sum: 0234752ac141de4415c5fc33072bef88
     Pseudo is Projector augmented-wave + core cor, Zval =  6.0
     Generated using "atomic" code by A. Dal Corso  v.5.0.99 svn rev. 10869
     Shape of augmentation charge: BESSEL
     Using radial grid of 1095 points,  4 beta functions with:
                l(1) =   0
                l(2) =   0
                l(3) =   1
                l(4) =   1
     Q(r) pseudized with 0 coefficients

     atomic species   valence    mass     pseudopotential
        La            11.00   138.90547     La( 1.00)
        B              3.00    10.81000     B ( 1.00)
        Cl             7.00    35.45000     Cl( 1.00)
        O              6.00    15.99900     O ( 1.00)

      2 Sym. Ops., with inversion, found

                                    s                        frac. trans.

      isym =  1     identity

 cryst.   s( 1) = (     1          0          0      )
                  (     0          1          0      )
                  (     0          0          1      )

 cart.    s( 1) = (  1.0000000  0.0000000 -0.0000000 )
                  (  0.0000000  1.0000000  0.0000000 )
                  (  0.0000000  0.0000000  1.0000000 )

      isym =  2     inversion

 cryst.   s( 2) = (    -1          0          0      )
                  (     0         -1          0      )
                  (     0          0         -1      )

 cart.    s( 2) = ( -1.0000000 -0.0000000  0.0000000 )
                  (  0.0000000 -1.0000000 -0.0000000 )
                  (  0.0000000  0.0000000 -1.0000000 )

   Cartesian axes

     site n.     atom                  positions (alat units)
         1           La  tau(   1) = (   0.7916592  -0.1674073   1.4912481  )
         2           La  tau(   2) = (  -0.2466536   1.3772942   0.4258238  )
         3           B   tau(   3) = (   0.6711124   0.4796552   0.2825304  )
         4           B   tau(   4) = (   0.3714590   0.4262011   1.5473665  )
         5           B   tau(   5) = (  -0.1261069   0.7302317   1.6345415  )
         6           B   tau(   6) = (   0.1735466   0.7836859   0.3697054  )
         7           Cl  tau(   7) = (   0.7673297   0.1709353   0.8756053  )
         8           Cl  tau(   8) = (  -0.2223241   1.0389516   1.0414666  )
         9           O   tau(   9) = (  -0.1512591   0.7469303   0.3393332  )
        10           O   tau(  10) = (   0.3490291   0.5084030   0.3481096  )
        11           O   tau(  11) = (   0.2711434   0.1313401   1.5178915  )
        12           O   tau(  12) = (   0.1959765   0.7014839   1.5689623  )
        13           O   tau(  13) = (   0.2738622   1.0785468   0.3991804  )
        14           O   tau(  14) = (   0.6962647   0.4629566   1.5777387  )
        15           O   tau(  15) = (  -0.2218949   1.0023338   1.7640915  )
        16           O   tau(  16) = (   0.7669004   0.2075531   0.1529804  )

   Crystallographic axes

     site n.     atom                  positions (cryst. coord.)
         1           La  tau(   1) = (  0.7887180  0.0328470  0.7778780  )
         2           La  tau(   2) = (  0.2112820  0.9671530  0.2221220  )
         3           B   tau(   3) = (  0.8351790  0.3499040  0.1473760  )
         4           B   tau(   4) = (  0.5615330  0.4372670  0.8071510  )
         5           B   tau(   5) = (  0.1648210  0.6500960  0.8526240  )
         6           B   tau(   6) = (  0.4384670  0.5627330  0.1928490  )
         7           Cl  tau(   7) = (  0.8522750  0.2002300  0.4567410  )
         8           Cl  tau(   8) = (  0.1477250  0.7997700  0.5432590  )
         9           O   tau(   9) = (  0.1007910  0.5350700  0.1770060  )
        10           O   tau(  10) = (  0.5245910  0.3756170  0.1815840  )
        11           O   tau(  11) = (  0.3652870  0.2362250  0.7917760  )
        12           O   tau(  12) = (  0.4754090  0.6243830  0.8184160  )
        13           O   tau(  13) = (  0.6347130  0.7637750  0.2082240  )
        14           O   tau(  14) = (  0.8992090  0.4649300  0.8229940  )
        15           O   tau(  15) = (  0.1610560  0.8455970  0.9202010  )
        16           O   tau(  16) = (  0.8389440  0.1544030  0.0797990  )

     number of k points=     1  Methfessel-Paxton smearing, width (Ry)=  0.0010
                       cart. coord. in units 2pi/alat
        k(    1) = (   0.0000000   0.0000000   0.0000000), wk =   2.0000000

                       cryst. coord.
        k(    1) = (   0.0000000   0.0000000   0.0000000), wk =   2.0000000

     Check: negative core charge=   -0.000010

     Initial potential from superposition of free atoms

     starting charge      95.9818, renormalised to      96.0000

     negative rho (up, down):  2.928E-02 0.000E+00
     Starting wfcs are  120 randomized atomic wfcs
     Checking if some PAW data can be deallocated...

     Self-consistent Calculation

     iteration #  1     ecut=    30.00 Ry     beta= 0.70
     Davidson diagonalization with overlap

     ethr =  1.00E-02,  avg # of iterations =  2.0

     negative rho (up, down):  3.025E-02 0.000E+00

     total energy              =   -1342.27995024 Ry
     estimated scf accuracy    <       2.47462228 Ry

[...]

     c_bands:  3 eigenvalues not converged
     ethr =  4.67E-06,  avg # of iterations = 20.0

[...]

     c_bands:  2 eigenvalues not converged
     ethr =  1.84E-07,  avg # of iterations = 20.0

[...]

     total energy              =   -1343.42407726 Ry
     estimated scf accuracy    <       0.00000132 Ry

     iteration # 10     ecut=    30.00 Ry     beta= 0.70
     Davidson diagonalization with overlap

     ethr =  1.38E-09,  avg # of iterations =  2.0

[...]

     End of self-consistent calculation

          k = 0.0000 0.0000 0.0000 (  2064 PWs)   bands (ev):

   -25.1508 -25.1277 -15.4789 -15.3141 -13.7586 -13.7232 -12.8001 -12.7611
   -12.5850 -12.4148  -9.0646  -8.7698  -8.7519  -8.7003  -8.5923  -8.5550
    -7.0187  -6.9868  -3.8500  -3.8306  -2.0104  -1.9556  -0.5543  -0.0996
    -0.0229   0.4715   0.5271   0.7690   2.3001   2.3622   2.4216   2.4528
     2.7006   2.7413   3.1498   3.1821   3.4192   3.5878   3.7981   3.8325
     4.0052   4.2472   4.3730   4.4724   4.5341   4.8236   4.9495   5.3964
     9.5777   9.6022   9.6161   9.6634   9.6804   9.6921   9.7409   9.7636
     9.7898   9.7902

     occupation numbers
     1.0000   1.0000   1.0000   1.0000   1.0000   1.0000   1.0000   1.0000
     1.0000   1.0000   1.0000   1.0000   1.0000   1.0000   1.0000   1.0000
     1.0000   1.0000   1.0000   1.0000   1.0000   1.0000   1.0000   1.0000
     1.0000   1.0000   1.0000   1.0000   1.0000   1.0000   1.0000   1.0000
     1.0000   1.0000   1.0000   1.0000   1.0000   1.0000   1.0000   1.0000
     1.0000   1.0000   1.0000   1.0000   1.0000   1.0000   1.0000   1.0000
    -0.0000  -0.0000  -0.0000  -0.0000  -0.0000  -0.0000  -0.0000  -0.0000
    -0.0000  -0.0000

     the Fermi energy is     5.5246 ev

!    total energy              =   -1343.42407733 Ry
     estimated scf accuracy    <       0.00000022 Ry
     smearing contrib. (-TS)   =       0.00000000 Ry
     internal energy E=F+TS    =   -1343.42407733 Ry

     The total energy is F=E-TS. E is the sum of the following terms:
     one-electron contribution =    -188.71147106 Ry
     hartree contribution      =     148.87093864 Ry
     xc contribution           =    -108.51908943 Ry
     ewald contribution        =    -322.87224989 Ry
     one-center paw contrib.   =    -872.19220559 Ry
      -> PAW hartree energy AE =      34.06826001 Ry
      -> PAW hartree energy PS =     -34.11961369 Ry
      -> PAW xc energy AE      =    -405.21347723 Ry
      -> PAW xc energy PS      =       7.20153651 Ry
      -> total E_H with PAW    =     148.81958496 Ry
      -> total E_XC with PAW   =    -506.53103015 Ry

     convergence has been achieved in  10 iterations

     negative rho (up, down):  2.908E-02 0.000E+00

     Forces acting on atoms (cartesian axes, Ry/au):

     atom    1 type  1   force =     0.00413435   -0.02793412   -0.00541982
     atom    2 type  1   force =    -0.00413435    0.02793412    0.00541982
     atom    3 type  2   force =    -0.00693199   -0.02354900   -0.01077143
     atom    4 type  2   force =     0.01818569   -0.02675398   -0.00681954
     atom    5 type  2   force =     0.00693199    0.02354900    0.01077143
     atom    6 type  2   force =    -0.01818569    0.02675398    0.00681954
     atom    7 type  3   force =     0.00024621   -0.01289197   -0.01228688
     atom    8 type  3   force =    -0.00024621    0.01289197    0.01228688
     atom    9 type  4   force =     0.01704500    0.03358177   -0.00787199
     atom   10 type  4   force =     0.01587544   -0.05359443    0.01884316
     atom   11 type  4   force =     0.00146343    0.00603423    0.00625842
     atom   12 type  4   force =    -0.01587544    0.05359443   -0.01884316
     atom   13 type  4   force =    -0.00146343   -0.00603423   -0.00625842
     atom   14 type  4   force =    -0.01704500   -0.03358177    0.00787199
     atom   15 type  4   force =     0.00186242   -0.00587335   -0.00672468
     atom   16 type  4   force =    -0.00186242    0.00587335    0.00672468
     The non-local contrib.  to forces
     atom    1 type  1   force =    -0.04655625    0.01935176   -0.00298452
     atom    2 type  1   force =     0.04655625   -0.01935176    0.00298452
     atom    3 type  2   force =    -0.07517883    0.10555837    0.05010273
     atom    4 type  2   force =     0.06772250    0.12066325   -0.02500616
     atom    5 type  2   force =     0.07517883   -0.10555837   -0.05010273
     atom    6 type  2   force =    -0.06772250   -0.12066325    0.02500616
     atom    7 type  3   force =     0.01034655   -0.02960273   -0.00209956
     atom    8 type  3   force =    -0.01034655    0.02960273    0.00209956
     atom    9 type  4   force =     0.64530290   -1.04863675   -0.16804215
     atom   10 type  4   force =     0.60089054    1.08281540   -0.21040907
     atom   11 type  4   force =     0.44260568    1.17017437    0.10674917
     atom   12 type  4   force =    -0.60089054   -1.08281540    0.21040907
     atom   13 type  4   force =    -0.44260568   -1.17017437   -0.10674917
     atom   14 type  4   force =    -0.64530290    1.04863675    0.16804215
     atom   15 type  4   force =     0.42325677   -1.18084841   -0.48902234
     atom   16 type  4   force =    -0.42325677    1.18084841    0.48902234
     The ionic contribution  to forces
     atom    1 type  1   force =    -0.33139298   -1.83782979  -11.15762260
     atom    2 type  1   force =     0.33139298    1.83782979   11.15762260
     atom    3 type  2   force =     0.17882862   -0.09019430    2.49900358
     atom    4 type  2   force =    -0.42558329    0.52452756   -3.23067665
     atom    5 type  2   force =    -0.17882862    0.09019430   -2.49900358
     atom    6 type  2   force =     0.42558329   -0.52452756    3.23067665
     atom    7 type  3   force =    -0.07712624    2.21739635    2.66969789
     atom    8 type  3   force =     0.07712624   -2.21739635   -2.66969789
     atom    9 type  4   force =    -1.77923875    2.26019201    5.91528871
     atom   10 type  4   force =    -2.11990306   -3.12619292    6.45485967
     atom   11 type  4   force =    -1.61054918   -3.64796155   -6.04570905
     atom   12 type  4   force =     2.11990306    3.12619292   -6.45485967
     atom   13 type  4   force =     1.61054918    3.64796155    6.04570905
     atom   14 type  4   force =     1.77923875   -2.26019201   -5.91528871
     atom   15 type  4   force =    -1.51873956    4.12187012   -0.52761005
     atom   16 type  4   force =     1.51873956   -4.12187012    0.52761005
     The local contribution  to forces
     atom    1 type  1   force =     0.38208939    1.79041791   11.15511081
     atom    2 type  1   force =    -0.38206417   -1.79040344  -11.15514658
     atom    3 type  2   force =    -0.11330553   -0.03303822   -2.55590035
     atom    4 type  2   force =     0.37835827   -0.66380497    3.24779278
     atom    5 type  2   force =     0.11330762    0.03301210    2.55592497
     atom    6 type  2   force =    -0.37836033    0.66385195   -3.24779696
     atom    7 type  3   force =     0.06718217   -2.20067292   -2.67982928
     atom    8 type  3   force =    -0.06716764    2.20048925    2.67951460
     atom    9 type  4   force =     1.15674951   -1.18783767   -5.75672405
     atom   10 type  4   force =     1.54022015    1.99981910   -6.22773029
     atom   11 type  4   force =     1.17319225    2.49333533    5.94596853
     atom   12 type  4   force =    -1.54022488   -1.99985296    6.22770107
     atom   13 type  4   force =    -1.17315527   -2.49327682   -5.94593075
     atom   14 type  4   force =    -1.15670610    1.18786168    5.75671785
     atom   15 type  4   force =     1.10091435   -2.95695686    1.00570914
     atom   16 type  4   force =    -1.10092306    2.95696361   -1.00557505
     The core correction contribution to forces
     atom    1 type  1   force =    -0.00002669   -0.00008884   -0.00007169
     atom    2 type  1   force =     0.00002670    0.00008888    0.00007166
     atom    3 type  2   force =     0.00272614   -0.00588736   -0.00394791
     atom    4 type  2   force =    -0.00227660   -0.00797499    0.00108618
     atom    5 type  2   force =    -0.00272664    0.00588678    0.00394796
     atom    6 type  2   force =     0.00227587    0.00797300   -0.00108697
     atom    7 type  3   force =    -0.00016125    0.00006438   -0.00022045
     atom    8 type  3   force =     0.00015981   -0.00006779    0.00021507
     atom    9 type  4   force =    -0.00574429    0.00970901    0.00150653
     atom   10 type  4   force =    -0.00530108   -0.01010550    0.00208516
     atom   11 type  4   force =    -0.00371103   -0.00931642   -0.00071096
     atom   12 type  4   force =     0.00530103    0.01010527   -0.00208578
     atom   13 type  4   force =     0.00371111    0.00931587    0.00071140
     atom   14 type  4   force =     0.00574433   -0.00970962   -0.00150677
     atom   15 type  4   force =    -0.00354713    0.00989829    0.00418262
     atom   16 type  4   force =     0.00354751   -0.00989796   -0.00418262
     The Hubbard contrib.    to forces
     atom    1 type  1   force =     0.00000000    0.00000000    0.00000000
     atom    2 type  1   force =     0.00000000    0.00000000    0.00000000
     atom    3 type  2   force =     0.00000000    0.00000000    0.00000000
     atom    4 type  2   force =     0.00000000    0.00000000    0.00000000
     atom    5 type  2   force =     0.00000000    0.00000000    0.00000000
     atom    6 type  2   force =     0.00000000    0.00000000    0.00000000
     atom    7 type  3   force =     0.00000000    0.00000000    0.00000000
     atom    8 type  3   force =     0.00000000    0.00000000    0.00000000
     atom    9 type  4   force =     0.00000000    0.00000000    0.00000000
     atom   10 type  4   force =     0.00000000    0.00000000    0.00000000
     atom   11 type  4   force =     0.00000000    0.00000000    0.00000000
     atom   12 type  4   force =     0.00000000    0.00000000    0.00000000
     atom   13 type  4   force =     0.00000000    0.00000000    0.00000000
     atom   14 type  4   force =     0.00000000    0.00000000    0.00000000
     atom   15 type  4   force =     0.00000000    0.00000000    0.00000000
     atom   16 type  4   force =     0.00000000    0.00000000    0.00000000
     The SCF correction term to forces
     atom    1 type  1   force =     0.00003142    0.00024591    0.00013966
     atom    2 type  1   force =    -0.00003555   -0.00019825   -0.00012088
     atom    3 type  2   force =    -0.00000439    0.00000589   -0.00002750
     atom    4 type  2   force =    -0.00004762   -0.00019753   -0.00002446
     atom    5 type  2   force =    -0.00000120    0.00000756    0.00000679
     atom    6 type  2   force =     0.00002556    0.00008714    0.00001190
     atom    7 type  3   force =     0.00000630   -0.00012767    0.00008984
     atom    8 type  3   force =    -0.00001676    0.00021350    0.00008087
     atom    9 type  4   force =    -0.00001989    0.00012999    0.00009306
     atom   10 type  4   force =    -0.00003330    0.00006461    0.00002629
     atom   11 type  4   force =    -0.00007162   -0.00023001   -0.00003563
     atom   12 type  4   force =     0.00003370   -0.00004028   -0.00001924
     atom   13 type  4   force =     0.00003989    0.00010703    0.00000469
     atom   14 type  4   force =    -0.00001462   -0.00020375   -0.00009844
     atom   15 type  4   force =    -0.00001521    0.00018553    0.00001065
     atom   16 type  4   force =     0.00003716   -0.00014857   -0.00015533

     Total force =     0.127092     Total SCF correction =     0.000711

     Computing stress (Cartesian axis) and pressure

     negative rho (up, down):  2.908E-02 0.000E+00
          total   stress  (Ry/bohr**3)                   (kbar)     P=     -268.76
  -0.00187217  -0.00001354   0.00003702         -275.41       -1.99        5.45
  -0.00001354  -0.00171672   0.00002641           -1.99     -252.54        3.89
   0.00003702   0.00002641  -0.00189211            5.45        3.89     -278.34

     kinetic stress (kbar)  13822.82      1.89     33.42
                                1.89  13657.65   -112.53
                               33.42   -112.53  14246.38

     local   stress (kbar) -20869.14     28.12    416.11
                               28.12 -20228.04  -2364.05
                              416.11  -2364.05   9502.91

     nonloc. stress (kbar)   5197.89      1.09      3.77
                                1.09   5189.81      3.91
                                3.77      3.91   5180.56

     hartree stress (kbar)   9035.76    -35.33   -100.75
                              -35.33   8686.38    699.56
                             -100.75    699.56  -3076.48

     exc-cor stress (kbar)  -1728.89      0.48     -1.54
                                0.48  -1725.94      7.86
                               -1.54      7.86  -1763.31

     corecor stress (kbar)  -1393.21     -0.61      0.55
                               -0.61  -1395.54     -3.56
                                0.55     -3.56  -1382.29

     ewald   stress (kbar)  -4340.64      2.37   -346.12
                                2.37  -4436.85   1772.70
                             -346.12   1772.70 -22986.11

     hubbard stress (kbar)      0.00      0.00      0.00
                                0.00      0.00      0.00
                                0.00      0.00      0.00

     DFT-D   stress (kbar)      0.00      0.00      0.00
                                0.00      0.00      0.00
                                0.00      0.00      0.00

     XDM     stress (kbar)      0.00      0.00      0.00
                                0.00      0.00      0.00
                                0.00      0.00      0.00

     dft-nl  stress (kbar)      0.00      0.00      0.00
                                0.00      0.00      0.00
                                0.00      0.00      0.00

     TS-vdW  stress (kbar)      0.00      0.00      0.00
                                0.00      0.00      0.00
                                0.00      0.00      0.00

[...]

                                0.00      0.00      0.00

     Writing all to output data dir calculations/myprefix.save/

     General routines

     Parallel routines

     PAW routines

   This run was terminated on:  11:28:34   3Mar2023

   JOB DONE.