     Program PWSCF v.7.0 starts on  4Mar2023 at 18:39:25

     R & G space division:  proc/nbgrp/npool/nimage =      32

     Reading input from espresso_7249.pwi
Warning: card &CELL ignored
Warning: card / ignored

     Current dimensions of program PWSCF are:
     Max number of different atomic species (ntypx) = 10
     Max number of k-points (npk) =  40000
     Max angular momentum in pseudopotentials (lmaxx) =  4

     gamma-point specific algorithms are used
     Message from routine setup:
     using ibrav=0 with symmetry is DISCOURAGED, use correct ibrav instead

     Using Slab Decomposition

     bravais-lattice index     =            0
     lattice parameter (alat)  =      13.4314  a.u.
     unit-cell volume          =    1713.3510 (a.u.)^3
     number of atoms/cell      =           12
     number of atomic types    =            2
     number of electrons       =       104.00
     number of Kohn-Sham states=           62
     kinetic-energy cutoff     =      30.0000  Ry
     charge density cutoff     =     240.0000  Ry
     scf convergence threshold =      1.0E-06
     mixing beta               =       0.7000
     number of iterations used =            8  plain     mixing
     Exchange-correlation= SLA  PW   PBE  PBE
                           (   1   4   3   4   0   0   0)

     celldm(1)=  13.431374  celldm(2)=   0.000000  celldm(3)=   0.000000
     celldm(4)=   0.000000  celldm(5)=   0.000000  celldm(6)=   0.000000

     crystal axes: (cart. coord. in units of alat)
               a(1) = (   1.000000   0.000000   0.000000 )
               a(2) = (   0.500000   0.866025   0.000000 )
               a(3) = (   0.500000   0.288675   0.816497 )

     reciprocal axes: (cart. coord. in units 2 pi/alat)
               b(1) = (  1.000000 -0.577350 -0.408248 )
               b(2) = (  0.000000  1.154701 -0.408248 )
               b(3) = (  0.000000  0.000000  1.224745 )

     PseudoPot. # 1 for Cr read from file:
     /home/pragov/projects/rrg-bengioy-ad/pragov/crystal_structure_design/SSSP/cr_pbe_v1.5.uspp.F.UPF
     MD5 check sum: 0d52af634a40206e4dee301ad30da4bf
     Pseudo is Ultrasoft + core correction, Zval = 14.0
     Generated by new atomic code, or converted to UPF format
     Using radial grid of  857 points,  6 beta functions with:
                l(1) =   0
                l(2) =   0
                l(3) =   1
                l(4) =   1
                l(5) =   2
                l(6) =   2
     Q(r) pseudized with  8 coefficients,  rinner =    0.950   0.950   0.950
                                                       0.950   0.950

     PseudoPot. # 2 for Se read from file:
     /home/pragov/projects/rrg-bengioy-ad/pragov/crystal_structure_design/SSSP/Se_pbe_v1.uspp.F.UPF
     MD5 check sum: 1b3568f3a8ae88f9a2a0ad0698632c85
     Pseudo is Ultrasoft + core correction, Zval =  6.0
     Generated by new atomic code, or converted to UPF format
     Using radial grid of  877 points,  6 beta functions with:
                l(1) =   0
                l(2) =   0
                l(3) =   1
                l(4) =   1
                l(5) =   2
                l(6) =   2
     Q(r) pseudized with  8 coefficients,  rinner =    1.300   1.300   1.300
                                                       1.300   1.300

     atomic species   valence    mass     pseudopotential
        Cr            14.00    51.99610     Cr( 1.00)
        Se             6.00    78.97100     Se( 1.00)

     12 Sym. Ops., with inversion, found ( 6 have fractional translation)

                                    s                        frac. trans.

      isym =  1     identity

 cryst.   s( 1) = (     1          0          0      )
                  (     0          1          0      )
                  (     0          0          1      )

 cart.    s( 1) = (  1.0000000  0.0000000 -0.0000000 )
                  (  0.0000000  1.0000000 -0.0000000 )
                  (  0.0000000  0.0000000  1.0000000 )

      isym =  2     180 deg rotation - cart. axis [1,0,0]

 cryst.   s( 2) = (     1          0          0      )    f =( -0.2500000 )
                  (     1         -1          0      )       ( -0.2500000 )
                  (     1          0         -1      )       ( -0.2500000 )

 cart.    s( 2) = (  1.0000000  0.0000000 -0.0000000 )    f =( -0.5000000 )
                  (  0.0000000 -1.0000000  0.0000000 )       ( -0.2886751 )
                  (  0.0000000  0.0000000 -1.0000000 )       ( -0.2041241 )

      isym =  3     120 deg rotation - cryst. axis [0,0,1]

[...]

      isym =  6     180 deg rotation - cryst. axis [1,1,0]

[...]

      isym =  7     inversion

[...]

      isym =  8     inv. 180 deg rotation - cart. axis [1,0,0]

 cryst.   s( 8) = (    -1          0          0      )
                  (    -1          1          0      )
                  (    -1          0          1      )

 cart.    s( 8) = ( -1.0000000  0.0000000  0.0000000 )
                  (  0.0000000  1.0000000 -0.0000000 )
                  (  0.0000000  0.0000000  1.0000000 )

      isym =  9     inv. 120 deg rotation - cryst. axis [0,0,1]

 cryst.   s( 9) = (     1         -1          0      )    f =( -0.2500000 )
                  (     1          0          0      )       ( -0.2500000 )
                  (     1          0         -1      )       ( -0.2500000 )

 cart.    s( 9) = (  0.5000000  0.8660254 -0.0000000 )    f =( -0.5000000 )
                  ( -0.8660254  0.5000000 -0.0000000 )       ( -0.2886751 )
                  (  0.0000000  0.0000000 -1.0000000 )       ( -0.2041241 )

[...]

 cryst.   s(10) = (     0          1          0      )    f =( -0.2500000 )
                  (    -1          1          0      )       ( -0.2500000 )
                  (     0          1         -1      )       ( -0.2500000 )

 cart.    s(10) = (  0.5000000 -0.8660254  0.0000000 )    f =( -0.5000000 )
                  (  0.8660254  0.5000000 -0.0000000 )       ( -0.2886751 )
                  (  0.0000000  0.0000000 -1.0000000 )       ( -0.2041241 )

[...]

 cryst.   s(11) = (     0          1          0      )
                  (     1          0          0      )
                  (     0          0          1      )

 cart.    s(11) = (  0.5000000  0.8660254 -0.0000000 )
                  (  0.8660254 -0.5000000  0.0000000 )
                  (  0.0000000  0.0000000  1.0000000 )

      isym = 12     inv. 180 deg rotation - cryst. axis [1,1,0]

 cryst.   s(12) = (     1         -1          0      )
                  (     0         -1          0      )
                  (     0         -1          1      )

 cart.    s(12) = (  0.5000000 -0.8660254  0.0000000 )
                  ( -0.8660254 -0.5000000  0.0000000 )
                  (  0.0000000  0.0000000  1.0000000 )

   Cartesian axes

     site n.     atom                  positions (alat units)
         1           Cr  tau(   1) = (   1.0000000   0.5773503   0.1020621  )
         2           Cr  tau(   2) = (   1.0000000   0.2886751   0.5103104  )
         3           Cr  tau(   3) = (   1.2500000   0.7216878   0.5103104  )
         4           Cr  tau(   4) = (   0.7500000   0.7216878   0.5103104  )
         5           Se  tau(   5) = (   0.7505460   0.4333279   0.3064091  )
         6           Se  tau(   6) = (   1.2505450   1.0100477   0.7142116  )
         7           Se  tau(   7) = (   1.4999995   0.5779799   0.7142116  )
         8           Se  tau(   8) = (   1.4999995   0.8660251   0.3068541  )
         9           Se  tau(   9) = (   1.0000005   0.8653958   0.3064091  )
        10           Se  tau(  10) = (   1.0000005   0.5773506   0.7137666  )
        11           Se  tau(  11) = (   1.2494550   0.4333279   0.3064091  )
        12           Se  tau(  12) = (   1.7494540   1.0100477   0.7142116  )

   Crystallographic axes

     site n.     atom                  positions (cryst. coord.)
         1           Cr  tau(   1) = (  0.6250000  0.6250000  0.1250000  )
         2           Cr  tau(   2) = (  0.6250000  0.1250000  0.6250000  )
         3           Cr  tau(   3) = (  0.6250000  0.6250000  0.6250000  )
         4           Cr  tau(   4) = (  0.1250000  0.6250000  0.6250000  )
         5           Se  tau(   5) = (  0.3752730  0.3752730  0.3752730  )
         6           Se  tau(   6) = (  0.3758180  0.8747270  0.8747270  )
         7           Se  tau(   7) = (  0.8747270  0.3758180  0.8747270  )
         8           Se  tau(   8) = (  0.8747270  0.8747270  0.3758180  )
         9           Se  tau(   9) = (  0.3752730  0.8741820  0.3752730  )
        10           Se  tau(  10) = (  0.3752730  0.3752730  0.8741820  )
        11           Se  tau(  11) = (  0.8741820  0.3752730  0.3752730  )
        12           Se  tau(  12) = (  0.8747270  0.8747270  0.8747270  )

     number of k points=     1  Methfessel-Paxton smearing, width (Ry)=  0.0010
                       cart. coord. in units 2pi/alat
        k(    1) = (   0.0000000   0.0000000   0.0000000), wk =   2.0000000

                       cryst. coord.
        k(    1) = (   0.0000000   0.0000000   0.0000000), wk =   2.0000000

     Check: negative core charge=   -0.000004

     Initial potential from superposition of free atoms

     starting charge      99.9994, renormalised to     104.0000

     negative rho (up, down):  6.114E-03 0.000E+00
     Starting wfcs are   72 randomized atomic wfcs

     Self-consistent Calculation

     iteration #  1     ecut=    30.00 Ry     beta= 0.70
     Davidson diagonalization with overlap

     ethr =  1.00E-02,  avg # of iterations =  3.0

     negative rho (up, down):  8.754E-03 0.000E+00

     total energy              =   -1046.22975045 Ry
     estimated scf accuracy    <       6.01931068 Ry

[...]

     total energy              =   -1050.50229748 Ry
     estimated scf accuracy    <       0.00001857 Ry

     iteration # 47     ecut=    30.00 Ry     beta= 0.70
     Davidson diagonalization with overlap

     ethr =  1.71E-09,  avg # of iterations =  1.0

[...]

     End of self-consistent calculation

          k = 0.0000 0.0000 0.0000 (  2347 PWs)   bands (ev):

   -63.5427 -63.5407 -63.5406 -63.5405 -34.9853 -34.9669 -34.9668 -34.9667
   -34.8476 -34.8476 -34.8475 -34.8468 -34.8468 -34.8396 -34.8395 -34.8395
    -6.3229  -4.7507  -4.7142  -4.7141  -4.7141  -4.4948  -4.4948  -4.4947
     2.3179   2.3179   2.3179   2.3207   3.2073   3.2073   3.2558   5.2694
     5.2694   5.5126   5.5127   5.5127   5.8383   5.8384   5.8384   6.1929
     6.1930   6.1930   6.1952   6.1952   6.1952   7.2550   7.2550   7.4885
     7.9823   7.9824   7.9824   8.2519   8.2519   8.2520   8.4220   8.4220
     8.4221   8.6208   8.6208   8.6208  10.6554  10.6555

     occupation numbers
     1.0000   1.0000   1.0000   1.0000   1.0000   1.0000   1.0000   1.0000
     1.0000   1.0000   1.0000   1.0000   1.0000   1.0000   1.0000   1.0000
     1.0000   1.0000   1.0000   1.0000   1.0000   1.0000   1.0000   1.0000
     1.0000   1.0000   1.0000   1.0000   1.0000   1.0000   1.0000   1.0000
     1.0000   1.0000   1.0000   1.0000   1.0000   1.0000   1.0000   1.0000
     1.0000   1.0000   1.0000   1.0000   1.0000   1.0000   1.0000   1.0000
     1.0000   1.0000   1.0000   0.3340   0.3337   0.3323  -0.0000  -0.0000
    -0.0000  -0.0000  -0.0000  -0.0000  -0.0000  -0.0000

     the Fermi energy is     8.2492 ev

!    total energy              =   -1050.50229767 Ry
     estimated scf accuracy    <       0.00000032 Ry
     smearing contrib. (-TS)   =      -0.00074672 Ry
     internal energy E=F+TS    =   -1050.50155095 Ry

     The total energy is F=E-TS. E is the sum of the following terms:
     one-electron contribution =    -567.74796175 Ry
     hartree contribution      =     321.04307857 Ry
     xc contribution           =    -327.01245990 Ry
     ewald contribution        =    -476.78420787 Ry

     convergence has been achieved in  47 iterations

     negative rho (up, down):  5.727E-03 0.000E+00

     Forces acting on atoms (cartesian axes, Ry/au):

     atom    1 type  1   force =    -0.00000000    0.00000000    0.00000000
     atom    2 type  1   force =    -0.00000000    0.00000000   -0.00000000
     atom    3 type  1   force =    -0.00000000    0.00000000    0.00000000
     atom    4 type  1   force =    -0.00000000    0.00000000   -0.00000000
     atom    5 type  2   force =     0.01289204    0.00744322    0.00526172
     atom    6 type  2   force =     0.01289204   -0.00744322   -0.00526172
     atom    7 type  2   force =     0.00000000    0.01488645   -0.00526172
     atom    8 type  2   force =     0.00000000    0.00000000    0.01579800
     atom    9 type  2   force =     0.00000000   -0.01488645    0.00526172
     atom   10 type  2   force =     0.00000000    0.00000000   -0.01579800
     atom   11 type  2   force =    -0.01289204    0.00744322    0.00526172
     atom   12 type  2   force =    -0.01289204   -0.00744322   -0.00526172
     The non-local contrib.  to forces
     atom    1 type  1   force =     0.00000000    0.00000000    0.00000000
     atom    2 type  1   force =     0.00000000   -0.00000000    0.00000000
     atom    3 type  1   force =     0.00000000    0.00000000   -0.00000000
     atom    4 type  1   force =     0.00000000   -0.00000000   -0.00000000
     atom    5 type  2   force =     0.20700348    0.11951351    0.08449851
     atom    6 type  2   force =     0.20700348   -0.11951351   -0.08449851
     atom    7 type  2   force =     0.00000000    0.23902703   -0.08449851
     atom    8 type  2   force =     0.00000000    0.00000000    0.25350549
     atom    9 type  2   force =     0.00000000   -0.23902703    0.08449851
     atom   10 type  2   force =     0.00000000   -0.00000000   -0.25350549
     atom   11 type  2   force =    -0.20700348    0.11951351    0.08449851
     atom   12 type  2   force =    -0.20700348   -0.11951351   -0.08449851
     The ionic contribution  to forces
     atom    1 type  1   force =     0.00000000    0.00000000   -0.00000000
     atom    2 type  1   force =     0.00000000   -0.00000000    0.00000000
     atom    3 type  1   force =     0.00000000    0.00000000    0.00000000
     atom    4 type  1   force =    -0.00000000    0.00000000    0.00000000
     atom    5 type  2   force =    -8.20438075   -4.73680143   -3.34942441
     atom    6 type  2   force =    -8.20435621    4.73682042    3.34943784
     atom    7 type  2   force =     0.00002871   -9.47359110    3.34943784
     atom    8 type  2   force =     0.00002871    0.00001658  -10.04826663
     atom    9 type  2   force =    -0.00002871    9.47359110   -3.34943784
     atom   10 type  2   force =    -0.00002871   -0.00001658   10.04826663
     atom   11 type  2   force =     8.20435621   -4.73682042   -3.34943784
     atom   12 type  2   force =     8.20438075    4.73680143    3.34942441
     The local contribution  to forces
     atom    1 type  1   force =     0.00001288   -0.00003856    0.00012613
     atom    2 type  1   force =     0.00001106    0.00014340   -0.00003953
     atom    3 type  1   force =    -0.00008853   -0.00010235   -0.00002052
     atom    4 type  1   force =     0.00008140   -0.00008962   -0.00001094
     atom    5 type  2   force =     8.03362194    4.63848277    3.27970649
     atom    6 type  2   force =     8.03354194   -4.63830891   -3.27957653
     atom    7 type  2   force =     0.00010653    9.27654669   -3.27976767
     atom    8 type  2   force =     0.00011199   -0.00019751    9.83917718
     atom    9 type  2   force =    -0.00010806   -9.27655905    3.27977063
     atom   10 type  2   force =    -0.00011067    0.00019671   -9.83918825
     atom   11 type  2   force =    -8.03354773    4.63831826    3.27958040
     atom   12 type  2   force =    -8.03362075   -4.63847940   -3.27970228
     The core correction contribution to forces
     atom    1 type  1   force =     0.00000008   -0.00000016   -0.00000003
     atom    2 type  1   force =     0.00000027   -0.00000015   -0.00000002
     atom    3 type  1   force =     0.00000004    0.00000011   -0.00000002
     atom    4 type  1   force =     0.00000009   -0.00000005   -0.00000016
     atom    5 type  2   force =    -0.02350710   -0.01356815   -0.00959318
     atom    6 type  2   force =    -0.02351227    0.01357381    0.00959746
     atom    7 type  2   force =     0.00000209   -0.02714484    0.00959796
     atom    8 type  2   force =     0.00000270    0.00000163   -0.02878915
     atom    9 type  2   force =    -0.00000210    0.02714517   -0.00959790
     atom   10 type  2   force =    -0.00000238   -0.00000147    0.02878936
     atom   11 type  2   force =     0.02351229   -0.01357366   -0.00959788
     atom   12 type  2   force =     0.02350598    0.01356798    0.00959319
     The Hubbard contrib.    to forces
     atom    1 type  1   force =     0.00000000    0.00000000    0.00000000
     atom    2 type  1   force =     0.00000000    0.00000000    0.00000000
     atom    3 type  1   force =     0.00000000    0.00000000    0.00000000
     atom    4 type  1   force =     0.00000000    0.00000000    0.00000000
     atom    5 type  2   force =     0.00000000    0.00000000    0.00000000
     atom    6 type  2   force =     0.00000000    0.00000000    0.00000000
     atom    7 type  2   force =     0.00000000    0.00000000    0.00000000
     atom    8 type  2   force =     0.00000000    0.00000000    0.00000000
     atom    9 type  2   force =     0.00000000    0.00000000    0.00000000
     atom   10 type  2   force =     0.00000000    0.00000000    0.00000000
     atom   11 type  2   force =     0.00000000    0.00000000    0.00000000
     atom   12 type  2   force =     0.00000000    0.00000000    0.00000000
     The SCF correction term to forces
     atom    1 type  1   force =    -0.00001081    0.00004012   -0.00012398
     atom    2 type  1   force =    -0.00000878   -0.00014847    0.00003804
     atom    3 type  1   force =     0.00008892    0.00010282    0.00002016
     atom    4 type  1   force =    -0.00008211    0.00009102    0.00001052
     atom    5 type  2   force =     0.00016887   -0.00013995    0.00010155
     atom    6 type  2   force =     0.00017827   -0.00000320   -0.00020316
     atom    7 type  2   force =    -0.00011732    0.00004855   -0.00002320
     atom    8 type  2   force =    -0.00011813    0.00018257    0.00017130
     atom    9 type  2   force =     0.00011757   -0.00003738    0.00002180
     atom   10 type  2   force =     0.00011759   -0.00017998   -0.00016005
     atom   11 type  2   force =    -0.00017119   -0.00000357    0.00019825
     atom   12 type  2   force =    -0.00017517    0.00013493   -0.00010504

     Total force =     0.044664     Total SCF correction =     0.000718

     Computing stress (Cartesian axis) and pressure

     negative rho (up, down):  5.727E-03 0.000E+00
          total   stress  (Ry/bohr**3)                   (kbar)     P=      -88.98
  -0.00060479  -0.00000000   0.00000000          -88.97       -0.00        0.00
  -0.00000000  -0.00060479   0.00000000           -0.00      -88.97        0.00
   0.00000000   0.00000000  -0.00060508            0.00        0.00      -89.01

     kinetic stress (kbar)  11804.90     -0.00     -0.00
                               -0.00  11804.90     -0.00
                               -0.00     -0.00  11804.83

     local   stress (kbar) -10134.02      0.20      0.15
                                0.20 -10133.26      0.25
                                0.15      0.25 -10133.67

     nonloc. stress (kbar)   6539.50      0.00     -0.00
                                0.00   6539.50     -0.00
                               -0.00     -0.00   6539.44

     hartree stress (kbar)   9188.22     -0.05     -0.04
                               -0.05   9187.79      0.00
                               -0.04      0.00   9188.14

     exc-cor stress (kbar)  14285.07     -0.00     -0.00
                               -0.00  14285.07     -0.00
                               -0.00     -0.00  14285.07

     corecor stress (kbar) -18127.55      0.01      0.01
                                0.01 -18127.54      0.02
                                0.01      0.02 -18127.54

     ewald   stress (kbar) -13645.25      0.02      0.01
                                0.02 -13645.27      0.01
                                0.01      0.01 -13645.27

     hubbard stress (kbar)      0.00      0.00      0.00
                                0.00      0.00      0.00
                                0.00      0.00      0.00

     DFT-D   stress (kbar)      0.00      0.00      0.00
                                0.00      0.00      0.00
                                0.00      0.00      0.00

     XDM     stress (kbar)      0.00      0.00      0.00
                                0.00      0.00      0.00
                                0.00      0.00      0.00

     dft-nl  stress (kbar)      0.00      0.00      0.00
                                0.00      0.00      0.00
                                0.00      0.00      0.00

     TS-vdW  stress (kbar)      0.00      0.00      0.00
                                0.00      0.00      0.00
                                0.00      0.00      0.00

[...]

                                0.00      0.00      0.00

     Writing all to output data dir calculations/myprefix.save/

     General routines

     Parallel routines

   This run was terminated on:  18:39:31   4Mar2023

   JOB DONE.