     Program PWSCF v.7.0 starts on  4Mar2023 at 22:18: 3

     R & G space division:  proc/nbgrp/npool/nimage =      32

     Reading input from espresso_7872.pwi
Warning: card &CELL ignored
Warning: card / ignored

     Current dimensions of program PWSCF are:
     Max number of different atomic species (ntypx) = 10
     Max number of k-points (npk) =  40000
     Max angular momentum in pseudopotentials (lmaxx) =  4

     gamma-point specific algorithms are used
     Message from routine setup:
     using ibrav=0 with symmetry is DISCOURAGED, use correct ibrav instead

     Using Slab Decomposition

     bravais-lattice index     =            0
     lattice parameter (alat)  =       7.6818  a.u.
     unit-cell volume          =     615.7095 (a.u.)^3
     number of atoms/cell      =            4
     number of atomic types    =            3
     number of electrons       =        56.00
     number of Kohn-Sham states=           34
     kinetic-energy cutoff     =      30.0000  Ry
     charge density cutoff     =     240.0000  Ry
     scf convergence threshold =      1.0E-06
     mixing beta               =       0.7000
     number of iterations used =            8  plain     mixing
     Exchange-correlation= SLA  PW   PBE  PBE
                           (   1   4   3   4   0   0   0)

     celldm(1)=   7.681819  celldm(2)=   0.000000  celldm(3)=   0.000000
     celldm(4)=   0.000000  celldm(5)=   0.000000  celldm(6)=   0.000000

     crystal axes: (cart. coord. in units of alat)
               a(1) = (   1.000000   0.000000   0.000000 )
               a(2) = (  -0.500000   0.866025   0.000000 )
               a(3) = (   0.000000   0.000000   1.568386 )

     reciprocal axes: (cart. coord. in units 2 pi/alat)
               b(1) = (  1.000000  0.577350  0.000000 )
               b(2) = (  0.000000  1.154700  0.000000 )
               b(3) = (  0.000000  0.000000  0.637598 )

     PseudoPot. # 1 for Lu read from file:
     /home/pragov/projects/rrg-bengioy-ad/pragov/crystal_structure_design/SSSP/Lu.GGA-PBE-paw-v1.0.UPF
     MD5 check sum: 9ceca61ee0c17e9380a83635bfffa61d
     Pseudo is Projector augmented-wave + core cor, Zval = 25.0
     Generated using ATOMPAW code
     Shape of augmentation charge: BESSEL
     Using radial grid of 1118 points,  8 beta functions with:
                l(1) =   0
                l(2) =   0
                l(3) =   1
                l(4) =   1
                l(5) =   2
                l(6) =   2
                l(7) =   3
                l(8) =   3
     Q(r) pseudized with 0 coefficients

     PseudoPot. # 2 for Cu read from file:
     /home/pragov/projects/rrg-bengioy-ad/pragov/crystal_structure_design/SSSP/Cu_pbe_v1.2.uspp.F.UPF
     MD5 check sum: 6e991ff952a84172a2a52a1c1e996048
     Pseudo is Ultrasoft + core correction, Zval = 19.0
     Generated by new atomic code, or converted to UPF format
     Using radial grid of  867 points,  6 beta functions with:
                l(1) =   0
                l(2) =   0
                l(3) =   1
                l(4) =   1
                l(5) =   2
                l(6) =   2
     Q(r) pseudized with  8 coefficients,  rinner =    1.150   1.150   1.150
                                                       1.150   1.150

     PseudoPot. # 3 for Se read from file:
     /home/pragov/projects/rrg-bengioy-ad/pragov/crystal_structure_design/SSSP/Se_pbe_v1.uspp.F.UPF
     MD5 check sum: 1b3568f3a8ae88f9a2a0ad0698632c85
     Pseudo is Ultrasoft + core correction, Zval =  6.0
     Generated by new atomic code, or converted to UPF format
     Using radial grid of  877 points,  6 beta functions with:
                l(1) =   0
                l(2) =   0
                l(3) =   1
                l(4) =   1
                l(5) =   2
                l(6) =   2
     Q(r) pseudized with  8 coefficients,  rinner =    1.300   1.300   1.300
                                                       1.300   1.300

     atomic species   valence    mass     pseudopotential
        Lu            25.00   174.96680     Lu( 1.00)
        Cu            19.00    63.54600     Cu( 1.00)
        Se             6.00    78.97100     Se( 1.00)

      6 Sym. Ops. (no inversion) found

                                    s                        frac. trans.

      isym =  1     identity

 cryst.   s( 1) = (     1          0          0      )
                  (     0          1          0      )
                  (     0          0          1      )

 cart.    s( 1) = (  1.0000000  0.0000000  0.0000000 )
                  (  0.0000000  1.0000000  0.0000000 )
                  (  0.0000000  0.0000000  1.0000000 )

      isym =  2     120 deg rotation - cryst. axis [0,0,1]

[...]

      isym =  3     120 deg rotation - cryst. axis [0,0,-1]

[...]

      isym =  4     inv. 180 deg rotation - cart. axis [1,0,0]

[...]

      isym =  5     inv. 180 deg rotation - cryst. axis [0,1,0]

[...]

      isym =  6     inv. 180 deg rotation - cryst. axis [1,1,0]

 cryst.   s( 6) = (     0         -1          0      )
                  (    -1          0          0      )
                  (     0          0          1      )

 cart.    s( 6) = (  0.4999999 -0.8660254  0.0000000 )
                  ( -0.8660254 -0.4999999  0.0000000 )
                  (  0.0000000  0.0000000  1.0000000 )

   Cartesian axes

     site n.     atom                  positions (alat units)
         1           Lu  tau(   1) = (   0.0000000   0.0000000   1.2557736  )
         2           Cu  tau(   2) = (   0.5000005   0.2886749   0.2792229  )
         3           Se  tau(   3) = (  -0.0000004   0.5773506   0.1132845  )
         4           Se  tau(   4) = (   0.5000005   0.2886749   0.8912494  )

   Crystallographic axes

     site n.     atom                  positions (cryst. coord.)
         1           Lu  tau(   1) = (  0.0000000  0.0000000  0.8006790  )
         2           Cu  tau(   2) = (  0.6666670  0.3333330  0.1780320  )
         3           Se  tau(   3) = (  0.3333330  0.6666670  0.0722300  )
         4           Se  tau(   4) = (  0.6666670  0.3333330  0.5682590  )

     number of k points=     1  Methfessel-Paxton smearing, width (Ry)=  0.0010
                       cart. coord. in units 2pi/alat
        k(    1) = (   0.0000000   0.0000000   0.0000000), wk =   2.0000000

                       cryst. coord.
        k(    1) = (   0.0000000   0.0000000   0.0000000), wk =   2.0000000

     Initial potential from superposition of free atoms

     starting charge      54.9961, renormalised to      56.0000
     Starting wfcs are   53 randomized atomic wfcs
     Checking if some PAW data can be deallocated...

     Self-consistent Calculation

     iteration #  1     ecut=    30.00 Ry     beta= 0.70
     Davidson diagonalization with overlap

     ethr =  1.00E-02,  avg # of iterations =  2.0

     total energy              =   -1510.61709870 Ry
     estimated scf accuracy    <      51.07883078 Ry

[...]

     total energy              =   -1570.64828248 Ry
     estimated scf accuracy    <       0.00000204 Ry

     iteration # 20     ecut=    30.00 Ry     beta= 0.70
     Davidson diagonalization with overlap

     ethr =  3.64E-09,  avg # of iterations =  3.0

     End of self-consistent calculation

          k = 0.0000 0.0000 0.0000 (   857 PWs)   bands (ev):

  -102.1674 -59.6839 -59.5533 -59.5533 -46.6012 -17.5644 -17.0787 -17.0787
    -3.2357  -1.9836   4.8204   4.8564   4.8564   4.8797   4.8802   4.8802
     4.9926   5.0329   6.1473   6.1473   7.0470   7.3901   7.3901   8.2411
     8.2411  10.3104  10.3105  10.3111  11.1906  12.3222  12.3849  12.3849
    14.0077  14.0083

     occupation numbers
     1.0000   1.0000   1.0000   1.0000   1.0000   1.0000   1.0000   1.0000
     1.0000   1.0000   1.0000   1.0000   1.0000   1.0000   1.0000   1.0000
     1.0000   1.0000   1.0000   1.0000   1.0000   1.0000   1.0000   1.0000
     1.0000   1.0000   1.0000   1.0000  -0.0000  -0.0000  -0.0000  -0.0000
    -0.0000  -0.0000

     the Fermi energy is    10.5053 ev

!    total energy              =   -1570.64828282 Ry
     estimated scf accuracy    <       0.00000011 Ry
     smearing contrib. (-TS)   =       0.00000000 Ry
     internal energy E=F+TS    =   -1570.64828282 Ry

     The total energy is F=E-TS. E is the sum of the following terms:
     one-electron contribution =    -896.44014137 Ry
     hartree contribution      =     433.88518388 Ry
     xc contribution           =    -140.26398300 Ry
     ewald contribution        =    -477.15140598 Ry
     one-center paw contrib.   =    -490.67793634 Ry
      -> PAW hartree energy AE =     490.73573964 Ry
      -> PAW hartree energy PS =    -422.05283931 Ry
      -> PAW xc energy AE      =    -599.34374174 Ry
      -> PAW xc energy PS      =      39.98290507 Ry
      -> total E_H with PAW    =     502.56808421 Ry
      -> total E_XC with PAW   =    -699.62481968 Ry

     convergence has been achieved in  20 iterations

     Forces acting on atoms (cartesian axes, Ry/au):

     atom    1 type  1   force =     0.00000000    0.00000000   -0.10177283
     atom    2 type  2   force =     0.00000000    0.00000000    0.03758257
     atom    3 type  3   force =     0.00000000    0.00000000   -0.12439862
     atom    4 type  3   force =     0.00000000    0.00000000    0.18858887
     The non-local contrib.  to forces
     atom    1 type  1   force =     0.00000000    0.00000000   -0.11783380
     atom    2 type  2   force =     0.00000000    0.00000000   -0.48212317
     atom    3 type  3   force =     0.00000000    0.00000000    0.21629214
     atom    4 type  3   force =     0.00000000    0.00000000    0.03170067
     The ionic contribution  to forces
     atom    1 type  1   force =     0.00001231   -0.00000711  -23.63438510
     atom    2 type  2   force =    -0.00004225    0.00002439   24.14749301
     atom    3 type  3   force =     0.00004125   -0.00002382    4.83601590
     atom    4 type  3   force =    -0.00001131    0.00000653   -5.34912381
     The local contribution  to forces
     atom    1 type  1   force =    -0.00010797    0.00043354   23.64802225
     atom    2 type  2   force =     0.00007497   -0.00000652  -23.62706468
     atom    3 type  3   force =    -0.00002528   -0.00006994   -5.14867401
     atom    4 type  3   force =     0.00001744   -0.00008039    5.50749210
     The core correction contribution to forces
     atom    1 type  1   force =    -0.00000000    0.00000000    0.00000044
     atom    2 type  2   force =    -0.00000005    0.00000007    0.00061821
     atom    3 type  3   force =     0.00000403   -0.00000757   -0.02780411
     atom    4 type  3   force =     0.00000130   -0.00000829   -0.00103752
     The Hubbard contrib.    to forces
     atom    1 type  1   force =     0.00000000    0.00000000    0.00000000
     atom    2 type  2   force =     0.00000000    0.00000000    0.00000000
     atom    3 type  3   force =     0.00000000    0.00000000    0.00000000
     atom    4 type  3   force =     0.00000000    0.00000000    0.00000000
     The SCF correction term to forces
     atom    1 type  1   force =     0.00013307   -0.00054684    0.00279237
     atom    2 type  2   force =     0.00001443   -0.00005315   -0.00097182
     atom    3 type  3   force =    -0.00000002    0.00003583    0.00014045
     atom    4 type  3   force =    -0.00000132    0.00002518   -0.00007358

     Total force =     0.250621     Total SCF correction =     0.003015

     Computing stress (Cartesian axis) and pressure

          total   stress  (Ry/bohr**3)                   (kbar)     P=       55.25
   0.00086328  -0.00000000   0.00000000          126.99       -0.00        0.00
  -0.00000000   0.00086328   0.00000000           -0.00      126.99        0.00
   0.00000000   0.00000000  -0.00059974            0.00        0.00      -88.23

     kinetic stress (kbar)  13202.43     -0.00      0.00
                               -0.00  13202.42      0.00
                                0.00     -0.00  12888.65

     local   stress (kbar) -26751.67      0.01      0.01
                                0.01 -26751.58      0.01
                                0.01      0.01   1472.16

     nonloc. stress (kbar)  14998.42     -0.00     -0.00
                               -0.00  14998.42     -0.00
                                0.00      0.00  14668.09

     hartree stress (kbar)  38948.03     -0.01     -0.01
                               -0.01  38947.96     -0.01
                               -0.01     -0.01  25767.71

     exc-cor stress (kbar)   4952.70     -0.00      0.00
                               -0.00   4952.70     -0.00
                                0.00     -0.00   4950.86

     corecor stress (kbar) -12098.84      0.00     -0.00
                                0.00 -12098.84     -0.00
                               -0.00     -0.00 -12083.01

     ewald   stress (kbar) -33124.08      0.00     -0.01
                                0.00 -33124.08      0.00
                               -0.01      0.00 -47752.68

     hubbard stress (kbar)      0.00      0.00      0.00
                                0.00      0.00      0.00
                                0.00      0.00      0.00

     DFT-D   stress (kbar)      0.00      0.00      0.00
                                0.00      0.00      0.00
                                0.00      0.00      0.00

     XDM     stress (kbar)      0.00      0.00      0.00
                                0.00      0.00      0.00
                                0.00      0.00      0.00

     dft-nl  stress (kbar)      0.00      0.00      0.00
                                0.00      0.00      0.00
                                0.00      0.00      0.00

     TS-vdW  stress (kbar)      0.00      0.00      0.00
                                0.00      0.00      0.00
                                0.00      0.00      0.00

[...]

                                0.00      0.00      0.00

     Writing all to output data dir calculations/myprefix.save/

     General routines

     Parallel routines

     PAW routines

   This run was terminated on:  22:18:10   4Mar2023

   JOB DONE.