     Program PWSCF v.7.0 starts on  3Mar2023 at 11:14:49

     R & G space division:  proc/nbgrp/npool/nimage =      32

     Reading input from espresso_63.pwi
Warning: card &CELL ignored
Warning: card / ignored

     Current dimensions of program PWSCF are:
     Max number of different atomic species (ntypx) = 10
     Max number of k-points (npk) =  40000
     Max angular momentum in pseudopotentials (lmaxx) =  4

     gamma-point specific algorithms are used
     Message from routine setup:
     using ibrav=0 with symmetry is DISCOURAGED, use correct ibrav instead

     Using Slab Decomposition

     bravais-lattice index     =            0
     lattice parameter (alat)  =      16.5373  a.u.
     unit-cell volume          =    1005.8051 (a.u.)^3
     number of atoms/cell      =            6
     number of atomic types    =            3
     number of electrons       =       100.00
     number of Kohn-Sham states=           60
     kinetic-energy cutoff     =      30.0000  Ry
     charge density cutoff     =     240.0000  Ry
     scf convergence threshold =      1.0E-06
     mixing beta               =       0.7000
     number of iterations used =            8  plain     mixing
     Exchange-correlation=  SLA  PW   PBX  PBC
                           (   1   4   3   4   0   0   0)

     celldm(1)=  16.537315  celldm(2)=   0.000000  celldm(3)=   0.000000
     celldm(4)=   0.000000  celldm(5)=   0.000000  celldm(6)=   0.000000

     crystal axes: (cart. coord. in units of alat)
               a(1) = (   1.000000   0.000000   0.000000 )
               a(2) = (   0.763141   0.646232   0.000000 )
               a(3) = (  -0.881570  -0.323116   0.344136 )

     reciprocal axes: (cart. coord. in units 2 pi/alat)
               b(1) = (  1.000000 -1.180908  1.452914 )
               b(2) = (  0.000000  1.547431  1.452914 )
               b(3) = (  0.000000  0.000000  2.905827 )

     PseudoPot. # 1 for Tm read from file:
     /home/pragov/projects/rrg-bengioy-ad/pragov/crystal_structure_design/SSSP/Tm.GGA-PBE-paw-v1.0.UPF
     MD5 check sum: e502ddec747d736c64e0ed72ddfd7d4c
     Pseudo is Projector augmented-wave + core cor, Zval = 23.0
     Generated using ATOMPAW code
     Shape of augmentation charge: BESSEL
     Using radial grid of 1116 points,  8 beta functions with:
                l(1) =   0
                l(2) =   0
                l(3) =   1
                l(4) =   1
                l(5) =   2
                l(6) =   2
                l(7) =   3
                l(8) =   3
     Q(r) pseudized with 0 coefficients

     PseudoPot. # 2 for Zr read from file:
     /home/pragov/projects/rrg-bengioy-ad/pragov/crystal_structure_design/SSSP/Zr_pbe_v1.uspp.F.UPF
     MD5 check sum: 5db81b1e868ab7776c4564c113de050b
     Pseudo is Ultrasoft + core correction, Zval = 12.0
     Generated by new atomic code, or converted to UPF format
     Using radial grid of  887 points,  6 beta functions with:
                l(1) =   0
                l(2) =   0
                l(3) =   1
                l(4) =   1
                l(5) =   2
                l(6) =   2
     Q(r) pseudized with  6 coefficients,  rinner =    1.200   1.200   1.200
                                                       1.200   1.200

     PseudoPot. # 3 for Sb read from file:
     /home/pragov/projects/rrg-bengioy-ad/pragov/crystal_structure_design/SSSP/sb_pbe_v1.4.uspp.F.UPF
     MD5 check sum: 9bc50dfb53373b713f5709b9110fe27f
     Pseudo is Ultrasoft + core correction, Zval = 15.0
     Generated by new atomic code, or converted to UPF format
     Using radial grid of  891 points,  6 beta functions with:
                l(1) =   0
                l(2) =   0
                l(3) =   1
                l(4) =   1
                l(5) =   2
                l(6) =   2
     Q(r) pseudized with  8 coefficients,  rinner =    1.350   1.350   1.350
                                                       1.350   1.350

     atomic species   valence    mass     pseudopotential
        Tm            23.00   168.93422     Tm( 1.00)
        Zr            12.00    91.22400     Zr( 1.00)
        Sb            15.00   121.76000     Sb( 1.00)

      4 Sym. Ops., with inversion, found

                                    s                        frac. trans.

      isym =  1     identity

 cryst.   s( 1) = (     1          0          0      )
                  (     0          1          0      )
                  (     0          0          1      )

 cart.    s( 1) = (  1.0000000  0.0000000 -0.0000000 )
                  (  0.0000000  1.0000000 -0.0000000 )
                  (  0.0000000  0.0000000  1.0000000 )

      isym =  2     180 deg rotation - cart. axis [0,0,1]

[...]

      isym =  3     inversion

[...]

      isym =  4     inv. 180 deg rotation - cart. axis [0,0,1]

 cryst.   s( 4) = (     1          0          0      )
                  (     0          1          0      )
                  (    -1         -1         -1      )

 cart.    s( 4) = (  1.0000000  0.0000000 -0.0000000 )
                  (  0.0000000  1.0000000 -0.0000000 )
                  (  0.0000000  0.0000000 -1.0000000 )

   Cartesian axes

     site n.     atom                  positions (alat units)
         1           Tm  tau(   1) = (   0.5718500   0.2095964   0.0000000  )
         2           Tm  tau(   2) = (   1.1912907   0.4366359   0.0000000  )
         3           Zr  tau(   3) = (  -0.0592148   0.1615581   0.1720680  )
         4           Zr  tau(   4) = (   0.0592148  -0.1615581   0.1720680  )
         5           Sb  tau(   5) = (   0.2385653   0.0874398   0.0000000  )
         6           Sb  tau(   6) = (   1.5245755   0.5587926   0.0000000  )

   Crystallographic axes

     site n.     atom                  positions (cryst. coord.)
         1           Tm  tau(   1) = (  0.3243360  0.3243360  0.0000000  )
         2           Tm  tau(   2) = (  0.6756640  0.6756640  0.0000000  )
         3           Zr  tau(   3) = (  0.0000000  0.5000000  0.5000000  )
         4           Zr  tau(   4) = (  0.5000000  0.0000000  0.5000000  )
         5           Sb  tau(   5) = (  0.1353070  0.1353070  0.0000000  )
         6           Sb  tau(   6) = (  0.8646930  0.8646930  0.0000000  )

     number of k points=     1  Methfessel-Paxton smearing, width (Ry)=  0.0010
                       cart. coord. in units 2pi/alat
        k(    1) = (   0.0000000   0.0000000   0.0000000), wk =   2.0000000

                       cryst. coord.
        k(    1) = (   0.0000000   0.0000000   0.0000000), wk =   2.0000000

     Check: negative core charge=   -0.000004

     Initial potential from superposition of free atoms

     starting charge      97.9869, renormalised to     100.0000

     negative rho (up, down):  1.228E-01 0.000E+00
     Starting wfcs are  108 randomized atomic wfcs
     Checking if some PAW data can be deallocated...

     Self-consistent Calculation

     iteration #  1     ecut=    30.00 Ry     beta= 0.70
     Davidson diagonalization with overlap

     ethr =  1.00E-02,  avg # of iterations =  2.0

     negative rho (up, down):  1.138E-01 0.000E+00

     total energy              =   -2444.05255033 Ry
     estimated scf accuracy    <      15.12624572 Ry

[...]

     total energy              =   -2460.79514670 Ry
     estimated scf accuracy    <       0.00000147 Ry

     iteration # 99     ecut=    30.00 Ry     beta= 0.70
     Davidson diagonalization with overlap

     ethr =  1.47E-09,  avg # of iterations =  1.0

[...]

     End of self-consistent calculation

          k = 0.0000 0.0000 0.0000 (  1392 PWs)   bands (ev):

   -36.0925 -36.0852 -33.9027 -33.8932 -14.6731 -14.6720 -14.6415 -14.6380
   -14.6256 -14.5968 -14.5867 -14.5597 -14.3276 -14.2067 -12.3235 -12.2994
   -12.1983 -12.0970 -11.3537 -11.3448  -9.4933  -9.4816  -9.4472  -9.4281
    -9.3636  -9.2759   3.6083   4.4736   9.4033  11.9679  11.9737  12.0105
    12.0235  12.8240  12.8292  13.4358  13.4490  13.4506  13.5134  13.5481
    13.5942  13.6202  13.6228  13.6442  13.6463  13.6489  13.6869  13.7397
    13.8155  13.8168  13.8176  13.8251  14.3337  15.3949  15.4010  16.5464
    16.7271  16.9375  17.8125  17.8739

     occupation numbers
     1.0000   1.0000   1.0000   1.0000   1.0000   1.0000   1.0000   1.0000
     1.0000   1.0000   1.0000   1.0000   1.0000   1.0000   1.0000   1.0000
     1.0000   1.0000   1.0000   1.0000   1.0000   1.0000   1.0000   1.0000
     1.0000   1.0000   1.0000   1.0000   1.0000   1.0000   1.0000   1.0000
     1.0000   1.0000   1.0000   1.0000   1.0000   1.0000   1.0000   1.0000
     1.0000   1.0000   1.0000   1.0000   1.0000   1.0000   1.0000   1.0000
     0.6867   0.6095   0.5625   0.1413  -0.0000  -0.0000  -0.0000  -0.0000
    -0.0000  -0.0000  -0.0000  -0.0000

     the Fermi energy is    13.8186 ev

!    total energy              =   -2460.79514538 Ry
     estimated scf accuracy    <       0.00000097 Ry
     smearing contrib. (-TS)   =      -0.00090674 Ry
     internal energy E=F+TS    =   -2460.79423865 Ry

     The total energy is F=E-TS. E is the sum of the following terms:
     one-electron contribution =    -804.41314649 Ry
     hartree contribution      =     415.49444575 Ry
     xc contribution           =    -195.27400486 Ry
     ewald contribution        =    -901.80142290 Ry
     one-center paw contrib.   =    -974.80011014 Ry
      -> PAW hartree energy AE =     394.98222504 Ry
      -> PAW hartree energy PS =    -347.50148925 Ry
      -> PAW xc energy AE      =    -569.46669545 Ry
      -> PAW xc energy PS      =      34.58590458 Ry
      -> total E_H with PAW    =     462.97518154 Ry
      -> total E_XC with PAW   =    -730.15479573 Ry

     convergence has been achieved in  99 iterations

     negative rho (up, down):  1.160E-01 0.000E+00

     Forces acting on atoms (cartesian axes, Ry/au):

     atom    1 type  1   force =    -0.07542480   -0.02779367    0.00000000
     atom    2 type  1   force =     0.07542480    0.02779367   -0.00000000
     atom    3 type  2   force =     0.00000000    0.00000000    0.00000000
     atom    4 type  2   force =     0.00000000    0.00000000    0.00000000
     atom    5 type  3   force =    -0.12225121   -0.04276851    0.00000000
     atom    6 type  3   force =     0.12225121    0.04276851   -0.00000000
     The non-local contrib.  to forces
     atom    1 type  1   force =     0.06315880    0.02871149   -0.00000000
     atom    2 type  1   force =    -0.06315880   -0.02871149    0.00000000
     atom    3 type  2   force =     0.00000000    0.00000000    0.00000000
     atom    4 type  2   force =     0.00000000   -0.00000000   -0.00000000
     atom    5 type  3   force =     0.21648177    0.07914828   -0.00000000
     atom    6 type  3   force =    -0.21648177   -0.07914828    0.00000000
     The ionic contribution  to forces
     atom    1 type  1   force =     6.03802486    2.21307729    0.00000000
     atom    2 type  1   force =    -6.03802486   -2.21307729   -0.00000000
     atom    3 type  2   force =    -0.00000000   -0.00000000   -0.00000000
     atom    4 type  2   force =    -0.00000000   -0.00000000    0.00000000
     atom    5 type  3   force =    -7.39966647   -2.71215077    0.00000000
     atom    6 type  3   force =     7.39966647    2.71215077   -0.00000000
     The local contribution  to forces
     atom    1 type  1   force =    -6.17554559   -2.26945699    0.00179974
     atom    2 type  1   force =     6.17630612    2.26971461   -0.00195595
     atom    3 type  2   force =    -0.00017922   -0.00005495    0.00003042
     atom    4 type  2   force =    -0.00021237   -0.00006626   -0.00002903
     atom    5 type  3   force =     7.05615356    2.58857046   -0.00130901
     atom    6 type  3   force =    -7.05607840   -2.58868585    0.00128623
     The core correction contribution to forces
     atom    1 type  1   force =    -0.00000224   -0.00000090    0.00000003
     atom    2 type  1   force =     0.00000225    0.00000090   -0.00000003
     atom    3 type  2   force =    -0.00000102    0.00000010    0.00000025
     atom    4 type  2   force =     0.00000034    0.00000044   -0.00000004
     atom    5 type  3   force =     0.00316458    0.00106576   -0.00005608
     atom    6 type  3   force =    -0.00316414   -0.00106866    0.00005552
     The Hubbard contrib.    to forces
     atom    1 type  1   force =     0.00000000    0.00000000    0.00000000
     atom    2 type  1   force =     0.00000000    0.00000000    0.00000000
     atom    3 type  2   force =     0.00000000    0.00000000    0.00000000
     atom    4 type  2   force =     0.00000000    0.00000000    0.00000000
     atom    5 type  3   force =     0.00000000    0.00000000    0.00000000
     atom    6 type  3   force =     0.00000000    0.00000000    0.00000000
     The SCF correction term to forces
     atom    1 type  1   force =    -0.00104790   -0.00012266   -0.00084251
     atom    2 type  1   force =     0.00031283   -0.00013117    0.00101006
     atom    3 type  2   force =     0.00016200    0.00005808   -0.00002165
     atom    4 type  2   force =     0.00020774    0.00007027    0.00002478
     atom    5 type  3   force =     0.00162051    0.00059176    0.00022429
     atom    6 type  3   force =    -0.00168580   -0.00048546   -0.00020410

     Total force =     0.215573     Total SCF correction =     0.003030

     Computing stress (Cartesian axis) and pressure

     negative rho (up, down):  1.160E-01 0.000E+00
          total   stress  (Ry/bohr**3)                   (kbar)     P=      -96.44
  -0.00066341  -0.00000739   0.00000000          -97.59       -1.09        0.00
  -0.00000739  -0.00062652   0.00000000           -1.09      -92.16        0.00
   0.00000000   0.00000000  -0.00067683            0.00        0.00      -99.56

     kinetic stress (kbar)  16479.97   -147.41     -0.00
                             -147.41  16825.15     -0.00
                               -0.00     -0.00  16880.48

     local   stress (kbar)   7449.46   2557.91      3.43
                             2557.91   1408.58     -3.83
                                3.43     -3.83    465.34

     nonloc. stress (kbar)  11073.28     36.88     -0.00
                               36.88  10993.86     -0.00
                               -0.00     -0.00  10971.79

     hartree stress (kbar)  18238.31  -1189.10      0.69
                            -1189.10  21044.67      1.52
                                0.69      1.52  21485.59

     exc-cor stress (kbar)   1322.26     -3.16      0.00
                               -3.16   1329.62      0.06
                                0.00      0.06   1330.95

     corecor stress (kbar)  -8564.64      0.12      0.21
                                0.12  -8564.98     -0.55
                                0.21     -0.55  -8565.13

     ewald   stress (kbar) -46096.25  -1256.32     -0.00
                            -1256.32 -43129.06     -0.00
                               -0.00     -0.00 -42668.59

     hubbard stress (kbar)      0.00      0.00      0.00
                                0.00      0.00      0.00
                                0.00      0.00      0.00

     DFT-D   stress (kbar)      0.00      0.00      0.00
                                0.00      0.00      0.00
                                0.00      0.00      0.00

     XDM     stress (kbar)      0.00      0.00      0.00
                                0.00      0.00      0.00
                                0.00      0.00      0.00

     dft-nl  stress (kbar)      0.00      0.00      0.00
                                0.00      0.00      0.00
                                0.00      0.00      0.00

     TS-vdW  stress (kbar)      0.00      0.00      0.00
                                0.00      0.00      0.00
                                0.00      0.00      0.00

[...]

                                0.00      0.00      0.00

     Writing all to output data dir calculations/myprefix.save/

     General routines

     Parallel routines

     PAW routines

   This run was terminated on:  11:15:24   3Mar2023

   JOB DONE.