     Program PWSCF v.7.0 starts on  6Mar2023 at 13:14:57

     R & G space division:  proc/nbgrp/npool/nimage =      32

     Reading input from espresso_4733.pwi
Warning: card &CELL ignored
Warning: card / ignored

     Current dimensions of program PWSCF are:
     Max number of different atomic species (ntypx) = 10
     Max number of k-points (npk) =  40000
     Max angular momentum in pseudopotentials (lmaxx) =  4

     gamma-point specific algorithms are used
     Message from routine setup:
     using ibrav=0 with symmetry is DISCOURAGED, use correct ibrav instead

     Using Slab Decomposition

     bravais-lattice index     =            0
     lattice parameter (alat)  =      13.4530  a.u.
     unit-cell volume          =    1452.1929 (a.u.)^3
     number of atoms/cell      =           12
     number of atomic types    =            3
     number of electrons       =       112.00
     number of Kohn-Sham states=           67
     kinetic-energy cutoff     =      30.0000  Ry
     charge density cutoff     =     240.0000  Ry
     scf convergence threshold =      1.0E-06
     mixing beta               =       0.7000
     number of iterations used =            8  plain     mixing
     Exchange-correlation=  SLA  PW   PBX  PBC
                           (   1   4   3   4   0   0   0)

     celldm(1)=  13.453030  celldm(2)=   0.000000  celldm(3)=   0.000000
     celldm(4)=   0.000000  celldm(5)=   0.000000  celldm(6)=   0.000000

     crystal axes: (cart. coord. in units of alat)
               a(1) = (   1.000000   0.000000   0.000000 )
               a(2) = (   0.243632   0.969868   0.000000 )
               a(3) = (  -0.621816  -0.484934   0.614967 )

     reciprocal axes: (cart. coord. in units 2 pi/alat)
               b(1) = (  1.000000 -0.251202  0.813052 )
               b(2) = (  0.000000  1.031068  0.813052 )
               b(3) = (  0.000000  0.000000  1.626105 )

     PseudoPot. # 1 for Tl read from file:
     /home/pragov/projects/rrg-bengioy-ad/pragov/crystal_structure_design/SSSP/Tl_pbe_v1.2.uspp.F.UPF
     MD5 check sum: b76cf1f7e72655a2b2c53cf6385d7059
     Pseudo is Ultrasoft + core correction, Zval = 13.0
     Generated by new atomic code, or converted to UPF format
     Using radial grid of  899 points,  6 beta functions with:
                l(1) =   0
                l(2) =   0
                l(3) =   1
                l(4) =   1
                l(5) =   2
                l(6) =   2
     Q(r) pseudized with  6 coefficients,  rinner =    1.100   1.100   1.100
                                                       1.100   1.100

     PseudoPot. # 2 for Bi read from file:
     /home/pragov/projects/rrg-bengioy-ad/pragov/crystal_structure_design/SSSP/Bi_pbe_v1.uspp.F.UPF
     MD5 check sum: cceb9f28ec65b6d7ff33140f5b0b1758
     Pseudo is Ultrasoft + core correction, Zval = 15.0
     Generated by new atomic code, or converted to UPF format
     Using radial grid of  899 points,  6 beta functions with:
                l(1) =   0
                l(2) =   0
                l(3) =   1
                l(4) =   1
                l(5) =   2
                l(6) =   2
     Q(r) pseudized with  6 coefficients,  rinner =    1.000   1.000   1.000
                                                       1.000   1.000

     PseudoPot. # 3 for F  read from file:
     /home/pragov/projects/rrg-bengioy-ad/pragov/crystal_structure_design/SSSP/f_pbe_v1.4.uspp.F.UPF
     MD5 check sum: 4c38b6a325caf53ec0e86aed9459de46
     Pseudo is Ultrasoft, Zval =  7.0
     Generated by new atomic code, or converted to UPF format
     Using radial grid of  799 points,  4 beta functions with:
                l(1) =   0
                l(2) =   0
                l(3) =   1
                l(4) =   1
     Q(r) pseudized with  8 coefficients,  rinner =    0.950   0.950   0.950

     atomic species   valence    mass     pseudopotential
        Tl            13.00   204.38000     Tl( 1.00)
        Bi            15.00   208.98040     Bi( 1.00)
        F              7.00    18.99840     F ( 1.00)

      4 Sym. Ops., with inversion, found ( 2 have fractional translation)

                                    s                        frac. trans.

      isym =  1     identity

 cryst.   s( 1) = (     1          0          0      )
                  (     0          1          0      )
                  (     0          0          1      )

 cart.    s( 1) = (  1.0000000  0.0000000 -0.0000000 )
                  (  0.0000000  1.0000000 -0.0000000 )
                  (  0.0000000  0.0000000  1.0000000 )

      isym =  2     180 deg rotation - cart. axis [0,0,1]

 cryst.   s( 2) = (    -1          0          0      )
                  (     0         -1          0      )
                  (     1          1          1      )

 cart.    s( 2) = ( -1.0000000 -0.0000000  0.0000000 )
                  (  0.0000000 -1.0000000  0.0000000 )
                  (  0.0000000  0.0000000  1.0000000 )

      isym =  3     inversion

 cryst.   s( 3) = (    -1          0          0      )    f =(  0.2500000 )
                  (     0         -1          0      )       ( -0.2500000 )
                  (     0          0         -1      )       ( -0.5000000 )

 cart.    s( 3) = ( -1.0000000 -0.0000000  0.0000000 )    f =(  0.5000000 )
                  (  0.0000000 -1.0000000  0.0000000 )       (  0.0000000 )
                  (  0.0000000  0.0000000 -1.0000000 )       ( -0.3074833 )

      isym =  4     inv. 180 deg rotation - cart. axis [0,0,1]

 cryst.   s( 4) = (     1          0          0      )    f =(  0.2500000 )
                  (     0          1          0      )       ( -0.2500000 )
                  (    -1         -1         -1      )       ( -0.5000000 )

 cart.    s( 4) = (  1.0000000  0.0000000 -0.0000000 )    f =(  0.5000000 )
                  (  0.0000000  1.0000000 -0.0000000 )       ( -0.0000000 )
                  (  0.0000000  0.0000000 -1.0000000 )       ( -0.3074833 )

   Cartesian axes

     site n.     atom                  positions (alat units)
         1           Tl  tau(   1) = (   0.0000000   0.0000000   0.0000000  )
         2           Tl  tau(   2) = (   0.5000000   0.0000000   0.3074833  )
         3           Bi  tau(   3) = (   0.6218161   0.4849338   0.0000000  )
         4           Bi  tau(   4) = (   0.1218161   0.4849338   0.3074833  )
         5           F   tau(   5) = (   0.1365463   0.1454782   0.3382292  )
         6           F   tau(   6) = (   0.7961778   0.5819226   0.2767374  )
         7           F   tau(   7) = (   0.0147302  -0.3394556   0.5842207  )
         8           F   tau(   8) = (   0.9474544   0.3879451   0.0307459  )
         9           F   tau(   9) = (   0.2961778   0.5819226   0.0307459  )
        10           F   tau(  10) = (  -0.0147302   0.3394556   0.5842207  )
        11           F   tau(  11) = (  -0.1365463  -0.1454782   0.3382292  )
        12           F   tau(  12) = (   0.4474544   0.3879451   0.2767374  )

   Crystallographic axes

     site n.     atom                  positions (cryst. coord.)
         1           Tl  tau(   1) = (  0.0000000  0.0000000  0.0000000  )
         2           Tl  tau(   2) = (  0.7500000  0.2500000  0.5000000  )
         3           Bi  tau(   3) = (  0.5000000  0.5000000  0.0000000  )
         4           Bi  tau(   4) = (  0.2500000  0.7500000  0.5000000  )
         5           F   tau(   5) = (  0.3750000  0.4249960  0.5499960  )
         6           F   tau(   6) = (  0.8750000  0.8250040  0.4500040  )
         7           F   tau(   7) = (  0.5750040  0.1250000  0.9500040  )
         8           F   tau(   8) = (  0.8750000  0.4249960  0.0499960  )
         9           F   tau(   9) = (  0.1749960  0.6250000  0.0499960  )
        10           F   tau(  10) = (  0.3750000  0.8250040  0.9500040  )
        11           F   tau(  11) = (  0.1749960  0.1250000  0.5499960  )
        12           F   tau(  12) = (  0.5750040  0.6250000  0.4500040  )

     number of k points=     1  Methfessel-Paxton smearing, width (Ry)=  0.0010
                       cart. coord. in units 2pi/alat
        k(    1) = (   0.0000000   0.0000000   0.0000000), wk =   2.0000000

                       cryst. coord.
        k(    1) = (   0.0000000   0.0000000   0.0000000), wk =   2.0000000

     Check: negative core charge=   -0.000006

     Initial potential from superposition of free atoms

     starting charge     109.9902, renormalised to     112.0000

     negative rho (up, down):  1.851E-01 0.000E+00
     Starting wfcs are   68 randomized atomic wfcs

     Self-consistent Calculation

     iteration #  1     ecut=    30.00 Ry     beta= 0.70
     Davidson diagonalization with overlap

     ethr =  1.00E-02,  avg # of iterations =  2.0

     negative rho (up, down):  1.721E-01 0.000E+00

     total energy              =   -1049.31371379 Ry
     estimated scf accuracy    <       1.20583859 Ry

[...]

     total energy              =   -1049.89075283 Ry
     estimated scf accuracy    <       0.00000116 Ry

     iteration #  8     ecut=    30.00 Ry     beta= 0.70
     Davidson diagonalization with overlap

     ethr =  1.04E-09,  avg # of iterations =  6.0

[...]

     End of self-consistent calculation

          k = 0.0000 0.0000 0.0000 (  2022 PWs)   bands (ev):

   -17.3310 -17.3104 -17.3102 -17.1678 -17.1677 -17.0305 -17.0199 -17.0122
   -16.9838 -16.9771 -16.6742 -16.2350 -15.9157 -15.9153 -15.8206 -15.8200
   -15.7919 -15.5716  -4.9735  -3.5190  -3.3115  -3.3115  -3.2938  -3.2511
    -3.2263  -3.2245  -3.2168  -3.2156  -3.2155  -3.1808   0.5472   0.7658
     0.8112   0.8113   0.9563   1.0703   1.4398   1.4403   1.8791   1.8791
     1.9273   2.5035   2.5039   2.6624   2.6628   2.7052   2.8301   3.1306
     3.3188   3.3192   3.3474   3.4055   3.4435   4.2391   4.5967   5.0409
     8.7116   9.8211   9.8212  10.4858  10.4859  10.8662  11.2834  11.9679
    12.1704  12.1705  12.5286

     occupation numbers
     1.0000   1.0000   1.0000   1.0000   1.0000   1.0000   1.0000   1.0000
     1.0000   1.0000   1.0000   1.0000   1.0000   1.0000   1.0000   1.0000
     1.0000   1.0000   1.0000   1.0000   1.0000   1.0000   1.0000   1.0000
     1.0000   1.0000   1.0000   1.0000   1.0000   1.0000   1.0000   1.0000
     1.0000   1.0000   1.0000   1.0000   1.0000   1.0000   1.0000   1.0000
     1.0000   1.0000   1.0000   1.0000   1.0000   1.0000   1.0000   1.0000
     1.0000   1.0000   1.0000   1.0000   1.0000   1.0000   1.0000   1.0000
    -0.0000  -0.0000  -0.0000  -0.0000  -0.0000  -0.0000  -0.0000  -0.0000
    -0.0000  -0.0000  -0.0000

     the Fermi energy is     5.1317 ev

!    total energy              =   -1049.89075316 Ry
     estimated scf accuracy    <       0.00000058 Ry
     smearing contrib. (-TS)   =       0.00000000 Ry
     internal energy E=F+TS    =   -1049.89075316 Ry

     The total energy is F=E-TS. E is the sum of the following terms:
     one-electron contribution =    -371.74770899 Ry
     hartree contribution      =     261.90078344 Ry
     xc contribution           =    -328.37447047 Ry
     ewald contribution        =    -611.66935714 Ry

     convergence has been achieved in   8 iterations

     negative rho (up, down):  1.742E-01 0.000E+00

     Forces acting on atoms (cartesian axes, Ry/au):

     atom    1 type  1   force =     0.00000000    0.00000000   -0.00012627
     atom    2 type  1   force =     0.00000000    0.00000000    0.00012627
     atom    3 type  2   force =     0.00000000    0.00000000    0.00010232
     atom    4 type  2   force =     0.00000000    0.00000000   -0.00010232
     atom    5 type  3   force =    -0.00040921    0.00053295    0.00067088
     atom    6 type  3   force =     0.00041523   -0.00053820   -0.00068174
     atom    7 type  3   force =    -0.00040921    0.00053295   -0.00067088
     atom    8 type  3   force =    -0.00041523    0.00053820    0.00068174
     atom    9 type  3   force =     0.00041523   -0.00053820    0.00068174
     atom   10 type  3   force =     0.00040921   -0.00053295   -0.00067088
     atom   11 type  3   force =     0.00040921   -0.00053295    0.00067088
     atom   12 type  3   force =    -0.00041523    0.00053820   -0.00068174
     The non-local contrib.  to forces
     atom    1 type  1   force =     0.00000000    0.00000000   -0.00013322
     atom    2 type  1   force =     0.00000000    0.00000000    0.00013322
     atom    3 type  2   force =     0.00000000    0.00000000    0.00011800
     atom    4 type  2   force =     0.00000000    0.00000000   -0.00011800
     atom    5 type  3   force =    -0.13166452    0.16882609    0.21409064
     atom    6 type  3   force =     0.13166621   -0.16882864   -0.21411052
     atom    7 type  3   force =    -0.13166452    0.16882609   -0.21409064
     atom    8 type  3   force =    -0.13166621    0.16882864    0.21411052
     atom    9 type  3   force =     0.13166621   -0.16882864    0.21411052
     atom   10 type  3   force =     0.13166452   -0.16882609   -0.21409064
     atom   11 type  3   force =     0.13166452   -0.16882609    0.21409064
     atom   12 type  3   force =    -0.13166621    0.16882864   -0.21411052
     The ionic contribution  to forces
     atom    1 type  1   force =    -0.00000000   -0.00000000   -0.00000000
     atom    2 type  1   force =    -0.00000000    0.00000000    0.00000000
     atom    3 type  2   force =     0.00000000   -0.00000000   -0.00000000
     atom    4 type  2   force =     0.00000000    0.00000000   -0.00000000
     atom    5 type  3   force =     2.29737719   -2.94585780   -3.73577571
     atom    6 type  3   force =    -2.29737719    2.94585780    3.73577571
     atom    7 type  3   force =     2.29737719   -2.94585780    3.73577571
     atom    8 type  3   force =     2.29737719   -2.94585780   -3.73577571
     atom    9 type  3   force =    -2.29737719    2.94585780   -3.73577571
     atom   10 type  3   force =    -2.29737719    2.94585780    3.73577571
     atom   11 type  3   force =    -2.29737719    2.94585780   -3.73577571
     atom   12 type  3   force =     2.29737719   -2.94585780    3.73577571
     The local contribution  to forces
     atom    1 type  1   force =     0.00011533   -0.00052172   -0.00004226
     atom    2 type  1   force =     0.00052195   -0.00021160   -0.00039341
     atom    3 type  2   force =    -0.00056895   -0.00021256    0.00010145
     atom    4 type  2   force =    -0.00026254    0.00089376    0.00045784
     atom    5 type  3   force =    -2.16619352    2.77750749    3.52234435
     atom    6 type  3   force =     2.16622085   -2.77751675   -3.52224483
     atom    7 type  3   force =    -2.16627806    2.77753149   -3.52239137
     atom    8 type  3   force =    -2.16613414    2.77758579    3.52239022
     atom    9 type  3   force =     2.16622066   -2.77748506    3.52231725
     atom   10 type  3   force =     2.16606150   -2.77743895   -3.52232691
     atom   11 type  3   force =     2.16604636   -2.77770024    3.52235542
     atom   12 type  3   force =    -2.16599603    2.77761176   -3.52243501
     The core correction contribution to forces
     atom    1 type  1   force =     0.00000051   -0.00001918    0.00000098
     atom    2 type  1   force =     0.00000502   -0.00000413   -0.00000748
     atom    3 type  2   force =    -0.00000996   -0.00000545    0.00000171
     atom    4 type  2   force =    -0.00000326    0.00001311    0.00000634
     atom    5 type  3   force =     0.00000000    0.00000000    0.00000000
     atom    6 type  3   force =     0.00000000    0.00000000    0.00000000
     atom    7 type  3   force =     0.00000000    0.00000000    0.00000000
     atom    8 type  3   force =     0.00000000    0.00000000    0.00000000
     atom    9 type  3   force =     0.00000000    0.00000000    0.00000000
     atom   10 type  3   force =     0.00000000    0.00000000    0.00000000
     atom   11 type  3   force =     0.00000000    0.00000000    0.00000000
     atom   12 type  3   force =     0.00000000    0.00000000    0.00000000
     The Hubbard contrib.    to forces
     atom    1 type  1   force =     0.00000000    0.00000000    0.00000000
     atom    2 type  1   force =     0.00000000    0.00000000    0.00000000
     atom    3 type  2   force =     0.00000000    0.00000000    0.00000000
     atom    4 type  2   force =     0.00000000    0.00000000    0.00000000
     atom    5 type  3   force =     0.00000000    0.00000000    0.00000000
     atom    6 type  3   force =     0.00000000    0.00000000    0.00000000
     atom    7 type  3   force =     0.00000000    0.00000000    0.00000000
     atom    8 type  3   force =     0.00000000    0.00000000    0.00000000
     atom    9 type  3   force =     0.00000000    0.00000000    0.00000000
     atom   10 type  3   force =     0.00000000    0.00000000    0.00000000
     atom   11 type  3   force =     0.00000000    0.00000000    0.00000000
     atom   12 type  3   force =     0.00000000    0.00000000    0.00000000
     The SCF correction term to forces
     atom    1 type  1   force =    -0.00017508    0.00054940    0.00005992
     atom    2 type  1   force =    -0.00055210    0.00019980    0.00040561
     atom    3 type  2   force =     0.00061545    0.00019061   -0.00011729
     atom    4 type  2   force =     0.00027132   -0.00087205   -0.00044695
     atom    5 type  3   force =     0.00011302    0.00003534   -0.00000717
     atom    6 type  3   force =    -0.00010874   -0.00007103   -0.00014753
     atom    7 type  3   force =     0.00022035    0.00002752    0.00004423
     atom    8 type  3   force =     0.00000480   -0.00004534   -0.00007718
     atom    9 type  3   force =    -0.00011184   -0.00011200    0.00003164
     atom   10 type  3   force =     0.00011583   -0.00018972   -0.00006109
     atom   11 type  3   force =     0.00012561    0.00017211   -0.00000391
     atom   12 type  3   force =    -0.00015855   -0.00006761    0.00010158

     Total force =     0.002714     Total SCF correction =     0.001608
     SCF correction compared to forces is large: reduce conv_thr to get better values

     Computing stress (Cartesian axis) and pressure

     negative rho (up, down):  1.742E-01 0.000E+00
          total   stress  (Ry/bohr**3)                   (kbar)     P=      -70.96
  -0.00054109  -0.00009885   0.00000000          -79.60      -14.54        0.00
  -0.00009885  -0.00049158   0.00000000          -14.54      -72.31        0.00
   0.00000000   0.00000000  -0.00041448            0.00        0.00      -60.97

     kinetic stress (kbar)  13288.27    -51.01     -0.00
                              -51.01  13313.91     -0.00
                               -0.00     -0.00  13353.69

     local   stress (kbar)  -3902.99    769.94     -0.05
                              769.94  -4289.93     -0.05
                               -0.05     -0.05  -4890.34

     nonloc. stress (kbar)   8883.74    -22.05     -0.00
                              -22.05   8894.81     -0.00
                               -0.00     -0.00   8912.01

     hartree stress (kbar)   8707.52   -228.32      0.04
                             -228.32   8822.32      0.04
                                0.04      0.04   9000.35

     exc-cor stress (kbar)  13371.49     -1.45     -0.00
                               -1.45  13372.22     -0.00
                               -0.00     -0.00  13373.35

     corecor stress (kbar) -19486.95      0.68     -0.00
                                0.68 -19487.29      0.00
                               -0.00      0.00 -19487.82

     ewald   stress (kbar) -20940.68   -482.33     -0.00
                             -482.33 -20698.36     -0.00
                               -0.00     -0.00 -20322.21

     hubbard stress (kbar)      0.00      0.00      0.00
                                0.00      0.00      0.00
                                0.00      0.00      0.00

     DFT-D   stress (kbar)      0.00      0.00      0.00
                                0.00      0.00      0.00
                                0.00      0.00      0.00

     XDM     stress (kbar)      0.00      0.00      0.00
                                0.00      0.00      0.00
                                0.00      0.00      0.00

     dft-nl  stress (kbar)      0.00      0.00      0.00
                                0.00      0.00      0.00
                                0.00      0.00      0.00

     TS-vdW  stress (kbar)      0.00      0.00      0.00
                                0.00      0.00      0.00
                                0.00      0.00      0.00

[...]

                                0.00      0.00      0.00

     Writing all to output data dir calculations/myprefix.save/

     General routines

     Parallel routines

   This run was terminated on:  13:15: 0   6Mar2023

   JOB DONE.