     Program PWSCF v.7.0 starts on  6Mar2023 at 12:28:21

     R & G space division:  proc/nbgrp/npool/nimage =      32

     Reading input from espresso_4606.pwi
Warning: card &CELL ignored
Warning: card / ignored

     Current dimensions of program PWSCF are:
     Max number of different atomic species (ntypx) = 10
     Max number of k-points (npk) =  40000
     Max angular momentum in pseudopotentials (lmaxx) =  4
     file K.pbe-spn-kjpaw_psl.1.0.0.UPF: wavefunction(s)  3S renormalized
     file Pb.pbe-dn-kjpaw_psl.0.2.2.UPF: wavefunction(s)  6S renormalized

     gamma-point specific algorithms are used
     Message from routine setup:
     using ibrav=0 with symmetry is DISCOURAGED, use correct ibrav instead

     Using Slab Decomposition

     bravais-lattice index     =            0
     lattice parameter (alat)  =      12.7622  a.u.
     unit-cell volume          =    2968.5404 (a.u.)^3
     number of atoms/cell      =           12
     number of atomic types    =            2
     number of electrons       =       148.00
     number of Kohn-Sham states=           89
     kinetic-energy cutoff     =      30.0000  Ry
     charge density cutoff     =     240.0000  Ry
     scf convergence threshold =      1.0E-06
     mixing beta               =       0.7000
     number of iterations used =            8  plain     mixing
     Exchange-correlation= SLA  PW   PBX  PBC
                           (   1   4   3   4   0   0   0)

     celldm(1)=  12.762183  celldm(2)=   0.000000  celldm(3)=   0.000000
     celldm(4)=   0.000000  celldm(5)=   0.000000  celldm(6)=   0.000000

     crystal axes: (cart. coord. in units of alat)
               a(1) = (   1.000000   0.000000   0.000000 )
               a(2) = (  -0.500000   0.866025   0.000000 )
               a(3) = (   0.000000   0.000000   1.649064 )

     reciprocal axes: (cart. coord. in units 2 pi/alat)
               b(1) = (  1.000000  0.577350  0.000000 )
               b(2) = (  0.000000  1.154701  0.000000 )
               b(3) = (  0.000000  0.000000  0.606405 )

     PseudoPot. # 1 for K  read from file:
     /home/pragov/projects/rrg-bengioy-ad/pragov/crystal_structure_design/SSSP/K.pbe-spn-kjpaw_psl.1.0.0.UPF
     MD5 check sum: 7d58810084cac21f60fbe77ea2b688fd
     Pseudo is Projector augmented-wave + core cor, Zval =  9.0
     Generated using "atomic" code by A. Dal Corso  v.5.1
     Shape of augmentation charge: PSQ
     Using radial grid of 1165 points,  6 beta functions with:
                l(1) =   0
                l(2) =   0
                l(3) =   1
                l(4) =   1
                l(5) =   2
                l(6) =   2
     Q(r) pseudized with 0 coefficients

     PseudoPot. # 2 for Pb read from file:
     /home/pragov/projects/rrg-bengioy-ad/pragov/crystal_structure_design/SSSP/Pb.pbe-dn-kjpaw_psl.0.2.2.UPF
     MD5 check sum: 9d431e6316058b74ade52399a6cf67da
     Pseudo is Projector augmented-wave + core cor, Zval = 14.0
     Generated using "atomic" code by A. Dal Corso  v.5.0.99 svn rev. 10869
     Shape of augmentation charge: PSQ
     Using radial grid of 1281 points,  6 beta functions with:
                l(1) =   0
                l(2) =   0
                l(3) =   1
                l(4) =   1
                l(5) =   2
                l(6) =   2
     Q(r) pseudized with 0 coefficients

     atomic species   valence    mass     pseudopotential
        K              9.00    39.09830     K ( 1.00)
        Pb            14.00   207.20000     Pb( 1.00)

     24 Sym. Ops., with inversion, found (12 have fractional translation)

                                    s                        frac. trans.

      isym =  1     identity

 cryst.   s( 1) = (     1          0          0      )
                  (     0          1          0      )
                  (     0          0          1      )

 cart.    s( 1) = (  1.0000000 -0.0000000  0.0000000 )
                  (  0.0000000  1.0000000  0.0000000 )
                  (  0.0000000  0.0000000  1.0000000 )

      isym =  2     180 deg rotation - cart. axis [0,0,1]

 cryst.   s( 2) = (    -1          0          0      )    f =(  0.0000000 )
                  (     0         -1          0      )       (  0.0000000 )
                  (     0          0          1      )       ( -0.5000000 )

 cart.    s( 2) = ( -1.0000000  0.0000000  0.0000000 )    f =(  0.0000000 )
                  (  0.0000000 -1.0000000  0.0000000 )       (  0.0000000 )
                  (  0.0000000  0.0000000  1.0000000 )       ( -0.8245319 )

[...]

      isym =  4     180 deg rotation - cart. axis [1,0,0]

[...]

      isym =  5      60 deg rotation - cryst. axis [0,0,1]

[...]

 cryst.   s( 8) = (    -1         -1          0      )
                  (     1          0          0      )
                  (     0          0          1      )

 cart.    s( 8) = ( -0.4999999  0.8660254  0.0000000 )
                  ( -0.8660254 -0.5000001  0.0000000 )
                  (  0.0000000  0.0000000  1.0000000 )

[...]

 cryst.   s( 9) = (     0         -1          0      )    f =(  0.0000000 )
                  (    -1          0          0      )       (  0.0000000 )
                  (     0          0         -1      )       (  0.5000000 )

 cart.    s( 9) = (  0.5000001 -0.8660254  0.0000000 )    f =(  0.0000000 )
                  ( -0.8660254 -0.5000001  0.0000000 )       (  0.0000000 )
                  (  0.0000000  0.0000000 -1.0000000 )       (  0.8245319 )

[...]

 cryst.   s(10) = (     1          1          0      )    f =(  0.0000000 )
                  (     0         -1          0      )       ( -0.0000010 )
                  (     0          0         -1      )       (  0.5000000 )

 cart.    s(10) = (  0.4999999  0.8660255  0.0000000 )    f =(  0.0000005 )
                  (  0.8660254 -0.4999999  0.0000000 )       ( -0.0000009 )
                  (  0.0000000  0.0000000 -1.0000000 )       (  0.8245319 )

[...]

 cryst.   s(11) = (    -1         -1          0      )
                  (     0          1          0      )
                  (     0          0         -1      )

 cart.    s(11) = ( -0.4999999 -0.8660255  0.0000000 )
                  ( -0.8660254  0.4999999  0.0000000 )
                  (  0.0000000  0.0000000 -1.0000000 )

      isym = 12     180 deg rotation - cryst. axis [1,1,0]

[...]

      isym = 13     inversion

[...]

      isym = 14     inv. 180 deg rotation - cart. axis [0,0,1]

[...]

      isym = 16     inv. 180 deg rotation - cart. axis [1,0,0]

[...]

      isym = 17     inv.  60 deg rotation - cryst. axis [0,0,1]

[...]

 cryst.   s(22) = (    -1         -1          0      )    f =(  0.0000000 )
                  (     0          1          0      )       ( -0.0000010 )
                  (     0          0          1      )       ( -0.5000000 )

 cart.    s(22) = ( -0.4999999 -0.8660255  0.0000000 )    f =(  0.0000005 )
                  ( -0.8660254  0.4999999  0.0000000 )       ( -0.0000009 )
                  (  0.0000000  0.0000000  1.0000000 )       ( -0.8245319 )

[...]

      isym = 24     inv. 180 deg rotation - cryst. axis [1,1,0]

 cryst.   s(24) = (     0         -1          0      )
                  (    -1          0          0      )
                  (     0          0          1      )

 cart.    s(24) = (  0.5000001 -0.8660254  0.0000000 )
                  ( -0.8660254 -0.5000001  0.0000000 )
                  (  0.0000000  0.0000000  1.0000000 )

   Cartesian axes

     site n.     atom                  positions (alat units)
         1           K   tau(   1) = (  -0.0000005   0.5773505   0.1046529  )
         2           K   tau(   2) = (   0.5000005   0.2886748   0.9291847  )
         3           K   tau(   3) = (   0.5000005   0.2886748   1.5444108  )
         4           K   tau(   4) = (  -0.0000005   0.5773505   0.7198790  )
         5           Pb  tau(   5) = (   0.0000000   0.0000000   0.0000000  )
         6           Pb  tau(   6) = (   0.0000000   0.0000000   0.8245319  )
         7           Pb  tau(   7) = (   0.5000000   0.5792930   0.4122659  )
         8           Pb  tau(   8) = (  -0.2516826   0.7226592   1.2367978  )
         9           Pb  tau(   9) = (   0.2516824   0.7226592   1.2367978  )
        10           Pb  tau(  10) = (   0.2483175   0.1433662   0.4122659  )
        11           Pb  tau(  11) = (   0.7516825   0.1433662   0.4122659  )
        12           Pb  tau(  12) = (  -0.0000000   0.2867323   1.2367978  )

   Crystallographic axes

     site n.     atom                  positions (cryst. coord.)
         1           K   tau(   1) = (  0.3333330  0.6666670  0.0634620  )
         2           K   tau(   2) = (  0.6666670  0.3333330  0.5634620  )
         3           K   tau(   3) = (  0.6666670  0.3333330  0.9365380  )
         4           K   tau(   4) = (  0.3333330  0.6666670  0.4365380  )
         5           Pb  tau(   5) = (  0.0000000  0.0000000  0.0000000  )
         6           Pb  tau(   6) = (  0.0000000  0.0000000  0.5000000  )
         7           Pb  tau(   7) = (  0.8344550  0.6689100  0.2500000  )
         8           Pb  tau(   8) = (  0.1655450  0.8344550  0.7500000  )
         9           Pb  tau(   9) = (  0.6689100  0.8344550  0.7500000  )
        10           Pb  tau(  10) = (  0.3310900  0.1655450  0.2500000  )
        11           Pb  tau(  11) = (  0.8344550  0.1655450  0.2500000  )
        12           Pb  tau(  12) = (  0.1655450  0.3310900  0.7500000  )

     number of k points=     1  Methfessel-Paxton smearing, width (Ry)=  0.0010
                       cart. coord. in units 2pi/alat
        k(    1) = (   0.0000000   0.0000000   0.0000000), wk =   2.0000000

                       cryst. coord.
        k(    1) = (   0.0000000   0.0000000   0.0000000), wk =   2.0000000

     Check: negative core charge=   -0.000002

     Initial potential from superposition of free atoms

     starting charge     147.9059, renormalised to     148.0000
     Starting wfcs are  104 randomized atomic wfcs
     Checking if some PAW data can be deallocated...

     Self-consistent Calculation

     iteration #  1     ecut=    30.00 Ry     beta= 0.70
     Davidson diagonalization with overlap

     ethr =  1.00E-02,  avg # of iterations =  4.0

     Threshold (ethr) on eigenvalues was too large:
     Diagonalizing with lowered threshold

     Davidson diagonalization with overlap

[...]

     total energy              =   -7417.07163535 Ry
     estimated scf accuracy    <       0.17583359 Ry

[...]

     total energy              =   -7417.12230245 Ry
     estimated scf accuracy    <       0.00000214 Ry

     iteration # 11     ecut=    30.00 Ry     beta= 0.70
     Davidson diagonalization with overlap

     ethr =  1.45E-09,  avg # of iterations =  3.0

     End of self-consistent calculation

          k = 0.0000 0.0000 0.0000 (  4117 PWs)   bands (ev):

   -23.9248 -23.9216 -23.9144 -23.9112  -9.6689  -9.6628  -9.6628  -9.6596
    -9.6596  -9.6507  -9.6328  -9.6327  -9.6289  -9.6289  -9.1925  -9.1892
    -9.1188  -9.0964  -9.0964  -9.0886  -9.0886  -9.0823  -9.0320  -9.0320
    -9.0148  -9.0147  -9.0016  -8.9991  -8.9398  -8.9395  -8.9357  -8.9357
    -8.9214  -8.9213  -8.9192  -8.9191  -8.8978  -8.8978  -8.7830  -8.7829
    -8.7823  -8.7823  -8.6456  -8.6455  -7.4588  -7.4585  -7.4585  -7.4451
    -7.4451  -7.4439  -7.3939  -7.3920  -7.3910  -7.3910  -7.3808  -7.3808
    -2.9187  -2.1532  -1.3064   0.0511   0.5121   0.5121   0.6705   0.6706
     4.1353   4.7743   5.0451   5.7309   5.7309   5.7835   5.7835   6.0691
     6.0691   6.5553   8.0166   8.0166   8.1678   8.1678   9.0969   9.6364
     9.8606  10.6719  10.9314  10.9314  11.2017  11.2629  11.2629  11.3021
    11.3021

     occupation numbers
     1.0000   1.0000   1.0000   1.0000   1.0000   1.0000   1.0000   1.0000
     1.0000   1.0000   1.0000   1.0000   1.0000   1.0000   1.0000   1.0000
     1.0000   1.0000   1.0000   1.0000   1.0000   1.0000   1.0000   1.0000
     1.0000   1.0000   1.0000   1.0000   1.0000   1.0000   1.0000   1.0000
     1.0000   1.0000   1.0000   1.0000   1.0000   1.0000   1.0000   1.0000
     1.0000   1.0000   1.0000   1.0000   1.0000   1.0000   1.0000   1.0000
     1.0000   1.0000   1.0000   1.0000   1.0000   1.0000   1.0000   1.0000
     1.0000   1.0000   1.0000   1.0000   1.0000   1.0000   1.0000   1.0000
     1.0000   1.0000   1.0000   1.0000   1.0000   1.0000   1.0000   1.0000
     1.0000   1.0000  -0.0000  -0.0000  -0.0000  -0.0000  -0.0000  -0.0000
    -0.0000  -0.0000  -0.0000  -0.0000  -0.0000  -0.0000  -0.0000  -0.0000
    -0.0000

     the Fermi energy is     7.0008 ev

!    total energy              =   -7417.12230266 Ry

     total all-electron energy =   -338930.304875 Ry
     estimated scf accuracy    <       0.00000022 Ry
     smearing contrib. (-TS)   =       0.00000000 Ry
     internal energy E=F+TS    =   -7417.12230266 Ry

     The total energy is F=E-TS. E is the sum of the following terms:
     one-electron contribution =    -472.96348973 Ry
     hartree contribution      =     334.25153500 Ry
     xc contribution           =    -400.03618238 Ry
     ewald contribution        =    -828.91289034 Ry
     one-center paw contrib.   =   -6049.46127521 Ry
      -> PAW hartree energy AE =      37.68080646 Ry
      -> PAW hartree energy PS =     -37.47073494 Ry
      -> PAW xc energy AE      =     -66.21404983 Ry
      -> PAW xc energy PS      =      10.58721566 Ry
      -> total E_H with PAW    =     334.46160653 Ry
      -> total E_XC with PAW   =    -455.66301655 Ry

     convergence has been achieved in  11 iterations

     Forces acting on atoms (cartesian axes, Ry/au):

     atom    1 type  1   force =     0.00000000   -0.00000000    0.00341628
     atom    2 type  1   force =     0.00000000   -0.00000000    0.00341628
     atom    3 type  1   force =     0.00000000    0.00000000   -0.00341628
     atom    4 type  1   force =     0.00000000    0.00000000   -0.00341628
     atom    5 type  2   force =     0.00000000    0.00000000    0.00000000
     atom    6 type  2   force =     0.00000000    0.00000000    0.00000000
     atom    7 type  2   force =     0.00000000   -0.01304696    0.00000000
     atom    8 type  2   force =     0.01129900   -0.00652348    0.00000000
     atom    9 type  2   force =    -0.01129900   -0.00652348    0.00000000
     atom   10 type  2   force =     0.01129900    0.00652348   -0.00000000
     atom   11 type  2   force =    -0.01129900    0.00652348   -0.00000000
     atom   12 type  2   force =    -0.00000000    0.01304696   -0.00000000
     The non-local contrib.  to forces
     atom    1 type  1   force =    -0.00000000   -0.00000000    0.05535730
     atom    2 type  1   force =     0.00000000   -0.00000000    0.05535730
     atom    3 type  1   force =     0.00000000    0.00000000   -0.05535730
     atom    4 type  1   force =     0.00000000    0.00000000   -0.05535730
     atom    5 type  2   force =     0.00000000   -0.00000000    0.00000000
     atom    6 type  2   force =    -0.00000000   -0.00000000    0.00000000
     atom    7 type  2   force =    -0.00000000    0.03301383    0.00000000
     atom    8 type  2   force =    -0.02859081    0.01650691   -0.00000000
     atom    9 type  2   force =     0.02859081    0.01650692   -0.00000000
     atom   10 type  2   force =    -0.02859081   -0.01650692   -0.00000000
     atom   11 type  2   force =     0.02859081   -0.01650691    0.00000000
     atom   12 type  2   force =    -0.00000000   -0.03301383   -0.00000000
     The ionic contribution  to forces
     atom    1 type  1   force =     0.00002611   -0.00001508   -0.27733803
     atom    2 type  1   force =    -0.00002611    0.00001508   -0.27733803
     atom    3 type  1   force =    -0.00002611    0.00001508    0.27733803
     atom    4 type  1   force =     0.00002611   -0.00001508    0.27733803
     atom    5 type  2   force =    -0.00000000   -0.00000000   -0.00000000
     atom    6 type  2   force =    -0.00000000   -0.00000000    0.00000000
     atom    7 type  2   force =    -0.00002191   -4.97232781    0.00000000
     atom    8 type  2   force =     4.30615207   -2.48615783    0.00000000
     atom    9 type  2   force =    -4.30615104   -2.48618322    0.00000000
     atom   10 type  2   force =     4.30615104    2.48618322    0.00000000
     atom   11 type  2   force =    -4.30615207    2.48615783    0.00000000
     atom   12 type  2   force =     0.00002191    4.97232781    0.00000000
     The local contribution  to forces
     atom    1 type  1   force =    -0.00003716   -0.00000889    0.22689600
     atom    2 type  1   force =    -0.00002151   -0.00004626    0.22698503
     atom    3 type  1   force =    -0.00000987   -0.00002962   -0.22677381
     atom    4 type  1   force =    -0.00003067   -0.00002207   -0.22707971
     atom    5 type  2   force =     0.00014706    0.00017798    0.00012779
     atom    6 type  2   force =     0.00014782    0.00017121   -0.00016309
     atom    7 type  2   force =     0.00003454    4.92489700   -0.00018078
     atom    8 type  2   force =    -4.26503665    2.46253312    0.00021516
     atom    9 type  2   force =     4.26504195    2.46247042    0.00023016
     atom   10 type  2   force =    -4.26513267   -2.46250105   -0.00018289
     atom   11 type  2   force =     4.26511210   -2.46243124   -0.00019530
     atom   12 type  2   force =     0.00004537   -4.92490865    0.00020345
     The core correction contribution to forces
     atom    1 type  1   force =    -0.00000007    0.00000007   -0.00156072
     atom    2 type  1   force =     0.00000004    0.00000027   -0.00155867
     atom    3 type  1   force =     0.00000018    0.00000045    0.00156090
     atom    4 type  1   force =     0.00000030   -0.00000014    0.00155914
     atom    5 type  2   force =     0.00000333    0.00000402    0.00000021
     atom    6 type  2   force =     0.00000217    0.00000327   -0.00000135
     atom    7 type  2   force =    -0.00000035    0.00100573   -0.00000096
     atom    8 type  2   force =    -0.00086982    0.00050418    0.00000084
     atom    9 type  2   force =     0.00087129    0.00050372    0.00000178
     atom   10 type  2   force =    -0.00087207   -0.00050384   -0.00000092
     atom   11 type  2   force =     0.00087292   -0.00050315   -0.00000207
     atom   12 type  2   force =     0.00000118   -0.00100668    0.00000057
     The Hubbard contrib.    to forces
     atom    1 type  1   force =     0.00000000    0.00000000    0.00000000
     atom    2 type  1   force =     0.00000000    0.00000000    0.00000000
     atom    3 type  1   force =     0.00000000    0.00000000    0.00000000
     atom    4 type  1   force =     0.00000000    0.00000000    0.00000000
     atom    5 type  2   force =     0.00000000    0.00000000    0.00000000
     atom    6 type  2   force =     0.00000000    0.00000000    0.00000000
     atom    7 type  2   force =     0.00000000    0.00000000    0.00000000
     atom    8 type  2   force =     0.00000000    0.00000000    0.00000000
     atom    9 type  2   force =     0.00000000    0.00000000    0.00000000
     atom   10 type  2   force =     0.00000000    0.00000000    0.00000000
     atom   11 type  2   force =     0.00000000    0.00000000    0.00000000
     atom   12 type  2   force =     0.00000000    0.00000000    0.00000000
     The SCF correction term to forces
     atom    1 type  1   force =     0.00001320    0.00002396    0.00007214
     atom    2 type  1   force =     0.00004609    0.00003568   -0.00001311
     atom    3 type  1   force =     0.00004130    0.00002927   -0.00015430
     atom    4 type  1   force =     0.00001350    0.00003438    0.00012036
     atom    5 type  2   force =    -0.00017393   -0.00020244   -0.00010920
     atom    6 type  2   force =    -0.00016704   -0.00019328    0.00015956
     atom    7 type  2   force =    -0.00001939    0.00037692    0.00021134
     atom    8 type  2   force =    -0.00034723    0.00006704   -0.00026826
     atom    9 type  2   force =     0.00035746    0.00017619   -0.00028764
     atom   10 type  2   force =    -0.00025832   -0.00014543    0.00024103
     atom   11 type  2   force =     0.00028237   -0.00020292    0.00023453
     atom   12 type  2   force =    -0.00008511   -0.00034135   -0.00025002

     Total force =     0.032681     Total SCF correction =     0.001166

     Computing stress (Cartesian axis) and pressure

          total   stress  (Ry/bohr**3)                   (kbar)     P=      -27.94
  -0.00016168  -0.00000000   0.00000000          -23.78       -0.00        0.00
  -0.00000000  -0.00016168   0.00000000           -0.00      -23.78        0.00
   0.00000000   0.00000000  -0.00024640            0.00        0.00      -36.25

     kinetic stress (kbar)  11271.71      0.00      0.00
                                0.00  11271.71      0.00
                                0.00      0.00  11188.28

     local   stress (kbar)   -736.23      0.01     -0.00
                                0.01   -736.21      0.00
                               -0.00      0.00   -870.22

     nonloc. stress (kbar)   1539.65      0.00      0.00
                                0.00   1539.65      0.00
                                0.00     -0.00   1478.39

     hartree stress (kbar)   5511.13     -0.00      0.00
                               -0.00   5511.12     -0.00
                                0.00     -0.00   5541.47

     exc-cor stress (kbar)   8052.03     -0.00      0.00
                               -0.00   8052.03     -0.00
                                0.00     -0.00   8049.51

     corecor stress (kbar) -11891.25     -0.00     -0.00
                               -0.00 -11891.25     -0.00
                               -0.00     -0.00 -11888.83

     ewald   stress (kbar) -13770.83     -0.01      0.00
                               -0.01 -13770.84     -0.00
                                0.00     -0.00 -13534.85

     hubbard stress (kbar)      0.00      0.00      0.00
                                0.00      0.00      0.00
                                0.00      0.00      0.00

     DFT-D   stress (kbar)      0.00      0.00      0.00
                                0.00      0.00      0.00
                                0.00      0.00      0.00

     XDM     stress (kbar)      0.00      0.00      0.00
                                0.00      0.00      0.00
                                0.00      0.00      0.00

     dft-nl  stress (kbar)      0.00      0.00      0.00
                                0.00      0.00      0.00
                                0.00      0.00      0.00

     TS-vdW  stress (kbar)      0.00      0.00      0.00
                                0.00      0.00      0.00
                                0.00      0.00      0.00

[...]

                                0.00      0.00      0.00

     Writing all to output data dir calculations/myprefix.save/

     General routines

     Parallel routines

     PAW routines

   This run was terminated on:  12:28:26   6Mar2023

   JOB DONE.