     Program PWSCF v.7.0 starts on  3Mar2023 at 15:27:30

     R & G space division:  proc/nbgrp/npool/nimage =      32

     Reading input from espresso_756.pwi
Warning: card &CELL ignored
Warning: card / ignored

     Current dimensions of program PWSCF are:
     Max number of different atomic species (ntypx) = 10
     Max number of k-points (npk) =  40000
     Max angular momentum in pseudopotentials (lmaxx) =  4
     file Ba.pbe-spn-kjpaw_psl.1.0.0.UPF: wavefunction(s)  5S 6S renormalized
     file Pb.pbe-dn-kjpaw_psl.0.2.2.UPF: wavefunction(s)  6S renormalized
     file O.pbe-n-kjpaw_psl.0.1.UPF: wavefunction(s)  2P renormalized

     gamma-point specific algorithms are used
     Message from routine setup:
     using ibrav=0 with symmetry is DISCOURAGED, use correct ibrav instead

     Using Slab Decomposition

     bravais-lattice index     =            0
     lattice parameter (alat)  =      11.7624  a.u.
     unit-cell volume          =    2306.3918 (a.u.)^3
     number of atoms/cell      =           20
     number of atomic types    =            4
     number of electrons       =       171.00
     number of Kohn-Sham states=          103
     kinetic-energy cutoff     =      30.0000  Ry
     charge density cutoff     =     240.0000  Ry
     scf convergence threshold =      1.0E-06
     mixing beta               =       0.7000
     number of iterations used =            8  plain     mixing
     Exchange-correlation= SLA  PW   PBX  PBC
                           (   1   4   3   4   0   0   0)

     celldm(1)=  11.762394  celldm(2)=   0.000000  celldm(3)=   0.000000
     celldm(4)=   0.000000  celldm(5)=   0.000000  celldm(6)=   0.000000

     crystal axes: (cart. coord. in units of alat)
               a(1) = (   1.000000   0.000000   0.000000 )
               a(2) = (   0.499570   0.866273   0.000000 )
               a(3) = (   0.489341   0.282683   1.636029 )

     reciprocal axes: (cart. coord. in units 2 pi/alat)
               b(1) = (  1.000000 -0.576689 -0.199459 )
               b(2) = (  0.000000  1.154370 -0.199459 )
               b(3) = (  0.000000  0.000000  0.611236 )

     PseudoPot. # 1 for Ba read from file:
     /home/pragov/projects/rrg-bengioy-ad/pragov/crystal_structure_design/SSSP/Ba.pbe-spn-kjpaw_psl.1.0.0.UPF
     MD5 check sum: c432291d3e53af55f19d5e8866385beb
     Pseudo is Projector augmented-wave + core cor, Zval = 10.0
     Generated using "atomic" code by A. Dal Corso  v.5.1
     Shape of augmentation charge: PSQ
     Using radial grid of 1251 points,  7 beta functions with:
                l(1) =   0
                l(2) =   0
                l(3) =   0
                l(4) =   1
                l(5) =   1
                l(6) =   2
                l(7) =   2
     Q(r) pseudized with 0 coefficients

     PseudoPot. # 2 for Bi read from file:
     /home/pragov/projects/rrg-bengioy-ad/pragov/crystal_structure_design/SSSP/Bi_pbe_v1.uspp.F.UPF
     MD5 check sum: cceb9f28ec65b6d7ff33140f5b0b1758
     Pseudo is Ultrasoft + core correction, Zval = 15.0
     Generated by new atomic code, or converted to UPF format
     Using radial grid of  899 points,  6 beta functions with:
                l(1) =   0
                l(2) =   0
                l(3) =   1
                l(4) =   1
                l(5) =   2
                l(6) =   2
     Q(r) pseudized with  6 coefficients,  rinner =    1.000   1.000   1.000
                                                       1.000   1.000

     PseudoPot. # 3 for Pb read from file:
     /home/pragov/projects/rrg-bengioy-ad/pragov/crystal_structure_design/SSSP/Pb.pbe-dn-kjpaw_psl.0.2.2.UPF
     MD5 check sum: 9d431e6316058b74ade52399a6cf67da
     Pseudo is Projector augmented-wave + core cor, Zval = 14.0
     Generated using "atomic" code by A. Dal Corso  v.5.0.99 svn rev. 10869
     Shape of augmentation charge: PSQ
     Using radial grid of 1281 points,  6 beta functions with:
                l(1) =   0
                l(2) =   0
                l(3) =   1
                l(4) =   1
                l(5) =   2
                l(6) =   2
     Q(r) pseudized with 0 coefficients

     PseudoPot. # 4 for O  read from file:
     /home/pragov/projects/rrg-bengioy-ad/pragov/crystal_structure_design/SSSP/O.pbe-n-kjpaw_psl.0.1.UPF
     MD5 check sum: 0234752ac141de4415c5fc33072bef88
     Pseudo is Projector augmented-wave + core cor, Zval =  6.0
     Generated using "atomic" code by A. Dal Corso  v.5.0.99 svn rev. 10869
     Shape of augmentation charge: BESSEL
     Using radial grid of 1095 points,  4 beta functions with:
                l(1) =   0
                l(2) =   0
                l(3) =   1
                l(4) =   1
     Q(r) pseudized with 0 coefficients

     atomic species   valence    mass     pseudopotential
        Ba            10.00   137.32700     Ba( 1.00)
        Bi            15.00   208.98040     Bi( 1.00)
        Pb            14.00   207.20000     Pb( 1.00)
        O              6.00    15.99900     O ( 1.00)

      2 Sym. Ops., with inversion, found

                                    s                        frac. trans.

      isym =  1     identity

 cryst.   s( 1) = (     1          0          0      )
                  (     0          1          0      )
                  (     0          0          1      )

 cart.    s( 1) = (  1.0000000 -0.0000000 -0.0000000 )
                  (  0.0000000  1.0000000 -0.0000000 )
                  (  0.0000000  0.0000000  1.0000000 )

      isym =  2     inversion

 cryst.   s( 2) = (    -1          0          0      )
                  (     0         -1          0      )
                  (     0          0         -1      )

 cart.    s( 2) = ( -1.0000000  0.0000000  0.0000000 )
                  (  0.0000000 -1.0000000  0.0000000 )
                  (  0.0000000  0.0000000 -1.0000000 )

   Cartesian axes

     site n.     atom                  positions (alat units)
         1           Ba  tau(   1) = (   0.4969817   0.2870970   1.0139026  )
         2           Ba  tau(   2) = (   1.0017041   0.5786656   0.2033960  )
         3           Ba  tau(   3) = (   0.9872070   0.5702909   1.4326327  )
         4           Ba  tau(   4) = (   1.4919294   0.8618596   0.6221261  )
         5           Bi  tau(   5) = (   1.4922986   0.8620729   1.2252334  )
         6           Bi  tau(   6) = (   0.4966124   0.2868837   0.4107954  )
         7           Bi  tau(   7) = (   0.0000000   0.0000000   0.0000000  )
         8           Pb  tau(   8) = (   0.9944555   0.5744783   0.8180144  )
         9           O   tau(   9) = (   1.7712129   1.0231964   1.3776262  )
        10           O   tau(  10) = (   0.7768537   0.4487738   0.5621902  )
        11           O   tau(  11) = (   1.2120573   0.7001827   1.0738385  )
        12           O   tau(  12) = (   0.2176982   0.1257602   0.2584026  )
        13           O   tau(  13) = (   0.7090045   0.6978756   0.9946727  )
        14           O   tau(  14) = (   0.7148302   0.1247636   0.1804098  )
        15           O   tau(  15) = (   1.5237239   0.5920463   1.4556189  )
        16           O   tau(  16) = (   1.0301625   0.8834025   0.6413560  )
        17           O   tau(  17) = (   0.9587485   0.2655540   0.9946727  )
        18           O   tau(  18) = (   0.4651872   0.5569102   0.1804098  )
        19           O   tau(  19) = (   1.2740809   1.0241929   1.4556189  )
        20           O   tau(  20) = (   1.2799066   0.4510810   0.6413560  )

   Crystallographic axes

     site n.     atom                  positions (cryst. coord.)
         1           Ba  tau(   1) = (  0.1291840  0.1291840  0.6197340  )
         2           Ba  tau(   2) = (  0.6274250  0.6274250  0.1243230  )
         3           Ba  tau(   3) = (  0.3725750  0.3725750  0.8756770  )
         4           Ba  tau(   4) = (  0.8708160  0.8708160  0.3802660  )
         5           Bi  tau(   5) = (  0.7507670  0.7507670  0.7489070  )
         6           Bi  tau(   6) = (  0.2492330  0.2492330  0.2510930  )
         7           Bi  tau(   7) = (  0.0000000  0.0000000  0.0000000  )
         8           Pb  tau(   8) = (  0.5000000  0.5000000  0.5000000  )
         9           O   tau(   9) = (  0.9063670  0.9063670  0.8420550  )
        10           O   tau(  10) = (  0.4059170  0.4059170  0.3436310  )
        11           O   tau(  11) = (  0.5940830  0.5940830  0.6563690  )
        12           O   tau(  12) = (  0.0936330  0.0936330  0.1579450  )
        13           O   tau(  13) = (  0.1081510  0.6072100  0.6079800  )
        14           O   tau(  14) = (  0.6068960  0.1080390  0.1102730  )
        15           O   tau(  15) = (  0.8919610  0.3931040  0.8897270  )
        16           O   tau(  16) = (  0.3927900  0.8918490  0.3920200  )
        17           O   tau(  17) = (  0.6072100  0.1081510  0.6079800  )
        18           O   tau(  18) = (  0.1080390  0.6068960  0.1102730  )
        19           O   tau(  19) = (  0.3931040  0.8919610  0.8897270  )
        20           O   tau(  20) = (  0.8918490  0.3927900  0.3920200  )

     number of k points=     1  Methfessel-Paxton smearing, width (Ry)=  0.0010
                       cart. coord. in units 2pi/alat
        k(    1) = (   0.0000000   0.0000000   0.0000000), wk =   2.0000000

                       cryst. coord.
        k(    1) = (   0.0000000   0.0000000   0.0000000), wk =   2.0000000

     Check: negative core charge=   -0.000009

     Initial potential from superposition of free atoms

     starting charge     167.9295, renormalised to     171.0000

     negative rho (up, down):  1.256E-01 0.000E+00
     Starting wfcs are  104 randomized atomic wfcs
     Checking if some PAW data can be deallocated...

     Self-consistent Calculation

     iteration #  1     ecut=    30.00 Ry     beta= 0.70
     Davidson diagonalization with overlap

     ethr =  1.00E-02,  avg # of iterations =  9.0

     negative rho (up, down):  1.884E-01 0.000E+00

     total energy              =   -3668.10131858 Ry
     estimated scf accuracy    <       5.30320786 Ry

[...]

     total energy              =   -3670.72056000 Ry
     estimated scf accuracy    <       0.00000264 Ry

     iteration # 27     ecut=    30.00 Ry     beta= 0.70
     Davidson diagonalization with overlap

     ethr =  1.22E-09,  avg # of iterations =  2.0

[...]

     End of self-consistent calculation

          k = 0.0000 0.0000 0.0000 (  3178 PWs)   bands (ev):

   -17.0267 -16.9896 -16.8194 -16.7779 -13.3118 -13.2997 -13.1167 -13.1102
   -13.0965 -12.9994 -12.9842 -12.9744 -12.9599 -12.7934 -12.7921 -12.7616
   -12.7611 -12.7605 -12.7602  -8.6235  -8.2394  -8.0604  -7.9395  -7.9331
    -7.4918  -7.4136  -7.4018  -6.9639  -6.8453  -6.8338  -6.7984  -6.3395
    -6.3385  -6.3247  -5.2419  -5.1639  -2.4014  -2.2980  -2.2429  -2.2007
    -2.1715  -2.1452  -2.0954  -2.0091  -1.9893  -1.9574  -1.9037  -1.8675
    -1.7720  -0.1245   0.6160   3.8749   4.4383   4.5054   4.5272   5.7937
     5.8105   5.9270   6.0970   6.5077   6.5406   7.2550   7.2581   7.3264
     7.3618   7.4423   7.5933   7.6068   7.7682   7.9256   8.0177   8.0571
     8.0604   8.0975   8.2044   8.2412   8.2779   8.3430   8.3442   8.3687
     8.3775   8.5566   8.5874   8.6619   8.7401   9.4980   9.6742  12.4453
    12.6113  12.7221  13.1611  13.3507  13.8985  14.4036  14.6026  14.6260
    14.6310  14.8242  15.2928  15.3699  15.4043  15.4417  15.5649

     occupation numbers
     1.0000   1.0000   1.0000   1.0000   1.0000   1.0000   1.0000   1.0000
     1.0000   1.0000   1.0000   1.0000   1.0000   1.0000   1.0000   1.0000
     1.0000   1.0000   1.0000   1.0000   1.0000   1.0000   1.0000   1.0000
     1.0000   1.0000   1.0000   1.0000   1.0000   1.0000   1.0000   1.0000
     1.0000   1.0000   1.0000   1.0000   1.0000   1.0000   1.0000   1.0000
     1.0000   1.0000   1.0000   1.0000   1.0000   1.0000   1.0000   1.0000
     1.0000   1.0000   1.0000   1.0000   1.0000   1.0000   1.0000   1.0000
     1.0000   1.0000   1.0000   1.0000   1.0000   1.0000   1.0000   1.0000
     1.0000   1.0000   1.0000   1.0000   1.0000   1.0000   1.0000   1.0000
     1.0000   1.0000   1.0000   1.0000   1.0000   1.0000   1.0000   1.0000
     1.0000   1.0000   1.0000   1.0000   1.0000   0.5000  -0.0000  -0.0000
    -0.0000  -0.0000  -0.0000  -0.0000  -0.0000  -0.0000  -0.0000  -0.0000
    -0.0000  -0.0000  -0.0000  -0.0000  -0.0000  -0.0000  -0.0000

     the Fermi energy is     9.4980 ev

!    total energy              =   -3670.72055989 Ry
     estimated scf accuracy    <       0.00000067 Ry
     smearing contrib. (-TS)   =      -0.00028209 Ry
     internal energy E=F+TS    =   -3670.72027780 Ry

     The total energy is F=E-TS. E is the sum of the following terms:
     one-electron contribution =    -313.85069603 Ry
     hartree contribution      =     280.11641521 Ry
     xc contribution           =    -409.49543928 Ry
     ewald contribution        =    -884.80297240 Ry
     one-center paw contrib.   =   -2342.68758530 Ry
      -> PAW hartree energy AE =      28.70946164 Ry
      -> PAW hartree energy PS =     -28.59242991 Ry
      -> PAW xc energy AE      =    -394.23738125 Ry
      -> PAW xc energy PS      =      19.16052569 Ry
      -> total E_H with PAW    =     280.23344694 Ry
      -> total E_XC with PAW   =    -784.57229485 Ry

     convergence has been achieved in  27 iterations

     negative rho (up, down):  1.252E-01 0.000E+00

     Forces acting on atoms (cartesian axes, Ry/au):

     atom    1 type  1   force =     0.01564561    0.00904803   -0.00527849
     atom    2 type  1   force =     0.01355442    0.00783591    0.00433545
     atom    3 type  1   force =    -0.01355442   -0.00783591   -0.00433545
     atom    4 type  1   force =    -0.01564561   -0.00904803    0.00527849
     atom    5 type  2   force =     0.00030364    0.00020260   -0.01984078
     atom    6 type  2   force =    -0.00030364   -0.00020260    0.01984078
     atom    7 type  2   force =     0.00000000    0.00000000    0.00000000
     atom    8 type  3   force =     0.00000000    0.00000000    0.00000000
     atom    9 type  4   force =     0.02420395    0.01398191   -0.02502852
     atom   10 type  4   force =    -0.00819060   -0.00473139   -0.07278818
     atom   11 type  4   force =     0.00819060    0.00473139    0.07278818
     atom   12 type  4   force =    -0.02420395   -0.01398191    0.02502852
     atom   13 type  4   force =    -0.02002491   -0.00942010   -0.01097378
     atom   14 type  4   force =     0.01860552   -0.01880690   -0.03542723
     atom   15 type  4   force =     0.00699687   -0.02551237    0.03542760
     atom   16 type  4   force =     0.01816434    0.01263882    0.01097455
     atom   17 type  4   force =    -0.01816434   -0.01263882   -0.01097455
     atom   18 type  4   force =    -0.00699687    0.02551237   -0.03542760
     atom   19 type  4   force =    -0.01860552    0.01880690    0.03542723
     atom   20 type  4   force =     0.02002491    0.00942010    0.01097378
     The non-local contrib.  to forces
     atom    1 type  1   force =    -0.01528823   -0.00884601    0.00846995
     atom    2 type  1   force =    -0.01791756   -0.01032512    0.00049044
     atom    3 type  1   force =     0.01791756    0.01032512   -0.00049044
     atom    4 type  1   force =     0.01528823    0.00884601   -0.00846995
     atom    5 type  2   force =    -0.01558024   -0.00897635   -0.06258513
     atom    6 type  2   force =     0.01558024    0.00897635    0.06258513
     atom    7 type  2   force =     0.00000000    0.00000000    0.00000000
     atom    8 type  3   force =     0.00000000    0.00000000    0.00000000
     atom    9 type  4   force =    -0.03958923   -0.02287282    0.22926420
     atom   10 type  4   force =    -0.21213155   -0.12254646    0.23907701
     atom   11 type  4   force =     0.21213155    0.12254646   -0.23907701
     atom   12 type  4   force =     0.03958923    0.02287282   -0.22926420
     atom   13 type  4   force =     0.10773177    0.12947270    0.06231887
     atom   14 type  4   force =     0.13495102    0.02266906   -0.04851685
     atom   15 type  4   force =    -0.08705201   -0.10557676    0.04851369
     atom   16 type  4   force =    -0.16599619   -0.02865741   -0.06231673
     atom   17 type  4   force =     0.16599619    0.02865741    0.06231673
     atom   18 type  4   force =     0.08705201    0.10557676   -0.04851369
     atom   19 type  4   force =    -0.13495102   -0.02266906    0.04851685
     atom   20 type  4   force =    -0.10773177   -0.12947270   -0.06231887
     The ionic contribution  to forces
     atom    1 type  1   force =    -0.40804726   -0.23572123    0.61396646
     atom    2 type  1   force =    -0.34489489   -0.19923930    0.24121666
     atom    3 type  1   force =     0.34489489    0.19923930   -0.24121666
     atom    4 type  1   force =     0.40804726    0.23572123   -0.61396646
     atom    5 type  2   force =     0.04397654    0.02540442    0.05103020
     atom    6 type  2   force =    -0.04397654   -0.02540442   -0.05103020
     atom    7 type  2   force =    -0.00000000    0.00000000   -0.00000000
     atom    8 type  3   force =    -0.00000000   -0.00000000    0.00000000
     atom    9 type  4   force =     1.15044792    0.66459214   -1.26865123
     atom   10 type  4   force =     1.33251823    0.76977073   -1.09547299
     atom   11 type  4   force =    -1.33251823   -0.76977073    1.09547299
     atom   12 type  4   force =    -1.15044792   -0.66459214    1.26865123
     atom   13 type  4   force =    -0.16458756   -0.60831895   -0.84389280
     atom   14 type  4   force =    -0.46230903   -0.46171268   -0.78673637
     atom   15 type  4   force =     0.63092521    0.16982819    0.78673637
     atom   16 type  4   force =     0.60919359   -0.16132013    0.84389279
     atom   17 type  4   force =    -0.60919359    0.16132013   -0.84389279
     atom   18 type  4   force =    -0.63092521   -0.16982819   -0.78673637
     atom   19 type  4   force =     0.46230903    0.46171268    0.78673637
     atom   20 type  4   force =     0.16458756    0.60831895    0.84389280
     The local contribution  to forces
     atom    1 type  1   force =     0.43772940    0.25311495   -0.62771078
     atom    2 type  1   force =     0.37467791    0.21553214   -0.23743866
     atom    3 type  1   force =    -0.37441569   -0.21713779    0.23708670
     atom    4 type  1   force =    -0.43741623   -0.25251516    0.62691151
     atom    5 type  2   force =    -0.02892492   -0.01676556   -0.01088195
     atom    6 type  2   force =     0.02898748    0.01678639    0.01099140
     atom    7 type  2   force =     0.00003193    0.00000904    0.00021908
     atom    8 type  3   force =    -0.00008581   -0.00003917   -0.00035122
     atom    9 type  4   force =    -1.08696594   -0.62792135    1.01732570
     atom   10 type  4   force =    -1.13117654   -0.65344920    0.78683815
     atom   11 type  4   force =     1.13104979    0.65337335   -0.78680987
     atom   12 type  4   force =     1.08702064    0.62795352   -1.01726132
     atom   13 type  4   force =     0.03832155    0.47093673    0.77114256
     atom   14 type  4   force =     0.34763780    0.42049469    0.79912027
     atom   15 type  4   force =    -0.53790138   -0.09112046   -0.79896683
     atom   16 type  4   force =    -0.42718179    0.20207565   -0.77131690
     atom   17 type  4   force =     0.42708154   -0.20208177    0.77113434
     atom   18 type  4   force =     0.53793531    0.09108405    0.79911590
     atom   19 type  4   force =    -0.34765783   -0.42045094   -0.79896548
     atom   20 type  4   force =    -0.03836836   -0.47101664   -0.77131110
     The core correction contribution to forces
     atom    1 type  1   force =     0.00138311    0.00080685   -0.00036872
     atom    2 type  1   force =     0.00182252    0.00103334   -0.00017656
     atom    3 type  1   force =    -0.00181349   -0.00106614    0.00016400
     atom    4 type  1   force =    -0.00138492   -0.00079478    0.00034616
     atom    5 type  2   force =     0.00089787    0.00051887    0.00284846
     atom    6 type  2   force =    -0.00089937   -0.00051960   -0.00284803
     atom    7 type  2   force =     0.00000005   -0.00000008   -0.00000183
     atom    8 type  3   force =    -0.00000023   -0.00000023    0.00000043
     atom    9 type  4   force =     0.00030879    0.00017846   -0.00291078
     atom   10 type  4   force =     0.00255176    0.00147411   -0.00324266
     atom   11 type  4   force =    -0.00255325   -0.00147504    0.00324421
     atom   12 type  4   force =    -0.00030837   -0.00017814    0.00291007
     atom   13 type  4   force =    -0.00149490   -0.00155097   -0.00061659
     atom   14 type  4   force =    -0.00171506   -0.00021354    0.00076152
     atom   15 type  4   force =     0.00104180    0.00137889   -0.00076176
     atom   16 type  4   force =     0.00208987    0.00051990    0.00061688
     atom   17 type  4   force =    -0.00209067   -0.00052039   -0.00061653
     atom   18 type  4   force =    -0.00104175   -0.00137899    0.00076149
     atom   19 type  4   force =     0.00171501    0.00021366   -0.00076184
     atom   20 type  4   force =     0.00149412    0.00155053    0.00061690
     The Hubbard contrib.    to forces
     atom    1 type  1   force =     0.00000000    0.00000000    0.00000000
     atom    2 type  1   force =     0.00000000    0.00000000    0.00000000
     atom    3 type  1   force =     0.00000000    0.00000000    0.00000000
     atom    4 type  1   force =     0.00000000    0.00000000    0.00000000
     atom    5 type  2   force =     0.00000000    0.00000000    0.00000000
     atom    6 type  2   force =     0.00000000    0.00000000    0.00000000
     atom    7 type  2   force =     0.00000000    0.00000000    0.00000000
     atom    8 type  3   force =     0.00000000    0.00000000    0.00000000
     atom    9 type  4   force =     0.00000000    0.00000000    0.00000000
     atom   10 type  4   force =     0.00000000    0.00000000    0.00000000
     atom   11 type  4   force =     0.00000000    0.00000000    0.00000000
     atom   12 type  4   force =     0.00000000    0.00000000    0.00000000
     atom   13 type  4   force =     0.00000000    0.00000000    0.00000000
     atom   14 type  4   force =     0.00000000    0.00000000    0.00000000
     atom   15 type  4   force =     0.00000000    0.00000000    0.00000000
     atom   16 type  4   force =     0.00000000    0.00000000    0.00000000
     atom   17 type  4   force =     0.00000000    0.00000000    0.00000000
     atom   18 type  4   force =     0.00000000    0.00000000    0.00000000
     atom   19 type  4   force =     0.00000000    0.00000000    0.00000000
     atom   20 type  4   force =     0.00000000    0.00000000    0.00000000
     The SCF correction term to forces
     atom    1 type  1   force =    -0.00000956   -0.00004627    0.00012512
     atom    2 type  1   force =     0.00000419    0.00012918   -0.00004167
     atom    3 type  1   force =     0.00000007    0.00009793   -0.00016427
     atom    4 type  1   force =    -0.00005809   -0.00004508    0.00021775
     atom    5 type  2   force =    -0.00006978    0.00001889   -0.00024803
     atom    6 type  2   force =     0.00000037   -0.00004365    0.00014679
     atom    7 type  2   force =    -0.00003289   -0.00000971   -0.00026040
     atom    8 type  3   force =     0.00010163    0.00004551    0.00039699
     atom    9 type  4   force =     0.00001535    0.00001600   -0.00008658
     atom   10 type  4   force =     0.00000051   -0.00000993    0.00006709
     atom   11 type  4   force =     0.00003373    0.00002800    0.00001264
     atom   12 type  4   force =    -0.00004459   -0.00002745   -0.00003742
     atom   13 type  4   force =    -0.00002078    0.00002552    0.00009448
     atom   14 type  4   force =     0.00004037   -0.00004134   -0.00007425
     atom   15 type  4   force =    -0.00001495   -0.00002368   -0.00011041
     atom   16 type  4   force =     0.00003174    0.00000476    0.00011693
     atom   17 type  4   force =     0.00001507   -0.00003025    0.00010214
     atom   18 type  4   force =    -0.00001542    0.00005730   -0.00007147
     atom   19 type  4   force =    -0.00002113    0.00000366   -0.00011712
     atom   20 type  4   force =     0.00001835    0.00002506    0.00011435

     Total force =     0.160859     Total SCF correction =     0.000754

     Computing stress (Cartesian axis) and pressure

     negative rho (up, down):  1.252E-01 0.000E+00
          total   stress  (Ry/bohr**3)                   (kbar)     P=     -223.08
  -0.00131118   0.00000617  -0.00000628         -192.88        0.91       -0.92
   0.00000617  -0.00131828  -0.00000365            0.91     -193.93       -0.54
  -0.00000628  -0.00000365  -0.00191997           -0.92       -0.54     -282.44

     kinetic stress (kbar)  15084.25    -21.18      5.40
                              -21.18  15108.68      3.12
                                5.40      3.12  14785.90

     local   stress (kbar)  -5531.37   -274.43    217.18
                             -274.43  -5214.83    125.45
                              217.18    125.45  -5648.85

     nonloc. stress (kbar)   8248.59      2.72     -0.45
                                2.72   8245.45     -0.26
                               -0.45     -0.26   8237.88

     hartree stress (kbar)   5970.72    113.16    -35.83
                              113.16   5840.19    -20.69
                              -35.83    -20.69   6055.33

     exc-cor stress (kbar)   9452.40      0.22     -0.89
                                0.22   9452.14     -0.51
                               -0.89     -0.51   9453.53

     corecor stress (kbar) -14592.85      0.13     -0.18
                                0.13 -14593.00     -0.11
                               -0.18     -0.11 -14589.35

     ewald   stress (kbar) -18824.62    180.28   -186.16
                              180.28 -19032.55   -107.54
                             -186.16   -107.54 -18576.87

     hubbard stress (kbar)      0.00      0.00      0.00
                                0.00      0.00      0.00
                                0.00      0.00      0.00

     DFT-D   stress (kbar)      0.00      0.00      0.00
                                0.00      0.00      0.00
                                0.00      0.00      0.00

     XDM     stress (kbar)      0.00      0.00      0.00
                                0.00      0.00      0.00
                                0.00      0.00      0.00

     dft-nl  stress (kbar)      0.00      0.00      0.00
                                0.00      0.00      0.00
                                0.00      0.00      0.00

     TS-vdW  stress (kbar)      0.00      0.00      0.00
                                0.00      0.00      0.00
                                0.00      0.00      0.00

[...]

                                0.00      0.00      0.00

     Writing all to output data dir calculations/myprefix.save/

     General routines

     Parallel routines

     PAW routines

   This run was terminated on:  15:27:42   3Mar2023

   JOB DONE.