     Program PWSCF v.7.0 starts on  6Mar2023 at  2:33:16

     R & G space division:  proc/nbgrp/npool/nimage =      32

     Reading input from espresso_2003.pwi
Warning: card &CELL ignored
Warning: card / ignored

     Current dimensions of program PWSCF are:
     Max number of different atomic species (ntypx) = 10
     Max number of k-points (npk) =  40000
     Max angular momentum in pseudopotentials (lmaxx) =  4
     file Al.pbe-n-kjpaw_psl.1.0.0.UPF: wavefunction(s)  3S 3P renormalized

     gamma-point specific algorithms are used
     Message from routine setup:
     using ibrav=0 with symmetry is DISCOURAGED, use correct ibrav instead

     Using Slab Decomposition

     bravais-lattice index     =            0
     lattice parameter (alat)  =       8.4054  a.u.
     unit-cell volume          =    1705.8462 (a.u.)^3
     number of atoms/cell      =           12
     number of atomic types    =            4
     number of electrons       =       128.00
     number of Kohn-Sham states=           77
     kinetic-energy cutoff     =      30.0000  Ry
     charge density cutoff     =     240.0000  Ry
     scf convergence threshold =      1.0E-06
     mixing beta               =       0.7000
     number of iterations used =            8  plain     mixing
     Exchange-correlation=  SLA  PW   PBX  PBC
                           (   1   4   3   4   0   0   0)

     celldm(1)=   8.405402  celldm(2)=   0.000000  celldm(3)=   0.000000
     celldm(4)=   0.000000  celldm(5)=   0.000000  celldm(6)=   0.000000

     crystal axes: (cart. coord. in units of alat)
               a(1) = (   1.000000   0.000000   0.000000 )
               a(2) = (   0.000000   1.621611   0.000000 )
               a(3) = (   0.000000   0.000000   1.771405 )

     reciprocal axes: (cart. coord. in units 2 pi/alat)
               b(1) = (  1.000000  0.000000  0.000000 )
               b(2) = (  0.000000  0.616671  0.000000 )
               b(3) = (  0.000000  0.000000  0.564524 )

     PseudoPot. # 1 for Ce read from file:
     /home/pragov/projects/rrg-bengioy-ad/pragov/crystal_structure_design/SSSP/Ce.GGA-PBE-paw-v1.0.UPF
     MD5 check sum: f2b950f613061344c13339c8d844425d
     Pseudo is Projector augmented-wave + core cor, Zval = 12.0
     Generated using ATOMPAW code
     Shape of augmentation charge: BESSEL
     Using radial grid of 1102 points,  8 beta functions with:
                l(1) =   0
                l(2) =   0
                l(3) =   1
                l(4) =   1
                l(5) =   2
                l(6) =   2
                l(7) =   3
                l(8) =   3
     Q(r) pseudized with 0 coefficients

     PseudoPot. # 2 for Al read from file:
     /home/pragov/projects/rrg-bengioy-ad/pragov/crystal_structure_design/SSSP/Al.pbe-n-kjpaw_psl.1.0.0.UPF
     MD5 check sum: cfc449ca30b5f3223ec38ddd88ac046d
     Pseudo is Projector augmented-wave + core cor, Zval =  3.0
     Generated using "atomic" code by A. Dal Corso  v.5.1
     Shape of augmentation charge: PSQ
     Using radial grid of 1135 points,  6 beta functions with:
                l(1) =   0
                l(2) =   0
                l(3) =   1
                l(4) =   1
                l(5) =   2
                l(6) =   2
     Q(r) pseudized with 0 coefficients

     PseudoPot. # 3 for Pd read from file:
     /home/pragov/projects/rrg-bengioy-ad/pragov/crystal_structure_design/SSSP/Pd_ONCV_PBE-1.0.oncvpsp.upf
     MD5 check sum: eb77f42b51d86fb18e25f68156a31cf1
     Pseudo is Norm-conserving, Zval = 18.0
     Generated using ONCVPSP code by D. R. Hamann
     Using radial grid of 1410 points,  6 beta functions with:
                l(1) =   0
                l(2) =   0
                l(3) =   1
                l(4) =   1
                l(5) =   2
                l(6) =   2

     PseudoPot. # 4 for Pt read from file:
     /home/pragov/projects/rrg-bengioy-ad/pragov/crystal_structure_design/SSSP/pt_pbe_v1.4.uspp.F.UPF
     MD5 check sum: f09d6de1a584b5a045c4fc126da2d0c4
     Pseudo is Ultrasoft + core correction, Zval = 16.0
     Generated by new atomic code, or converted to UPF format
     Using radial grid of  985 points,  6 beta functions with:
                l(1) =   0
                l(2) =   0
                l(3) =   1
                l(4) =   1
                l(5) =   2
                l(6) =   2
     Q(r) pseudized with  8 coefficients,  rinner =    1.300   1.300   1.300
                                                       1.300   1.300

     atomic species   valence    mass     pseudopotential
        Ce            12.00   140.11600     Ce( 1.00)
        Al             3.00    26.98154     Al( 1.00)
        Pd            18.00   106.42000     Pd( 1.00)
        Pt            16.00   195.08400     Pt( 1.00)

      4 Sym. Ops. (no inversion) found ( 2 have fractional translation)

                                    s                        frac. trans.

      isym =  1     identity

 cryst.   s( 1) = (     1          0          0      )
                  (     0          1          0      )
                  (     0          0          1      )

 cart.    s( 1) = (  1.0000000  0.0000000  0.0000000 )
                  (  0.0000000  1.0000000  0.0000000 )
                  (  0.0000000  0.0000000  1.0000000 )

      isym =  2     180 deg rotation - cart. axis [0,1,0]

 cryst.   s( 2) = (    -1          0          0      )    f =(  0.0000000 )
                  (     0          1          0      )       ( -0.5000000 )
                  (     0          0         -1      )       (  0.0000000 )

 cart.    s( 2) = ( -1.0000000  0.0000000  0.0000000 )    f =(  0.0000000 )
                  (  0.0000000  1.0000000  0.0000000 )       ( -0.8108053 )
                  (  0.0000000  0.0000000 -1.0000000 )       (  0.0000000 )

      isym =  3     inv. 180 deg rotation - cart. axis [0,0,1]

 cryst.   s( 3) = (     1          0          0      )    f =(  0.0000000 )
                  (     0          1          0      )       ( -0.5000000 )
                  (     0          0         -1      )       (  0.0000000 )

 cart.    s( 3) = (  1.0000000  0.0000000  0.0000000 )    f =(  0.0000000 )
                  (  0.0000000  1.0000000  0.0000000 )       ( -0.8108053 )
                  (  0.0000000  0.0000000 -1.0000000 )       (  0.0000000 )

      isym =  4     inv. 180 deg rotation - cart. axis [1,0,0]

 cryst.   s( 4) = (    -1          0          0      )
                  (     0          1          0      )
                  (     0          0          1      )

 cart.    s( 4) = ( -1.0000000  0.0000000  0.0000000 )
                  (  0.0000000  1.0000000  0.0000000 )
                  (  0.0000000  0.0000000  1.0000000 )

   Cartesian axes

     site n.     atom                  positions (alat units)
         1           Ce  tau(   1) = (   0.5000000   0.7596224   1.0075239  )
         2           Ce  tau(   2) = (   0.5000000   1.5704277   0.7638812  )
         3           Ce  tau(   3) = (   0.0000000   0.8567050   1.6450897  )
         4           Ce  tau(   4) = (   0.0000000   0.0458997   0.1263154  )
         5           Al  tau(   5) = (   0.5000000   0.5710777   0.3191470  )
         6           Al  tau(   6) = (   0.5000000   1.3818830   1.4522581  )
         7           Al  tau(   7) = (   0.0000000   1.0529328   0.5583717  )
         8           Al  tau(   8) = (   0.0000000   0.2421275   1.2130334  )
         9           Pd  tau(   9) = (   0.0000000   1.2698492   1.1311095  )
        10           Pd  tau(  10) = (   0.0000000   0.4590439   0.6402956  )
        11           Pt  tau(  11) = (   0.5000000   0.3546462   1.5261133  )
        12           Pt  tau(  12) = (   0.5000000   1.1654515   0.2452918  )

   Crystallographic axes

     site n.     atom                  positions (cryst. coord.)
         1           Ce  tau(   1) = (  0.5000000  0.4684370  0.5687710  )
         2           Ce  tau(   2) = (  0.5000000  0.9684370  0.4312290  )
         3           Ce  tau(   3) = (  0.0000000  0.5283050  0.9286920  )
         4           Ce  tau(   4) = (  0.0000000  0.0283050  0.0713080  )
         5           Al  tau(   5) = (  0.5000000  0.3521670  0.1801660  )
         6           Al  tau(   6) = (  0.5000000  0.8521670  0.8198340  )
         7           Al  tau(   7) = (  0.0000000  0.6493130  0.3152140  )
         8           Al  tau(   8) = (  0.0000000  0.1493130  0.6847860  )
         9           Pd  tau(   9) = (  0.0000000  0.7830790  0.6385380  )
        10           Pd  tau(  10) = (  0.0000000  0.2830790  0.3614620  )
        11           Pt  tau(  11) = (  0.5000000  0.2187000  0.8615270  )
        12           Pt  tau(  12) = (  0.5000000  0.7187000  0.1384730  )

     number of k points=     1  Methfessel-Paxton smearing, width (Ry)=  0.0010
                       cart. coord. in units 2pi/alat
        k(    1) = (   0.0000000   0.0000000   0.0000000), wk =   2.0000000

                       cryst. coord.
        k(    1) = (   0.0000000   0.0000000   0.0000000), wk =   2.0000000

     Initial potential from superposition of free atoms

     starting charge     126.9622, renormalised to     128.0000

     negative rho (up, down):  3.735E-01 0.000E+00
     Starting wfcs are  188 randomized atomic wfcs
     Checking if some PAW data can be deallocated...

     Self-consistent Calculation

     iteration #  1     ecut=    30.00 Ry     beta= 0.70
     Davidson diagonalization with overlap

     ethr =  1.00E-02,  avg # of iterations =  2.0

     negative rho (up, down):  3.399E-01 0.000E+00

     total energy              =   -3009.85803215 Ry
     estimated scf accuracy    <       5.62662583 Ry

[...]

     c_bands:  1 eigenvalues not converged
     ethr =  4.26E-05,  avg # of iterations = 20.0

[...]

     c_bands:  2 eigenvalues not converged
     ethr =  1.98E-06,  avg # of iterations = 20.0

[...]

     total energy              =   -3014.32877174 Ry
     estimated scf accuracy    <       0.00002716 Ry

     iteration # 59     ecut=    30.00 Ry     beta= 0.70
     Davidson diagonalization with overlap

     ethr =  1.50E-09,  avg # of iterations = 10.0

[...]

     End of self-consistent calculation

          k = 0.0000 0.0000 0.0000 (  2355 PWs)   bands (ev):

   -72.6838 -72.6831 -39.7454 -39.7450 -39.5794 -39.5790 -39.5182 -39.5174
   -38.1648 -38.1632 -38.0261 -38.0252 -37.9511 -37.9489 -20.7472 -20.6932
   -20.6726 -20.6252  -4.0597  -3.9674  -3.9014  -3.8848  -3.5244  -3.4567
    -3.4422  -3.4016  -3.3553  -3.3150  -3.2198  -3.1413   5.6652   7.0290
     7.8037   8.1850   9.0233   9.1202   9.1981   9.3042   9.4894   9.6002
     9.6107   9.6772   9.7268   9.8418   9.8494   9.9499   9.9813  10.0918
    10.0922  10.0998  10.1769  10.2176  10.2511  10.7130  11.0485  11.8468
    12.0973  12.4925  12.9083  12.9312  13.1539  13.4288  13.9213  13.9800
    13.9928  14.0190  14.1304  14.1426  14.1501  14.2228  14.2293  14.2389
    14.2709  14.2808  14.2897  14.3018  14.3382

     occupation numbers
     1.0000   1.0000   1.0000   1.0000   1.0000   1.0000   1.0000   1.0000
     1.0000   1.0000   1.0000   1.0000   1.0000   1.0000   1.0000   1.0000
     1.0000   1.0000   1.0000   1.0000   1.0000   1.0000   1.0000   1.0000
     1.0000   1.0000   1.0000   1.0000   1.0000   1.0000   1.0000   1.0000
     1.0000   1.0000   1.0000   1.0000   1.0000   1.0000   1.0000   1.0000
     1.0000   1.0000   1.0000   1.0000   1.0000   1.0000   1.0000   1.0000
     1.0000   1.0000   1.0000   1.0000   1.0000   1.0000   1.0000   1.0000
     1.0000   1.0000   1.0000   1.0000   1.0000   1.0000   1.0000   0.8543
     0.1476  -0.0018  -0.0000  -0.0000  -0.0000  -0.0000  -0.0000  -0.0000
    -0.0000  -0.0000  -0.0000  -0.0000  -0.0000

     the Fermi energy is    13.9865 ev

!    total energy              =   -3014.32877170 Ry
     estimated scf accuracy    <       0.00000078 Ry
     smearing contrib. (-TS)   =      -0.00024254 Ry
     internal energy E=F+TS    =   -3014.32852916 Ry

     The total energy is F=E-TS. E is the sum of the following terms:
     one-electron contribution =    -447.01384158 Ry
     hartree contribution      =     295.45144561 Ry
     xc contribution           =    -214.78239936 Ry
     ewald contribution        =    -875.93029945 Ry
     one-center paw contrib.   =   -1772.05343439 Ry
      -> PAW hartree energy AE =      44.00145660 Ry
      -> PAW hartree energy PS =     -43.73256550 Ry
      -> PAW xc energy AE      =    -417.16172089 Ry
      -> PAW xc energy PS      =       8.56369115 Ry
      -> total E_H with PAW    =     295.72033671 Ry
      -> total E_XC with PAW   =    -623.38042910 Ry

     convergence has been achieved in  59 iterations

     negative rho (up, down):  3.502E-01 0.000E+00

     Forces acting on atoms (cartesian axes, Ry/au):

     atom    1 type  1   force =     0.00000000    0.01655829    0.00212126
     atom    2 type  1   force =     0.00000000    0.01655829   -0.00212126
     atom    3 type  1   force =     0.00000000   -0.02512970   -0.00477949
     atom    4 type  1   force =     0.00000000   -0.02512970    0.00477949
     atom    5 type  2   force =     0.00000000   -0.00194446   -0.04559239
     atom    6 type  2   force =     0.00000000   -0.00194446    0.04559239
     atom    7 type  2   force =     0.00000000    0.00417882    0.05156262
     atom    8 type  2   force =     0.00000000    0.00417882   -0.05156262
     atom    9 type  3   force =     0.00000000    0.00233907   -0.01298764
     atom   10 type  3   force =     0.00000000    0.00233907    0.01298764
     atom   11 type  4   force =     0.00000000    0.00399797    0.02231284
     atom   12 type  4   force =    -0.00000000    0.00399797   -0.02231284
     The non-local contrib.  to forces
     atom    1 type  1   force =     0.00000000    0.07899751   -0.07684437
     atom    2 type  1   force =     0.00000000    0.07899751    0.07684437
     atom    3 type  1   force =     0.00000000   -0.04647409    0.07650164
     atom    4 type  1   force =     0.00000000   -0.04647409   -0.07650164
     atom    5 type  2   force =     0.00000000    0.02463602    0.01584122
     atom    6 type  2   force =     0.00000000    0.02463602   -0.01584122
     atom    7 type  2   force =     0.00000000   -0.02843972   -0.03148764
     atom    8 type  2   force =     0.00000000   -0.02843972    0.03148764
     atom    9 type  3   force =     0.00000000    0.00677090    0.23479838
     atom   10 type  3   force =     0.00000000    0.00677090   -0.23479838
     atom   11 type  4   force =     0.00000000   -0.02793196   -0.04281652
     atom   12 type  4   force =     0.00000000   -0.02793196    0.04281652
     The ionic contribution  to forces
     atom    1 type  1   force =    -0.00000000    1.26818065    0.13729365
     atom    2 type  1   force =     0.00000000    1.26818065   -0.13729365
     atom    3 type  1   force =     0.00000000   -1.64361410    1.53706850
     atom    4 type  1   force =     0.00000000   -1.64361410   -1.53706850
     atom    5 type  2   force =    -0.00000000   -0.10384158   -0.40538594
     atom    6 type  2   force =    -0.00000000   -0.10384158    0.40538594
     atom    7 type  2   force =    -0.00000000    0.36714523   -0.38071778
     atom    8 type  2   force =    -0.00000000    0.36714523    0.38071778
     atom    9 type  3   force =    -0.00000000    1.51483322    1.20516951
     atom   10 type  3   force =    -0.00000000    1.51483322   -1.20516951
     atom   11 type  4   force =     0.00000000   -1.40270343    0.56869119
     atom   12 type  4   force =     0.00000000   -1.40270343   -0.56869119
     The local contribution  to forces
     atom    1 type  1   force =     0.00050616   -1.33007918   -0.05696514
     atom    2 type  1   force =     0.00049354   -1.33107823    0.05856238
     atom    3 type  1   force =    -0.00036054    1.66514081   -1.61942527
     atom    4 type  1   force =    -0.00032985    1.66460687    1.61745835
     atom    5 type  2   force =     0.00000419    0.07917984    0.34596689
     atom    6 type  2   force =     0.00000795    0.07902182   -0.34606621
     atom    7 type  2   force =    -0.00001008   -0.33728708    0.46084828
     atom    8 type  2   force =    -0.00000673   -0.33717516   -0.46065707
     atom    9 type  3   force =    -0.00024670   -1.52034781   -1.45150572
     atom   10 type  3   force =    -0.00021247   -1.51895383    1.45335983
     atom   11 type  4   force =     0.00000891    1.43644768   -0.52933395
     atom   12 type  4   force =     0.00004006    1.43610329    0.52783183
     The core correction contribution to forces
     atom    1 type  1   force =     0.00000032   -0.00002761   -0.00004574
     atom    2 type  1   force =     0.00000030   -0.00002805    0.00004604
     atom    3 type  1   force =    -0.00000021   -0.00000451    0.00003411
     atom    4 type  1   force =    -0.00000019   -0.00000479   -0.00003454
     atom    5 type  2   force =    -0.00000044   -0.00187973   -0.00216801
     atom    6 type  2   force =    -0.00000027   -0.00188158    0.00216829
     atom    7 type  2   force =    -0.00000013    0.00273494    0.00293264
     atom    8 type  2   force =     0.00000026    0.00273463   -0.00293381
     atom    9 type  3   force =     0.00000000    0.00000000    0.00000000
     atom   10 type  3   force =     0.00000000    0.00000000    0.00000000
     atom   11 type  4   force =     0.00000374   -0.00137506    0.02544509
     atom   12 type  4   force =     0.00000656   -0.00137574   -0.02544969
     The Hubbard contrib.    to forces
     atom    1 type  1   force =     0.00000000    0.00000000    0.00000000
     atom    2 type  1   force =     0.00000000    0.00000000    0.00000000
     atom    3 type  1   force =     0.00000000    0.00000000    0.00000000
     atom    4 type  1   force =     0.00000000    0.00000000    0.00000000
     atom    5 type  2   force =     0.00000000    0.00000000    0.00000000
     atom    6 type  2   force =     0.00000000    0.00000000    0.00000000
     atom    7 type  2   force =     0.00000000    0.00000000    0.00000000
     atom    8 type  2   force =     0.00000000    0.00000000    0.00000000
     atom    9 type  3   force =     0.00000000    0.00000000    0.00000000
     atom   10 type  3   force =     0.00000000    0.00000000    0.00000000
     atom   11 type  4   force =     0.00000000    0.00000000    0.00000000
     atom   12 type  4   force =     0.00000000    0.00000000    0.00000000
     The SCF correction term to forces
     atom    1 type  1   force =    -0.00022249   -0.00039242   -0.00116978
     atom    2 type  1   force =    -0.00020928    0.00035385   -0.00013305
     atom    3 type  1   force =     0.00016996   -0.00014069    0.00082336
     atom    4 type  1   force =     0.00015352    0.00030741    0.00070765
     atom    5 type  2   force =    -0.00000672   -0.00003234    0.00015301
     atom    6 type  2   force =    -0.00000819    0.00010230   -0.00005485
     atom    7 type  2   force =     0.00000765    0.00000950   -0.00001259
     atom    8 type  2   force =     0.00000806   -0.00008210   -0.00017690
     atom    9 type  3   force =     0.00015633    0.00112471   -0.00141432
     atom   10 type  3   force =     0.00012133   -0.00036507   -0.00036879
     atom   11 type  4   force =    -0.00002428   -0.00045597    0.00029580
     atom   12 type  4   force =    -0.00004272   -0.00008937    0.00114848

     Total force =     0.112957     Total SCF correction =     0.002895

     Computing stress (Cartesian axis) and pressure

     negative rho (up, down):  3.502E-01 0.000E+00
          total   stress  (Ry/bohr**3)                   (kbar)     P=     -254.03
  -0.00166884   0.00000000   0.00000000         -245.50        0.00        0.00
   0.00000000  -0.00146701   0.00000000            0.00     -215.80        0.00
   0.00000000   0.00000000  -0.00204477            0.00        0.00     -300.80

     kinetic stress (kbar)  21438.17      0.00      0.00
                                0.00  21533.03      0.00
                                0.00      0.00  21316.24

     local   stress (kbar)  -7897.18      0.23      0.00
                                0.23  -7591.17     -0.03
                                0.00     -0.03  -5973.14

     nonloc. stress (kbar)   6613.15      0.00      0.00
                                0.00   6625.04      0.00
                                0.00      0.00   6653.98

     hartree stress (kbar)   8752.22      0.03     -0.00
                                0.03   8765.73      0.01
                               -0.00      0.01   7960.56

     exc-cor stress (kbar)   2537.98      0.00     -0.00
                                0.00   2536.12      0.00
                               -0.00      0.00   2535.37

     corecor stress (kbar)  -7011.85      0.00     -0.00
                                0.00  -7009.66      0.00
                               -0.00      0.00  -7010.09

     ewald   stress (kbar) -24677.97      0.00      0.00
                                0.00 -25074.90     -0.00
                                0.00     -0.00 -25783.71

     hubbard stress (kbar)      0.00      0.00      0.00
                                0.00      0.00      0.00
                                0.00      0.00      0.00

     DFT-D   stress (kbar)      0.00      0.00      0.00
                                0.00      0.00      0.00
                                0.00      0.00      0.00

     XDM     stress (kbar)      0.00      0.00      0.00
                                0.00      0.00      0.00
                                0.00      0.00      0.00

     dft-nl  stress (kbar)      0.00      0.00      0.00
                                0.00      0.00      0.00
                                0.00      0.00      0.00

     TS-vdW  stress (kbar)      0.00      0.00      0.00
                                0.00      0.00      0.00
                                0.00      0.00      0.00

[...]

                                0.00      0.00      0.00

     Writing all to output data dir calculations/myprefix.save/

     General routines

     Parallel routines

     PAW routines

   This run was terminated on:   2:34:31   6Mar2023

   JOB DONE.