     Program PWSCF v.7.0 starts on  4Mar2023 at 17:39: 6

     R & G space division:  proc/nbgrp/npool/nimage =      32

     Reading input from espresso_7085.pwi
Warning: card &CELL ignored
Warning: card / ignored

     Current dimensions of program PWSCF are:
     Max number of different atomic species (ntypx) = 10
     Max number of k-points (npk) =  40000
     Max angular momentum in pseudopotentials (lmaxx) =  4

     gamma-point specific algorithms are used
     Message from routine setup:
     using ibrav=0 with symmetry is DISCOURAGED, use correct ibrav instead

     Using Slab Decomposition

     bravais-lattice index     =            0
     lattice parameter (alat)  =      18.7337  a.u.
     unit-cell volume          =    2365.2723 (a.u.)^3
     number of atoms/cell      =           18
     number of atomic types    =            3
     number of electrons       =       170.00
     number of Kohn-Sham states=          102
     kinetic-energy cutoff     =      30.0000  Ry
     charge density cutoff     =     240.0000  Ry
     scf convergence threshold =      1.0E-06
     mixing beta               =       0.7000
     number of iterations used =            8  plain     mixing
     Exchange-correlation=  SLA  PW   PBX  PBC
                           (   1   4   3   4   0   0   0)

     celldm(1)=  18.733659  celldm(2)=   0.000000  celldm(3)=   0.000000
     celldm(4)=   0.000000  celldm(5)=   0.000000  celldm(6)=   0.000000

     crystal axes: (cart. coord. in units of alat)
               a(1) = (   1.000000   0.000000   0.000000 )
               a(2) = (   0.937292   0.348545   0.000000 )
               a(3) = (   0.639344   0.115027   1.032177 )

     reciprocal axes: (cart. coord. in units 2 pi/alat)
               b(1) = (  1.000000 -2.689154 -0.319731 )
               b(2) = (  0.000000  2.869068 -0.319731 )
               b(3) = (  0.000000  0.000000  0.968826 )

     PseudoPot. # 1 for Tl read from file:
     /home/pragov/projects/rrg-bengioy-ad/pragov/crystal_structure_design/SSSP/Tl_pbe_v1.2.uspp.F.UPF
     MD5 check sum: b76cf1f7e72655a2b2c53cf6385d7059
     Pseudo is Ultrasoft + core correction, Zval = 13.0
     Generated by new atomic code, or converted to UPF format
     Using radial grid of  899 points,  6 beta functions with:
                l(1) =   0
                l(2) =   0
                l(3) =   1
                l(4) =   1
                l(5) =   2
                l(6) =   2
     Q(r) pseudized with  6 coefficients,  rinner =    1.100   1.100   1.100
                                                       1.100   1.100

     PseudoPot. # 2 for Cr read from file:
     /home/pragov/projects/rrg-bengioy-ad/pragov/crystal_structure_design/SSSP/cr_pbe_v1.5.uspp.F.UPF
     MD5 check sum: 0d52af634a40206e4dee301ad30da4bf
     Pseudo is Ultrasoft + core correction, Zval = 14.0
     Generated by new atomic code, or converted to UPF format
     Using radial grid of  857 points,  6 beta functions with:
                l(1) =   0
                l(2) =   0
                l(3) =   1
                l(4) =   1
                l(5) =   2
                l(6) =   2
     Q(r) pseudized with  8 coefficients,  rinner =    0.950   0.950   0.950
                                                       0.950   0.950

     PseudoPot. # 3 for S  read from file:
     /home/pragov/projects/rrg-bengioy-ad/pragov/crystal_structure_design/SSSP/s_pbe_v1.4.uspp.F.UPF
     MD5 check sum: 88d86576ff6df21479756cfb9bdac1df
     Pseudo is Ultrasoft + core correction, Zval =  6.0
     Generated by new atomic code, or converted to UPF format
     Using radial grid of  907 points,  6 beta functions with:
                l(1) =   0
                l(2) =   0
                l(3) =   1
                l(4) =   1
                l(5) =   2
                l(6) =   2
     Q(r) pseudized with  8 coefficients,  rinner =    1.300   1.300   1.300
                                                       1.300   1.300

     atomic species   valence    mass     pseudopotential
        Tl            13.00   204.38000     Tl( 1.00)
        Cr            14.00    51.99610     Cr( 1.00)
        S              6.00    32.06000     S ( 1.00)

      2 Sym. Ops., with inversion, found

                                    s                        frac. trans.

      isym =  1     identity

 cryst.   s( 1) = (     1          0          0      )
                  (     0          1          0      )
                  (     0          0          1      )

 cart.    s( 1) = (  1.0000000 -0.0000000 -0.0000000 )
                  (  0.0000000  1.0000000 -0.0000000 )
                  (  0.0000000  0.0000000  1.0000000 )

      isym =  2     inversion

 cryst.   s( 2) = (    -1          0          0      )
                  (     0         -1          0      )
                  (     0          0         -1      )

 cart.    s( 2) = ( -1.0000000  0.0000000  0.0000000 )
                  (  0.0000000 -1.0000000  0.0000000 )
                  (  0.0000000  0.0000000 -1.0000000 )

   Cartesian axes

     site n.     atom                  positions (alat units)
         1           Tl  tau(   1) = (   1.0341976   0.1860663   0.8523056  )
         2           Tl  tau(   2) = (   1.5424379   0.2775056   0.1798713  )
         3           Cr  tau(   3) = (   0.9686460   0.1742726   0.0000000  )
         4           Cr  tau(   4) = (   1.2883177   0.2317859   0.5160884  )
         5           Cr  tau(   5) = (   0.7097633   0.1276961   0.6315704  )
         6           Cr  tau(   6) = (   1.8668721   0.3358758   0.4006064  )
         7           Cr  tau(   7) = (   2.3992997   0.4316668   0.7974423  )
         8           Cr  tau(   8) = (   0.1773358   0.0319051   0.2347346  )
         9           S   tau(   9) = (   0.6897948   0.1241035   0.8760869  )
        10           S   tau(  10) = (   1.8868406   0.3394684   0.1560899  )
        11           S   tau(  11) = (   1.3813314   0.2485204   0.9468509  )
        12           S   tau(  12) = (   1.1953040   0.2150515   0.0853259  )
        13           S   tau(  13) = (   1.5040892   0.2706062   0.6269968  )
        14           S   tau(  14) = (   1.0725462   0.1929657   0.4051800  )
        15           S   tau(  15) = (   1.8369911   0.3304998   0.6376613  )
        16           S   tau(  16) = (   0.7396444   0.1330721   0.3945155  )
        17           S   tau(  17) = (   2.1991185   0.3956514   0.6728833  )
        18           S   tau(  18) = (   0.3775169   0.0679204   0.3592935  )

   Crystallographic axes

     site n.     atom                  positions (cryst. coord.)
         1           Tl  tau(   1) = (  0.2613280  0.2613280  0.8257360  )
         2           Tl  tau(   2) = (  0.7386720  0.7386720  0.1742640  )
         3           Cr  tau(   3) = (  0.5000000  0.5000000  0.0000000  )
         4           Cr  tau(   4) = (  0.5000000  0.5000000  0.5000000  )
         5           Cr  tau(   5) = (  0.1644360  0.1644360  0.6118820  )
         6           Cr  tau(   6) = (  0.8355640  0.8355640  0.3881180  )
         7           Cr  tau(   7) = (  0.9835140  0.9835140  0.7725830  )
         8           Cr  tau(   8) = (  0.0164860  0.0164860  0.2274170  )
         9           S   tau(   9) = (  0.0759490  0.0759490  0.8487760  )
        10           S   tau(  10) = (  0.9240510  0.9240510  0.1512240  )
        11           S   tau(  11) = (  0.4102840  0.4102840  0.9173340  )
        12           S   tau(  12) = (  0.5897160  0.5897160  0.0826660  )
        13           S   tau(  13) = (  0.5759170  0.5759170  0.6074510  )
        14           S   tau(  14) = (  0.4240830  0.4240830  0.3925490  )
        15           S   tau(  15) = (  0.7443460  0.7443460  0.6177830  )
        16           S   tau(  16) = (  0.2556540  0.2556540  0.3822170  )
        17           S   tau(  17) = (  0.9200090  0.9200090  0.6519070  )
        18           S   tau(  18) = (  0.0799910  0.0799910  0.3480930  )

     number of k points=     1  Methfessel-Paxton smearing, width (Ry)=  0.0010
                       cart. coord. in units 2pi/alat
        k(    1) = (   0.0000000   0.0000000   0.0000000), wk =   2.0000000

                       cryst. coord.
        k(    1) = (   0.0000000   0.0000000   0.0000000), wk =   2.0000000

     Check: negative core charge=   -0.000008

     Initial potential from superposition of free atoms

     starting charge     163.9898, renormalised to     170.0000

     negative rho (up, down):  1.094E-01 0.000E+00
     Starting wfcs are  118 randomized atomic wfcs

     Self-consistent Calculation

     iteration #  1     ecut=    30.00 Ry     beta= 0.70
     Davidson diagonalization with overlap

     ethr =  1.00E-02,  avg # of iterations =  4.0

     negative rho (up, down):  1.183E-01 0.000E+00

     total energy              =   -1575.44673512 Ry
     estimated scf accuracy    <      12.27151384 Ry

[...]

     total energy              =   -1583.63598759 Ry
     estimated scf accuracy    <       0.00001078 Ry

     iteration # 57     ecut=    30.00 Ry     beta= 0.70
     Davidson diagonalization with overlap

     ethr =  2.38E-09,  avg # of iterations =  2.0

[...]

     End of self-consistent calculation

          k = 0.0000 0.0000 0.0000 (  3287 PWs)   bands (ev):

   -62.8265 -62.8264 -62.6532 -62.6519 -62.6353 -62.5460 -34.5094 -34.5077
   -34.4180 -34.4105 -34.3512 -34.3381 -34.0993 -34.0985 -33.8483 -33.8470
   -33.8442 -33.8393 -33.7527 -33.7520 -33.7507 -33.7106 -33.6349 -33.5966
    -5.2111  -4.4989  -4.4444  -4.3356  -3.9023  -3.6190  -3.5942  -3.5381
    -3.4141  -3.3928  -3.0844  -3.0818  -2.7607  -2.7567  -2.7497  -2.7447
    -2.7276  -2.7125  -2.7113  -2.6044   1.6557   2.2957   3.1095   3.6903
     3.9508   4.0312   4.2591   4.5931   4.8946   4.9231   5.1009   5.2246
     5.3808   5.4774   5.5519   5.5681   5.6790   5.7897   5.9443   6.0312
     6.0436   6.2894   6.4334   6.7297   6.9439   7.1112   7.1316   7.1977
     7.6369   7.9135   8.1830   8.3089   8.4843   8.5696   8.5906   8.6262
     8.7572   8.8014   9.0060   9.1039   9.1782   9.1876   9.2369   9.2487
     9.3093   9.4113   9.4876   9.6808   9.7207   9.8076  10.2216  10.5485
    10.6187  10.7303  10.7781  10.8132  11.1016  11.7901

     occupation numbers
     1.0000   1.0000   1.0000   1.0000   1.0000   1.0000   1.0000   1.0000
     1.0000   1.0000   1.0000   1.0000   1.0000   1.0000   1.0000   1.0000
     1.0000   1.0000   1.0000   1.0000   1.0000   1.0000   1.0000   1.0000
     1.0000   1.0000   1.0000   1.0000   1.0000   1.0000   1.0000   1.0000
     1.0000   1.0000   1.0000   1.0000   1.0000   1.0000   1.0000   1.0000
     1.0000   1.0000   1.0000   1.0000   1.0000   1.0000   1.0000   1.0000
     1.0000   1.0000   1.0000   1.0000   1.0000   1.0000   1.0000   1.0000
     1.0000   1.0000   1.0000   1.0000   1.0000   1.0000   1.0000   1.0000
     1.0000   1.0000   1.0000   1.0000   1.0000   1.0000   1.0000   1.0000
     1.0000   1.0000   1.0000   1.0000   1.0000   1.0000   1.0000   1.0000
     1.0000   1.0000   1.0000   1.0000   0.7736   0.2264  -0.0000  -0.0000
    -0.0000  -0.0000  -0.0000  -0.0000  -0.0000  -0.0000  -0.0000  -0.0000
    -0.0000  -0.0000  -0.0000  -0.0000  -0.0000  -0.0000

     the Fermi energy is     9.1829 ev

!    total energy              =   -1583.63598715 Ry
     estimated scf accuracy    <       0.00000063 Ry
     smearing contrib. (-TS)   =      -0.00038162 Ry
     internal energy E=F+TS    =   -1583.63560552 Ry

     The total energy is F=E-TS. E is the sum of the following terms:
     one-electron contribution =    -883.48673842 Ry
     hartree contribution      =     515.11590142 Ry
     xc contribution           =    -342.86099086 Ry
     ewald contribution        =    -872.40377766 Ry

     convergence has been achieved in  57 iterations

     negative rho (up, down):  1.076E-01 0.000E+00

     Forces acting on atoms (cartesian axes, Ry/au):

     atom    1 type  1   force =    -0.00352529   -0.00063508    0.01595072
     atom    2 type  1   force =     0.00352529    0.00063508   -0.01595072
     atom    3 type  2   force =     0.00000000    0.00000000    0.00000000
     atom    4 type  2   force =     0.00000000    0.00000000    0.00000000
     atom    5 type  2   force =     0.00125638    0.00022626   -0.00732178
     atom    6 type  2   force =    -0.00125638   -0.00022626    0.00732178
     atom    7 type  2   force =     0.02613114    0.00470161    0.00742681
     atom    8 type  2   force =    -0.02613114   -0.00470161   -0.00742681
     atom    9 type  3   force =    -0.03450143   -0.00620653    0.01456202
     atom   10 type  3   force =     0.03450143    0.00620653   -0.01456202
     atom   11 type  3   force =     0.01571681    0.00282781   -0.06176955
     atom   12 type  3   force =    -0.01571681   -0.00282781    0.06176955
     atom   13 type  3   force =     0.02451931    0.00441131    0.00056324
     atom   14 type  3   force =    -0.02451931   -0.00441131   -0.00056324
     atom   15 type  3   force =    -0.04858032   -0.00873979   -0.02548863
     atom   16 type  3   force =     0.04858032    0.00873979    0.02548863
     atom   17 type  3   force =     0.04070656    0.00732366   -0.03212742
     atom   18 type  3   force =    -0.04070656   -0.00732366    0.03212742
     The non-local contrib.  to forces
     atom    1 type  1   force =    -0.01584499   -0.00285327   -0.18453463
     atom    2 type  1   force =     0.01584499    0.00285327    0.18453463
     atom    3 type  2   force =     0.00000000    0.00000000    0.00000000
     atom    4 type  2   force =     0.00000000    0.00000000    0.00000000
     atom    5 type  2   force =     0.05705384    0.01026471    0.05299935
     atom    6 type  2   force =    -0.05705384   -0.01026471   -0.05299935
     atom    7 type  2   force =    -0.01831931   -0.00329555    0.12395337
     atom    8 type  2   force =     0.01831931    0.00329555   -0.12395337
     atom    9 type  3   force =    -0.06342999   -0.01141182   -0.03307912
     atom   10 type  3   force =     0.06342999    0.01141182    0.03307912
     atom   11 type  3   force =     0.05065179    0.00911364   -0.03183573
     atom   12 type  3   force =    -0.05065179   -0.00911364    0.03183573
     atom   13 type  3   force =    -0.05617361   -0.01010650    0.06850286
     atom   14 type  3   force =     0.05617361    0.01010650   -0.06850286
     atom   15 type  3   force =    -0.02126691   -0.00382618   -0.01585477
     atom   16 type  3   force =     0.02126691    0.00382618    0.01585477
     atom   17 type  3   force =     0.03573382    0.00642919    0.00703671
     atom   18 type  3   force =    -0.03573382   -0.00642919   -0.00703671
     The ionic contribution  to forces
     atom    1 type  1   force =     3.96595880    0.71353012    9.84847922
     atom    2 type  1   force =    -3.96595880   -0.71353012   -9.84847922
     atom    3 type  2   force =     0.00000000   -0.00000000    0.00000000
     atom    4 type  2   force =    -0.00000000   -0.00000000   -0.00000000
     atom    5 type  2   force =     4.90614767    0.88268293   -0.55902216
     atom    6 type  2   force =    -4.90614767   -0.88268293    0.55902216
     atom    7 type  2   force =   -13.81339386   -2.48521810    7.60320727
     atom    8 type  2   force =    13.81339386    2.48521810   -7.60320727
     atom    9 type  3   force =     9.05805159    1.62966712    0.95569094
     atom   10 type  3   force =    -9.05805159   -1.62966712   -0.95569094
     atom   11 type  3   force =   -12.42563594   -2.23554151    7.88248523
     atom   12 type  3   force =    12.42563594    2.23554151   -7.88248523
     atom   13 type  3   force =    -0.30453757   -0.05479047   -5.07828481
     atom   14 type  3   force =     0.30453757    0.05479047    5.07828481
     atom   15 type  3   force =     8.19564266    1.47450798    7.55930688
     atom   16 type  3   force =    -8.19564266   -1.47450798   -7.55930688
     atom   17 type  3   force =    -8.91998518   -1.60482709    6.47524363
     atom   18 type  3   force =     8.91998518    1.60482709   -6.47524363
     The local contribution  to forces
     atom    1 type  1   force =    -3.95366555   -0.71131550   -9.65648032
     atom    2 type  1   force =     3.95360962    0.71130523    9.65645994
     atom    3 type  2   force =     0.00003441    0.00000690   -0.00019418
     atom    4 type  2   force =     0.00000485    0.00000082    0.00006342
     atom    5 type  2   force =    -4.95889715   -0.89217221    0.50210741
     atom    6 type  2   force =     4.95882979    0.89215961   -0.50194265
     atom    7 type  2   force =    13.85370229    2.49247087   -7.71420973
     atom    8 type  2   force =   -13.85362170   -2.49245602    7.71420815
     atom    9 type  3   force =    -9.03227004   -1.62502827   -0.91069457
     atom   10 type  3   force =     9.03226215    1.62502534    0.91065093
     atom   11 type  3   force =    12.39276526    2.22962738   -7.91424608
     atom   12 type  3   force =   -12.39272512   -2.22961917    7.91407521
     atom   13 type  3   force =     0.38165965    0.06866648    5.01388009
     atom   14 type  3   force =    -0.38170061   -0.06867281   -5.01374647
     atom   15 type  3   force =    -8.22365780   -1.47954781   -7.56968116
     atom   16 type  3   force =     8.22369071    1.47955486    7.56970473
     atom   17 type  3   force =     8.92673946    1.60604201   -6.51436200
     atom   18 type  3   force =    -8.92668374   -1.60603141    6.51440747
     The core correction contribution to forces
     atom    1 type  1   force =     0.00038043    0.00006858    0.00798713
     atom    2 type  1   force =    -0.00038323   -0.00006913   -0.00798634
     atom    3 type  2   force =     0.00000006    0.00000004   -0.00000043
     atom    4 type  2   force =    -0.00000073   -0.00000019   -0.00000041
     atom    5 type  2   force =    -0.00342103   -0.00061547   -0.00378002
     atom    6 type  2   force =     0.00342051    0.00061535    0.00377891
     atom    7 type  2   force =     0.00367231    0.00066071   -0.00679232
     atom    8 type  2   force =    -0.00367176   -0.00066059    0.00679298
     atom    9 type  3   force =     0.00318313    0.00057275    0.00195322
     atom   10 type  3   force =    -0.00318117   -0.00057221   -0.00195328
     atom   11 type  3   force =    -0.00244966   -0.00044075    0.00131869
     atom   12 type  3   force =     0.00245022    0.00044092   -0.00131986
     atom   13 type  3   force =     0.00320106    0.00057591   -0.00371264
     atom   14 type  3   force =    -0.00320038   -0.00057583    0.00371315
     atom   15 type  3   force =     0.00078610    0.00014143    0.00053790
     atom   16 type  3   force =    -0.00078519   -0.00014121   -0.00053749
     atom   17 type  3   force =    -0.00156832   -0.00028207   -0.00045876
     atom   18 type  3   force =     0.00156798    0.00028224    0.00045782
     The Hubbard contrib.    to forces
     atom    1 type  1   force =     0.00000000    0.00000000    0.00000000
     atom    2 type  1   force =     0.00000000    0.00000000    0.00000000
     atom    3 type  2   force =     0.00000000    0.00000000    0.00000000
     atom    4 type  2   force =     0.00000000    0.00000000    0.00000000
     atom    5 type  2   force =     0.00000000    0.00000000    0.00000000
     atom    6 type  2   force =     0.00000000    0.00000000    0.00000000
     atom    7 type  2   force =     0.00000000    0.00000000    0.00000000
     atom    8 type  2   force =     0.00000000    0.00000000    0.00000000
     atom    9 type  3   force =     0.00000000    0.00000000    0.00000000
     atom   10 type  3   force =     0.00000000    0.00000000    0.00000000
     atom   11 type  3   force =     0.00000000    0.00000000    0.00000000
     atom   12 type  3   force =     0.00000000    0.00000000    0.00000000
     atom   13 type  3   force =     0.00000000    0.00000000    0.00000000
     atom   14 type  3   force =     0.00000000    0.00000000    0.00000000
     atom   15 type  3   force =     0.00000000    0.00000000    0.00000000
     atom   16 type  3   force =     0.00000000    0.00000000    0.00000000
     atom   17 type  3   force =     0.00000000    0.00000000    0.00000000
     atom   18 type  3   force =     0.00000000    0.00000000    0.00000000
     The SCF correction term to forces
     atom    1 type  1   force =    -0.00037392   -0.00006937    0.00049866
     atom    2 type  1   force =     0.00039279    0.00007148   -0.00048040
     atom    3 type  2   force =    -0.00001301   -0.00000355    0.00017266
     atom    4 type  2   force =    -0.00002100   -0.00000497   -0.00005147
     atom    5 type  2   force =     0.00038469    0.00006842    0.00038255
     atom    6 type  2   force =    -0.00029350   -0.00005145   -0.00052838
     atom    7 type  2   force =     0.00046823    0.00008371    0.00126545
     atom    8 type  2   force =    -0.00055232   -0.00009863   -0.00127007
     atom    9 type  3   force =    -0.00000863   -0.00000147    0.00068758
     atom   10 type  3   force =     0.00006955    0.00001354   -0.00065179
     atom   11 type  3   force =     0.00038784    0.00007005    0.00048879
     atom   12 type  3   force =    -0.00042359   -0.00007642   -0.00035585
     atom   13 type  3   force =     0.00037406    0.00006709    0.00018962
     atom   14 type  3   force =    -0.00032520   -0.00005844   -0.00029999
     atom   15 type  3   force =    -0.00007513   -0.00001313    0.00021326
     atom   16 type  3   force =     0.00005979    0.00001003   -0.00021576
     atom   17 type  3   force =    -0.00022273   -0.00004012    0.00040846
     atom   18 type  3   force =     0.00014833    0.00002586   -0.00046207

     Total force =     0.161517     Total SCF correction =     0.002790

     Computing stress (Cartesian axis) and pressure

     negative rho (up, down):  1.076E-01 0.000E+00
          total   stress  (Ry/bohr**3)                   (kbar)     P=     -110.59
  -0.00080828  -0.00004378  -0.00002734         -118.90       -6.44       -4.02
  -0.00004378  -0.00057285  -0.00000492           -6.44      -84.27       -0.72
  -0.00002734  -0.00000492  -0.00087423           -4.02       -0.72     -128.60

     kinetic stress (kbar)  13859.36    -49.36   -119.31
                              -49.36  14124.82    -21.47
                             -119.31    -21.47  13943.06

     local   stress (kbar)    395.88   3922.86  -3284.63
                             3922.86 -20702.45   -590.95
                            -3284.63   -590.95  -7307.22

     nonloc. stress (kbar)   7235.93    -15.12    -30.05
                              -15.12   7317.22     -5.41
                              -30.05     -5.41   7279.47

     hartree stress (kbar)   6260.13  -1809.07   1603.12
                            -1809.07  15989.84    288.42
                             1603.12    288.42   9787.01

     exc-cor stress (kbar)   4647.05     -0.57     -1.71
                               -0.57   4650.10     -0.31
                               -1.71     -0.31   4648.95

     corecor stress (kbar)  -9398.11      1.12      1.85
                                1.12  -9404.15      0.33
                                1.85      0.33  -9400.64

     ewald   stress (kbar) -23119.15  -2056.32   1826.71
                            -2056.32 -12059.65    328.65
                             1826.71    328.65 -19079.24

     hubbard stress (kbar)      0.00      0.00      0.00
                                0.00      0.00      0.00
                                0.00      0.00      0.00

     DFT-D   stress (kbar)      0.00      0.00      0.00
                                0.00      0.00      0.00
                                0.00      0.00      0.00

     XDM     stress (kbar)      0.00      0.00      0.00
                                0.00      0.00      0.00
                                0.00      0.00      0.00

     dft-nl  stress (kbar)      0.00      0.00      0.00
                                0.00      0.00      0.00
                                0.00      0.00      0.00

     TS-vdW  stress (kbar)      0.00      0.00      0.00
                                0.00      0.00      0.00
                                0.00      0.00      0.00

[...]

                                0.00      0.00      0.00

     Writing all to output data dir calculations/myprefix.save/

     General routines

     Parallel routines

   This run was terminated on:  17:39:19   4Mar2023

   JOB DONE.