     Program PWSCF v.7.0 starts on  3Mar2023 at 15:32:28

     R & G space division:  proc/nbgrp/npool/nimage =      32

     Reading input from espresso_769.pwi
Warning: card &CELL ignored
Warning: card / ignored

     Current dimensions of program PWSCF are:
     Max number of different atomic species (ntypx) = 10
     Max number of k-points (npk) =  40000
     Max angular momentum in pseudopotentials (lmaxx) =  4
     file Pb.pbe-dn-kjpaw_psl.0.2.2.UPF: wavefunction(s)  6S renormalized

     gamma-point specific algorithms are used
     Message from routine setup:
     using ibrav=0 with symmetry is DISCOURAGED, use correct ibrav instead

     Using Slab Decomposition

     bravais-lattice index     =            0
     lattice parameter (alat)  =      15.6383  a.u.
     unit-cell volume          =    2304.8467 (a.u.)^3
     number of atoms/cell      =            8
     number of atomic types    =            2
     number of electrons       =       102.00
     number of Kohn-Sham states=           61
     kinetic-energy cutoff     =      30.0000  Ry
     charge density cutoff     =     240.0000  Ry
     scf convergence threshold =      1.0E-06
     mixing beta               =       0.7000
     number of iterations used =            8  plain     mixing
     Exchange-correlation= SLA  PW   PBX  PBC
                           (   1   4   3   4   0   0   0)

     celldm(1)=  15.638284  celldm(2)=   0.000000  celldm(3)=   0.000000
     celldm(4)=   0.000000  celldm(5)=   0.000000  celldm(6)=   0.000000

     crystal axes: (cart. coord. in units of alat)
               a(1) = (   1.000000   0.000000   0.000000 )
               a(2) = (  -0.500000   0.866025   0.000000 )
               a(3) = (   0.000000   0.000000   0.695896 )

     reciprocal axes: (cart. coord. in units 2 pi/alat)
               b(1) = (  1.000000  0.577350  0.000000 )
               b(2) = (  0.000000  1.154701  0.000000 )
               b(3) = (  0.000000  0.000000  1.436997 )

     PseudoPot. # 1 for Cs read from file:
     /home/pragov/projects/rrg-bengioy-ad/pragov/crystal_structure_design/SSSP/Cs_pbe_v1.uspp.F.UPF
     MD5 check sum: 3476d69cb178dfad3ffaa59df4e07ca4
     Pseudo is Ultrasoft + core correction, Zval =  9.0
     Generated by new atomic code, or converted to UPF format
     Using radial grid of  905 points,  6 beta functions with:
                l(1) =   0
                l(2) =   0
                l(3) =   1
                l(4) =   1
                l(5) =   2
                l(6) =   2
     Q(r) pseudized with  6 coefficients,  rinner =    1.500   1.500   1.500
                                                       1.500   1.500

     PseudoPot. # 2 for Pb read from file:
     /home/pragov/projects/rrg-bengioy-ad/pragov/crystal_structure_design/SSSP/Pb.pbe-dn-kjpaw_psl.0.2.2.UPF
     MD5 check sum: 9d431e6316058b74ade52399a6cf67da
     Pseudo is Projector augmented-wave + core cor, Zval = 14.0
     Generated using "atomic" code by A. Dal Corso  v.5.0.99 svn rev. 10869
     Shape of augmentation charge: PSQ
     Using radial grid of 1281 points,  6 beta functions with:
                l(1) =   0
                l(2) =   0
                l(3) =   1
                l(4) =   1
                l(5) =   2
                l(6) =   2
     Q(r) pseudized with 0 coefficients

     atomic species   valence    mass     pseudopotential
        Cs             9.00   132.90545     Cs( 1.00)
        Pb            14.00   207.20000     Pb( 1.00)

     24 Sym. Ops., with inversion, found (12 have fractional translation)

                                    s                        frac. trans.

      isym =  1     identity

 cryst.   s( 1) = (     1          0          0      )
                  (     0          1          0      )
                  (     0          0          1      )

 cart.    s( 1) = (  1.0000000 -0.0000000  0.0000000 )
                  (  0.0000000  1.0000000  0.0000000 )
                  (  0.0000000  0.0000000  1.0000000 )

      isym =  2     180 deg rotation - cart. axis [0,0,1]

 cryst.   s( 2) = (    -1          0          0      )    f =(  0.0000000 )
                  (     0         -1          0      )       (  0.0000000 )
                  (     0          0          1      )       (  0.5000000 )

 cart.    s( 2) = ( -1.0000000  0.0000000  0.0000000 )    f =(  0.0000000 )
                  (  0.0000000 -1.0000000  0.0000000 )       (  0.0000000 )
                  (  0.0000000  0.0000000  1.0000000 )       (  0.3479478 )

[...]

      isym =  4     180 deg rotation - cart. axis [1,0,0]

[...]

      isym =  5      60 deg rotation - cryst. axis [0,0,1]

[...]

 cryst.   s( 8) = (    -1         -1          0      )
                  (     1          0          0      )
                  (     0          0          1      )

 cart.    s( 8) = ( -0.5000000  0.8660254  0.0000000 )
                  ( -0.8660254 -0.5000000  0.0000000 )
                  (  0.0000000  0.0000000  1.0000000 )

[...]

 cryst.   s( 9) = (     0         -1          0      )    f =(  0.0000000 )
                  (    -1          0          0      )       (  0.0000000 )
                  (     0          0         -1      )       (  0.5000000 )

 cart.    s( 9) = (  0.5000000 -0.8660254  0.0000000 )    f =(  0.0000000 )
                  ( -0.8660254 -0.5000000  0.0000000 )       (  0.0000000 )
                  (  0.0000000  0.0000000 -1.0000000 )       (  0.3479478 )

[...]

 cryst.   s(10) = (     1          1          0      )    f =(  0.0000000 )
                  (     0         -1          0      )       ( -0.0000010 )
                  (     0          0         -1      )       (  0.5000000 )

 cart.    s(10) = (  0.5000000  0.8660253  0.0000000 )    f =(  0.0000005 )
                  (  0.8660254 -0.5000000  0.0000000 )       ( -0.0000009 )
                  (  0.0000000  0.0000000 -1.0000000 )       (  0.3479478 )

[...]

 cryst.   s(11) = (    -1         -1          0      )
                  (     0          1          0      )
                  (     0          0         -1      )

 cart.    s(11) = ( -0.5000000 -0.8660253  0.0000000 )
                  ( -0.8660254  0.5000000  0.0000000 )
                  (  0.0000000  0.0000000 -1.0000000 )

      isym = 12     180 deg rotation - cryst. axis [1,1,0]

[...]

      isym = 13     inversion

[...]

      isym = 14     inv. 180 deg rotation - cart. axis [0,0,1]

[...]

      isym = 16     inv. 180 deg rotation - cart. axis [1,0,0]

[...]

      isym = 17     inv.  60 deg rotation - cryst. axis [0,0,1]

[...]

 cryst.   s(22) = (    -1         -1          0      )    f =(  0.0000000 )
                  (     0          1          0      )       ( -0.0000010 )
                  (     0          0          1      )       (  0.5000000 )

 cart.    s(22) = ( -0.5000000 -0.8660253  0.0000000 )    f =(  0.0000005 )
                  ( -0.8660254  0.5000000  0.0000000 )       ( -0.0000009 )
                  (  0.0000000  0.0000000  1.0000000 )       (  0.3479478 )

[...]

      isym = 24     inv. 180 deg rotation - cryst. axis [1,1,0]

 cryst.   s(24) = (     0         -1          0      )
                  (    -1          0          0      )
                  (     0          0          1      )

 cart.    s(24) = (  0.5000000 -0.8660254  0.0000000 )
                  ( -0.8660254 -0.5000000  0.0000000 )
                  (  0.0000000  0.0000000  1.0000000 )

   Cartesian axes

     site n.     atom                  positions (alat units)
         1           Cs  tau(   1) = (  -0.0000005   0.5773506   0.5219217  )
         2           Cs  tau(   2) = (   0.5000005   0.2886749   0.1739739  )
         3           Pb  tau(   3) = (   0.0000005   0.2242270   0.1739739  )
         4           Pb  tau(   4) = (   0.3058140   0.7539115   0.1739739  )
         5           Pb  tau(   5) = (  -0.3058130   0.7539115   0.1739739  )
         6           Pb  tau(   6) = (   0.4999995   0.6417985   0.5219217  )
         7           Pb  tau(   7) = (   0.1941860   0.1121139   0.5219217  )
         8           Pb  tau(   8) = (   0.8058130   0.1121139   0.5219217  )

   Crystallographic axes

     site n.     atom                  positions (cryst. coord.)
         1           Cs  tau(   1) = (  0.3333330  0.6666670  0.7500000  )
         2           Cs  tau(   2) = (  0.6666670  0.3333330  0.2500000  )
         3           Pb  tau(   3) = (  0.1294580  0.2589150  0.2500000  )
         4           Pb  tau(   4) = (  0.7410850  0.8705420  0.2500000  )
         5           Pb  tau(   5) = (  0.1294580  0.8705420  0.2500000  )
         6           Pb  tau(   6) = (  0.8705420  0.7410850  0.7500000  )
         7           Pb  tau(   7) = (  0.2589150  0.1294580  0.7500000  )
         8           Pb  tau(   8) = (  0.8705420  0.1294580  0.7500000  )

     number of k points=     1  Methfessel-Paxton smearing, width (Ry)=  0.0010
                       cart. coord. in units 2pi/alat
        k(    1) = (   0.0000000   0.0000000   0.0000000), wk =   2.0000000

                       cryst. coord.
        k(    1) = (   0.0000000   0.0000000   0.0000000), wk =   2.0000000

     Initial potential from superposition of free atoms

     starting charge     101.9071, renormalised to     102.0000
     Starting wfcs are   80 randomized atomic wfcs
     Checking if some PAW data can be deallocated...

     Self-consistent Calculation

     iteration #  1     ecut=    30.00 Ry     beta= 0.70
     Davidson diagonalization with overlap

     ethr =  1.00E-02,  avg # of iterations =  2.0

     Threshold (ethr) on eigenvalues was too large:
     Diagonalizing with lowered threshold

     Davidson diagonalization with overlap

[...]

     total energy              =   -5349.45072053 Ry
     estimated scf accuracy    <       0.13641729 Ry

[...]

     total energy              =   -5349.50454819 Ry
     estimated scf accuracy    <       0.00000948 Ry

     iteration #  9     ecut=    30.00 Ry     beta= 0.70
     Davidson diagonalization with overlap

     ethr =  9.29E-09,  avg # of iterations =  2.0

     End of self-consistent calculation

          k = 0.0000 0.0000 0.0000 (  3235 PWs)   bands (ev):

   -15.2331 -15.2274  -9.6463  -9.6192  -9.6189  -9.5714  -9.5701  -9.5698
    -9.5197  -9.4482  -9.4285  -9.4282  -9.4078  -9.4075  -9.3974  -9.3971
    -9.3867  -9.3865  -9.3811  -9.3647  -9.3044  -9.3008  -9.2787  -9.2780
    -9.2777  -9.2483  -9.2479  -9.2350  -9.2349  -9.1721  -9.1718  -9.1523
    -3.4038  -2.2277  -2.2277  -2.2171  -2.2171  -2.0802  -2.0279  -0.9908
    -0.9905  -0.2104   0.7560   0.7562   4.4634   4.4694   6.0114   6.2043
     6.2044   6.5994   6.5996   7.6182   7.6183   8.3936   9.0969   9.0970
     9.9812   9.9813  10.2824  10.2825  10.5550

     occupation numbers
     1.0000   1.0000   1.0000   1.0000   1.0000   1.0000   1.0000   1.0000
     1.0000   1.0000   1.0000   1.0000   1.0000   1.0000   1.0000   1.0000
     1.0000   1.0000   1.0000   1.0000   1.0000   1.0000   1.0000   1.0000
     1.0000   1.0000   1.0000   1.0000   1.0000   1.0000   1.0000   1.0000
     1.0000   1.0000   1.0000   1.0000   1.0000   1.0000   1.0000   1.0000
     1.0000   1.0000   1.0000   1.0000   1.0000   1.0000   1.0000   1.0000
     1.0000   1.0000   1.0000  -0.0000  -0.0000  -0.0000  -0.0000  -0.0000
    -0.0000  -0.0000  -0.0000  -0.0000  -0.0000

     the Fermi energy is     7.4335 ev

!    total energy              =   -5349.50454896 Ry
     estimated scf accuracy    <       0.00000080 Ry
     smearing contrib. (-TS)   =       0.00000000 Ry
     internal energy E=F+TS    =   -5349.50454896 Ry

     The total energy is F=E-TS. E is the sum of the following terms:
     one-electron contribution =    -412.41240282 Ry
     hartree contribution      =     276.04585517 Ry
     xc contribution           =    -326.77231407 Ry
     ewald contribution        =    -515.49969666 Ry
     one-center paw contrib.   =   -4370.86599058 Ry
      -> PAW hartree energy AE =       0.00000000 Ry
      -> PAW hartree energy PS =       0.00000000 Ry
      -> PAW xc energy AE      =       0.00000000 Ry
      -> PAW xc energy PS      =       0.00000000 Ry
      -> total E_H with PAW    =     276.04585517 Ry
      -> total E_XC with PAW   =    -326.77231407 Ry

     convergence has been achieved in   9 iterations

     Forces acting on atoms (cartesian axes, Ry/au):

     atom    1 type  1   force =     0.00000000    0.00000000    0.00000000
     atom    2 type  1   force =     0.00000000   -0.00000000    0.00000000
     atom    3 type  2   force =     0.00000000   -0.02659749    0.00000000
     atom    4 type  2   force =     0.02303410    0.01329874   -0.00000000
     atom    5 type  2   force =    -0.02303410    0.01329874    0.00000000
     atom    6 type  2   force =     0.00000000    0.02659749   -0.00000000
     atom    7 type  2   force =    -0.02303410   -0.01329874   -0.00000000
     atom    8 type  2   force =     0.02303410   -0.01329874   -0.00000000
     The non-local contrib.  to forces
     atom    1 type  1   force =    -0.00000000    0.00000000   -0.00000000
     atom    2 type  1   force =     0.00000000   -0.00000000    0.00000000
     atom    3 type  2   force =     0.00000000   -0.00741366    0.00000000
     atom    4 type  2   force =     0.00642042    0.00370683    0.00000000
     atom    5 type  2   force =    -0.00642042    0.00370683    0.00000000
     atom    6 type  2   force =    -0.00000000    0.00741366   -0.00000000
     atom    7 type  2   force =    -0.00642042   -0.00370683   -0.00000000
     atom    8 type  2   force =     0.00642042   -0.00370683    0.00000000
     The ionic contribution  to forces
     atom    1 type  1   force =     0.00001940   -0.00001120   -0.00000000
     atom    2 type  1   force =    -0.00001940    0.00001120   -0.00000000
     atom    3 type  2   force =     0.00001306   18.00511372   -0.00000000
     atom    4 type  2   force =   -15.59287980   -9.00256740   -0.00000000
     atom    5 type  2   force =    15.59289252   -9.00256121   -0.00000000
     atom    6 type  2   force =    -0.00001306  -18.00511372   -0.00000000
     atom    7 type  2   force =    15.59287980    9.00256740   -0.00000000
     atom    8 type  2   force =   -15.59289252    9.00256121   -0.00000000
     The local contribution  to forces
     atom    1 type  1   force =     0.00017497    0.00003966    0.00001732
     atom    2 type  1   force =    -0.00009003   -0.00011411    0.00004506
     atom    3 type  2   force =     0.00021922  -18.01958011    0.00000528
     atom    4 type  2   force =    15.60519062    9.00974976   -0.00004490
     atom    5 type  2   force =   -15.60541305    9.00998864    0.00006729
     atom    6 type  2   force =    -0.00003435   18.01933660    0.00002857
     atom    7 type  2   force =   -15.60527556   -9.00942360   -0.00006151
     atom    8 type  2   force =    15.60531596   -9.00960176    0.00002550
     The core correction contribution to forces
     atom    1 type  1   force =     0.00000632    0.00000396    0.00000534
     atom    2 type  1   force =     0.00000474   -0.00000998    0.00001443
     atom    3 type  2   force =     0.00000098   -0.00513060    0.00000013
     atom    4 type  2   force =     0.00443645    0.00256414   -0.00000032
     atom    5 type  2   force =    -0.00443886    0.00256364    0.00000180
     atom    6 type  2   force =     0.00000019    0.00511939    0.00000160
     atom    7 type  2   force =    -0.00444003   -0.00256101   -0.00000211
     atom    8 type  2   force =     0.00443519   -0.00255809    0.00000091
     The Hubbard contrib.    to forces
     atom    1 type  1   force =     0.00000000    0.00000000    0.00000000
     atom    2 type  1   force =     0.00000000    0.00000000    0.00000000
     atom    3 type  2   force =     0.00000000    0.00000000    0.00000000
     atom    4 type  2   force =     0.00000000    0.00000000    0.00000000
     atom    5 type  2   force =     0.00000000    0.00000000    0.00000000
     atom    6 type  2   force =     0.00000000    0.00000000    0.00000000
     atom    7 type  2   force =     0.00000000    0.00000000    0.00000000
     atom    8 type  2   force =     0.00000000    0.00000000    0.00000000
     The SCF correction term to forces
     atom    1 type  1   force =    -0.00015162    0.00002217   -0.00000079
     atom    2 type  1   force =     0.00013475    0.00004097    0.00000460
     atom    3 type  2   force =    -0.00026063    0.00046102    0.00000083
     atom    4 type  2   force =    -0.00011599   -0.00014165    0.00004504
     atom    5 type  2   force =     0.00034036   -0.00042685   -0.00006336
     atom    6 type  2   force =     0.00008427   -0.00013242   -0.00003908
     atom    7 type  2   force =     0.00021908   -0.00021761    0.00005655
     atom    8 type  2   force =    -0.00026448    0.00000228   -0.00006845

     Total force =     0.065150     Total SCF correction =     0.000928

     Computing stress (Cartesian axis) and pressure

          total   stress  (Ry/bohr**3)                   (kbar)     P=        2.91
  -0.00023783   0.00000000   0.00000000          -34.99        0.00        0.00
   0.00000000  -0.00023783   0.00000000            0.00      -34.99        0.00
   0.00000000  -0.00000000   0.00053499            0.00       -0.00       78.70

     kinetic stress (kbar)   8924.85     -0.00      0.00
                               -0.00   8924.85      0.00
                                0.00      0.00   9155.76

     local   stress (kbar)   1996.13     -0.08      0.00
                               -0.08   1996.14      0.00
                                0.00      0.00 -12257.00

     nonloc. stress (kbar)   2365.63     -0.00      0.00
                               -0.00   2365.63      0.00
                                0.00      0.00   2419.97

     hartree stress (kbar)   3691.98      0.07     -0.00
                                0.07   3691.99     -0.00
                               -0.00     -0.00  10234.45

     exc-cor stress (kbar)  10492.92      0.00     -0.00
                                0.00  10492.92     -0.00
                               -0.00     -0.00  10498.91

     corecor stress (kbar) -14027.08     -0.00      0.00
                               -0.00 -14027.08     -0.00
                                0.00     -0.00 -14030.83

     ewald   stress (kbar) -13479.41     -0.01      0.00
                               -0.01 -13479.42     -0.00
                                0.00     -0.00  -5942.55

     hubbard stress (kbar)      0.00      0.00      0.00
                                0.00      0.00      0.00
                                0.00      0.00      0.00

     DFT-D   stress (kbar)      0.00      0.00      0.00
                                0.00      0.00      0.00
                                0.00      0.00      0.00

     XDM     stress (kbar)      0.00      0.00      0.00
                                0.00      0.00      0.00
                                0.00      0.00      0.00

     dft-nl  stress (kbar)      0.00      0.00      0.00
                                0.00      0.00      0.00
                                0.00      0.00      0.00

     TS-vdW  stress (kbar)      0.00      0.00      0.00
                                0.00      0.00      0.00
                                0.00      0.00      0.00

[...]

                                0.00      0.00      0.00

     Writing all to output data dir calculations/myprefix.save/

     General routines

     Parallel routines

     PAW routines

   This run was terminated on:  15:32:32   3Mar2023

   JOB DONE.