     Program PWSCF v.7.0 starts on  6Mar2023 at  2:34:47

     R & G space division:  proc/nbgrp/npool/nimage =      32

     Reading input from espresso_7007.pwi
Warning: card &CELL ignored
Warning: card / ignored

     Current dimensions of program PWSCF are:
     Max number of different atomic species (ntypx) = 10
     Max number of k-points (npk) =  40000
     Max angular momentum in pseudopotentials (lmaxx) =  4
     file Ga.pbe-dn-kjpaw_psl.1.0.0.UPF: wavefunction(s)  4S renormalized

     gamma-point specific algorithms are used
     Message from routine setup:
     using ibrav=0 with symmetry is DISCOURAGED, use correct ibrav instead

     Using Slab Decomposition

     bravais-lattice index     =            0
     lattice parameter (alat)  =       7.8639  a.u.
     unit-cell volume          =    2672.5390 (a.u.)^3
     number of atoms/cell      =           12
     number of atomic types    =            3
     number of electrons       =       104.00
     number of Kohn-Sham states=           62
     kinetic-energy cutoff     =      30.0000  Ry
     charge density cutoff     =     240.0000  Ry
     scf convergence threshold =      1.0E-06
     mixing beta               =       0.7000
     number of iterations used =            8  plain     mixing
     Exchange-correlation=  SLA  PW   PBX  PBC
                           (   1   4   3   4   0   0   0)

     celldm(1)=   7.863937  celldm(2)=   0.000000  celldm(3)=   0.000000
     celldm(4)=   0.000000  celldm(5)=   0.000000  celldm(6)=   0.000000

     crystal axes: (cart. coord. in units of alat)
               a(1) = (   1.000000   0.000000   0.000000 )
               a(2) = (   0.000000   1.437753   0.000000 )
               a(3) = (   0.000000   0.000000   3.822256 )

     reciprocal axes: (cart. coord. in units 2 pi/alat)
               b(1) = (  1.000000  0.000000  0.000000 )
               b(2) = (  0.000000  0.695530  0.000000 )
               b(3) = (  0.000000  0.000000  0.261626 )

     PseudoPot. # 1 for Ga read from file:
     /home/pragov/projects/rrg-bengioy-ad/pragov/crystal_structure_design/SSSP/Ga.pbe-dn-kjpaw_psl.1.0.0.UPF
     MD5 check sum: a27b4342b1af7e5f338de752e9ed7044
     Pseudo is Projector augmented-wave + core cor, Zval = 13.0
     Generated using "atomic" code by A. Dal Corso  v.5.1
     Shape of augmentation charge: PSQ
     Using radial grid of 1205 points,  6 beta functions with:
                l(1) =   0
                l(2) =   0
                l(3) =   1
                l(4) =   1
                l(5) =   2
                l(6) =   2
     Q(r) pseudized with 0 coefficients

     PseudoPot. # 2 for Te read from file:
     /home/pragov/projects/rrg-bengioy-ad/pragov/crystal_structure_design/SSSP/Te_pbe_v1.uspp.F.UPF
     MD5 check sum: c319670d6894cc26e93307826a071b75
     Pseudo is Ultrasoft + core correction, Zval =  6.0
     Generated by new atomic code, or converted to UPF format
     Using radial grid of  891 points,  5 beta functions with:
                l(1) =   0
                l(2) =   0
                l(3) =   1
                l(4) =   1
                l(5) =   2
     Q(r) pseudized with  6 coefficients,  rinner =    1.800   1.800   1.800
                                                       1.800   1.800

     PseudoPot. # 3 for Cl read from file:
     /home/pragov/projects/rrg-bengioy-ad/pragov/crystal_structure_design/SSSP/cl_pbe_v1.4.uspp.F.UPF
     MD5 check sum: fc6f6913ecf08c9257cb748ef0700058
     Pseudo is Ultrasoft + core correction, Zval =  7.0
     Generated by new atomic code, or converted to UPF format
     Using radial grid of  909 points,  6 beta functions with:
                l(1) =   0
                l(2) =   0
                l(3) =   1
                l(4) =   1
                l(5) =   2
                l(6) =   2
     Q(r) pseudized with  8 coefficients,  rinner =    1.300   1.300   1.300
                                                       1.300   1.300

     atomic species   valence    mass     pseudopotential
        Ga            13.00    69.72300     Ga( 1.00)
        Te             6.00   127.60000     Te( 1.00)
        Cl             7.00    35.45000     Cl( 1.00)

      8 Sym. Ops., with inversion, found ( 4 have fractional translation)

                                    s                        frac. trans.

      isym =  1     identity

 cryst.   s( 1) = (     1          0          0      )
                  (     0          1          0      )
                  (     0          0          1      )

 cart.    s( 1) = (  1.0000000  0.0000000  0.0000000 )
                  (  0.0000000  1.0000000  0.0000000 )
                  (  0.0000000  0.0000000  1.0000000 )

      isym =  2     180 deg rotation - cart. axis [0,0,1]

 cryst.   s( 2) = (    -1          0          0      )    f =(  0.5000000 )
                  (     0         -1          0      )       (  0.5000000 )
                  (     0          0          1      )       (  0.5000000 )

 cart.    s( 2) = ( -1.0000000  0.0000000  0.0000000 )    f =(  0.5000000 )
                  (  0.0000000 -1.0000000  0.0000000 )       (  0.7188765 )
                  (  0.0000000  0.0000000  1.0000000 )       (  1.9111281 )

[...]

      isym =  4     180 deg rotation - cart. axis [1,0,0]

[...]

      isym =  5     inversion

[...]

      isym =  6     inv. 180 deg rotation - cart. axis [0,0,1]

[...]

 cryst.   s( 7) = (     1          0          0      )    f =(  0.5000000 )
                  (     0         -1          0      )       (  0.5000000 )
                  (     0          0          1      )       (  0.5000000 )

 cart.    s( 7) = (  1.0000000  0.0000000  0.0000000 )    f =(  0.5000000 )
                  (  0.0000000 -1.0000000  0.0000000 )       (  0.7188765 )
                  (  0.0000000  0.0000000  1.0000000 )       (  1.9111281 )

      isym =  8     inv. 180 deg rotation - cart. axis [1,0,0]

 cryst.   s( 8) = (    -1          0          0      )
                  (     0          1          0      )
                  (     0          0          1      )

 cart.    s( 8) = ( -1.0000000  0.0000000  0.0000000 )
                  (  0.0000000  1.0000000  0.0000000 )
                  (  0.0000000  0.0000000  1.0000000 )

   Cartesian axes

     site n.     atom                  positions (alat units)
         1           Ga  tau(   1) = (   0.5000000   0.7596885   0.7305746  )
         2           Ga  tau(   2) = (   0.0000000   1.3969409   2.6417027  )
         3           Ga  tau(   3) = (   0.0000000   0.0408121   1.1805535  )
         4           Ga  tau(   4) = (   0.5000000   0.6780644   3.0916816  )
         5           Te  tau(   5) = (   0.5000000   0.3546893   2.5387273  )
         6           Te  tau(   6) = (   0.0000000   1.0735658   3.1946570  )
         7           Te  tau(   7) = (   0.0000000   0.3641871   0.6275992  )
         8           Te  tau(   8) = (   0.5000000   1.0830636   1.2835289  )
         9           Cl  tau(   9) = (   0.5000000   0.3461821   3.5031322  )
        10           Cl  tau(  10) = (   0.0000000   1.0650586   2.2302521  )
        11           Cl  tau(  11) = (   0.5000000   1.0915708   0.3191240  )
        12           Cl  tau(  12) = (   0.0000000   0.3726943   1.5920041  )

   Crystallographic axes

     site n.     atom                  positions (cryst. coord.)
         1           Ga  tau(   1) = (  0.5000000  0.5283860  0.1911370  )
         2           Ga  tau(   2) = (  0.0000000  0.9716140  0.6911370  )
         3           Ga  tau(   3) = (  0.0000000  0.0283860  0.3088630  )
         4           Ga  tau(   4) = (  0.5000000  0.4716140  0.8088630  )
         5           Te  tau(   5) = (  0.5000000  0.2466970  0.6641960  )
         6           Te  tau(   6) = (  0.0000000  0.7466970  0.8358040  )
         7           Te  tau(   7) = (  0.0000000  0.2533030  0.1641960  )
         8           Te  tau(   8) = (  0.5000000  0.7533030  0.3358040  )
         9           Cl  tau(   9) = (  0.5000000  0.2407800  0.9165090  )
        10           Cl  tau(  10) = (  0.0000000  0.7407800  0.5834910  )
        11           Cl  tau(  11) = (  0.5000000  0.7592200  0.0834910  )
        12           Cl  tau(  12) = (  0.0000000  0.2592200  0.4165090  )

     number of k points=     1  Methfessel-Paxton smearing, width (Ry)=  0.0010
                       cart. coord. in units 2pi/alat
        k(    1) = (   0.0000000   0.0000000   0.0000000), wk =   2.0000000

                       cryst. coord.
        k(    1) = (   0.0000000   0.0000000   0.0000000), wk =   2.0000000

     Initial potential from superposition of free atoms

     starting charge     103.9873, renormalised to     104.0000

     negative rho (up, down):  5.944E-02 0.000E+00
     Starting wfcs are   68 randomized atomic wfcs
     Checking if some PAW data can be deallocated...

     Self-consistent Calculation

     iteration #  1     ecut=    30.00 Ry     beta= 0.70
     Davidson diagonalization with overlap

     ethr =  1.00E-02,  avg # of iterations =  3.0

     Threshold (ethr) on eigenvalues was too large:
     Diagonalizing with lowered threshold

     Davidson diagonalization with overlap

[...]

     negative rho (up, down):  6.194E-02 0.000E+00

     total energy              =   -1350.20525280 Ry
     estimated scf accuracy    <       0.61405296 Ry

[...]

     total energy              =   -1350.46284296 Ry
     estimated scf accuracy    <       0.00000185 Ry

     iteration # 10     ecut=    30.00 Ry     beta= 0.70
     Davidson diagonalization with overlap

     ethr =  1.78E-09,  avg # of iterations =  4.0

[...]

     End of self-consistent calculation

          k = 0.0000 0.0000 0.0000 (  3690 PWs)   bands (ev):

   -12.3236 -12.3188 -12.3131 -12.3083 -11.9940 -11.9933 -11.9682 -11.9675
   -11.9536 -11.9529 -11.9521 -11.9515 -11.9504 -11.9497 -11.9419 -11.9412
   -11.8781 -11.8775 -11.8751 -11.8744 -10.9845 -10.9212 -10.9144 -10.8501
    -8.3068  -8.2864  -7.5223  -7.5106  -3.2310  -3.1784  -2.0128  -1.7332
    -0.5212  -0.3757  -0.0875  -0.0472   0.6648   0.7447   0.7511   0.8845
     1.0021   1.0255   1.1259   1.2391   1.7297   2.1305   2.1463   2.2533
     2.3082   2.3805   2.7068   2.7538   4.6383   4.9687   5.0084   5.0697
     6.4532   6.8904   7.0019   7.1738   7.2204   7.6688

     occupation numbers
     1.0000   1.0000   1.0000   1.0000   1.0000   1.0000   1.0000   1.0000
     1.0000   1.0000   1.0000   1.0000   1.0000   1.0000   1.0000   1.0000
     1.0000   1.0000   1.0000   1.0000   1.0000   1.0000   1.0000   1.0000
     1.0000   1.0000   1.0000   1.0000   1.0000   1.0000   1.0000   1.0000
     1.0000   1.0000   1.0000   1.0000   1.0000   1.0000   1.0000   1.0000
     1.0000   1.0000   1.0000   1.0000   1.0000   1.0000   1.0000   1.0000
     1.0000   1.0000   1.0000   1.0000  -0.0000  -0.0000  -0.0000  -0.0000
    -0.0000  -0.0000  -0.0000  -0.0000  -0.0000  -0.0000

     the Fermi energy is     4.0052 ev

!    total energy              =   -1350.46284326 Ry
     estimated scf accuracy    <       0.00000015 Ry
     smearing contrib. (-TS)   =       0.00000000 Ry
     internal energy E=F+TS    =   -1350.46284326 Ry

     The total energy is F=E-TS. E is the sum of the following terms:
     one-electron contribution =    -683.11620488 Ry
     hartree contribution      =     406.65363099 Ry
     xc contribution           =    -248.17697109 Ry
     ewald contribution        =    -382.07467087 Ry
     one-center paw contrib.   =    -443.74862741 Ry
      -> PAW hartree energy AE =     139.64337677 Ry
      -> PAW hartree energy PS =    -137.43434843 Ry
      -> PAW xc energy AE      =    -150.73167521 Ry
      -> PAW xc energy PS      =      37.58549002 Ry
      -> total E_H with PAW    =     408.86265933 Ry
      -> total E_XC with PAW   =    -361.32315629 Ry

     convergence has been achieved in  10 iterations

     negative rho (up, down):  5.861E-02 0.000E+00

     Forces acting on atoms (cartesian axes, Ry/au):

     atom    1 type  1   force =     0.00000000    0.00112008    0.02210887
     atom    2 type  1   force =    -0.00000000   -0.00112008    0.02210887
     atom    3 type  1   force =     0.00000000    0.00112008   -0.02210887
     atom    4 type  1   force =     0.00000000   -0.00112008   -0.02210887
     atom    5 type  2   force =     0.00000000    0.02125109   -0.02309267
     atom    6 type  2   force =     0.00000000    0.02125109    0.02309267
     atom    7 type  2   force =     0.00000000   -0.02125109   -0.02309267
     atom    8 type  2   force =    -0.00000000   -0.02125109    0.02309267
     atom    9 type  3   force =    -0.00000000   -0.02134491    0.05441829
     atom   10 type  3   force =     0.00000000   -0.02134491   -0.05441829
     atom   11 type  3   force =     0.00000000    0.02134491   -0.05441829
     atom   12 type  3   force =     0.00000000    0.02134491    0.05441829
     The non-local contrib.  to forces
     atom    1 type  1   force =    -0.00000000   -0.22698368   -0.00284861
     atom    2 type  1   force =     0.00000000    0.22698368   -0.00284861
     atom    3 type  1   force =     0.00000000   -0.22698368    0.00284861
     atom    4 type  1   force =    -0.00000000    0.22698368    0.00284861
     atom    5 type  2   force =     0.00000000    0.21956210   -0.14375853
     atom    6 type  2   force =     0.00000000    0.21956210    0.14375853
     atom    7 type  2   force =     0.00000000   -0.21956210   -0.14375853
     atom    8 type  2   force =     0.00000000   -0.21956210    0.14375853
     atom    9 type  3   force =     0.00000000    0.12099805   -0.20836912
     atom   10 type  3   force =     0.00000000    0.12099805    0.20836912
     atom   11 type  3   force =     0.00000000   -0.12099805    0.20836912
     atom   12 type  3   force =     0.00000000   -0.12099805   -0.20836912
     The ionic contribution  to forces
     atom    1 type  1   force =     0.00000000   -2.30997837   -2.17520145
     atom    2 type  1   force =    -0.00000000    2.30997837   -2.17520145
     atom    3 type  1   force =     0.00000000   -2.30997837    2.17520145
     atom    4 type  1   force =    -0.00000000    2.30997837    2.17520145
     atom    5 type  2   force =    -0.00000000    2.52184694   -6.95649519
     atom    6 type  2   force =    -0.00000000    2.52184694    6.95649519
     atom    7 type  2   force =     0.00000000   -2.52184694   -6.95649519
     atom    8 type  2   force =     0.00000000   -2.52184694    6.95649519
     atom    9 type  3   force =     0.00000000   -5.14385820    9.76094832
     atom   10 type  3   force =    -0.00000000   -5.14385820   -9.76094832
     atom   11 type  3   force =    -0.00000000    5.14385820   -9.76094832
     atom   12 type  3   force =     0.00000000    5.14385820    9.76094832
     The local contribution  to forces
     atom    1 type  1   force =     0.00001228    2.53425812    2.19781458
     atom    2 type  1   force =     0.00001775   -2.53433894    2.19885713
     atom    3 type  1   force =     0.00001033    2.53453093   -2.19833942
     atom    4 type  1   force =    -0.00001281   -2.53468870   -2.19784597
     atom    5 type  2   force =    -0.00000692   -2.75266870    7.10480066
     atom    6 type  2   force =     0.00000766   -2.75260742   -7.10432569
     atom    7 type  2   force =    -0.00000546    2.75270242    7.10443713
     atom    8 type  2   force =    -0.00000345    2.75261816   -7.10452678
     atom    9 type  3   force =     0.00001987    5.00405276   -9.50309705
     atom   10 type  3   force =    -0.00001678    5.00405677    9.50306146
     atom   11 type  3   force =     0.00000942   -5.00410675    9.50259139
     atom   12 type  3   force =    -0.00000543   -5.00395253   -9.50295387
     The core correction contribution to forces
     atom    1 type  1   force =     0.00000045    0.00353731    0.00189769
     atom    2 type  1   force =     0.00000054   -0.00353605    0.00190351
     atom    3 type  1   force =     0.00000038    0.00354673   -0.00190891
     atom    4 type  1   force =    -0.00000042   -0.00355136   -0.00190829
     atom    5 type  2   force =     0.00000066    0.03247947   -0.02739253
     atom    6 type  2   force =    -0.00000072    0.03247246    0.02738376
     atom    7 type  2   force =     0.00000078   -0.03247582   -0.02739930
     atom    8 type  2   force =     0.00000014   -0.03248258    0.02739040
     atom    9 type  3   force =     0.00000046   -0.00245611    0.00482689
     atom   10 type  3   force =    -0.00000035   -0.00245490   -0.00482503
     atom   11 type  3   force =     0.00000040    0.00245542   -0.00483153
     atom   12 type  3   force =    -0.00000008    0.00245597    0.00482601
     The Hubbard contrib.    to forces
     atom    1 type  1   force =     0.00000000    0.00000000    0.00000000
     atom    2 type  1   force =     0.00000000    0.00000000    0.00000000
     atom    3 type  1   force =     0.00000000    0.00000000    0.00000000
     atom    4 type  1   force =     0.00000000    0.00000000    0.00000000
     atom    5 type  2   force =     0.00000000    0.00000000    0.00000000
     atom    6 type  2   force =     0.00000000    0.00000000    0.00000000
     atom    7 type  2   force =     0.00000000    0.00000000    0.00000000
     atom    8 type  2   force =     0.00000000    0.00000000    0.00000000
     atom    9 type  3   force =     0.00000000    0.00000000    0.00000000
     atom   10 type  3   force =     0.00000000    0.00000000    0.00000000
     atom   11 type  3   force =     0.00000000    0.00000000    0.00000000
     atom   12 type  3   force =     0.00000000    0.00000000    0.00000000
     The SCF correction term to forces
     atom    1 type  1   force =    -0.00001773    0.00028753    0.00054244
     atom    2 type  1   force =    -0.00001828   -0.00022582   -0.00076168
     atom    3 type  1   force =    -0.00003122    0.00000988    0.00006195
     atom    4 type  1   force =     0.00003091    0.00018285   -0.00044143
     atom    5 type  2   force =     0.00000233    0.00002092   -0.00023196
     atom    6 type  2   force =    -0.00000153    0.00001615   -0.00013197
     atom    7 type  2   force =    -0.00000354   -0.00009273    0.00017589
     atom    8 type  2   force =     0.00000027    0.00007522   -0.00004403
     atom    9 type  3   force =    -0.00000248   -0.00009870    0.00014236
     atom   10 type  3   force =     0.00000819   -0.00006534   -0.00001430
     atom   11 type  3   force =    -0.00000174    0.00013759    0.00029717
     atom   12 type  3   force =     0.00000059   -0.00001617   -0.00010881

     Total force =     0.139884     Total SCF correction =     0.001231

     Computing stress (Cartesian axis) and pressure

     negative rho (up, down):  5.861E-02 0.000E+00
          total   stress  (Ry/bohr**3)                   (kbar)     P=       72.15
   0.00083532   0.00000000   0.00000000          122.88        0.00        0.00
   0.00000000   0.00029255   0.00000000            0.00       43.04        0.00
   0.00000000   0.00000000   0.00034343            0.00        0.00       50.52

     kinetic stress (kbar)   4744.47      0.00      0.00
                                0.00   4492.70      0.00
                                0.00      0.00   4492.94

     local   stress (kbar)  -5192.29      0.00     -0.00
                                0.00  -6440.95     -0.00
                               -0.00     -0.00   3726.92

     nonloc. stress (kbar)    280.85      0.00      0.00
                                0.00    415.33      0.00
                                0.00      0.00    379.60

     hartree stress (kbar)   8787.21     -0.00     -0.00
                               -0.00   9108.79      0.00
                               -0.00      0.00   4487.52

     exc-cor stress (kbar)   3760.41     -0.00      0.00
                               -0.00   3760.83      0.00
                                0.00      0.00   3762.12

     corecor stress (kbar)  -6453.08     -0.00     -0.00
                               -0.00  -6431.84     -0.00
                               -0.00     -0.00  -6434.47

     ewald   stress (kbar)  -5804.68      0.00      0.00
                                0.00  -4861.82     -0.00
                                0.00     -0.00 -10364.11

     hubbard stress (kbar)      0.00      0.00      0.00
                                0.00      0.00      0.00
                                0.00      0.00      0.00

     DFT-D   stress (kbar)      0.00      0.00      0.00
                                0.00      0.00      0.00
                                0.00      0.00      0.00

     XDM     stress (kbar)      0.00      0.00      0.00
                                0.00      0.00      0.00
                                0.00      0.00      0.00

     dft-nl  stress (kbar)      0.00      0.00      0.00
                                0.00      0.00      0.00
                                0.00      0.00      0.00

     TS-vdW  stress (kbar)      0.00      0.00      0.00
                                0.00      0.00      0.00
                                0.00      0.00      0.00

[...]

                                0.00      0.00      0.00

     Writing all to output data dir calculations/myprefix.save/

     General routines

     Parallel routines

     PAW routines

   This run was terminated on:   2:34:52   6Mar2023

   JOB DONE.