     Program PWSCF v.7.0 starts on  3Mar2023 at 13:28:22

     R & G space division:  proc/nbgrp/npool/nimage =      32

     Reading input from espresso_433.pwi
Warning: card &CELL ignored
Warning: card / ignored

     Current dimensions of program PWSCF are:
     Max number of different atomic species (ntypx) = 10
     Max number of k-points (npk) =  40000
     Max angular momentum in pseudopotentials (lmaxx) =  4

     gamma-point specific algorithms are used
     Message from routine setup:
     using ibrav=0 with symmetry is DISCOURAGED, use correct ibrav instead

     Using Slab Decomposition

     bravais-lattice index     =            0
     lattice parameter (alat)  =      10.3559  a.u.
     unit-cell volume          =    1109.2207 (a.u.)^3
     number of atoms/cell      =           12
     number of atomic types    =            3
     number of electrons       =        88.00
     number of Kohn-Sham states=           53
     kinetic-energy cutoff     =      30.0000  Ry
     charge density cutoff     =     240.0000  Ry
     scf convergence threshold =      1.0E-06
     mixing beta               =       0.7000
     number of iterations used =            8  plain     mixing
     Exchange-correlation=  SLA  PW   PBX  PBC
                           (   1   4   3   4   0   0   0)

     celldm(1)=  10.355865  celldm(2)=   0.000000  celldm(3)=   0.000000
     celldm(4)=   0.000000  celldm(5)=   0.000000  celldm(6)=   0.000000

     crystal axes: (cart. coord. in units of alat)
               a(1) = (   1.000000   0.000000   0.000000 )
               a(2) = (  -0.031737   1.014937   0.000000 )
               a(3) = (  -0.494676  -0.018466   0.984056 )

     reciprocal axes: (cart. coord. in units 2 pi/alat)
               b(1) = (  1.000000  0.031270  0.503278 )
               b(2) = (  0.000000  0.985283  0.018490 )
               b(3) = (  0.000000  0.000000  1.016202 )

     PseudoPot. # 1 for Li read from file:
     /home/pragov/projects/rrg-bengioy-ad/pragov/crystal_structure_design/SSSP/li_pbe_v1.4.uspp.F.UPF
     MD5 check sum: e912e257baa3777c20ea3d68f190483c
     Pseudo is Ultrasoft, Zval =  3.0
     Generated by new atomic code, or converted to UPF format
     Using radial grid of  751 points,  5 beta functions with:
                l(1) =   0
                l(2) =   0
                l(3) =   0
                l(4) =   1
                l(5) =   1
     Q(r) pseudized with 10 coefficients,  rinner =    1.150   1.150   1.150

     PseudoPot. # 2 for V  read from file:
     /home/pragov/projects/rrg-bengioy-ad/pragov/crystal_structure_design/SSSP/v_pbe_v1.4.uspp.F.UPF
     MD5 check sum: 22b79981416ebb76fdaf5b1b8640f6fb
     Pseudo is Ultrasoft + core correction, Zval = 13.0
     Generated by new atomic code, or converted to UPF format
     Using radial grid of  853 points,  6 beta functions with:
                l(1) =   0
                l(2) =   0
                l(3) =   1
                l(4) =   1
                l(5) =   2
                l(6) =   2
     Q(r) pseudized with  8 coefficients,  rinner =    1.100   1.100   1.100
                                                       1.100   1.100

     PseudoPot. # 3 for F  read from file:
     /home/pragov/projects/rrg-bengioy-ad/pragov/crystal_structure_design/SSSP/f_pbe_v1.4.uspp.F.UPF
     MD5 check sum: 4c38b6a325caf53ec0e86aed9459de46
     Pseudo is Ultrasoft, Zval =  7.0
     Generated by new atomic code, or converted to UPF format
     Using radial grid of  799 points,  4 beta functions with:
                l(1) =   0
                l(2) =   0
                l(3) =   1
                l(4) =   1
     Q(r) pseudized with  8 coefficients,  rinner =    0.950   0.950   0.950

     atomic species   valence    mass     pseudopotential
        Li             3.00     6.94000     Li( 1.00)
        V             13.00    50.94150     V ( 1.00)
        F              7.00    18.99840     F ( 1.00)

      2 Sym. Ops., with inversion, found

                                    s                        frac. trans.

      isym =  1     identity

 cryst.   s( 1) = (     1          0          0      )
                  (     0          1          0      )
                  (     0          0          1      )

 cart.    s( 1) = (  1.0000000 -0.0000000 -0.0000000 )
                  (  0.0000000  1.0000000 -0.0000000 )
                  (  0.0000000  0.0000000  1.0000000 )

      isym =  2     inversion

 cryst.   s( 2) = (    -1          0          0      )
                  (     0         -1          0      )
                  (     0          0         -1      )

 cart.    s( 2) = ( -1.0000000  0.0000000  0.0000000 )
                  (  0.0000000 -1.0000000  0.0000000 )
                  (  0.0000000  0.0000000 -1.0000000 )

   Cartesian axes

     site n.     atom                  positions (alat units)
         1           Li  tau(   1) = (   0.7382252   0.2422118   0.4392678  )
         2           Li  tau(   2) = (  -0.2646385   0.7542585   0.5447881  )
         3           V   tau(   3) = (   0.4841316   0.5074684   0.0000000  )
         4           V   tau(   4) = (   0.0000000   0.0000000   0.0000000  )
         5           F   tau(   5) = (   0.2774522   0.6989218   0.9242676  )
         6           F   tau(   6) = (  -0.0756272   0.9732481   0.3489639  )
         7           F   tau(   7) = (  -0.0681166   0.4580520   0.6369627  )
         8           F   tau(   8) = (  -0.2251940   0.7872231   0.9479125  )
         9           F   tau(   9) = (   0.6987807   0.2092472   0.0361434  )
        10           F   tau(  10) = (   0.5417033   0.5384183   0.3470932  )
        11           F   tau(  11) = (   0.5492140   0.0232222   0.6350920  )
        12           F   tau(  12) = (   0.1961346   0.2975486   0.0597883  )

   Crystallographic axes

     site n.     atom                  positions (cryst. coord.)
         1           Li  tau(   1) = (  0.9668730  0.2467690  0.4463850  )
         2           Li  tau(   2) = (  0.0331270  0.7532310  0.5536150  )
         3           V   tau(   3) = (  0.5000000  0.5000000  0.0000000  )
         4           V   tau(   4) = (  0.0000000  0.0000000  0.0000000  )
         5           F   tau(   5) = (  0.7644710  0.7057250  0.9392430  )
         6           F   tau(   6) = (  0.1304320  0.9653770  0.3546180  )
         7           F   tau(   7) = (  0.2667760  0.4630880  0.6472830  )
         8           F   tau(   8) = (  0.2764860  0.7931640  0.9632710  )
         9           F   tau(   9) = (  0.7235140  0.2068360  0.0367290  )
        10           F   tau(  10) = (  0.7332240  0.5369120  0.3527170  )
        11           F   tau(  11) = (  0.8695680  0.0346230  0.6453820  )
        12           F   tau(  12) = (  0.2355290  0.2942750  0.0607570  )

     number of k points=     1  Methfessel-Paxton smearing, width (Ry)=  0.0010
                       cart. coord. in units 2pi/alat
        k(    1) = (   0.0000000   0.0000000   0.0000000), wk =   2.0000000

                       cryst. coord.
        k(    1) = (   0.0000000   0.0000000   0.0000000), wk =   2.0000000

     Check: negative core charge=   -0.000003

     Initial potential from superposition of free atoms

     starting charge      87.0961, renormalised to      88.0000

     negative rho (up, down):  2.883E-03 0.000E+00
     Starting wfcs are   62 randomized atomic wfcs

     Self-consistent Calculation

     iteration #  1     ecut=    30.00 Ry     beta= 0.70
     Davidson diagonalization with overlap

     ethr =  1.00E-02,  avg # of iterations =  2.0

     negative rho (up, down):  3.778E-03 0.000E+00

     total energy              =    -708.16472891 Ry
     estimated scf accuracy    <       1.62891200 Ry

[...]

     total energy              =    -709.01637900 Ry
     estimated scf accuracy    <       0.00000101 Ry

     iteration # 24     ecut=    30.00 Ry     beta= 0.70
     Davidson diagonalization with overlap

     ethr =  1.15E-09,  avg # of iterations =  1.0

[...]

     End of self-consistent calculation

          k = 0.0000 0.0000 0.0000 (  1525 PWs)   bands (ev):

   -61.6738 -61.6708 -41.2764 -41.2563 -35.7787 -35.7730 -35.4623 -35.4159
   -35.3345 -35.3010 -20.7620 -20.3897 -20.3073 -20.2068 -20.0365 -20.0096
   -19.7350 -19.6998  -4.0172  -3.5874  -3.0052  -2.9130  -2.8127  -2.8060
    -2.6389  -2.5906  -2.5245  -2.3522  -1.7229  -1.6760  -1.5562  -1.2904
    -1.2475  -1.0881  -0.9443  -0.8662  -0.7978  -0.7600  -0.7479  -0.6581
    -0.5957  -0.5255   3.7805   4.0356   4.0385   4.3889   4.5213   4.7266
     5.2535   5.7133   6.5207   7.2581   7.5168

     occupation numbers
     1.0000   1.0000   1.0000   1.0000   1.0000   1.0000   1.0000   1.0000
     1.0000   1.0000   1.0000   1.0000   1.0000   1.0000   1.0000   1.0000
     1.0000   1.0000   1.0000   1.0000   1.0000   1.0000   1.0000   1.0000
     1.0000   1.0000   1.0000   1.0000   1.0000   1.0000   1.0000   1.0000
     1.0000   1.0000   1.0000   1.0000   1.0000   1.0000   1.0000   1.0000
     1.0000   1.0000   1.0000   0.5920   0.4080  -0.0000  -0.0000  -0.0000
    -0.0000  -0.0000  -0.0000  -0.0000  -0.0000

     the Fermi energy is     4.0371 ev

!    total energy              =    -709.01637823 Ry
     estimated scf accuracy    <       0.00000098 Ry
     smearing contrib. (-TS)   =      -0.00054413 Ry
     internal energy E=F+TS    =    -709.01583409 Ry

     The total energy is F=E-TS. E is the sum of the following terms:
     one-electron contribution =    -510.24866058 Ry
     hartree contribution      =     285.68221928 Ry
     xc contribution           =    -120.82348384 Ry
     ewald contribution        =    -363.62590896 Ry

     convergence has been achieved in  24 iterations

     negative rho (up, down):  3.362E-03 0.000E+00

     Forces acting on atoms (cartesian axes, Ry/au):

     atom    1 type  1   force =    -0.00107647    0.00042486    0.00231043
     atom    2 type  1   force =     0.00107647   -0.00042486   -0.00231043
     atom    3 type  2   force =     0.00000000    0.00000000    0.00000000
     atom    4 type  2   force =     0.00000000    0.00000000    0.00000000
     atom    5 type  3   force =    -0.01260175    0.01002342    0.00972660
     atom    6 type  3   force =     0.00377281   -0.00068190   -0.01606127
     atom    7 type  3   force =     0.00614999   -0.00167584    0.01568062
     atom    8 type  3   force =    -0.00778091   -0.00965387    0.01607038
     atom    9 type  3   force =     0.00778091    0.00965387   -0.01607038
     atom   10 type  3   force =    -0.00614999    0.00167584   -0.01568062
     atom   11 type  3   force =    -0.00377281    0.00068190    0.01606127
     atom   12 type  3   force =     0.01260175   -0.01002342   -0.00972660
     The non-local contrib.  to forces
     atom    1 type  1   force =     0.00145490    0.00026513   -0.04557390
     atom    2 type  1   force =    -0.00145490   -0.00026513    0.04557390
     atom    3 type  2   force =     0.00000000    0.00000000    0.00000000
     atom    4 type  2   force =     0.00000000    0.00000000    0.00000000
     atom    5 type  3   force =    -0.23423161    0.23079440    0.32779114
     atom    6 type  3   force =    -0.27056028    0.09246288   -0.68305150
     atom    7 type  3   force =    -0.22455158    0.08611481    0.69514799
     atom    8 type  3   force =    -0.22784893   -0.22654163    0.01909571
     atom    9 type  3   force =     0.22784893    0.22654163   -0.01909571
     atom   10 type  3   force =     0.22455158   -0.08611481   -0.69514799
     atom   11 type  3   force =     0.27056028   -0.09246288    0.68305150
     atom   12 type  3   force =     0.23423161   -0.23079440   -0.32779114
     The ionic contribution  to forces
     atom    1 type  1   force =    -0.12198892    0.06233018    0.53222209
     atom    2 type  1   force =     0.12198892   -0.06233018   -0.53222209
     atom    3 type  2   force =    -0.00000000   -0.00000000    0.00000000
     atom    4 type  2   force =     0.00000000   -0.00000000   -0.00000000
     atom    5 type  3   force =     2.38976207   -2.59017792   -5.65858057
     atom    6 type  3   force =     3.80272590   -1.67029054   11.54566786
     atom    7 type  3   force =     3.09423676   -1.36998523  -11.51107866
     atom    8 type  3   force =     2.49761734    2.33679068    0.68469080
     atom    9 type  3   force =    -2.49761734   -2.33679068   -0.68469080
     atom   10 type  3   force =    -3.09423676    1.36998523   11.51107867
     atom   11 type  3   force =    -3.80272590    1.67029054  -11.54566786
     atom   12 type  3   force =    -2.38976207    2.59017792    5.65858057
     The local contribution  to forces
     atom    1 type  1   force =     0.11949068   -0.06228075   -0.48433112
     atom    2 type  1   force =    -0.11948874    0.06228088    0.48433170
     atom    3 type  2   force =     0.00000364   -0.00000365   -0.00001355
     atom    4 type  2   force =    -0.00000141    0.00000123   -0.00000330
     atom    5 type  3   force =    -2.16714125    2.37036026    5.34054152
     atom    6 type  3   force =    -3.52829920    1.57726038  -10.87934006
     atom    7 type  3   force =    -2.86368575    1.28207018   10.83089093
     atom    8 type  3   force =    -2.27854850   -2.11898573   -0.68772019
     atom    9 type  3   force =     2.27854745    2.11898568    0.68771827
     atom   10 type  3   force =     2.86368503   -1.28206826  -10.83088847
     atom   11 type  3   force =     3.52830176   -1.57726216   10.87934489
     atom   12 type  3   force =     2.16714031   -2.37036153   -5.34054293
     The core correction contribution to forces
     atom    1 type  1   force =     0.00000000    0.00000000    0.00000000
     atom    2 type  1   force =     0.00000000    0.00000000    0.00000000
     atom    3 type  2   force =    -0.00000024    0.00000013   -0.00000014
     atom    4 type  2   force =    -0.00000004   -0.00000008   -0.00000004
     atom    5 type  3   force =     0.00000000    0.00000000    0.00000000
     atom    6 type  3   force =     0.00000000    0.00000000    0.00000000
     atom    7 type  3   force =     0.00000000    0.00000000    0.00000000
     atom    8 type  3   force =     0.00000000    0.00000000    0.00000000
     atom    9 type  3   force =     0.00000000    0.00000000    0.00000000
     atom   10 type  3   force =     0.00000000    0.00000000    0.00000000
     atom   11 type  3   force =     0.00000000    0.00000000    0.00000000
     atom   12 type  3   force =     0.00000000    0.00000000    0.00000000
     The Hubbard contrib.    to forces
     atom    1 type  1   force =     0.00000000    0.00000000    0.00000000
     atom    2 type  1   force =     0.00000000    0.00000000    0.00000000
     atom    3 type  2   force =     0.00000000    0.00000000    0.00000000
     atom    4 type  2   force =     0.00000000    0.00000000    0.00000000
     atom    5 type  3   force =     0.00000000    0.00000000    0.00000000
     atom    6 type  3   force =     0.00000000    0.00000000    0.00000000
     atom    7 type  3   force =     0.00000000    0.00000000    0.00000000
     atom    8 type  3   force =     0.00000000    0.00000000    0.00000000
     atom    9 type  3   force =     0.00000000    0.00000000    0.00000000
     atom   10 type  3   force =     0.00000000    0.00000000    0.00000000
     atom   11 type  3   force =     0.00000000    0.00000000    0.00000000
     atom   12 type  3   force =     0.00000000    0.00000000    0.00000000
     The SCF correction term to forces
     atom    1 type  1   force =    -0.00003344    0.00011026   -0.00000666
     atom    2 type  1   force =     0.00003088   -0.00011045    0.00000605
     atom    3 type  2   force =    -0.00000167    0.00000437    0.00001750
     atom    4 type  2   force =     0.00000276    0.00000055    0.00000465
     atom    5 type  3   force =    -0.00099095   -0.00095371   -0.00002436
     atom    6 type  3   force =    -0.00009271   -0.00011526    0.00066208
     atom    7 type  3   force =     0.00015004    0.00012439    0.00072021
     atom    8 type  3   force =     0.00099857   -0.00091731    0.00000495
     atom    9 type  3   force =    -0.00099876    0.00091713   -0.00000124
     atom   10 type  3   force =    -0.00015037   -0.00012634   -0.00072297
     atom   11 type  3   force =     0.00009195    0.00011578   -0.00066759
     atom   12 type  3   force =     0.00099189    0.00095421    0.00002802

     Total force =     0.051609     Total SCF correction =     0.003088

     Computing stress (Cartesian axis) and pressure

     negative rho (up, down):  3.362E-03 0.000E+00
          total   stress  (Ry/bohr**3)                   (kbar)     P=     -195.40
  -0.00137562   0.00002984   0.00000355         -202.36        4.39        0.52
   0.00002984  -0.00137184   0.00002759            4.39     -201.80        4.06
   0.00000355   0.00002759  -0.00123746            0.52        4.06     -182.04

     kinetic stress (kbar)  19746.22    -16.80     13.98
                              -16.80  19705.83      0.05
                               13.98      0.05  19522.31

     local   stress (kbar) -12578.45   -769.62    194.44
                             -769.62 -18532.09     15.72
                              194.44     15.72  -4822.38

     nonloc. stress (kbar)    646.82     -6.02     -0.85
                               -6.02    646.43      0.86
                               -0.85      0.86    599.76

     hartree stress (kbar)  13117.28    328.55    -79.49
                              328.55  15601.31      4.64
                              -79.49      4.64   9168.65

     exc-cor stress (kbar)  -4375.04      0.50      0.08
                                0.50  -4372.53     -0.10
                                0.08     -0.10  -4372.98

     corecor stress (kbar)   -688.62      0.50     -0.05
                                0.50   -689.22      0.04
                               -0.05      0.04   -685.34

     ewald   stress (kbar) -16070.57    467.27   -127.59
                              467.27 -12561.53    -17.16
                             -127.59    -17.16 -19592.05

     hubbard stress (kbar)      0.00      0.00      0.00
                                0.00      0.00      0.00
                                0.00      0.00      0.00

     DFT-D   stress (kbar)      0.00      0.00      0.00
                                0.00      0.00      0.00
                                0.00      0.00      0.00

     XDM     stress (kbar)      0.00      0.00      0.00
                                0.00      0.00      0.00
                                0.00      0.00      0.00

     dft-nl  stress (kbar)      0.00      0.00      0.00
                                0.00      0.00      0.00
                                0.00      0.00      0.00

     TS-vdW  stress (kbar)      0.00      0.00      0.00
                                0.00      0.00      0.00
                                0.00      0.00      0.00

[...]

                                0.00      0.00      0.00

     Writing all to output data dir calculations/myprefix.save/

     General routines

     Parallel routines

   This run was terminated on:  13:28:24   3Mar2023

   JOB DONE.