     Program PWSCF v.7.0 starts on  6Mar2023 at 12:41:25

     R & G space division:  proc/nbgrp/npool/nimage =      32

     Reading input from espresso_4646.pwi
Warning: card &CELL ignored
Warning: card / ignored

     Current dimensions of program PWSCF are:
     Max number of different atomic species (ntypx) = 10
     Max number of k-points (npk) =  40000
     Max angular momentum in pseudopotentials (lmaxx) =  4

     gamma-point specific algorithms are used
     Message from routine setup:
     using ibrav=0 with symmetry is DISCOURAGED, use correct ibrav instead

     Using Slab Decomposition

     bravais-lattice index     =            0
     lattice parameter (alat)  =      15.3469  a.u.
     unit-cell volume          =    2382.3808 (a.u.)^3
     number of atoms/cell      =            8
     number of atomic types    =            2
     number of electrons       =        64.00
     number of Kohn-Sham states=           38
     kinetic-energy cutoff     =      30.0000  Ry
     charge density cutoff     =     240.0000  Ry
     scf convergence threshold =      1.0E-06
     mixing beta               =       0.7000
     number of iterations used =            8  plain     mixing
     Exchange-correlation= SLA  PW   PBX  PBC
                           (   1   4   3   4   0   0   0)

     celldm(1)=  15.346894  celldm(2)=   0.000000  celldm(3)=   0.000000
     celldm(4)=   0.000000  celldm(5)=   0.000000  celldm(6)=   0.000000

     crystal axes: (cart. coord. in units of alat)
               a(1) = (   1.000000   0.000000   0.000000 )
               a(2) = (  -0.850067   0.526674   0.000000 )
               a(3) = (   0.000000   0.000000   1.251434 )

     reciprocal axes: (cart. coord. in units 2 pi/alat)
               b(1) = (  1.000000  1.614030  0.000000 )
               b(2) = (  0.000000  1.898709  0.000000 )
               b(3) = (  0.000000  0.000000  0.799083 )

     PseudoPot. # 1 for La read from file:
     /home/pragov/projects/rrg-bengioy-ad/pragov/crystal_structure_design/SSSP/La.GGA-PBE-paw-v1.0.UPF
     MD5 check sum: 436541e95c1ad8901025bd0b0ed42ae2
     Pseudo is Projector augmented-wave + core cor, Zval = 11.0
     Generated using ATOMPAW code
     Shape of augmentation charge: BESSEL
     Using radial grid of 1101 points,  8 beta functions with:
                l(1) =   0
                l(2) =   0
                l(3) =   1
                l(4) =   1
                l(5) =   2
                l(6) =   2
                l(7) =   3
                l(8) =   3
     Q(r) pseudized with 0 coefficients

     PseudoPot. # 2 for I  read from file:
     /home/pragov/projects/rrg-bengioy-ad/pragov/crystal_structure_design/SSSP/I.pbe-n-kjpaw_psl.0.2.UPF
     MD5 check sum: d4ef18d9c8f18dc85e5843bca1e50dc0
     Pseudo is Projector augmented-wave + core cor, Zval =  7.0
     Generated using "atomic" code by A. Dal Corso  v.5.0.99 svn rev. 10869
     Shape of augmentation charge: PSQ
     Using radial grid of 1247 points,  4 beta functions with:
                l(1) =   0
                l(2) =   0
                l(3) =   1
                l(4) =   1
     Q(r) pseudized with 0 coefficients

     atomic species   valence    mass     pseudopotential
        La            11.00   138.90547     La( 1.00)
        I              7.00   126.90447     I ( 1.00)

      4 Sym. Ops., with inversion, found ( 2 have fractional translation)

                                    s                        frac. trans.

      isym =  1     identity

 cryst.   s( 1) = (     1          0          0      )
                  (     0          1          0      )
                  (     0          0          1      )

 cart.    s( 1) = (  1.0000000 -0.0000000  0.0000000 )
                  (  0.0000000  1.0000000  0.0000000 )
                  (  0.0000000  0.0000000  1.0000000 )

      isym =  2     180 deg rotation - cart. axis [0,0,1]

 cryst.   s( 2) = (    -1          0          0      )    f =(  0.0000000 )
                  (     0         -1          0      )       (  0.0000000 )
                  (     0          0          1      )       (  0.5000000 )

 cart.    s( 2) = ( -1.0000000  0.0000000  0.0000000 )    f =(  0.0000000 )
                  (  0.0000000 -1.0000000  0.0000000 )       (  0.0000000 )
                  (  0.0000000  0.0000000  1.0000000 )       (  0.6257171 )

      isym =  3     inversion

 cryst.   s( 3) = (    -1          0          0      )
                  (     0         -1          0      )
                  (     0          0         -1      )

 cart.    s( 3) = ( -1.0000000  0.0000000  0.0000000 )
                  (  0.0000000 -1.0000000  0.0000000 )
                  (  0.0000000  0.0000000 -1.0000000 )

      isym =  4     inv. 180 deg rotation - cart. axis [0,0,1]

 cryst.   s( 4) = (     1          0          0      )    f =(  0.0000000 )
                  (     0          1          0      )       (  0.0000000 )
                  (     0          0         -1      )       (  0.5000000 )

 cart.    s( 4) = (  1.0000000 -0.0000000  0.0000000 )    f =(  0.0000000 )
                  (  0.0000000  1.0000000  0.0000000 )       (  0.0000000 )
                  (  0.0000000  0.0000000 -1.0000000 )       (  0.6257171 )

   Cartesian axes

     site n.     atom                  positions (alat units)
         1           La  tau(   1) = (  -0.3716197   0.3904701   0.3128586  )
         2           La  tau(   2) = (   0.5215522   0.1362036   0.9385757  )
         3           I   tau(   3) = (   0.3617693   0.1816903   0.5421814  )
         4           I   tau(   4) = (  -0.2118368   0.3449834   0.7092529  )
         5           I   tau(   5) = (  -0.6750400   0.4768473   0.9385757  )
         6           I   tau(   6) = (   0.8249725   0.0498265   0.3128586  )
         7           I   tau(   7) = (   0.3617693   0.1816903   0.0835357  )
         8           I   tau(   8) = (  -0.2118368   0.3449834   1.1678985  )

   Crystallographic axes

     site n.     atom                  positions (cryst. coord.)
         1           La  tau(   1) = (  0.2586110  0.7413890  0.2500000  )
         2           La  tau(   2) = (  0.7413890  0.2586110  0.7500000  )
         3           I   tau(   3) = (  0.6550230  0.3449770  0.4332480  )
         4           I   tau(   4) = (  0.3449770  0.6550230  0.5667520  )
         5           I   tau(   5) = (  0.0946060  0.9053940  0.7500000  )
         6           I   tau(   6) = (  0.9053940  0.0946060  0.2500000  )
         7           I   tau(   7) = (  0.6550230  0.3449770  0.0667520  )
         8           I   tau(   8) = (  0.3449770  0.6550230  0.9332480  )

     number of k points=     1  Methfessel-Paxton smearing, width (Ry)=  0.0010
                       cart. coord. in units 2pi/alat
        k(    1) = (   0.0000000   0.0000000   0.0000000), wk =   2.0000000

                       cryst. coord.
        k(    1) = (   0.0000000   0.0000000   0.0000000), wk =   2.0000000

     Initial potential from superposition of free atoms

     starting charge      63.9825, renormalised to      64.0000
     Starting wfcs are   88 randomized atomic wfcs
     Checking if some PAW data can be deallocated...

     Self-consistent Calculation

     iteration #  1     ecut=    30.00 Ry     beta= 0.70
     Davidson diagonalization with overlap

     ethr =  1.00E-02,  avg # of iterations =  1.0

     Threshold (ethr) on eigenvalues was too large:
     Diagonalizing with lowered threshold

     Davidson diagonalization with overlap

[...]

     total energy              =   -3190.41296491 Ry
     estimated scf accuracy    <       0.18868910 Ry

[...]

     negative rho (up, down):  3.586E-07 0.000E+00

[...]

     c_bands:  3 eigenvalues not converged
     ethr =  1.18E-06,  avg # of iterations = 20.0

[...]

     total energy              =   -3190.47125275 Ry
     estimated scf accuracy    <       0.00000620 Ry

     iteration #  9     ecut=    30.00 Ry     beta= 0.70
     Davidson diagonalization with overlap

     ethr =  8.19E-09,  avg # of iterations =  2.0

[...]

     End of self-consistent calculation

          k = 0.0000 0.0000 0.0000 (  3320 PWs)   bands (ev):

   -28.4254 -28.4225 -12.2965 -12.2703 -12.2629 -12.1580 -11.9541 -11.9479
    -8.0942  -7.5325  -7.4915  -7.3972  -7.3562  -7.2377   0.8349   0.8361
     1.1292   1.7112   1.8045   1.9040   2.0320   2.0356   2.1884   2.3391
     2.5230   2.7136   2.9932   3.2910   3.3744   3.3771   3.5911   3.9752
     6.1690   6.3159   6.3974   6.4550   6.4555   6.4636

     occupation numbers
     1.0000   1.0000   1.0000   1.0000   1.0000   1.0000   1.0000   1.0000
     1.0000   1.0000   1.0000   1.0000   1.0000   1.0000   1.0000   1.0000
     1.0000   1.0000   1.0000   1.0000   1.0000   1.0000   1.0000   1.0000
     1.0000   1.0000   1.0000   1.0000   1.0000   1.0000   1.0000   1.0000
    -0.0000  -0.0000  -0.0000  -0.0000  -0.0000  -0.0000

     the Fermi energy is     4.4021 ev

!    total energy              =   -3190.47125296 Ry

     total all-electron energy =    -86314.455926 Ry
     estimated scf accuracy    <       0.00000087 Ry
     smearing contrib. (-TS)   =       0.00000000 Ry
     internal energy E=F+TS    =   -3190.47125296 Ry

     The total energy is F=E-TS. E is the sum of the following terms:
     one-electron contribution =     -63.10389606 Ry
     hartree contribution      =      60.27966137 Ry
     xc contribution           =    -268.32124211 Ry
     ewald contribution        =    -199.93847296 Ry
     one-center paw contrib.   =   -2719.38730321 Ry
      -> PAW hartree energy AE =      34.58499474 Ry
      -> PAW hartree energy PS =     -34.62551248 Ry
      -> PAW xc energy AE      =    -405.32188315 Ry
      -> PAW xc energy PS      =       7.25758490 Ry
      -> total E_H with PAW    =      60.23914364 Ry
      -> total E_XC with PAW   =    -666.38554036 Ry

     convergence has been achieved in   9 iterations

     negative rho (up, down):  6.389E-05 0.000E+00

     Forces acting on atoms (cartesian axes, Ry/au):

     atom    1 type  1   force =     0.00117709   -0.00037593    0.00000000
     atom    2 type  1   force =    -0.00117709    0.00037593    0.00000000
     atom    3 type  2   force =     0.01621180   -0.00461628   -0.01153839
     atom    4 type  2   force =    -0.01621180    0.00461628    0.01153839
     atom    5 type  2   force =     0.03137582   -0.00894747    0.00000000
     atom    6 type  2   force =    -0.03137582    0.00894747    0.00000000
     atom    7 type  2   force =     0.01621180   -0.00461628    0.01153839
     atom    8 type  2   force =    -0.01621180    0.00461628   -0.01153839
     The non-local contrib.  to forces
     atom    1 type  1   force =     0.00566595   -0.00162460    0.00000000
     atom    2 type  1   force =    -0.00566595    0.00162460    0.00000000
     atom    3 type  2   force =     0.08174485   -0.02327115   -0.03653438
     atom    4 type  2   force =    -0.08174485    0.02327115    0.03653438
     atom    5 type  2   force =     0.11253683   -0.03204325    0.00000000
     atom    6 type  2   force =    -0.11253683    0.03204325    0.00000000
     atom    7 type  2   force =     0.08174485   -0.02327115    0.03653438
     atom    8 type  2   force =    -0.08174485    0.02327115   -0.03653438
     The ionic contribution  to forces
     atom    1 type  1   force =    -0.48793613    0.13890475   -0.00000000
     atom    2 type  1   force =     0.48793613   -0.13890475    0.00000000
     atom    3 type  2   force =    -4.87067973    1.38657600    0.39448790
     atom    4 type  2   force =     4.87067973   -1.38657600   -0.39448790
     atom    5 type  2   force =    -5.57610725    1.58739579    0.00000000
     atom    6 type  2   force =     5.57610725   -1.58739579   -0.00000000
     atom    7 type  2   force =    -4.87067973    1.38657600   -0.39448790
     atom    8 type  2   force =     4.87067973   -1.38657600    0.39448790
     The local contribution  to forces
     atom    1 type  1   force =     0.48373917   -0.13769999    0.00008299
     atom    2 type  1   force =    -0.48357021    0.13790935   -0.00016525
     atom    3 type  2   force =     4.80978103   -1.36927437   -0.37509388
     atom    4 type  2   force =    -4.80958185    1.36914644    0.37442829
     atom    5 type  2   force =     5.49798079   -1.56519631   -0.00009715
     atom    6 type  2   force =    -5.49836266    1.56525454    0.00002994
     atom    7 type  2   force =     4.80976408   -1.36923435    0.37517816
     atom    8 type  2   force =    -4.80952633    1.36913995   -0.37446029
     The core correction contribution to forces
     atom    1 type  1   force =    -0.00004399    0.00001254    0.00000004
     atom    2 type  1   force =     0.00004405   -0.00001242   -0.00000006
     atom    3 type  2   force =    -0.00376707    0.00106257    0.00540486
     atom    4 type  2   force =     0.00376927   -0.00107723   -0.00541199
     atom    5 type  2   force =    -0.00243089    0.00068592    0.00000542
     atom    6 type  2   force =     0.00242694   -0.00069100   -0.00001402
     atom    7 type  2   force =    -0.00375762    0.00107007   -0.00540100
     atom    8 type  2   force =     0.00377114   -0.00108035    0.00541176
     The Hubbard contrib.    to forces
     atom    1 type  1   force =     0.00000000    0.00000000    0.00000000
     atom    2 type  1   force =     0.00000000    0.00000000    0.00000000
     atom    3 type  2   force =     0.00000000    0.00000000    0.00000000
     atom    4 type  2   force =     0.00000000    0.00000000    0.00000000
     atom    5 type  2   force =     0.00000000    0.00000000    0.00000000
     atom    6 type  2   force =     0.00000000    0.00000000    0.00000000
     atom    7 type  2   force =     0.00000000    0.00000000    0.00000000
     atom    8 type  2   force =     0.00000000    0.00000000    0.00000000
     The SCF correction term to forces
     atom    1 type  1   force =    -0.00021821    0.00008729   -0.00025215
     atom    2 type  1   force =     0.00010859   -0.00018494    0.00030167
     atom    3 type  2   force =    -0.00087009    0.00027119    0.00021518
     atom    4 type  2   force =     0.00068488   -0.00016213    0.00060822
     atom    5 type  2   force =    -0.00060338    0.00018718    0.00021189
     atom    6 type  2   force =     0.00098976   -0.00028671   -0.00014925
     atom    7 type  2   force =    -0.00083589    0.00023638   -0.00041758
     atom    8 type  2   force =     0.00061062   -0.00015069   -0.00046116

     Total force =     0.061653     Total SCF correction =     0.002250

     Computing stress (Cartesian axis) and pressure

     negative rho (up, down):  6.389E-05 0.000E+00
          total   stress  (Ry/bohr**3)                   (kbar)     P=       38.19
  -0.00006646   0.00027682   0.00000000           -9.78       40.72        0.00
   0.00027682   0.00082705   0.00000000           40.72      121.66        0.00
   0.00000000   0.00000000   0.00001818            0.00        0.00        2.67

     kinetic stress (kbar)   3023.73     46.23      0.00
                               46.23   3172.96      0.00
                                0.00      0.00   3023.97

     local   stress (kbar)   5107.57  -2213.56      0.00
                            -2213.56  -2037.91      0.00
                                0.00      0.00  -1800.05

     nonloc. stress (kbar)    690.89    -10.65      0.00
                              -10.65    656.51      0.00
                                0.00      0.00    696.07

     hartree stress (kbar)   -764.29    938.96     -0.00
                              938.96   2266.74     -0.00
                               -0.00     -0.00   2219.64

     exc-cor stress (kbar)  12279.60      0.61     -0.00
                                0.61  12281.58     -0.00
                               -0.00     -0.00  12281.93

     corecor stress (kbar) -13543.95     -2.15     -0.00
                               -2.15 -13550.89      0.00
                               -0.00      0.00 -13543.92

     ewald   stress (kbar)  -6803.33   1281.27     -0.00
                             1281.27  -2667.32      0.00
                               -0.00      0.00  -2874.97

     hubbard stress (kbar)      0.00      0.00      0.00
                                0.00      0.00      0.00
                                0.00      0.00      0.00

     DFT-D   stress (kbar)      0.00      0.00      0.00
                                0.00      0.00      0.00
                                0.00      0.00      0.00

     XDM     stress (kbar)      0.00      0.00      0.00
                                0.00      0.00      0.00
                                0.00      0.00      0.00

     dft-nl  stress (kbar)      0.00      0.00      0.00
                                0.00      0.00      0.00
                                0.00      0.00      0.00

     TS-vdW  stress (kbar)      0.00      0.00      0.00
                                0.00      0.00      0.00
                                0.00      0.00      0.00

[...]

                                0.00      0.00      0.00

     Writing all to output data dir calculations/myprefix.save/

     General routines

     Parallel routines

     PAW routines

   This run was terminated on:  12:41:31   6Mar2023

   JOB DONE.