     Program PWSCF v.7.0 starts on  6Mar2023 at 11: 3: 0

     R & G space division:  proc/nbgrp/npool/nimage =      32

     Reading input from espresso_4386.pwi
Warning: card &CELL ignored
Warning: card / ignored

     Current dimensions of program PWSCF are:
     Max number of different atomic species (ntypx) = 10
     Max number of k-points (npk) =  40000
     Max angular momentum in pseudopotentials (lmaxx) =  4
     file O.pbe-n-kjpaw_psl.0.1.UPF: wavefunction(s)  2P renormalized

     gamma-point specific algorithms are used
     Message from routine setup:
     using ibrav=0 with symmetry is DISCOURAGED, use correct ibrav instead

     Using Slab Decomposition

     bravais-lattice index     =            0
     lattice parameter (alat)  =      15.2787  a.u.
     unit-cell volume          =    1784.3965 (a.u.)^3
     number of atoms/cell      =           20
     number of atomic types    =            4
     number of electrons       =       160.00
     number of Kohn-Sham states=           96
     kinetic-energy cutoff     =      30.0000  Ry
     charge density cutoff     =     240.0000  Ry
     scf convergence threshold =      1.0E-06
     mixing beta               =       0.7000
     number of iterations used =            8  plain     mixing
     Exchange-correlation= SLA  PW   PBX  PBC
                           (   1   4   3   4   0   0   0)

     celldm(1)=  15.278738  celldm(2)=   0.000000  celldm(3)=   0.000000
     celldm(4)=   0.000000  celldm(5)=   0.000000  celldm(6)=   0.000000

     crystal axes: (cart. coord. in units of alat)
               a(1) = (   1.000000   0.000000   0.000000 )
               a(2) = (   0.000000   0.698412   0.000000 )
               a(3) = (   0.000000   0.000320   0.716337 )

     reciprocal axes: (cart. coord. in units 2 pi/alat)
               b(1) = (  1.000000  0.000000  0.000000 )
               b(2) = (  0.000000  1.431821 -0.000640 )
               b(3) = (  0.000000  0.000000  1.395991 )

     PseudoPot. # 1 for Sr read from file:
     /home/pragov/projects/rrg-bengioy-ad/pragov/crystal_structure_design/SSSP/Sr_pbe_v1.uspp.F.UPF
     MD5 check sum: 6b418c05fbe9db5448babca5e47b7a5b
     Pseudo is Ultrasoft + core correction, Zval = 10.0
     Generated by new atomic code, or converted to UPF format
     Using radial grid of  883 points,  6 beta functions with:
                l(1) =   0
                l(2) =   0
                l(3) =   1
                l(4) =   1
                l(5) =   2
                l(6) =   2
     Q(r) pseudized with  6 coefficients,  rinner =    1.400   1.400   1.400
                                                       1.400   1.400

     PseudoPot. # 2 for Ca read from file:
     /home/pragov/projects/rrg-bengioy-ad/pragov/crystal_structure_design/SSSP/Ca_pbe_v1.uspp.F.UPF
     MD5 check sum: 403a4c14b9e4d4dfdc3024c9a3812218
     Pseudo is Ultrasoft + core correction, Zval = 10.0
     Generated by new atomic code, or converted to UPF format
     Using radial grid of  845 points,  6 beta functions with:
                l(1) =   0
                l(2) =   0
                l(3) =   1
                l(4) =   1
                l(5) =   2
                l(6) =   2
     Q(r) pseudized with  8 coefficients,  rinner =    1.500   1.500   1.500
                                                       1.500   1.500

     PseudoPot. # 3 for Hf read from file:
     /home/pragov/projects/rrg-bengioy-ad/pragov/crystal_structure_design/SSSP/Hf-sp.oncvpsp.upf
     MD5 check sum: 417ed15784afe83d2e06dacf143de3f8
     Pseudo is Norm-conserving + core correction, Zval = 12.0
     Generated using ONCVPSP code by D. R. Hamann
     Using radial grid of 1656 points,  8 beta functions with:
                l(1) =   0
                l(2) =   0
                l(3) =   1
                l(4) =   1
                l(5) =   2
                l(6) =   2
                l(7) =   3
                l(8) =   3

     PseudoPot. # 4 for O  read from file:
     /home/pragov/projects/rrg-bengioy-ad/pragov/crystal_structure_design/SSSP/O.pbe-n-kjpaw_psl.0.1.UPF
     MD5 check sum: 0234752ac141de4415c5fc33072bef88
     Pseudo is Projector augmented-wave + core cor, Zval =  6.0
     Generated using "atomic" code by A. Dal Corso  v.5.0.99 svn rev. 10869
     Shape of augmentation charge: BESSEL
     Using radial grid of 1095 points,  4 beta functions with:
                l(1) =   0
                l(2) =   0
                l(3) =   1
                l(4) =   1
     Q(r) pseudized with 0 coefficients

     atomic species   valence    mass     pseudopotential
        Sr            10.00    87.62000     Sr( 1.00)
        Ca            10.00    40.07800     Ca( 1.00)
        Hf            12.00   178.49000     Hf( 1.00)
        O              6.00    15.99900     O ( 1.00)

      2 Sym. Ops. (no inversion) found

                                    s                        frac. trans.

      isym =  1     identity

 cryst.   s( 1) = (     1          0          0      )
                  (     0          1          0      )
                  (     0          0          1      )

 cart.    s( 1) = (  1.0000000  0.0000000  0.0000000 )
                  (  0.0000000  1.0000000 -0.0000000 )
                  (  0.0000000  0.0000000  1.0000000 )

      isym =  2     inv. 180 deg rotation - cart. axis [1,0,0]

 cryst.   s( 2) = (    -1          0          0      )
                  (     0          1          0      )
                  (     0          0          1      )

 cart.    s( 2) = ( -1.0000000  0.0000000  0.0000000 )
                  (  0.0000000  1.0000000 -0.0000000 )
                  (  0.0000000  0.0000000  1.0000000 )

   Cartesian axes

     site n.     atom                  positions (alat units)
         1           Sr  tau(   1) = (   0.5000000   0.3414521   0.3877770  )
         2           Ca  tau(   2) = (   0.5000000   0.0086588   0.0325095  )
         3           Ca  tau(   3) = (   0.0000000   0.3575235   0.3257887  )
         4           Ca  tau(   4) = (   0.0000000   0.6914004   0.6850512  )
         5           Hf  tau(   5) = (   0.2475780   0.0004003   0.3581700  )
         6           Hf  tau(   6) = (   0.7519910   0.3487512   0.0001160  )
         7           Hf  tau(   7) = (   0.7524220   0.0004003   0.3581700  )
         8           Hf  tau(   8) = (   0.2480090   0.3487512   0.0001160  )
         9           O   tau(   9) = (   0.5000000   0.4188673   0.7015785  )
        10           O   tau(  10) = (   0.5000000   0.6432005   0.3340524  )
        11           O   tau(  11) = (   0.0000000   0.2806687   0.0222215  )
        12           O   tau(  12) = (   0.0000000   0.0709305   0.3825527  )
        13           O   tau(  13) = (   0.3002940   0.1409688   0.5706006  )
        14           O   tau(  14) = (   0.7054260   0.2025009   0.2063245  )
        15           O   tau(  15) = (   0.8039080   0.5542921   0.1481729  )
        16           O   tau(  16) = (   0.1962300   0.4910278   0.5043687  )
        17           O   tau(  17) = (   0.1960920   0.5542921   0.1481729  )
        18           O   tau(  18) = (   0.8037700   0.4910278   0.5043687  )
        19           O   tau(  19) = (   0.6997060   0.1409688   0.5706006  )
        20           O   tau(  20) = (   0.2945740   0.2025009   0.2063245  )

   Crystallographic axes

     site n.     atom                  positions (cryst. coord.)
         1           Sr  tau(   1) = (  0.5000000  0.4886500  0.5413330  )
         2           Ca  tau(   2) = (  0.5000000  0.0123770  0.0453830  )
         3           Ca  tau(   3) = (  0.0000000  0.5117010  0.4547980  )
         4           Ca  tau(   4) = (  0.0000000  0.9895230  0.9563250  )
         5           Hf  tau(   5) = (  0.2475780  0.0003440  0.5000020  )
         6           Hf  tau(   6) = (  0.7519910  0.4993490  0.0001620  )
         7           Hf  tau(   7) = (  0.7524220  0.0003440  0.5000020  )
         8           Hf  tau(   8) = (  0.2480090  0.4993490  0.0001620  )
         9           O   tau(   9) = (  0.5000000  0.5992940  0.9793970  )
        10           O   tau(  10) = (  0.5000000  0.9207340  0.4663340  )
        11           O   tau(  11) = (  0.0000000  0.4018530  0.0310210  )
        12           O   tau(  12) = (  0.0000000  0.1013150  0.5340400  )
        13           O   tau(  13) = (  0.3002940  0.2014770  0.7965530  )
        14           O   tau(  14) = (  0.7054260  0.2898130  0.2880270  )
        15           O   tau(  15) = (  0.8039080  0.7935520  0.2068480  )
        16           O   tau(  16) = (  0.1962300  0.7027410  0.7040940  )
        17           O   tau(  17) = (  0.1960920  0.7935520  0.2068480  )
        18           O   tau(  18) = (  0.8037700  0.7027410  0.7040940  )
        19           O   tau(  19) = (  0.6997060  0.2014770  0.7965530  )
        20           O   tau(  20) = (  0.2945740  0.2898130  0.2880270  )

     number of k points=     1  Methfessel-Paxton smearing, width (Ry)=  0.0010
                       cart. coord. in units 2pi/alat
        k(    1) = (   0.0000000   0.0000000   0.0000000), wk =   2.0000000

                       cryst. coord.
        k(    1) = (   0.0000000   0.0000000   0.0000000), wk =   2.0000000

     Check: negative core charge=   -0.000012

     Initial potential from superposition of free atoms

     starting charge     159.9426, renormalised to     160.0000

     negative rho (up, down):  6.398E-02 0.000E+00
     Starting wfcs are  131 randomized atomic wfcs
     Checking if some PAW data can be deallocated...

     Self-consistent Calculation

     iteration #  1     ecut=    30.00 Ry     beta= 0.70
     Davidson diagonalization with overlap

     ethr =  1.00E-02,  avg # of iterations =  2.0

     negative rho (up, down):  6.527E-02 0.000E+00

     total energy              =   -1245.15399541 Ry
     estimated scf accuracy    <       5.86009354 Ry

[...]

     total energy              =   -1248.05689917 Ry
     estimated scf accuracy    <       0.00000934 Ry

     iteration # 10     ecut=    30.00 Ry     beta= 0.70
     Davidson diagonalization with overlap

     ethr =  5.84E-09,  avg # of iterations =  4.0

[...]

     End of self-consistent calculation

          k = 0.0000 0.0000 0.0000 (  2482 PWs)   bands (ev):

   -51.2871 -51.2864 -51.2799 -51.2792 -29.3381 -29.2681 -29.2580 -23.1772
   -20.2432 -20.2383 -20.2175 -20.2117 -20.1762 -20.1573 -20.1118 -20.1093
   -20.0779 -20.0774 -20.0410 -20.0312 -10.5554 -10.5009 -10.4884 -10.3984
   -10.3914 -10.3652 -10.3588 -10.3236 -10.3057  -7.9291  -7.6427  -7.3814
    -7.3163  -7.2078  -7.1984  -6.6551  -6.5833  -6.5396  -6.5185  -6.5003
    -6.4033  -5.0780  -5.0582  -4.8892   4.8145   4.9094   4.9957   4.9973
     5.2004   5.3044   5.3338   5.5716   5.6268   5.6747   6.7140   6.8856
     6.9073   7.0434   7.0517   7.1026   7.1304   7.1779   7.2494   7.2557
     7.3571   7.7166   7.8563   8.0285   8.0700   8.2152   8.2788   8.3954
     8.4427   8.4534   8.5401   8.6021   8.6125   8.6986   8.7665   8.7962
    12.9703  13.0604  13.0759  13.5378  14.0465  14.1668  14.6345  14.7623
    15.1013  15.2971  15.3832  15.4706  15.4752  15.5763  15.6529  15.7220

     occupation numbers
     1.0000   1.0000   1.0000   1.0000   1.0000   1.0000   1.0000   1.0000
     1.0000   1.0000   1.0000   1.0000   1.0000   1.0000   1.0000   1.0000
     1.0000   1.0000   1.0000   1.0000   1.0000   1.0000   1.0000   1.0000
     1.0000   1.0000   1.0000   1.0000   1.0000   1.0000   1.0000   1.0000
     1.0000   1.0000   1.0000   1.0000   1.0000   1.0000   1.0000   1.0000
     1.0000   1.0000   1.0000   1.0000   1.0000   1.0000   1.0000   1.0000
     1.0000   1.0000   1.0000   1.0000   1.0000   1.0000   1.0000   1.0000
     1.0000   1.0000   1.0000   1.0000   1.0000   1.0000   1.0000   1.0000
     1.0000   1.0000   1.0000   1.0000   1.0000   1.0000   1.0000   1.0000
     1.0000   1.0000   1.0000   1.0000   1.0000   1.0000   1.0000   1.0000
    -0.0000  -0.0000  -0.0000  -0.0000  -0.0000  -0.0000  -0.0000  -0.0000
    -0.0000  -0.0000  -0.0000  -0.0000  -0.0000  -0.0000  -0.0000  -0.0000

     the Fermi energy is    11.6530 ev

!    total energy              =   -1248.05690143 Ry
     estimated scf accuracy    <       0.00000045 Ry
     smearing contrib. (-TS)   =       0.00000000 Ry
     internal energy E=F+TS    =   -1248.05690143 Ry

     The total energy is F=E-TS. E is the sum of the following terms:
     one-electron contribution =    -257.73203339 Ry
     hartree contribution      =     212.97411393 Ry
     xc contribution           =    -258.66562515 Ry
     ewald contribution        =    -830.46527259 Ry
     one-center paw contrib.   =    -114.16808423 Ry
      -> PAW hartree energy AE =       0.00000000 Ry
      -> PAW hartree energy PS =       0.00000000 Ry
      -> PAW xc energy AE      =       0.00000000 Ry
      -> PAW xc energy PS      =       0.00000000 Ry
      -> total E_H with PAW    =     212.97411393 Ry
      -> total E_XC with PAW   =    -258.66562515 Ry

     convergence has been achieved in  10 iterations

     negative rho (up, down):  6.734E-02 0.000E+00

     Forces acting on atoms (cartesian axes, Ry/au):

     atom    1 type  1   force =     0.00000000   -0.01117323    0.01334727
     atom    2 type  2   force =     0.00000000    0.00908709    0.01116914
     atom    3 type  2   force =     0.00000000    0.00775241   -0.01252921
     atom    4 type  2   force =     0.00000000   -0.00692514   -0.00879230
     atom    5 type  3   force =     0.00018921   -0.00184701    0.00331648
     atom    6 type  3   force =    -0.00027363    0.00825515   -0.00128598
     atom    7 type  3   force =    -0.00018921   -0.00184701    0.00331648
     atom    8 type  3   force =     0.00027363    0.00825515   -0.00128598
     atom    9 type  4   force =     0.00000000    0.01369901   -0.00643314
     atom   10 type  4   force =     0.00000000   -0.00004375   -0.01779655
     atom   11 type  4   force =     0.00000000   -0.01062589    0.01527737
     atom   12 type  4   force =     0.00000000    0.01790851    0.01648634
     atom   13 type  4   force =     0.02721105   -0.01587166    0.01053166
     atom   14 type  4   force =    -0.02225695    0.00713919    0.00433964
     atom   15 type  4   force =     0.02629398    0.00879867   -0.00782690
     atom   16 type  4   force =    -0.02423287   -0.01631384   -0.01443937
     atom   17 type  4   force =    -0.02629398    0.00879867   -0.00782690
     atom   18 type  4   force =     0.02423287   -0.01631384   -0.01443937
     atom   19 type  4   force =    -0.02721105   -0.01587166    0.01053166
     atom   20 type  4   force =     0.02225695    0.00713919    0.00433964
     The non-local contrib.  to forces
     atom    1 type  1   force =     0.00000000    0.00642418   -0.00280654
     atom    2 type  2   force =     0.00000000    0.01177044    0.00883948
     atom    3 type  2   force =     0.00000000    0.00851611   -0.01415879
     atom    4 type  2   force =     0.00000000   -0.01182858   -0.01242481
     atom    5 type  3   force =     0.00219955   -0.00284518    0.00208261
     atom    6 type  3   force =    -0.00661282    0.00469136   -0.00777928
     atom    7 type  3   force =    -0.00219955   -0.00284518    0.00208261
     atom    8 type  3   force =     0.00661282    0.00469136   -0.00777928
     atom    9 type  4   force =     0.00000000   -0.13705761   -0.01194017
     atom   10 type  4   force =     0.00000000    0.09267763    0.00918459
     atom   11 type  4   force =     0.00000000    0.14267610   -0.02073619
     atom   12 type  4   force =     0.00000000   -0.15852204   -0.00747042
     atom   13 type  4   force =    -0.07966377    0.11037925   -0.08675159
     atom   14 type  4   force =     0.06710385   -0.05896726   -0.04007297
     atom   15 type  4   force =    -0.07595369   -0.10758334    0.06700689
     atom   16 type  4   force =     0.09411474    0.09738567    0.05965289
     atom   17 type  4   force =     0.07595369   -0.10758334    0.06700689
     atom   18 type  4   force =    -0.09411474    0.09738567    0.05965289
     atom   19 type  4   force =     0.07966377    0.11037925   -0.08675159
     atom   20 type  4   force =    -0.06710385   -0.05896726   -0.04007297
     The ionic contribution  to forces
     atom    1 type  1   force =     0.00000000    1.16883027   -0.98199119
     atom    2 type  2   force =     0.00000000   -0.90544338   -1.50682351
     atom    3 type  2   force =     0.00000000   -0.64355493    1.35891712
     atom    4 type  2   force =    -0.00000000    0.49034587    1.08359583
     atom    5 type  3   force =     0.78555523   -0.42036459    0.33105870
     atom    6 type  3   force =    -1.13214017    0.47382361   -0.61200171
     atom    7 type  3   force =    -0.78555523   -0.42036459    0.33105870
     atom    8 type  3   force =     1.13214017    0.47382361   -0.61200171
     atom    9 type  4   force =     0.00000000    1.73173967    0.07734275
     atom   10 type  4   force =     0.00000000   -2.12339389    0.55568966
     atom   11 type  4   force =    -0.00000000   -1.83759660   -0.33138109
     atom   12 type  4   force =     0.00000000    1.91625156   -0.04627217
     atom   13 type  4   force =     1.28862831   -1.05273563    0.48764626
     atom   14 type  4   force =    -1.26184494    1.22913108    0.83645170
     atom   15 type  4   force =     0.40956694    1.10287696   -0.56560613
     atom   16 type  4   force =    -0.25075218   -1.23132071   -0.58208752
     atom   17 type  4   force =    -0.40956694    1.10287696   -0.56560613
     atom   18 type  4   force =     0.25075218   -1.23132071   -0.58208752
     atom   19 type  4   force =    -1.28862831   -1.05273563    0.48764626
     atom   20 type  4   force =     1.26184494    1.22913108    0.83645170
     The local contribution  to forces
     atom    1 type  1   force =     0.00004724   -1.18634263    0.99771526
     atom    2 type  2   force =     0.00005409    0.90300265    1.50895643
     atom    3 type  2   force =    -0.00004790    0.64281319   -1.35725766
     atom    4 type  2   force =    -0.00005094   -0.48535509   -1.07963530
     atom    5 type  3   force =    -0.78766338    0.42357043   -0.33122583
     atom    6 type  3   force =     1.14032926   -0.47333784    0.62126816
     atom    7 type  3   force =     0.78765676    0.42357648   -0.33124812
     atom    8 type  3   force =    -1.14031788   -0.47332414    0.62124751
     atom    9 type  4   force =     0.00005444   -1.58239530   -0.07184857
     atom   10 type  4   force =     0.00002211    2.03167943   -0.58257417
     atom   11 type  4   force =    -0.00006491    1.68555531    0.36727799
     atom   12 type  4   force =    -0.00002041   -1.74117560    0.07018775
     atom   13 type  4   force =    -1.18246260    0.92749893   -0.39118782
     atom   14 type  4   force =     1.17320706   -1.16352715   -0.79242932
     atom   15 type  4   force =    -0.30771720   -0.98752929    0.49144407
     atom   16 type  4   force =     0.13303717    1.11848994    0.50853345
     atom   17 type  4   force =     0.30770876   -0.98750040    0.49147114
     atom   18 type  4   force =    -0.13305975    1.11846399    0.50855522
     atom   19 type  4   force =     1.18248426    0.92753492   -0.39116276
     atom   20 type  4   force =    -1.17318787   -1.16355010   -0.79240162
     The core correction contribution to forces
     atom    1 type  1   force =     0.00000031   -0.00044538    0.00043870
     atom    2 type  2   force =     0.00000049    0.00008622    0.00008897
     atom    3 type  2   force =    -0.00000052   -0.00000959   -0.00012572
     atom    4 type  2   force =    -0.00000055   -0.00008622   -0.00016433
     atom    5 type  3   force =    -0.00011343   -0.00190508    0.00131080
     atom    6 type  3   force =    -0.00184952    0.00280998   -0.00255379
     atom    7 type  3   force =     0.00011346   -0.00190530    0.00131025
     atom    8 type  3   force =     0.00185079    0.00281016   -0.00255442
     atom    9 type  4   force =    -0.00000030    0.00126410    0.00004764
     atom   10 type  4   force =    -0.00000010   -0.00079637   -0.00008677
     atom   11 type  4   force =     0.00000016   -0.00123003    0.00019844
     atom   12 type  4   force =     0.00000004    0.00141342   -0.00000408
     atom   13 type  4   force =     0.00064045   -0.00097963    0.00083868
     atom   14 type  4   force =    -0.00053826    0.00047963    0.00032938
     atom   15 type  4   force =     0.00056694    0.00096969   -0.00065119
     atom   16 type  4   force =    -0.00076241   -0.00089064   -0.00059645
     atom   17 type  4   force =    -0.00056662    0.00096963   -0.00065122
     atom   18 type  4   force =     0.00076246   -0.00089064   -0.00059664
     atom   19 type  4   force =    -0.00064049   -0.00097980    0.00083847
     atom   20 type  4   force =     0.00053817    0.00047972    0.00032917
     The Hubbard contrib.    to forces
     atom    1 type  1   force =     0.00000000    0.00000000    0.00000000
     atom    2 type  2   force =     0.00000000    0.00000000    0.00000000
     atom    3 type  2   force =     0.00000000    0.00000000    0.00000000
     atom    4 type  2   force =     0.00000000    0.00000000    0.00000000
     atom    5 type  3   force =     0.00000000    0.00000000    0.00000000
     atom    6 type  3   force =     0.00000000    0.00000000    0.00000000
     atom    7 type  3   force =     0.00000000    0.00000000    0.00000000
     atom    8 type  3   force =     0.00000000    0.00000000    0.00000000
     atom    9 type  4   force =     0.00000000    0.00000000    0.00000000
     atom   10 type  4   force =     0.00000000    0.00000000    0.00000000
     atom   11 type  4   force =     0.00000000    0.00000000    0.00000000
     atom   12 type  4   force =     0.00000000    0.00000000    0.00000000
     atom   13 type  4   force =     0.00000000    0.00000000    0.00000000
     atom   14 type  4   force =     0.00000000    0.00000000    0.00000000
     atom   15 type  4   force =     0.00000000    0.00000000    0.00000000
     atom   16 type  4   force =     0.00000000    0.00000000    0.00000000
     atom   17 type  4   force =     0.00000000    0.00000000    0.00000000
     atom   18 type  4   force =     0.00000000    0.00000000    0.00000000
     atom   19 type  4   force =     0.00000000    0.00000000    0.00000000
     atom   20 type  4   force =     0.00000000    0.00000000    0.00000000
     The SCF correction term to forces
     atom    1 type  1   force =    -0.00005252    0.00036135   -0.00000625
     atom    2 type  2   force =    -0.00005408   -0.00032782    0.00011049
     atom    3 type  2   force =     0.00004671   -0.00001134    0.00009856
     atom    4 type  2   force =     0.00005190   -0.00000009   -0.00016098
     atom    5 type  3   force =     0.00021134   -0.00029937    0.00009390
     atom    6 type  3   force =     0.00000084    0.00026867   -0.00021672
     atom    7 type  3   force =    -0.00020454   -0.00030959    0.00011476
     atom    8 type  3   force =    -0.00001106    0.00025561   -0.00019532
     atom    9 type  4   force =    -0.00007410    0.00014918   -0.00003208
     atom   10 type  4   force =    -0.00003025   -0.00020952   -0.00000715
     atom   11 type  4   force =     0.00008215   -0.00002964   -0.00007907
     atom   12 type  4   force =     0.00002653   -0.00005781    0.00004797
     atom   13 type  4   force =     0.00006654   -0.00002979   -0.00000652
     atom   14 type  4   force =    -0.00018838    0.00002173    0.00007235
     atom   15 type  4   force =    -0.00015943    0.00006928   -0.00001412
     atom   16 type  4   force =     0.00013272    0.00002048    0.00006755
     atom   17 type  4   force =     0.00018671    0.00003323   -0.00004858
     atom   18 type  4   force =    -0.00010438    0.00005130    0.00003280
     atom   19 type  4   force =    -0.00009237   -0.00007315   -0.00004064
     atom   20 type  4   force =     0.00016184    0.00004896    0.00002728

     Total force =     0.098115     Total SCF correction =     0.001051

     Computing stress (Cartesian axis) and pressure

     negative rho (up, down):  6.734E-02 0.000E+00
          total   stress  (Ry/bohr**3)                   (kbar)     P=     -373.26
  -0.00286034   0.00000000   0.00000000         -420.77        0.00        0.00
   0.00000000  -0.00241289  -0.00000217            0.00     -354.95       -0.32
   0.00000000  -0.00000217  -0.00233897            0.00       -0.32     -344.07

     kinetic stress (kbar)  22151.84      0.00      0.00
                                0.00  22250.71     -0.00
                                0.00     -0.00  22279.20

     local   stress (kbar)  -7106.05     -0.00     -0.00
                               -0.00  -7597.92    197.84
                               -0.00    197.84  -6954.44

     nonloc. stress (kbar)   7153.30      0.00      0.00
                                0.00   7154.79     -2.27
                                0.00     -2.27   7164.35

     hartree stress (kbar)   5872.89      0.00      0.00
                                0.00   5934.26    -66.43
                                0.00    -66.43   5750.36

     exc-cor stress (kbar)   1377.58      0.00      0.00
                                0.00   1378.31     -0.32
                                0.00     -0.32   1377.06

     corecor stress (kbar)  -6947.86      0.00      0.00
                                0.00  -6947.18      0.05
                                0.00      0.05  -6947.69

     ewald   stress (kbar) -22922.47      0.00      0.00
                                0.00 -22527.91   -129.19
                                0.00   -129.19 -23012.91

     hubbard stress (kbar)      0.00      0.00      0.00
                                0.00      0.00      0.00
                                0.00      0.00      0.00

     DFT-D   stress (kbar)      0.00      0.00      0.00
                                0.00      0.00      0.00
                                0.00      0.00      0.00

     XDM     stress (kbar)      0.00      0.00      0.00
                                0.00      0.00      0.00
                                0.00      0.00      0.00

     dft-nl  stress (kbar)      0.00      0.00      0.00
                                0.00      0.00      0.00
                                0.00      0.00      0.00

     TS-vdW  stress (kbar)      0.00      0.00      0.00
                                0.00      0.00      0.00
                                0.00      0.00      0.00

[...]

                                0.00      0.00      0.00

     Writing all to output data dir calculations/myprefix.save/

     General routines

     Parallel routines

     PAW routines

   This run was terminated on:  11: 3: 4   6Mar2023

   JOB DONE.