     Program PWSCF v.7.0 starts on  6Mar2023 at 14:23:51

     R & G space division:  proc/nbgrp/npool/nimage =      32

     Reading input from espresso_4918.pwi
Warning: card &CELL ignored
Warning: card / ignored

     Current dimensions of program PWSCF are:
     Max number of different atomic species (ntypx) = 10
     Max number of k-points (npk) =  40000
     Max angular momentum in pseudopotentials (lmaxx) =  4
     file Ga.pbe-dn-kjpaw_psl.1.0.0.UPF: wavefunction(s)  4S renormalized

     gamma-point specific algorithms are used
     Message from routine setup:
     using ibrav=0 with symmetry is DISCOURAGED, use correct ibrav instead

     Using Slab Decomposition

     bravais-lattice index     =            0
     lattice parameter (alat)  =      14.0715  a.u.
     unit-cell volume          =    1519.3330 (a.u.)^3
     number of atoms/cell      =            8
     number of atomic types    =            3
     number of electrons       =        88.00
     number of Kohn-Sham states=           53
     kinetic-energy cutoff     =      30.0000  Ry
     charge density cutoff     =     240.0000  Ry
     scf convergence threshold =      1.0E-06
     mixing beta               =       0.7000
     number of iterations used =            8  plain     mixing
     Exchange-correlation= SLA  PW   PBE  PBE
                           (   1   4   3   4   0   0   0)

     celldm(1)=  14.071535  celldm(2)=   0.000000  celldm(3)=   0.000000
     celldm(4)=   0.000000  celldm(5)=   0.000000  celldm(6)=   0.000000

     crystal axes: (cart. coord. in units of alat)
               a(1) = (   1.000000   0.000000   0.000000 )
               a(2) = (   0.331764   0.943362   0.000000 )
               a(3) = (  -0.665882  -0.471681   0.578029 )

     reciprocal axes: (cart. coord. in units 2 pi/alat)
               b(1) = (  1.000000 -0.351682  0.865008 )
               b(2) = (  0.000000  1.060038  0.865008 )
               b(3) = (  0.000000  0.000000  1.730016 )

     PseudoPot. # 1 for Ga read from file:
     /home/pragov/projects/rrg-bengioy-ad/pragov/crystal_structure_design/SSSP/Ga.pbe-dn-kjpaw_psl.1.0.0.UPF
     MD5 check sum: a27b4342b1af7e5f338de752e9ed7044
     Pseudo is Projector augmented-wave + core cor, Zval = 13.0
     Generated using "atomic" code by A. Dal Corso  v.5.1
     Shape of augmentation charge: PSQ
     Using radial grid of 1205 points,  6 beta functions with:
                l(1) =   0
                l(2) =   0
                l(3) =   1
                l(4) =   1
                l(5) =   2
                l(6) =   2
     Q(r) pseudized with 0 coefficients

     PseudoPot. # 2 for Cu read from file:
     /home/pragov/projects/rrg-bengioy-ad/pragov/crystal_structure_design/SSSP/Cu_pbe_v1.2.uspp.F.UPF
     MD5 check sum: 6e991ff952a84172a2a52a1c1e996048
     Pseudo is Ultrasoft + core correction, Zval = 19.0
     Generated by new atomic code, or converted to UPF format
     Using radial grid of  867 points,  6 beta functions with:
                l(1) =   0
                l(2) =   0
                l(3) =   1
                l(4) =   1
                l(5) =   2
                l(6) =   2
     Q(r) pseudized with  8 coefficients,  rinner =    1.150   1.150   1.150
                                                       1.150   1.150

     PseudoPot. # 3 for Te read from file:
     /home/pragov/projects/rrg-bengioy-ad/pragov/crystal_structure_design/SSSP/Te_pbe_v1.uspp.F.UPF
     MD5 check sum: c319670d6894cc26e93307826a071b75
     Pseudo is Ultrasoft + core correction, Zval =  6.0
     Generated by new atomic code, or converted to UPF format
     Using radial grid of  891 points,  5 beta functions with:
                l(1) =   0
                l(2) =   0
                l(3) =   1
                l(4) =   1
                l(5) =   2
     Q(r) pseudized with  6 coefficients,  rinner =    1.800   1.800   1.800
                                                       1.800   1.800

     atomic species   valence    mass     pseudopotential
        Ga            13.00    69.72300     Ga( 1.00)
        Cu            19.00    63.54600     Cu( 1.00)
        Te             6.00   127.60000     Te( 1.00)

      2 Sym. Ops. (no inversion) found ( 1 have fractional translation)

                                    s                        frac. trans.

      isym =  1     identity

 cryst.   s( 1) = (     1          0          0      )
                  (     0          1          0      )
                  (     0          0          1      )

 cart.    s( 1) = (  1.0000000 -0.0000000  0.0000000 )
                  (  0.0000000  1.0000000 -0.0000000 )
                  (  0.0000000  0.0000000  1.0000000 )

      isym =  2     inv. 180 deg rotation - cart. axis [0,0,1]

 cryst.   s( 2) = (     1          0          0      )    f =(  0.2500000 )
                  (     0          1          0      )       ( -0.2500000 )
                  (    -1         -1         -1      )       ( -0.5000000 )

 cart.    s( 2) = (  1.0000000 -0.0000000 -0.0000000 )    f =(  0.5000000 )
                  (  0.0000000  1.0000000 -0.0000000 )       ( -0.0000000 )
                  (  0.0000000  0.0000000 -1.0000000 )       ( -0.2890147 )

   Cartesian axes

     site n.     atom                  positions (alat units)
         1           Ga  tau(   1) = (   0.6658819   0.4716812   0.0000000  )
         2           Ga  tau(   2) = (   0.1658819   0.4716812   0.2890147  )
         3           Cu  tau(   3) = (   0.0000000   0.0000000   0.0000000  )
         4           Cu  tau(   4) = (   0.5000000   0.0000000   0.2890147  )
         5           Te  tau(   5) = (   0.1708705   0.1117087   0.2814027  )
         6           Te  tau(   6) = (   0.6708705   0.1117087   0.0076121  )
         7           Te  tau(   7) = (  -0.3379295   0.1241319   0.5704174  )
         8           Te  tau(   8) = (   0.8279524   0.5958131   0.2966268  )

   Crystallographic axes

     site n.     atom                  positions (cryst. coord.)
         1           Ga  tau(   1) = (  0.5000000  0.5000000  0.0000000  )
         2           Ga  tau(   2) = (  0.2500000  0.7500000  0.5000000  )
         3           Cu  tau(   3) = (  0.0000000  0.0000000  0.0000000  )
         4           Cu  tau(   4) = (  0.7500000  0.2500000  0.5000000  )
         5           Te  tau(   5) = (  0.3750000  0.3618310  0.4868310  )
         6           Te  tau(   6) = (  0.6381690  0.1250000  0.0131690  )
         7           Te  tau(   7) = (  0.1118310  0.6250000  0.9868310  )
         8           Te  tau(   8) = (  0.8750000  0.8881690  0.5131690  )

     number of k points=     1  Methfessel-Paxton smearing, width (Ry)=  0.0010
                       cart. coord. in units 2pi/alat
        k(    1) = (   0.0000000   0.0000000   0.0000000), wk =   2.0000000

                       cryst. coord.
        k(    1) = (   0.0000000   0.0000000   0.0000000), wk =   2.0000000

     Initial potential from superposition of free atoms

     starting charge      85.9932, renormalised to      88.0000
     Starting wfcs are   60 randomized atomic wfcs
     Checking if some PAW data can be deallocated...

     Self-consistent Calculation

     iteration #  1     ecut=    30.00 Ry     beta= 0.70
     Davidson diagonalization with overlap

     ethr =  1.00E-02,  avg # of iterations =  4.0

     total energy              =   -1467.61548244 Ry
     estimated scf accuracy    <       2.73059223 Ry

[...]

     total energy              =   -1469.13020665 Ry
     estimated scf accuracy    <       0.00000196 Ry

     iteration # 20     ecut=    30.00 Ry     beta= 0.70
     Davidson diagonalization with overlap

     ethr =  1.68E-09,  avg # of iterations =  1.0

     End of self-consistent calculation

          k = 0.0000 0.0000 0.0000 (  2099 PWs)   bands (ev):

  -105.5575-105.5561 -63.0402 -63.0384 -62.9103 -62.9102 -62.9078 -62.9077
    -9.3600  -9.3600  -9.3467  -9.3260  -9.3260  -9.3192  -9.3040  -9.2998
    -9.2856  -9.2818  -6.0469  -4.4884  -4.4814  -4.4814  -0.8542   0.3244
     1.7678   2.4732   2.5340   2.8879   2.8879   3.3550   3.3550   3.5356
     3.5356   3.6089   4.0780   4.2071   4.2664   4.5819   4.6388   4.6389
     4.7083   6.5546   6.5547   6.6004   6.6222   7.7701   8.1706   9.4977
     9.4977   9.5865  10.6852  10.8059  10.8858

     occupation numbers
     1.0000   1.0000   1.0000   1.0000   1.0000   1.0000   1.0000   1.0000
     1.0000   1.0000   1.0000   1.0000   1.0000   1.0000   1.0000   1.0000
     1.0000   1.0000   1.0000   1.0000   1.0000   1.0000   1.0000   1.0000
     1.0000   1.0000   1.0000   1.0000   1.0000   1.0000   1.0000   1.0000
     1.0000   1.0000   1.0000   1.0000   1.0000   1.0000   1.0000   1.0000
     1.0000   1.0000   1.0000   0.9903   0.0097  -0.0000  -0.0000  -0.0000
    -0.0000  -0.0000  -0.0000  -0.0000  -0.0000

     the Fermi energy is     6.6113 ev

!    total energy              =   -1469.13020667 Ry
     estimated scf accuracy    <       0.00000011 Ry
     smearing contrib. (-TS)   =       0.00008422 Ry
     internal energy E=F+TS    =   -1469.13029089 Ry

     The total energy is F=E-TS. E is the sum of the following terms:
     one-electron contribution =   -1112.52497331 Ry
     hartree contribution      =     602.06874955 Ry
     xc contribution           =    -211.72434202 Ry
     ewald contribution        =    -525.09629792 Ry
     one-center paw contrib.   =    -221.85342719 Ry
      -> PAW hartree energy AE =     138.89375614 Ry
      -> PAW hartree energy PS =    -136.67465069 Ry
      -> PAW xc energy AE      =    -150.67654049 Ry
      -> PAW xc energy PS      =      37.53072145 Ry
      -> total E_H with PAW    =     604.28785500 Ry
      -> total E_XC with PAW   =    -324.87016107 Ry

     convergence has been achieved in  20 iterations

     Forces acting on atoms (cartesian axes, Ry/au):

     atom    1 type  1   force =     0.00002589   -0.00003024   -0.00003011
     atom    2 type  1   force =     0.00002589   -0.00003024    0.00003011
     atom    3 type  2   force =    -0.00004875    0.00003613    0.00000288
     atom    4 type  2   force =    -0.00004875    0.00003613   -0.00000288
     atom    5 type  3   force =    -0.00161507    0.00229235    0.00281719
     atom    6 type  3   force =    -0.00161507    0.00229235   -0.00281719
     atom    7 type  3   force =     0.00163794   -0.00229824    0.00281716
     atom    8 type  3   force =     0.00163794   -0.00229824   -0.00281716
     The non-local contrib.  to forces
     atom    1 type  1   force =    -0.00003279   -0.00002148   -0.00000401
     atom    2 type  1   force =    -0.00003279   -0.00002148    0.00000401
     atom    3 type  2   force =    -0.00006108    0.00001586    0.00001079
     atom    4 type  2   force =    -0.00006108    0.00001586   -0.00001079
     atom    5 type  3   force =     0.07870836   -0.11102044   -0.13605099
     atom    6 type  3   force =     0.07870836   -0.11102044    0.13605099
     atom    7 type  3   force =    -0.07860309    0.11104808   -0.13604598
     atom    8 type  3   force =    -0.07860309    0.11104808    0.13604598
     The ionic contribution  to forces
     atom    1 type  1   force =     0.00000000    0.00000000    0.00000000
     atom    2 type  1   force =     0.00000000    0.00000000    0.00000000
     atom    3 type  2   force =     0.00000000    0.00000000    0.00000000
     atom    4 type  2   force =     0.00000000    0.00000000    0.00000000
     atom    5 type  3   force =    -1.13280191    1.59919931    1.95976493
     atom    6 type  3   force =    -1.13280191    1.59919931   -1.95976494
     atom    7 type  3   force =     1.13280190   -1.59919932    1.95976493
     atom    8 type  3   force =     1.13280190   -1.59919932   -1.95976494
     The local contribution  to forces
     atom    1 type  1   force =     0.00003618    0.00004010   -0.00000606
     atom    2 type  1   force =     0.00002307    0.00002323   -0.00003659
     atom    3 type  2   force =     0.00011780   -0.00004093   -0.00006668
     atom    4 type  2   force =     0.00002848   -0.00007366   -0.00001147
     atom    5 type  3   force =     1.04159968   -1.47060701   -1.80208958
     atom    6 type  3   force =     1.04165070   -1.47055906    1.80217040
     atom    7 type  3   force =    -1.04169980    1.47057171   -1.80210468
     atom    8 type  3   force =    -1.04176605    1.47053131    1.80216205
     The core correction contribution to forces
     atom    1 type  1   force =     0.00000034    0.00000039   -0.00000087
     atom    2 type  1   force =     0.00000107    0.00000027   -0.00000073
     atom    3 type  2   force =     0.00000004   -0.00000002   -0.00000002
     atom    4 type  2   force =     0.00000011    0.00000006   -0.00000002
     atom    5 type  3   force =     0.01085955   -0.01532288   -0.01878145
     atom    6 type  3   force =     0.01086334   -0.01532235    0.01877411
     atom    7 type  3   force =    -0.01084849    0.01532751   -0.01878084
     atom    8 type  3   force =    -0.01085039    0.01532410    0.01877351
     The Hubbard contrib.    to forces
     atom    1 type  1   force =     0.00000000    0.00000000    0.00000000
     atom    2 type  1   force =     0.00000000    0.00000000    0.00000000
     atom    3 type  2   force =     0.00000000    0.00000000    0.00000000
     atom    4 type  2   force =     0.00000000    0.00000000    0.00000000
     atom    5 type  3   force =     0.00000000    0.00000000    0.00000000
     atom    6 type  3   force =     0.00000000    0.00000000    0.00000000
     atom    7 type  3   force =     0.00000000    0.00000000    0.00000000
     atom    8 type  3   force =     0.00000000    0.00000000    0.00000000
     The SCF correction term to forces
     atom    1 type  1   force =     0.00001809   -0.00002986   -0.00002446
     atom    2 type  1   force =     0.00001747   -0.00004667    0.00005812
     atom    3 type  2   force =    -0.00008234    0.00006901    0.00007602
     atom    4 type  2   force =    -0.00006058    0.00009104    0.00003664
     atom    5 type  3   force =     0.00002757    0.00004649    0.00000754
     atom    6 type  3   force =    -0.00006502   -0.00000326   -0.00001448
     atom    7 type  3   force =    -0.00003055   -0.00006146    0.00001444
     atom    8 type  3   force =     0.00005239    0.00001779   -0.00000305

     Total force =     0.007963     Total SCF correction =     0.000232

     Computing stress (Cartesian axis) and pressure

          total   stress  (Ry/bohr**3)                   (kbar)     P=     -101.64
  -0.00092348  -0.00032995   0.00000000         -135.85      -48.54        0.00
  -0.00032995  -0.00069145   0.00000000          -48.54     -101.72        0.00
   0.00000000   0.00000000  -0.00045779            0.00        0.00      -67.34

     kinetic stress (kbar)   8529.02    -54.79     -0.00
                              -54.79   8567.56     -0.00
                               -0.00     -0.00   8606.35

     local   stress (kbar)  -8018.57   -333.72      0.01
                             -333.72  -7783.85     -0.00
                                0.01     -0.00  -7547.41

     nonloc. stress (kbar)   1319.83    -16.63     -0.00
                              -16.63   1331.53     -0.00
                               -0.00     -0.00   1343.30

     hartree stress (kbar)  19543.51    159.30     -0.00
                              159.30  19431.47      0.00
                               -0.00      0.00  19318.60

     exc-cor stress (kbar)   2426.15     -0.21     -0.00
                               -0.21   2426.29     -0.00
                               -0.00     -0.00   2426.44

     corecor stress (kbar)  -7127.31      1.07      0.00
                                1.07  -7128.06      0.00
                                0.00      0.00  -7128.82

     ewald   stress (kbar) -16808.48    196.45     -0.00
                              196.45 -16946.66     -0.00
                               -0.00     -0.00 -17085.81

     hubbard stress (kbar)      0.00      0.00      0.00
                                0.00      0.00      0.00
                                0.00      0.00      0.00

     DFT-D   stress (kbar)      0.00      0.00      0.00
                                0.00      0.00      0.00
                                0.00      0.00      0.00

     XDM     stress (kbar)      0.00      0.00      0.00
                                0.00      0.00      0.00
                                0.00      0.00      0.00

     dft-nl  stress (kbar)      0.00      0.00      0.00
                                0.00      0.00      0.00
                                0.00      0.00      0.00

     TS-vdW  stress (kbar)      0.00      0.00      0.00
                                0.00      0.00      0.00
                                0.00      0.00      0.00

[...]

                                0.00      0.00      0.00

     Writing all to output data dir calculations/myprefix.save/

     General routines

     Parallel routines

     PAW routines

   This run was terminated on:  14:23:57   6Mar2023

   JOB DONE.