     Program PWSCF v.7.0 starts on  6Mar2023 at 12:53:56

     R & G space division:  proc/nbgrp/npool/nimage =      32

     Reading input from espresso_4682.pwi
Warning: card &CELL ignored
Warning: card / ignored

     Current dimensions of program PWSCF are:
     Max number of different atomic species (ntypx) = 10
     Max number of k-points (npk) =  40000
     Max angular momentum in pseudopotentials (lmaxx) =  4

     gamma-point specific algorithms are used
     Message from routine setup:
     using ibrav=0 with symmetry is DISCOURAGED, use correct ibrav instead

     Using Slab Decomposition

     bravais-lattice index     =            0
     lattice parameter (alat)  =       5.1188  a.u.
     unit-cell volume          =     387.3959 (a.u.)^3
     number of atoms/cell      =            4
     number of atomic types    =            2
     number of electrons       =        58.00
     number of Kohn-Sham states=           35
     kinetic-energy cutoff     =      30.0000  Ry
     charge density cutoff     =     240.0000  Ry
     scf convergence threshold =      1.0E-06
     mixing beta               =       0.7000
     number of iterations used =            8  plain     mixing
     Exchange-correlation=  SLA  PW   PBX  PBC
                           (   1   4   3   4   0   0   0)

     celldm(1)=   5.118788  celldm(2)=   0.000000  celldm(3)=   0.000000
     celldm(4)=   0.000000  celldm(5)=   0.000000  celldm(6)=   0.000000

     crystal axes: (cart. coord. in units of alat)
               a(1) = (   1.000000   0.000000   0.000000 )
               a(2) = (   0.000000   1.626683   0.000000 )
               a(3) = (   0.000000   0.000000   1.775623 )

     reciprocal axes: (cart. coord. in units 2 pi/alat)
               b(1) = (  1.000000  0.000000  0.000000 )
               b(2) = (  0.000000  0.614748  0.000000 )
               b(3) = (  0.000000  0.000000  0.563183 )

     PseudoPot. # 1 for V  read from file:
     /home/pragov/projects/rrg-bengioy-ad/pragov/crystal_structure_design/SSSP/v_pbe_v1.4.uspp.F.UPF
     MD5 check sum: 22b79981416ebb76fdaf5b1b8640f6fb
     Pseudo is Ultrasoft + core correction, Zval = 13.0
     Generated by new atomic code, or converted to UPF format
     Using radial grid of  853 points,  6 beta functions with:
                l(1) =   0
                l(2) =   0
                l(3) =   1
                l(4) =   1
                l(5) =   2
                l(6) =   2
     Q(r) pseudized with  8 coefficients,  rinner =    1.100   1.100   1.100
                                                       1.100   1.100

     PseudoPot. # 2 for Pt read from file:
     /home/pragov/projects/rrg-bengioy-ad/pragov/crystal_structure_design/SSSP/pt_pbe_v1.4.uspp.F.UPF
     MD5 check sum: f09d6de1a584b5a045c4fc126da2d0c4
     Pseudo is Ultrasoft + core correction, Zval = 16.0
     Generated by new atomic code, or converted to UPF format
     Using radial grid of  985 points,  6 beta functions with:
                l(1) =   0
                l(2) =   0
                l(3) =   1
                l(4) =   1
                l(5) =   2
                l(6) =   2
     Q(r) pseudized with  8 coefficients,  rinner =    1.300   1.300   1.300
                                                       1.300   1.300

     atomic species   valence    mass     pseudopotential
        V             13.00    50.94150     V ( 1.00)
        Pt            16.00   195.08400     Pt( 1.00)

      8 Sym. Ops., with inversion, found ( 4 have fractional translation)

                                    s                        frac. trans.

      isym =  1     identity

 cryst.   s( 1) = (     1          0          0      )
                  (     0          1          0      )
                  (     0          0          1      )

 cart.    s( 1) = (  1.0000000  0.0000000  0.0000000 )
                  (  0.0000000  1.0000000  0.0000000 )
                  (  0.0000000  0.0000000  1.0000000 )

      isym =  2     180 deg rotation - cart. axis [0,0,1]

 cryst.   s( 2) = (    -1          0          0      )    f =(  0.0000000 )
                  (     0         -1          0      )       ( -0.5000000 )
                  (     0          0          1      )       (  0.0000000 )

 cart.    s( 2) = ( -1.0000000  0.0000000  0.0000000 )    f =(  0.0000000 )
                  (  0.0000000 -1.0000000  0.0000000 )       ( -0.8133413 )
                  (  0.0000000  0.0000000  1.0000000 )       (  0.0000000 )

[...]

      isym =  4     180 deg rotation - cart. axis [1,0,0]

[...]

      isym =  5     inversion

[...]

      isym =  6     inv. 180 deg rotation - cart. axis [0,0,1]

[...]

 cryst.   s( 7) = (     1          0          0      )    f =(  0.0000000 )
                  (     0         -1          0      )       ( -0.5000000 )
                  (     0          0          1      )       (  0.0000000 )

 cart.    s( 7) = (  1.0000000  0.0000000  0.0000000 )    f =(  0.0000000 )
                  (  0.0000000 -1.0000000  0.0000000 )       ( -0.8133413 )
                  (  0.0000000  0.0000000  1.0000000 )       (  0.0000000 )

      isym =  8     inv. 180 deg rotation - cart. axis [1,0,0]

 cryst.   s( 8) = (    -1          0          0      )
                  (     0          1          0      )
                  (     0          0          1      )

 cart.    s( 8) = ( -1.0000000  0.0000000  0.0000000 )
                  (  0.0000000  1.0000000  0.0000000 )
                  (  0.0000000  0.0000000  1.0000000 )

   Cartesian axes

     site n.     atom                  positions (alat units)
         1           V   tau(   1) = (   0.0000000   0.4066707   0.3029799  )
         2           V   tau(   2) = (   0.0000000   1.2200120   1.4726432  )
         3           Pt  tau(   3) = (   0.5000000   0.4066707   1.2101333  )
         4           Pt  tau(   4) = (   0.5000000   1.2200120   0.5654898  )

   Crystallographic axes

     site n.     atom                  positions (cryst. coord.)
         1           V   tau(   1) = (  0.0000000  0.2500000  0.1706330  )
         2           V   tau(   2) = (  0.0000000  0.7500000  0.8293670  )
         3           Pt  tau(   3) = (  0.5000000  0.2500000  0.6815260  )
         4           Pt  tau(   4) = (  0.5000000  0.7500000  0.3184740  )

     number of k points=     1  Methfessel-Paxton smearing, width (Ry)=  0.0010
                       cart. coord. in units 2pi/alat
        k(    1) = (   0.0000000   0.0000000   0.0000000), wk =   2.0000000

                       cryst. coord.
        k(    1) = (   0.0000000   0.0000000   0.0000000), wk =   2.0000000

     Check: negative core charge=   -0.000004

     Initial potential from superposition of free atoms

     starting charge      56.9975, renormalised to      58.0000

     negative rho (up, down):  3.835E-01 0.000E+00
     Starting wfcs are   44 randomized atomic wfcs

     Self-consistent Calculation

     iteration #  1     ecut=    30.00 Ry     beta= 0.70
     Davidson diagonalization with overlap

     ethr =  1.00E-02,  avg # of iterations =  2.0

     negative rho (up, down):  3.364E-01 0.000E+00

     total energy              =    -707.33940367 Ry
     estimated scf accuracy    <       6.50788368 Ry

[...]

     total energy              =    -711.76485548 Ry
     estimated scf accuracy    <       0.00002941 Ry

     iteration # 54     ecut=    30.00 Ry     beta= 0.70
     Davidson diagonalization with overlap

     ethr =  2.87E-08,  avg # of iterations =  1.0

[...]

     End of self-consistent calculation

          k = 0.0000 0.0000 0.0000 (   541 PWs)   bands (ev):

   -44.0230 -43.9773 -32.6608 -32.5280 -32.4683 -32.3899 -31.7874 -31.7684
   -18.1718 -18.0863 -17.9695 -17.9456 -17.2588 -17.2291  10.9853  14.0884
    14.4280  14.5122  14.6154  16.9602  17.5777  17.8758  17.9568  18.0413
    18.6091  18.6443  18.6777  19.8140  20.0231  20.0291  20.0332  21.4402
    22.3124  22.4049  22.6006

     occupation numbers
     1.0000   1.0000   1.0000   1.0000   1.0000   1.0000   1.0000   1.0000
     1.0000   1.0000   1.0000   1.0000   1.0000   1.0000   1.0000   1.0000
     1.0000   1.0000   1.0000   1.0000   1.0000   1.0000   1.0000   1.0000
     1.0000   1.0000   1.0000   1.0000   0.6359   0.2741   0.0899  -0.0000
    -0.0000  -0.0000  -0.0000

     the Fermi energy is    20.0253 ev

!    total energy              =    -711.76485566 Ry
     estimated scf accuracy    <       0.00000050 Ry
     smearing contrib. (-TS)   =      -0.00054746 Ry
     internal energy E=F+TS    =    -711.76430820 Ry

     The total energy is F=E-TS. E is the sum of the following terms:
     one-electron contribution =    -136.58863225 Ry
     hartree contribution      =     110.02827135 Ry
     xc contribution           =    -153.47632751 Ry
     ewald contribution        =    -531.72761980 Ry

     convergence has been achieved in  54 iterations

     negative rho (up, down):  3.553E-01 0.000E+00

     Forces acting on atoms (cartesian axes, Ry/au):

     atom    1 type  1   force =     0.00000000    0.00000000    0.01729958
     atom    2 type  1   force =     0.00000000    0.00000000   -0.01729958
     atom    3 type  2   force =     0.00000000    0.00000000   -0.04733524
     atom    4 type  2   force =     0.00000000    0.00000000    0.04733524
     The non-local contrib.  to forces
     atom    1 type  1   force =     0.00000000    0.00000000    0.18802313
     atom    2 type  1   force =     0.00000000    0.00000000   -0.18802313
     atom    3 type  2   force =     0.00000000    0.00000000   -0.07682531
     atom    4 type  2   force =     0.00000000    0.00000000    0.07682531
     The ionic contribution  to forces
     atom    1 type  1   force =    -0.00000000    0.00000000   -0.00472792
     atom    2 type  1   force =    -0.00000000   -0.00000000    0.00472792
     atom    3 type  2   force =     0.00000000    0.00000000   -0.54390340
     atom    4 type  2   force =     0.00000000    0.00000000    0.54390340
     The local contribution  to forces
     atom    1 type  1   force =    -0.00000020    0.00045131   -0.16088509
     atom    2 type  1   force =     0.00000170    0.00010110    0.16084019
     atom    3 type  2   force =    -0.00000082    0.00036651    0.59573587
     atom    4 type  2   force =    -0.00000053   -0.00012563   -0.59600319
     The core correction contribution to forces
     atom    1 type  1   force =    -0.00000001    0.00001755   -0.00570321
     atom    2 type  1   force =     0.00000002    0.00001851    0.00570068
     atom    3 type  2   force =    -0.00000001   -0.00002060   -0.02190246
     atom    4 type  2   force =     0.00000002   -0.00003019    0.02188636
     The Hubbard contrib.    to forces
     atom    1 type  1   force =     0.00000000    0.00000000    0.00000000
     atom    2 type  1   force =     0.00000000    0.00000000    0.00000000
     atom    3 type  2   force =     0.00000000    0.00000000    0.00000000
     atom    4 type  2   force =     0.00000000    0.00000000    0.00000000
     The SCF correction term to forces
     atom    1 type  1   force =     0.00000036   -0.00035372    0.00059030
     atom    2 type  1   force =    -0.00000148    0.00003773   -0.00054760
     atom    3 type  2   force =     0.00000052   -0.00036820   -0.00045775
     atom    4 type  2   force =     0.00000105    0.00013549    0.00070555

     Total force =     0.071273     Total SCF correction =     0.001279

     Computing stress (Cartesian axis) and pressure

     negative rho (up, down):  3.553E-01 0.000E+00
          total   stress  (Ry/bohr**3)                   (kbar)     P=       46.81
   0.00009374   0.00000000   0.00000000           13.79        0.00        0.00
   0.00000000   0.00022513   0.00000000            0.00       33.12        0.00
   0.00000000   0.00000000   0.00063577            0.00        0.00       93.53

     kinetic stress (kbar)  49058.62      0.00      0.00
                                0.00  46859.23      0.00
                                0.00      0.00  46900.79

     local   stress (kbar)  14397.42      0.00      0.00
                                0.00  19218.69      0.01
                                0.00      0.01  23701.81

     nonloc. stress (kbar)   -404.36      0.00      0.00
                                0.00   -708.88      0.00
                                0.00      0.00   -493.99

     hartree stress (kbar)  15533.07     -0.00     -0.00
                               -0.00  13877.97     -0.00
                               -0.00     -0.00  12369.78

     exc-cor stress (kbar)  18514.92     -0.00      0.00
                               -0.00  18482.12     -0.00
                                0.00     -0.00  18475.08

     corecor stress (kbar) -31266.12      0.00     -0.00
                                0.00 -31217.28      0.00
                               -0.00      0.00 -31246.57

     ewald   stress (kbar) -65819.76     -0.00      0.00
                               -0.00 -66478.72      0.00
                                0.00      0.00 -69613.38

     hubbard stress (kbar)      0.00      0.00      0.00
                                0.00      0.00      0.00
                                0.00      0.00      0.00

     DFT-D   stress (kbar)      0.00      0.00      0.00
                                0.00      0.00      0.00
                                0.00      0.00      0.00

     XDM     stress (kbar)      0.00      0.00      0.00
                                0.00      0.00      0.00
                                0.00      0.00      0.00

     dft-nl  stress (kbar)      0.00      0.00      0.00
                                0.00      0.00      0.00
                                0.00      0.00      0.00

     TS-vdW  stress (kbar)      0.00      0.00      0.00
                                0.00      0.00      0.00
                                0.00      0.00      0.00

[...]

                                0.00      0.00      0.00

     Writing all to output data dir calculations/myprefix.save/

     General routines

     Parallel routines

   This run was terminated on:  12:53:58   6Mar2023

   JOB DONE.