     Program PWSCF v.7.0 starts on  3Mar2023 at 14:53:44

     R & G space division:  proc/nbgrp/npool/nimage =      32

     Reading input from espresso_670.pwi
Warning: card &CELL ignored
Warning: card / ignored

     Current dimensions of program PWSCF are:
     Max number of different atomic species (ntypx) = 10
     Max number of k-points (npk) =  40000
     Max angular momentum in pseudopotentials (lmaxx) =  4
     file Pb.pbe-dn-kjpaw_psl.0.2.2.UPF: wavefunction(s)  6S renormalized

     gamma-point specific algorithms are used
     Message from routine setup:
     using ibrav=0 with symmetry is DISCOURAGED, use correct ibrav instead

     Using Slab Decomposition

     bravais-lattice index     =            0
     lattice parameter (alat)  =       8.0225  a.u.
     unit-cell volume          =    1369.0448 (a.u.)^3
     number of atoms/cell      =            4
     number of atomic types    =            2
     number of electrons       =        40.00
     number of Kohn-Sham states=           24
     kinetic-energy cutoff     =      30.0000  Ry
     charge density cutoff     =     240.0000  Ry
     scf convergence threshold =      1.0E-06
     mixing beta               =       0.7000
     number of iterations used =            8  plain     mixing
     Exchange-correlation=  SLA  PW   PBX  PBC
                           (   1   4   3   4   0   0   0)

     celldm(1)=   8.022520  celldm(2)=   0.000000  celldm(3)=   0.000000
     celldm(4)=   0.000000  celldm(5)=   0.000000  celldm(6)=   0.000000

     crystal axes: (cart. coord. in units of alat)
               a(1) = (   1.000000   0.000000   0.000000 )
               a(2) = (  -0.000002   1.000000   0.000000 )
               a(3) = (   0.186924   0.186924   2.651461 )

     reciprocal axes: (cart. coord. in units 2 pi/alat)
               b(1) = (  1.000000  0.000002 -0.070498 )
               b(2) = (  0.000000  1.000000 -0.070498 )
               b(3) = (  0.000000  0.000000  0.377151 )

     PseudoPot. # 1 for Pb read from file:
     /home/pragov/projects/rrg-bengioy-ad/pragov/crystal_structure_design/SSSP/Pb.pbe-dn-kjpaw_psl.0.2.2.UPF
     MD5 check sum: 9d431e6316058b74ade52399a6cf67da
     Pseudo is Projector augmented-wave + core cor, Zval = 14.0
     Generated using "atomic" code by A. Dal Corso  v.5.0.99 svn rev. 10869
     Shape of augmentation charge: PSQ
     Using radial grid of 1281 points,  6 beta functions with:
                l(1) =   0
                l(2) =   0
                l(3) =   1
                l(4) =   1
                l(5) =   2
                l(6) =   2
     Q(r) pseudized with 0 coefficients

     PseudoPot. # 2 for S  read from file:
     /home/pragov/projects/rrg-bengioy-ad/pragov/crystal_structure_design/SSSP/s_pbe_v1.4.uspp.F.UPF
     MD5 check sum: 88d86576ff6df21479756cfb9bdac1df
     Pseudo is Ultrasoft + core correction, Zval =  6.0
     Generated by new atomic code, or converted to UPF format
     Using radial grid of  907 points,  6 beta functions with:
                l(1) =   0
                l(2) =   0
                l(3) =   1
                l(4) =   1
                l(5) =   2
                l(6) =   2
     Q(r) pseudized with  8 coefficients,  rinner =    1.300   1.300   1.300
                                                       1.300   1.300

     atomic species   valence    mass     pseudopotential
        Pb            14.00   207.20000     Pb( 1.00)
        S              6.00    32.06000     S ( 1.00)

      2 Sym. Ops., with inversion, found

                                    s                        frac. trans.

      isym =  1     identity

 cryst.   s( 1) = (     1          0          0      )
                  (     0          1          0      )
                  (     0          0          1      )

 cart.    s( 1) = (  1.0000000 -0.0000000 -0.0000000 )
                  (  0.0000000  1.0000000 -0.0000000 )
                  (  0.0000000  0.0000000  1.0000000 )

      isym =  2     inversion

 cryst.   s( 2) = (    -1          0          0      )
                  (     0         -1          0      )
                  (     0          0         -1      )

 cart.    s( 2) = ( -1.0000000  0.0000000  0.0000000 )
                  (  0.0000000 -1.0000000  0.0000000 )
                  (  0.0000000  0.0000000 -1.0000000 )

   Cartesian axes

     site n.     atom                  positions (alat units)
         1           Pb  tau(   1) = (   0.8439005   0.8439022   0.9940380  )
         2           Pb  tau(   2) = (   0.3430211   0.3430218   1.6574229  )
         3           S   tau(   3) = (   0.3432103   0.3432110   1.0231563  )
         4           S   tau(   4) = (   0.8437113   0.8437130   1.6283045  )

   Crystallographic axes

     site n.     atom                  positions (cryst. coord.)
         1           Pb  tau(   1) = (  0.7738240  0.7738240  0.3749020  )
         2           Pb  tau(   2) = (  0.2261760  0.2261760  0.6250980  )
         3           S   tau(   3) = (  0.2710800  0.2710800  0.3858840  )
         4           S   tau(   4) = (  0.7289200  0.7289200  0.6141160  )

     number of k points=     1  Methfessel-Paxton smearing, width (Ry)=  0.0010
                       cart. coord. in units 2pi/alat
        k(    1) = (   0.0000000   0.0000000   0.0000000), wk =   2.0000000

                       cryst. coord.
        k(    1) = (   0.0000000   0.0000000   0.0000000), wk =   2.0000000

     Initial potential from superposition of free atoms

     starting charge      39.9952, renormalised to      40.0000
     Starting wfcs are   26 randomized atomic wfcs
     Checking if some PAW data can be deallocated...

     Self-consistent Calculation

     iteration #  1     ecut=    30.00 Ry     beta= 0.70
     Davidson diagonalization with overlap

     ethr =  1.00E-02,  avg # of iterations =  2.0

     total energy              =   -1789.18658572 Ry
     estimated scf accuracy    <       0.50137724 Ry

[...]

     total energy              =   -1789.42847367 Ry
     estimated scf accuracy    <       0.00005374 Ry

     iteration #  9     ecut=    30.00 Ry     beta= 0.70
     Davidson diagonalization with overlap

     ethr =  1.34E-07,  avg # of iterations =  2.0

     End of self-consistent calculation

          k = 0.0000 0.0000 0.0000 (  1876 PWs)   bands (ev):

   -14.6253 -14.5218 -14.5006 -14.4904 -14.4903 -14.4831 -14.4506 -14.4505
   -14.4271 -14.4074 -10.5738  -9.0365  -5.2208  -3.7055  -1.0969  -0.4599
    -0.4598   0.6860   0.6861   1.8374   3.9204   5.4939   7.0718   7.0729

     occupation numbers
     1.0000   1.0000   1.0000   1.0000   1.0000   1.0000   1.0000   1.0000
     1.0000   1.0000   1.0000   1.0000   1.0000   1.0000   1.0000   1.0000
     1.0000   1.0000   1.0000   1.0000  -0.0000  -0.0000  -0.0000  -0.0000

     the Fermi energy is     3.0895 ev

!    total energy              =   -1789.42847921 Ry
     estimated scf accuracy    <       0.00000072 Ry
     smearing contrib. (-TS)   =       0.00000000 Ry
     internal energy E=F+TS    =   -1789.42847921 Ry

     The total energy is F=E-TS. E is the sum of the following terms:
     one-electron contribution =    -404.09535175 Ry
     hartree contribution      =     222.72181305 Ry
     xc contribution           =    -105.66380816 Ry
     ewald contribution        =     -45.44887372 Ry
     one-center paw contrib.   =   -1456.94225863 Ry
      -> PAW hartree energy AE =      97.32298823 Ry
      -> PAW hartree energy PS =     -97.11290658 Ry
      -> PAW xc energy AE      =    -772.36078306 Ry
      -> PAW xc energy PS      =      43.67957210 Ry
      -> total E_H with PAW    =     222.93189470 Ry
      -> total E_XC with PAW   =    -834.34501912 Ry

     convergence has been achieved in   9 iterations

     Forces acting on atoms (cartesian axes, Ry/au):

     atom    1 type  1   force =    -0.00056277   -0.00052257    0.01625781
     atom    2 type  1   force =     0.00056277    0.00052257   -0.01625781
     atom    3 type  2   force =     0.00060679    0.00059326   -0.09169606
     atom    4 type  2   force =    -0.00060679   -0.00059326    0.09169606
     The non-local contrib.  to forces
     atom    1 type  1   force =     0.00098463    0.00094902    0.21922075
     atom    2 type  1   force =    -0.00098463   -0.00094902   -0.21922075
     atom    3 type  2   force =     0.00029140    0.00028342    0.16463958
     atom    4 type  2   force =    -0.00029140   -0.00028342   -0.16463958
     The ionic contribution  to forces
     atom    1 type  1   force =    -0.01887827   -0.01887831  -28.12459414
     atom    2 type  1   force =     0.01887827    0.01887831   28.12459414
     atom    3 type  2   force =     0.01654997    0.01655000  -12.48293961
     atom    4 type  2   force =    -0.01654997   -0.01655000   12.48293961
     The local contribution  to forces
     atom    1 type  1   force =     0.01732138    0.01734003   27.92594862
     atom    2 type  1   force =    -0.01729864   -0.01738175  -27.92839521
     atom    3 type  2   force =    -0.01630164   -0.01629476   12.23548548
     atom    4 type  2   force =     0.01620272    0.01621821  -12.23645903
     The core correction contribution to forces
     atom    1 type  1   force =    -0.00005548   -0.00005293   -0.00499282
     atom    2 type  1   force =     0.00005631    0.00005104    0.00497980
     atom    3 type  2   force =     0.00004102    0.00004017   -0.00916167
     atom    4 type  2   force =    -0.00004136   -0.00004317    0.00916650
     The Hubbard contrib.    to forces
     atom    1 type  1   force =     0.00000000    0.00000000    0.00000000
     atom    2 type  1   force =     0.00000000    0.00000000    0.00000000
     atom    3 type  2   force =     0.00000000    0.00000000    0.00000000
     atom    4 type  2   force =     0.00000000    0.00000000    0.00000000
     The SCF correction term to forces
     atom    1 type  1   force =     0.00010237    0.00011562    0.00099928
     atom    2 type  1   force =    -0.00005114   -0.00008001    0.00210809
     atom    3 type  2   force =    -0.00001215   -0.00000600    0.00055595
     atom    4 type  2   force =     0.00003502    0.00004470    0.00096434

     Total force =     0.131710     Total SCF correction =     0.002592

     Computing stress (Cartesian axis) and pressure

          total   stress  (Ry/bohr**3)                   (kbar)     P=        8.85
  -0.00002746  -0.00000002   0.00000023           -4.04       -0.00        0.03
  -0.00000002  -0.00002786   0.00000024           -0.00       -4.10        0.03
   0.00000023   0.00000024   0.00023583            0.03        0.03       34.69

     kinetic stress (kbar)   5603.82     -0.04      0.07
                               -0.04   5603.50      0.03
                                0.07      0.03   5627.98

     local   stress (kbar) -34623.50     -0.10     -3.17
                               -0.10 -34623.51     -3.17
                               -3.17     -3.17  36054.01

     nonloc. stress (kbar)   1222.13      0.03     -0.02
                                0.03   1222.39      0.01
                               -0.02      0.01   1209.46

     hartree stress (kbar)  19191.55      0.04      1.24
                                0.04  19191.56      1.24
                                1.24      1.24 -14451.45

     exc-cor stress (kbar)   4889.86     -0.00      0.00
                               -0.00   4889.86      0.00
                                0.00      0.00   4886.96

     corecor stress (kbar)  -6994.13      0.00      0.00
                                0.00  -6994.12      0.00
                                0.00      0.00  -6996.28

     ewald   stress (kbar)  10706.23      0.07      1.92
                                0.07  10706.23      1.92
                                1.92      1.92 -26295.99

     hubbard stress (kbar)      0.00      0.00      0.00
                                0.00      0.00      0.00
                                0.00      0.00      0.00

     DFT-D   stress (kbar)      0.00      0.00      0.00
                                0.00      0.00      0.00
                                0.00      0.00      0.00

     XDM     stress (kbar)      0.00      0.00      0.00
                                0.00      0.00      0.00
                                0.00      0.00      0.00

     dft-nl  stress (kbar)      0.00      0.00      0.00
                                0.00      0.00      0.00
                                0.00      0.00      0.00

     TS-vdW  stress (kbar)      0.00      0.00      0.00
                                0.00      0.00      0.00
                                0.00      0.00      0.00

[...]

                                0.00      0.00      0.00

     Writing all to output data dir calculations/myprefix.save/

     General routines

     Parallel routines

     PAW routines

   This run was terminated on:  14:53:47   3Mar2023

   JOB DONE.