     Program PWSCF v.7.0 starts on  4Mar2023 at 20:59:23

     R & G space division:  proc/nbgrp/npool/nimage =      32

     Reading input from espresso_7659.pwi
Warning: card &CELL ignored
Warning: card / ignored

     Current dimensions of program PWSCF are:
     Max number of different atomic species (ntypx) = 10
     Max number of k-points (npk) =  40000
     Max angular momentum in pseudopotentials (lmaxx) =  4

     gamma-point specific algorithms are used
     Message from routine setup:
     using ibrav=0 with symmetry is DISCOURAGED, use correct ibrav instead

     Using Slab Decomposition

     bravais-lattice index     =            0
     lattice parameter (alat)  =      15.0828  a.u.
     unit-cell volume          =     788.0995 (a.u.)^3
     number of atoms/cell      =            3
     number of atomic types    =            2
     number of electrons       =        25.00
     number of Kohn-Sham states=           17
     kinetic-energy cutoff     =      30.0000  Ry
     charge density cutoff     =     240.0000  Ry
     scf convergence threshold =      1.0E-06
     mixing beta               =       0.7000
     number of iterations used =            8  plain     mixing
     Exchange-correlation= SLA  PW   PBX  PBC
                           (   1   4   3   4   0   0   0)

     celldm(1)=  15.082823  celldm(2)=   0.000000  celldm(3)=   0.000000
     celldm(4)=   0.000000  celldm(5)=   0.000000  celldm(6)=   0.000000

     crystal axes: (cart. coord. in units of alat)
               a(1) = (   1.000000   0.000000   0.000000 )
               a(2) = (   0.754792   0.655965   0.000000 )
               a(3) = (  -0.877396  -0.327982   0.350149 )

     reciprocal axes: (cart. coord. in units 2 pi/alat)
               b(1) = (  1.000000 -1.150659  1.427964 )
               b(2) = (  0.000000  1.524472  1.427964 )
               b(3) = (  0.000000  0.000000  2.855929 )

     PseudoPot. # 1 for La read from file:
     /home/pragov/projects/rrg-bengioy-ad/pragov/crystal_structure_design/SSSP/La.GGA-PBE-paw-v1.0.UPF
     MD5 check sum: 436541e95c1ad8901025bd0b0ed42ae2
     Pseudo is Projector augmented-wave + core cor, Zval = 11.0
     Generated using ATOMPAW code
     Shape of augmentation charge: BESSEL
     Using radial grid of 1101 points,  8 beta functions with:
                l(1) =   0
                l(2) =   0
                l(3) =   1
                l(4) =   1
                l(5) =   2
                l(6) =   2
                l(7) =   3
                l(8) =   3
     Q(r) pseudized with 0 coefficients

     PseudoPot. # 2 for I  read from file:
     /home/pragov/projects/rrg-bengioy-ad/pragov/crystal_structure_design/SSSP/I.pbe-n-kjpaw_psl.0.2.UPF
     MD5 check sum: d4ef18d9c8f18dc85e5843bca1e50dc0
     Pseudo is Projector augmented-wave + core cor, Zval =  7.0
     Generated using "atomic" code by A. Dal Corso  v.5.0.99 svn rev. 10869
     Shape of augmentation charge: PSQ
     Using radial grid of 1247 points,  4 beta functions with:
                l(1) =   0
                l(2) =   0
                l(3) =   1
                l(4) =   1
     Q(r) pseudized with 0 coefficients

     atomic species   valence    mass     pseudopotential
        La            11.00   138.90547     La( 1.00)
        I              7.00   126.90447     I ( 1.00)

      4 Sym. Ops., with inversion, found

                                    s                        frac. trans.

      isym =  1     identity

 cryst.   s( 1) = (     1          0          0      )
                  (     0          1          0      )
                  (     0          0          1      )

 cart.    s( 1) = (  1.0000000  0.0000000  0.0000000 )
                  (  0.0000000  1.0000000 -0.0000000 )
                  (  0.0000000  0.0000000  1.0000000 )

      isym =  2     180 deg rotation - cart. axis [0,0,1]

[...]

      isym =  3     inversion

[...]

      isym =  4     inv. 180 deg rotation - cart. axis [0,0,1]

 cryst.   s( 4) = (     1          0          0      )
                  (     0          1          0      )
                  (    -1         -1         -1      )

 cart.    s( 4) = (  1.0000000  0.0000000  0.0000000 )
                  (  0.0000000  1.0000000  0.0000000 )
                  (  0.0000000  0.0000000 -1.0000000 )

   Cartesian axes

     site n.     atom                  positions (alat units)
         1           La  tau(   1) = (   0.0000000   0.0000000   0.0000000  )
         2           I   tau(   2) = (   0.6554041   0.2449989   0.0000000  )
         3           I   tau(   3) = (   1.0993875   0.4109658   0.0000000  )

   Crystallographic axes

     site n.     atom                  positions (cryst. coord.)
         1           La  tau(   1) = (  0.0000000  0.0000000  0.0000000  )
         2           I   tau(   2) = (  0.3734940  0.3734940  0.0000000  )
         3           I   tau(   3) = (  0.6265060  0.6265060  0.0000000  )

     number of k points=     1  Methfessel-Paxton smearing, width (Ry)=  0.0010
                       cart. coord. in units 2pi/alat
        k(    1) = (   0.0000000   0.0000000   0.0000000), wk =   2.0000000

                       cryst. coord.
        k(    1) = (   0.0000000   0.0000000   0.0000000), wk =   2.0000000

     Initial potential from superposition of free atoms

     starting charge      24.9913, renormalised to      25.0000
     Starting wfcs are   40 randomized atomic wfcs
     Checking if some PAW data can be deallocated...

     Self-consistent Calculation

     iteration #  1     ecut=    30.00 Ry     beta= 0.70
     Davidson diagonalization with overlap

     ethr =  1.00E-02,  avg # of iterations =  2.0

     Threshold (ethr) on eigenvalues was too large:
     Diagonalizing with lowered threshold

     Davidson diagonalization with overlap

[...]

     negative rho (up, down):  6.162E-05 0.000E+00

     total energy              =   -1215.82293080 Ry
     estimated scf accuracy    <       0.17233821 Ry

[...]

     total energy              =   -1215.89681154 Ry
     estimated scf accuracy    <       0.00000456 Ry

     iteration #  9     ecut=    30.00 Ry     beta= 0.70
     Davidson diagonalization with overlap

     ethr =  1.82E-08,  avg # of iterations =  5.0

[...]

     End of self-consistent calculation

          k = 0.0000 0.0000 0.0000 (  1099 PWs)   bands (ev):

   -25.8599  -9.9477  -9.2968  -9.2950  -6.2830  -5.5581   2.1800   4.7173
     4.7300   5.1687   5.1789   5.1927   6.6043   8.5474   8.6656   8.9448
     8.9511

     occupation numbers
     1.0000   1.0000   1.0000   1.0000   1.0000   1.0000   1.0000   1.0000
     1.0000   1.0000   1.0000   1.0000   0.5000  -0.0000  -0.0000  -0.0000
    -0.0000

     the Fermi energy is     6.6043 ev

!    total energy              =   -1215.89681245 Ry

     total all-electron energy =    -28923.891704 Ry
     estimated scf accuracy    <       0.00000048 Ry
     smearing contrib. (-TS)   =      -0.00028209 Ry
     internal energy E=F+TS    =   -1215.89653035 Ry

     The total energy is F=E-TS. E is the sum of the following terms:
     one-electron contribution =     -20.55906244 Ry
     hartree contribution      =      23.09639660 Ry
     xc contribution           =     -92.63185230 Ry
     ewald contribution        =     -86.65538046 Ry
     one-center paw contrib.   =   -1039.14663175 Ry
      -> PAW hartree energy AE =      35.34283808 Ry
      -> PAW hartree energy PS =     -35.37485798 Ry
      -> PAW xc energy AE      =    -405.40189305 Ry
      -> PAW xc energy PS      =       7.35854148 Ry
      -> total E_H with PAW    =      23.06437670 Ry
      -> total E_XC with PAW   =    -490.67520386 Ry

     convergence has been achieved in   9 iterations

     negative rho (up, down):  5.999E-04 0.000E+00

     Forces acting on atoms (cartesian axes, Ry/au):

     atom    1 type  1   force =     0.00000000    0.00000000    0.00000000
     atom    2 type  2   force =     0.02762451    0.00929698    0.00000000
     atom    3 type  2   force =    -0.02762451   -0.00929698   -0.00000000
     The non-local contrib.  to forces
     atom    1 type  1   force =     0.00000000    0.00000000    0.00000000
     atom    2 type  2   force =     0.08824161    0.03283000    0.00000000
     atom    3 type  2   force =    -0.08824161   -0.03283000   -0.00000000
     The ionic contribution  to forces
     atom    1 type  1   force =     0.00000000   -0.00000000    0.00000000
     atom    2 type  2   force =    -5.83524811   -2.18129407   -0.00000000
     atom    3 type  2   force =     5.83524811    2.18129407    0.00000000
     The local contribution  to forces
     atom    1 type  1   force =    -0.00025434   -0.00014500    0.00004442
     atom    2 type  2   force =     5.77707958    2.15874759    0.00001774
     atom    3 type  2   force =    -5.77709913   -2.15879425    0.00000165
     The core correction contribution to forces
     atom    1 type  1   force =    -0.00000007   -0.00000004    0.00000003
     atom    2 type  2   force =    -0.00329905   -0.00132564    0.00002274
     atom    3 type  2   force =     0.00329204    0.00132454   -0.00002326
     The Hubbard contrib.    to forces
     atom    1 type  1   force =     0.00000000    0.00000000    0.00000000
     atom    2 type  2   force =     0.00000000    0.00000000    0.00000000
     atom    3 type  2   force =     0.00000000    0.00000000    0.00000000
     The SCF correction term to forces
     atom    1 type  1   force =     0.00030922    0.00013215   -0.00004453
     atom    2 type  2   force =     0.00085009    0.00032866    0.00001866
     atom    3 type  2   force =    -0.00082430   -0.00030178   -0.00001354

     Total force =     0.041220     Total SCF correction =     0.001310

     Computing stress (Cartesian axis) and pressure

     negative rho (up, down):  5.999E-04 0.000E+00
          total   stress  (Ry/bohr**3)                   (kbar)     P=      147.87
   0.00029006  -0.00043047   0.00000000           42.67      -63.32        0.00
  -0.00043047   0.00126411   0.00000000          -63.32      185.96        0.00
   0.00000000   0.00000000   0.00146148            0.00        0.00      214.99

     kinetic stress (kbar)   3789.06   -105.87      0.00
                             -105.87   4031.95      0.00
                                0.00      0.00   4073.86

     local   stress (kbar)   6224.55   3599.51     -0.03
                             3599.51  -2059.28      1.85
                               -0.03      1.85  -3402.83

     nonloc. stress (kbar)   1369.38     17.26      0.00
                               17.26   1328.79      0.00
                                0.00      0.00   1323.57

     hartree stress (kbar)  -1090.88  -1524.11     -0.10
                            -1524.11   2416.29     -0.10
                               -0.10     -0.10   2985.72

     exc-cor stress (kbar)  12195.87     -1.73      0.00
                               -1.73  12199.87     -0.02
                                0.00     -0.02  12200.48

     corecor stress (kbar) -13645.46      6.22     -0.08
                                6.22 -13660.11      0.25
                               -0.08      0.25 -13662.29

     ewald   stress (kbar)  -8799.86  -2054.61     -0.00
                            -2054.61  -4071.55     -0.00
                               -0.00     -0.00  -3303.51

     hubbard stress (kbar)      0.00      0.00      0.00
                                0.00      0.00      0.00
                                0.00      0.00      0.00

     DFT-D   stress (kbar)      0.00      0.00      0.00
                                0.00      0.00      0.00
                                0.00      0.00      0.00

     XDM     stress (kbar)      0.00      0.00      0.00
                                0.00      0.00      0.00
                                0.00      0.00      0.00

     dft-nl  stress (kbar)      0.00      0.00      0.00
                                0.00      0.00      0.00
                                0.00      0.00      0.00

     TS-vdW  stress (kbar)      0.00      0.00      0.00
                                0.00      0.00      0.00
                                0.00      0.00      0.00

[...]

                                0.00      0.00      0.00

     Writing all to output data dir calculations/myprefix.save/

     General routines

     Parallel routines

     PAW routines

   This run was terminated on:  20:59:27   4Mar2023

   JOB DONE.