     Program PWSCF v.7.0 starts on  6Mar2023 at 12:18: 7

     R & G space division:  proc/nbgrp/npool/nimage =      32

     Reading input from espresso_4574.pwi
Warning: card &CELL ignored
Warning: card / ignored

     Current dimensions of program PWSCF are:
     Max number of different atomic species (ntypx) = 10
     Max number of k-points (npk) =  40000
     Max angular momentum in pseudopotentials (lmaxx) =  4
     file Ga.pbe-dn-kjpaw_psl.1.0.0.UPF: wavefunction(s)  4S renormalized

     gamma-point specific algorithms are used
     Message from routine setup:
     using ibrav=0 with symmetry is DISCOURAGED, use correct ibrav instead

     Using Slab Decomposition

     bravais-lattice index     =            0
     lattice parameter (alat)  =      12.7996  a.u.
     unit-cell volume          =    4756.8266 (a.u.)^3
     number of atoms/cell      =           18
     number of atomic types    =            3
     number of electrons       =       136.00
     number of Kohn-Sham states=           82
     kinetic-energy cutoff     =      30.0000  Ry
     charge density cutoff     =     240.0000  Ry
     scf convergence threshold =      1.0E-06
     mixing beta               =       0.7000
     number of iterations used =            8  plain     mixing
     Exchange-correlation=  SLA  PW   PBX  PBC
                           (   1   4   3   4   0   0   0)

     celldm(1)=  12.799648  celldm(2)=   0.000000  celldm(3)=   0.000000
     celldm(4)=   0.000000  celldm(5)=   0.000000  celldm(6)=   0.000000

     crystal axes: (cart. coord. in units of alat)
               a(1) = (   1.000000   0.000000   0.000000 )
               a(2) = (   0.000000   1.034434   0.000000 )
               a(3) = (   0.000000   0.549733   2.192908 )

     reciprocal axes: (cart. coord. in units 2 pi/alat)
               b(1) = (  1.000000  0.000000  0.000000 )
               b(2) = (  0.000000  0.966712 -0.242342 )
               b(3) = (  0.000000  0.000000  0.456016 )

     PseudoPot. # 1 for Ga read from file:
     /home/pragov/projects/rrg-bengioy-ad/pragov/crystal_structure_design/SSSP/Ga.pbe-dn-kjpaw_psl.1.0.0.UPF
     MD5 check sum: a27b4342b1af7e5f338de752e9ed7044
     Pseudo is Projector augmented-wave + core cor, Zval = 13.0
     Generated using "atomic" code by A. Dal Corso  v.5.1
     Shape of augmentation charge: PSQ
     Using radial grid of 1205 points,  6 beta functions with:
                l(1) =   0
                l(2) =   0
                l(3) =   1
                l(4) =   1
                l(5) =   2
                l(6) =   2
     Q(r) pseudized with 0 coefficients

     PseudoPot. # 2 for Se read from file:
     /home/pragov/projects/rrg-bengioy-ad/pragov/crystal_structure_design/SSSP/Se_pbe_v1.uspp.F.UPF
     MD5 check sum: 1b3568f3a8ae88f9a2a0ad0698632c85
     Pseudo is Ultrasoft + core correction, Zval =  6.0
     Generated by new atomic code, or converted to UPF format
     Using radial grid of  877 points,  6 beta functions with:
                l(1) =   0
                l(2) =   0
                l(3) =   1
                l(4) =   1
                l(5) =   2
                l(6) =   2
     Q(r) pseudized with  8 coefficients,  rinner =    1.300   1.300   1.300
                                                       1.300   1.300

     PseudoPot. # 3 for Br read from file:
     /home/pragov/projects/rrg-bengioy-ad/pragov/crystal_structure_design/SSSP/br_pbe_v1.4.uspp.F.UPF
     MD5 check sum: d3ffb7b29f6225aa16fe06858fb2a80b
     Pseudo is Ultrasoft + core correction, Zval =  7.0
     Generated by new atomic code, or converted to UPF format
     Using radial grid of  879 points,  6 beta functions with:
                l(1) =   0
                l(2) =   0
                l(3) =   1
                l(4) =   1
                l(5) =   2
                l(6) =   2
     Q(r) pseudized with  8 coefficients,  rinner =    1.100   1.100   1.100
                                                       1.100   1.100

     atomic species   valence    mass     pseudopotential
        Ga            13.00    69.72300     Ga( 1.00)
        Se             6.00    78.97100     Se( 1.00)
        Br             7.00    79.90400     Br( 1.00)

      2 Sym. Ops. (no inversion) found ( 1 have fractional translation)

                                    s                        frac. trans.

      isym =  1     identity

 cryst.   s( 1) = (     1          0          0      )
                  (     0          1          0      )
                  (     0          0          1      )

 cart.    s( 1) = (  1.0000000  0.0000000  0.0000000 )
                  (  0.0000000  1.0000000  0.0000000 )
                  (  0.0000000  0.0000000  1.0000000 )

      isym =  2     inv. 180 deg rotation - cart. axis [1,0,0]

 cryst.   s( 2) = (    -1          0          0      )    f =(  0.0000000 )
                  (     0          1          0      )       ( -0.0000000 )
                  (     0          0          1      )       ( -0.5000000 )

 cart.    s( 2) = ( -1.0000000  0.0000000  0.0000000 )    f =(  0.0000000 )
                  (  0.0000000  1.0000000  0.0000000 )       ( -0.2748666 )
                  (  0.0000000  0.0000000  1.0000000 )       ( -1.0964538 )

   Cartesian axes

     site n.     atom                  positions (alat units)
         1           Ga  tau(   1) = (   0.9978720   0.6245409   1.0999296  )
         2           Ga  tau(   2) = (   0.0021280   0.3496743   0.0034758  )
         3           Se  tau(   3) = (   0.5933520   0.4168914   1.4517246  )
         4           Se  tau(   4) = (   0.4066480   0.1420248   0.3552708  )
         5           Br  tau(   5) = (   0.6056550   0.3230687   0.5793399  )
         6           Br  tau(   6) = (   0.3943450   0.5979353   1.6757937  )
         7           Br  tau(   7) = (   0.1261490   0.0209223   0.0104558  )
         8           Br  tau(   8) = (   0.8738510   0.2957889   1.1069096  )
         9           Br  tau(   9) = (   0.1298000   0.4966032   0.2976631  )
        10           Br  tau(  10) = (   0.8702000   0.7714698   1.3941169  )
        11           Br  tau(  11) = (   0.1331360   1.0584767   1.9142330  )
        12           Br  tau(  12) = (   0.8668640   0.7836101   0.8177791  )
        13           Br  tau(  13) = (   0.6559220   0.9219420   2.1865724  )
        14           Br  tau(  14) = (   0.3440780   0.6470754   1.0901185  )
        15           Br  tau(  15) = (   0.3895380   1.1735721   1.3866567  )
        16           Br  tau(  16) = (   0.6104620   0.8987055   0.2902028  )
        17           Br  tau(  17) = (   0.8140760   1.2980577   1.6802366  )
        18           Br  tau(  18) = (   0.1859240   1.0231911   0.5837827  )

   Crystallographic axes

     site n.     atom                  positions (cryst. coord.)
         1           Ga  tau(   1) = (  0.9978720  0.3371920  0.5015850  )
         2           Ga  tau(   2) = (  0.0021280  0.3371920  0.0015850  )
         3           Se  tau(   3) = (  0.5933520  0.0512000  0.6620090  )
         4           Se  tau(   4) = (  0.4066480  0.0512000  0.1620090  )
         5           Br  tau(   5) = (  0.6056550  0.1719160  0.2641880  )
         6           Br  tau(   6) = (  0.3943450  0.1719160  0.7641880  )
         7           Br  tau(   7) = (  0.1261490  0.0176920  0.0047680  )
         8           Br  tau(   8) = (  0.8738510  0.0176920  0.5047680  )
         9           Br  tau(   9) = (  0.1298000  0.4079360  0.1357390  )
        10           Br  tau(  10) = (  0.8702000  0.4079360  0.6357390  )
        11           Br  tau(  11) = (  0.1331360  0.5593430  0.8729200  )
        12           Br  tau(  12) = (  0.8668640  0.5593430  0.3729200  )
        13           Br  tau(  13) = (  0.6559220  0.3613540  0.9971110  )
        14           Br  tau(  14) = (  0.3440780  0.3613540  0.4971110  )
        15           Br  tau(  15) = (  0.3895380  0.7984610  0.6323370  )
        16           Br  tau(  16) = (  0.6104620  0.7984610  0.1323370  )
        17           Br  tau(  17) = (  0.8140760  0.8476560  0.7662140  )
        18           Br  tau(  18) = (  0.1859240  0.8476560  0.2662140  )

     number of k points=     1  Methfessel-Paxton smearing, width (Ry)=  0.0010
                       cart. coord. in units 2pi/alat
        k(    1) = (   0.0000000   0.0000000   0.0000000), wk =   2.0000000

                       cryst. coord.
        k(    1) = (   0.0000000   0.0000000   0.0000000), wk =   2.0000000

     Check: negative core charge=   -0.000001

     Initial potential from superposition of free atoms

     starting charge     135.9937, renormalised to     136.0000
     Starting wfcs are   82 randomized atomic wfcs
     Checking if some PAW data can be deallocated...

     Self-consistent Calculation

     iteration #  1     ecut=    30.00 Ry     beta= 0.70
     Davidson diagonalization with overlap

     ethr =  1.00E-02,  avg # of iterations =  4.0

     Threshold (ethr) on eigenvalues was too large:
     Diagonalizing with lowered threshold

     Davidson diagonalization with overlap

[...]

     total energy              =   -1298.95775752 Ry
     estimated scf accuracy    <       0.97656202 Ry

[...]

     total energy              =   -1299.44771240 Ry
     estimated scf accuracy    <       0.00000155 Ry

     iteration # 10     ecut=    30.00 Ry     beta= 0.70
     Davidson diagonalization with overlap

     ethr =  1.14E-09,  avg # of iterations =  4.0

     End of self-consistent calculation

          k = 0.0000 0.0000 0.0000 (  6601 PWs)   bands (ev):

   -15.7250 -15.7221 -14.1568 -14.1566 -14.1368 -14.1332 -14.1262 -14.1247
   -13.8312 -13.8288 -13.8181 -13.8177 -13.7956 -13.7886 -13.7855 -13.7850
   -13.5269 -13.5020 -12.7858 -12.7808 -12.7452 -12.7293 -12.6081 -12.5944
   -11.5059 -11.4963  -5.1168  -5.0811  -4.6261  -4.6022  -4.5815  -4.5569
    -4.0351  -3.9809  -2.4511  -2.3380  -2.2862  -2.2558  -2.2253  -2.1500
    -1.6647  -1.6337  -1.5243  -1.5125  -1.1894  -1.1596  -1.0897  -1.0759
    -1.0135  -0.9347  -0.8705  -0.8573  -0.7144  -0.6832  -0.6587  -0.5638
    -0.5420  -0.5083  -0.4019  -0.3949  -0.3718  -0.3199  -0.3078  -0.2863
    -0.1972  -0.1477  -0.1138  -0.0227   2.2392   2.2832   2.6115   2.6536
     2.7075   2.7468   3.7684   3.9953   6.3320   6.3972   6.5398   6.7091
     6.9701   7.0449

     occupation numbers
     1.0000   1.0000   1.0000   1.0000   1.0000   1.0000   1.0000   1.0000
     1.0000   1.0000   1.0000   1.0000   1.0000   1.0000   1.0000   1.0000
     1.0000   1.0000   1.0000   1.0000   1.0000   1.0000   1.0000   1.0000
     1.0000   1.0000   1.0000   1.0000   1.0000   1.0000   1.0000   1.0000
     1.0000   1.0000   1.0000   1.0000   1.0000   1.0000   1.0000   1.0000
     1.0000   1.0000   1.0000   1.0000   1.0000   1.0000   1.0000   1.0000
     1.0000   1.0000   1.0000   1.0000   1.0000   1.0000   1.0000   1.0000
     1.0000   1.0000   1.0000   1.0000   1.0000   1.0000   1.0000   1.0000
     1.0000   1.0000   1.0000   1.0000  -0.0000  -0.0000  -0.0000  -0.0000
    -0.0000  -0.0000  -0.0000  -0.0000  -0.0000  -0.0000  -0.0000  -0.0000
    -0.0000  -0.0000

     the Fermi energy is     1.4205 ev

!    total energy              =   -1299.44771293 Ry
     estimated scf accuracy    <       0.00000026 Ry
     smearing contrib. (-TS)   =       0.00000000 Ry
     internal energy E=F+TS    =   -1299.44771293 Ry

     The total energy is F=E-TS. E is the sum of the following terms:
     one-electron contribution =    -487.84572581 Ry
     hartree contribution      =     303.19570405 Ry
     xc contribution           =    -500.65952315 Ry
     ewald contribution        =    -392.22489244 Ry
     one-center paw contrib.   =    -221.91327557 Ry
      -> PAW hartree energy AE =     139.38796828 Ry
      -> PAW hartree energy PS =    -137.20385949 Ry
      -> PAW xc energy AE      =    -150.71885920 Ry
      -> PAW xc energy PS      =      37.57811263 Ry
      -> total E_H with PAW    =     305.37981284 Ry
      -> total E_XC with PAW   =    -613.80026973 Ry

     convergence has been achieved in  10 iterations

     Forces acting on atoms (cartesian axes, Ry/au):

     atom    1 type  1   force =     0.00098973   -0.00278070   -0.00189754
     atom    2 type  1   force =    -0.00098973   -0.00278070   -0.00189754
     atom    3 type  2   force =     0.00374562    0.00102850    0.00060938
     atom    4 type  2   force =    -0.00374562    0.00102850    0.00060938
     atom    5 type  3   force =     0.00084340    0.00123267    0.00144521
     atom    6 type  3   force =    -0.00084340    0.00123267    0.00144521
     atom    7 type  3   force =     0.00651386   -0.02204271    0.00077761
     atom    8 type  3   force =    -0.00651386   -0.02204271    0.00077761
     atom    9 type  3   force =     0.00581078    0.01113426    0.02856064
     atom   10 type  3   force =    -0.00581078    0.01113426    0.02856064
     atom   11 type  3   force =     0.00848083    0.01615289   -0.02916489
     atom   12 type  3   force =    -0.00848083    0.01615289   -0.02916489
     atom   13 type  3   force =    -0.02498759    0.00006105   -0.00049286
     atom   14 type  3   force =     0.02498759    0.00006105   -0.00049286
     atom   15 type  3   force =    -0.00810522   -0.00167294   -0.00296321
     atom   16 type  3   force =     0.00810522   -0.00167294   -0.00296321
     atom   17 type  3   force =     0.00429223   -0.00311302    0.00312567
     atom   18 type  3   force =    -0.00429223   -0.00311302    0.00312567
     The non-local contrib.  to forces
     atom    1 type  1   force =    -0.00951337   -0.00514611    0.04704999
     atom    2 type  1   force =     0.00951337   -0.00514611    0.04704999
     atom    3 type  2   force =    -0.18187603   -0.25095820    0.43318417
     atom    4 type  2   force =     0.18187603   -0.25095820    0.43318417
     atom    5 type  3   force =     0.01014887    0.01512308    0.01209438
     atom    6 type  3   force =    -0.01014887    0.01512308    0.01209438
     atom    7 type  3   force =     0.00629064   -0.01772576   -0.00430022
     atom    8 type  3   force =    -0.00629064   -0.01772576   -0.00430022
     atom    9 type  3   force =     0.00186396    0.01360079    0.01282683
     atom   10 type  3   force =    -0.00186396    0.01360079    0.01282683
     atom   11 type  3   force =     0.01450548    0.00518452   -0.01815447
     atom   12 type  3   force =    -0.01450548    0.00518452   -0.01815447
     atom   13 type  3   force =    -0.02042859    0.00840412   -0.00762655
     atom   14 type  3   force =     0.02042859    0.00840412   -0.00762655
     atom   15 type  3   force =    -0.01289857   -0.01706188   -0.00469905
     atom   16 type  3   force =     0.01289857   -0.01706188   -0.00469905
     atom   17 type  3   force =     0.00655696   -0.01141965    0.00366533
     atom   18 type  3   force =    -0.00655696   -0.01141965    0.00366533
     The ionic contribution  to forces
     atom    1 type  1   force =     1.44254912    0.68099504   -2.05326827
     atom    2 type  1   force =    -1.44254912    0.68099504   -2.05326827
     atom    3 type  2   force =    -0.20973843    0.26030565   -0.05624819
     atom    4 type  2   force =     0.20973843    0.26030565   -0.05624819
     atom    5 type  3   force =     1.45279032    1.75118091    3.40682741
     atom    6 type  3   force =    -1.45279032    1.75118091    3.40682741
     atom    7 type  3   force =     1.68537183   -7.85071642   -1.97556735
     atom    8 type  3   force =    -1.68537183   -7.85071642   -1.97556735
     atom    9 type  3   force =     1.70423304    4.81873442    6.52097493
     atom   10 type  3   force =    -1.70423304    4.81873442    6.52097493
     atom   11 type  3   force =     3.54657062    3.52860424   -6.20649096
     atom   12 type  3   force =    -3.54657062    3.52860424   -6.20649096
     atom   13 type  3   force =    -6.59425378    1.36266561   -2.17293514
     atom   14 type  3   force =     6.59425378    1.36266561   -2.17293514
     atom   15 type  3   force =    -1.84238820   -3.47703988   -0.53124974
     atom   16 type  3   force =     1.84238820   -3.47703988   -0.53124974
     atom   17 type  3   force =     1.21469236   -1.07472958    3.06795731
     atom   18 type  3   force =    -1.21469236   -1.07472958    3.06795731
     The local contribution  to forces
     atom    1 type  1   force =    -1.43273237   -0.67920991    2.00527305
     atom    2 type  1   force =     1.43272600   -0.67924581    2.00516132
     atom    3 type  2   force =     0.37343033   -0.03853041   -0.32362739
     atom    4 type  2   force =    -0.37343774   -0.03849371   -0.32352060
     atom    5 type  3   force =    -1.47754514   -1.78093828   -3.43478554
     atom    6 type  3   force =     1.47757958   -1.78097494   -3.43491243
     atom    7 type  3   force =    -1.69158673    7.87154314    1.98455759
     atom    8 type  3   force =     1.69158744    7.87153863    1.98455123
     atom    9 type  3   force =    -1.70500993   -4.83678018   -6.52433197
     atom   10 type  3   force =     1.70500712   -4.83679499   -6.52438575
     atom   11 type  3   force =    -3.56604499   -3.52751448    6.21609230
     atom   12 type  3   force =     3.56604397   -3.52752616    6.21615117
     atom   13 type  3   force =     6.61566240   -1.37620991    2.18536236
     atom   14 type  3   force =    -6.61566568   -1.37621450    2.18537585
     atom   15 type  3   force =     1.86326527    3.51435072    0.53892566
     atom   16 type  3   force =    -1.86326455    3.51433827    0.53898426
     atom   17 type  3   force =    -1.23160963    1.09556572   -3.08270699
     atom   18 type  3   force =     1.23157756    1.09555587   -3.08259125
     The core correction contribution to forces
     atom    1 type  1   force =     0.00028039    0.00021893   -0.00078610
     atom    2 type  1   force =    -0.00028072    0.00021693   -0.00079098
     atom    3 type  2   force =     0.02208784    0.03040593   -0.05263686
     atom    4 type  2   force =    -0.02208824    0.03040858   -0.05263545
     atom    5 type  3   force =     0.01539887    0.01595064    0.01736232
     atom    6 type  3   force =    -0.01539885    0.01595123    0.01736679
     atom    7 type  3   force =     0.00648241   -0.02498724   -0.00389715
     atom    8 type  3   force =    -0.00648205   -0.02498653   -0.00389401
     atom    9 type  3   force =     0.00480738    0.01553687    0.01920306
     atom   10 type  3   force =    -0.00480472    0.01553848    0.01921037
     atom   11 type  3   force =     0.01348694    0.00993240   -0.02068947
     atom   12 type  3   force =    -0.01348686    0.00993377   -0.02068971
     atom   13 type  3   force =    -0.02599574    0.00521943   -0.00536594
     atom   14 type  3   force =     0.02599495    0.00521959   -0.00536299
     atom   15 type  3   force =    -0.01599037   -0.02177656   -0.00588662
     atom   16 type  3   force =     0.01598874   -0.02177552   -0.00589305
     atom   17 type  3   force =     0.01464922   -0.01240256    0.01412322
     atom   18 type  3   force =    -0.01464974   -0.01240312    0.01412055
     The Hubbard contrib.    to forces
     atom    1 type  1   force =     0.00000000    0.00000000    0.00000000
     atom    2 type  1   force =     0.00000000    0.00000000    0.00000000
     atom    3 type  2   force =     0.00000000    0.00000000    0.00000000
     atom    4 type  2   force =     0.00000000    0.00000000    0.00000000
     atom    5 type  3   force =     0.00000000    0.00000000    0.00000000
     atom    6 type  3   force =     0.00000000    0.00000000    0.00000000
     atom    7 type  3   force =     0.00000000    0.00000000    0.00000000
     atom    8 type  3   force =     0.00000000    0.00000000    0.00000000
     atom    9 type  3   force =     0.00000000    0.00000000    0.00000000
     atom   10 type  3   force =     0.00000000    0.00000000    0.00000000
     atom   11 type  3   force =     0.00000000    0.00000000    0.00000000
     atom   12 type  3   force =     0.00000000    0.00000000    0.00000000
     atom   13 type  3   force =     0.00000000    0.00000000    0.00000000
     atom   14 type  3   force =     0.00000000    0.00000000    0.00000000
     atom   15 type  3   force =     0.00000000    0.00000000    0.00000000
     atom   16 type  3   force =     0.00000000    0.00000000    0.00000000
     atom   17 type  3   force =     0.00000000    0.00000000    0.00000000
     atom   18 type  3   force =     0.00000000    0.00000000    0.00000000
     The SCF correction term to forces
     atom    1 type  1   force =     0.00039409    0.00041308   -0.00019991
     atom    2 type  1   force =    -0.00041113    0.00046111   -0.00004359
     atom    3 type  2   force =    -0.00015792   -0.00014176   -0.00007738
     atom    4 type  2   force =     0.00016608   -0.00017297   -0.00018319
     atom    5 type  3   force =     0.00005186   -0.00002404   -0.00005626
     atom    6 type  3   force =    -0.00008354    0.00000632    0.00004431
     atom    7 type  3   force =    -0.00004465   -0.00009901   -0.00001983
     atom    8 type  3   force =     0.00004286   -0.00009647   -0.00003515
     atom    9 type  3   force =    -0.00009273    0.00010330   -0.00010926
     atom   10 type  3   force =     0.00007477    0.00010819   -0.00009636
     atom   11 type  3   force =    -0.00003742    0.00000696    0.00006336
     atom   12 type  3   force =     0.00003796    0.00000936    0.00000573
     atom   13 type  3   force =     0.00002992    0.00004013    0.00006752
     atom   14 type  3   force =    -0.00002226    0.00004147    0.00003318
     atom   15 type  3   force =    -0.00008949   -0.00008891   -0.00008447
     atom   16 type  3   force =     0.00009813   -0.00007676   -0.00010230
     atom   17 type  3   force =     0.00000529   -0.00007118    0.00006643
     atom   18 type  3   force =     0.00003122   -0.00005872   -0.00003357

     Total force =     0.083159     Total SCF correction =     0.001035

     Computing stress (Cartesian axis) and pressure

          total   stress  (Ry/bohr**3)                   (kbar)     P=        1.83
  -0.00003296   0.00000000   0.00000000           -4.85        0.00        0.00
   0.00000000  -0.00000009   0.00000087            0.00       -0.01        0.13
   0.00000000   0.00000087   0.00007036            0.00        0.13       10.35

     kinetic stress (kbar)   3364.44      0.00      0.00
                                0.00   3384.23    -13.11
                                0.00    -13.11   3405.16

     local   stress (kbar)   -972.34     -0.00     -0.00
                               -0.00   1003.85   1004.84
                               -0.00   1004.84    806.03

     nonloc. stress (kbar)  -1036.07      0.00      0.00
                                0.00  -1040.33     -1.76
                                0.00     -1.76  -1036.67

     hartree stress (kbar)   3653.35      0.00      0.00
                                0.00   2810.66   -444.86
                                0.00   -444.86   2912.32

     exc-cor stress (kbar)   9639.35      0.00      0.00
                                0.00   9638.69     -0.30
                                0.00     -0.30   9638.47

     corecor stress (kbar) -11344.75      0.00      0.00
                                0.00 -11345.51      0.78
                                0.00      0.78 -11345.82

     ewald   stress (kbar)  -3308.82      0.00      0.00
                                0.00  -4451.61   -545.47
                                0.00   -545.47  -4369.14

     hubbard stress (kbar)      0.00      0.00      0.00
                                0.00      0.00      0.00
                                0.00      0.00      0.00

     DFT-D   stress (kbar)      0.00      0.00      0.00
                                0.00      0.00      0.00
                                0.00      0.00      0.00

     XDM     stress (kbar)      0.00      0.00      0.00
                                0.00      0.00      0.00
                                0.00      0.00      0.00

     dft-nl  stress (kbar)      0.00      0.00      0.00
                                0.00      0.00      0.00
                                0.00      0.00      0.00

     TS-vdW  stress (kbar)      0.00      0.00      0.00
                                0.00      0.00      0.00
                                0.00      0.00      0.00

[...]

                                0.00      0.00      0.00

     Writing all to output data dir calculations/myprefix.save/

     General routines

     Parallel routines

     PAW routines

   This run was terminated on:  12:18:14   6Mar2023

   JOB DONE.