     Program PWSCF v.7.0 starts on  3Mar2023 at 12:18:52

     R & G space division:  proc/nbgrp/npool/nimage =      32

     Reading input from espresso_245.pwi
Warning: card &CELL ignored
Warning: card / ignored

     Current dimensions of program PWSCF are:
     Max number of different atomic species (ntypx) = 10
     Max number of k-points (npk) =  40000
     Max angular momentum in pseudopotentials (lmaxx) =  4
     file O.pbe-n-kjpaw_psl.0.1.UPF: wavefunction(s)  2P renormalized

     gamma-point specific algorithms are used

     Using Slab Decomposition

     bravais-lattice index     =            0
     lattice parameter (alat)  =      15.5173  a.u.
     unit-cell volume          =    1741.6979 (a.u.)^3
     number of atoms/cell      =           18
     number of atomic types    =            4
     number of electrons       =        94.00
     number of Kohn-Sham states=           56
     kinetic-energy cutoff     =      30.0000  Ry
     charge density cutoff     =     240.0000  Ry
     scf convergence threshold =      1.0E-06
     mixing beta               =       0.7000
     number of iterations used =            8  plain     mixing
     Exchange-correlation= SLA  PW   PBX  PBC
                           (   1   4   3   4   0   0   0)

     celldm(1)=  15.517306  celldm(2)=   0.000000  celldm(3)=   0.000000
     celldm(4)=   0.000000  celldm(5)=   0.000000  celldm(6)=   0.000000

     crystal axes: (cart. coord. in units of alat)
               a(1) = (   1.000000   0.000000   0.000000 )
               a(2) = (   0.687793   0.725907   0.000000 )
               a(3) = (   0.163611   0.070368   0.642160 )

     reciprocal axes: (cart. coord. in units 2 pi/alat)
               b(1) = (  1.000000 -0.947495 -0.150956 )
               b(2) = (  0.000000  1.377587 -0.150956 )
               b(3) = (  0.000000  0.000000  1.557245 )

     PseudoPot. # 1 for Na read from file:
     /home/pragov/projects/rrg-bengioy-ad/pragov/crystal_structure_design/SSSP/na_pbe_v1.5.uspp.F.UPF
     MD5 check sum: 44600605ef58000f06b90626533354dc
     Pseudo is Ultrasoft, Zval =  9.0
     Generated by new atomic code, or converted to UPF format
     Using radial grid of  819 points,  5 beta functions with:
                l(1) =   0
                l(2) =   0
                l(3) =   1
                l(4) =   1
                l(5) =   2
     Q(r) pseudized with  8 coefficients,  rinner =    1.250   1.250   1.250
                                                       1.250   1.250

     PseudoPot. # 2 for H  read from file:
     /home/pragov/projects/rrg-bengioy-ad/pragov/crystal_structure_design/SSSP/H.pbe-rrkjus_psl.1.0.0.UPF
     MD5 check sum: f52b6d4d1c606e5624b1dc7b2218f220
     Pseudo is Ultrasoft, Zval =  1.0
     Generated using "atomic" code by A. Dal Corso  v.5.1
     Using radial grid of  929 points,  2 beta functions with:
                l(1) =   0
                l(2) =   0
     Q(r) pseudized with 0 coefficients

     PseudoPot. # 3 for S  read from file:
     /home/pragov/projects/rrg-bengioy-ad/pragov/crystal_structure_design/SSSP/s_pbe_v1.4.uspp.F.UPF
     MD5 check sum: 88d86576ff6df21479756cfb9bdac1df
     Pseudo is Ultrasoft + core correction, Zval =  6.0
     Generated by new atomic code, or converted to UPF format
     Using radial grid of  907 points,  6 beta functions with:
                l(1) =   0
                l(2) =   0
                l(3) =   1
                l(4) =   1
                l(5) =   2
                l(6) =   2
     Q(r) pseudized with  8 coefficients,  rinner =    1.300   1.300   1.300
                                                       1.300   1.300

     PseudoPot. # 4 for O  read from file:
     /home/pragov/projects/rrg-bengioy-ad/pragov/crystal_structure_design/SSSP/O.pbe-n-kjpaw_psl.0.1.UPF
     MD5 check sum: 0234752ac141de4415c5fc33072bef88
     Pseudo is Projector augmented-wave + core cor, Zval =  6.0
     Generated using "atomic" code by A. Dal Corso  v.5.0.99 svn rev. 10869
     Shape of augmentation charge: BESSEL
     Using radial grid of 1095 points,  4 beta functions with:
                l(1) =   0
                l(2) =   0
                l(3) =   1
                l(4) =   1
     Q(r) pseudized with 0 coefficients

     atomic species   valence    mass     pseudopotential
        Na             9.00    22.98977     Na( 1.00)
        H              1.00     1.00800     H ( 1.00)
        S              6.00    32.06000     S ( 1.00)
        O              6.00    15.99900     O ( 1.00)

     No symmetry found

                                    s                        frac. trans.

      isym =  1     identity

 cryst.   s( 1) = (     1          0          0      )
                  (     0          1          0      )
                  (     0          0          1      )

 cart.    s( 1) = (  1.0000000 -0.0000000  0.0000000 )
                  (  0.0000000  1.0000000 -0.0000000 )
                  (  0.0000000  0.0000000  1.0000000 )

   Cartesian axes

     site n.     atom                  positions (alat units)
         1           Na  tau(   1) = (   1.4340591   0.6863713   0.6307087  )
         2           Na  tau(   2) = (   0.3668271   0.2273631   0.0114510  )
         3           H   tau(   3) = (   1.0594110   0.3941722   0.1549037  )
         4           H   tau(   4) = (   0.8366167   0.2983502   0.4872560  )
         5           H   tau(   5) = (   1.1987687   0.4461862   0.6077348  )
         6           H   tau(   6) = (   0.7030102   0.2329643   0.0344249  )
         7           S   tau(   7) = (   0.1481396   0.0624982   0.4202723  )
         8           S   tau(   8) = (   1.7041473   0.7317251   0.2218874  )
         9           S   tau(   9) = (   1.0814184   0.6967290   0.3738037  )
        10           S   tau(  10) = (   0.6018522   0.4904713   0.2683560  )
        11           O   tau(  11) = (   1.0790137   0.5189505   0.3943830  )
        12           O   tau(  12) = (   0.7325568   0.3699420   0.2477767  )
        13           O   tau(  13) = (   1.1740155   0.7805316   0.5018041  )
        14           O   tau(  14) = (   0.4773317   0.4808933   0.1403556  )
        15           O   tau(  15) = (   1.1236416   0.7484300   0.2079063  )
        16           O   tau(  16) = (   0.5352812   0.4953808   0.4342534  )
        17           O   tau(  17) = (   1.1161081   0.3685525   0.0532427  )
        18           O   tau(  18) = (   0.8162184   0.2395723   0.5889169  )

   Crystallographic axes

     site n.     atom                  positions (cryst. coord.)
         1           Na  tau(   1) = (  0.6885160  0.8503270  0.9821680  )
         2           Na  tau(   2) = (  0.1496730  0.3114840  0.0178320  )
         3           H   tau(   3) = (  0.6625510  0.5196230  0.2412230  )
         4           H   tau(   4) = (  0.4803770  0.3374490  0.7587770  )
         5           H   tau(   5) = (  0.6842680  0.5229190  0.9463920  )
         6           H   tau(   6) = (  0.4770810  0.3157320  0.0536080  )
         7           S   tau(   7) = (  0.0254800  0.0226540  0.6544670  )
         8           S   tau(   8) = (  0.9773460  0.9745200  0.3455330  )
         9           S   tau(   9) = (  0.3648430  0.9033770  0.5821040  )
        10           S   tau(  10) = (  0.0966230  0.6351570  0.4178960  )
        11           O   tau(  11) = (  0.5277760  0.6553650  0.6141510  )
        12           O   tau(  12) = (  0.3446350  0.4722240  0.3858490  )
        13           O   tau(  13) = (  0.3587150  0.9995000  0.7814320  )
        14           O   tau(  14) = (  0.0005000  0.6412850  0.2185680  )
        15           O   tau(  15) = (  0.3831230  0.9996430  0.3237610  )
        16           O   tau(  16) = (  0.0003570  0.6168770  0.6762390  )
        17           O   tau(  17) = (  0.7588690  0.4996760  0.0829120  )
        18           O   tau(  18) = (  0.5003240  0.2411310  0.9170880  )

     number of k points=     1  Methfessel-Paxton smearing, width (Ry)=  0.0010
                       cart. coord. in units 2pi/alat
        k(    1) = (   0.0000000   0.0000000   0.0000000), wk =   2.0000000

                       cryst. coord.
        k(    1) = (   0.0000000   0.0000000   0.0000000), wk =   2.0000000

     Check: negative core charge=   -0.000010

     Initial potential from superposition of free atoms

     starting charge      93.9872, renormalised to      94.0000
     Starting wfcs are   62 randomized atomic wfcs
     Checking if some PAW data can be deallocated...

     Self-consistent Calculation

     iteration #  1     ecut=    30.00 Ry     beta= 0.70
     Davidson diagonalization with overlap

     ethr =  1.00E-02,  avg # of iterations =  3.0

     total energy              =    -623.48620644 Ry
     estimated scf accuracy    <       2.98310212 Ry

[...]

     total energy              =    -624.93362960 Ry
     estimated scf accuracy    <       0.00000259 Ry

     iteration #  9     ecut=    30.00 Ry     beta= 0.70
     Davidson diagonalization with overlap

     ethr =  2.75E-09,  avg # of iterations =  4.0

     End of self-consistent calculation

          k = 0.0000 0.0000 0.0000 (  2400 PWs)   bands (ev):

   -47.9838 -47.9797 -21.3571 -21.3410 -19.9642 -19.9298 -19.9096 -19.8935
   -19.8909 -19.8605 -18.3309 -18.2601 -17.9007 -17.8797 -17.8157 -17.7815
   -13.2566  -9.9935  -8.0262  -6.9893  -6.1347  -6.0726  -5.4490  -4.6564
    -4.6433  -4.4727  -4.4097  -4.3720  -2.8205  -2.5774  -2.4911  -1.7727
    -1.5215  -1.4439  -1.4202  -1.2642  -1.1676  -0.7896  -0.6527  -0.4737
    -0.4298  -0.2595  -0.1735   0.6839   0.7352   0.8660   1.2134   5.1571
     5.4233   5.7812   6.6883   8.1249   8.3862   8.5415   8.8715   9.0173

     occupation numbers
     1.0000   1.0000   1.0000   1.0000   1.0000   1.0000   1.0000   1.0000
     1.0000   1.0000   1.0000   1.0000   1.0000   1.0000   1.0000   1.0000
     1.0000   1.0000   1.0000   1.0000   1.0000   1.0000   1.0000   1.0000
     1.0000   1.0000   1.0000   1.0000   1.0000   1.0000   1.0000   1.0000
     1.0000   1.0000   1.0000   1.0000   1.0000   1.0000   1.0000   1.0000
     1.0000   1.0000   1.0000   1.0000   1.0000   1.0000   1.0000  -0.0000
    -0.0000  -0.0000  -0.0000  -0.0000  -0.0000  -0.0000  -0.0000  -0.0000

     the Fermi energy is     1.9942 ev

!    total energy              =    -624.93363025 Ry
     estimated scf accuracy    <       0.00000077 Ry
     smearing contrib. (-TS)   =       0.00000000 Ry
     internal energy E=F+TS    =    -624.93363025 Ry

     The total energy is F=E-TS. E is the sum of the following terms:
     one-electron contribution =    -392.34404933 Ry
     hartree contribution      =     233.26112064 Ry
     xc contribution           =    -125.50933904 Ry
     ewald contribution        =    -264.17354191 Ry
     one-center paw contrib.   =     -76.16782060 Ry
      -> PAW hartree energy AE =       0.00000000 Ry
      -> PAW hartree energy PS =       0.00000000 Ry
      -> PAW xc energy AE      =       0.00000000 Ry
      -> PAW xc energy PS      =       0.00000000 Ry
      -> total E_H with PAW    =     233.26112064 Ry
      -> total E_XC with PAW   =    -125.50933904 Ry

     convergence has been achieved in   9 iterations

     Forces acting on atoms (cartesian axes, Ry/au):

     atom    1 type  1   force =     0.00026872    0.00113814    0.00003673
     atom    2 type  1   force =    -0.00102385    0.00058191   -0.00005420
     atom    3 type  2   force =    -0.00527541    0.00288550    0.00990605
     atom    4 type  2   force =     0.00153583    0.00581384   -0.00990338
     atom    5 type  2   force =    -0.01052960    0.00080677   -0.00815065
     atom    6 type  2   force =     0.00665831    0.00819841    0.00815006
     atom    7 type  3   force =     0.00001820   -0.00313217    0.02449808
     atom    8 type  3   force =     0.00226166   -0.00217372   -0.02449280
     atom    9 type  3   force =     0.00261520   -0.00335385   -0.00065980
     atom   10 type  3   force =     0.00063779   -0.00420156    0.00066124
     atom   11 type  4   force =     0.00129995   -0.00273914   -0.00005539
     atom   12 type  4   force =     0.00109537   -0.00282209    0.00005501
     atom   13 type  4   force =    -0.00950090    0.00345073   -0.00135185
     atom   14 type  4   force =     0.00403377    0.00927240    0.00135363
     atom   15 type  4   force =     0.00498244    0.00148572    0.00189854
     atom   16 type  4   force =    -0.00450351   -0.00259371   -0.00189642
     atom   17 type  4   force =     0.01288224   -0.00193513   -0.00343225
     atom   18 type  4   force =    -0.00745621   -0.01068206    0.00343740
     The non-local contrib.  to forces
     atom    1 type  1   force =     0.04363210    0.02586031   -0.06025627
     atom    2 type  1   force =    -0.04878866   -0.01393680    0.06029828
     atom    3 type  2   force =     0.05016351   -0.02384471   -0.09690557
     atom    4 type  2   force =    -0.01719301   -0.05281417    0.09690547
     atom    5 type  2   force =     0.07225426   -0.00618266    0.08301062
     atom    6 type  2   force =    -0.04520781   -0.05670209   -0.08301055
     atom    7 type  3   force =     0.11038747   -0.23151714   -0.32576088
     atom    8 type  3   force =     0.09213896   -0.23937032    0.32576732
     atom    9 type  3   force =     0.04983204    0.03520412   -0.01219997
     atom   10 type  3   force =    -0.05983047   -0.01195897    0.01219362
     atom   11 type  4   force =     0.02887443    2.17366620   -0.22242720
     atom   12 type  4   force =    -1.59773474    1.47407365    0.22241761
     atom   13 type  4   force =    -1.06427308   -0.96983870   -1.58901284
     atom   14 type  4   force =     1.43601971    0.10551014    1.58901741
     atom   15 type  4   force =    -0.50175397   -0.59922727    1.98316382
     atom   16 type  4   force =     0.78007665   -0.04792187   -1.98316456
     atom   17 type  4   force =    -1.96904465    0.49488979    0.19723768
     atom   18 type  4   force =     0.99505340    1.76973034   -0.19723172
     The ionic contribution  to forces
     atom    1 type  1   force =     2.82402894    1.81146683   -1.21919236
     atom    2 type  1   force =    -3.25730372   -0.80406719    1.21919236
     atom    3 type  2   force =    -2.02736452   -0.01043609    2.85101869
     atom    4 type  2   force =     1.40198304    1.46449970   -2.85101869
     atom    5 type  2   force =    -2.69846720   -0.59712651   -2.05601299
     atom    6 type  2   force =     2.28944538    1.54813602    2.05601299
     atom    7 type  3   force =    -2.70326471    3.60743317    3.76959694
     atom    8 type  3   force =    -0.75937314    4.44348586   -3.76959694
     atom    9 type  3   force =    -5.53590956    0.40530850    1.43403187
     atom   10 type  3   force =     3.51334444    4.29732247   -1.43403188
     atom   11 type  4   force =    -2.14868506  -12.14299419    2.22505405
     atom   12 type  4   force =    10.29253219   -6.79212312   -2.22505405
     atom   13 type  4   force =     0.94254910    3.22633121    4.91978185
     atom   14 type  4   force =    -2.99029439    1.53484572   -4.91978186
     atom   15 type  4   force =     0.72331048    2.43006607   -4.83268970
     atom   16 type  4   force =    -2.26148933    1.14632682    4.83268971
     atom   17 type  4   force =    -2.58841620   -4.41252181    1.39580016
     atom   18 type  4   force =     4.98337424   -1.15595346   -1.39580016
     The local contribution  to forces
     atom    1 type  1   force =    -2.86749872   -1.83636161    1.27955939
     atom    2 type  1   force =     3.30525980    0.81851528   -1.27960300
     atom    3 type  2   force =     1.97182579    0.03723832   -2.74411570
     atom    4 type  2   force =    -1.38323964   -1.40575107    2.74412199
     atom    5 type  2   force =     2.61556362    0.60416654    1.96476234
     atom    6 type  2   force =    -2.23753777   -1.48311666   -1.96476799
     atom    7 type  3   force =     2.59915158   -3.39162730   -3.43629603
     atom    8 type  3   force =     0.67431373   -4.21949892    3.43629504
     atom    9 type  3   force =     5.48355038   -0.43954004   -1.42222686
     atom   10 type  3   force =    -3.45247845   -4.28284569    1.42222980
     atom   11 type  4   force =     2.12118584    9.98603714   -2.00450857
     atom   12 type  4   force =    -8.70789016    5.32857248    2.00451729
     atom   13 type  4   force =     0.10305419   -2.26149877   -3.34633210
     atom   14 type  4   force =     1.57077405   -1.63024239    3.34636883
     atom   15 type  4   force =    -0.22088868   -1.83455498    2.86900522
     atom   16 type  4   force =     1.48366874   -1.10145091   -2.86905694
     atom   17 type  4   force =     4.55036211    3.92068135   -1.59452315
     atom   18 type  4   force =    -5.97574523   -0.60650752    1.59453947
     The core correction contribution to forces
     atom    1 type  1   force =     0.00000000    0.00000000    0.00000000
     atom    2 type  1   force =     0.00000000    0.00000000    0.00000000
     atom    3 type  2   force =     0.00000000    0.00000000    0.00000000
     atom    4 type  2   force =     0.00000000    0.00000000    0.00000000
     atom    5 type  2   force =     0.00000000    0.00000000    0.00000000
     atom    6 type  2   force =     0.00000000    0.00000000    0.00000000
     atom    7 type  3   force =    -0.00598672    0.01235718    0.01702978
     atom    8 type  3   force =    -0.00485282    0.01284545   -0.01703033
     atom    9 type  3   force =     0.00533916   -0.00420497   -0.00017522
     atom   10 type  3   force =    -0.00061966   -0.00676778    0.00017561
     atom   11 type  4   force =    -0.00013989   -0.01879322    0.00186160
     atom   12 type  4   force =     0.01373827   -0.01282425   -0.00186146
     atom   13 type  4   force =     0.00909931    0.00830624    0.01399395
     atom   14 type  4   force =    -0.01228810   -0.00089220   -0.01399388
     atom   15 type  4   force =     0.00432798    0.00512775   -0.01732896
     atom   16 type  4   force =    -0.00669891    0.00038522    0.01732888
     atom   17 type  4   force =     0.01941162   -0.00469528   -0.00199635
     atom   18 type  4   force =    -0.00994281   -0.01732045    0.00199631
     The Hubbard contrib.    to forces
     atom    1 type  1   force =     0.00000000    0.00000000    0.00000000
     atom    2 type  1   force =     0.00000000    0.00000000    0.00000000
     atom    3 type  2   force =     0.00000000    0.00000000    0.00000000
     atom    4 type  2   force =     0.00000000    0.00000000    0.00000000
     atom    5 type  2   force =     0.00000000    0.00000000    0.00000000
     atom    6 type  2   force =     0.00000000    0.00000000    0.00000000
     atom    7 type  3   force =     0.00000000    0.00000000    0.00000000
     atom    8 type  3   force =     0.00000000    0.00000000    0.00000000
     atom    9 type  3   force =     0.00000000    0.00000000    0.00000000
     atom   10 type  3   force =     0.00000000    0.00000000    0.00000000
     atom   11 type  4   force =     0.00000000    0.00000000    0.00000000
     atom   12 type  4   force =     0.00000000    0.00000000    0.00000000
     atom   13 type  4   force =     0.00000000    0.00000000    0.00000000
     atom   14 type  4   force =     0.00000000    0.00000000    0.00000000
     atom   15 type  4   force =     0.00000000    0.00000000    0.00000000
     atom   16 type  4   force =     0.00000000    0.00000000    0.00000000
     atom   17 type  4   force =     0.00000000    0.00000000    0.00000000
     atom   18 type  4   force =     0.00000000    0.00000000    0.00000000
     The SCF correction term to forces
     atom    1 type  1   force =     0.00010106    0.00018165   -0.00007480
     atom    2 type  1   force =    -0.00019663    0.00007966    0.00005741
     atom    3 type  2   force =     0.00009445   -0.00006299   -0.00009213
     atom    4 type  2   force =    -0.00001992   -0.00011158    0.00008710
     atom    5 type  2   force =     0.00011437   -0.00004157    0.00008862
     atom    6 type  2   force =    -0.00004685   -0.00010982   -0.00008514
     atom    7 type  3   force =    -0.00027478    0.00023095   -0.00007249
     atom    8 type  3   force =     0.00002958    0.00037324    0.00007136
     atom    9 type  3   force =    -0.00020219   -0.00011243   -0.00009038
     atom   10 type  3   force =     0.00021657    0.00005744    0.00009332
     atom   11 type  4   force =     0.00005926   -0.00064602   -0.00003603
     atom   12 type  4   force =     0.00044445   -0.00051181    0.00003487
     atom   13 type  4   force =     0.00006421    0.00015978    0.00021652
     atom   14 type  4   force =    -0.00018286    0.00006016   -0.00025762
     atom   15 type  4   force =    -0.00001873    0.00008319   -0.00025259
     atom   16 type  4   force =    -0.00006603    0.00007606    0.00030575
     atom   17 type  4   force =     0.00056400   -0.00028013    0.00004865
     atom   18 type  4   force =    -0.00020117   -0.00062194   -0.00006725

     Total force =     0.050345     Total SCF correction =     0.001628

     Computing stress (Cartesian axis) and pressure

          total   stress  (Ry/bohr**3)                   (kbar)     P=     -236.64
  -0.00160708  -0.00001726  -0.00001339         -236.41       -2.54       -1.97
  -0.00001726  -0.00157439  -0.00000576           -2.54     -231.60       -0.85
  -0.00001339  -0.00000576  -0.00164444           -1.97       -0.85     -241.90

     kinetic stress (kbar)  11884.30    -30.47   -143.17
                              -30.47  11942.04    -61.58
                             -143.17    -61.58  11411.73

     local   stress (kbar)    560.28   2950.29  -3022.49
                             2950.29  -5030.50  -1299.95
                            -3022.49  -1299.95  -7297.71

     nonloc. stress (kbar)  -4168.38     -7.57    -10.29
                               -7.57  -4154.04     -4.43
                              -10.29     -4.43  -4169.25

     hartree stress (kbar)   4654.53  -1390.95   1215.55
                            -1390.95   7290.37    522.80
                             1215.55    522.80   7756.51

     exc-cor stress (kbar)  -1427.00     -0.39      3.17
                               -0.39  -1426.26      1.37
                                3.17      1.37  -1415.48

     corecor stress (kbar)  -1601.52      1.01      0.81
                                1.01  -1603.44      0.35
                                0.81      0.35  -1603.79

     ewald   stress (kbar) -10138.61  -1524.46   1954.45
                            -1524.46  -7249.77    840.59
                             1954.45    840.59  -4923.90

     hubbard stress (kbar)      0.00      0.00      0.00
                                0.00      0.00      0.00
                                0.00      0.00      0.00

     DFT-D   stress (kbar)      0.00      0.00      0.00
                                0.00      0.00      0.00
                                0.00      0.00      0.00

     XDM     stress (kbar)      0.00      0.00      0.00
                                0.00      0.00      0.00
                                0.00      0.00      0.00

     dft-nl  stress (kbar)      0.00      0.00      0.00
                                0.00      0.00      0.00
                                0.00      0.00      0.00

     TS-vdW  stress (kbar)      0.00      0.00      0.00
                                0.00      0.00      0.00
                                0.00      0.00      0.00

[...]

                                0.00      0.00      0.00

     Writing all to output data dir calculations/myprefix.save/

     General routines

     Parallel routines

     PAW routines

   This run was terminated on:  12:18:56   3Mar2023

   JOB DONE.