     Program PWSCF v.7.0 starts on  3Mar2023 at 15: 6: 4

     R & G space division:  proc/nbgrp/npool/nimage =      32

     Reading input from espresso_704.pwi
Warning: card &CELL ignored
Warning: card / ignored

     Current dimensions of program PWSCF are:
     Max number of different atomic species (ntypx) = 10
     Max number of k-points (npk) =  40000
     Max angular momentum in pseudopotentials (lmaxx) =  4
     file O.pbe-n-kjpaw_psl.0.1.UPF: wavefunction(s)  2P renormalized

     gamma-point specific algorithms are used
     Message from routine setup:
     using ibrav=0 with symmetry is DISCOURAGED, use correct ibrav instead

     Using Slab Decomposition

     bravais-lattice index     =            0
     lattice parameter (alat)  =       7.3649  a.u.
     unit-cell volume          =     930.3036 (a.u.)^3
     number of atoms/cell      =            8
     number of atomic types    =            4
     number of electrons       =        81.00
     number of Kohn-Sham states=           49
     kinetic-energy cutoff     =      30.0000  Ry
     charge density cutoff     =     240.0000  Ry
     scf convergence threshold =      1.0E-06
     mixing beta               =       0.7000
     number of iterations used =            8  plain     mixing
     Exchange-correlation= SLA  PW   PBX  PBC
                           (   1   4   3   4   0   0   0)

     celldm(1)=   7.364928  celldm(2)=   0.000000  celldm(3)=   0.000000
     celldm(4)=   0.000000  celldm(5)=   0.000000  celldm(6)=   0.000000

     crystal axes: (cart. coord. in units of alat)
               a(1) = (   1.000000   0.000000   0.000000 )
               a(2) = (   0.000000   1.000000   0.000000 )
               a(3) = (   0.000000   0.000000   2.328730 )

     reciprocal axes: (cart. coord. in units 2 pi/alat)
               b(1) = (  1.000000  0.000000  0.000000 )
               b(2) = (  0.000000  1.000000  0.000000 )
               b(3) = (  0.000000  0.000000  0.429419 )

     PseudoPot. # 1 for Dy read from file:
     /home/pragov/projects/rrg-bengioy-ad/pragov/crystal_structure_design/SSSP/Dy.GGA-PBE-paw-v1.0.UPF
     MD5 check sum: 733414aae3e3693a823ce0c917a68f08
     Pseudo is Projector augmented-wave + core cor, Zval = 20.0
     Generated using ATOMPAW code
     Shape of augmentation charge: BESSEL
     Using radial grid of 1112 points,  8 beta functions with:
                l(1) =   0
                l(2) =   0
                l(3) =   1
                l(4) =   1
                l(5) =   2
                l(6) =   2
                l(7) =   3
                l(8) =   3
     Q(r) pseudized with 0 coefficients

     PseudoPot. # 2 for Bi read from file:
     /home/pragov/projects/rrg-bengioy-ad/pragov/crystal_structure_design/SSSP/Bi_pbe_v1.uspp.F.UPF
     MD5 check sum: cceb9f28ec65b6d7ff33140f5b0b1758
     Pseudo is Ultrasoft + core correction, Zval = 15.0
     Generated by new atomic code, or converted to UPF format
     Using radial grid of  899 points,  6 beta functions with:
                l(1) =   0
                l(2) =   0
                l(3) =   1
                l(4) =   1
                l(5) =   2
                l(6) =   2
     Q(r) pseudized with  6 coefficients,  rinner =    1.000   1.000   1.000
                                                       1.000   1.000

     PseudoPot. # 3 for Cl read from file:
     /home/pragov/projects/rrg-bengioy-ad/pragov/crystal_structure_design/SSSP/cl_pbe_v1.4.uspp.F.UPF
     MD5 check sum: fc6f6913ecf08c9257cb748ef0700058
     Pseudo is Ultrasoft + core correction, Zval =  7.0
     Generated by new atomic code, or converted to UPF format
     Using radial grid of  909 points,  6 beta functions with:
                l(1) =   0
                l(2) =   0
                l(3) =   1
                l(4) =   1
                l(5) =   2
                l(6) =   2
     Q(r) pseudized with  8 coefficients,  rinner =    1.300   1.300   1.300
                                                       1.300   1.300

     PseudoPot. # 4 for O  read from file:
     /home/pragov/projects/rrg-bengioy-ad/pragov/crystal_structure_design/SSSP/O.pbe-n-kjpaw_psl.0.1.UPF
     MD5 check sum: 0234752ac141de4415c5fc33072bef88
     Pseudo is Projector augmented-wave + core cor, Zval =  6.0
     Generated using "atomic" code by A. Dal Corso  v.5.0.99 svn rev. 10869
     Shape of augmentation charge: BESSEL
     Using radial grid of 1095 points,  4 beta functions with:
                l(1) =   0
                l(2) =   0
                l(3) =   1
                l(4) =   1
     Q(r) pseudized with 0 coefficients

     atomic species   valence    mass     pseudopotential
        Dy            20.00   162.50000     Dy( 1.00)
        Bi            15.00   208.98040     Bi( 1.00)
        Cl             7.00    35.45000     Cl( 1.00)
        O              6.00    15.99900     O ( 1.00)

     16 Sym. Ops., with inversion, found

                                    s                        frac. trans.

      isym =  1     identity

 cryst.   s( 1) = (     1          0          0      )
                  (     0          1          0      )
                  (     0          0          1      )

 cart.    s( 1) = (  1.0000000  0.0000000  0.0000000 )
                  (  0.0000000  1.0000000  0.0000000 )
                  (  0.0000000  0.0000000  1.0000000 )

      isym =  2     180 deg rotation - cart. axis [0,0,1]

[...]

      isym =  8      90 deg rotation - cart. axis [0,0,1]

[...]

      isym =  9     inversion

 cryst.   s( 9) = (    -1          0          0      )
                  (     0         -1          0      )
                  (     0          0         -1      )

 cart.    s( 9) = ( -1.0000000  0.0000000  0.0000000 )
                  (  0.0000000 -1.0000000  0.0000000 )
                  (  0.0000000  0.0000000 -1.0000000 )

      isym = 10     inv. 180 deg rotation - cart. axis [0,0,1]

 cryst.   s(10) = (     1          0          0      )
                  (     0          1          0      )
                  (     0          0         -1      )

 cart.    s(10) = (  1.0000000  0.0000000  0.0000000 )
                  (  0.0000000  1.0000000  0.0000000 )
                  (  0.0000000  0.0000000 -1.0000000 )

[...]

      isym = 16     inv.  90 deg rotation - cart. axis [0,0,1]

 cryst.   s(16) = (     0         -1          0      )
                  (     1          0          0      )
                  (     0          0         -1      )

 cart.    s(16) = (  0.0000000  1.0000000  0.0000000 )
                  ( -1.0000000  0.0000000  0.0000000 )
                  (  0.0000000  0.0000000 -1.0000000 )

   Cartesian axes

     site n.     atom                  positions (alat units)
         1           Dy  tau(   1) = (   0.0000000   0.0000000   0.0000000  )
         2           Bi  tau(   2) = (   0.5000000   0.5000000   1.6836092  )
         3           Bi  tau(   3) = (   0.5000000   0.5000000   0.6451212  )
         4           Cl  tau(   4) = (   0.0000000   0.0000000   1.1643652  )
         5           O   tau(   5) = (   0.0000000   0.5000000   0.3555529  )
         6           O   tau(   6) = (   0.5000000   0.0000000   0.3555529  )
         7           O   tau(   7) = (   0.5000000   0.0000000   1.9731775  )
         8           O   tau(   8) = (   0.0000000   0.5000000   1.9731775  )

   Crystallographic axes

     site n.     atom                  positions (cryst. coord.)
         1           Dy  tau(   1) = (  0.0000000  0.0000000  0.0000000  )
         2           Bi  tau(   2) = (  0.5000000  0.5000000  0.7229730  )
         3           Bi  tau(   3) = (  0.5000000  0.5000000  0.2770270  )
         4           Cl  tau(   4) = (  0.0000000  0.0000000  0.5000000  )
         5           O   tau(   5) = (  0.0000000  0.5000000  0.1526810  )
         6           O   tau(   6) = (  0.5000000  0.0000000  0.1526810  )
         7           O   tau(   7) = (  0.5000000  0.0000000  0.8473190  )
         8           O   tau(   8) = (  0.0000000  0.5000000  0.8473190  )

     number of k points=     1  Methfessel-Paxton smearing, width (Ry)=  0.0010
                       cart. coord. in units 2pi/alat
        k(    1) = (   0.0000000   0.0000000   0.0000000), wk =   2.0000000

                       cryst. coord.
        k(    1) = (   0.0000000   0.0000000   0.0000000), wk =   2.0000000

     Check: negative core charge=   -0.000009

     Initial potential from superposition of free atoms

     starting charge      78.9961, renormalised to      81.0000

     negative rho (up, down):  1.045E-01 0.000E+00
     Starting wfcs are   70 randomized atomic wfcs
     Checking if some PAW data can be deallocated...

     Self-consistent Calculation

     iteration #  1     ecut=    30.00 Ry     beta= 0.70
     Davidson diagonalization with overlap

     ethr =  1.00E-02,  avg # of iterations =  3.0

     negative rho (up, down):  1.154E-01 0.000E+00

     total energy              =   -1262.85127217 Ry
     estimated scf accuracy    <      78.86758144 Ry

[...]

     c_bands:  1 eigenvalues not converged
     ethr =  1.00E-02,  avg # of iterations = 20.0

[...]

     total energy              =   -1347.37872576 Ry
     estimated scf accuracy    <       0.00007132 Ry

     iteration # 52     ecut=    30.00 Ry     beta= 0.70
     Davidson diagonalization with overlap

     ethr =  8.80E-08,  avg # of iterations =  1.0

[...]

     End of self-consistent calculation

          k = 0.0000 0.0000 0.0000 (  1319 PWs)   bands (ev):

   -34.1707 -13.2289 -13.2259 -13.1248 -13.1097 -13.0929 -13.0929 -13.0874
   -13.0874 -13.0215 -13.0211 -10.9600 -10.0902 -10.0901  -8.5963  -7.4663
    -6.5598  -6.2539  -4.7426   0.4912   0.6441   5.2596   5.2596   5.5096
     5.5096   6.9574   6.9589   7.1456   7.5108   7.5108   8.2847   8.2848
     8.4176   8.6122   8.6122   8.8498   9.7107  10.0084  10.0084  10.3220
    10.3278  10.3278  10.3278  10.4015  12.7962  14.4366  14.4367  15.0283
    15.0283

     occupation numbers
     1.0000   1.0000   1.0000   1.0000   1.0000   1.0000   1.0000   1.0000
     1.0000   1.0000   1.0000   1.0000   1.0000   1.0000   1.0000   1.0000
     1.0000   1.0000   1.0000   1.0000   1.0000   1.0000   1.0000   1.0000
     1.0000   1.0000   1.0000   1.0000   1.0000   1.0000   1.0000   1.0000
     1.0000   1.0000   1.0000   1.0000   1.0000   1.0000   1.0000   0.6390
     0.2873   0.2871   0.2866  -0.0000  -0.0000  -0.0000  -0.0000  -0.0000
    -0.0000

     the Fermi energy is    10.3243 ev

!    total energy              =   -1347.37872573 Ry
     estimated scf accuracy    <       0.00000009 Ry
     smearing contrib. (-TS)   =      -0.00094159 Ry
     internal energy E=F+TS    =   -1347.37778414 Ry

     The total energy is F=E-TS. E is the sum of the following terms:
     one-electron contribution =    -441.95103403 Ry
     hartree contribution      =     273.53767081 Ry
     xc contribution           =    -196.50315273 Ry
     ewald contribution        =    -463.84185910 Ry
     one-center paw contrib.   =    -518.61940909 Ry
      -> PAW hartree energy AE =     253.47011365 Ry
      -> PAW hartree energy PS =    -235.60878219 Ry
      -> PAW xc energy AE      =    -524.78273343 Ry
      -> PAW xc energy PS      =      26.41243070 Ry
      -> total E_H with PAW    =     291.39900226 Ry
      -> total E_XC with PAW   =    -694.87345545 Ry

     convergence has been achieved in  52 iterations

     negative rho (up, down):  1.012E-01 0.000E+00

     Forces acting on atoms (cartesian axes, Ry/au):

     atom    1 type  1   force =     0.00000000    0.00000000    0.00000000
     atom    2 type  2   force =     0.00000000    0.00000000    0.09580156
     atom    3 type  2   force =     0.00000000    0.00000000   -0.09580156
     atom    4 type  3   force =     0.00000000    0.00000000    0.00000000
     atom    5 type  4   force =     0.00000000    0.00000000    0.02508206
     atom    6 type  4   force =     0.00000000    0.00000000    0.02508206
     atom    7 type  4   force =     0.00000000    0.00000000   -0.02508206
     atom    8 type  4   force =     0.00000000    0.00000000   -0.02508206
     The non-local contrib.  to forces
     atom    1 type  1   force =     0.00000000    0.00000000    0.00000000
     atom    2 type  2   force =     0.00000000    0.00000000    0.09631488
     atom    3 type  2   force =     0.00000000    0.00000000   -0.09631488
     atom    4 type  3   force =     0.00000000    0.00000000    0.00000000
     atom    5 type  4   force =     0.00000000    0.00000000   -0.20331884
     atom    6 type  4   force =     0.00000000    0.00000000   -0.20331884
     atom    7 type  4   force =     0.00000000    0.00000000    0.20331884
     atom    8 type  4   force =     0.00000000    0.00000000    0.20331884
     The ionic contribution  to forces
     atom    1 type  1   force =    -0.00000000   -0.00000000    0.00000000
     atom    2 type  2   force =    -0.00000000   -0.00000000  -39.31407538
     atom    3 type  2   force =     0.00000000    0.00000000   39.31407538
     atom    4 type  3   force =     0.00000000    0.00000000   -0.00000000
     atom    5 type  4   force =    -0.00000000    0.00000000   10.98499658
     atom    6 type  4   force =     0.00000000   -0.00000000   10.98499658
     atom    7 type  4   force =     0.00000000   -0.00000000  -10.98499658
     atom    8 type  4   force =    -0.00000000    0.00000000  -10.98499658
     The local contribution  to forces
     atom    1 type  1   force =    -0.00000838   -0.00000556    0.00042543
     atom    2 type  2   force =     0.00000157    0.00000296   39.30393209
     atom    3 type  2   force =    -0.00000430   -0.00000367  -39.30469406
     atom    4 type  3   force =     0.00000023    0.00000119   -0.00014543
     atom    5 type  4   force =     0.00000616   -0.00001443  -10.76000004
     atom    6 type  4   force =    -0.00000372    0.00000650  -10.76010922
     atom    7 type  4   force =     0.00000905   -0.00001052   10.76055011
     atom    8 type  4   force =     0.00000139    0.00000884   10.76044401
     The core correction contribution to forces
     atom    1 type  1   force =    -0.00000000   -0.00000000   -0.00000000
     atom    2 type  2   force =     0.00000012    0.00000007    0.00939966
     atom    3 type  2   force =    -0.00000019   -0.00000014   -0.00941933
     atom    4 type  3   force =     0.00000001    0.00000003   -0.00000042
     atom    5 type  4   force =     0.00000004   -0.00000007    0.00373784
     atom    6 type  4   force =     0.00000002    0.00000003    0.00373691
     atom    7 type  4   force =     0.00000010   -0.00000012   -0.00373386
     atom    8 type  4   force =     0.00000002    0.00000002   -0.00373493
     The Hubbard contrib.    to forces
     atom    1 type  1   force =     0.00000000    0.00000000    0.00000000
     atom    2 type  2   force =     0.00000000    0.00000000    0.00000000
     atom    3 type  2   force =     0.00000000    0.00000000    0.00000000
     atom    4 type  3   force =     0.00000000    0.00000000    0.00000000
     atom    5 type  4   force =     0.00000000    0.00000000    0.00000000
     atom    6 type  4   force =     0.00000000    0.00000000    0.00000000
     atom    7 type  4   force =     0.00000000    0.00000000    0.00000000
     atom    8 type  4   force =     0.00000000    0.00000000    0.00000000
     The SCF correction term to forces
     atom    1 type  1   force =     0.00000516    0.00000303   -0.00055719
     atom    2 type  2   force =    -0.00000167   -0.00000225    0.00013911
     atom    3 type  2   force =     0.00000425    0.00000355    0.00046013
     atom    4 type  3   force =    -0.00000015   -0.00000034    0.00013777
     atom    5 type  4   force =    -0.00000450    0.00001017   -0.00021595
     atom    6 type  4   force =     0.00000393   -0.00000616   -0.00014374
     atom    7 type  4   force =    -0.00000347    0.00000449   -0.00009173
     atom    8 type  4   force =    -0.00000117   -0.00000777   -0.00004511

     Total force =     0.144473     Total SCF correction =     0.000799

     Computing stress (Cartesian axis) and pressure

     negative rho (up, down):  1.012E-01 0.000E+00
          total   stress  (Ry/bohr**3)                   (kbar)     P=     -110.92
  -0.00007312   0.00000000   0.00000000          -10.76        0.00        0.00
   0.00000000  -0.00007312   0.00000000            0.00      -10.76        0.00
   0.00000000   0.00000000  -0.00211574            0.00        0.00     -311.24

     kinetic stress (kbar)  13857.09      0.00      0.00
                                0.00  13857.09      0.00
                                0.00      0.00  13623.87

     local   stress (kbar) -31708.01     -0.10     -0.02
                               -0.10 -31707.48     -0.04
                               -0.02     -0.04  29622.07

     nonloc. stress (kbar)  13786.46      0.00      0.00
                                0.00  13786.46      0.00
                                0.00      0.00  13669.33

     hartree stress (kbar)  24194.16      0.03      0.01
                                0.03  24193.94      0.02
                                0.01      0.02  -5134.71

     exc-cor stress (kbar)   9637.21      0.00      0.00
                                0.00   9637.21      0.00
                                0.00      0.00   9632.41

     corecor stress (kbar) -15979.16     -0.00      0.00
                               -0.00 -15979.16      0.00
                                0.00      0.00 -15976.10

     ewald   stress (kbar) -13798.65     -0.00      0.00
                               -0.00 -13798.65      0.00
                                0.00      0.00 -45748.11

     hubbard stress (kbar)      0.00      0.00      0.00
                                0.00      0.00      0.00
                                0.00      0.00      0.00

     DFT-D   stress (kbar)      0.00      0.00      0.00
                                0.00      0.00      0.00
                                0.00      0.00      0.00

     XDM     stress (kbar)      0.00      0.00      0.00
                                0.00      0.00      0.00
                                0.00      0.00      0.00

     dft-nl  stress (kbar)      0.00      0.00      0.00
                                0.00      0.00      0.00
                                0.00      0.00      0.00

     TS-vdW  stress (kbar)      0.00      0.00      0.00
                                0.00      0.00      0.00
                                0.00      0.00      0.00

[...]

                                0.00      0.00      0.00

     Writing all to output data dir calculations/myprefix.save/

     General routines

     Parallel routines

     PAW routines

   This run was terminated on:  15: 6:23   3Mar2023

   JOB DONE.