     Program PWSCF v.7.0 starts on  3Mar2023 at 12: 6:53

     R & G space division:  proc/nbgrp/npool/nimage =      32

     Reading input from espresso_203.pwi
Warning: card &CELL ignored
Warning: card / ignored

     Current dimensions of program PWSCF are:
     Max number of different atomic species (ntypx) = 10
     Max number of k-points (npk) =  40000
     Max angular momentum in pseudopotentials (lmaxx) =  4
     file Al.pbe-n-kjpaw_psl.1.0.0.UPF: wavefunction(s)  3S 3P renormalized

     gamma-point specific algorithms are used
     Message from routine setup:
     using ibrav=0 with symmetry is DISCOURAGED, use correct ibrav instead

     Using Slab Decomposition

     bravais-lattice index     =            0
     lattice parameter (alat)  =       5.2997  a.u.
     unit-cell volume          =     340.0611 (a.u.)^3
     number of atoms/cell      =            4
     number of atomic types    =            3
     number of electrons       =        39.00
     number of Kohn-Sham states=           24
     kinetic-energy cutoff     =      30.0000  Ry
     charge density cutoff     =     240.0000  Ry
     scf convergence threshold =      1.0E-06
     mixing beta               =       0.7000
     number of iterations used =            8  plain     mixing
     Exchange-correlation=  SLA  PW   PBX  PBC
                           (   1   4   3   4   0   0   0)

     celldm(1)=   5.299727  celldm(2)=   0.000000  celldm(3)=   0.000000
     celldm(4)=   0.000000  celldm(5)=   0.000000  celldm(6)=   0.000000

     crystal axes: (cart. coord. in units of alat)
               a(1) = (   1.000000   0.000000   0.000000 )
               a(2) = (   0.000000   1.000000   0.000000 )
               a(3) = (   0.000000   0.000000   2.284527 )

     reciprocal axes: (cart. coord. in units 2 pi/alat)
               b(1) = (  1.000000  0.000000  0.000000 )
               b(2) = (  0.000000  1.000000  0.000000 )
               b(3) = (  0.000000  0.000000  0.437727 )

     PseudoPot. # 1 for Mn read from file:
     /home/pragov/projects/rrg-bengioy-ad/pragov/crystal_structure_design/SSSP/mn_pbe_v1.5.uspp.F.UPF
     MD5 check sum: 82ef2b46521d7a7d9e736dc3972e4928
     Pseudo is Ultrasoft + core correction, Zval = 15.0
     Generated by new atomic code, or converted to UPF format
     Using radial grid of  859 points,  6 beta functions with:
                l(1) =   0
                l(2) =   0
                l(3) =   1
                l(4) =   1
                l(5) =   2
                l(6) =   2
     Q(r) pseudized with  8 coefficients,  rinner =    0.950   0.950   0.950
                                                       0.950   0.950

     PseudoPot. # 2 for Al read from file:
     /home/pragov/projects/rrg-bengioy-ad/pragov/crystal_structure_design/SSSP/Al.pbe-n-kjpaw_psl.1.0.0.UPF
     MD5 check sum: cfc449ca30b5f3223ec38ddd88ac046d
     Pseudo is Projector augmented-wave + core cor, Zval =  3.0
     Generated using "atomic" code by A. Dal Corso  v.5.1
     Shape of augmentation charge: PSQ
     Using radial grid of 1135 points,  6 beta functions with:
                l(1) =   0
                l(2) =   0
                l(3) =   1
                l(4) =   1
                l(5) =   2
                l(6) =   2
     Q(r) pseudized with 0 coefficients

     PseudoPot. # 3 for Ni read from file:
     /home/pragov/projects/rrg-bengioy-ad/pragov/crystal_structure_design/SSSP/ni_pbe_v1.4.uspp.F.UPF
     MD5 check sum: 1ee80287db30b12d2bc1f57a5b5d6409
     Pseudo is Ultrasoft + core correction, Zval = 18.0
     Generated by new atomic code, or converted to UPF format
     Using radial grid of  865 points,  6 beta functions with:
                l(1) =   0
                l(2) =   0
                l(3) =   1
                l(4) =   1
                l(5) =   2
                l(6) =   2
     Q(r) pseudized with 10 coefficients,  rinner =    0.980   0.980   0.980
                                                       0.980   0.980

     atomic species   valence    mass     pseudopotential
        Mn            15.00    54.93804     Mn( 1.00)
        Al             3.00    26.98154     Al( 1.00)
        Ni            18.00    58.69340     Ni( 1.00)

     16 Sym. Ops., with inversion, found

                                    s                        frac. trans.

      isym =  1     identity

 cryst.   s( 1) = (     1          0          0      )
                  (     0          1          0      )
                  (     0          0          1      )

 cart.    s( 1) = (  1.0000000  0.0000000  0.0000000 )
                  (  0.0000000  1.0000000  0.0000000 )
                  (  0.0000000  0.0000000  1.0000000 )

      isym =  2     180 deg rotation - cart. axis [0,0,1]

[...]

      isym =  8      90 deg rotation - cart. axis [0,0,1]

[...]

      isym =  9     inversion

 cryst.   s( 9) = (    -1          0          0      )
                  (     0         -1          0      )
                  (     0          0         -1      )

 cart.    s( 9) = ( -1.0000000  0.0000000  0.0000000 )
                  (  0.0000000 -1.0000000  0.0000000 )
                  (  0.0000000  0.0000000 -1.0000000 )

      isym = 10     inv. 180 deg rotation - cart. axis [0,0,1]

 cryst.   s(10) = (     1          0          0      )
                  (     0          1          0      )
                  (     0          0         -1      )

 cart.    s(10) = (  1.0000000  0.0000000  0.0000000 )
                  (  0.0000000  1.0000000  0.0000000 )
                  (  0.0000000  0.0000000 -1.0000000 )

[...]

      isym = 16     inv.  90 deg rotation - cart. axis [0,0,1]

 cryst.   s(16) = (     0         -1          0      )
                  (     1          0          0      )
                  (     0          0         -1      )

 cart.    s(16) = (  0.0000000  1.0000000  0.0000000 )
                  ( -1.0000000  0.0000000  0.0000000 )
                  (  0.0000000  0.0000000 -1.0000000 )

   Cartesian axes

     site n.     atom                  positions (alat units)
         1           Mn  tau(   1) = (   0.5000000   0.5000000   0.0000000  )
         2           Al  tau(   2) = (   0.0000000   0.0000000   1.6812703  )
         3           Al  tau(   3) = (   0.0000000   0.0000000   0.6032568  )
         4           Ni  tau(   4) = (   0.5000000   0.5000000   1.1422636  )

   Crystallographic axes

     site n.     atom                  positions (cryst. coord.)
         1           Mn  tau(   1) = (  0.5000000  0.5000000  0.0000000  )
         2           Al  tau(   2) = (  0.0000000  0.0000000  0.7359380  )
         3           Al  tau(   3) = (  0.0000000  0.0000000  0.2640620  )
         4           Ni  tau(   4) = (  0.5000000  0.5000000  0.5000000  )

     number of k points=     1  Methfessel-Paxton smearing, width (Ry)=  0.0010
                       cart. coord. in units 2pi/alat
        k(    1) = (   0.0000000   0.0000000   0.0000000), wk =   2.0000000

                       cryst. coord.
        k(    1) = (   0.0000000   0.0000000   0.0000000), wk =   2.0000000

     Check: negative core charge=   -0.000014

     Initial potential from superposition of free atoms

     starting charge      36.4953, renormalised to      39.0000
     Starting wfcs are   34 randomized atomic wfcs
     Checking if some PAW data can be deallocated...

     Self-consistent Calculation

     iteration #  1     ecut=    30.00 Ry     beta= 0.70
     Davidson diagonalization with overlap

     ethr =  1.00E-02,  avg # of iterations =  5.0

     total energy              =    -604.63482296 Ry
     estimated scf accuracy    <      41.95391425 Ry

[...]

     total energy              =    -633.83842721 Ry
     estimated scf accuracy    <       0.00005381 Ry

     iteration # 35     ecut=    30.00 Ry     beta= 0.70
     Davidson diagonalization with overlap

     ethr =  2.50E-08,  avg # of iterations =  1.0

     End of self-consistent calculation

          k = 0.0000 0.0000 0.0000 (   485 PWs)   bands (ev):

   -87.0215 -62.7008 -47.5412 -47.4131 -47.4130 -31.9045 -31.9044 -30.6979
     2.4917   5.4842   7.0707  12.1464  12.3372  13.0533  13.8826  13.8826
    14.7372  15.4446  15.5832  15.5833  15.8336  15.9951  20.0592  20.0592

     occupation numbers
     1.0000   1.0000   1.0000   1.0000   1.0000   1.0000   1.0000   1.0000
     1.0000   1.0000   1.0000   1.0000   1.0000   1.0000   1.0000   1.0000
     1.0000   1.0000   0.7510   0.7490  -0.0000  -0.0000  -0.0000  -0.0000

     the Fermi energy is    15.5875 ev

!    total energy              =    -633.83842814 Ry
     estimated scf accuracy    <       0.00000044 Ry
     smearing contrib. (-TS)   =      -0.00041261 Ry
     internal energy E=F+TS    =    -633.83801553 Ry

     The total energy is F=E-TS. E is the sum of the following terms:
     one-electron contribution =    -406.79635254 Ry
     hartree contribution      =     225.36472269 Ry
     xc contribution           =     -67.93886563 Ry
     ewald contribution        =    -315.15538718 Ry
     one-center paw contrib.   =     -69.31213288 Ry
      -> PAW hartree energy AE =       0.00000000 Ry
      -> PAW hartree energy PS =       0.00000000 Ry
      -> PAW xc energy AE      =       0.00000000 Ry
      -> PAW xc energy PS      =       0.00000000 Ry
      -> total E_H with PAW    =     225.36472269 Ry
      -> total E_XC with PAW   =     -67.93886563 Ry

     convergence has been achieved in  35 iterations

     Forces acting on atoms (cartesian axes, Ry/au):

     atom    1 type  1   force =     0.00000000    0.00000000    0.00000000
     atom    2 type  2   force =     0.00000000    0.00000000    0.00527100
     atom    3 type  2   force =     0.00000000    0.00000000   -0.00527100
     atom    4 type  3   force =     0.00000000    0.00000000    0.00000000
     The non-local contrib.  to forces
     atom    1 type  1   force =     0.00000000    0.00000000    0.00000000
     atom    2 type  2   force =     0.00000000    0.00000000   -0.01007138
     atom    3 type  2   force =     0.00000000    0.00000000    0.01007138
     atom    4 type  3   force =     0.00000000    0.00000000    0.00000000
     The ionic contribution  to forces
     atom    1 type  1   force =     0.00000000    0.00000000   -0.00000000
     atom    2 type  2   force =    -0.00000000   -0.00000000    2.48031809
     atom    3 type  2   force =    -0.00000000   -0.00000000   -2.48031809
     atom    4 type  3   force =     0.00000000    0.00000000   -0.00000000
     The local contribution  to forces
     atom    1 type  1   force =    -0.00001774    0.00005305   -0.00008737
     atom    2 type  2   force =    -0.00000876    0.00000921   -2.46554335
     atom    3 type  2   force =     0.00000854   -0.00001302    2.46554196
     atom    4 type  3   force =     0.00000832    0.00002392    0.00011212
     The core correction contribution to forces
     atom    1 type  1   force =    -0.00000037    0.00000024    0.00000213
     atom    2 type  2   force =    -0.00000034    0.00000014    0.00068043
     atom    3 type  2   force =     0.00000019   -0.00000044   -0.00068066
     atom    4 type  3   force =     0.00000014   -0.00000003   -0.00000124
     The Hubbard contrib.    to forces
     atom    1 type  1   force =     0.00000000    0.00000000    0.00000000
     atom    2 type  2   force =     0.00000000    0.00000000    0.00000000
     atom    3 type  2   force =     0.00000000    0.00000000    0.00000000
     atom    4 type  3   force =     0.00000000    0.00000000    0.00000000
     The SCF correction term to forces
     atom    1 type  1   force =     0.00002595   -0.00005401    0.00020370
     atom    2 type  2   force =     0.00000172   -0.00000202   -0.00011563
     atom    3 type  2   force =    -0.00000203    0.00000302    0.00011156
     atom    4 type  3   force =    -0.00003219   -0.00004583   -0.00023793

     Total force =     0.007454     Total SCF correction =     0.000361

     Computing stress (Cartesian axis) and pressure

          total   stress  (Ry/bohr**3)                   (kbar)     P=     -555.60
  -0.00564873   0.00000000   0.00000000         -830.96        0.00        0.00
   0.00000000  -0.00564873   0.00000000            0.00     -830.96        0.00
   0.00000000   0.00000000  -0.00003322            0.00        0.00       -4.89

     kinetic stress (kbar)  26879.60      0.00      0.00
                                0.00  26879.60      0.00
                                0.00      0.00  28429.83

     local   stress (kbar) -27552.60     -3.85      0.38
                               -3.85 -27548.80     -0.47
                                0.38     -0.47  -1540.86

     nonloc. stress (kbar)  12700.18      0.00      0.00
                                0.00  12700.18      0.00
                                0.00      0.00  13352.71

     hartree stress (kbar)  36893.85      1.17     -0.11
                                1.17  36892.37      0.14
                               -0.11      0.14  23703.01

     exc-cor stress (kbar)  -5868.76      0.02     -0.00
                                0.02  -5868.78      0.00
                               -0.00      0.00  -5857.06

     corecor stress (kbar)  -3171.10     -0.03      0.00
                               -0.03  -3171.07     -0.00
                                0.00     -0.00  -3187.84

     ewald   stress (kbar) -40713.29     -0.00      0.00
                               -0.00 -40713.29      0.00
                                0.00      0.00 -54904.68

     hubbard stress (kbar)      0.00      0.00      0.00
                                0.00      0.00      0.00
                                0.00      0.00      0.00

     DFT-D   stress (kbar)      0.00      0.00      0.00
                                0.00      0.00      0.00
                                0.00      0.00      0.00

     XDM     stress (kbar)      0.00      0.00      0.00
                                0.00      0.00      0.00
                                0.00      0.00      0.00

     dft-nl  stress (kbar)      0.00      0.00      0.00
                                0.00      0.00      0.00
                                0.00      0.00      0.00

     TS-vdW  stress (kbar)      0.00      0.00      0.00
                                0.00      0.00      0.00
                                0.00      0.00      0.00

[...]

                                0.00      0.00      0.00

     Writing all to output data dir calculations/myprefix.save/

     General routines

     Parallel routines

     PAW routines

   This run was terminated on:  12: 6:56   3Mar2023

   JOB DONE.