     Program PWSCF v.7.0 starts on  3Mar2023 at 11:12: 8

     R & G space division:  proc/nbgrp/npool/nimage =      32

     Reading input from espresso_54.pwi
Warning: card &CELL ignored
Warning: card / ignored

     Current dimensions of program PWSCF are:
     Max number of different atomic species (ntypx) = 10
     Max number of k-points (npk) =  40000
     Max angular momentum in pseudopotentials (lmaxx) =  4
     file O.pbe-n-kjpaw_psl.0.1.UPF: wavefunction(s)  2P renormalized

     gamma-point specific algorithms are used

     Using Slab Decomposition

     bravais-lattice index     =            0
     lattice parameter (alat)  =       9.8121  a.u.
     unit-cell volume          =    1532.3518 (a.u.)^3
     number of atoms/cell      =           20
     number of atomic types    =            3
     number of electrons       =       196.00
     number of Kohn-Sham states=          118
     kinetic-energy cutoff     =      30.0000  Ry
     charge density cutoff     =     240.0000  Ry
     scf convergence threshold =      1.0E-06
     mixing beta               =       0.7000
     number of iterations used =            8  plain     mixing
     Exchange-correlation= SLA  PW   PBX  PBC
                           (   1   4   3   4   0   0   0)

     celldm(1)=   9.812067  celldm(2)=   0.000000  celldm(3)=   0.000000
     celldm(4)=   0.000000  celldm(5)=   0.000000  celldm(6)=   0.000000

     crystal axes: (cart. coord. in units of alat)
               a(1) = (   1.000000   0.000000   0.000000 )
               a(2) = (   0.193125   1.274422   0.000000 )
               a(3) = (   0.187155   0.070675   1.272810 )

     reciprocal axes: (cart. coord. in units 2 pi/alat)
               b(1) = (  1.000000 -0.151539 -0.138627 )
               b(2) = (  0.000000  0.784669 -0.043570 )
               b(3) = (  0.000000  0.000000  0.785663 )

     PseudoPot. # 1 for Co read from file:
     /home/pragov/projects/rrg-bengioy-ad/pragov/crystal_structure_design/SSSP/Co_pbe_v1.2.uspp.F.UPF
     MD5 check sum: 5f91765df6ddd3222702df6e7b74a16d
     Pseudo is Ultrasoft + core correction, Zval = 17.0
     Generated by new atomic code, or converted to UPF format
     Using radial grid of  863 points,  6 beta functions with:
                l(1) =   0
                l(2) =   0
                l(3) =   1
                l(4) =   1
                l(5) =   2
                l(6) =   2
     Q(r) pseudized with  8 coefficients,  rinner =    1.200   1.200   1.200
                                                       1.200   1.200

     PseudoPot. # 2 for Ge read from file:
     /home/pragov/projects/rrg-bengioy-ad/pragov/crystal_structure_design/SSSP/ge_pbe_v1.4.uspp.F.UPF
     MD5 check sum: 9c9eaa91e581c3f09632fb3098b2c6b2
     Pseudo is Ultrasoft + core correction, Zval = 14.0
     Generated by new atomic code, or converted to UPF format
     Using radial grid of  873 points,  6 beta functions with:
                l(1) =   0
                l(2) =   0
                l(3) =   1
                l(4) =   1
                l(5) =   2
                l(6) =   2
     Q(r) pseudized with  8 coefficients,  rinner =    1.400   1.400   1.400
                                                       1.400   1.400

     PseudoPot. # 3 for O  read from file:
     /home/pragov/projects/rrg-bengioy-ad/pragov/crystal_structure_design/SSSP/O.pbe-n-kjpaw_psl.0.1.UPF
     MD5 check sum: 0234752ac141de4415c5fc33072bef88
     Pseudo is Projector augmented-wave + core cor, Zval =  6.0
     Generated using "atomic" code by A. Dal Corso  v.5.0.99 svn rev. 10869
     Shape of augmentation charge: BESSEL
     Using radial grid of 1095 points,  4 beta functions with:
                l(1) =   0
                l(2) =   0
                l(3) =   1
                l(4) =   1
     Q(r) pseudized with 0 coefficients

     atomic species   valence    mass     pseudopotential
        Co            17.00    58.93319     Co( 1.00)
        Ge            14.00    72.63000     Ge( 1.00)
        O              6.00    15.99900     O ( 1.00)

     No symmetry found

                                    s                        frac. trans.

      isym =  1     identity

 cryst.   s( 1) = (     1          0          0      )
                  (     0          1          0      )
                  (     0          0          1      )

 cart.    s( 1) = (  1.0000000  0.0000000 -0.0000000 )
                  (  0.0000000  1.0000000 -0.0000000 )
                  (  0.0000000  0.0000000  1.0000000 )

   Cartesian axes

     site n.     atom                  positions (alat units)
         1           Co  tau(   1) = (   0.4367038   0.1891590   1.1452834  )
         2           Co  tau(   2) = (   0.9396373   0.3863972   0.9383474  )
         3           Co  tau(   3) = (   0.9446819   1.1657968   0.1209997  )
         4           Co  tau(   4) = (   0.4419436   0.9529863   0.3403723  )
         5           Ge  tau(   5) = (   0.9818391   1.0525362   0.7694442  )
         6           Ge  tau(   6) = (   0.4809575   0.8292450   1.0114957  )
         7           Ge  tau(   7) = (   0.8980558   0.5188933   0.2637733  )
         8           Ge  tau(   8) = (   0.3988867   0.2899322   0.5006153  )
         9           O   tau(   9) = (   0.6514917   0.9429492   0.7261216  )
        10           O   tau(  10) = (   0.2284104   0.5677008   0.3707899  )
        11           O   tau(  11) = (   1.1227893   1.1242627   0.4706762  )
        12           O   tau(  12) = (   0.9720823   1.2958358   1.0099009  )
        13           O   tau(  13) = (   0.4691233   1.0836493   1.2398684  )
        14           O   tau(  14) = (   0.7276760   0.4013688   0.5474330  )
        15           O   tau(  15) = (   1.1522220   0.7759896   0.9020201  )
        16           O   tau(  16) = (   0.7586722   0.8126213   0.1759698  )
        17           O   tau(  17) = (   0.6196580   0.5351009   1.1002297  )
        18           O   tau(  18) = (   0.4108700   0.0467874   0.2602158  )
        19           O   tau(  19) = (   0.9083829   0.2628323   0.0356310  )
        20           O   tau(  20) = (   0.2587204   0.2169320   0.7989136  )

   Crystallographic axes

     site n.     atom                  positions (cryst. coord.)
         1           Co  tau(   1) = (  0.2492720  0.0985270  0.8998070  )
         2           Co  tau(   2) = (  0.7510030  0.2623100  0.7372250  )
         3           Co  tau(   3) = (  0.7512440  0.9094930  0.0950650  )
         4           Co  tau(   4) = (  0.2503440  0.7329490  0.2674180  )
         5           Ge  tau(   5) = (  0.7156730  0.7923680  0.6045240  )
         6           Ge  tau(   6) = (  0.2150740  0.6066120  0.7946950  )
         7           Ge  tau(   7) = (  0.7828570  0.3956670  0.2072370  )
         8           Ge  tau(   8) = (  0.2855520  0.2056890  0.3933150  )
         9           O   tau(   9) = (  0.4079380  0.7082660  0.5704870  )
        10           O   tau(  10) = (  0.0909800  0.4293020  0.2913160  )
        11           O   tau(  11) = (  0.8871710  0.8616670  0.3697930  )
        12           O   tau(  12) = (  0.6357130  0.9728010  0.7934420  )
        13           O   tau(  13) = (  0.1330290  0.7962850  0.9741190  )
        14           O   tau(  14) = (  0.5909640  0.2910900  0.4300980  )
        15           O   tau(  15) = (  0.9095850  0.5695940  0.7086840  )
        16           O   tau(  16) = (  0.6111340  0.6299720  0.1382530  )
        17           O   tau(  17) = (  0.3860480  0.3719400  0.8644100  )
        18           O   tau(  18) = (  0.3677070  0.0253750  0.2044420  )
        19           O   tau(  19) = (  0.8636140  0.2046840  0.0279940  )
        20           O   tau(  20) = (  0.1150960  0.1354110  0.6276770  )

     number of k points=     1  Methfessel-Paxton smearing, width (Ry)=  0.0010
                       cart. coord. in units 2pi/alat
        k(    1) = (   0.0000000   0.0000000   0.0000000), wk =   2.0000000

                       cryst. coord.
        k(    1) = (   0.0000000   0.0000000   0.0000000), wk =   2.0000000

     Check: negative core charge=   -0.000018

     Initial potential from superposition of free atoms

     starting charge     191.9965, renormalised to     196.0000
     Starting wfcs are  136 randomized atomic wfcs
     Checking if some PAW data can be deallocated...

     Self-consistent Calculation

     iteration #  1     ecut=    30.00 Ry     beta= 0.70
     Davidson diagonalization with overlap

     ethr =  1.00E-02,  avg # of iterations =  3.0

     total energy              =   -2518.20684358 Ry
     estimated scf accuracy    <      36.39815622 Ry

[...]

     total energy              =   -2547.32648325 Ry
     estimated scf accuracy    <       0.00000158 Ry

     iteration # 63     ecut=    30.00 Ry     beta= 0.70
     Davidson diagonalization with overlap

     ethr =  5.25E-10,  avg # of iterations =  1.0

     End of self-consistent calculation

          k = 0.0000 0.0000 0.0000 (  2116 PWs)   bands (ev):

   -85.1003 -85.0656 -85.0132 -84.9966 -48.5299 -48.5249 -48.4594 -48.4420
   -48.4209 -48.4120 -48.1915 -48.1702 -48.1626 -48.1477 -48.1426 -48.1188
   -16.2418 -16.2359 -16.1886 -16.1822 -16.1293 -16.1137 -16.1017 -16.0980
   -16.0816 -16.0760 -16.0190 -16.0139 -15.9324 -15.9190 -15.9092 -15.9039
   -15.8982 -15.8964 -15.8783 -15.8730 -11.6302 -11.1634  -9.9579  -9.8584
    -9.8003  -9.7251  -9.6494  -9.5589  -9.5019  -9.2848  -9.2392  -9.1352
    -0.5278  -0.4248   0.4927   1.2105   2.4015   2.5722   2.7573   2.9853
     3.0378   3.2998   3.3182   3.4881   3.7627   3.8988   3.9548   4.1222
     4.6919   4.7532   4.9072   5.0049   5.1192   5.1255   5.1952   5.2196
     5.3085   5.4843   5.5300   5.8237   5.9531   6.2100   6.3323   6.4872
     6.6257   6.6595   6.7022   7.1577   8.8149   8.8255   8.8410   8.9280
     9.0166   9.0400   9.1743   9.2148   9.2390   9.2674   9.3198   9.3684
     9.6506  10.0023  10.0152  10.0165  10.2706  10.3200  10.3290  10.5354
    10.6455  12.6319  13.7854  14.4504  14.7178  15.1783  15.5163  15.6647
    15.7483  15.7959  16.1217  16.5872  17.0953  17.1117

     occupation numbers
     1.0000   1.0000   1.0000   1.0000   1.0000   1.0000   1.0000   1.0000
     1.0000   1.0000   1.0000   1.0000   1.0000   1.0000   1.0000   1.0000
     1.0000   1.0000   1.0000   1.0000   1.0000   1.0000   1.0000   1.0000
     1.0000   1.0000   1.0000   1.0000   1.0000   1.0000   1.0000   1.0000
     1.0000   1.0000   1.0000   1.0000   1.0000   1.0000   1.0000   1.0000
     1.0000   1.0000   1.0000   1.0000   1.0000   1.0000   1.0000   1.0000
     1.0000   1.0000   1.0000   1.0000   1.0000   1.0000   1.0000   1.0000
     1.0000   1.0000   1.0000   1.0000   1.0000   1.0000   1.0000   1.0000
     1.0000   1.0000   1.0000   1.0000   1.0000   1.0000   1.0000   1.0000
     1.0000   1.0000   1.0000   1.0000   1.0000   1.0000   1.0000   1.0000
     1.0000   1.0000   1.0000   1.0000   1.0000   1.0000   1.0000   1.0000
     1.0000   1.0000   1.0000   1.0000   1.0000   1.0000   1.0000   1.0000
     1.0000   0.8200   0.1122   0.0678  -0.0000  -0.0000  -0.0000  -0.0000
    -0.0000  -0.0000  -0.0000  -0.0000  -0.0000  -0.0000  -0.0000  -0.0000
    -0.0000  -0.0000  -0.0000  -0.0000  -0.0000  -0.0000

     the Fermi energy is    10.0080 ev

!    total energy              =   -2547.32648261 Ry
     estimated scf accuracy    <       0.00000074 Ry
     smearing contrib. (-TS)   =      -0.00028736 Ry
     internal energy E=F+TS    =   -2547.32619526 Ry

     The total energy is F=E-TS. E is the sum of the following terms:
     one-electron contribution =   -1495.96902411 Ry
     hartree contribution      =     879.92828256 Ry
     xc contribution           =    -452.96739703 Ry
     ewald contribution        =   -1364.00667070 Ry
     one-center paw contrib.   =    -114.31138597 Ry
      -> PAW hartree energy AE =       0.00000000 Ry
      -> PAW hartree energy PS =       0.00000000 Ry
      -> PAW xc energy AE      =       0.00000000 Ry
      -> PAW xc energy PS      =       0.00000000 Ry
      -> total E_H with PAW    =     879.92828256 Ry
      -> total E_XC with PAW   =    -452.96739703 Ry

     convergence has been achieved in  63 iterations

     Forces acting on atoms (cartesian axes, Ry/au):

     atom    1 type  1   force =     0.00432513   -0.01095543    0.01591581
     atom    2 type  1   force =    -0.00198340    0.00072353   -0.00124477
     atom    3 type  1   force =    -0.00670601   -0.00856594   -0.00213350
     atom    4 type  1   force =    -0.00160571    0.01206671   -0.01058506
     atom    5 type  2   force =    -0.00087838   -0.02414650   -0.01151199
     atom    6 type  2   force =    -0.00390857   -0.00820291   -0.02430120
     atom    7 type  2   force =     0.00139186    0.01021555    0.02370445
     atom    8 type  2   force =     0.00369161    0.02465386    0.00734146
     atom    9 type  3   force =    -0.00247863    0.01308309   -0.03737786
     atom   10 type  3   force =     0.00321547    0.03557244   -0.01517867
     atom   11 type  3   force =     0.01042589   -0.01109493   -0.05712294
     atom   12 type  3   force =    -0.00781883    0.06856749    0.05599740
     atom   13 type  3   force =    -0.00312135    0.05548378    0.05775673
     atom   14 type  3   force =     0.00134535   -0.01407981    0.03784015
     atom   15 type  3   force =    -0.00186214   -0.03661442    0.01629701
     atom   16 type  3   force =    -0.00573874    0.06455154    0.00681106
     atom   17 type  3   force =     0.01373577   -0.06473407   -0.01001431
     atom   18 type  3   force =     0.00408720   -0.06139583   -0.05044413
     atom   19 type  3   force =     0.00922895   -0.05861737   -0.06227680
     atom   20 type  3   force =    -0.01534545    0.01348922    0.06052718
     The non-local contrib.  to forces
     atom    1 type  1   force =    -0.00286712   -0.03436129    0.04323769
     atom    2 type  1   force =     0.00813293    0.17505352   -0.17921846
     atom    3 type  1   force =    -0.00070764    0.04904775   -0.04873576
     atom    4 type  1   force =    -0.00888771   -0.18353795    0.19958799
     atom    5 type  2   force =    -0.12687903   -0.12209266    0.04769530
     atom    6 type  2   force =    -0.10600137    0.06110468   -0.12011143
     atom    7 type  2   force =     0.13611970   -0.07056883    0.12088189
     atom    8 type  2   force =     0.10078031    0.11068590   -0.05398888
     atom    9 type  3   force =     0.44893333    0.03963552    0.88630938
     atom   10 type  3   force =    -0.44723947   -0.89751410    0.01681921
     atom   11 type  3   force =    -0.47813496   -0.58209886    0.57057299
     atom   12 type  3   force =    -0.05378472   -0.50511907   -0.60197298
     atom   13 type  3   force =    -0.10810747   -0.64905995   -0.50495309
     atom   14 type  3   force =    -0.46658654   -0.04571096   -0.91174941
     atom   15 type  3   force =     0.45679352    0.91344854   -0.00479462
     atom   16 type  3   force =     0.45010736   -0.58813624    0.64564782
     atom   17 type  3   force =    -0.48831117    0.53849794   -0.66134577
     atom   18 type  3   force =     0.11136458    0.55079321    0.62999575
     atom   19 type  3   force =     0.04631515    0.60440958    0.46483076
     atom   20 type  3   force =     0.50151489    0.63337148   -0.54399167
     The ionic contribution  to forces
     atom    1 type  1   force =     0.40726915    2.06338109   -2.00283629
     atom    2 type  1   force =    -0.16863932   11.24636785  -11.71765584
     atom    3 type  1   force =    -0.46763089   -3.52443907    3.01552282
     atom    4 type  1   force =    -0.04354977  -10.13047312   10.52169485
     atom    5 type  2   force =     0.08866425   -2.33671817   -2.23310027
     atom    6 type  2   force =     0.27504283   -2.33434705   -1.78040296
     atom    7 type  2   force =     0.07334227    2.68092565    1.92988411
     atom    8 type  2   force =    -0.40451865    2.15981861    2.20091029
     atom    9 type  3   force =    -2.16411475   -1.04430418   -4.39299783
     atom   10 type  3   force =     2.16637838    4.62877089    0.66991180
     atom   11 type  3   force =     1.06227044    4.51644520    2.67037829
     atom   12 type  3   force =     0.36523567   -2.28762577   -2.05841522
     atom   13 type  3   force =     0.83451467   -2.25192755   -1.60220914
     atom   14 type  3   force =     2.41200936    1.04157963    4.77524450
     atom   15 type  3   force =    -2.38226697   -4.78921193   -0.65020799
     atom   16 type  3   force =    -0.75694215   -2.36340222   -4.79069158
     atom   17 type  3   force =     1.33254227    3.02468928    4.51481228
     atom   18 type  3   force =    -1.02768855    1.67347473    1.89219693
     atom   19 type  3   force =    -0.20119327    2.64434958    2.08156544
     atom   20 type  3   force =    -1.40072497   -4.61735345   -3.04360420
     The local contribution  to forces
     atom    1 type  1   force =    -0.40004999   -2.03826012    1.97359799
     atom    2 type  1   force =     0.15855435  -11.41926572   11.89417452
     atom    3 type  1   force =     0.46167716    3.46769298   -2.96897105
     atom    4 type  1   force =     0.05083905   10.32413603  -10.72967853
     atom    5 type  2   force =     0.03382035    2.43040434    2.17565862
     atom    6 type  2   force =    -0.17584874    2.26647291    1.87162900
     atom    7 type  2   force =    -0.20404483   -2.60296318   -2.02275652
     atom    8 type  2   force =     0.31032115   -2.24146919   -2.14084047
     atom    9 type  3   force =     1.71732257    1.01823283    3.47837525
     atom   10 type  3   force =    -1.72055340   -3.70484330   -0.70183168
     atom   11 type  3   force =    -0.57905240   -3.95123472   -3.29263865
     atom   12 type  3   force =    -0.31990252    2.85682470    2.71041285
     atom   13 type  3   force =    -0.73079146    2.95032474    2.15937158
     atom   14 type  3   force =    -1.94868731   -1.01071508   -3.83419846
     atom   15 type  3   force =     1.92805262    3.84773641    0.67150442
     atom   16 type  3   force =     0.30595641    3.01045431    4.15827633
     atom   17 type  3   force =    -0.83553730   -3.62357939   -3.87068779
     atom   18 type  3   force =     0.92175064   -2.27964342   -2.56662073
     atom   19 type  3   force =     0.16477340   -3.30133625   -2.60460172
     atom   20 type  3   force =     0.88895501    4.00442466    3.64361870
     The core correction contribution to forces
     atom    1 type  1   force =     0.00003987   -0.00108420    0.00135028
     atom    2 type  1   force =    -0.00009881   -0.00166218    0.00170783
     atom    3 type  1   force =    -0.00013188   -0.00004625   -0.00073101
     atom    4 type  1   force =    -0.00001879    0.00207461   -0.00227493
     atom    5 type  2   force =     0.00358654    0.00461767   -0.00120014
     atom    6 type  2   force =     0.00300384   -0.00198688    0.00462946
     atom    7 type  2   force =    -0.00393313    0.00220753   -0.00446936
     atom    8 type  2   force =    -0.00284053   -0.00436297    0.00170299
     atom    9 type  3   force =    -0.00449436   -0.00052534   -0.00867719
     atom   10 type  3   force =     0.00447795    0.00878643   -0.00004379
     atom   11 type  3   force =     0.00504542    0.00610535   -0.00523952
     atom   12 type  3   force =     0.00064405    0.00503964    0.00597913
     atom   13 type  3   force =     0.00128613    0.00648936    0.00504466
     atom   14 type  3   force =     0.00470471    0.00061272    0.00893185
     atom   15 type  3   force =    -0.00460608   -0.00894708   -0.00010366
     atom   16 type  3   force =    -0.00472469    0.00538055   -0.00673321
     atom   17 type  3   force =     0.00510722   -0.00486434    0.00698849
     atom   18 type  3   force =    -0.00129670   -0.00554365   -0.00631126
     atom   19 type  3   force =    -0.00057409   -0.00601208   -0.00462928
     atom   20 type  3   force =    -0.00527195   -0.00674761    0.00494100
     The Hubbard contrib.    to forces
     atom    1 type  1   force =     0.00000000    0.00000000    0.00000000
     atom    2 type  1   force =     0.00000000    0.00000000    0.00000000
     atom    3 type  1   force =     0.00000000    0.00000000    0.00000000
     atom    4 type  1   force =     0.00000000    0.00000000    0.00000000
     atom    5 type  2   force =     0.00000000    0.00000000    0.00000000
     atom    6 type  2   force =     0.00000000    0.00000000    0.00000000
     atom    7 type  2   force =     0.00000000    0.00000000    0.00000000
     atom    8 type  2   force =     0.00000000    0.00000000    0.00000000
     atom    9 type  3   force =     0.00000000    0.00000000    0.00000000
     atom   10 type  3   force =     0.00000000    0.00000000    0.00000000
     atom   11 type  3   force =     0.00000000    0.00000000    0.00000000
     atom   12 type  3   force =     0.00000000    0.00000000    0.00000000
     atom   13 type  3   force =     0.00000000    0.00000000    0.00000000
     atom   14 type  3   force =     0.00000000    0.00000000    0.00000000
     atom   15 type  3   force =     0.00000000    0.00000000    0.00000000
     atom   16 type  3   force =     0.00000000    0.00000000    0.00000000
     atom   17 type  3   force =     0.00000000    0.00000000    0.00000000
     atom   18 type  3   force =     0.00000000    0.00000000    0.00000000
     atom   19 type  3   force =     0.00000000    0.00000000    0.00000000
     atom   20 type  3   force =     0.00000000    0.00000000    0.00000000
     The SCF correction term to forces
     atom    1 type  1   force =    -0.00008165   -0.00063987    0.00055620
     atom    2 type  1   force =     0.00005259    0.00022111   -0.00026276
     atom    3 type  1   force =     0.00007237   -0.00083031    0.00077156
     atom    4 type  1   force =    -0.00000336   -0.00014181    0.00007562
     atom    5 type  2   force =    -0.00008536   -0.00036664   -0.00057544
     atom    6 type  2   force =    -0.00012001    0.00054447   -0.00005521
     atom    7 type  2   force =    -0.00010702    0.00060542    0.00015438
     atom    8 type  2   force =    -0.00006555   -0.00002744   -0.00045242
     atom    9 type  3   force =    -0.00014029    0.00003530   -0.00039741
     atom   10 type  3   force =     0.00013714    0.00036356   -0.00004416
     atom   11 type  3   force =     0.00028253   -0.00032084   -0.00020599
     atom   12 type  3   force =    -0.00002619   -0.00056096   -0.00001632
     atom   13 type  3   force =    -0.00003809   -0.00035179    0.00049278
     atom   14 type  3   force =    -0.00010974    0.00014492   -0.00039826
     atom   15 type  3   force =     0.00014990    0.00035069   -0.00011107
     atom   16 type  3   force =    -0.00015054    0.00024619    0.00030175
     atom   17 type  3   force =    -0.00008012    0.00051349    0.00020855
     atom   18 type  3   force =    -0.00005765   -0.00048565    0.00028524
     atom   19 type  3   force =    -0.00010711   -0.00003716    0.00054806
     atom   20 type  3   force =     0.00016669   -0.00021481   -0.00044659

     Total force =     0.232789     Total SCF correction =     0.002558

     Computing stress (Cartesian axis) and pressure

          total   stress  (Ry/bohr**3)                   (kbar)     P=     -617.38
  -0.00415037  -0.00005357  -0.00008752         -610.54       -7.88      -12.88
  -0.00005357  -0.00417982   0.00006996           -7.88     -614.87       10.29
  -0.00008752   0.00006996  -0.00426042          -12.88       10.29     -626.73

     kinetic stress (kbar)  27901.98     88.84     88.10
                               88.84  28008.43     55.87
                               88.10     55.87  27994.41

     local   stress (kbar) -22622.33   3658.74   3313.30
                             3658.74  -5899.63   4769.04
                             3313.30   4769.04  -6617.81

     nonloc. stress (kbar)   9158.39     -0.17     -2.95
                               -0.17   9132.42      6.12
                               -2.95      6.12   9120.00

     hartree stress (kbar)  32981.24  -1416.85  -1283.47
                            -1416.85  25574.65  -2241.28
                            -1283.47  -2241.28  25916.83

     exc-cor stress (kbar)   2635.64     -3.25     -2.91
                               -3.25   2632.29      0.80
                               -2.91      0.80   2632.07

     corecor stress (kbar) -13151.20      0.24      0.14
                                0.24 -13152.88     -0.79
                                0.14     -0.79 -13152.62

     ewald   stress (kbar) -37514.26  -2335.42  -2125.09
                            -2335.42 -46910.16  -2579.47
                            -2125.09  -2579.47 -46519.61

     hubbard stress (kbar)      0.00      0.00      0.00
                                0.00      0.00      0.00
                                0.00      0.00      0.00

     DFT-D   stress (kbar)      0.00      0.00      0.00
                                0.00      0.00      0.00
                                0.00      0.00      0.00

     XDM     stress (kbar)      0.00      0.00      0.00
                                0.00      0.00      0.00
                                0.00      0.00      0.00

     dft-nl  stress (kbar)      0.00      0.00      0.00
                                0.00      0.00      0.00
                                0.00      0.00      0.00

     TS-vdW  stress (kbar)      0.00      0.00      0.00
                                0.00      0.00      0.00
                                0.00      0.00      0.00

[...]

                                0.00      0.00      0.00

     Writing all to output data dir calculations/myprefix.save/

     General routines

     Parallel routines

     PAW routines

   This run was terminated on:  11:12:18   3Mar2023

   JOB DONE.