     Program PWSCF v.7.0 starts on  3Mar2023 at 15:49:50

     R & G space division:  proc/nbgrp/npool/nimage =      32

     Reading input from espresso_825.pwi
Warning: card &CELL ignored
Warning: card / ignored

     Current dimensions of program PWSCF are:
     Max number of different atomic species (ntypx) = 10
     Max number of k-points (npk) =  40000
     Max angular momentum in pseudopotentials (lmaxx) =  4
     file Ba.pbe-spn-kjpaw_psl.1.0.0.UPF: wavefunction(s)  5S 6S renormalized
     file O.pbe-n-kjpaw_psl.0.1.UPF: wavefunction(s)  2P renormalized

     gamma-point specific algorithms are used
     Message from routine setup:
     using ibrav=0 with symmetry is DISCOURAGED, use correct ibrav instead

     Using Slab Decomposition

     bravais-lattice index     =            0
     lattice parameter (alat)  =       7.8828  a.u.
     unit-cell volume          =    1960.0011 (a.u.)^3
     number of atoms/cell      =           20
     number of atomic types    =            4
     number of electrons       =       168.00
     number of Kohn-Sham states=          101
     kinetic-energy cutoff     =      30.0000  Ry
     charge density cutoff     =     240.0000  Ry
     scf convergence threshold =      1.0E-06
     mixing beta               =       0.7000
     number of iterations used =            8  plain     mixing
     Exchange-correlation= SLA  PW   PBX  PBC
                           (   1   4   3   4   0   0   0)

     celldm(1)=   7.882762  celldm(2)=   0.000000  celldm(3)=   0.000000
     celldm(4)=   0.000000  celldm(5)=   0.000000  celldm(6)=   0.000000

     crystal axes: (cart. coord. in units of alat)
               a(1) = (   1.000000   0.000000   0.000000 )
               a(2) = (   0.000000   1.414654   0.000000 )
               a(3) = (   0.000000   0.000000   2.828595 )

     reciprocal axes: (cart. coord. in units 2 pi/alat)
               b(1) = (  1.000000  0.000000  0.000000 )
               b(2) = (  0.000000  0.706887  0.000000 )
               b(3) = (  0.000000  0.000000  0.353532 )

     PseudoPot. # 1 for Ba read from file:
     /home/pragov/projects/rrg-bengioy-ad/pragov/crystal_structure_design/SSSP/Ba.pbe-spn-kjpaw_psl.1.0.0.UPF
     MD5 check sum: c432291d3e53af55f19d5e8866385beb
     Pseudo is Projector augmented-wave + core cor, Zval = 10.0
     Generated using "atomic" code by A. Dal Corso  v.5.1
     Shape of augmentation charge: PSQ
     Using radial grid of 1251 points,  7 beta functions with:
                l(1) =   0
                l(2) =   0
                l(3) =   0
                l(4) =   1
                l(5) =   1
                l(6) =   2
                l(7) =   2
     Q(r) pseudized with 0 coefficients

     PseudoPot. # 2 for Sr read from file:
     /home/pragov/projects/rrg-bengioy-ad/pragov/crystal_structure_design/SSSP/Sr_pbe_v1.uspp.F.UPF
     MD5 check sum: 6b418c05fbe9db5448babca5e47b7a5b
     Pseudo is Ultrasoft + core correction, Zval = 10.0
     Generated by new atomic code, or converted to UPF format
     Using radial grid of  883 points,  6 beta functions with:
                l(1) =   0
                l(2) =   0
                l(3) =   1
                l(4) =   1
                l(5) =   2
                l(6) =   2
     Q(r) pseudized with  6 coefficients,  rinner =    1.400   1.400   1.400
                                                       1.400   1.400

     PseudoPot. # 3 for Sn read from file:
     /home/pragov/projects/rrg-bengioy-ad/pragov/crystal_structure_design/SSSP/Sn_pbe_v1.uspp.F.UPF
     MD5 check sum: 4cf58ce39ec5d5d420df3dd08604eb00
     Pseudo is Ultrasoft + core correction, Zval = 14.0
     Generated by new atomic code, or converted to UPF format
     Using radial grid of  891 points,  6 beta functions with:
                l(1) =   0
                l(2) =   0
                l(3) =   1
                l(4) =   1
                l(5) =   2
                l(6) =   2
     Q(r) pseudized with  6 coefficients,  rinner =    1.200   1.200   1.200
                                                       1.200   1.200

     PseudoPot. # 4 for O  read from file:
     /home/pragov/projects/rrg-bengioy-ad/pragov/crystal_structure_design/SSSP/O.pbe-n-kjpaw_psl.0.1.UPF
     MD5 check sum: 0234752ac141de4415c5fc33072bef88
     Pseudo is Projector augmented-wave + core cor, Zval =  6.0
     Generated using "atomic" code by A. Dal Corso  v.5.0.99 svn rev. 10869
     Shape of augmentation charge: BESSEL
     Using radial grid of 1095 points,  4 beta functions with:
                l(1) =   0
                l(2) =   0
                l(3) =   1
                l(4) =   1
     Q(r) pseudized with 0 coefficients

     atomic species   valence    mass     pseudopotential
        Ba            10.00   137.32700     Ba( 1.00)
        Sr            10.00    87.62000     Sr( 1.00)
        Sn            14.00   118.71000     Sn( 1.00)
        O              6.00    15.99900     O ( 1.00)

      8 Sym. Ops., with inversion, found

                                    s                        frac. trans.

      isym =  1     identity

 cryst.   s( 1) = (     1          0          0      )
                  (     0          1          0      )
                  (     0          0          1      )

 cart.    s( 1) = (  1.0000000  0.0000000  0.0000000 )
                  (  0.0000000  1.0000000  0.0000000 )
                  (  0.0000000  0.0000000  1.0000000 )

      isym =  2     180 deg rotation - cart. axis [0,0,1]

[...]

      isym =  4     180 deg rotation - cart. axis [1,0,0]

[...]

      isym =  5     inversion

[...]

      isym =  6     inv. 180 deg rotation - cart. axis [0,0,1]

[...]

      isym =  8     inv. 180 deg rotation - cart. axis [1,0,0]

 cryst.   s( 8) = (    -1          0          0      )
                  (     0          1          0      )
                  (     0          0          1      )

 cart.    s( 8) = ( -1.0000000  0.0000000  0.0000000 )
                  (  0.0000000  1.0000000  0.0000000 )
                  (  0.0000000  0.0000000  1.0000000 )

   Cartesian axes

     site n.     atom                  positions (alat units)
         1           Ba  tau(   1) = (   0.5000000   0.0000000   0.7061758  )
         2           Ba  tau(   2) = (   0.5000000   0.7073271   1.4142976  )
         3           Ba  tau(   3) = (   0.5000000   0.0000000   2.1224195  )
         4           Sr  tau(   4) = (   0.5000000   0.7073271   0.0000000  )
         5           Sn  tau(   5) = (   0.0000000   0.0000000   1.4142976  )
         6           Sn  tau(   6) = (   0.0000000   0.7073271   2.1238168  )
         7           Sn  tau(   7) = (   0.0000000   0.0000000   0.0000000  )
         8           Sn  tau(   8) = (   0.0000000   0.7073271   0.7047784  )
         9           O   tau(   9) = (   0.0000000   0.3538488   1.7683359  )
        10           O   tau(  10) = (   0.0000000   1.0572559   2.4794137  )
        11           O   tau(  11) = (   0.0000000   0.3573982   0.3491816  )
        12           O   tau(  12) = (   0.0000000   1.0608053   1.0602593  )
        13           O   tau(  13) = (   0.0000000   0.3538488   1.0602593  )
        14           O   tau(  14) = (   0.0000000   1.0608053   1.7683359  )
        15           O   tau(  15) = (   0.0000000   0.3573982   2.4794137  )
        16           O   tau(  16) = (   0.0000000   1.0572559   0.3491816  )
        17           O   tau(  17) = (   0.5000000   0.0000000   1.4142976  )
        18           O   tau(  18) = (   0.5000000   0.7073271   2.1258534  )
        19           O   tau(  19) = (   0.5000000   0.0000000   0.0000000  )
        20           O   tau(  20) = (   0.5000000   0.7073271   0.7027419  )

   Crystallographic axes

     site n.     atom                  positions (cryst. coord.)
         1           Ba  tau(   1) = (  0.5000000  0.0000000  0.2496560  )
         2           Ba  tau(   2) = (  0.5000000  0.5000000  0.5000000  )
         3           Ba  tau(   3) = (  0.5000000  0.0000000  0.7503440  )
         4           Sr  tau(   4) = (  0.5000000  0.5000000  0.0000000  )
         5           Sn  tau(   5) = (  0.0000000  0.0000000  0.5000000  )
         6           Sn  tau(   6) = (  0.0000000  0.5000000  0.7508380  )
         7           Sn  tau(   7) = (  0.0000000  0.0000000  0.0000000  )
         8           Sn  tau(   8) = (  0.0000000  0.5000000  0.2491620  )
         9           O   tau(   9) = (  0.0000000  0.2501310  0.6251640  )
        10           O   tau(  10) = (  0.0000000  0.7473600  0.8765530  )
        11           O   tau(  11) = (  0.0000000  0.2526400  0.1234470  )
        12           O   tau(  12) = (  0.0000000  0.7498690  0.3748360  )
        13           O   tau(  13) = (  0.0000000  0.2501310  0.3748360  )
        14           O   tau(  14) = (  0.0000000  0.7498690  0.6251640  )
        15           O   tau(  15) = (  0.0000000  0.2526400  0.8765530  )
        16           O   tau(  16) = (  0.0000000  0.7473600  0.1234470  )
        17           O   tau(  17) = (  0.5000000  0.0000000  0.5000000  )
        18           O   tau(  18) = (  0.5000000  0.5000000  0.7515580  )
        19           O   tau(  19) = (  0.5000000  0.0000000  0.0000000  )
        20           O   tau(  20) = (  0.5000000  0.5000000  0.2484420  )

     number of k points=     1  Methfessel-Paxton smearing, width (Ry)=  0.0010
                       cart. coord. in units 2pi/alat
        k(    1) = (   0.0000000   0.0000000   0.0000000), wk =   2.0000000

                       cryst. coord.
        k(    1) = (   0.0000000   0.0000000   0.0000000), wk =   2.0000000

     Check: negative core charge=   -0.000009

     Initial potential from superposition of free atoms

     starting charge     163.9151, renormalised to     168.0000

     negative rho (up, down):  6.396E-02 0.000E+00
     Starting wfcs are  112 randomized atomic wfcs
     Checking if some PAW data can be deallocated...

     Self-consistent Calculation

     iteration #  1     ecut=    30.00 Ry     beta= 0.70
     Davidson diagonalization with overlap

     ethr =  1.00E-02,  avg # of iterations =  6.0

     negative rho (up, down):  6.306E-02 0.000E+00

     total energy              =   -2529.95814465 Ry
     estimated scf accuracy    <       4.56004791 Ry

[...]

     total energy              =   -2532.07418625 Ry
     estimated scf accuracy    <       0.00000371 Ry

     iteration # 21     ecut=    30.00 Ry     beta= 0.70
     Davidson diagonalization with overlap

     ethr =  1.96E-09,  avg # of iterations =  3.0

[...]

     End of self-consistent calculation

          k = 0.0000 0.0000 0.0000 (  2721 PWs)   bands (ev):

   -23.7834 -15.6126 -15.5706 -15.5351 -11.3590 -11.2399 -11.1801 -11.1619
   -11.1595 -11.1490 -11.1076 -10.8958 -10.7302 -10.7136 -10.7054 -10.6953
   -10.6588 -10.6519 -10.6345 -10.6318 -10.6270 -10.6096 -10.6057 -10.6003
    -8.0775  -7.8355  -7.8308  -7.1724  -7.1665  -6.4619  -6.3797  -6.3394
    -5.7220  -5.6901  -5.6838  -5.5706  -5.5267  -5.4960  -5.3237  -0.8436
    -0.8304  -0.8257  -0.8067  -0.7575  -0.7243  -0.6518  -0.6089  -0.5650
     2.7712   3.6696   3.6875   4.9991   5.0195   5.2131   5.3440   5.3784
     5.7274   6.4940   6.6058   6.6809   7.3493   7.3974   7.9853   7.9920
     8.0370   8.1293   8.2657   8.2813   8.4801   8.4866   8.6212   8.6289
     8.6918   8.7045   8.7248   8.7495   8.8001   8.8475   9.0814   9.0893
     9.1026   9.2257   9.2698   9.5319   9.9431  12.9622  12.9969  14.4750
    14.5115  15.6842  15.8192  15.9300  16.1475  16.2408  16.3050  16.6060
    16.6104  16.6151  17.0353  17.1679  17.2849

     occupation numbers
     1.0000   1.0000   1.0000   1.0000   1.0000   1.0000   1.0000   1.0000
     1.0000   1.0000   1.0000   1.0000   1.0000   1.0000   1.0000   1.0000
     1.0000   1.0000   1.0000   1.0000   1.0000   1.0000   1.0000   1.0000
     1.0000   1.0000   1.0000   1.0000   1.0000   1.0000   1.0000   1.0000
     1.0000   1.0000   1.0000   1.0000   1.0000   1.0000   1.0000   1.0000
     1.0000   1.0000   1.0000   1.0000   1.0000   1.0000   1.0000   1.0000
     1.0000   1.0000   1.0000   1.0000   1.0000   1.0000   1.0000   1.0000
     1.0000   1.0000   1.0000   1.0000   1.0000   1.0000   1.0000   1.0000
     1.0000   1.0000   1.0000   1.0000   1.0000   1.0000   1.0000   1.0000
     1.0000   1.0000   1.0000   1.0000   1.0000   1.0000   1.0000   1.0000
     1.0000   1.0000   1.0000   1.0000  -0.0000  -0.0000  -0.0000  -0.0000
    -0.0000  -0.0000  -0.0000  -0.0000  -0.0000  -0.0000  -0.0000  -0.0000
    -0.0000  -0.0000  -0.0000  -0.0000  -0.0000

     the Fermi energy is     9.6696 ev

!    total energy              =   -2532.07418617 Ry
     estimated scf accuracy    <       0.00000063 Ry
     smearing contrib. (-TS)   =       0.00000000 Ry
     internal energy E=F+TS    =   -2532.07418617 Ry

     The total energy is F=E-TS. E is the sum of the following terms:
     one-electron contribution =    -338.28228066 Ry
     hartree contribution      =     295.85830436 Ry
     xc contribution           =    -360.31641236 Ry
     ewald contribution        =    -890.24124759 Ry
     one-center paw contrib.   =   -1239.09254992 Ry
      -> PAW hartree energy AE =      28.84619926 Ry
      -> PAW hartree energy PS =     -28.73289573 Ry
      -> PAW xc energy AE      =    -394.25619477 Ry
      -> PAW xc energy PS      =      19.18349650 Ry
      -> total E_H with PAW    =     295.97160789 Ry
      -> total E_XC with PAW   =    -735.38911063 Ry

     convergence has been achieved in  21 iterations

     negative rho (up, down):  6.601E-02 0.000E+00

     Forces acting on atoms (cartesian axes, Ry/au):

     atom    1 type  1   force =     0.00000000    0.00000000    0.00015251
     atom    2 type  1   force =     0.00000000    0.00000000    0.00000000
     atom    3 type  1   force =     0.00000000    0.00000000   -0.00015251
     atom    4 type  2   force =     0.00000000    0.00000000    0.00000000
     atom    5 type  3   force =     0.00000000    0.00000000    0.00000000
     atom    6 type  3   force =     0.00000000    0.00000000    0.00422594
     atom    7 type  3   force =     0.00000000    0.00000000    0.00000000
     atom    8 type  3   force =     0.00000000    0.00000000   -0.00422594
     atom    9 type  4   force =     0.00000000   -0.00021450    0.00055682
     atom   10 type  4   force =     0.00000000    0.00257139   -0.00067991
     atom   11 type  4   force =     0.00000000   -0.00257139    0.00067991
     atom   12 type  4   force =     0.00000000    0.00021450   -0.00055682
     atom   13 type  4   force =     0.00000000   -0.00021450   -0.00055682
     atom   14 type  4   force =     0.00000000    0.00021450    0.00055682
     atom   15 type  4   force =     0.00000000   -0.00257139   -0.00067991
     atom   16 type  4   force =     0.00000000    0.00257139    0.00067991
     atom   17 type  4   force =     0.00000000    0.00000000    0.00000000
     atom   18 type  4   force =     0.00000000    0.00000000    0.00684965
     atom   19 type  4   force =     0.00000000    0.00000000    0.00000000
     atom   20 type  4   force =     0.00000000    0.00000000   -0.00684965
     The non-local contrib.  to forces
     atom    1 type  1   force =     0.00000000    0.00000000   -0.00178594
     atom    2 type  1   force =     0.00000000    0.00000000    0.00000000
     atom    3 type  1   force =     0.00000000    0.00000000    0.00178594
     atom    4 type  2   force =     0.00000000    0.00000000    0.00000000
     atom    5 type  3   force =     0.00000000    0.00000000    0.00000000
     atom    6 type  3   force =     0.00000000    0.00000000   -0.01948617
     atom    7 type  3   force =     0.00000000    0.00000000    0.00000000
     atom    8 type  3   force =     0.00000000    0.00000000    0.01948617
     atom    9 type  4   force =     0.00000000   -0.00854206    0.00082718
     atom   10 type  4   force =    -0.00000000    0.02863600   -0.02838626
     atom   11 type  4   force =    -0.00000000   -0.02863600    0.02838626
     atom   12 type  4   force =     0.00000000    0.00854206   -0.00082718
     atom   13 type  4   force =     0.00000000   -0.00854206   -0.00082718
     atom   14 type  4   force =     0.00000000    0.00854206    0.00082718
     atom   15 type  4   force =     0.00000000   -0.02863600   -0.02838626
     atom   16 type  4   force =     0.00000000    0.02863600    0.02838626
     atom   17 type  4   force =     0.00000000    0.00000000    0.00000000
     atom   18 type  4   force =     0.00000000    0.00000000    0.00716478
     atom   19 type  4   force =     0.00000000    0.00000000    0.00000000
     atom   20 type  4   force =     0.00000000    0.00000000   -0.00716478
     The ionic contribution  to forces
     atom    1 type  1   force =     0.00000000   -0.00000000    0.30133406
     atom    2 type  1   force =    -0.00000000   -0.00000000   -0.00000000
     atom    3 type  1   force =     0.00000000   -0.00000000   -0.30133406
     atom    4 type  2   force =    -0.00000000   -0.00000000   -0.00000000
     atom    5 type  3   force =     0.00000000    0.00000000    0.00000000
     atom    6 type  3   force =     0.00000000    0.00000000   -0.80203991
     atom    7 type  3   force =     0.00000000    0.00000000   -0.00000000
     atom    8 type  3   force =     0.00000000    0.00000000    0.80203991
     atom    9 type  4   force =     0.00000000    0.03249860   -0.07431292
     atom   10 type  4   force =     0.00000000    0.10961406   -0.15038105
     atom   11 type  4   force =     0.00000000   -0.10961406    0.15038105
     atom   12 type  4   force =     0.00000000   -0.03249860    0.07431292
     atom   13 type  4   force =     0.00000000    0.03249860    0.07431292
     atom   14 type  4   force =     0.00000000   -0.03249860   -0.07431292
     atom   15 type  4   force =     0.00000000   -0.10961406   -0.15038105
     atom   16 type  4   force =     0.00000000    0.10961406    0.15038105
     atom   17 type  4   force =    -0.00000000   -0.00000000   -0.00000000
     atom   18 type  4   force =    -0.00000000   -0.00000000   -0.25437819
     atom   19 type  4   force =    -0.00000000   -0.00000000   -0.00000000
     atom   20 type  4   force =    -0.00000000   -0.00000000    0.25437819
     The local contribution  to forces
     atom    1 type  1   force =     0.00065634   -0.00018629   -0.29952168
     atom    2 type  1   force =     0.00060675    0.00048130   -0.00004249
     atom    3 type  1   force =    -0.00011970   -0.00043090    0.29894111
     atom    4 type  2   force =    -0.00000003    0.00000274   -0.00007440
     atom    5 type  3   force =    -0.00000099   -0.00009465   -0.00001301
     atom    6 type  3   force =     0.00000135    0.00004450    0.82453985
     atom    7 type  3   force =    -0.00000028   -0.00000446   -0.00008689
     atom    8 type  3   force =    -0.00000160    0.00005550   -0.82445250
     atom    9 type  4   force =     0.00000005   -0.02425993    0.07391635
     atom   10 type  4   force =     0.00000139   -0.13540958    0.17763018
     atom   11 type  4   force =     0.00000144    0.13541276   -0.17763792
     atom   12 type  4   force =    -0.00000289    0.02426540   -0.07391611
     atom   13 type  4   force =    -0.00000230   -0.02426722   -0.07390537
     atom   14 type  4   force =    -0.00000115    0.02425980    0.07393742
     atom   15 type  4   force =     0.00000070    0.13540595    0.17761510
     atom   16 type  4   force =    -0.00000135   -0.13540564   -0.17764323
     atom   17 type  4   force =     0.00000077    0.00001386   -0.00000039
     atom   18 type  4   force =     0.00000021   -0.00001356    0.25403005
     atom   19 type  4   force =     0.00000029    0.00000548   -0.00001087
     atom   20 type  4   force =     0.00000067   -0.00000735   -0.25403125
     The core correction contribution to forces
     atom    1 type  1   force =     0.00000920   -0.00000365    0.00019138
     atom    2 type  1   force =     0.00000633    0.00001067   -0.00000093
     atom    3 type  1   force =    -0.00000185   -0.00000688   -0.00019869
     atom    4 type  2   force =     0.00000002   -0.00000009   -0.00000061
     atom    5 type  3   force =     0.00000000    0.00000116   -0.00000013
     atom    6 type  3   force =     0.00000005   -0.00000081    0.00072076
     atom    7 type  3   force =     0.00000001    0.00000027    0.00000029
     atom    8 type  3   force =     0.00000003   -0.00000062   -0.00072099
     atom    9 type  4   force =    -0.00000004    0.00009163   -0.00001805
     atom   10 type  4   force =    -0.00000001   -0.00032275    0.00029445
     atom   11 type  4   force =     0.00000001    0.00032278   -0.00029396
     atom   12 type  4   force =    -0.00000001   -0.00009171    0.00001756
     atom   13 type  4   force =    -0.00000002    0.00009164    0.00001780
     atom   14 type  4   force =    -0.00000001   -0.00009160   -0.00001771
     atom   15 type  4   force =    -0.00000001    0.00032271    0.00029416
     atom   16 type  4   force =     0.00000000   -0.00032273   -0.00029417
     atom   17 type  4   force =    -0.00000001    0.00000056    0.00000004
     atom   18 type  4   force =     0.00000001   -0.00000033   -0.00014944
     atom   19 type  4   force =    -0.00000001    0.00000011    0.00000042
     atom   20 type  4   force =    -0.00000000   -0.00000032    0.00014908
     The Hubbard contrib.    to forces
     atom    1 type  1   force =     0.00000000    0.00000000    0.00000000
     atom    2 type  1   force =     0.00000000    0.00000000    0.00000000
     atom    3 type  1   force =     0.00000000    0.00000000    0.00000000
     atom    4 type  2   force =     0.00000000    0.00000000    0.00000000
     atom    5 type  3   force =     0.00000000    0.00000000    0.00000000
     atom    6 type  3   force =     0.00000000    0.00000000    0.00000000
     atom    7 type  3   force =     0.00000000    0.00000000    0.00000000
     atom    8 type  3   force =     0.00000000    0.00000000    0.00000000
     atom    9 type  4   force =     0.00000000    0.00000000    0.00000000
     atom   10 type  4   force =     0.00000000    0.00000000    0.00000000
     atom   11 type  4   force =     0.00000000    0.00000000    0.00000000
     atom   12 type  4   force =     0.00000000    0.00000000    0.00000000
     atom   13 type  4   force =     0.00000000    0.00000000    0.00000000
     atom   14 type  4   force =     0.00000000    0.00000000    0.00000000
     atom   15 type  4   force =     0.00000000    0.00000000    0.00000000
     atom   16 type  4   force =     0.00000000    0.00000000    0.00000000
     atom   17 type  4   force =     0.00000000    0.00000000    0.00000000
     atom   18 type  4   force =     0.00000000    0.00000000    0.00000000
     atom   19 type  4   force =     0.00000000    0.00000000    0.00000000
     atom   20 type  4   force =     0.00000000    0.00000000    0.00000000
     The SCF correction term to forces
     atom    1 type  1   force =    -0.00009042    0.00005498   -0.00034890
     atom    2 type  1   force =    -0.00008141   -0.00010887   -0.00000662
     atom    3 type  1   force =     0.00001808    0.00007878    0.00036960
     atom    4 type  2   force =     0.00000019   -0.00000509    0.00006906
     atom    5 type  3   force =     0.00000011    0.00012262    0.00001896
     atom    6 type  3   force =    -0.00000143   -0.00005672    0.00047962
     atom    7 type  3   force =    -0.00000016    0.00000976    0.00010881
     atom    8 type  3   force =     0.00000129   -0.00007238   -0.00059033
     atom    9 type  4   force =    -0.00000039   -0.00000487    0.00012452
     atom   10 type  4   force =    -0.00000192    0.00005294    0.00018008
     atom   11 type  4   force =     0.00000055   -0.00005391   -0.00013871
     atom   12 type  4   force =     0.00000287   -0.00000574   -0.00015976
     atom   13 type  4   force =     0.00000191    0.00000569   -0.00015523
     atom   14 type  4   force =    -0.00000015    0.00000493    0.00012661
     atom   15 type  4   force =    -0.00000143   -0.00005234    0.00017856
     atom   16 type  4   force =     0.00000244    0.00005103   -0.00014909
     atom   17 type  4   force =    -0.00000038    0.00002193    0.00000142
     atom   18 type  4   force =     0.00000044   -0.00000704    0.00016801
     atom   19 type  4   force =    -0.00000026    0.00000161    0.00004007
     atom   20 type  4   force =    -0.00000079   -0.00001527   -0.00019533

     Total force =     0.012622     Total SCF correction =     0.001087

     Computing stress (Cartesian axis) and pressure

     negative rho (up, down):  6.601E-02 0.000E+00
          total   stress  (Ry/bohr**3)                   (kbar)     P=     -316.02
  -0.00196869   0.00000000   0.00000000         -289.60        0.00        0.00
   0.00000000  -0.00186181   0.00000000            0.00     -273.88        0.00
   0.00000000   0.00000000  -0.00261425            0.00        0.00     -384.57

     kinetic stress (kbar)  18373.61      0.00      0.00
                                0.00  18269.87      0.00
                                0.00      0.00  17981.44

     local   stress (kbar)  -4896.10     -0.00      0.00
                               -0.00  -4549.25      0.06
                                0.00      0.06  -4323.04

     nonloc. stress (kbar)   6761.01      0.00      0.00
                                0.00   6754.06      0.00
                                0.00      0.00   6721.49

     hartree stress (kbar)   7541.41      0.00     -0.00
                                0.00   7340.08     -0.04
                               -0.00     -0.04   7323.74

     exc-cor stress (kbar)   6873.59      0.00      0.00
                                0.00   6866.92     -0.00
                                0.00     -0.00   6868.18

     corecor stress (kbar) -12680.16      0.00      0.00
                                0.00 -12681.54     -0.00
                                0.00     -0.00 -12677.56

     ewald   stress (kbar) -22262.96      0.00      0.00
                                0.00 -22274.01     -0.00
                                0.00     -0.00 -22278.81

     hubbard stress (kbar)      0.00      0.00      0.00
                                0.00      0.00      0.00
                                0.00      0.00      0.00

     DFT-D   stress (kbar)      0.00      0.00      0.00
                                0.00      0.00      0.00
                                0.00      0.00      0.00

     XDM     stress (kbar)      0.00      0.00      0.00
                                0.00      0.00      0.00
                                0.00      0.00      0.00

     dft-nl  stress (kbar)      0.00      0.00      0.00
                                0.00      0.00      0.00
                                0.00      0.00      0.00

     TS-vdW  stress (kbar)      0.00      0.00      0.00
                                0.00      0.00      0.00
                                0.00      0.00      0.00

[...]

                                0.00      0.00      0.00

     Writing all to output data dir calculations/myprefix.save/

     General routines

     Parallel routines

     PAW routines

   This run was terminated on:  15:49:58   3Mar2023

   JOB DONE.