     Program PWSCF v.7.0 starts on  3Mar2023 at 16: 4: 0

     R & G space division:  proc/nbgrp/npool/nimage =      32

     Reading input from espresso_862.pwi
Warning: card &CELL ignored
Warning: card / ignored

     Current dimensions of program PWSCF are:
     Max number of different atomic species (ntypx) = 10
     Max number of k-points (npk) =  40000
     Max angular momentum in pseudopotentials (lmaxx) =  4
     file Mg.pbe-n-kjpaw_psl.0.3.0.UPF: wavefunction(s)  3S renormalized
     file Ga.pbe-dn-kjpaw_psl.1.0.0.UPF: wavefunction(s)  4S renormalized

     gamma-point specific algorithms are used
     Message from routine setup:
     using ibrav=0 with symmetry is DISCOURAGED, use correct ibrav instead

     Using Slab Decomposition

     bravais-lattice index     =            0
     lattice parameter (alat)  =      14.6974  a.u.
     unit-cell volume          =    2477.2594 (a.u.)^3
     number of atoms/cell      =           18
     number of atomic types    =            2
     number of electrons       =       102.00
     number of Kohn-Sham states=           61
     kinetic-energy cutoff     =      30.0000  Ry
     charge density cutoff     =     240.0000  Ry
     scf convergence threshold =      1.0E-06
     mixing beta               =       0.7000
     number of iterations used =            8  plain     mixing
     Exchange-correlation= SLA  PW   PBX  PBC
                           (   1   4   3   4   0   0   0)

     celldm(1)=  14.697365  celldm(2)=   0.000000  celldm(3)=   0.000000
     celldm(4)=   0.000000  celldm(5)=   0.000000  celldm(6)=   0.000000

     crystal axes: (cart. coord. in units of alat)
               a(1) = (   1.000000   0.000000   0.000000 )
               a(2) = (  -0.500000   0.866025   0.000000 )
               a(3) = (   0.000000   0.000000   0.900995 )

     reciprocal axes: (cart. coord. in units 2 pi/alat)
               b(1) = (  1.000000  0.577350  0.000000 )
               b(2) = (  0.000000  1.154701  0.000000 )
               b(3) = (  0.000000  0.000000  1.109884 )

     PseudoPot. # 1 for Mg read from file:
     /home/pragov/projects/rrg-bengioy-ad/pragov/crystal_structure_design/SSSP/Mg.pbe-n-kjpaw_psl.0.3.0.UPF
     MD5 check sum: 24ecedc7f3e3cbe212e682f4413594e4
     Pseudo is Projector augmented-wave + core cor, Zval =  2.0
     Generated using "atomic" code by A. Dal Corso  v.5.0.99 svn rev. 10869
     Shape of augmentation charge: PSQ
     Using radial grid of 1129 points,  4 beta functions with:
                l(1) =   0
                l(2) =   0
                l(3) =   1
                l(4) =   1
     Q(r) pseudized with 0 coefficients

     PseudoPot. # 2 for Ga read from file:
     /home/pragov/projects/rrg-bengioy-ad/pragov/crystal_structure_design/SSSP/Ga.pbe-dn-kjpaw_psl.1.0.0.UPF
     MD5 check sum: a27b4342b1af7e5f338de752e9ed7044
     Pseudo is Projector augmented-wave + core cor, Zval = 13.0
     Generated using "atomic" code by A. Dal Corso  v.5.1
     Shape of augmentation charge: PSQ
     Using radial grid of 1205 points,  6 beta functions with:
                l(1) =   0
                l(2) =   0
                l(3) =   1
                l(4) =   1
                l(5) =   2
                l(6) =   2
     Q(r) pseudized with 0 coefficients

     atomic species   valence    mass     pseudopotential
        Mg             2.00    24.30500     Mg( 1.00)
        Ga            13.00    69.72300     Ga( 1.00)

     12 Sym. Ops. (no inversion) found ( 6 have fractional translation)

                                    s                        frac. trans.

      isym =  1     identity

 cryst.   s( 1) = (     1          0          0      )
                  (     0          1          0      )
                  (     0          0          1      )

 cart.    s( 1) = (  1.0000000 -0.0000000  0.0000000 )
                  (  0.0000000  1.0000000  0.0000000 )
                  (  0.0000000  0.0000000  1.0000000 )

      isym =  2     180 deg rotation - cart. axis [1,0,0]

[...]

      isym =  3     120 deg rotation - cryst. axis [0,0,1]

[...]

      isym =  6     180 deg rotation - cryst. axis [1,1,0]

 cryst.   s( 6) = (     0          1          0      )
                  (     1          0          0      )
                  (     0          0         -1      )

 cart.    s( 6) = ( -0.5000001  0.8660254  0.0000000 )
                  (  0.8660254  0.5000001  0.0000000 )
                  (  0.0000000  0.0000000 -1.0000000 )

      isym =  7     inv. 180 deg rotation - cart. axis [0,0,1]

 cryst.   s( 7) = (     1          0          0      )    f =(  0.0000000 )
                  (     0          1          0      )       (  0.0000000 )
                  (     0          0         -1      )       (  0.5000000 )

 cart.    s( 7) = (  1.0000000 -0.0000000  0.0000000 )    f =(  0.0000000 )
                  (  0.0000000  1.0000000  0.0000000 )       (  0.0000000 )
                  (  0.0000000  0.0000000 -1.0000000 )       (  0.4504976 )

      isym =  8     inv. 180 deg rotation - cart. axis [0,1,0]

[...]

      isym =  9     inv.  60 deg rotation - cryst. axis [0,0,1]

 cryst.   s( 9) = (    -1         -1          0      )    f =(  0.0000000 )
                  (     1          0          0      )       ( -0.0000000 )
                  (     0          0         -1      )       (  0.5000000 )

 cart.    s( 9) = ( -0.4999999  0.8660255  0.0000000 )    f =(  0.0000000 )
                  ( -0.8660254 -0.5000001  0.0000000 )       ( -0.0000000 )
                  (  0.0000000  0.0000000 -1.0000000 )       (  0.4504976 )

[...]

 cryst.   s(10) = (     0          1          0      )    f =(  0.0000000 )
                  (    -1         -1          0      )       (  0.0000000 )
                  (     0          0         -1      )       (  0.5000000 )

 cart.    s(10) = ( -0.5000001 -0.8660255  0.0000000 )    f =(  0.0000000 )
                  (  0.8660254 -0.4999999  0.0000000 )       (  0.0000000 )
                  (  0.0000000  0.0000000 -1.0000000 )       (  0.4504976 )

[...]

      isym = 12     inv. 180 deg rotation - cryst. axis [2,1,0]

 cryst.   s(12) = (    -1         -1          0      )    f =(  0.0000000 )
                  (     0          1          0      )       ( -0.0000000 )
                  (     0          0          1      )       ( -0.5000000 )

 cart.    s(12) = ( -0.4999999 -0.8660256  0.0000000 )    f =(  0.0000000 )
                  ( -0.8660254  0.4999999  0.0000000 )       ( -0.0000000 )
                  (  0.0000000  0.0000000  1.0000000 )       ( -0.4504976 )

   Cartesian axes

     site n.     atom                  positions (alat units)
         1           Mg  tau(   1) = (   0.2780240   0.0000000   0.0000000  )
         2           Mg  tau(   2) = (   0.3609879   0.6252495   0.4504976  )
         3           Mg  tau(   3) = (   0.8609880   0.2407758   0.4504976  )
         4           Mg  tau(   4) = (   0.8609880   0.2407758   0.0000000  )
         5           Mg  tau(   5) = (   0.3609879   0.6252495   0.0000000  )
         6           Mg  tau(   6) = (   0.2780240   0.0000000   0.4504976  )
         7           Mg  tau(   7) = (   0.6173675   0.0187191   0.2252488  )
         8           Mg  tau(   8) = (   0.2075285   0.3220099   0.2252488  )
         9           Mg  tau(   9) = (   0.6751054   0.5252955   0.2252488  )
        10           Mg  tau(  10) = (   0.1173664   0.8473062   0.6757463  )
        11           Mg  tau(  11) = (   0.1751045   0.3407299   0.6757463  )
        12           Mg  tau(  12) = (  -0.2924726   0.5440155   0.6757463  )
        13           Ga  tau(  13) = (   0.0000000   0.0000000   0.2252488  )
        14           Ga  tau(  14) = (   0.0000000   0.0000000   0.6757463  )
        15           Ga  tau(  15) = (  -0.0000006   0.5773505   0.0302158  )
        16           Ga  tau(  16) = (  -0.0000006   0.5773505   0.4202818  )
        17           Ga  tau(  17) = (   0.5000005   0.2886748   0.8707793  )
        18           Ga  tau(  18) = (   0.5000005   0.2886748   0.4807133  )

   Crystallographic axes

     site n.     atom                  positions (cryst. coord.)
         1           Mg  tau(   1) = (  0.2780240  0.0000000  0.0000000  )
         2           Mg  tau(   2) = (  0.7219760  0.7219760  0.5000000  )
         3           Mg  tau(   3) = (  1.0000000  0.2780240  0.5000000  )
         4           Mg  tau(   4) = (  1.0000000  0.2780240  0.0000000  )
         5           Mg  tau(   5) = (  0.7219760  0.7219760  0.0000000  )
         6           Mg  tau(   6) = (  0.2780240  0.0000000  0.5000000  )
         7           Mg  tau(   7) = (  0.6281750  0.0216150  0.2500000  )
         8           Mg  tau(   8) = (  0.3934410  0.3718250  0.2500000  )
         9           Mg  tau(   9) = (  0.9783850  0.6065590  0.2500000  )
        10           Mg  tau(  10) = (  0.6065590  0.9783850  0.7500000  )
        11           Mg  tau(  11) = (  0.3718250  0.3934410  0.7500000  )
        12           Mg  tau(  12) = (  0.0216150  0.6281750  0.7500000  )
        13           Ga  tau(  13) = (  0.0000000  0.0000000  0.2500000  )
        14           Ga  tau(  14) = (  0.0000000  0.0000000  0.7500000  )
        15           Ga  tau(  15) = (  0.3333330  0.6666670  0.0335360  )
        16           Ga  tau(  16) = (  0.3333330  0.6666670  0.4664640  )
        17           Ga  tau(  17) = (  0.6666670  0.3333330  0.9664640  )
        18           Ga  tau(  18) = (  0.6666670  0.3333330  0.5335360  )

     number of k points=     1  Methfessel-Paxton smearing, width (Ry)=  0.0010
                       cart. coord. in units 2pi/alat
        k(    1) = (   0.0000000   0.0000000   0.0000000), wk =   2.0000000

                       cryst. coord.
        k(    1) = (   0.0000000   0.0000000   0.0000000), wk =   2.0000000

     Initial potential from superposition of free atoms

     starting charge     101.9712, renormalised to     102.0000
     Starting wfcs are  102 randomized atomic wfcs
     Checking if some PAW data can be deallocated...

     Self-consistent Calculation

     iteration #  1     ecut=    30.00 Ry     beta= 0.70
     Davidson diagonalization with overlap

     ethr =  1.00E-02,  avg # of iterations =  2.0

     Threshold (ethr) on eigenvalues was too large:
     Diagonalizing with lowered threshold

     Davidson diagonalization with overlap

[...]

     total energy              =   -2071.45136846 Ry
     estimated scf accuracy    <       0.19673596 Ry

[...]

     total energy              =   -2071.48945783 Ry
     estimated scf accuracy    <       0.00000648 Ry

     iteration #  8     ecut=    30.00 Ry     beta= 0.70
     Davidson diagonalization with overlap

     ethr =  6.35E-09,  avg # of iterations =  5.0

     End of self-consistent calculation

          k = 0.0000 0.0000 0.0000 (  3411 PWs)   bands (ev):

    -9.5045  -9.4851  -9.4851  -9.4544  -9.4544  -9.4324  -9.4132  -9.4132
    -9.4096  -9.4096  -9.1609  -9.1577  -9.1260  -9.1260  -9.1222  -9.1222
    -9.0888  -9.0888  -9.0853  -9.0853  -9.0834  -9.0834  -9.0809  -9.0809
    -9.0773  -9.0773  -9.0749  -9.0749  -9.0594  -9.0546  -3.1678  -1.4946
    -1.1532  -0.4974  -0.4764   0.8575   1.2911   1.2912   1.4477   1.4479
     2.3146   2.3317   3.4487   3.7530   3.7531   3.8709   3.8711   4.6579
     4.6582   5.3611   5.3612   5.9042   5.9042   6.7264   8.1759   8.1759
     8.3785   8.8853   8.9416   8.9418   9.3632

     occupation numbers
     1.0000   1.0000   1.0000   1.0000   1.0000   1.0000   1.0000   1.0000
     1.0000   1.0000   1.0000   1.0000   1.0000   1.0000   1.0000   1.0000
     1.0000   1.0000   1.0000   1.0000   1.0000   1.0000   1.0000   1.0000
     1.0000   1.0000   1.0000   1.0000   1.0000   1.0000   1.0000   1.0000
     1.0000   1.0000   1.0000   1.0000   1.0000   1.0000   1.0000   1.0000
     1.0000   1.0000   1.0000   1.0000   1.0000   1.0000   1.0000   1.0000
     1.0000   1.0000   1.0000  -0.0000  -0.0000  -0.0000  -0.0000  -0.0000
    -0.0000  -0.0000  -0.0000  -0.0000  -0.0000

     the Fermi energy is     5.6114 ev

!    total energy              =   -2071.48946043 Ry

     total all-electron energy =    -28137.127926 Ry
     estimated scf accuracy    <       0.00000080 Ry
     smearing contrib. (-TS)   =       0.00000000 Ry
     internal energy E=F+TS    =   -2071.48946043 Ry

     The total energy is F=E-TS. E is the sum of the following terms:
     one-electron contribution =    -810.98470807 Ry
     hartree contribution      =     487.01279432 Ry
     xc contribution           =    -247.84944328 Ry
     ewald contribution        =    -458.68652251 Ry
     one-center paw contrib.   =   -1040.98158089 Ry
      -> PAW hartree energy AE =       0.90312349 Ry
      -> PAW hartree energy PS =      -0.90101084 Ry
      -> PAW xc energy AE      =     -32.67429369 Ry
      -> PAW xc energy PS      =       1.36842747 Ry
      -> total E_H with PAW    =     487.01490697 Ry
      -> total E_XC with PAW   =    -279.15530951 Ry

     convergence has been achieved in   8 iterations

     Forces acting on atoms (cartesian axes, Ry/au):

     atom    1 type  1   force =     0.01102710    0.00000000    0.00000000
     atom    2 type  1   force =    -0.00551355   -0.00954975    0.00000000
     atom    3 type  1   force =    -0.00551355    0.00954975    0.00000000
     atom    4 type  1   force =    -0.00551355    0.00954975   -0.00000000
     atom    5 type  1   force =    -0.00551355   -0.00954975    0.00000000
     atom    6 type  1   force =     0.01102710    0.00000000    0.00000000
     atom    7 type  1   force =    -0.00291854   -0.01393543   -0.00000000
     atom    8 type  1   force =    -0.01060917    0.00949525    0.00000000
     atom    9 type  1   force =     0.01352771    0.00444019   -0.00000000
     atom   10 type  1   force =    -0.00291854    0.01393543    0.00000000
     atom   11 type  1   force =     0.01352771   -0.00444018    0.00000000
     atom   12 type  1   force =    -0.01060917   -0.00949525    0.00000000
     atom   13 type  2   force =     0.00000000   -0.00000000    0.00000000
     atom   14 type  2   force =    -0.00000000    0.00000000    0.00000000
     atom   15 type  2   force =    -0.00000000    0.00000000    0.05977487
     atom   16 type  2   force =     0.00000000    0.00000000   -0.05977487
     atom   17 type  2   force =    -0.00000000    0.00000000   -0.05977487
     atom   18 type  2   force =     0.00000000    0.00000000    0.05977487
     The non-local contrib.  to forces
     atom    1 type  1   force =    -0.00589811   -0.00000000    0.00000000
     atom    2 type  1   force =     0.00294905    0.00510791    0.00000000
     atom    3 type  1   force =     0.00294905   -0.00510791    0.00000000
     atom    4 type  1   force =     0.00294905   -0.00510791    0.00000000
     atom    5 type  1   force =     0.00294905    0.00510791    0.00000000
     atom    6 type  1   force =    -0.00589811   -0.00000000   -0.00000000
     atom    7 type  1   force =    -0.01147049    0.03934404   -0.00000000
     atom    8 type  1   force =     0.03980818   -0.00973828    0.00000000
     atom    9 type  1   force =    -0.02833769   -0.02960576    0.00000000
     atom   10 type  1   force =    -0.01147049   -0.03934404   -0.00000000
     atom   11 type  1   force =    -0.02833769    0.02960575   -0.00000000
     atom   12 type  1   force =     0.03980818    0.00973829   -0.00000000
     atom   13 type  2   force =     0.00000000    0.00000000    0.00000000
     atom   14 type  2   force =     0.00000000   -0.00000000   -0.00000000
     atom   15 type  2   force =     0.00000000    0.00000000   -0.23620928
     atom   16 type  2   force =    -0.00000000    0.00000000    0.23620928
     atom   17 type  2   force =     0.00000000    0.00000000    0.23620928
     atom   18 type  2   force =     0.00000000    0.00000000   -0.23620928
     The ionic contribution  to forces
     atom    1 type  1   force =     0.35501982    0.00000878   -0.00000054
     atom    2 type  1   force =    -0.17751798   -0.30747019   -0.00000000
     atom    3 type  1   force =    -0.17750234    0.30746056   -0.00000054
     atom    4 type  1   force =    -0.17750234    0.30746056    0.00000054
     atom    5 type  1   force =    -0.17751798   -0.30747019    0.00000000
     atom    6 type  1   force =     0.35501982    0.00000878    0.00000054
     atom    7 type  1   force =     0.04629529    0.30844651   -0.00000000
     atom    8 type  1   force =     0.24397157   -0.19430440   -0.00000000
     atom    9 type  1   force =    -0.29028531   -0.11413047   -0.00000000
     atom   10 type  1   force =     0.04630280   -0.30845968    0.00000000
     atom   11 type  1   force =    -0.29025835    0.11413335    0.00000000
     atom   12 type  1   force =     0.24397485    0.19431617    0.00000000
     atom   13 type  2   force =     0.00000274   -0.00000152   -0.00000000
     atom   14 type  2   force =    -0.00000269    0.00000162    0.00000000
     atom   15 type  2   force =     0.00004974   -0.00002867   -3.52014763
     atom   16 type  2   force =     0.00004974   -0.00002867    3.52014763
     atom   17 type  2   force =    -0.00004970    0.00002874    3.52014763
     atom   18 type  2   force =    -0.00004970    0.00002874   -3.52014763
     The local contribution  to forces
     atom    1 type  1   force =    -0.33840997    0.00000094    0.00002828
     atom    2 type  1   force =     0.16920938    0.29305109   -0.00003755
     atom    3 type  1   force =     0.16922797   -0.29305105   -0.00005543
     atom    4 type  1   force =     0.16926342   -0.29307134    0.00005056
     atom    5 type  1   force =     0.16921993    0.29308994    0.00003395
     atom    6 type  1   force =    -0.33836990    0.00001094   -0.00002985
     atom    7 type  1   force =    -0.03913692   -0.35767530    0.00004227
     atom    8 type  1   force =    -0.29022711    0.21254511    0.00003612
     atom    9 type  1   force =     0.32932452    0.14509798    0.00003767
     atom   10 type  1   force =    -0.03920342    0.35767511   -0.00003681
     atom   11 type  1   force =     0.32929149   -0.14506450   -0.00002947
     atom   12 type  1   force =    -0.29016042   -0.21259764   -0.00002999
     atom   13 type  2   force =     0.00045599   -0.00009388   -0.00007294
     atom   14 type  2   force =     0.00009486    0.00055621    0.00006100
     atom   15 type  2   force =    -0.00007561    0.00078979    3.81502326
     atom   16 type  2   force =    -0.00013697    0.00006537   -3.81448727
     atom   17 type  2   force =     0.00002546    0.00007299   -3.81496445
     atom   18 type  2   force =    -0.00019437   -0.00060303    3.81472129
     The core correction contribution to forces
     atom    1 type  1   force =     0.00029125   -0.00000015    0.00000019
     atom    2 type  1   force =    -0.00014613   -0.00025371   -0.00000071
     atom    3 type  1   force =    -0.00014510    0.00025364   -0.00000164
     atom    4 type  1   force =    -0.00014394    0.00025254    0.00000114
     atom    5 type  1   force =    -0.00014554   -0.00025222    0.00000037
     atom    6 type  1   force =     0.00029309    0.00000036   -0.00000022
     atom    7 type  1   force =     0.00132194   -0.00404423    0.00000083
     atom    8 type  1   force =    -0.00416494    0.00087247    0.00000086
     atom    9 type  1   force =     0.00284119    0.00317169    0.00000069
     atom   10 type  1   force =     0.00132006    0.00404362   -0.00000055
     atom   11 type  1   force =     0.00284030   -0.00317019   -0.00000037
     atom   12 type  1   force =    -0.00416249   -0.00087350   -0.00000012
     atom   13 type  2   force =    -0.00000372   -0.00000719   -0.00000309
     atom   14 type  2   force =    -0.00001468    0.00001325    0.00000346
     atom   15 type  2   force =     0.00000538    0.00001544    0.00080204
     atom   16 type  2   force =     0.00000338   -0.00000549   -0.00079063
     atom   17 type  2   force =     0.00000934    0.00001219   -0.00079910
     atom   18 type  2   force =     0.00000221   -0.00000600    0.00079750
     The Hubbard contrib.    to forces
     atom    1 type  1   force =     0.00000000    0.00000000    0.00000000
     atom    2 type  1   force =     0.00000000    0.00000000    0.00000000
     atom    3 type  1   force =     0.00000000    0.00000000    0.00000000
     atom    4 type  1   force =     0.00000000    0.00000000    0.00000000
     atom    5 type  1   force =     0.00000000    0.00000000    0.00000000
     atom    6 type  1   force =     0.00000000    0.00000000    0.00000000
     atom    7 type  1   force =     0.00000000    0.00000000    0.00000000
     atom    8 type  1   force =     0.00000000    0.00000000    0.00000000
     atom    9 type  1   force =     0.00000000    0.00000000    0.00000000
     atom   10 type  1   force =     0.00000000    0.00000000    0.00000000
     atom   11 type  1   force =     0.00000000    0.00000000    0.00000000
     atom   12 type  1   force =     0.00000000    0.00000000    0.00000000
     atom   13 type  2   force =     0.00000000    0.00000000    0.00000000
     atom   14 type  2   force =     0.00000000    0.00000000    0.00000000
     atom   15 type  2   force =     0.00000000    0.00000000    0.00000000
     atom   16 type  2   force =     0.00000000    0.00000000    0.00000000
     atom   17 type  2   force =     0.00000000    0.00000000    0.00000000
     atom   18 type  2   force =     0.00000000    0.00000000    0.00000000
     The SCF correction term to forces
     atom    1 type  1   force =     0.00001575   -0.00001253   -0.00002806
     atom    2 type  1   force =    -0.00001313    0.00000403    0.00003193
     atom    3 type  1   force =    -0.00003706    0.00000422    0.00004032
     atom    4 type  1   force =    -0.00005763    0.00001258   -0.00004025
     atom    5 type  1   force =    -0.00001719   -0.00001620   -0.00003155
     atom    6 type  1   force =    -0.00000444   -0.00001762    0.00002853
     atom    7 type  1   force =     0.00005385   -0.00001091   -0.00003616
     atom    8 type  1   force =    -0.00000494    0.00009638   -0.00003068
     atom    9 type  1   force =    -0.00000701   -0.00006212   -0.00003358
     atom   10 type  1   force =     0.00009346    0.00001539    0.00003426
     atom   11 type  1   force =    -0.00000614    0.00004478    0.00002915
     atom   12 type  1   force =    -0.00004902   -0.00006593    0.00003127
     atom   13 type  2   force =    -0.00058102    0.00028945    0.00014223
     atom   14 type  2   force =    -0.00004987   -0.00089080   -0.00004571
     atom   15 type  2   force =     0.00001068   -0.00117938    0.00014728
     atom   16 type  2   force =     0.00014157    0.00000136   -0.00106036
     atom   17 type  2   force =    -0.00006281   -0.00022918   -0.00032172
     atom   18 type  2   force =     0.00029085    0.00084742    0.00061225

     Total force =     0.127428     Total SCF correction =     0.002278

     Computing stress (Cartesian axis) and pressure

          total   stress  (Ry/bohr**3)                   (kbar)     P=      -24.16
  -0.00046462  -0.00000000   0.00000000          -68.35       -0.00        0.00
  -0.00000000  -0.00046462   0.00000000           -0.00      -68.35        0.00
   0.00000000   0.00000000   0.00043656            0.00        0.00       64.22

     kinetic stress (kbar)   3719.71      0.00      0.00
                                0.00   3719.71      0.00
                                0.00      0.00   3877.45

     local   stress (kbar)   -810.72     -0.01      0.00
                               -0.01   -810.70     -0.00
                                0.00     -0.00  -6955.20

     nonloc. stress (kbar)   1545.05      0.00     -0.00
                                0.00   1545.05      0.00
                               -0.00      0.00   1484.41

     hartree stress (kbar)   8629.76      0.00     -0.00
                                0.00   8629.75      0.00
                               -0.00      0.00  11660.38

     exc-cor stress (kbar)   2672.89      0.00     -0.00
                                0.00   2672.89      0.00
                               -0.00      0.00   2670.03

     corecor stress (kbar)  -5696.38     -0.00     -0.00
                               -0.00  -5696.38     -0.00
                               -0.00     -0.00  -5692.36

     ewald   stress (kbar) -10128.66      0.00      0.00
                                0.00 -10128.66     -0.00
                                0.00     -0.00  -6980.49

     hubbard stress (kbar)      0.00      0.00      0.00
                                0.00      0.00      0.00
                                0.00      0.00      0.00

     DFT-D   stress (kbar)      0.00      0.00      0.00
                                0.00      0.00      0.00
                                0.00      0.00      0.00

     XDM     stress (kbar)      0.00      0.00      0.00
                                0.00      0.00      0.00
                                0.00      0.00      0.00

     dft-nl  stress (kbar)      0.00      0.00      0.00
                                0.00      0.00      0.00
                                0.00      0.00      0.00

     TS-vdW  stress (kbar)      0.00      0.00      0.00
                                0.00      0.00      0.00
                                0.00      0.00      0.00

[...]

                                0.00      0.00      0.00

     Writing all to output data dir calculations/myprefix.save/

     General routines

     Parallel routines

     PAW routines

   This run was terminated on:  16: 4: 4   3Mar2023

   JOB DONE.