     Program PWSCF v.7.0 starts on  4Mar2023 at 20:32:33

     R & G space division:  proc/nbgrp/npool/nimage =      32

     Reading input from espresso_7581.pwi
Warning: card &CELL ignored
Warning: card / ignored

     Current dimensions of program PWSCF are:
     Max number of different atomic species (ntypx) = 10
     Max number of k-points (npk) =  40000
     Max angular momentum in pseudopotentials (lmaxx) =  4

     gamma-point specific algorithms are used
     Message from routine setup:
     using ibrav=0 with symmetry is DISCOURAGED, use correct ibrav instead

     Using Slab Decomposition

     bravais-lattice index     =            0
     lattice parameter (alat)  =       8.8130  a.u.
     unit-cell volume          =     484.0089 (a.u.)^3
     number of atoms/cell      =            4
     number of atomic types    =            3
     number of electrons       =        68.00
     number of Kohn-Sham states=           41
     kinetic-energy cutoff     =      30.0000  Ry
     charge density cutoff     =     240.0000  Ry
     scf convergence threshold =      1.0E-06
     mixing beta               =       0.7000
     number of iterations used =            8  plain     mixing
     Exchange-correlation= PBE
                           (   1   4   3   4   0   0   0)

     celldm(1)=   8.812980  celldm(2)=   0.000000  celldm(3)=   0.000000
     celldm(4)=   0.000000  celldm(5)=   0.000000  celldm(6)=   0.000000

     crystal axes: (cart. coord. in units of alat)
               a(1) = (   1.000000   0.000000   0.000000 )
               a(2) = (   0.500000   0.866025   0.000000 )
               a(3) = (   0.500000   0.288675   0.816497 )

     reciprocal axes: (cart. coord. in units 2 pi/alat)
               b(1) = (  1.000000 -0.577350 -0.408248 )
               b(2) = (  0.000000  1.154701 -0.408248 )
               b(3) = (  0.000000  0.000000  1.224745 )

     PseudoPot. # 1 for Tl read from file:
     /home/pragov/projects/rrg-bengioy-ad/pragov/crystal_structure_design/SSSP/Tl_pbe_v1.2.uspp.F.UPF
     MD5 check sum: b76cf1f7e72655a2b2c53cf6385d7059
     Pseudo is Ultrasoft + core correction, Zval = 13.0
     Generated by new atomic code, or converted to UPF format
     Using radial grid of  899 points,  6 beta functions with:
                l(1) =   0
                l(2) =   0
                l(3) =   1
                l(4) =   1
                l(5) =   2
                l(6) =   2
     Q(r) pseudized with  6 coefficients,  rinner =    1.100   1.100   1.100
                                                       1.100   1.100

     PseudoPot. # 2 for Ag read from file:
     /home/pragov/projects/rrg-bengioy-ad/pragov/crystal_structure_design/SSSP/Ag_ONCV_PBE-1.0.oncvpsp.upf
     MD5 check sum: 94f47bd0669c641108e45594df92fabc
     Pseudo is Norm-conserving, Zval = 19.0
     Generated using ONCVPSP code by D. R. Hamann
     Using radial grid of 1398 points,  6 beta functions with:
                l(1) =   0
                l(2) =   0
                l(3) =   1
                l(4) =   1
                l(5) =   2
                l(6) =   2

     PseudoPot. # 3 for Pd read from file:
     /home/pragov/projects/rrg-bengioy-ad/pragov/crystal_structure_design/SSSP/Pd_ONCV_PBE-1.0.oncvpsp.upf
     MD5 check sum: eb77f42b51d86fb18e25f68156a31cf1
     Pseudo is Norm-conserving, Zval = 18.0
     Generated using ONCVPSP code by D. R. Hamann
     Using radial grid of 1410 points,  6 beta functions with:
                l(1) =   0
                l(2) =   0
                l(3) =   1
                l(4) =   1
                l(5) =   2
                l(6) =   2

     atomic species   valence    mass     pseudopotential
        Tl            13.00   204.38000     Tl( 1.00)
        Ag            19.00   107.86820     Ag( 1.00)
        Pd            18.00   106.42000     Pd( 1.00)

     12 Sym. Ops., with inversion, found ( 6 have fractional translation)

                                    s                        frac. trans.

      isym =  1     identity

 cryst.   s( 1) = (     1          0          0      )
                  (     0          1          0      )
                  (     0          0          1      )

 cart.    s( 1) = (  1.0000000  0.0000000  0.0000000 )
                  (  0.0000000  1.0000000 -0.0000000 )
                  (  0.0000000  0.0000000  1.0000000 )

      isym =  2     180 deg rotation - cart. axis [1,0,0]

 cryst.   s( 2) = (     1          0          0      )    f =(  0.4999980 )
                  (     1         -1          0      )       ( -0.4999980 )
                  (     1          0         -1      )       ( -0.4999980 )

 cart.    s( 2) = (  1.0000000  0.0000000  0.0000000 )    f =(  0.0000000 )
                  (  0.0000000 -1.0000000  0.0000000 )       ( -0.5773480 )
                  (  0.0000000  0.0000000 -1.0000000 )       ( -0.4082467 )

      isym =  3     120 deg rotation - cryst. axis [0,0,1]

[...]

      isym =  6     180 deg rotation - cryst. axis [1,1,0]

[...]

      isym =  7     inversion

[...]

      isym =  8     inv. 180 deg rotation - cart. axis [1,0,0]

 cryst.   s( 8) = (    -1          0          0      )
                  (    -1          1          0      )
                  (    -1          0          1      )

 cart.    s( 8) = ( -1.0000000  0.0000000  0.0000000 )
                  (  0.0000000  1.0000000 -0.0000000 )
                  (  0.0000000  0.0000000  1.0000000 )

      isym =  9     inv. 120 deg rotation - cryst. axis [0,0,1]

 cryst.   s( 9) = (     1         -1          0      )    f =(  0.4999980 )
                  (     1          0          0      )       ( -0.4999980 )
                  (     1          0         -1      )       ( -0.4999980 )

 cart.    s( 9) = (  0.5000000  0.8660254  0.0000000 )    f =( -0.0000000 )
                  ( -0.8660254  0.5000000 -0.0000000 )       ( -0.5773480 )
                  (  0.0000000  0.0000000 -1.0000000 )       ( -0.4082467 )

[...]

 cryst.   s(10) = (     0          1          0      )    f =( -0.4999980 )
                  (    -1          1          0      )       (  0.4999980 )
                  (     0          1         -1      )       ( -0.4999980 )

 cart.    s(10) = (  0.5000000 -0.8660254  0.0000000 )    f =( -0.4999980 )
                  (  0.8660254  0.5000000 -0.0000000 )       (  0.2886740 )
                  (  0.0000000  0.0000000 -1.0000000 )       ( -0.4082467 )

[...]

 cryst.   s(11) = (     0          1          0      )
                  (     1          0          0      )
                  (     0          0          1      )

 cart.    s(11) = (  0.5000000  0.8660254  0.0000000 )
                  (  0.8660254 -0.5000000  0.0000000 )
                  (  0.0000000  0.0000000  1.0000000 )

      isym = 12     inv. 180 deg rotation - cryst. axis [1,1,0]

 cryst.   s(12) = (     1         -1          0      )
                  (     0         -1          0      )
                  (     0         -1          1      )

 cart.    s(12) = (  0.5000000 -0.8660254  0.0000000 )
                  ( -0.8660254 -0.5000000  0.0000000 )
                  (  0.0000000  0.0000000  1.0000000 )

   Cartesian axes

     site n.     atom                  positions (alat units)
         1           Tl  tau(   1) = (   1.4999980   0.8660242   0.6123716  )
         2           Ag  tau(   2) = (   0.5000000   0.2886751   0.2041241  )
         3           Pd  tau(   3) = (   0.0000000   0.0000000   0.0000000  )
         4           Pd  tau(   4) = (   0.9999980   0.5773491   0.4082475  )

   Crystallographic axes

     site n.     atom                  positions (cryst. coord.)
         1           Tl  tau(   1) = (  0.7499990  0.7499990  0.7499990  )
         2           Ag  tau(   2) = (  0.2500000  0.2500000  0.2500000  )
         3           Pd  tau(   3) = (  0.0000000  0.0000000  0.0000000  )
         4           Pd  tau(   4) = (  0.4999990  0.4999990  0.4999990  )

     number of k points=     1  Methfessel-Paxton smearing, width (Ry)=  0.0010
                       cart. coord. in units 2pi/alat
        k(    1) = (   0.0000000   0.0000000   0.0000000), wk =   2.0000000

                       cryst. coord.
        k(    1) = (   0.0000000   0.0000000   0.0000000), wk =   2.0000000

     Check: negative core charge=   -0.000006

     Initial potential from superposition of free atoms

     starting charge      67.9941, renormalised to      68.0000

     negative rho (up, down):  5.014E-02 0.000E+00
     Starting wfcs are   39 randomized atomic wfcs +    2 random wfcs

     Self-consistent Calculation

     iteration #  1     ecut=    30.00 Ry     beta= 0.70
     Davidson diagonalization with overlap

     ethr =  1.00E-02,  avg # of iterations =  3.0

     Threshold (ethr) on eigenvalues was too large:
     Diagonalizing with lowered threshold

     Davidson diagonalization with overlap

[...]

     negative rho (up, down):  4.603E-02 0.000E+00

     total energy              =    -937.59542561 Ry
     estimated scf accuracy    <       0.43549901 Ry

[...]

     total energy              =    -937.77006000 Ry
     estimated scf accuracy    <       0.00000196 Ry

     iteration #  9     ecut=    30.00 Ry     beta= 0.70
     Davidson diagonalization with overlap

     ethr =  2.88E-09,  avg # of iterations =  2.0

[...]

     End of self-consistent calculation

          k = 0.0000 0.0000 0.0000 (   682 PWs)   bands (ev):

   -75.5506 -67.5276 -67.5239 -38.6470 -38.6470 -38.6469 -33.0080 -33.0080
   -33.0080 -32.9834 -32.9834 -32.9834   6.2677   6.2677   6.2677   6.3245
     6.3245   8.0303  12.6173  12.6173  12.7164  12.7164  12.7164  13.3101
    13.3101  13.3101  14.9772  14.9772  15.7501  15.7501  15.7501  16.1739
    16.1739  18.7049  22.3431  22.3431  22.3431  23.1306  23.1306  23.1306
    23.1637

     occupation numbers
     1.0000   1.0000   1.0000   1.0000   1.0000   1.0000   1.0000   1.0000
     1.0000   1.0000   1.0000   1.0000   1.0000   1.0000   1.0000   1.0000
     1.0000   1.0000   1.0000   1.0000   1.0000   1.0000   1.0000   1.0000
     1.0000   1.0000   1.0000   1.0000   1.0000   1.0000   1.0000   1.0000
     1.0000   1.0000  -0.0000  -0.0000  -0.0000  -0.0000  -0.0000  -0.0000
    -0.0000

     the Fermi energy is    20.2064 ev

!    total energy              =    -937.77006014 Ry
     estimated scf accuracy    <       0.00000013 Ry
     smearing contrib. (-TS)   =       0.00000000 Ry
     internal energy E=F+TS    =    -937.77006014 Ry

     The total energy is F=E-TS. E is the sum of the following terms:
     one-electron contribution =    -319.18848525 Ry
     hartree contribution      =     202.09159177 Ry
     xc contribution           =    -139.23160064 Ry
     ewald contribution        =    -681.44156601 Ry

     convergence has been achieved in   9 iterations

     negative rho (up, down):  4.529E-02 0.000E+00

     Forces acting on atoms (cartesian axes, Ry/au):

     atom    1 type  1   force =     0.00000000    0.00000000    0.00000000
     atom    2 type  2   force =     0.00000000    0.00000000    0.00000000
     atom    3 type  3   force =     0.00000000    0.00000000    0.00000085
     atom    4 type  3   force =     0.00000000    0.00000000   -0.00000085
     The non-local contrib.  to forces
     atom    1 type  1   force =     0.00000000   -0.00000000    0.00000000
     atom    2 type  2   force =    -0.00000000   -0.00000000    0.00000000
     atom    3 type  3   force =     0.00000000    0.00000000   -0.00000653
     atom    4 type  3   force =     0.00000000    0.00000000    0.00000653
     The ionic contribution  to forces
     atom    1 type  1   force =     0.00014674    0.00008472    0.00005991
     atom    2 type  2   force =    -0.00017970   -0.00010375   -0.00007336
     atom    3 type  3   force =    -0.00017024   -0.00009828   -0.00006950
     atom    4 type  3   force =     0.00020319    0.00011731    0.00008295
     The local contribution  to forces
     atom    1 type  1   force =    -0.00011107   -0.00006353   -0.00006340
     atom    2 type  2   force =     0.00014233    0.00008490    0.00009469
     atom    3 type  3   force =     0.00015273    0.00010014    0.00005473
     atom    4 type  3   force =    -0.00020651   -0.00012072   -0.00006783
     The core correction contribution to forces
     atom    1 type  1   force =     0.00000021    0.00000103   -0.00000069
     atom    2 type  2   force =     0.00000000    0.00000000    0.00000000
     atom    3 type  3   force =     0.00000000    0.00000000    0.00000000
     atom    4 type  3   force =     0.00000000    0.00000000    0.00000000
     The Hubbard contrib.    to forces
     atom    1 type  1   force =     0.00000000    0.00000000    0.00000000
     atom    2 type  2   force =     0.00000000    0.00000000    0.00000000
     atom    3 type  3   force =     0.00000000    0.00000000    0.00000000
     atom    4 type  3   force =     0.00000000    0.00000000    0.00000000
     The SCF correction term to forces
     atom    1 type  1   force =    -0.00002632   -0.00001539    0.00001055
     atom    2 type  2   force =     0.00003943    0.00001382   -0.00003834
     atom    3 type  3   force =     0.00002717   -0.00000181    0.00002452
     atom    4 type  3   force =    -0.00000238    0.00000129   -0.00002014

     Total force =     0.000001     Total SCF correction =     0.000078
     SCF correction compared to forces is large: reduce conv_thr to get better values

     Computing stress (Cartesian axis) and pressure

     negative rho (up, down):  4.529E-02 0.000E+00
          total   stress  (Ry/bohr**3)                   (kbar)     P=     -768.96
  -0.00522731  -0.00000000  -0.00000000         -768.96       -0.00       -0.00
  -0.00000000  -0.00522731  -0.00000000           -0.00     -768.96       -0.00
  -0.00000000   0.00000000  -0.00522728           -0.00        0.00     -768.96

     kinetic stress (kbar)  56623.00      0.00     -0.00
                                0.00  56623.00     -0.00
                               -0.00     -0.00  56622.98

     local   stress (kbar)  -7430.63     -0.12     -0.07
                               -0.12  -7430.49     -0.05
                               -0.07     -0.05  -7430.46

     nonloc. stress (kbar)   8574.99     -0.00     -0.00
                               -0.00   8574.99      0.00
                               -0.00      0.00   8575.01

     hartree stress (kbar)  20473.98      0.05      0.04
                                0.05  20473.92      0.02
                                0.04      0.02  20473.91

     exc-cor stress (kbar)   4733.68     -0.00     -0.00
                               -0.00   4733.68      0.00
                               -0.00      0.00   4733.68

     corecor stress (kbar) -14707.07      0.00      0.00
                                0.00 -14707.07     -0.00
                                0.00     -0.00 -14707.07

     ewald   stress (kbar) -69036.92      0.06      0.04
                                0.06 -69036.99      0.02
                                0.04      0.02 -69037.00

     hubbard stress (kbar)      0.00      0.00      0.00
                                0.00      0.00      0.00
                                0.00      0.00      0.00

     DFT-D   stress (kbar)      0.00      0.00      0.00
                                0.00      0.00      0.00
                                0.00      0.00      0.00

     XDM     stress (kbar)      0.00      0.00      0.00
                                0.00      0.00      0.00
                                0.00      0.00      0.00

     dft-nl  stress (kbar)      0.00      0.00      0.00
                                0.00      0.00      0.00
                                0.00      0.00      0.00

     TS-vdW  stress (kbar)      0.00      0.00      0.00
                                0.00      0.00      0.00
                                0.00      0.00      0.00

[...]

                                0.00      0.00      0.00

     Writing all to output data dir calculations/myprefix.save/

     General routines

     Parallel routines

   This run was terminated on:  20:32:35   4Mar2023

   JOB DONE.