     Program PWSCF v.7.0 starts on  3Mar2023 at 13:31: 5

     R & G space division:  proc/nbgrp/npool/nimage =      32

     Reading input from espresso_440.pwi
Warning: card &CELL ignored
Warning: card / ignored

     Current dimensions of program PWSCF are:
     Max number of different atomic species (ntypx) = 10
     Max number of k-points (npk) =  40000
     Max angular momentum in pseudopotentials (lmaxx) =  4
     file O.pbe-n-kjpaw_psl.0.1.UPF: wavefunction(s)  2P renormalized

     gamma-point specific algorithms are used

     Using Slab Decomposition

     bravais-lattice index     =            0
     lattice parameter (alat)  =      17.8833  a.u.
     unit-cell volume          =    1784.4025 (a.u.)^3
     number of atoms/cell      =           20
     number of atomic types    =            3
     number of electrons       =       200.00
     number of Kohn-Sham states=          120
     kinetic-energy cutoff     =      30.0000  Ry
     charge density cutoff     =     240.0000  Ry
     scf convergence threshold =      1.0E-06
     mixing beta               =       0.7000
     number of iterations used =            8  plain     mixing
     Exchange-correlation= SLA  PW   PBX  PBC
                           (   1   4   3   4   0   0   0)

     celldm(1)=  17.883336  celldm(2)=   0.000000  celldm(3)=   0.000000
     celldm(4)=   0.000000  celldm(5)=   0.000000  celldm(6)=   0.000000

     crystal axes: (cart. coord. in units of alat)
               a(1) = (   1.000000   0.000000   0.000000 )
               a(2) = (   0.926832   0.375477   0.000000 )
               a(3) = (   0.221092   0.043084   0.830929 )

     reciprocal axes: (cart. coord. in units 2 pi/alat)
               b(1) = (  1.000000 -2.468413 -0.138091 )
               b(2) = (  0.000000  2.663281 -0.138091 )
               b(3) = (  0.000000  0.000000  1.203472 )

     PseudoPot. # 1 for V  read from file:
     /home/pragov/projects/rrg-bengioy-ad/pragov/crystal_structure_design/SSSP/v_pbe_v1.4.uspp.F.UPF
     MD5 check sum: 22b79981416ebb76fdaf5b1b8640f6fb
     Pseudo is Ultrasoft + core correction, Zval = 13.0
     Generated by new atomic code, or converted to UPF format
     Using radial grid of  853 points,  6 beta functions with:
                l(1) =   0
                l(2) =   0
                l(3) =   1
                l(4) =   1
                l(5) =   2
                l(6) =   2
     Q(r) pseudized with  8 coefficients,  rinner =    1.100   1.100   1.100
                                                       1.100   1.100

     PseudoPot. # 2 for Ag read from file:
     /home/pragov/projects/rrg-bengioy-ad/pragov/crystal_structure_design/SSSP/Ag_ONCV_PBE-1.0.oncvpsp.upf
     MD5 check sum: 94f47bd0669c641108e45594df92fabc
     Pseudo is Norm-conserving, Zval = 19.0
     Generated using ONCVPSP code by D. R. Hamann
     Using radial grid of 1398 points,  6 beta functions with:
                l(1) =   0
                l(2) =   0
                l(3) =   1
                l(4) =   1
                l(5) =   2
                l(6) =   2

     PseudoPot. # 3 for O  read from file:
     /home/pragov/projects/rrg-bengioy-ad/pragov/crystal_structure_design/SSSP/O.pbe-n-kjpaw_psl.0.1.UPF
     MD5 check sum: 0234752ac141de4415c5fc33072bef88
     Pseudo is Projector augmented-wave + core cor, Zval =  6.0
     Generated using "atomic" code by A. Dal Corso  v.5.0.99 svn rev. 10869
     Shape of augmentation charge: BESSEL
     Using radial grid of 1095 points,  4 beta functions with:
                l(1) =   0
                l(2) =   0
                l(3) =   1
                l(4) =   1
     Q(r) pseudized with 0 coefficients

     atomic species   valence    mass     pseudopotential
        V             13.00    50.94150     V ( 1.00)
        Ag            19.00   107.86820     Ag( 1.00)
        O              6.00    15.99900     O ( 1.00)

     No symmetry found

                                    s                        frac. trans.

      isym =  1     identity

 cryst.   s( 1) = (     1          0          0      )
                  (     0          1          0      )
                  (     0          0          1      )

 cart.    s( 1) = (  1.0000000 -0.0000000  0.0000000 )
                  (  0.0000000  1.0000000  0.0000000 )
                  (  0.0000000  0.0000000  1.0000000 )

   Cartesian axes

     site n.     atom                  positions (alat units)
         1           V   tau(   1) = (   0.7470349   0.1455728   0.4666367  )
         2           V   tau(   2) = (   1.7366026   0.3384073   0.1912118  )
         3           V   tau(   3) = (   1.4018544   0.2731758   0.3615216  )
         4           V   tau(   4) = (   0.4204697   0.0819359   0.6373145  )
         5           Ag  tau(   5) = (   0.4937212   0.0962102   0.0334108  )
         6           Ag  tau(   6) = (   0.1114651   0.0217209   0.4173775  )
         7           Ag  tau(   7) = (   1.0606162   0.2066796   0.7174394  )
         8           Ag  tau(   8) = (   1.0924200   0.2128771   0.1096411  )
         9           O   tau(   9) = (   1.4113847   0.2750329   0.5852302  )
        10           O   tau(  10) = (   1.4738628   0.2872079   0.1945397  )
        11           O   tau(  11) = (   0.9203074   0.1793379   0.4973129  )
        12           O   tau(  12) = (   0.4530650   0.0882876   0.8161139  )
        13           O   tau(  13) = (   0.7410526   0.1444070   0.2398021  )
        14           O   tau(  14) = (   1.7017740   0.3316203   0.0130423  )
        15           O   tau(  15) = (   1.6775856   0.3269068   0.4094380  )
        16           O   tau(  16) = (   0.6708545   0.1307277   0.6286272  )
        17           O   tau(  17) = (   0.4738245   0.0923330   0.4134647  )
        18           O   tau(  18) = (   1.9154065   0.3732504   0.1976922  )
        19           O   tau(  19) = (   0.2411112   0.0469847   0.6324868  )
        20           O   tau(  20) = (   1.2283231   0.2393602   0.3337686  )

   Crystallographic axes

     site n.     atom                  positions (cryst. coord.)
         1           V   tau(   1) = (  0.3232630  0.3232630  0.5615840  )
         2           V   tau(   2) = (  0.8748690  0.8748690  0.2301180  )
         3           V   tau(   3) = (  0.6776210  0.6776210  0.4350810  )
         4           V   tau(   4) = (  0.1302110  0.1302110  0.7669900  )
         5           Ag  tau(   5) = (  0.2516210  0.2516210  0.0402090  )
         6           Ag  tau(   6) = (  0.0002130  0.0002130  0.5023020  )
         7           Ag  tau(   7) = (  0.4513740  0.4513740  0.8634180  )
         8           Ag  tau(   8) = (  0.5518110  0.5518110  0.1319500  )
         9           O   tau(   9) = (  0.6516750  0.6516750  0.7043080  )
        10           O   tau(  10) = (  0.7380510  0.7380510  0.2341230  )
        11           O   tau(  11) = (  0.4089530  0.4089530  0.5985020  )
        12           O   tau(  12) = (  0.1224370  0.1224370  0.9821700  )
        13           O   tau(  13) = (  0.3514820  0.3514820  0.2885950  )
        14           O   tau(  14) = (  0.8813970  0.8813970  0.0156960  )
        15           O   tau(  15) = (  0.8141050  0.8141050  0.4927470  )
        16           O   tau(  16) = (  0.2613570  0.2613570  0.7565350  )
        17           O   tau(  17) = (  0.1888130  0.1888130  0.4975930  )
        18           O   tau(  18) = (  0.9667710  0.9667710  0.2379170  )
        19           O   tau(  19) = (  0.0377930  0.0377930  0.7611800  )
        20           O   tau(  20) = (  0.5913930  0.5913930  0.4016810  )

     number of k points=     1  Methfessel-Paxton smearing, width (Ry)=  0.0010
                       cart. coord. in units 2pi/alat
        k(    1) = (   0.0000000   0.0000000   0.0000000), wk =   2.0000000

                       cryst. coord.
        k(    1) = (   0.0000000   0.0000000   0.0000000), wk =   2.0000000

     Check: negative core charge=   -0.000015

     Initial potential from superposition of free atoms

     starting charge     199.9939, renormalised to     200.0000

     negative rho (up, down):  1.853E-03 0.000E+00
     Starting wfcs are  128 randomized atomic wfcs
     Checking if some PAW data can be deallocated...

     Self-consistent Calculation

     iteration #  1     ecut=    30.00 Ry     beta= 0.70
     Davidson diagonalization with overlap

     ethr =  1.00E-02,  avg # of iterations =  2.0

     negative rho (up, down):  9.783E-03 0.000E+00

     total energy              =   -2222.86617913 Ry
     estimated scf accuracy    <       8.63973264 Ry

[...]

     total energy              =   -2228.28888072 Ry
     estimated scf accuracy    <       0.00000127 Ry

     iteration # 20     ecut=    30.00 Ry     beta= 0.70
     Davidson diagonalization with overlap

     ethr =  6.34E-10,  avg # of iterations =  1.0

[...]

     End of self-consistent calculation

          k = 0.0000 0.0000 0.0000 (  2461 PWs)   bands (ev):

   -83.0170 -82.9648 -82.5175 -82.5023 -56.4928 -56.4804 -56.2769 -56.2192
   -46.0827 -46.0720 -46.0295 -46.0213 -45.9836 -45.9339 -45.6010 -45.5792
   -45.5587 -45.5520 -45.4935 -45.4918 -30.4373 -30.4320 -30.3572 -30.3510
   -30.2443 -30.2396 -30.2389 -30.1788 -30.1681 -30.1105 -30.0323 -29.9722
   -10.0123  -9.6850  -9.1905  -9.0850  -8.9332  -8.9036  -8.7966  -8.7886
    -8.7409  -8.6804  -8.5996  -8.5455   3.1756   3.3016   3.3663   3.3968
     3.4840   3.4861   3.7022   3.9026   3.9659   4.1758   4.1969   4.2600
     4.2631   4.2787   4.4064   4.6218   4.6548   4.8671   4.9339   4.9820
     5.0278   5.2406   5.3681   5.5173   5.5230   5.6358   5.6700   5.7521
     5.9872   6.0099   6.0385   6.0948   6.1273   6.2514   6.2726   6.3761
     6.3942   6.4404   6.5055   6.5725   6.6029   6.6441   6.6834   6.7902
     6.7947   6.8790   7.0320   7.1470   7.3978   7.4462   7.5039   7.6192
     7.6777   7.7576   7.8209   7.9580  10.0891  10.1258  10.3552  10.6080
    10.6604  10.7648  10.7862  11.0057  11.0452  11.3719  11.5293  11.7528
    11.8706  11.8756  12.0561  12.4995  12.5451  12.5656  12.6771  12.9174

     occupation numbers
     1.0000   1.0000   1.0000   1.0000   1.0000   1.0000   1.0000   1.0000
     1.0000   1.0000   1.0000   1.0000   1.0000   1.0000   1.0000   1.0000
     1.0000   1.0000   1.0000   1.0000   1.0000   1.0000   1.0000   1.0000
     1.0000   1.0000   1.0000   1.0000   1.0000   1.0000   1.0000   1.0000
     1.0000   1.0000   1.0000   1.0000   1.0000   1.0000   1.0000   1.0000
     1.0000   1.0000   1.0000   1.0000   1.0000   1.0000   1.0000   1.0000
     1.0000   1.0000   1.0000   1.0000   1.0000   1.0000   1.0000   1.0000
     1.0000   1.0000   1.0000   1.0000   1.0000   1.0000   1.0000   1.0000
     1.0000   1.0000   1.0000   1.0000   1.0000   1.0000   1.0000   1.0000
     1.0000   1.0000   1.0000   1.0000   1.0000   1.0000   1.0000   1.0000
     1.0000   1.0000   1.0000   1.0000   1.0000   1.0000   1.0000   1.0000
     1.0000   1.0000   1.0000   1.0000   1.0000   1.0000   1.0000   1.0000
     1.0000   1.0000   1.0000   1.0000  -0.0000  -0.0000  -0.0000  -0.0000
    -0.0000  -0.0000  -0.0000  -0.0000  -0.0000  -0.0000  -0.0000  -0.0000
    -0.0000  -0.0000  -0.0000  -0.0000  -0.0000  -0.0000  -0.0000  -0.0000

     the Fermi energy is     8.5438 ev

!    total energy              =   -2228.28888075 Ry
     estimated scf accuracy    <       0.00000016 Ry
     smearing contrib. (-TS)   =       0.00000000 Ry
     internal energy E=F+TS    =   -2228.28888075 Ry

     The total energy is F=E-TS. E is the sum of the following terms:
     one-electron contribution =   -1069.09391180 Ry
     hartree contribution      =     614.13191554 Ry
     xc contribution           =    -274.81667103 Ry
     ewald contribution        =   -1384.17982110 Ry
     one-center paw contrib.   =    -114.33039236 Ry
      -> PAW hartree energy AE =       0.00000000 Ry
      -> PAW hartree energy PS =       0.00000000 Ry
      -> PAW xc energy AE      =       0.00000000 Ry
      -> PAW xc energy PS      =       0.00000000 Ry
      -> total E_H with PAW    =     614.13191554 Ry
      -> total E_XC with PAW   =    -274.81667103 Ry

     convergence has been achieved in  20 iterations

     negative rho (up, down):  5.510E-03 0.000E+00

     Forces acting on atoms (cartesian axes, Ry/au):

     atom    1 type  1   force =     0.11162026    0.02175112    0.20587973
     atom    2 type  1   force =     0.18353647    0.03576530   -0.22675381
     atom    3 type  1   force =    -0.12417423   -0.02419751   -0.22635119
     atom    4 type  1   force =    -0.17326376   -0.03376348    0.22475998
     atom    5 type  2   force =     0.00575215    0.00112092   -0.03169779
     atom    6 type  2   force =     0.00181307    0.00035329    0.00049502
     atom    7 type  2   force =     0.00402073    0.00078353   -0.00811433
     atom    8 type  2   force =    -0.00274780   -0.00053546    0.00666716
     atom    9 type  3   force =     0.08701245    0.01695589   -0.14064591
     atom   10 type  3   force =    -0.02114529   -0.00412052    0.10452195
     atom   11 type  3   force =    -0.06341259   -0.01235704   -0.01584817
     atom   12 type  3   force =     0.01061116    0.00206776   -0.07154236
     atom   13 type  3   force =    -0.11069714   -0.02157127    0.12778322
     atom   14 type  3   force =    -0.00797901   -0.00155484    0.08102711
     atom   15 type  3   force =    -0.06838509   -0.01332603   -0.10358272
     atom   16 type  3   force =     0.01687379    0.00328815   -0.05717576
     atom   17 type  3   force =     0.08932916    0.01740735    0.11512892
     atom   18 type  3   force =    -0.08212699   -0.01600388    0.01532138
     atom   19 type  3   force =     0.08325439    0.01622358   -0.01522278
     atom   20 type  3   force =     0.06010828    0.01171315    0.01535036
     The non-local contrib.  to forces
     atom    1 type  1   force =    -0.07348918   -0.01432067   -0.03400388
     atom    2 type  1   force =    -0.06406698   -0.01248457    0.03029988
     atom    3 type  1   force =     0.07350393    0.01432355    0.03323855
     atom    4 type  1   force =     0.04104515    0.00799834   -0.04526046
     atom    5 type  2   force =     0.09782054    0.01906205    0.13801352
     atom    6 type  2   force =    -0.00868339   -0.00169209    0.00575667
     atom    7 type  2   force =     0.05750952    0.01120672    0.05816520
     atom    8 type  2   force =    -0.05765528   -0.01123509   -0.06016501
     atom    9 type  3   force =    -0.69626569   -0.13567952    0.63195570
     atom   10 type  3   force =    -0.37884014   -0.07382359    0.37751290
     atom   11 type  3   force =    -0.53277150   -0.10381983   -0.10634443
     atom   12 type  3   force =    -0.34179144   -0.06660403   -0.48214163
     atom   13 type  3   force =     0.71621567    0.13956708   -0.62928706
     atom   14 type  3   force =     0.39633661    0.07723312    0.51066820
     atom   15 type  3   force =     0.63079433    0.12292128    0.62085518
     atom   16 type  3   force =     0.38080005    0.07420551   -0.43155135
     atom   17 type  3   force =    -0.65328386   -0.12730376   -0.60836926
     atom   18 type  3   force =    -0.44050068   -0.08583925   -0.03708160
     atom   19 type  3   force =     0.40024716    0.07799516    0.01784255
     atom   20 type  3   force =     0.55781989    0.10870091    0.09786476
     The ionic contribution  to forces
     atom    1 type  1   force =    -0.73717416   -0.14365124    8.40608346
     atom    2 type  1   force =    -4.15828011   -0.81031340   -1.87441909
     atom    3 type  1   force =     0.90415766    0.17619089   -3.36331862
     atom    4 type  1   force =     7.52036269    1.46547382    3.11423051
     atom    5 type  2   force =    -3.13876595   -0.61164328   -8.94469508
     atom    6 type  2   force =    -1.06240937   -0.20702899    0.68009017
     atom    7 type  2   force =    -9.17913392   -1.78871432   -0.07154882
     atom    8 type  2   force =     9.20112829    1.79300030   -2.22476882
     atom    9 type  3   force =     4.53782003    0.88427337    3.70344883
     atom   10 type  3   force =    -0.26039159   -0.05074184   -7.58766717
     atom   11 type  3   force =     3.36565331    0.65585624    4.86747934
     atom   12 type  3   force =     6.05995097    1.18088713    7.04434203
     atom   13 type  3   force =    -2.66088028   -0.51851892   -1.80170121
     atom   14 type  3   force =    -6.85395811   -1.33561326   -9.63100543
     atom   15 type  3   force =    -1.83376188   -0.35734048    4.84969616
     atom   16 type  3   force =     0.17255750    0.03362584    8.39359488
     atom   17 type  3   force =     2.20366586    0.42942272   -2.15917824
     atom   18 type  3   force =     5.42027917    1.05623592   -0.75864861
     atom   19 type  3   force =    -4.87804764   -0.95057265    1.16270030
     atom   20 type  3   force =    -4.62277246   -0.90082783   -3.80471460
     The local contribution  to forces
     atom    1 type  1   force =     0.92132684    0.17953655   -8.16328269
     atom    2 type  1   force =     4.40379110    0.85815548    1.61872312
     atom    3 type  1   force =    -1.10016860   -0.21438695    3.10239682
     atom    4 type  1   force =    -7.73508322   -1.50731595   -2.84767109
     atom    5 type  2   force =     3.04740335    0.59383968    8.77509014
     atom    6 type  2   force =     1.07291747    0.20907682   -0.68430639
     atom    7 type  2   force =     9.12497474    1.77816033    0.00485248
     atom    8 type  2   force =    -9.14603903   -1.78226495    2.29151812
     atom    9 type  3   force =    -3.76277360   -0.73324200   -4.46764332
     atom   10 type  3   force =     0.61478968    0.11980249    7.31548003
     atom   11 type  3   force =    -2.89883485   -0.56488853   -4.77737771
     atom   12 type  3   force =    -5.71083209   -1.11285529   -6.63568166
     atom   13 type  3   force =     1.84226957    0.35899838    2.55035137
     atom   14 type  3   force =     6.45333577    1.25754499    9.20330034
     atom   15 type  3   force =     1.14181340    0.22250228   -5.56572000
     atom   16 type  3   force =    -0.53296479   -0.10385746   -8.02093841
     atom   17 type  3   force =    -1.46856991   -0.28617650    2.87453887
     atom   18 type  3   force =    -5.06377608   -0.98676509    0.81063249
     atom   19 type  3   force =     4.56197212    0.88897982   -1.19560699
     atom   20 type  3   force =     4.12783320    0.80438028    3.72289621
     The core correction contribution to forces
     atom    1 type  1   force =     0.00090157    0.00017569   -0.00259635
     atom    2 type  1   force =     0.00117569    0.00022910   -0.00162927
     atom    3 type  1   force =    -0.00124906   -0.00024340    0.00127203
     atom    4 type  1   force =     0.00034005    0.00006626    0.00277429
     atom    5 type  2   force =     0.00000000    0.00000000    0.00000000
     atom    6 type  2   force =     0.00000000    0.00000000    0.00000000
     atom    7 type  2   force =     0.00000000    0.00000000    0.00000000
     atom    8 type  2   force =     0.00000000    0.00000000    0.00000000
     atom    9 type  3   force =     0.00829438    0.00161630   -0.00855896
     atom   10 type  3   force =     0.00346637    0.00067548   -0.00095081
     atom   11 type  3   force =     0.00242331    0.00047222    0.00059033
     atom   12 type  3   force =     0.00343304    0.00066899    0.00184034
     atom   13 type  3   force =    -0.00854756   -0.00166564    0.00841864
     atom   14 type  3   force =    -0.00389807   -0.00075961   -0.00209998
     atom   15 type  3   force =    -0.00729907   -0.00142235   -0.00832594
     atom   16 type  3   force =    -0.00331790   -0.00064655    0.00159747
     atom   17 type  3   force =     0.00763426    0.00148767    0.00810671
     atom   18 type  3   force =     0.00163528    0.00031866    0.00046872
     atom   19 type  3   force =    -0.00119812   -0.00023348   -0.00028224
     atom   20 type  3   force =    -0.00269065   -0.00052432   -0.00056986
     The Hubbard contrib.    to forces
     atom    1 type  1   force =     0.00000000    0.00000000    0.00000000
     atom    2 type  1   force =     0.00000000    0.00000000    0.00000000
     atom    3 type  1   force =     0.00000000    0.00000000    0.00000000
     atom    4 type  1   force =     0.00000000    0.00000000    0.00000000
     atom    5 type  2   force =     0.00000000    0.00000000    0.00000000
     atom    6 type  2   force =     0.00000000    0.00000000    0.00000000
     atom    7 type  2   force =     0.00000000    0.00000000    0.00000000
     atom    8 type  2   force =     0.00000000    0.00000000    0.00000000
     atom    9 type  3   force =     0.00000000    0.00000000    0.00000000
     atom   10 type  3   force =     0.00000000    0.00000000    0.00000000
     atom   11 type  3   force =     0.00000000    0.00000000    0.00000000
     atom   12 type  3   force =     0.00000000    0.00000000    0.00000000
     atom   13 type  3   force =     0.00000000    0.00000000    0.00000000
     atom   14 type  3   force =     0.00000000    0.00000000    0.00000000
     atom   15 type  3   force =     0.00000000    0.00000000    0.00000000
     atom   16 type  3   force =     0.00000000    0.00000000    0.00000000
     atom   17 type  3   force =     0.00000000    0.00000000    0.00000000
     atom   18 type  3   force =     0.00000000    0.00000000    0.00000000
     atom   19 type  3   force =     0.00000000    0.00000000    0.00000000
     atom   20 type  3   force =     0.00000000    0.00000000    0.00000000
     The SCF correction term to forces
     atom    1 type  1   force =     0.00004811    0.00000941   -0.00032955
     atom    2 type  1   force =     0.00090968    0.00017730    0.00026281
     atom    3 type  1   force =    -0.00042525   -0.00008298    0.00005129
     atom    4 type  1   force =     0.00006448    0.00001267    0.00067798
     atom    5 type  2   force =    -0.00071288   -0.00013890   -0.00011511
     atom    6 type  2   force =    -0.00001874   -0.00000383   -0.00105417
     atom    7 type  2   force =     0.00066331    0.00012942    0.00040807
     atom    8 type  2   force =    -0.00018887   -0.00003711    0.00007412
     atom    9 type  3   force =    -0.00006976   -0.00001364    0.00014310
     atom   10 type  3   force =    -0.00017671   -0.00003444    0.00013827
     atom   11 type  3   force =     0.00011005    0.00002147   -0.00020444
     atom   12 type  3   force =    -0.00015642   -0.00003041    0.00008982
     atom   13 type  3   force =     0.00023837    0.00004645   -0.00000726
     atom   14 type  3   force =     0.00019769    0.00003854    0.00015524
     atom   15 type  3   force =     0.00006103    0.00001187   -0.00009686
     atom   16 type  3   force =    -0.00020816   -0.00004056    0.00011290
     atom   17 type  3   force =    -0.00012428   -0.00002417    0.00002211
     atom   18 type  3   force =     0.00022823    0.00004449   -0.00005836
     atom   19 type  3   force =     0.00027377    0.00005333    0.00011485
     atom   20 type  3   force =    -0.00008879   -0.00001728   -0.00013489

     Total force =     0.659922     Total SCF correction =     0.002136

     Computing stress (Cartesian axis) and pressure

     negative rho (up, down):  5.510E-03 0.000E+00
          total   stress  (Ry/bohr**3)                   (kbar)     P=     -872.40
  -0.00581715   0.00012522  -0.00011778         -855.73       18.42      -17.33
   0.00012522  -0.00643534  -0.00002295           18.42     -946.67       -3.38
  -0.00011778  -0.00002295  -0.00553883          -17.33       -3.38     -814.79

     kinetic stress (kbar)  40512.69     81.98     11.14
                               81.98  40107.96      2.17
                               11.14      2.17  40380.46

     local   stress (kbar)  -7331.86   1805.64   2315.87
                             1805.64 -16245.98    451.29
                             2315.87    451.29 -16399.79

     nonloc. stress (kbar)    327.24    -31.53     -0.77
                              -31.53    482.87     -0.15
                               -0.77     -0.15    363.06

     hartree stress (kbar)  14422.93   -776.36  -1004.37
                             -776.36  18255.71   -195.72
                            -1004.37   -195.72  17950.03

     exc-cor stress (kbar)  -5841.15      0.25     -1.01
                                0.25  -5842.37     -0.20
                               -1.01     -0.20  -5836.40

     corecor stress (kbar)  -1270.31      0.29      0.09
                                0.29  -1271.77      0.02
                                0.09      0.02  -1269.54

     ewald   stress (kbar) -41675.26  -1061.85  -1338.29
                            -1061.85 -36433.09   -260.79
                            -1338.29   -260.79 -36002.61

     hubbard stress (kbar)      0.00      0.00      0.00
                                0.00      0.00      0.00
                                0.00      0.00      0.00

     DFT-D   stress (kbar)      0.00      0.00      0.00
                                0.00      0.00      0.00
                                0.00      0.00      0.00

     XDM     stress (kbar)      0.00      0.00      0.00
                                0.00      0.00      0.00
                                0.00      0.00      0.00

     dft-nl  stress (kbar)      0.00      0.00      0.00
                                0.00      0.00      0.00
                                0.00      0.00      0.00

     TS-vdW  stress (kbar)      0.00      0.00      0.00
                                0.00      0.00      0.00
                                0.00      0.00      0.00

[...]

                                0.00      0.00      0.00

     Writing all to output data dir calculations/myprefix.save/

     General routines

     Parallel routines

     PAW routines

   This run was terminated on:  13:31:10   3Mar2023

   JOB DONE.