     Program PWSCF v.7.0 starts on  4Mar2023 at 21:23:40

     R & G space division:  proc/nbgrp/npool/nimage =      32

     Reading input from espresso_7728.pwi
Warning: card &CELL ignored
Warning: card / ignored

     Current dimensions of program PWSCF are:
     Max number of different atomic species (ntypx) = 10
     Max number of k-points (npk) =  40000
     Max angular momentum in pseudopotentials (lmaxx) =  4
     file Ba.pbe-spn-kjpaw_psl.1.0.0.UPF: wavefunction(s)  5S 6S renormalized
     file Cd.pbe-dn-rrkjus_psl.0.3.1.UPF: wavefunction(s)  4D renormalized

     gamma-point specific algorithms are used
     Message from routine setup:
     using ibrav=0 with symmetry is DISCOURAGED, use correct ibrav instead

     Using Slab Decomposition

     bravais-lattice index     =            0
     lattice parameter (alat)  =      11.5416  a.u.
     unit-cell volume          =    1468.0828 (a.u.)^3
     number of atoms/cell      =            8
     number of atomic types    =            3
     number of electrons       =       100.00
     number of Kohn-Sham states=           60
     kinetic-energy cutoff     =      30.0000  Ry
     charge density cutoff     =     240.0000  Ry
     scf convergence threshold =      1.0E-06
     mixing beta               =       0.7000
     number of iterations used =            8  plain     mixing
     Exchange-correlation=  SLA  PW   PBX  PBC
                           (   1   4   3   4   0   0   0)

     celldm(1)=  11.541604  celldm(2)=   0.000000  celldm(3)=   0.000000
     celldm(4)=   0.000000  celldm(5)=   0.000000  celldm(6)=   0.000000

     crystal axes: (cart. coord. in units of alat)
               a(1) = (   1.000000   0.000000   0.000000 )
               a(2) = (  -0.725537   0.688183   0.000000 )
               a(3) = (   0.000000   0.000000   1.387549 )

     reciprocal axes: (cart. coord. in units 2 pi/alat)
               b(1) = (  1.000000  1.054280  0.000000 )
               b(2) = (  0.000000  1.453102  0.000000 )
               b(3) = (  0.000000  0.000000  0.720695 )

     PseudoPot. # 1 for Ba read from file:
     /home/pragov/projects/rrg-bengioy-ad/pragov/crystal_structure_design/SSSP/Ba.pbe-spn-kjpaw_psl.1.0.0.UPF
     MD5 check sum: c432291d3e53af55f19d5e8866385beb
     Pseudo is Projector augmented-wave + core cor, Zval = 10.0
     Generated using "atomic" code by A. Dal Corso  v.5.1
     Shape of augmentation charge: PSQ
     Using radial grid of 1251 points,  7 beta functions with:
                l(1) =   0
                l(2) =   0
                l(3) =   0
                l(4) =   1
                l(5) =   1
                l(6) =   2
                l(7) =   2
     Q(r) pseudized with 0 coefficients

     PseudoPot. # 2 for Cd read from file:
     /home/pragov/projects/rrg-bengioy-ad/pragov/crystal_structure_design/SSSP/Cd.pbe-dn-rrkjus_psl.0.3.1.UPF
     MD5 check sum: 558e9f355611b531a870a69ef6ace9e2
     Pseudo is Ultrasoft + core correction, Zval = 12.0
     Generated using "atomic" code by A. Dal Corso  v.5.0.99 svn rev. 10869
     Using radial grid of 1239 points,  6 beta functions with:
                l(1) =   0
                l(2) =   0
                l(3) =   1
                l(4) =   1
                l(5) =   2
                l(6) =   2
     Q(r) pseudized with 0 coefficients

     PseudoPot. # 3 for Pt read from file:
     /home/pragov/projects/rrg-bengioy-ad/pragov/crystal_structure_design/SSSP/pt_pbe_v1.4.uspp.F.UPF
     MD5 check sum: f09d6de1a584b5a045c4fc126da2d0c4
     Pseudo is Ultrasoft + core correction, Zval = 16.0
     Generated by new atomic code, or converted to UPF format
     Using radial grid of  985 points,  6 beta functions with:
                l(1) =   0
                l(2) =   0
                l(3) =   1
                l(4) =   1
                l(5) =   2
                l(6) =   2
     Q(r) pseudized with  8 coefficients,  rinner =    1.300   1.300   1.300
                                                       1.300   1.300

     atomic species   valence    mass     pseudopotential
        Ba            10.00   137.32700     Ba( 1.00)
        Cd            12.00   112.41400     Cd( 1.00)
        Pt            16.00   195.08400     Pt( 1.00)

      4 Sym. Ops., with inversion, found ( 2 have fractional translation)

                                    s                        frac. trans.

      isym =  1     identity

 cryst.   s( 1) = (     1          0          0      )
                  (     0          1          0      )
                  (     0          0          1      )

 cart.    s( 1) = (  1.0000000  0.0000000  0.0000000 )
                  (  0.0000000  1.0000000  0.0000000 )
                  (  0.0000000  0.0000000  1.0000000 )

      isym =  2     180 deg rotation - cart. axis [0,0,1]

 cryst.   s( 2) = (    -1          0          0      )    f =( -0.0000000 )
                  (     0         -1          0      )       ( -0.0000000 )
                  (     0          0          1      )       (  0.5000000 )

 cart.    s( 2) = ( -1.0000000 -0.0000000  0.0000000 )    f =(  0.0000000 )
                  (  0.0000000 -1.0000000  0.0000000 )       ( -0.0000000 )
                  (  0.0000000  0.0000000  1.0000000 )       (  0.6937743 )

      isym =  3     inversion

 cryst.   s( 3) = (    -1          0          0      )
                  (     0         -1          0      )
                  (     0          0         -1      )

 cart.    s( 3) = ( -1.0000000 -0.0000000  0.0000000 )
                  (  0.0000000 -1.0000000  0.0000000 )
                  (  0.0000000  0.0000000 -1.0000000 )

      isym =  4     inv. 180 deg rotation - cart. axis [0,0,1]

 cryst.   s( 4) = (     1          0          0      )    f =(  0.0000000 )
                  (     0          1          0      )       (  0.0000000 )
                  (     0          0         -1      )       (  0.5000000 )

 cart.    s( 4) = (  1.0000000  0.0000000  0.0000000 )    f =(  0.0000000 )
                  (  0.0000000  1.0000000  0.0000000 )       (  0.0000000 )
                  (  0.0000000  0.0000000 -1.0000000 )       (  0.6937743 )

   Cartesian axes

     site n.     atom                  positions (alat units)
         1           Ba  tau(   1) = (   0.0353970   0.3847052   1.0406615  )
         2           Ba  tau(   2) = (   0.2390657   0.3034776   0.3468872  )
         3           Cd  tau(   3) = (   0.7225940   0.1106357   0.0773406  )
         4           Cd  tau(   4) = (  -0.4481313   0.5775471   1.3102081  )
         5           Cd  tau(   5) = (   0.7225940   0.1106357   0.6164338  )
         6           Cd  tau(   6) = (  -0.4481313   0.5775471   0.7711149  )
         7           Pt  tau(   7) = (   0.5218398   0.1907010   1.0406615  )
         8           Pt  tau(   8) = (  -0.2473771   0.4974819   0.3468872  )

   Crystallographic axes

     site n.     atom                  positions (cryst. coord.)
         1           Ba  tau(   1) = (  0.4409840  0.5590160  0.7500000  )
         2           Ba  tau(   2) = (  0.5590160  0.4409840  0.2500000  )
         3           Cd  tau(   3) = (  0.8392350  0.1607650  0.0557390  )
         4           Cd  tau(   4) = (  0.1607650  0.8392350  0.9442610  )
         5           Cd  tau(   5) = (  0.8392350  0.1607650  0.4442610  )
         6           Cd  tau(   6) = (  0.1607650  0.8392350  0.5557390  )
         7           Pt  tau(   7) = (  0.7228920  0.2771080  0.7500000  )
         8           Pt  tau(   8) = (  0.2771080  0.7228920  0.2500000  )

     number of k points=     1  Methfessel-Paxton smearing, width (Ry)=  0.0010
                       cart. coord. in units 2pi/alat
        k(    1) = (   0.0000000   0.0000000   0.0000000), wk =   2.0000000

                       cryst. coord.
        k(    1) = (   0.0000000   0.0000000   0.0000000), wk =   2.0000000

     Initial potential from superposition of free atoms

     starting charge      98.9464, renormalised to     100.0000

     negative rho (up, down):  3.676E-01 0.000E+00
     Starting wfcs are   70 randomized atomic wfcs
     Checking if some PAW data can be deallocated...

     Self-consistent Calculation

     iteration #  1     ecut=    30.00 Ry     beta= 0.70
     Davidson diagonalization with overlap

     ethr =  1.00E-02,  avg # of iterations =  6.0

     negative rho (up, down):  3.548E-01 0.000E+00

     total energy              =   -1781.75209757 Ry
     estimated scf accuracy    <       1.68459546 Ry

[...]

     total energy              =   -1782.72069476 Ry
     estimated scf accuracy    <       0.00000200 Ry

     iteration # 24     ecut=    30.00 Ry     beta= 0.70
     Davidson diagonalization with overlap

     ethr =  2.00E-09,  avg # of iterations =  2.0

[...]

     End of self-consistent calculation

          k = 0.0000 0.0000 0.0000 (  2042 PWs)   bands (ev):

   -41.5699 -41.5681 -41.3465 -41.3449 -41.3435 -41.3418 -16.9209 -16.9038
    -2.5345  -2.2381  -2.2222  -2.2123  -2.0826  -2.0506   1.7213   1.8437
     1.8680   1.8851   1.9358   1.9594   1.9760   2.0013   2.0425   2.1024
     2.1367   2.1390   2.1735   2.2373   2.2515   2.2657   2.3225   2.3991
     2.4007   2.4450   3.6232   5.6839   6.2579   7.5590   7.6476   7.7985
     7.9740   8.1469   8.1723   8.3443   8.3744   8.4551   8.5010  10.0062
    10.2549  11.1848  11.3347  11.7725  11.9899  12.5737  12.6053  12.9685
    13.1390  13.4631  14.4229  14.6925

     occupation numbers
     1.0000   1.0000   1.0000   1.0000   1.0000   1.0000   1.0000   1.0000
     1.0000   1.0000   1.0000   1.0000   1.0000   1.0000   1.0000   1.0000
     1.0000   1.0000   1.0000   1.0000   1.0000   1.0000   1.0000   1.0000
     1.0000   1.0000   1.0000   1.0000   1.0000   1.0000   1.0000   1.0000
     1.0000   1.0000   1.0000   1.0000   1.0000   1.0000   1.0000   1.0000
     1.0000   1.0000   1.0000   1.0000   1.0000   1.0000   1.0000   1.0000
     1.0000   1.0000  -0.0000  -0.0000  -0.0000  -0.0000  -0.0000  -0.0000
    -0.0000  -0.0000  -0.0000  -0.0000

     the Fermi energy is    11.2676 ev

!    total energy              =   -1782.72069448 Ry
     estimated scf accuracy    <       0.00000095 Ry
     smearing contrib. (-TS)   =       0.00000000 Ry
     internal energy E=F+TS    =   -1782.72069448 Ry

     The total energy is F=E-TS. E is the sum of the following terms:
     one-electron contribution =    -350.73994621 Ry
     hartree contribution      =     253.63671098 Ry
     xc contribution           =    -325.87433605 Ry
     ewald contribution        =    -609.83620335 Ry
     one-center paw contrib.   =    -749.90691984 Ry
      -> PAW hartree energy AE =      28.86597934 Ry
      -> PAW hartree energy PS =     -28.76395815 Ry
      -> PAW xc energy AE      =    -394.24392270 Ry
      -> PAW xc energy PS      =      19.18844158 Ry
      -> total E_H with PAW    =     253.73873217 Ry
      -> total E_XC with PAW   =    -700.92981717 Ry

     convergence has been achieved in  24 iterations

     negative rho (up, down):  3.452E-01 0.000E+00

     Forces acting on atoms (cartesian axes, Ry/au):

     atom    1 type  1   force =     0.03227000   -0.01289009    0.00000000
     atom    2 type  1   force =    -0.03227000    0.01289009    0.00000000
     atom    3 type  2   force =    -0.00949963    0.00379188   -0.00519095
     atom    4 type  2   force =     0.00949963   -0.00379188    0.00519095
     atom    5 type  2   force =    -0.00949963    0.00379188    0.00519095
     atom    6 type  2   force =     0.00949963   -0.00379188   -0.00519095
     atom    7 type  3   force =     0.00261386   -0.00104373   -0.00000000
     atom    8 type  3   force =    -0.00261386    0.00104373    0.00000000
     The non-local contrib.  to forces
     atom    1 type  1   force =    -0.00593773    0.00239622    0.00000000
     atom    2 type  1   force =     0.00593773   -0.00239622    0.00000000
     atom    3 type  2   force =    -0.01526893    0.00609361    0.13942697
     atom    4 type  2   force =     0.01526893   -0.00609361   -0.13942697
     atom    5 type  2   force =    -0.01526893    0.00609361   -0.13942697
     atom    6 type  2   force =     0.01526893   -0.00609361    0.13942697
     atom    7 type  3   force =    -0.04620464    0.01842489    0.00000000
     atom    8 type  3   force =     0.04620464   -0.01842489    0.00000000
     The ionic contribution  to forces
     atom    1 type  1   force =     3.00682320   -1.19918831    0.00000000
     atom    2 type  1   force =    -3.00682320    1.19918831   -0.00000000
     atom    3 type  2   force =     9.35483324   -3.73091663   -2.09515224
     atom    4 type  2   force =    -9.35483324    3.73091663    2.09515224
     atom    5 type  2   force =     9.35483324   -3.73091663    2.09515224
     atom    6 type  2   force =    -9.35483324    3.73091663   -2.09515224
     atom    7 type  3   force =    -0.72413788    0.28880237   -0.00000000
     atom    8 type  3   force =     0.72413788   -0.28880237   -0.00000000
     The local contribution  to forces
     atom    1 type  1   force =    -2.96967278    1.18471071    0.00041259
     atom    2 type  1   force =     2.97090363   -1.18448536   -0.00067894
     atom    3 type  2   force =    -9.34175029    3.72569777    1.94937178
     atom    4 type  2   force =     9.34150127   -3.72559892   -1.94968619
     atom    5 type  2   force =    -9.34164072    3.72563552   -1.94917851
     atom    6 type  2   force =     9.34141889   -3.72556151    1.94948614
     atom    7 type  3   force =     0.76042926   -0.30327570   -0.00031914
     atom    8 type  3   force =    -0.76075962    0.30340701    0.00035000
     The core correction contribution to forces
     atom    1 type  1   force =     0.00156946   -0.00063025   -0.00000200
     atom    2 type  1   force =    -0.00155151    0.00061615   -0.00001213
     atom    3 type  2   force =    -0.00767525    0.00306107    0.00108684
     atom    4 type  2   force =     0.00767005   -0.00305909   -0.00109461
     atom    5 type  2   force =    -0.00767314    0.00305942   -0.00108580
     atom    6 type  2   force =     0.00766823   -0.00305801    0.00109200
     atom    7 type  3   force =     0.01262377   -0.00503433   -0.00000198
     atom    8 type  3   force =    -0.01262259    0.00503421    0.00000189
     The Hubbard contrib.    to forces
     atom    1 type  1   force =     0.00000000    0.00000000    0.00000000
     atom    2 type  1   force =     0.00000000    0.00000000    0.00000000
     atom    3 type  2   force =     0.00000000    0.00000000    0.00000000
     atom    4 type  2   force =     0.00000000    0.00000000    0.00000000
     atom    5 type  2   force =     0.00000000    0.00000000    0.00000000
     atom    6 type  2   force =     0.00000000    0.00000000    0.00000000
     atom    7 type  3   force =     0.00000000    0.00000000    0.00000000
     atom    8 type  3   force =     0.00000000    0.00000000    0.00000000
     The SCF correction term to forces
     atom    1 type  1   force =    -0.00003574   -0.00007339    0.00010812
     atom    2 type  1   force =    -0.00026024    0.00007227   -0.00007860
     atom    3 type  2   force =     0.00036173   -0.00014006    0.00010543
     atom    4 type  2   force =    -0.00010700    0.00004164    0.00027181
     atom    5 type  2   force =     0.00024595   -0.00008419   -0.00029036
     atom    6 type  2   force =    -0.00002743    0.00000578   -0.00006855
     atom    7 type  3   force =    -0.00006908    0.00003266    0.00030537
     atom    8 type  3   force =     0.00045342   -0.00017660   -0.00033756

     Total force =     0.054379     Total SCF correction =     0.000976

     Computing stress (Cartesian axis) and pressure

     negative rho (up, down):  3.452E-01 0.000E+00
          total   stress  (Ry/bohr**3)                   (kbar)     P=     -128.13
  -0.00042487  -0.00013212   0.00000000          -62.50      -19.44        0.00
  -0.00013212  -0.00070342   0.00000000          -19.44     -103.48        0.00
   0.00000000   0.00000000  -0.00148476            0.00        0.00     -218.42

     kinetic stress (kbar)  20711.10    -15.41      0.00
                              -15.41  20678.61      0.00
                                0.00      0.00  20367.06

     local   stress (kbar)  10634.49  -8240.77     -0.01
                            -8240.77  -6741.66      0.00
                               -0.01      0.00  -9785.02

     nonloc. stress (kbar)  -1323.00    -32.09      0.00
                              -32.09  -1390.67      0.00
                                0.00      0.00  -1329.67

     hartree stress (kbar)   2634.51   3788.81      0.00
                             3788.81  10623.45     -0.00
                                0.00     -0.00  12156.99

     exc-cor stress (kbar)  15117.08      0.94      0.00
                                0.94  15119.06      0.00
                                0.00      0.00  15116.53

     corecor stress (kbar) -20623.09     -1.44      0.00
                               -1.44 -20626.13      0.00
                                0.00      0.00 -20617.11

     ewald   stress (kbar) -27213.58   4480.52      0.00
                             4480.52 -17766.13     -0.00
                                0.00     -0.00 -16127.20

     hubbard stress (kbar)      0.00      0.00      0.00
                                0.00      0.00      0.00
                                0.00      0.00      0.00

     DFT-D   stress (kbar)      0.00      0.00      0.00
                                0.00      0.00      0.00
                                0.00      0.00      0.00

     XDM     stress (kbar)      0.00      0.00      0.00
                                0.00      0.00      0.00
                                0.00      0.00      0.00

     dft-nl  stress (kbar)      0.00      0.00      0.00
                                0.00      0.00      0.00
                                0.00      0.00      0.00

     TS-vdW  stress (kbar)      0.00      0.00      0.00
                                0.00      0.00      0.00
                                0.00      0.00      0.00

[...]

                                0.00      0.00      0.00

     Writing all to output data dir calculations/myprefix.save/

     General routines

     Parallel routines

     PAW routines

   This run was terminated on:  21:23:45   4Mar2023

   JOB DONE.