     Program PWSCF v.7.0 starts on  6Mar2023 at 12:44: 0

     R & G space division:  proc/nbgrp/npool/nimage =      32

     Reading input from espresso_4657.pwi
Warning: card &CELL ignored
Warning: card / ignored

     Current dimensions of program PWSCF are:
     Max number of different atomic species (ntypx) = 10
     Max number of k-points (npk) =  40000
     Max angular momentum in pseudopotentials (lmaxx) =  4
     file O.pbe-n-kjpaw_psl.0.1.UPF: wavefunction(s)  2P renormalized

     gamma-point specific algorithms are used

     Using Slab Decomposition

     bravais-lattice index     =            0
     lattice parameter (alat)  =      10.3820  a.u.
     unit-cell volume          =    1712.6705 (a.u.)^3
     number of atoms/cell      =           20
     number of atomic types    =            3
     number of electrons       =       160.00
     number of Kohn-Sham states=           96
     kinetic-energy cutoff     =      30.0000  Ry
     charge density cutoff     =     240.0000  Ry
     scf convergence threshold =      1.0E-06
     mixing beta               =       0.7000
     number of iterations used =            8  plain     mixing
     Exchange-correlation= SLA  PW   PBX  PBC
                           (   1   4   3   4   0   0   0)

     celldm(1)=  10.381981  celldm(2)=   0.000000  celldm(3)=   0.000000
     celldm(4)=   0.000000  celldm(5)=   0.000000  celldm(6)=   0.000000

     crystal axes: (cart. coord. in units of alat)
               a(1) = (   1.000000   0.000000   0.000000 )
               a(2) = (   0.510640   0.859794   0.000000 )
               a(3) = (   0.520175   0.296062   1.780076 )

     reciprocal axes: (cart. coord. in units 2 pi/alat)
               b(1) = (  1.000000 -0.593910 -0.193442 )
               b(2) = (  0.000000  1.163069 -0.193442 )
               b(3) = (  0.000000  0.000000  0.561774 )

     PseudoPot. # 1 for Hf read from file:
     /home/pragov/projects/rrg-bengioy-ad/pragov/crystal_structure_design/SSSP/Hf-sp.oncvpsp.upf
     MD5 check sum: 417ed15784afe83d2e06dacf143de3f8
     Pseudo is Norm-conserving + core correction, Zval = 12.0
     Generated using ONCVPSP code by D. R. Hamann
     Using radial grid of 1656 points,  8 beta functions with:
                l(1) =   0
                l(2) =   0
                l(3) =   1
                l(4) =   1
                l(5) =   2
                l(6) =   2
                l(7) =   3
                l(8) =   3

     PseudoPot. # 2 for N  read from file:
     /home/pragov/projects/rrg-bengioy-ad/pragov/crystal_structure_design/SSSP/N.pbe-n-radius_5.UPF
     MD5 check sum: 16739722b17309cd8fe442a2ace49922
     Pseudo is Ultrasoft + core correction, Zval =  5.0
     Generated using "atomic" code by A. Dal Corso  v.5.1
     Using radial grid of 1085 points,  4 beta functions with:
                l(1) =   0
                l(2) =   0
                l(3) =   1
                l(4) =   1
     Q(r) pseudized with 0 coefficients

     PseudoPot. # 3 for O  read from file:
     /home/pragov/projects/rrg-bengioy-ad/pragov/crystal_structure_design/SSSP/O.pbe-n-kjpaw_psl.0.1.UPF
     MD5 check sum: 0234752ac141de4415c5fc33072bef88
     Pseudo is Projector augmented-wave + core cor, Zval =  6.0
     Generated using "atomic" code by A. Dal Corso  v.5.0.99 svn rev. 10869
     Shape of augmentation charge: BESSEL
     Using radial grid of 1095 points,  4 beta functions with:
                l(1) =   0
                l(2) =   0
                l(3) =   1
                l(4) =   1
     Q(r) pseudized with 0 coefficients

     atomic species   valence    mass     pseudopotential
        Hf            12.00   178.49000     Hf( 1.00)
        N              5.00    14.00700     N ( 1.00)
        O              6.00    15.99900     O ( 1.00)

     No symmetry found

                                    s                        frac. trans.

      isym =  1     identity

 cryst.   s( 1) = (     1          0          0      )
                  (     0          1          0      )
                  (     0          0          1      )

 cart.    s( 1) = (  1.0000000 -0.0000000 -0.0000000 )
                  (  0.0000000  1.0000000 -0.0000000 )
                  (  0.0000000  0.0000000  1.0000000 )

   Cartesian axes

     site n.     atom                  positions (alat units)
         1           Hf  tau(   1) = (   0.8162087   0.3288644   1.0500686  )
         2           Hf  tau(   2) = (   1.2961094   0.6056519   0.1556427  )
         3           Hf  tau(   3) = (   0.8482334   0.3507393   1.6244332  )
         4           Hf  tau(   4) = (   0.8323166   0.9185368   0.6058186  )
         5           Hf  tau(   5) = (   1.3312704   0.6220163   0.7300074  )
         6           Hf  tau(   6) = (   0.8160480   0.9092774   1.1742574  )
         7           Hf  tau(   7) = (   1.3376618   0.6227462   1.4936689  )
         8           Hf  tau(   8) = (   0.8123175   0.3237419   0.2864071  )
         9           N   tau(   9) = (   1.5389565   0.8906582   0.8992160  )
        10           N   tau(  10) = (   1.1282009   0.3240785   1.3476759  )
        11           N   tau(  11) = (   1.1760695   0.3513233   0.4324000  )
        12           N   tau(  12) = (   0.4791790   0.2874765   0.8808599  )
        13           N   tau(  13) = (   0.5234156   0.3251876   0.0036420  )
        14           N   tau(  14) = (   0.6827886   0.5762657   1.3331398  )
        15           N   tau(  15) = (   1.1866859   0.8630633   0.4469361  )
        16           N   tau(  16) = (   1.4839437   0.8718806   1.7764339  )
        17           O   tau(  17) = (   1.1819944   0.9182612   1.3196593  )
        18           O   tau(  18) = (   0.9892475   0.6238912   0.8900380  )
        19           O   tau(  19) = (   0.9674693   0.0571557   0.0000000  )
        20           O   tau(  20) = (   0.6377254   0.6084857   0.4604166  )

   Crystallographic axes

     site n.     atom                  positions (cryst. coord.)
         1           Hf  tau(   1) = (  0.4177660  0.1793650  0.5899010  )
         2           Hf  tau(   2) = (  0.9062990  0.6743070  0.0874360  )
         3           Hf  tau(   3) = (  0.3256930  0.0937010  0.9125640  )
         4           Hf  tau(   4) = (  0.1695980  0.9511310  0.3403330  )
         5           Hf  tau(   5) = (  0.8206350  0.5822340  0.4100990  )
         6           Hf  tau(   6) = (  0.0488690  0.8304020  0.6596670  )
         7           Hf  tau(   7) = (  0.6788690  0.4353590  0.8391040  )
         8           Hf  tau(   8) = (  0.5646410  0.3211310  0.1608960  )
         9           N   tau(   9) = (  0.8360400  0.8619510  0.5051560  )
        10           N   tau(  10) = (  0.6750310  0.1162290  0.7570890  )
        11           N   tau(  11) = (  0.8837710  0.3249690  0.2429110  )
        12           N   tau(  12) = (  0.1380490  0.1639600  0.4948440  )
        13           N   tau(  13) = (  0.3295790  0.3775110  0.0020460  )
        14           N   tau(  14) = (  0.0826540  0.4123520  0.7489230  )
        15           N   tau(  15) = (  0.5876480  0.9173460  0.2510770  )
        16           N   tau(  16) = (  0.6224890  0.6704210  0.9979540  )
        17           O   tau(  17) = (  0.3813530  0.8127240  0.7413500  )
        18           O   tau(  18) = (  0.4465420  0.5534580  0.5000000  )
        19           O   tau(  19) = (  0.9335240  0.0664760  0.0000000  )
        20           O   tau(  20) = (  0.1872760  0.6186470  0.2586500  )

     number of k points=     1  Methfessel-Paxton smearing, width (Ry)=  0.0010
                       cart. coord. in units 2pi/alat
        k(    1) = (   0.0000000   0.0000000   0.0000000), wk =   2.0000000

                       cryst. coord.
        k(    1) = (   0.0000000   0.0000000   0.0000000), wk =   2.0000000

     Check: negative core charge=   -0.000006

     Initial potential from superposition of free atoms

     starting charge     159.9851, renormalised to     160.0000
     Starting wfcs are  128 randomized atomic wfcs
     Checking if some PAW data can be deallocated...

     Self-consistent Calculation

     iteration #  1     ecut=    30.00 Ry     beta= 0.70
     Davidson diagonalization with overlap

     ethr =  1.00E-02,  avg # of iterations =  2.0

     total energy              =   -1228.04460668 Ry
     estimated scf accuracy    <       8.50010505 Ry

[...]

     total energy              =   -1232.33143464 Ry
     estimated scf accuracy    <       0.00000665 Ry

     iteration # 13     ecut=    30.00 Ry     beta= 0.70
     Davidson diagonalization with overlap

     ethr =  4.15E-09,  avg # of iterations =  3.0

     End of self-consistent calculation

          k = 0.0000 0.0000 0.0000 (  2349 PWs)   bands (ev):

   -48.9974 -48.9932 -48.9850 -48.9696 -48.7969 -48.7842 -48.7704 -48.7532
   -18.0926 -18.0197 -17.9885 -17.9232 -17.9228 -17.8995 -17.8942 -17.8839
   -17.8590 -17.8347 -17.8314 -17.7789 -17.6715 -17.6242 -17.6064 -17.5806
   -17.5650 -17.5430 -17.5260 -17.5164 -17.5085 -17.4934 -17.4640 -17.4571
    -6.3030  -5.8745  -5.8518  -5.4634  -1.5084  -0.7819  -0.7778  -0.2821
    -0.1298  -0.1127   0.1131   0.2122   6.5011   7.0739   7.1504   7.3026
     7.5432   7.6102   7.6964   7.7216   7.7272   8.1509   8.2039   8.3043
     8.3493   8.5868   8.7589   8.7944   9.1681   9.3093   9.3245   9.3595
     9.4690   9.4919   9.7458   9.7697   9.9812  10.1738  10.3700  10.7947
    10.8633  10.9649  11.0590  11.0848  11.3760  11.6210  11.6872  11.6922
    14.8444  15.4625  15.4968  15.9264  16.0423  16.1302  16.3116  16.3874
    16.4520  16.4576  16.6332  16.6856  16.7706  16.7876  16.9049  16.9243

     occupation numbers
     1.0000   1.0000   1.0000   1.0000   1.0000   1.0000   1.0000   1.0000
     1.0000   1.0000   1.0000   1.0000   1.0000   1.0000   1.0000   1.0000
     1.0000   1.0000   1.0000   1.0000   1.0000   1.0000   1.0000   1.0000
     1.0000   1.0000   1.0000   1.0000   1.0000   1.0000   1.0000   1.0000
     1.0000   1.0000   1.0000   1.0000   1.0000   1.0000   1.0000   1.0000
     1.0000   1.0000   1.0000   1.0000   1.0000   1.0000   1.0000   1.0000
     1.0000   1.0000   1.0000   1.0000   1.0000   1.0000   1.0000   1.0000
     1.0000   1.0000   1.0000   1.0000   1.0000   1.0000   1.0000   1.0000
     1.0000   1.0000   1.0000   1.0000   1.0000   1.0000   1.0000   1.0000
     1.0000   1.0000   1.0000   1.0000   1.0000   1.0000   1.0000   1.0000
    -0.0000  -0.0000  -0.0000  -0.0000  -0.0000  -0.0000  -0.0000  -0.0000
    -0.0000  -0.0000  -0.0000  -0.0000  -0.0000  -0.0000  -0.0000  -0.0000

     the Fermi energy is    12.9232 ev

!    total energy              =   -1232.33143591 Ry
     estimated scf accuracy    <       0.00000018 Ry
     smearing contrib. (-TS)   =       0.00000000 Ry
     internal energy E=F+TS    =   -1232.33143591 Ry

     The total energy is F=E-TS. E is the sum of the following terms:
     one-electron contribution =    -207.55372833 Ry
     hartree contribution      =     185.43440168 Ry
     xc contribution           =    -302.27431141 Ry
     ewald contribution        =    -869.86467553 Ry
     one-center paw contrib.   =     -38.07312232 Ry
      -> PAW hartree energy AE =       0.00000000 Ry
      -> PAW hartree energy PS =       0.00000000 Ry
      -> PAW xc energy AE      =       0.00000000 Ry
      -> PAW xc energy PS      =       0.00000000 Ry
      -> total E_H with PAW    =     185.43440168 Ry
      -> total E_XC with PAW   =    -302.27431141 Ry

     convergence has been achieved in  13 iterations

     Forces acting on atoms (cartesian axes, Ry/au):

     atom    1 type  1   force =     0.00797051   -0.00635336   -0.01764344
     atom    2 type  1   force =    -0.00646116   -0.00638027   -0.01413983
     atom    3 type  1   force =     0.00879083    0.00229373    0.01417610
     atom    4 type  1   force =     0.00257020    0.00048071   -0.02622067
     atom    5 type  1   force =     0.00138624   -0.01009891    0.01760596
     atom    6 type  1   force =    -0.00173509   -0.00195915    0.02619933
     atom    7 type  1   force =    -0.00685721   -0.00827303   -0.02109337
     atom    8 type  1   force =     0.01061474    0.00167423    0.02112202
     atom    9 type  2   force =     0.00129769    0.00533576   -0.01004593
     atom   10 type  2   force =    -0.00499886    0.00126816   -0.00668143
     atom   11 type  2   force =     0.00146665    0.00495614    0.00667842
     atom   12 type  2   force =    -0.00522929    0.00160932    0.01007245
     atom   13 type  2   force =     0.00466620    0.00107750   -0.00565575
     atom   14 type  2   force =    -0.00101914    0.00435626    0.00687318
     atom   15 type  2   force =    -0.00322969    0.00310380   -0.00687690
     atom   16 type  2   force =    -0.00332100   -0.00345395    0.00563172
     atom   17 type  3   force =     0.00450430    0.00139706    0.00310535
     atom   18 type  3   force =    -0.00597451    0.01048131    0.00000206
     atom   19 type  3   force =    -0.00093363    0.00164753   -0.00000593
     atom   20 type  3   force =    -0.00350778   -0.00316282   -0.00310333
     The non-local contrib.  to forces
     atom    1 type  1   force =     0.03006638   -0.00622668    0.06006035
     atom    2 type  1   force =     0.06806731    0.03739778    0.05296289
     atom    3 type  1   force =    -0.06691410   -0.03943057   -0.05295618
     atom    4 type  1   force =    -0.01138955   -0.07755838    0.05828096
     atom    5 type  1   force =    -0.01000673   -0.02902101   -0.06006960
     atom    6 type  1   force =     0.07250183   -0.02982707   -0.05828006
     atom    7 type  1   force =    -0.01324498   -0.01230556    0.06673226
     atom    8 type  1   force =     0.01734962    0.00509952   -0.06673214
     atom    9 type  2   force =     0.17281135    0.01570140   -0.00125213
     atom   10 type  2   force =    -0.14571083   -0.00375955    0.00448235
     atom   11 type  2   force =     0.07765093    0.12338576   -0.00448285
     atom   12 type  2   force =    -0.10171034   -0.14056559    0.00138321
     atom   13 type  2   force =     0.13506544   -0.04077544    0.01196016
     atom   14 type  2   force =     0.08327426   -0.14876403    0.00357921
     atom   15 type  2   force =     0.08539653   -0.14758059   -0.00358345
     atom   16 type  2   force =    -0.03391762   -0.13694171   -0.01206662
     atom   17 type  3   force =     0.04565121   -0.01050239   -0.01446410
     atom   18 type  3   force =     0.01841873   -0.03239231    0.00005531
     atom   19 type  3   force =    -0.06504828    0.11431353   -0.00005797
     atom   20 type  3   force =    -0.01430677   -0.04461120    0.01447561
     The ionic contribution  to forces
     atom    1 type  1   force =     0.04487503   -0.38843126   -3.36233830
     atom    2 type  1   force =     0.98976982    0.02100981   -3.45561391
     atom    3 type  1   force =    -0.52348057   -0.84027008    3.45561391
     atom    4 type  1   force =    -0.13037070   -0.29594513   -3.79082716
     atom    5 type  1   force =     0.31105602   -0.23693199    3.36233830
     atom    6 type  1   force =     0.32102451   -0.03902954    3.79082716
     atom    7 type  1   force =     0.09090768   -0.54279198   -3.48178043
     atom    8 type  1   force =     0.42026837   -0.35533342    3.48178044
     atom    9 type  2   force =    -1.38112743    0.09488276   -0.17786248
     atom   10 type  2   force =     1.19576689    0.35296641   -0.07624418
     atom   11 type  2   force =    -0.91408541   -0.84787475    0.07624418
     atom   12 type  2   force =     0.62367979    1.23593658    0.17786248
     atom   13 type  2   force =    -0.89805276    0.85267921    0.27549592
     atom   14 type  2   force =    -0.58316719    1.13315963   -0.04427031
     atom   15 type  2   force =    -0.67649557    1.08004096    0.04427031
     atom   16 type  2   force =    -0.27454678    1.20755317   -0.27549592
     atom   17 type  3   force =    -0.89854853   -0.58076062    0.53346476
     atom   18 type  3   force =     0.31106020   -0.54652614   -0.00000000
     atom   19 type  3   force =     1.01329674   -1.78034075   -0.00000000
     atom   20 type  3   force =     0.95816990    0.47600715   -0.53346477
     The local contribution  to forces
     atom    1 type  1   force =    -0.07129658    0.38686860    3.29758848
     atom    2 type  1   force =    -1.07846245   -0.07292403    3.40113442
     atom    3 type  1   force =     0.61342283    0.88997432   -3.40188754
     atom    4 type  1   force =     0.14564521    0.39123423    3.71719920
     atom    5 type  1   force =    -0.29622635    0.25881670   -3.29687806
     atom    6 type  1   force =    -0.41079415    0.07458734   -3.71676414
     atom    7 type  1   force =    -0.08408448    0.54515095    3.40680945
     atom    8 type  1   force =    -0.42573479    0.35071198   -3.40722174
     atom    9 type  2   force =     1.21119123   -0.10502012    0.16923549
     atom   10 type  2   force =    -1.05657046   -0.34777522    0.06526133
     atom   11 type  2   force =     0.83851372    0.73084318   -0.06527388
     atom   12 type  2   force =    -0.52816731   -1.09501797   -0.16891321
     atom   13 type  2   force =     0.76897283   -0.81087957   -0.29302924
     atom   14 type  2   force =     0.49981058   -0.98145335    0.04760045
     atom   15 type  2   force =     0.58860839   -0.93088896   -0.04761430
     atom   16 type  2   force =     0.30450784   -1.07521720    0.29270796
     atom   17 type  3   force =     0.85784917    0.59330463   -0.51587588
     atom   18 type  3   force =    -0.33565255    0.58972211    0.00017937
     atom   19 type  3   force =    -0.94995135    1.66902502   -0.00017534
     atom   20 type  3   force =    -0.94813434   -0.43461582    0.51587981
     The core correction contribution to forces
     atom    1 type  1   force =     0.00430170    0.00145418   -0.01231547
     atom    2 type  1   force =     0.01425156    0.00820872   -0.01302402
     atom    3 type  1   force =    -0.01433456   -0.00806144    0.01301331
     atom    4 type  1   force =    -0.00139471   -0.01731198   -0.01100347
     atom    5 type  1   force =    -0.00344611   -0.00295789    0.01232539
     atom    6 type  1   force =     0.01559670   -0.00763882    0.01101141
     atom    7 type  1   force =    -0.00039093    0.00162099   -0.01300641
     atom    8 type  1   force =    -0.00119452    0.00116541    0.01299943
     atom    9 type  2   force =    -0.00158004   -0.00020405    0.00001156
     atom   10 type  2   force =     0.00147023   -0.00021535   -0.00011433
     atom   11 type  2   force =    -0.00056575   -0.00137423    0.00011433
     atom   12 type  2   force =     0.00098188    0.00125423   -0.00001264
     atom   13 type  2   force =    -0.00144356    0.00007694   -0.00025731
     atom   14 type  2   force =    -0.00084238    0.00137535    0.00002398
     atom   15 type  2   force =    -0.00075250    0.00142677   -0.00002399
     atom   16 type  2   force =     0.00067101    0.00128041    0.00025815
     atom   17 type  3   force =    -0.00053014   -0.00051078    0.00007521
     atom   18 type  3   force =     0.00018017   -0.00031609   -0.00000089
     atom   19 type  3   force =     0.00085414   -0.00150109    0.00000085
     atom   20 type  3   force =     0.00071023    0.00019493   -0.00007537
     The Hubbard contrib.    to forces
     atom    1 type  1   force =     0.00000000    0.00000000    0.00000000
     atom    2 type  1   force =     0.00000000    0.00000000    0.00000000
     atom    3 type  1   force =     0.00000000    0.00000000    0.00000000
     atom    4 type  1   force =     0.00000000    0.00000000    0.00000000
     atom    5 type  1   force =     0.00000000    0.00000000    0.00000000
     atom    6 type  1   force =     0.00000000    0.00000000    0.00000000
     atom    7 type  1   force =     0.00000000    0.00000000    0.00000000
     atom    8 type  1   force =     0.00000000    0.00000000    0.00000000
     atom    9 type  2   force =     0.00000000    0.00000000    0.00000000
     atom   10 type  2   force =     0.00000000    0.00000000    0.00000000
     atom   11 type  2   force =     0.00000000    0.00000000    0.00000000
     atom   12 type  2   force =     0.00000000    0.00000000    0.00000000
     atom   13 type  2   force =     0.00000000    0.00000000    0.00000000
     atom   14 type  2   force =     0.00000000    0.00000000    0.00000000
     atom   15 type  2   force =     0.00000000    0.00000000    0.00000000
     atom   16 type  2   force =     0.00000000    0.00000000    0.00000000
     atom   17 type  3   force =     0.00000000    0.00000000    0.00000000
     atom   18 type  3   force =     0.00000000    0.00000000    0.00000000
     atom   19 type  3   force =     0.00000000    0.00000000    0.00000000
     atom   20 type  3   force =     0.00000000    0.00000000    0.00000000
     The SCF correction term to forces
     atom    1 type  1   force =     0.00002427   -0.00001714   -0.00063778
     atom    2 type  1   force =    -0.00008712   -0.00007150    0.00040150
     atom    3 type  1   force =     0.00009752    0.00008255    0.00039331
     atom    4 type  1   force =     0.00008024    0.00006304    0.00013050
     atom    5 type  1   force =     0.00000971   -0.00000366   -0.00010937
     atom    6 type  1   force =    -0.00006368   -0.00004999   -0.00059432
     atom    7 type  1   force =    -0.00004419    0.00005363    0.00015249
     atom    8 type  1   force =    -0.00007364    0.00003180    0.00029676
     atom    9 type  2   force =     0.00000288   -0.00002317   -0.00017766
     atom   10 type  2   force =     0.00004561    0.00005294   -0.00006588
     atom   11 type  2   force =    -0.00004655   -0.00002275    0.00007736
     atom   12 type  2   force =    -0.00001302    0.00000313   -0.00024668
     atom   13 type  2   force =     0.00012454   -0.00002258    0.00017544
     atom   14 type  2   force =    -0.00009412    0.00003972   -0.00005943
     atom   15 type  2   force =     0.00001375    0.00010668    0.00007524
     atom   16 type  2   force =    -0.00003514   -0.00012756    0.00022886
     atom   17 type  3   force =     0.00008289   -0.00013272   -0.00009393
     atom   18 type  3   force =     0.00001923   -0.00000520   -0.00023101
     atom   19 type  3   force =    -0.00008458    0.00015187    0.00022724
     atom   20 type  3   force =     0.00005350   -0.00013681    0.00008210

     Total force =     0.069042     Total SCF correction =     0.001316

     Computing stress (Cartesian axis) and pressure

          total   stress  (Ry/bohr**3)                   (kbar)     P=     -328.59
  -0.00222851  -0.00000791   0.00001087         -327.82       -1.16        1.60
  -0.00000791  -0.00221910   0.00000620           -1.16     -326.44        0.91
   0.00001087   0.00000620  -0.00225357            1.60        0.91     -331.51

     kinetic stress (kbar)  22345.97     -0.44     22.72
                               -0.44  22346.49     12.93
                               22.72     12.93  22256.57

     local   stress (kbar)  -7538.33   -419.78    447.13
                             -419.78  -7039.71    254.49
                              447.13    254.49  -3259.66

     nonloc. stress (kbar)   9047.49     -0.43      5.05
                               -0.43   9048.01      2.88
                                5.05      2.88   9021.76

     hartree stress (kbar)   5798.96    137.58   -164.77
                              137.58   5635.53    -93.78
                             -164.77    -93.78   4492.89

     exc-cor stress (kbar)   5280.03      0.72      0.17
                                0.72   5279.17      0.10
                                0.17      0.10   5270.87

     corecor stress (kbar) -11420.15      0.22     -0.48
                                0.22 -11420.42     -0.27
                               -0.48     -0.27 -11416.63

     ewald   stress (kbar) -23841.79    280.95   -308.24
                              280.95 -24175.51   -175.44
                             -308.24   -175.44 -26697.31

     hubbard stress (kbar)      0.00      0.00      0.00
                                0.00      0.00      0.00
                                0.00      0.00      0.00

     DFT-D   stress (kbar)      0.00      0.00      0.00
                                0.00      0.00      0.00
                                0.00      0.00      0.00

     XDM     stress (kbar)      0.00      0.00      0.00
                                0.00      0.00      0.00
                                0.00      0.00      0.00

     dft-nl  stress (kbar)      0.00      0.00      0.00
                                0.00      0.00      0.00
                                0.00      0.00      0.00

     TS-vdW  stress (kbar)      0.00      0.00      0.00
                                0.00      0.00      0.00
                                0.00      0.00      0.00

[...]

                                0.00      0.00      0.00

     Writing all to output data dir calculations/myprefix.save/

     General routines

     Parallel routines

     PAW routines

   This run was terminated on:  12:44: 4   6Mar2023

   JOB DONE.