     Program PWSCF v.7.0 starts on  4Mar2023 at 20: 9:41

     R & G space division:  proc/nbgrp/npool/nimage =      32

     Reading input from espresso_7514.pwi
Warning: card &CELL ignored
Warning: card / ignored

     Current dimensions of program PWSCF are:
     Max number of different atomic species (ntypx) = 10
     Max number of k-points (npk) =  40000
     Max angular momentum in pseudopotentials (lmaxx) =  4
     file Mg.pbe-n-kjpaw_psl.0.3.0.UPF: wavefunction(s)  3S renormalized
     file In.pbe-dn-rrkjus_psl.0.2.2.UPF: wavefunction(s)  5S renormalized

     gamma-point specific algorithms are used
     Message from routine setup:
     using ibrav=0 with symmetry is DISCOURAGED, use correct ibrav instead

     Using Slab Decomposition

     bravais-lattice index     =            0
     lattice parameter (alat)  =      14.4710  a.u.
     unit-cell volume          =    2330.9333 (a.u.)^3
     number of atoms/cell      =           14
     number of atomic types    =            3
     number of electrons       =       104.00
     number of Kohn-Sham states=           62
     kinetic-energy cutoff     =      30.0000  Ry
     charge density cutoff     =     240.0000  Ry
     scf convergence threshold =      1.0E-06
     mixing beta               =       0.7000
     number of iterations used =            8  plain     mixing
     Exchange-correlation=  SLA  PW   PBX  PBC
                           (   1   4   3   4   0   0   0)

     celldm(1)=  14.470957  celldm(2)=   0.000000  celldm(3)=   0.000000
     celldm(4)=   0.000000  celldm(5)=   0.000000  celldm(6)=   0.000000

     crystal axes: (cart. coord. in units of alat)
               a(1) = (   1.000000   0.000000   0.000000 )
               a(2) = (  -0.363558   0.931572   0.000000 )
               a(3) = (  -0.318221  -0.465786   0.825699 )

     reciprocal axes: (cart. coord. in units 2 pi/alat)
               b(1) = (  1.000000  0.390263  0.605548 )
               b(2) = (  0.000000  1.073455  0.605548 )
               b(3) = (  0.000000  0.000000  1.211095 )

     PseudoPot. # 1 for Mg read from file:
     /home/pragov/projects/rrg-bengioy-ad/pragov/crystal_structure_design/SSSP/Mg.pbe-n-kjpaw_psl.0.3.0.UPF
     MD5 check sum: 24ecedc7f3e3cbe212e682f4413594e4
     Pseudo is Projector augmented-wave + core cor, Zval =  2.0
     Generated using "atomic" code by A. Dal Corso  v.5.0.99 svn rev. 10869
     Shape of augmentation charge: PSQ
     Using radial grid of 1129 points,  4 beta functions with:
                l(1) =   0
                l(2) =   0
                l(3) =   1
                l(4) =   1
     Q(r) pseudized with 0 coefficients

     PseudoPot. # 2 for In read from file:
     /home/pragov/projects/rrg-bengioy-ad/pragov/crystal_structure_design/SSSP/In.pbe-dn-rrkjus_psl.0.2.2.UPF
     MD5 check sum: 25e7c42c3b55b68f4bf926be2e7201a4
     Pseudo is Ultrasoft + core correction, Zval = 13.0
     Generated using "atomic" code by A. Dal Corso  v.5.0.99 svn rev. 10869
     Using radial grid of 1241 points,  6 beta functions with:
                l(1) =   0
                l(2) =   0
                l(3) =   1
                l(4) =   1
                l(5) =   2
                l(6) =   2
     Q(r) pseudized with 0 coefficients

     PseudoPot. # 3 for S  read from file:
     /home/pragov/projects/rrg-bengioy-ad/pragov/crystal_structure_design/SSSP/s_pbe_v1.4.uspp.F.UPF
     MD5 check sum: 88d86576ff6df21479756cfb9bdac1df
     Pseudo is Ultrasoft + core correction, Zval =  6.0
     Generated by new atomic code, or converted to UPF format
     Using radial grid of  907 points,  6 beta functions with:
                l(1) =   0
                l(2) =   0
                l(3) =   1
                l(4) =   1
                l(5) =   2
                l(6) =   2
     Q(r) pseudized with  8 coefficients,  rinner =    1.300   1.300   1.300
                                                       1.300   1.300

     atomic species   valence    mass     pseudopotential
        Mg             2.00    24.30500     Mg( 1.00)
        In            13.00   114.81800     In( 1.00)
        S              6.00    32.06000     S ( 1.00)

      2 Sym. Ops. (no inversion) found ( 1 have fractional translation)

                                    s                        frac. trans.

      isym =  1     identity

 cryst.   s( 1) = (     1          0          0      )
                  (     0          1          0      )
                  (     0          0          1      )

 cart.    s( 1) = (  1.0000000  0.0000000 -0.0000000 )
                  (  0.0000000  1.0000000  0.0000000 )
                  (  0.0000000  0.0000000  1.0000000 )

      isym =  2     inv. 180 deg rotation - cart. axis [0,0,1]

 cryst.   s( 2) = (     1          0          0      )    f =( -0.2500000 )
                  (     0          1          0      )       (  0.2500000 )
                  (    -1         -1         -1      )       (  0.5000000 )

 cart.    s( 2) = (  1.0000000  0.0000000 -0.0000000 )    f =( -0.5000000 )
                  (  0.0000000  1.0000000 -0.0000000 )       (  0.0000000 )
                  (  0.0000000  0.0000000 -1.0000000 )       (  0.4128495 )

   Cartesian axes

     site n.     atom                  positions (alat units)
         1           Mg  tau(   1) = (   0.0000000   0.0000000   0.0000000  )
         2           Mg  tau(   2) = (  -0.1817788   0.4657859   0.4128495  )
         3           In  tau(   3) = (   0.3062327   0.6447743   0.3019812  )
         4           In  tau(   4) = (  -0.3289009   0.0539045   0.7148307  )
         5           In  tau(   5) = (   0.1710991   0.0539045   0.5237178  )
         6           In  tau(   6) = (   0.4880115   0.1789885   0.1108683  )
         7           S   tau(   7) = (   0.0644071   0.4514047   0.2004838  )
         8           S   tau(   8) = (  -0.0780718   0.2411229   0.6242375  )
         9           S   tau(   9) = (   0.0788790  -0.2416744   0.6252151  )
        10           S   tau(  10) = (   0.5712280   0.4807185   0.2014615  )
        11           S   tau(  11) = (   0.7530069   0.0149326   0.2113880  )
        12           S   tau(  12) = (   0.2461859  -0.0143811   0.2123657  )
        13           S   tau(  13) = (   0.4219282   0.2411229   0.6143110  )
        14           S   tau(  14) = (   0.5788790  -0.2416744   0.6133333  )

   Crystallographic axes

     site n.     atom                  positions (cryst. coord.)
         1           Mg  tau(   1) = (  0.0000000  0.0000000  0.0000000  )
         2           Mg  tau(   2) = (  0.2500000  0.7500000  0.5000000  )
         3           In  tau(   3) = (  0.7407280  0.8750000  0.3657280  )
         4           In  tau(   4) = (  0.1250000  0.4907280  0.8657280  )
         5           In  tau(   5) = (  0.5092720  0.3750000  0.6342720  )
         6           In  tau(   6) = (  0.6250000  0.2592720  0.1342720  )
         7           S   tau(   7) = (  0.3619760  0.6059650  0.2428050  )
         8           S   tau(   8) = (  0.3940350  0.6368400  0.7560110  )
         9           S   tau(   9) = (  0.3631600  0.1191710  0.7571950  )
        10           S   tau(  10) = (  0.8808290  0.6380240  0.2439890  )
        11           S   tau(  11) = (  0.8868400  0.1440350  0.2560110  )
        12           S   tau(  12) = (  0.3691710  0.1131600  0.2571950  )
        13           S   tau(  13) = (  0.8880240  0.6308290  0.7439890  )
        14           S   tau(  14) = (  0.8559650  0.1119760  0.7428050  )

     number of k points=     1  Methfessel-Paxton smearing, width (Ry)=  0.0010
                       cart. coord. in units 2pi/alat
        k(    1) = (   0.0000000   0.0000000   0.0000000), wk =   2.0000000

                       cryst. coord.
        k(    1) = (   0.0000000   0.0000000   0.0000000), wk =   2.0000000

     Initial potential from superposition of free atoms

     starting charge     103.9830, renormalised to     104.0000
     Starting wfcs are   76 randomized atomic wfcs
     Checking if some PAW data can be deallocated...

     Self-consistent Calculation

     iteration #  1     ecut=    30.00 Ry     beta= 0.70
     Davidson diagonalization with overlap

     ethr =  1.00E-02,  avg # of iterations =  6.0

     total energy              =    -838.93336540 Ry
     estimated scf accuracy    <       1.38213873 Ry

[...]

     total energy              =    -839.56284208 Ry
     estimated scf accuracy    <       0.00000875 Ry

     iteration #  8     ecut=    30.00 Ry     beta= 0.70
     Davidson diagonalization with overlap

     ethr =  8.41E-09,  avg # of iterations =  4.0

     End of self-consistent calculation

          k = 0.0000 0.0000 0.0000 (  3246 PWs)   bands (ev):

    -9.4346  -9.3666  -9.3654  -9.2641  -9.2609  -9.1890  -9.1881  -9.1541
    -9.1075  -9.1070  -9.0884  -9.0720  -9.0551  -9.0502  -9.0491  -9.0462
    -9.0251  -9.0006  -8.9994  -8.9989  -7.5065  -6.5207  -6.5207  -6.2336
    -6.1847  -6.0379  -6.0378  -5.4898  -1.0432  -0.4924  -0.4922   0.1006
     0.7621   1.6600   1.9858   2.1679   2.1681   3.0660   3.2951   3.2952
     3.7825   3.7825   3.8233   3.9839   3.9865   3.9865   4.0527   4.1140
     4.4361   4.7546   4.7546   4.8192   6.2287   6.6512   6.6513   6.9452
     7.9768   8.4732   8.5698   8.5699   8.7428   9.8870

     occupation numbers
     1.0000   1.0000   1.0000   1.0000   1.0000   1.0000   1.0000   1.0000
     1.0000   1.0000   1.0000   1.0000   1.0000   1.0000   1.0000   1.0000
     1.0000   1.0000   1.0000   1.0000   1.0000   1.0000   1.0000   1.0000
     1.0000   1.0000   1.0000   1.0000   1.0000   1.0000   1.0000   1.0000
     1.0000   1.0000   1.0000   1.0000   1.0000   1.0000   1.0000   1.0000
     1.0000   1.0000   1.0000   1.0000   1.0000   1.0000   1.0000   1.0000
     1.0000   1.0000   1.0000   1.0000  -0.0000  -0.0000  -0.0000  -0.0000
    -0.0000  -0.0000  -0.0000  -0.0000  -0.0000  -0.0000

     the Fermi energy is     5.1246 ev

!    total energy              =    -839.56284505 Ry
     estimated scf accuracy    <       0.00000070 Ry
     smearing contrib. (-TS)   =       0.00000000 Ry
     internal energy E=F+TS    =    -839.56284505 Ry

     The total energy is F=E-TS. E is the sum of the following terms:
     one-electron contribution =    -314.16760089 Ry
     hartree contribution      =     222.24029275 Ry
     xc contribution           =    -262.11396734 Ry
     ewald contribution        =    -422.97151589 Ry
     one-center paw contrib.   =     -62.55005368 Ry
      -> PAW hartree energy AE =       0.61789688 Ry
      -> PAW hartree energy PS =      -0.61657710 Ry
      -> PAW xc energy AE      =     -32.49571963 Ry
      -> PAW xc energy PS      =       1.21937301 Ry
      -> total E_H with PAW    =     222.24161253 Ry
      -> total E_XC with PAW   =    -293.39031396 Ry

     convergence has been achieved in   8 iterations

     Forces acting on atoms (cartesian axes, Ry/au):

     atom    1 type  1   force =     0.00001453   -0.00000646    0.00000472
     atom    2 type  1   force =     0.00001453   -0.00000646   -0.00000472
     atom    3 type  2   force =     0.00186403   -0.00133004    0.00232140
     atom    4 type  2   force =    -0.00193553    0.00138650    0.00238959
     atom    5 type  2   force =    -0.00193553    0.00138650   -0.00238959
     atom    6 type  2   force =     0.00186403   -0.00133004   -0.00232140
     atom    7 type  3   force =    -0.00282016    0.00942192   -0.01279768
     atom    8 type  3   force =     0.00706534   -0.01232156   -0.00764974
     atom    9 type  3   force =     0.00983853    0.00075792    0.01277002
     atom   10 type  3   force =    -0.01402674    0.00209173    0.00765388
     atom   11 type  3   force =    -0.01402674    0.00209173   -0.00765388
     atom   12 type  3   force =    -0.00282016    0.00942192    0.01279768
     atom   13 type  3   force =     0.00706534   -0.01232156    0.00764974
     atom   14 type  3   force =     0.00983853    0.00075792   -0.01277002
     The non-local contrib.  to forces
     atom    1 type  1   force =    -0.00000261   -0.00000040   -0.00000199
     atom    2 type  1   force =    -0.00000261   -0.00000040    0.00000199
     atom    3 type  2   force =    -0.03129166    0.02149315   -0.03791531
     atom    4 type  2   force =     0.03129020   -0.02139095   -0.03798964
     atom    5 type  2   force =     0.03129020   -0.02139095    0.03798964
     atom    6 type  2   force =    -0.03129166    0.02149315    0.03791531
     atom    7 type  3   force =    -0.00202231    0.34750813   -0.09494119
     atom    8 type  3   force =    -0.08284929   -0.28949102   -0.19767610
     atom    9 type  3   force =     0.32435531    0.12443820    0.09492751
     atom   10 type  3   force =    -0.23958558   -0.18241039    0.19764972
     atom   11 type  3   force =    -0.23958558   -0.18241039   -0.19764972
     atom   12 type  3   force =    -0.00202231    0.34750813    0.09494119
     atom   13 type  3   force =    -0.08284929   -0.28949102    0.19767610
     atom   14 type  3   force =     0.32435531    0.12443820   -0.09492751
     The ionic contribution  to forces
     atom    1 type  1   force =     0.00000000   -0.00000000    0.00000000
     atom    2 type  1   force =    -0.00000000    0.00000000   -0.00000000
     atom    3 type  2   force =     0.98542117   -0.67323188    1.19343875
     atom    4 type  2   force =    -0.98542117    0.67323188    1.19343875
     atom    5 type  2   force =    -0.98542117    0.67323188   -1.19343875
     atom    6 type  2   force =     0.98542117   -0.67323188   -1.19343875
     atom    7 type  3   force =    -3.14594288   -3.16831525    2.71431693
     atom    8 type  3   force =     0.23565330    5.15660186   -0.81032051
     atom    9 type  3   force =    -1.80778122   -4.08253661   -2.71431693
     atom   10 type  3   force =     4.71807081    2.09425000    0.81032051
     atom   11 type  3   force =     4.71807081    2.09425000   -0.81032051
     atom   12 type  3   force =    -3.14594289   -3.16831525   -2.71431693
     atom   13 type  3   force =     0.23565330    5.15660186    0.81032051
     atom   14 type  3   force =    -1.80778122   -4.08253661    2.71431693
     The local contribution  to forces
     atom    1 type  1   force =     0.00004654    0.00000970    0.00000379
     atom    2 type  1   force =    -0.00006512    0.00000925   -0.00000445
     atom    3 type  2   force =    -0.95296442    0.65136408   -1.15412004
     atom    4 type  2   force =     0.95294099   -0.65080151   -1.15401411
     atom    5 type  2   force =     0.95287886   -0.65146528    1.15430089
     atom    6 type  2   force =    -0.95296624    0.65074495    1.15418395
     atom    7 type  3   force =     3.14426376    2.84960099   -2.63758376
     atom    8 type  3   force =    -0.15075982   -4.89512156    0.98919047
     atom    9 type  3   force =     1.51121668    3.96510121    2.63726088
     atom   10 type  3   force =    -4.50518295   -1.91963430   -0.98890507
     atom   11 type  3   force =    -4.50561711   -1.91968595    0.98901803
     atom   12 type  3   force =     3.14463043    2.84919795    2.63695661
     atom   13 type  3   force =    -0.14981100   -4.89515754   -0.98876856
     atom   14 type  3   force =     1.51153954    3.96553551   -2.63701347
     The core correction contribution to forces
     atom    1 type  1   force =     0.00000138    0.00000082   -0.00000005
     atom    2 type  1   force =    -0.00000180   -0.00000002   -0.00000037
     atom    3 type  2   force =     0.00116074   -0.00081952    0.00142463
     atom    4 type  2   force =    -0.00115045    0.00081271    0.00144111
     atom    5 type  2   force =    -0.00118432    0.00078587   -0.00139835
     atom    6 type  2   force =     0.00115689   -0.00079946   -0.00140226
     atom    7 type  3   force =     0.00018443   -0.01919697    0.00526728
     atom    8 type  3   force =     0.00453743    0.01596978    0.01097720
     atom    9 type  3   force =    -0.01794019   -0.00682128   -0.00525552
     atom   10 type  3   force =     0.01323295    0.01004711   -0.01097736
     atom   11 type  3   force =     0.01323180    0.01002647    0.01097625
     atom   12 type  3   force =     0.00017419   -0.01920681   -0.00525993
     atom   13 type  3   force =     0.00454021    0.01597754   -0.01097563
     atom   14 type  3   force =    -0.01793589   -0.00680815    0.00526115
     The Hubbard contrib.    to forces
     atom    1 type  1   force =     0.00000000    0.00000000    0.00000000
     atom    2 type  1   force =     0.00000000    0.00000000    0.00000000
     atom    3 type  2   force =     0.00000000    0.00000000    0.00000000
     atom    4 type  2   force =     0.00000000    0.00000000    0.00000000
     atom    5 type  2   force =     0.00000000    0.00000000    0.00000000
     atom    6 type  2   force =     0.00000000    0.00000000    0.00000000
     atom    7 type  3   force =     0.00000000    0.00000000    0.00000000
     atom    8 type  3   force =     0.00000000    0.00000000    0.00000000
     atom    9 type  3   force =     0.00000000    0.00000000    0.00000000
     atom   10 type  3   force =     0.00000000    0.00000000    0.00000000
     atom   11 type  3   force =     0.00000000    0.00000000    0.00000000
     atom   12 type  3   force =     0.00000000    0.00000000    0.00000000
     atom   13 type  3   force =     0.00000000    0.00000000    0.00000000
     atom   14 type  3   force =     0.00000000    0.00000000    0.00000000
     The SCF correction term to forces
     atom    1 type  1   force =    -0.00003234   -0.00000653    0.00000262
     atom    2 type  1   force =     0.00005519   -0.00001033   -0.00000223
     atom    3 type  2   force =    -0.00049320   -0.00040025   -0.00041410
     atom    4 type  2   force =     0.00061372   -0.00043529   -0.00025367
     atom    5 type  2   force =     0.00026167    0.00020967    0.00038983
     atom    6 type  2   force =    -0.00045515    0.00074260    0.00051288
     atom    7 type  3   force =     0.00069760   -0.00016246    0.00011319
     atom    8 type  3   force =     0.00049114   -0.00027024    0.00023589
     atom    9 type  3   force =    -0.00007578    0.00060685    0.00022512
     atom   10 type  3   force =    -0.00056774   -0.00010024   -0.00048567
     atom   11 type  3   force =    -0.00015132   -0.00013384    0.00027032
     atom   12 type  3   force =     0.00030922    0.00024038    0.00044688
     atom   13 type  3   force =    -0.00050573   -0.00024776   -0.00054601
     atom   14 type  3   force =    -0.00030589    0.00011357   -0.00033610

     Total force =     0.046107     Total SCF correction =     0.002385

     Computing stress (Cartesian axis) and pressure

          total   stress  (Ry/bohr**3)                   (kbar)     P=       51.18
   0.00034705   0.00002654  -0.00000000           51.05        3.90       -0.00
   0.00002654   0.00036780  -0.00000000            3.90       54.11       -0.00
  -0.00000000  -0.00000000   0.00032897           -0.00       -0.00       48.39

     kinetic stress (kbar)   7574.73    -28.10     -0.00
                              -28.10   7552.82     -0.00
                               -0.00     -0.00   7594.03

     local   stress (kbar)  -3721.47   -322.51     -0.04
                             -322.51  -3973.17     -0.06
                               -0.04     -0.06  -3501.14

     nonloc. stress (kbar)   3285.90     -6.61     -0.00
                               -6.61   3280.72     -0.00
                               -0.00     -0.00   3290.35

     hartree stress (kbar)   4673.55     51.11      0.06
                               51.11   4713.41      0.04
                                0.06      0.04   4638.62

     exc-cor stress (kbar)   6592.99      0.52     -0.00
                                0.52   6593.40      0.00
                               -0.00      0.00   6592.64

     corecor stress (kbar)  -9446.76      1.91      0.00
                                1.91  -9445.27     -0.00
                                0.00     -0.00  -9448.07

     ewald   stress (kbar)  -8907.88    307.60     -0.00
                              307.60  -8667.80     -0.00
                               -0.00     -0.00  -9118.03

     hubbard stress (kbar)      0.00      0.00      0.00
                                0.00      0.00      0.00
                                0.00      0.00      0.00

     DFT-D   stress (kbar)      0.00      0.00      0.00
                                0.00      0.00      0.00
                                0.00      0.00      0.00

     XDM     stress (kbar)      0.00      0.00      0.00
                                0.00      0.00      0.00
                                0.00      0.00      0.00

     dft-nl  stress (kbar)      0.00      0.00      0.00
                                0.00      0.00      0.00
                                0.00      0.00      0.00

     TS-vdW  stress (kbar)      0.00      0.00      0.00
                                0.00      0.00      0.00
                                0.00      0.00      0.00

[...]

                                0.00      0.00      0.00

     Writing all to output data dir calculations/myprefix.save/

     General routines

     Parallel routines

     PAW routines

   This run was terminated on:  20: 9:45   4Mar2023

   JOB DONE.