     Program PWSCF v.7.0 starts on  6Mar2023 at 12: 5:29

     R & G space division:  proc/nbgrp/npool/nimage =      32

     Reading input from espresso_4545.pwi
Warning: card &CELL ignored
Warning: card / ignored

     Current dimensions of program PWSCF are:
     Max number of different atomic species (ntypx) = 10
     Max number of k-points (npk) =  40000
     Max angular momentum in pseudopotentials (lmaxx) =  4
     file Al.pbe-n-kjpaw_psl.1.0.0.UPF: wavefunction(s)  3S 3P renormalized

     gamma-point specific algorithms are used
     Message from routine setup:
     using ibrav=0 with symmetry is DISCOURAGED, use correct ibrav instead

     Using Slab Decomposition

     bravais-lattice index     =            0
     lattice parameter (alat)  =       8.8466  a.u.
     unit-cell volume          =     489.5692 (a.u.)^3
     number of atoms/cell      =            4
     number of atomic types    =            3
     number of electrons       =        67.00
     number of Kohn-Sham states=           41
     kinetic-energy cutoff     =      30.0000  Ry
     charge density cutoff     =     240.0000  Ry
     scf convergence threshold =      1.0E-06
     mixing beta               =       0.7000
     number of iterations used =            8  plain     mixing
     Exchange-correlation= SLA  PW   PBE  PBE
                           (   1   4   3   4   0   0   0)

     celldm(1)=   8.846599  celldm(2)=   0.000000  celldm(3)=   0.000000
     celldm(4)=   0.000000  celldm(5)=   0.000000  celldm(6)=   0.000000

     crystal axes: (cart. coord. in units of alat)
               a(1) = (   1.000000   0.000000   0.000000 )
               a(2) = (   0.500000   0.866025   0.000000 )
               a(3) = (   0.500000   0.288675   0.816497 )

     reciprocal axes: (cart. coord. in units 2 pi/alat)
               b(1) = (  1.000000 -0.577350 -0.408248 )
               b(2) = (  0.000000  1.154701 -0.408248 )
               b(3) = (  0.000000  0.000000  1.224745 )

     PseudoPot. # 1 for Yb read from file:
     /home/pragov/projects/rrg-bengioy-ad/pragov/crystal_structure_design/SSSP/Yb.GGA-PBE-paw-v1.0.UPF
     MD5 check sum: 43b6465ad8021f06e3edb42ae292e187
     Pseudo is Projector augmented-wave + core cor, Zval = 24.0
     Generated using ATOMPAW code
     Shape of augmentation charge: BESSEL
     Using radial grid of 1117 points,  8 beta functions with:
                l(1) =   0
                l(2) =   0
                l(3) =   1
                l(4) =   1
                l(5) =   2
                l(6) =   2
                l(7) =   3
                l(8) =   3
     Q(r) pseudized with 0 coefficients

     PseudoPot. # 2 for Al read from file:
     /home/pragov/projects/rrg-bengioy-ad/pragov/crystal_structure_design/SSSP/Al.pbe-n-kjpaw_psl.1.0.0.UPF
     MD5 check sum: cfc449ca30b5f3223ec38ddd88ac046d
     Pseudo is Projector augmented-wave + core cor, Zval =  3.0
     Generated using "atomic" code by A. Dal Corso  v.5.1
     Shape of augmentation charge: PSQ
     Using radial grid of 1135 points,  6 beta functions with:
                l(1) =   0
                l(2) =   0
                l(3) =   1
                l(4) =   1
                l(5) =   2
                l(6) =   2
     Q(r) pseudized with 0 coefficients

     PseudoPot. # 3 for Zn read from file:
     /home/pragov/projects/rrg-bengioy-ad/pragov/crystal_structure_design/SSSP/Zn_pbe_v1.uspp.F.UPF
     MD5 check sum: df62231357ef9e81f77b2b3087fa5675
     Pseudo is Ultrasoft, Zval = 20.0
     Generated by new atomic code, or converted to UPF format
     Using radial grid of  943 points,  6 beta functions with:
                l(1) =   0
                l(2) =   0
                l(3) =   1
                l(4) =   1
                l(5) =   2
                l(6) =   2
     Q(r) pseudized with  8 coefficients,  rinner =    1.100   1.100   1.100
                                                       1.100   1.100

     atomic species   valence    mass     pseudopotential
        Yb            24.00   173.05400     Yb( 1.00)
        Al             3.00    26.98154     Al( 1.00)
        Zn            20.00    65.38000     Zn( 1.00)

     12 Sym. Ops., with inversion, found ( 6 have fractional translation)

                                    s                        frac. trans.

      isym =  1     identity

 cryst.   s( 1) = (     1          0          0      )
                  (     0          1          0      )
                  (     0          0          1      )

 cart.    s( 1) = (  1.0000000  0.0000000  0.0000000 )
                  (  0.0000000  1.0000000 -0.0000000 )
                  (  0.0000000  0.0000000  1.0000000 )

      isym =  2     180 deg rotation - cart. axis [1,0,0]

 cryst.   s( 2) = (     1          0          0      )    f =(  0.5000000 )
                  (     1         -1          0      )       ( -0.5000000 )
                  (     1          0         -1      )       ( -0.5000000 )

 cart.    s( 2) = (  1.0000000  0.0000000 -0.0000000 )    f =( -0.0000000 )
                  (  0.0000000 -1.0000000  0.0000000 )       ( -0.5773503 )
                  (  0.0000000  0.0000000 -1.0000000 )       ( -0.4082483 )

      isym =  3     120 deg rotation - cryst. axis [0,0,1]

[...]

      isym =  6     180 deg rotation - cryst. axis [1,1,0]

[...]

      isym =  7     inversion

[...]

      isym =  8     inv. 180 deg rotation - cart. axis [1,0,0]

 cryst.   s( 8) = (    -1          0          0      )
                  (    -1          1          0      )
                  (    -1          0          1      )

 cart.    s( 8) = ( -1.0000000  0.0000000  0.0000000 )
                  (  0.0000000  1.0000000 -0.0000000 )
                  (  0.0000000  0.0000000  1.0000000 )

      isym =  9     inv. 120 deg rotation - cryst. axis [0,0,1]

 cryst.   s( 9) = (     1         -1          0      )    f =(  0.5000000 )
                  (     1          0          0      )       (  0.5000000 )
                  (     1          0         -1      )       ( -0.5000000 )

 cart.    s( 9) = (  0.5000000  0.8660254  0.0000000 )    f =(  0.5000000 )
                  ( -0.8660254  0.5000000  0.0000000 )       (  0.2886751 )
                  (  0.0000000  0.0000000 -1.0000000 )       ( -0.4082483 )

[...]

 cryst.   s(10) = (     0          1          0      )    f =(  0.5000000 )
                  (    -1          1          0      )       (  0.5000000 )
                  (     0          1         -1      )       ( -0.5000000 )

 cart.    s(10) = (  0.5000000 -0.8660254  0.0000000 )    f =(  0.5000000 )
                  (  0.8660254  0.5000000 -0.0000000 )       (  0.2886751 )
                  (  0.0000000  0.0000000 -1.0000000 )       ( -0.4082483 )

[...]

 cryst.   s(11) = (     0          1          0      )
                  (     1          0          0      )
                  (     0          0          1      )

 cart.    s(11) = (  0.5000000  0.8660254  0.0000000 )
                  (  0.8660254 -0.5000000 -0.0000000 )
                  (  0.0000000  0.0000000  1.0000000 )

      isym = 12     inv. 180 deg rotation - cryst. axis [1,1,0]

 cryst.   s(12) = (     1         -1          0      )
                  (     0         -1          0      )
                  (     0         -1          1      )

 cart.    s(12) = (  0.5000000 -0.8660254  0.0000000 )
                  ( -0.8660254 -0.5000000  0.0000000 )
                  (  0.0000000  0.0000000  1.0000000 )

   Cartesian axes

     site n.     atom                  positions (alat units)
         1           Yb  tau(   1) = (   1.5000000   0.8660254   0.6123724  )
         2           Al  tau(   2) = (   0.5000000   0.2886751   0.2041241  )
         3           Zn  tau(   3) = (   0.0000000   0.0000000   0.0000000  )
         4           Zn  tau(   4) = (   1.0000020   0.5773514   0.4082491  )

   Crystallographic axes

     site n.     atom                  positions (cryst. coord.)
         1           Yb  tau(   1) = (  0.7500000  0.7500000  0.7500000  )
         2           Al  tau(   2) = (  0.2500000  0.2500000  0.2500000  )
         3           Zn  tau(   3) = (  0.0000000  0.0000000  0.0000000  )
         4           Zn  tau(   4) = (  0.5000010  0.5000010  0.5000010  )

     number of k points=     1  Methfessel-Paxton smearing, width (Ry)=  0.0010
                       cart. coord. in units 2pi/alat
        k(    1) = (   0.0000000   0.0000000   0.0000000), wk =   2.0000000

                       cryst. coord.
        k(    1) = (   0.0000000   0.0000000   0.0000000), wk =   2.0000000

     Initial potential from superposition of free atoms

     starting charge      66.9934, renormalised to      67.0000
     Starting wfcs are   62 randomized atomic wfcs
     Checking if some PAW data can be deallocated...

     Self-consistent Calculation

     iteration #  1     ecut=    30.00 Ry     beta= 0.70
     Davidson diagonalization with overlap

     ethr =  1.00E-02,  avg # of iterations =  3.0

     total energy              =   -1971.76674099 Ry
     estimated scf accuracy    <       1.48851761 Ry

[...]

     ethr =  5.48E-06,  avg # of iterations =  1.0
     Minimization algorithm failed to find Fermi energy: reverting to bisection
     Possible cause: smearing is larger than the electronic band-gap.

[...]

     ethr =  5.48E-06,  avg # of iterations =  1.0
     Minimization algorithm failed to find Fermi energy: reverting to bisection
     Possible cause: smearing is larger than the electronic band-gap.

[...]

     total energy              =   -1972.91040333 Ry
     estimated scf accuracy    <       0.00000113 Ry

     iteration # 51     ecut=    30.00 Ry     beta= 0.70
     Davidson diagonalization with overlap

     ethr =  1.69E-09,  avg # of iterations =  1.0

     End of self-consistent calculation

          k = 0.0000 0.0000 0.0000 (   682 PWs)   bands (ev):

  -113.8507-113.8502 -67.9227 -67.9227 -67.9227 -67.9223 -67.9223 -67.9223
   -38.2468 -10.3750 -10.3749 -10.3749   3.6695   5.2243   5.2243   5.2680
     5.2680   5.2680   5.5036   5.5036   5.5036   5.6783   5.6783  11.8422
    11.9595  11.9595  11.9596  12.0836  12.0836  12.0836  12.2472  12.2472
    12.2473  14.0537  14.0537  14.0538  14.0578  14.8240  15.6834  15.6834
    19.8913

     occupation numbers
     1.0000   1.0000   1.0000   1.0000   1.0000   1.0000   1.0000   1.0000
     1.0000   1.0000   1.0000   1.0000   1.0000   1.0000   1.0000   1.0000
     1.0000   1.0000   1.0000   1.0000   1.0000   1.0000   1.0000   1.0000
     1.0000   1.0000   1.0000   1.0000   1.0000   1.0000   1.0000   1.0000
     1.0000   0.1590   0.1585   0.1577   0.0248  -0.0000  -0.0000  -0.0000
    -0.0000

     the Fermi energy is    14.0476 ev

!    total energy              =   -1972.91040275 Ry
     estimated scf accuracy    <       0.00000095 Ry
     smearing contrib. (-TS)   =      -0.00039201 Ry
     internal energy E=F+TS    =   -1972.91001075 Ry

     The total energy is F=E-TS. E is the sum of the following terms:
     one-electron contribution =   -1189.17108376 Ry
     hartree contribution      =     589.23375390 Ry
     xc contribution           =    -124.86394331 Ry
     ewald contribution        =    -728.23414517 Ry
     one-center paw contrib.   =    -519.87459241 Ry
      -> PAW hartree energy AE =     451.47320825 Ry
      -> PAW hartree energy PS =    -389.33798232 Ry
      -> PAW xc energy AE      =    -584.59614308 Ry
      -> PAW xc energy PS      =      37.19780806 Ry
      -> total E_H with PAW    =     651.36897983 Ry
      -> total E_XC with PAW   =    -672.26227833 Ry

     convergence has been achieved in  51 iterations

     Forces acting on atoms (cartesian axes, Ry/au):

     atom    1 type  1   force =     0.00000000    0.00000000    0.00000000
     atom    2 type  2   force =     0.00000000    0.00000000    0.00000000
     atom    3 type  3   force =     0.00000000    0.00000000    0.00080887
     atom    4 type  3   force =     0.00000000    0.00000000   -0.00080887
     The non-local contrib.  to forces
     atom    1 type  1   force =    -0.00000000    0.00000000    0.00000000
     atom    2 type  2   force =     0.00000000    0.00000000    0.00000000
     atom    3 type  3   force =     0.00000000    0.00000000    0.00108504
     atom    4 type  3   force =     0.00000000    0.00000000   -0.00108504
     The ionic contribution  to forces
     atom    1 type  1   force =     0.00014533    0.00008391    0.00005933
     atom    2 type  2   force =     0.00001817    0.00001049    0.00000742
     atom    3 type  3   force =     0.00012111    0.00006992    0.00004944
     atom    4 type  3   force =    -0.00028460   -0.00016432   -0.00011619
     The local contribution  to forces
     atom    1 type  1   force =    -0.00014783   -0.00008659   -0.00007392
     atom    2 type  2   force =    -0.00001939   -0.00000980   -0.00000767
     atom    3 type  3   force =    -0.00436299   -0.00496736   -0.00191816
     atom    4 type  3   force =     0.00456981    0.00509696    0.00200486
     The core correction contribution to forces
     atom    1 type  1   force =    -0.00000000   -0.00000000   -0.00000000
     atom    2 type  2   force =    -0.00000004    0.00000007    0.00000000
     atom    3 type  3   force =     0.00000000    0.00000000    0.00000000
     atom    4 type  3   force =     0.00000000    0.00000000    0.00000000
     The Hubbard contrib.    to forces
     atom    1 type  1   force =     0.00000000    0.00000000    0.00000000
     atom    2 type  2   force =     0.00000000    0.00000000    0.00000000
     atom    3 type  3   force =     0.00000000    0.00000000    0.00000000
     atom    4 type  3   force =     0.00000000    0.00000000    0.00000000
     The SCF correction term to forces
     atom    1 type  1   force =     0.00000071   -0.00000264    0.00001551
     atom    2 type  2   force =     0.00000004   -0.00000046   -0.00000010
     atom    3 type  3   force =     0.00313461    0.00317481    0.00159955
     atom    4 type  3   force =    -0.00313805   -0.00319591   -0.00160548

     Total force =     0.001144     Total SCF correction =     0.006716
     SCF correction compared to forces is large: reduce conv_thr to get better values

     Computing stress (Cartesian axis) and pressure

          total   stress  (Ry/bohr**3)                   (kbar)     P=     -451.50
  -0.00306862   0.00000000   0.00000000         -451.41        0.00        0.00
   0.00000000  -0.00306862  -0.00000000            0.00     -451.41       -0.00
   0.00000000  -0.00000000  -0.00307056            0.00       -0.00     -451.69

     kinetic stress (kbar)  20726.70     -0.00     -0.00
                               -0.00  20726.70     -0.00
                               -0.00     -0.00  20726.71

     local   stress (kbar)   -666.81     -0.46     -0.33
                               -0.46   -666.07     -0.22
                               -0.33     -0.22   -666.12

     nonloc. stress (kbar)   5314.46      0.00      0.00
                                0.00   5314.46      0.00
                                0.00      0.00   5314.51

     hartree stress (kbar)  59018.05      0.47      0.33
                                0.47  59017.01      0.12
                                0.33      0.12  59017.07

     exc-cor stress (kbar) -11619.84     -0.00     -0.00
                               -0.00 -11619.83      0.00
                               -0.00      0.00 -11619.83

     corecor stress (kbar)   -284.29      0.01      0.01
                                0.01   -284.31     -0.00
                                0.01     -0.00   -284.31

     ewald   stress (kbar) -72939.39      0.23      0.17
                                0.23 -72939.66      0.10
                                0.17      0.10 -72939.73

     hubbard stress (kbar)      0.00      0.00      0.00
                                0.00      0.00      0.00
                                0.00      0.00      0.00

     DFT-D   stress (kbar)      0.00      0.00      0.00
                                0.00      0.00      0.00
                                0.00      0.00      0.00

     XDM     stress (kbar)      0.00      0.00      0.00
                                0.00      0.00      0.00
                                0.00      0.00      0.00

     dft-nl  stress (kbar)      0.00      0.00      0.00
                                0.00      0.00      0.00
                                0.00      0.00      0.00

     TS-vdW  stress (kbar)      0.00      0.00      0.00
                                0.00      0.00      0.00
                                0.00      0.00      0.00

[...]

                                0.00      0.00      0.00

     Writing all to output data dir calculations/myprefix.save/

     General routines

     Parallel routines

     PAW routines

   This run was terminated on:  12: 5:44   6Mar2023

   JOB DONE.