     Program PWSCF v.7.0 starts on  4Mar2023 at 17:44:15

     R & G space division:  proc/nbgrp/npool/nimage =      32

     Reading input from espresso_7097.pwi
Warning: card &CELL ignored
Warning: card / ignored

     Current dimensions of program PWSCF are:
     Max number of different atomic species (ntypx) = 10
     Max number of k-points (npk) =  40000
     Max angular momentum in pseudopotentials (lmaxx) =  4

     gamma-point specific algorithms are used
     Message from routine setup:
     using ibrav=0 with symmetry is DISCOURAGED, use correct ibrav instead

     Using Slab Decomposition

     bravais-lattice index     =            0
     lattice parameter (alat)  =      17.9761  a.u.
     unit-cell volume          =    4020.4309 (a.u.)^3
     number of atoms/cell      =           11
     number of atomic types    =            2
     number of electrons       =       129.00
     number of Kohn-Sham states=           78
     kinetic-energy cutoff     =      30.0000  Ry
     charge density cutoff     =     240.0000  Ry
     scf convergence threshold =      1.0E-06
     mixing beta               =       0.7000
     number of iterations used =            8  plain     mixing
     Exchange-correlation= SLA  PW   PBX  PBC
                           (   1   4   3   4   0   0   0)

     celldm(1)=  17.976109  celldm(2)=   0.000000  celldm(3)=   0.000000
     celldm(4)=   0.000000  celldm(5)=   0.000000  celldm(6)=   0.000000

     crystal axes: (cart. coord. in units of alat)
               a(1) = (   1.000000   0.000000   0.000000 )
               a(2) = (   0.000000   1.000000   0.000000 )
               a(3) = (   0.000000   0.000000   0.692127 )

     reciprocal axes: (cart. coord. in units 2 pi/alat)
               b(1) = (  1.000000  0.000000  0.000000 )
               b(2) = (  0.000000  1.000000  0.000000 )
               b(3) = (  0.000000  0.000000  1.444822 )

     PseudoPot. # 1 for Hg read from file:
     /home/pragov/projects/rrg-bengioy-ad/pragov/crystal_structure_design/SSSP/Hg_ONCV_PBE-1.0.oncvpsp.upf
     MD5 check sum: dd5a8773074bfcf4280086d4d95875c4
     Pseudo is Norm-conserving, Zval = 20.0
     Generated using ONCVPSP code by D. R. Hamann
     Using radial grid of 1262 points,  8 beta functions with:
                l(1) =   0
                l(2) =   0
                l(3) =   1
                l(4) =   1
                l(5) =   2
                l(6) =   2
                l(7) =   3
                l(8) =   3

     PseudoPot. # 2 for I  read from file:
     /home/pragov/projects/rrg-bengioy-ad/pragov/crystal_structure_design/SSSP/I.pbe-n-kjpaw_psl.0.2.UPF
     MD5 check sum: d4ef18d9c8f18dc85e5843bca1e50dc0
     Pseudo is Projector augmented-wave + core cor, Zval =  7.0
     Generated using "atomic" code by A. Dal Corso  v.5.0.99 svn rev. 10869
     Shape of augmentation charge: PSQ
     Using radial grid of 1247 points,  4 beta functions with:
                l(1) =   0
                l(2) =   0
                l(3) =   1
                l(4) =   1
     Q(r) pseudized with 0 coefficients

     atomic species   valence    mass     pseudopotential
        Hg            20.00   200.59200     Hg( 1.00)
        I              7.00   126.90447     I ( 1.00)

      8 Sym. Ops. (no inversion) found

                                    s                        frac. trans.

      isym =  1     identity

 cryst.   s( 1) = (     1          0          0      )
                  (     0          1          0      )
                  (     0          0          1      )

 cart.    s( 1) = (  1.0000000  0.0000000  0.0000000 )
                  (  0.0000000  1.0000000  0.0000000 )
                  (  0.0000000  0.0000000  1.0000000 )

      isym =  2     180 deg rotation - cart. axis [0,0,1]

[...]

      isym =  4     180 deg rotation - cart. axis [1,-1,0]

[...]

      isym =  5     inv. 180 deg rotation - cart. axis [0,1,0]

[...]

      isym =  8     inv.  90 deg rotation - cart. axis [0,0,1]

 cryst.   s( 8) = (     0         -1          0      )
                  (     1          0          0      )
                  (     0          0         -1      )

 cart.    s( 8) = (  0.0000000  1.0000000  0.0000000 )
                  ( -1.0000000  0.0000000  0.0000000 )
                  (  0.0000000  0.0000000 -1.0000000 )

   Cartesian axes

     site n.     atom                  positions (alat units)
         1           Hg  tau(   1) = (   0.0000000   0.2721760   0.1591566  )
         2           Hg  tau(   2) = (   0.7278240   0.0000000   0.5329700  )
         3           Hg  tau(   3) = (   0.2721760   0.0000000   0.5329700  )
         4           Hg  tau(   4) = (   0.0000000   0.7278240   0.1591566  )
         5           I   tau(   5) = (   0.2561480   0.2561480   0.0000000  )
         6           I   tau(   6) = (   0.7438520   0.7438520   0.0000000  )
         7           I   tau(   7) = (   0.5000000   0.0000000   0.3329987  )
         8           I   tau(   8) = (   0.0000000   0.5000000   0.3591279  )
         9           I   tau(   9) = (   0.0000000   0.0000000   0.3460633  )
        10           I   tau(  10) = (   0.7438520   0.2561480   0.0000000  )
        11           I   tau(  11) = (   0.2561480   0.7438520   0.0000000  )

   Crystallographic axes

     site n.     atom                  positions (cryst. coord.)
         1           Hg  tau(   1) = (  0.0000000  0.2721760  0.2299530  )
         2           Hg  tau(   2) = (  0.7278240  0.0000000  0.7700470  )
         3           Hg  tau(   3) = (  0.2721760  0.0000000  0.7700470  )
         4           Hg  tau(   4) = (  0.0000000  0.7278240  0.2299530  )
         5           I   tau(   5) = (  0.2561480  0.2561480  0.0000000  )
         6           I   tau(   6) = (  0.7438520  0.7438520  0.0000000  )
         7           I   tau(   7) = (  0.5000000  0.0000000  0.4811240  )
         8           I   tau(   8) = (  0.0000000  0.5000000  0.5188760  )
         9           I   tau(   9) = (  0.0000000  0.0000000  0.5000000  )
        10           I   tau(  10) = (  0.7438520  0.2561480  0.0000000  )
        11           I   tau(  11) = (  0.2561480  0.7438520  0.0000000  )

     number of k points=     1  Methfessel-Paxton smearing, width (Ry)=  0.0010
                       cart. coord. in units 2pi/alat
        k(    1) = (   0.0000000   0.0000000   0.0000000), wk =   2.0000000

                       cryst. coord.
        k(    1) = (   0.0000000   0.0000000   0.0000000), wk =   2.0000000

     Check: negative core charge=   -0.000001

     Initial potential from superposition of free atoms

     starting charge     128.9992, renormalised to     129.0000
     Starting wfcs are   68 randomized atomic wfcs +   10 random wfcs
     Checking if some PAW data can be deallocated...

     Self-consistent Calculation

     iteration #  1     ecut=    30.00 Ry     beta= 0.70
     Davidson diagonalization with overlap

     ethr =  1.00E-02,  avg # of iterations =  6.0

     Threshold (ethr) on eigenvalues was too large:
     Diagonalizing with lowered threshold

     Davidson diagonalization with overlap

[...]

     total energy              =   -3891.94713610 Ry
     estimated scf accuracy    <       0.50322177 Ry

[...]

     total energy              =   -3892.19635009 Ry
     estimated scf accuracy    <       0.00000337 Ry

     iteration #  9     ecut=    30.00 Ry     beta= 0.70
     Davidson diagonalization with overlap

     ethr =  2.61E-09,  avg # of iterations =  2.0

     End of self-consistent calculation

          k = 0.0000 0.0000 0.0000 (  5575 PWs)   bands (ev):

  -113.5559-113.5559-113.5553-113.5551 -61.4148 -61.4132 -61.4130 -61.4126
   -61.4084 -61.4077 -61.4073 -61.4067 -61.4001 -61.3996 -61.3990 -61.3962
   -10.4452 -10.1969 -10.0856 -10.0819 -10.0818  -9.9943  -9.9930  -4.5121
    -4.5041  -4.5039  -4.4325  -4.3655  -4.3651  -4.2586  -4.2499  -4.2497
    -4.2321  -4.2186  -4.2186  -4.2104  -4.1851  -4.1352  -4.1217  -4.1173
    -4.0845  -4.0841  -4.0755  -2.7423  -2.6074  -2.6071  -1.7029  -0.3792
    -0.3792  -0.3714  -0.1973  -0.0942   0.0044   0.0295   0.0297   0.4163
     0.4164   0.5842   0.5846   0.7476   0.9511   1.0712   1.0994   1.0996
     2.4734   3.3661   3.3664   3.4578   5.0689   5.9923   6.1099   6.8001
     6.9968   7.1559   7.1561   7.2933   7.2935   7.3381

     occupation numbers
     1.0000   1.0000   1.0000   1.0000   1.0000   1.0000   1.0000   1.0000
     1.0000   1.0000   1.0000   1.0000   1.0000   1.0000   1.0000   1.0000
     1.0000   1.0000   1.0000   1.0000   1.0000   1.0000   1.0000   1.0000
     1.0000   1.0000   1.0000   1.0000   1.0000   1.0000   1.0000   1.0000
     1.0000   1.0000   1.0000   1.0000   1.0000   1.0000   1.0000   1.0000
     1.0000   1.0000   1.0000   1.0000   1.0000   1.0000   1.0000   1.0000
     1.0000   1.0000   1.0000   1.0000   1.0000   1.0000   1.0000   1.0000
     1.0000   1.0000   1.0000   1.0000   1.0000   1.0000   1.0000   1.0000
     0.5000  -0.0000  -0.0000  -0.0000  -0.0000  -0.0000  -0.0000  -0.0000
    -0.0000  -0.0000  -0.0000  -0.0000  -0.0000  -0.0000

     the Fermi energy is     2.4734 ev

!    total energy              =   -3892.19635061 Ry
     estimated scf accuracy    <       0.00000020 Ry
     smearing contrib. (-TS)   =      -0.00028209 Ry
     internal energy E=F+TS    =   -3892.19606851 Ry

     The total energy is F=E-TS. E is the sum of the following terms:
     one-electron contribution =   -1391.39113975 Ry
     hartree contribution      =     695.09411741 Ry
     xc contribution           =    -401.51384431 Ry
     ewald contribution        =    -550.71452166 Ry
     one-center paw contrib.   =   -2243.67068020 Ry
      -> PAW hartree energy AE =       0.00000000 Ry
      -> PAW hartree energy PS =       0.00000000 Ry
      -> PAW xc energy AE      =       0.00000000 Ry
      -> PAW xc energy PS      =       0.00000000 Ry
      -> total E_H with PAW    =     695.09411741 Ry
      -> total E_XC with PAW   =    -401.51384431 Ry

     convergence has been achieved in   9 iterations

     Forces acting on atoms (cartesian axes, Ry/au):

     atom    1 type  1   force =     0.00000000   -0.00357871   -0.00044524
     atom    2 type  1   force =     0.00357871    0.00000000    0.00044524
     atom    3 type  1   force =    -0.00357871    0.00000000    0.00044524
     atom    4 type  1   force =     0.00000000    0.00357871   -0.00044524
     atom    5 type  2   force =    -0.00913475   -0.00913475   -0.00000000
     atom    6 type  2   force =     0.00913475    0.00913475   -0.00000000
     atom    7 type  2   force =     0.00000000    0.00000000    0.00381531
     atom    8 type  2   force =     0.00000000    0.00000000   -0.00381531
     atom    9 type  2   force =     0.00000000    0.00000000    0.00000000
     atom   10 type  2   force =     0.00913475   -0.00913475   -0.00000000
     atom   11 type  2   force =    -0.00913475    0.00913475   -0.00000000
     The non-local contrib.  to forces
     atom    1 type  1   force =    -0.00000000   -0.05088405    0.02144611
     atom    2 type  1   force =     0.05088405   -0.00000000   -0.02144611
     atom    3 type  1   force =    -0.05088405    0.00000000   -0.02144611
     atom    4 type  1   force =     0.00000000    0.05088405    0.02144611
     atom    5 type  2   force =    -0.06633764   -0.06633764    0.00000000
     atom    6 type  2   force =     0.06633764    0.06633764    0.00000000
     atom    7 type  2   force =     0.00000000    0.00000000    0.09973754
     atom    8 type  2   force =     0.00000000    0.00000000   -0.09973754
     atom    9 type  2   force =     0.00000000    0.00000000    0.00000000
     atom   10 type  2   force =     0.06633764   -0.06633764    0.00000000
     atom   11 type  2   force =    -0.06633764    0.06633764    0.00000000
     The ionic contribution  to forces
     atom    1 type  1   force =     0.00000000    8.64280751    1.67864559
     atom    2 type  1   force =    -8.64280751   -0.00000000   -1.67864559
     atom    3 type  1   force =     8.64280751    0.00000000   -1.67864559
     atom    4 type  1   force =    -0.00000000   -8.64280751    1.67864559
     atom    5 type  2   force =     8.68099911    8.68099911   -0.00000000
     atom    6 type  2   force =    -8.68099911   -8.68099911   -0.00000000
     atom    7 type  2   force =     0.00000000   -0.00000000   -7.56237372
     atom    8 type  2   force =    -0.00000000    0.00000000    7.56237372
     atom    9 type  2   force =     0.00000000    0.00000000   -0.00000000
     atom   10 type  2   force =    -8.68099911    8.68099911   -0.00000000
     atom   11 type  2   force =     8.68099911   -8.68099911   -0.00000000
     The local contribution  to forces
     atom    1 type  1   force =    -0.00009063   -8.59453592   -1.70034636
     atom    2 type  1   force =     8.59488955   -0.00006267    1.70032147
     atom    3 type  1   force =    -8.59497187   -0.00006188    1.70036463
     atom    4 type  1   force =    -0.00002525    8.59476655   -1.70029110
     atom    5 type  2   force =    -8.63849149   -8.63828937    0.00002656
     atom    6 type  2   force =     8.63847163    8.63829911    0.00002965
     atom    7 type  2   force =     0.00001188   -0.00000869    7.48636380
     atom    8 type  2   force =     0.00000380    0.00000149   -7.48635856
     atom    9 type  2   force =    -0.00001582   -0.00001418   -0.00004187
     atom   10 type  2   force =     8.63849130   -8.63828538    0.00002859
     atom   11 type  2   force =    -8.63847836    8.63829047    0.00002139
     The core correction contribution to forces
     atom    1 type  1   force =     0.00000000    0.00000000    0.00000000
     atom    2 type  1   force =     0.00000000    0.00000000    0.00000000
     atom    3 type  1   force =     0.00000000    0.00000000    0.00000000
     atom    4 type  1   force =     0.00000000    0.00000000    0.00000000
     atom    5 type  2   force =     0.01468589    0.01468557    0.00000148
     atom    6 type  2   force =    -0.01468942   -0.01468507    0.00000150
     atom    7 type  2   force =     0.00000186   -0.00000165   -0.01984968
     atom    8 type  2   force =     0.00000202    0.00000165    0.01983619
     atom    9 type  2   force =    -0.00000226   -0.00000116   -0.00000207
     atom   10 type  2   force =    -0.01468628    0.01468618    0.00000083
     atom   11 type  2   force =     0.01468729   -0.01468621    0.00000095
     The Hubbard contrib.    to forces
     atom    1 type  1   force =     0.00000000    0.00000000    0.00000000
     atom    2 type  1   force =     0.00000000    0.00000000    0.00000000
     atom    3 type  1   force =     0.00000000    0.00000000    0.00000000
     atom    4 type  1   force =     0.00000000    0.00000000    0.00000000
     atom    5 type  2   force =     0.00000000    0.00000000    0.00000000
     atom    6 type  2   force =     0.00000000    0.00000000    0.00000000
     atom    7 type  2   force =     0.00000000    0.00000000    0.00000000
     atom    8 type  2   force =     0.00000000    0.00000000    0.00000000
     atom    9 type  2   force =     0.00000000    0.00000000    0.00000000
     atom   10 type  2   force =     0.00000000    0.00000000    0.00000000
     atom   11 type  2   force =     0.00000000    0.00000000    0.00000000
     The SCF correction term to forces
     atom    1 type  1   force =     0.00010625   -0.00112055   -0.00020568
     atom    2 type  1   force =     0.00048239    0.00003221    0.00020293
     atom    3 type  1   force =    -0.00037734    0.00004676    0.00016007
     atom    4 type  1   force =     0.00003828    0.00086448   -0.00025552
     atom    5 type  2   force =     0.00003546   -0.00021873   -0.00003316
     atom    6 type  2   force =    -0.00002118    0.00021149   -0.00003568
     atom    7 type  2   force =    -0.00000990    0.00000622   -0.00005181
     atom    8 type  2   force =    -0.00001025   -0.00000139    0.00008171
     atom    9 type  2   force =     0.00001322    0.00001037    0.00004687
     atom   10 type  2   force =    -0.00003657   -0.00022691   -0.00003391
     atom   11 type  2   force =     0.00002000    0.00022065   -0.00002704

     Total force =     0.027362     Total SCF correction =     0.001668

     Computing stress (Cartesian axis) and pressure

          total   stress  (Ry/bohr**3)                   (kbar)     P=     -178.48
  -0.00120170   0.00000000   0.00000000         -176.78        0.00        0.00
   0.00000000  -0.00120170   0.00000000            0.00     -176.78        0.00
   0.00000000   0.00000000  -0.00123646            0.00        0.00     -181.89

     kinetic stress (kbar)  10241.29      0.00      0.00
                                0.00  10241.29      0.00
                                0.00      0.00  10244.14

     local   stress (kbar)  -8853.28      0.00      0.00
                                0.00  -8853.55     -0.00
                                0.00     -0.00 -15589.68

     nonloc. stress (kbar)    820.96      0.00      0.00
                                0.00    820.96      0.00
                                0.00      0.00    819.90

     hartree stress (kbar)   7383.51      0.00     -0.00
                                0.00   7383.77     -0.00
                               -0.00     -0.00  10665.78

     exc-cor stress (kbar)   7453.70     -0.00     -0.00
                               -0.00   7453.70      0.00
                               -0.00      0.00   7453.35

     corecor stress (kbar)  -9357.37     -0.00      0.00
                               -0.00  -9357.37      0.00
                                0.00      0.00  -9356.23

     ewald   stress (kbar)  -7865.57     -0.00     -0.00
                               -0.00  -7865.57      0.00
                               -0.00      0.00  -4419.16

     hubbard stress (kbar)      0.00      0.00      0.00
                                0.00      0.00      0.00
                                0.00      0.00      0.00

     DFT-D   stress (kbar)      0.00      0.00      0.00
                                0.00      0.00      0.00
                                0.00      0.00      0.00

     XDM     stress (kbar)      0.00      0.00      0.00
                                0.00      0.00      0.00
                                0.00      0.00      0.00

     dft-nl  stress (kbar)      0.00      0.00      0.00
                                0.00      0.00      0.00
                                0.00      0.00      0.00

     TS-vdW  stress (kbar)      0.00      0.00      0.00
                                0.00      0.00      0.00
                                0.00      0.00      0.00

[...]

                                0.00      0.00      0.00

     Writing all to output data dir calculations/myprefix.save/

     General routines

     Parallel routines

     PAW routines

   This run was terminated on:  17:44:18   4Mar2023

   JOB DONE.