     Program PWSCF v.7.0 starts on  6Mar2023 at  8:30:56

     R & G space division:  proc/nbgrp/npool/nimage =      32

     Reading input from espresso_4978.pwi
Warning: card &CELL ignored
Warning: card / ignored

     Current dimensions of program PWSCF are:
     Max number of different atomic species (ntypx) = 10
     Max number of k-points (npk) =  40000
     Max angular momentum in pseudopotentials (lmaxx) =  4

     gamma-point specific algorithms are used
     Message from routine setup:
     using ibrav=0 with symmetry is DISCOURAGED, use correct ibrav instead

     Using Slab Decomposition

     bravais-lattice index     =            0
     lattice parameter (alat)  =      10.6661  a.u.
     unit-cell volume          =     840.5168 (a.u.)^3
     number of atoms/cell      =            8
     number of atomic types    =            3
     number of electrons       =        56.00
     number of Kohn-Sham states=           34
     kinetic-energy cutoff     =      30.0000  Ry
     charge density cutoff     =     240.0000  Ry
     scf convergence threshold =      1.0E-06
     mixing beta               =       0.7000
     number of iterations used =            8  plain     mixing
     Exchange-correlation=  SLA  PW   PBX  PBC
                           (   1   4   3   4   0   0   0)

     celldm(1)=  10.666140  celldm(2)=   0.000000  celldm(3)=   0.000000
     celldm(4)=   0.000000  celldm(5)=   0.000000  celldm(6)=   0.000000

     crystal axes: (cart. coord. in units of alat)
               a(1) = (   1.000000   0.000000   0.000000 )
               a(2) = (  -0.645690   0.763599   0.000000 )
               a(3) = (  -0.177155  -0.381800   0.907108 )

     reciprocal axes: (cart. coord. in units 2 pi/alat)
               b(1) = (  1.000000  0.845588  0.551202 )
               b(2) = (  0.000000  1.309587  0.551202 )
               b(3) = (  0.000000  0.000000  1.102404 )

     PseudoPot. # 1 for Li read from file:
     /home/pragov/projects/rrg-bengioy-ad/pragov/crystal_structure_design/SSSP/li_pbe_v1.4.uspp.F.UPF
     MD5 check sum: e912e257baa3777c20ea3d68f190483c
     Pseudo is Ultrasoft, Zval =  3.0
     Generated by new atomic code, or converted to UPF format
     Using radial grid of  751 points,  5 beta functions with:
                l(1) =   0
                l(2) =   0
                l(3) =   0
                l(4) =   1
                l(5) =   1
     Q(r) pseudized with 10 coefficients,  rinner =    1.150   1.150   1.150

     PseudoPot. # 2 for Bi read from file:
     /home/pragov/projects/rrg-bengioy-ad/pragov/crystal_structure_design/SSSP/Bi_pbe_v1.uspp.F.UPF
     MD5 check sum: cceb9f28ec65b6d7ff33140f5b0b1758
     Pseudo is Ultrasoft + core correction, Zval = 15.0
     Generated by new atomic code, or converted to UPF format
     Using radial grid of  899 points,  6 beta functions with:
                l(1) =   0
                l(2) =   0
                l(3) =   1
                l(4) =   1
                l(5) =   2
                l(6) =   2
     Q(r) pseudized with  6 coefficients,  rinner =    1.000   1.000   1.000
                                                       1.000   1.000

     PseudoPot. # 3 for F  read from file:
     /home/pragov/projects/rrg-bengioy-ad/pragov/crystal_structure_design/SSSP/f_pbe_v1.4.uspp.F.UPF
     MD5 check sum: 4c38b6a325caf53ec0e86aed9459de46
     Pseudo is Ultrasoft, Zval =  7.0
     Generated by new atomic code, or converted to UPF format
     Using radial grid of  799 points,  4 beta functions with:
                l(1) =   0
                l(2) =   0
                l(3) =   1
                l(4) =   1
     Q(r) pseudized with  8 coefficients,  rinner =    0.950   0.950   0.950

     atomic species   valence    mass     pseudopotential
        Li             3.00     6.94000     Li( 1.00)
        Bi            15.00   208.98040     Bi( 1.00)
        F              7.00    18.99840     F ( 1.00)

      2 Sym. Ops., with inversion, found

                                    s                        frac. trans.

      isym =  1     identity

 cryst.   s( 1) = (     1          0          0      )
                  (     0          1          0      )
                  (     0          0          1      )

 cart.    s( 1) = (  1.0000000  0.0000000 -0.0000000 )
                  (  0.0000000  1.0000000 -0.0000000 )
                  (  0.0000000  0.0000000  1.0000000 )

      isym =  2     inversion

 cryst.   s( 2) = (    -1          0          0      )
                  (     0         -1          0      )
                  (     0          0         -1      )

 cart.    s( 2) = ( -1.0000000 -0.0000000  0.0000000 )
                  (  0.0000000 -1.0000000  0.0000000 )
                  (  0.0000000  0.0000000 -1.0000000 )

   Cartesian axes

     site n.     atom                  positions (alat units)
         1           Li  tau(   1) = (   0.5000000   0.0000000   0.4535541  )
         2           Li  tau(   2) = (  -0.3228452   0.3817996   0.4535541  )
         3           Bi  tau(   3) = (   0.0000000   0.0000000   0.0000000  )
         4           F   tau(   4) = (   0.3885552   0.2837100   0.5783214  )
         5           F   tau(   5) = (  -0.3474453   0.6252137   0.2330488  )
         6           F   tau(   6) = (   0.5246000  -0.2434141   0.6740594  )
         7           F   tau(   7) = (  -0.2114005   0.0980897   0.3287868  )
         8           F   tau(   8) = (   0.1771548   0.3817996   0.0000000  )

   Crystallographic axes

     site n.     atom                  positions (cryst. coord.)
         1           Li  tau(   1) = (  0.7500000  0.2500000  0.5000000  )
         2           Li  tau(   2) = (  0.2500000  0.7500000  0.5000000  )
         3           Bi  tau(   3) = (  0.0000000  0.0000000  0.0000000  )
         4           F   tau(   4) = (  0.9472290  0.6903150  0.6375440  )
         5           F   tau(   5) = (  0.3096850  0.9472290  0.2569140  )
         6           F   tau(   6) = (  0.6903150  0.0527710  0.7430860  )
         7           F   tau(   7) = (  0.0527710  0.3096850  0.3624560  )
         8           F   tau(   8) = (  0.5000000  0.5000000  0.0000000  )

     number of k points=     1  Methfessel-Paxton smearing, width (Ry)=  0.0010
                       cart. coord. in units 2pi/alat
        k(    1) = (   0.0000000   0.0000000   0.0000000), wk =   2.0000000

                       cryst. coord.
        k(    1) = (   0.0000000   0.0000000   0.0000000), wk =   2.0000000

     Check: negative core charge=   -0.000004

     Initial potential from superposition of free atoms

     starting charge      54.0985, renormalised to      56.0000

     negative rho (up, down):  4.409E-02 0.000E+00
     Starting wfcs are   39 randomized atomic wfcs

     Self-consistent Calculation

     iteration #  1     ecut=    30.00 Ry     beta= 0.70
     Davidson diagonalization with overlap

     ethr =  1.00E-02,  avg # of iterations =  3.0

     negative rho (up, down):  3.900E-02 0.000E+00

     total energy              =    -457.87509366 Ry
     estimated scf accuracy    <       0.62037940 Ry

[...]

     total energy              =    -458.10902632 Ry
     estimated scf accuracy    <       0.00000208 Ry

     iteration #  8     ecut=    30.00 Ry     beta= 0.70
     Davidson diagonalization with overlap

     ethr =  3.72E-09,  avg # of iterations =  2.0

[...]

     End of self-consistent calculation

          k = 0.0000 0.0000 0.0000 (  1166 PWs)   bands (ev):

   -40.7715 -40.6721 -20.8465 -20.7296 -20.0836 -20.0671 -20.0671 -20.0619
   -19.6523 -19.6511 -18.9871 -18.9153  -7.1399  -3.3511  -2.4760  -2.4752
    -1.9020  -1.2013  -1.1984  -1.1285  -1.1275  -1.1034  -1.1033  -0.6447
    -0.6346  -0.6338  -0.5640   0.1304   7.5169   7.5171   7.8787   8.3495
    12.3247  12.3254

     occupation numbers
     1.0000   1.0000   1.0000   1.0000   1.0000   1.0000   1.0000   1.0000
     1.0000   1.0000   1.0000   1.0000   1.0000   1.0000   1.0000   1.0000
     1.0000   1.0000   1.0000   1.0000   1.0000   1.0000   1.0000   1.0000
     1.0000   1.0000   1.0000   1.0000  -0.0000  -0.0000  -0.0000  -0.0000
    -0.0000  -0.0000

     the Fermi energy is     5.7903 ev

!    total energy              =    -458.10902649 Ry
     estimated scf accuracy    <       0.00000042 Ry
     smearing contrib. (-TS)   =       0.00000000 Ry
     internal energy E=F+TS    =    -458.10902649 Ry

     The total energy is F=E-TS. E is the sum of the following terms:
     one-electron contribution =    -242.86100862 Ry
     hartree contribution      =     146.81624261 Ry
     xc contribution           =    -118.43753892 Ry
     ewald contribution        =    -243.62672156 Ry

     convergence has been achieved in   8 iterations

     negative rho (up, down):  4.047E-02 0.000E+00

     Forces acting on atoms (cartesian axes, Ry/au):

     atom    1 type  1   force =    -0.00000259   -0.00000453   -0.00000533
     atom    2 type  1   force =     0.00000259    0.00000453    0.00000533
     atom    3 type  2   force =     0.00000000    0.00000000    0.00000000
     atom    4 type  3   force =     0.00780576   -0.00365630   -0.00215051
     atom    5 type  3   force =     0.00196831   -0.00087826    0.00857925
     atom    6 type  3   force =    -0.00196831    0.00087826   -0.00857925
     atom    7 type  3   force =    -0.00780576    0.00365630    0.00215051
     atom    8 type  3   force =     0.00000000    0.00000000    0.00000000
     The non-local contrib.  to forces
     atom    1 type  1   force =    -0.00000414   -0.00001753   -0.00000623
     atom    2 type  1   force =     0.00000414    0.00001753    0.00000623
     atom    3 type  2   force =     0.00000000    0.00000000    0.00000000
     atom    4 type  3   force =     0.11976360   -0.05556293    0.22668957
     atom    5 type  3   force =    -0.20562004    0.09541451    0.13203669
     atom    6 type  3   force =     0.20562004   -0.09541451   -0.13203669
     atom    7 type  3   force =    -0.11976360    0.05556293   -0.22668957
     atom    8 type  3   force =     0.00000000    0.00000000    0.00000000
     The ionic contribution  to forces
     atom    1 type  1   force =    -0.00000000    0.00000000   -0.00000000
     atom    2 type  1   force =     0.00000000   -0.00000000    0.00000000
     atom    3 type  2   force =    -0.00000000   -0.00000000    0.00000000
     atom    4 type  3   force =     0.12049473   -0.05590948   -3.50342785
     atom    5 type  3   force =     3.17798801   -1.47458432    0.13283392
     atom    6 type  3   force =    -3.17798801    1.47458432   -0.13283392
     atom    7 type  3   force =    -0.12049473    0.05590948    3.50342785
     atom    8 type  3   force =     0.00000000    0.00000000    0.00000000
     The local contribution  to forces
     atom    1 type  1   force =    -0.00005082   -0.00001210    0.00006229
     atom    2 type  1   force =    -0.00003039    0.00004885    0.00006816
     atom    3 type  2   force =     0.00005532   -0.00011867   -0.00067689
     atom    4 type  3   force =    -0.23236955    0.10783820    3.27459860
     atom    5 type  3   force =    -2.97023891    1.37815782   -0.25604135
     atom    6 type  3   force =     2.97033858   -1.37819798    0.25609953
     atom    7 type  3   force =     0.23220752   -0.10780724   -3.27433814
     atom    8 type  3   force =     0.00007187    0.00000894   -0.00012084
     The core correction contribution to forces
     atom    1 type  1   force =     0.00000000    0.00000000    0.00000000
     atom    2 type  1   force =     0.00000000    0.00000000    0.00000000
     atom    3 type  2   force =     0.00000256   -0.00000211   -0.00000858
     atom    4 type  3   force =     0.00000000    0.00000000    0.00000000
     atom    5 type  3   force =     0.00000000    0.00000000    0.00000000
     atom    6 type  3   force =     0.00000000    0.00000000    0.00000000
     atom    7 type  3   force =     0.00000000    0.00000000    0.00000000
     atom    8 type  3   force =     0.00000000    0.00000000    0.00000000
     The Hubbard contrib.    to forces
     atom    1 type  1   force =     0.00000000    0.00000000    0.00000000
     atom    2 type  1   force =     0.00000000    0.00000000    0.00000000
     atom    3 type  2   force =     0.00000000    0.00000000    0.00000000
     atom    4 type  3   force =     0.00000000    0.00000000    0.00000000
     atom    5 type  3   force =     0.00000000    0.00000000    0.00000000
     atom    6 type  3   force =     0.00000000    0.00000000    0.00000000
     atom    7 type  3   force =     0.00000000    0.00000000    0.00000000
     atom    8 type  3   force =     0.00000000    0.00000000    0.00000000
     The SCF correction term to forces
     atom    1 type  1   force =     0.00005914    0.00002374   -0.00006940
     atom    2 type  1   force =     0.00003560   -0.00006321   -0.00007707
     atom    3 type  2   force =    -0.00002006    0.00016457    0.00074779
     atom    4 type  3   force =    -0.00007549   -0.00001092    0.00002272
     atom    5 type  3   force =    -0.00014399    0.00012170   -0.00026137
     atom    6 type  3   force =     0.00007784   -0.00010562    0.00018047
     atom    7 type  3   force =     0.00025258    0.00000232   -0.00021609
     atom    8 type  3   force =    -0.00009797   -0.00003410    0.00013357

     Total force =     0.017730     Total SCF correction =     0.000952

     Computing stress (Cartesian axis) and pressure

     negative rho (up, down):  4.047E-02 0.000E+00
          total   stress  (Ry/bohr**3)                   (kbar)     P=     -131.24
  -0.00083990  -0.00012794  -0.00000018         -123.55      -18.82       -0.03
  -0.00012794  -0.00105614   0.00000008          -18.82     -155.36        0.01
  -0.00000018   0.00000008  -0.00078040           -0.03        0.01     -114.80

     kinetic stress (kbar)  12868.40    -33.84      0.00
                              -33.84  12811.17     -0.00
                                0.00     -0.00  12884.11

     local   stress (kbar)  -7465.00   -508.29     -0.07
                             -508.29  -8324.60      0.03
                               -0.07      0.03  -7229.14

     nonloc. stress (kbar)   5054.47    -10.68     -0.01
                              -10.68   5036.42      0.01
                               -0.01      0.01   5059.44

     hartree stress (kbar)   8472.24    227.09      0.06
                              227.09   8856.29     -0.03
                                0.06     -0.03   8366.86

     exc-cor stress (kbar)   3648.78      0.67     -0.00
                                0.67   3649.91      0.00
                               -0.00      0.00   3648.47

     corecor stress (kbar)  -8364.30      0.23      0.00
                                0.23  -8363.92     -0.00
                                0.00     -0.00  -8364.41

     ewald   stress (kbar) -14338.15    306.01     -0.00
                              306.01 -13820.64     -0.00
                               -0.00     -0.00 -14480.13

     hubbard stress (kbar)      0.00      0.00      0.00
                                0.00      0.00      0.00
                                0.00      0.00      0.00

     DFT-D   stress (kbar)      0.00      0.00      0.00
                                0.00      0.00      0.00
                                0.00      0.00      0.00

     XDM     stress (kbar)      0.00      0.00      0.00
                                0.00      0.00      0.00
                                0.00      0.00      0.00

     dft-nl  stress (kbar)      0.00      0.00      0.00
                                0.00      0.00      0.00
                                0.00      0.00      0.00

     TS-vdW  stress (kbar)      0.00      0.00      0.00
                                0.00      0.00      0.00
                                0.00      0.00      0.00

[...]

                                0.00      0.00      0.00

     Writing all to output data dir calculations/myprefix.save/

     General routines

     Parallel routines

   This run was terminated on:   8:30:57   6Mar2023

   JOB DONE.