     Program PWSCF v.7.0 starts on  3Mar2023 at 16:21:11

     R & G space division:  proc/nbgrp/npool/nimage =      32

     Reading input from espresso_910.pwi
Warning: card &CELL ignored
Warning: card / ignored

     Current dimensions of program PWSCF are:
     Max number of different atomic species (ntypx) = 10
     Max number of k-points (npk) =  40000
     Max angular momentum in pseudopotentials (lmaxx) =  4

     gamma-point specific algorithms are used
     Message from routine setup:
     using ibrav=0 with symmetry is DISCOURAGED, use correct ibrav instead

     Using Slab Decomposition

     bravais-lattice index     =            0
     lattice parameter (alat)  =       8.0701  a.u.
     unit-cell volume          =    2815.3731 (a.u.)^3
     number of atoms/cell      =           14
     number of atomic types    =            3
     number of electrons       =       112.00
     number of Kohn-Sham states=           67
     kinetic-energy cutoff     =      30.0000  Ry
     charge density cutoff     =     240.0000  Ry
     scf convergence threshold =      1.0E-06
     mixing beta               =       0.7000
     number of iterations used =            8  plain     mixing
     Exchange-correlation=  SLA  PW   PBX  PBC
                           (   1   4   3   4   0   0   0)

     celldm(1)=   8.070142  celldm(2)=   0.000000  celldm(3)=   0.000000
     celldm(4)=   0.000000  celldm(5)=   0.000000  celldm(6)=   0.000000

     crystal axes: (cart. coord. in units of alat)
               a(1) = (   1.000000   0.000000   0.000000 )
               a(2) = (   0.000000   1.745633   0.000000 )
               a(3) = (   0.000000   0.229831   3.068596 )

     reciprocal axes: (cart. coord. in units 2 pi/alat)
               b(1) = (  1.000000  0.000000  0.000000 )
               b(2) = (  0.000000  0.572858 -0.042906 )
               b(3) = (  0.000000  0.000000  0.325882 )

     PseudoPot. # 1 for Sr read from file:
     /home/pragov/projects/rrg-bengioy-ad/pragov/crystal_structure_design/SSSP/Sr_pbe_v1.uspp.F.UPF
     MD5 check sum: 6b418c05fbe9db5448babca5e47b7a5b
     Pseudo is Ultrasoft + core correction, Zval = 10.0
     Generated by new atomic code, or converted to UPF format
     Using radial grid of  883 points,  6 beta functions with:
                l(1) =   0
                l(2) =   0
                l(3) =   1
                l(4) =   1
                l(5) =   2
                l(6) =   2
     Q(r) pseudized with  6 coefficients,  rinner =    1.400   1.400   1.400
                                                       1.400   1.400

     PseudoPot. # 2 for La read from file:
     /home/pragov/projects/rrg-bengioy-ad/pragov/crystal_structure_design/SSSP/La.GGA-PBE-paw-v1.0.UPF
     MD5 check sum: 436541e95c1ad8901025bd0b0ed42ae2
     Pseudo is Projector augmented-wave + core cor, Zval = 11.0
     Generated using ATOMPAW code
     Shape of augmentation charge: BESSEL
     Using radial grid of 1101 points,  8 beta functions with:
                l(1) =   0
                l(2) =   0
                l(3) =   1
                l(4) =   1
                l(5) =   2
                l(6) =   2
                l(7) =   3
                l(8) =   3
     Q(r) pseudized with 0 coefficients

     PseudoPot. # 3 for Cl read from file:
     /home/pragov/projects/rrg-bengioy-ad/pragov/crystal_structure_design/SSSP/cl_pbe_v1.4.uspp.F.UPF
     MD5 check sum: fc6f6913ecf08c9257cb748ef0700058
     Pseudo is Ultrasoft + core correction, Zval =  7.0
     Generated by new atomic code, or converted to UPF format
     Using radial grid of  909 points,  6 beta functions with:
                l(1) =   0
                l(2) =   0
                l(3) =   1
                l(4) =   1
                l(5) =   2
                l(6) =   2
     Q(r) pseudized with  8 coefficients,  rinner =    1.300   1.300   1.300
                                                       1.300   1.300

     atomic species   valence    mass     pseudopotential
        Sr            10.00    87.62000     Sr( 1.00)
        La            11.00   138.90547     La( 1.00)
        Cl             7.00    35.45000     Cl( 1.00)

      4 Sym. Ops., with inversion, found ( 2 have fractional translation)

                                    s                        frac. trans.

      isym =  1     identity

 cryst.   s( 1) = (     1          0          0      )
                  (     0          1          0      )
                  (     0          0          1      )

 cart.    s( 1) = (  1.0000000  0.0000000  0.0000000 )
                  (  0.0000000  1.0000000  0.0000000 )
                  (  0.0000000  0.0000000  1.0000000 )

      isym =  2     180 deg rotation - cart. axis [1,0,0]

 cryst.   s( 2) = (     1          0          0      )    f =(  0.5000000 )
                  (     0         -1          0      )       ( -0.0000000 )
                  (     0          0         -1      )       ( -0.0000000 )

 cart.    s( 2) = (  1.0000000  0.0000000  0.0000000 )    f =(  0.5000000 )
                  (  0.0000000 -1.0000000 -0.0000000 )       ( -0.0000000 )
                  (  0.0000000  0.0000000 -1.0000000 )       ( -0.0000000 )

      isym =  3     inversion

 cryst.   s( 3) = (    -1          0          0      )
                  (     0         -1          0      )
                  (     0          0         -1      )

 cart.    s( 3) = ( -1.0000000  0.0000000  0.0000000 )
                  (  0.0000000 -1.0000000 -0.0000000 )
                  (  0.0000000  0.0000000 -1.0000000 )

      isym =  4     inv. 180 deg rotation - cart. axis [1,0,0]

 cryst.   s( 4) = (    -1          0          0      )    f =(  0.5000000 )
                  (     0          1          0      )       (  0.0000000 )
                  (     0          0          1      )       (  0.0000000 )

 cart.    s( 4) = ( -1.0000000  0.0000000  0.0000000 )    f =(  0.5000000 )
                  (  0.0000000  1.0000000  0.0000000 )       (  0.0000000 )
                  (  0.0000000  0.0000000  1.0000000 )       (  0.0000000 )

   Cartesian axes

     site n.     atom                  positions (alat units)
         1           Sr  tau(   1) = (   0.7500000   1.0949265   1.9864861  )
         2           Sr  tau(   2) = (   0.2500000   0.8805367   1.0821096  )
         3           La  tau(   3) = (   0.2500000   1.8527796   2.5757638  )
         4           La  tau(   4) = (   0.7500000   0.1226836   0.4928318  )
         5           Cl  tau(   5) = (   0.7500000   1.8231133   2.1052530  )
         6           Cl  tau(   6) = (   0.2500000   1.5111687   0.2014748  )
         7           Cl  tau(   7) = (   0.2500000   1.3274403   1.6062901  )
         8           Cl  tau(   8) = (   0.7500000   1.3814818   2.6964271  )
         9           Cl  tau(   9) = (   0.7500000   1.2536885   0.7980926  )
        10           Cl  tau(  10) = (   0.2500000   0.7217748   2.2705030  )
        11           Cl  tau(  11) = (   0.2500000   0.5939815   0.3721685  )
        12           Cl  tau(  12) = (   0.7500000   0.6480230   1.4623055  )
        13           Cl  tau(  13) = (   0.7500000   0.4642946   2.8671208  )
        14           Cl  tau(  14) = (   0.2500000   0.1523500   0.9633426  )

   Crystallographic axes

     site n.     atom                  positions (cryst. coord.)
         1           Sr  tau(   1) = (  0.7500000  0.5420060  0.6473600  )
         2           Sr  tau(   2) = (  0.2500000  0.4579940  0.3526400  )
         3           La  tau(   3) = (  0.2500000  0.9508650  0.8393950  )
         4           La  tau(   4) = (  0.7500000  0.0491350  0.1606050  )
         5           Cl  tau(   5) = (  0.7500000  0.9540580  0.6860640  )
         6           Cl  tau(   6) = (  0.2500000  0.8570410  0.0656570  )
         7           Cl  tau(   7) = (  0.2500000  0.6915160  0.5234610  )
         8           Cl  tau(   8) = (  0.7500000  0.6757010  0.8787170  )
         9           Cl  tau(   9) = (  0.7500000  0.6839430  0.2600840  )
        10           Cl  tau(  10) = (  0.2500000  0.3160570  0.7399160  )
        11           Cl  tau(  11) = (  0.2500000  0.3242990  0.1212830  )
        12           Cl  tau(  12) = (  0.7500000  0.3084840  0.4765390  )
        13           Cl  tau(  13) = (  0.7500000  0.1429590  0.9343430  )
        14           Cl  tau(  14) = (  0.2500000  0.0459420  0.3139360  )

     number of k points=     1  Methfessel-Paxton smearing, width (Ry)=  0.0010
                       cart. coord. in units 2pi/alat
        k(    1) = (   0.0000000   0.0000000   0.0000000), wk =   2.0000000

                       cryst. coord.
        k(    1) = (   0.0000000   0.0000000   0.0000000), wk =   2.0000000

     Check: negative core charge=   -0.000002

     Initial potential from superposition of free atoms

     starting charge     111.9156, renormalised to     112.0000

     negative rho (up, down):  2.732E-01 0.000E+00
     Starting wfcs are  130 randomized atomic wfcs
     Checking if some PAW data can be deallocated...

     Self-consistent Calculation

     iteration #  1     ecut=    30.00 Ry     beta= 0.70
     Davidson diagonalization with overlap

     ethr =  1.00E-02,  avg # of iterations =  1.0

     Threshold (ethr) on eigenvalues was too large:
     Diagonalizing with lowered threshold

     Davidson diagonalization with overlap

[...]

     negative rho (up, down):  2.813E-01 0.000E+00

     total energy              =   -1391.72553377 Ry
     estimated scf accuracy    <       0.62466144 Ry

[...]

     total energy              =   -1391.94685034 Ry
     estimated scf accuracy    <       0.00000305 Ry

     iteration #  8     ecut=    30.00 Ry     beta= 0.70
     Davidson diagonalization with overlap

     ethr =  2.72E-09,  avg # of iterations =  6.0

[...]

     End of self-consistent calculation

          k = 0.0000 0.0000 0.0000 (  3899 PWs)   bands (ev):

   -29.9263 -29.9228 -28.1368 -28.1320 -12.4831 -12.2890 -12.2227 -12.1361
   -12.1136 -12.0792 -11.9919 -11.9422 -11.9060 -11.8909 -11.6301 -11.6130
   -10.5309 -10.2462  -9.9565  -9.8430  -9.7199  -9.6047  -9.5458  -9.5119
    -9.3860  -9.3796   0.0946   0.1954   0.3808   0.5988   0.6683   0.7087
     0.9671   1.0487   1.2480   1.4065   1.4475   1.4495   1.4963   1.6064
     1.6297   1.6881   1.7258   1.7347   1.7354   2.0400   2.1034   2.1578
     2.1968   2.2333   2.4242   2.5186   2.5493   2.7044   2.8064   2.9460
     6.6173   6.6222   6.6606   6.6646   6.6761   6.7398   6.7556   6.7834
     6.8052   6.8258   6.8538

     occupation numbers
     1.0000   1.0000   1.0000   1.0000   1.0000   1.0000   1.0000   1.0000
     1.0000   1.0000   1.0000   1.0000   1.0000   1.0000   1.0000   1.0000
     1.0000   1.0000   1.0000   1.0000   1.0000   1.0000   1.0000   1.0000
     1.0000   1.0000   1.0000   1.0000   1.0000   1.0000   1.0000   1.0000
     1.0000   1.0000   1.0000   1.0000   1.0000   1.0000   1.0000   1.0000
     1.0000   1.0000   1.0000   1.0000   1.0000   1.0000   1.0000   1.0000
     1.0000   1.0000   1.0000   1.0000   1.0000   1.0000   1.0000   1.0000
    -0.0000  -0.0000  -0.0000  -0.0000  -0.0000  -0.0000  -0.0000  -0.0000
    -0.0000  -0.0000  -0.0000

     the Fermi energy is     4.6741 ev

!    total energy              =   -1391.94685321 Ry
     estimated scf accuracy    <       0.00000068 Ry
     smearing contrib. (-TS)   =       0.00000000 Ry
     internal energy E=F+TS    =   -1391.94685321 Ry

     The total energy is F=E-TS. E is the sum of the following terms:
     one-electron contribution =    -153.85626124 Ry
     hartree contribution      =     120.64721386 Ry
     xc contribution           =    -148.97625563 Ry
     ewald contribution        =    -413.60015863 Ry
     one-center paw contrib.   =    -796.16139158 Ry
      -> PAW hartree energy AE =       0.00000000 Ry
      -> PAW hartree energy PS =       0.00000000 Ry
      -> PAW xc energy AE      =       0.00000000 Ry
      -> PAW xc energy PS      =       0.00000000 Ry
      -> total E_H with PAW    =     120.64721386 Ry
      -> total E_XC with PAW   =    -148.97625563 Ry

     convergence has been achieved in   8 iterations

     negative rho (up, down):  2.787E-01 0.000E+00

     Forces acting on atoms (cartesian axes, Ry/au):

     atom    1 type  1   force =     0.00000000   -0.00027951   -0.01320851
     atom    2 type  1   force =     0.00000000    0.00027951    0.01320851
     atom    3 type  2   force =     0.00000000   -0.00739036   -0.00792613
     atom    4 type  2   force =     0.00000000    0.00739036    0.00792613
     atom    5 type  3   force =     0.00000000    0.00288914    0.03844970
     atom    6 type  3   force =     0.00000000    0.02670634    0.01222722
     atom    7 type  3   force =     0.00000000   -0.01778978    0.02948959
     atom    8 type  3   force =     0.00000000    0.03238492   -0.01294300
     atom    9 type  3   force =     0.00000000   -0.01337603    0.01009459
     atom   10 type  3   force =     0.00000000    0.01337603   -0.01009459
     atom   11 type  3   force =     0.00000000   -0.03238492    0.01294300
     atom   12 type  3   force =     0.00000000    0.01778978   -0.02948959
     atom   13 type  3   force =     0.00000000   -0.02670634   -0.01222722
     atom   14 type  3   force =     0.00000000   -0.00288914   -0.03844970
     The non-local contrib.  to forces
     atom    1 type  1   force =     0.00000000    0.00489460    0.01947218
     atom    2 type  1   force =     0.00000000   -0.00489460   -0.01947218
     atom    3 type  2   force =     0.00000000   -0.01714314   -0.00301542
     atom    4 type  2   force =     0.00000000    0.01714314    0.00301542
     atom    5 type  3   force =    -0.00000000   -0.05809881    0.05665627
     atom    6 type  3   force =     0.00000000    0.08359537   -0.02054374
     atom    7 type  3   force =    -0.00000000   -0.08181552    0.02491611
     atom    8 type  3   force =     0.00000000    0.02706260   -0.07601583
     atom    9 type  3   force =    -0.00000000    0.00028492    0.00862522
     atom   10 type  3   force =     0.00000000   -0.00028492   -0.00862522
     atom   11 type  3   force =     0.00000000   -0.02706260    0.07601583
     atom   12 type  3   force =    -0.00000000    0.08181552   -0.02491611
     atom   13 type  3   force =    -0.00000000   -0.08359537    0.02054374
     atom   14 type  3   force =     0.00000000    0.05809881   -0.05665627
     The ionic contribution  to forces
     atom    1 type  1   force =    -0.00000000    0.24020971    0.50761685
     atom    2 type  1   force =    -0.00000000   -0.24020971   -0.50761685
     atom    3 type  2   force =    -0.00000000   -1.52581526   -2.02024472
     atom    4 type  2   force =    -0.00000000    1.52581526    2.02024472
     atom    5 type  3   force =    -0.00000000    1.12571738   -6.06099752
     atom    6 type  3   force =    -0.00000000   -5.33617550    0.18529718
     atom    7 type  3   force =    -0.00000000    4.61018318   -1.49063589
     atom    8 type  3   force =     0.00000000   -5.34861239    2.77237195
     atom    9 type  3   force =    -0.00000000   -0.83357081    0.01340312
     atom   10 type  3   force =     0.00000000    0.83357081   -0.01340312
     atom   11 type  3   force =    -0.00000000    5.34861239   -2.77237195
     atom   12 type  3   force =     0.00000000   -4.61018318    1.49063589
     atom   13 type  3   force =    -0.00000000    5.33617550   -0.18529718
     atom   14 type  3   force =    -0.00000000   -1.12571738    6.06099752
     The local contribution  to forces
     atom    1 type  1   force =    -0.00002703   -0.24496555   -0.53865155
     atom    2 type  1   force =    -0.00007462    0.24476787    0.53889767
     atom    3 type  2   force =     0.00008630    1.53531312    2.01540305
     atom    4 type  2   force =    -0.00008552   -1.53510619   -2.01549681
     atom    5 type  3   force =    -0.00000005   -1.06640479    6.04347036
     atom    6 type  3   force =     0.00016587    5.28005278   -0.15401151
     atom    7 type  3   force =     0.00004462   -4.54774722    1.49573451
     atom    8 type  3   force =     0.00003025    5.35326212   -2.71093683
     atom    9 type  3   force =    -0.00008148    0.81947558   -0.01210214
     atom   10 type  3   force =    -0.00006717   -0.81978896    0.01206397
     atom   11 type  3   force =     0.00003235   -5.35299862    2.71078268
     atom   12 type  3   force =     0.00005582    4.54774670   -1.49541188
     atom   13 type  3   force =    -0.00006911   -5.28022753    0.15321284
     atom   14 type  3   force =     0.00014837    1.06645154   -6.04299046
     The core correction contribution to forces
     atom    1 type  1   force =    -0.00000101   -0.00026113   -0.00094010
     atom    2 type  1   force =    -0.00000322    0.00025691    0.00094229
     atom    3 type  2   force =     0.00000006   -0.00005654   -0.00002739
     atom    4 type  2   force =    -0.00000003    0.00005665    0.00002738
     atom    5 type  3   force =     0.00000062    0.00136549   -0.00024584
     atom    6 type  3   force =     0.00000163   -0.00123520    0.00062737
     atom    7 type  3   force =     0.00000100    0.00129141   -0.00017124
     atom    8 type  3   force =     0.00000053    0.00047761    0.00160189
     atom    9 type  3   force =    -0.00000151    0.00001246   -0.00009379
     atom   10 type  3   force =    -0.00000188   -0.00001455    0.00008986
     atom   11 type  3   force =     0.00000183   -0.00047701   -0.00160129
     atom   12 type  3   force =     0.00000136   -0.00129167    0.00017356
     atom   13 type  3   force =     0.00000051    0.00123435   -0.00063476
     atom   14 type  3   force =     0.00000327   -0.00136487    0.00025040
     The Hubbard contrib.    to forces
     atom    1 type  1   force =     0.00000000    0.00000000    0.00000000
     atom    2 type  1   force =     0.00000000    0.00000000    0.00000000
     atom    3 type  2   force =     0.00000000    0.00000000    0.00000000
     atom    4 type  2   force =     0.00000000    0.00000000    0.00000000
     atom    5 type  3   force =     0.00000000    0.00000000    0.00000000
     atom    6 type  3   force =     0.00000000    0.00000000    0.00000000
     atom    7 type  3   force =     0.00000000    0.00000000    0.00000000
     atom    8 type  3   force =     0.00000000    0.00000000    0.00000000
     atom    9 type  3   force =     0.00000000    0.00000000    0.00000000
     atom   10 type  3   force =     0.00000000    0.00000000    0.00000000
     atom   11 type  3   force =     0.00000000    0.00000000    0.00000000
     atom   12 type  3   force =     0.00000000    0.00000000    0.00000000
     atom   13 type  3   force =     0.00000000    0.00000000    0.00000000
     atom   14 type  3   force =     0.00000000    0.00000000    0.00000000
     The SCF correction term to forces
     atom    1 type  1   force =     0.00001642   -0.00018692   -0.00069043
     atom    2 type  1   force =     0.00003503    0.00032926    0.00047304
     atom    3 type  2   force =    -0.00005835    0.00032387   -0.00002406
     atom    4 type  2   force =     0.00005212   -0.00050608    0.00015301
     atom    5 type  3   force =     0.00001751    0.00029902   -0.00038483
     atom    6 type  3   force =    -0.00008596    0.00046583    0.00078176
     atom    7 type  3   force =    -0.00002306    0.00030479   -0.00033554
     atom    8 type  3   force =    -0.00001098    0.00019772    0.00004159
     atom    9 type  3   force =     0.00004443    0.00038608    0.00023345
     atom   10 type  3   force =     0.00002877   -0.00014208   -0.00024881
     atom   11 type  3   force =    -0.00001157   -0.00045636    0.00012351
     atom   12 type  3   force =    -0.00002420   -0.00029115    0.00004730
     atom   13 type  3   force =     0.00003894   -0.00029633   -0.00012802
     atom   14 type  3   force =    -0.00007672   -0.00036810   -0.00000217

     Total force =     0.103196     Total SCF correction =     0.001845

     Computing stress (Cartesian axis) and pressure

     negative rho (up, down):  2.787E-01 0.000E+00
          total   stress  (Ry/bohr**3)                   (kbar)     P=        4.61
   0.00050911   0.00000000   0.00000000           74.89        0.00        0.00
   0.00000000  -0.00016995   0.00003134            0.00      -25.00        4.61
   0.00000000   0.00003134  -0.00024511            0.00        4.61      -36.06

     kinetic stress (kbar)   6730.82      0.00      0.00
                                0.00   6597.86    -11.90
                                0.00    -11.90   6573.24

     local   stress (kbar)  -8792.51     -0.00      0.00
                               -0.00  -2968.69   -495.76
                                0.00   -495.76  -5144.92

     nonloc. stress (kbar)   6020.87      0.00      0.00
                                0.00   6028.30      0.65
                                0.00      0.65   6021.54

     hartree stress (kbar)   3313.47      0.00     -0.00
                                0.00   1044.84    237.93
                               -0.00    237.93   1945.59

     exc-cor stress (kbar)   1102.45      0.00      0.00
                                0.00   1099.67     -1.41
                                0.00     -1.41   1100.58

     corecor stress (kbar)  -3016.79     -0.00     -0.00
                               -0.00  -3016.05      0.21
                               -0.00      0.21  -3015.58

     ewald   stress (kbar)  -5283.42      0.00      0.00
                                0.00  -8810.94    274.89
                                0.00    274.89  -7516.52

     hubbard stress (kbar)      0.00      0.00      0.00
                                0.00      0.00      0.00
                                0.00      0.00      0.00

     DFT-D   stress (kbar)      0.00      0.00      0.00
                                0.00      0.00      0.00
                                0.00      0.00      0.00

     XDM     stress (kbar)      0.00      0.00      0.00
                                0.00      0.00      0.00
                                0.00      0.00      0.00

     dft-nl  stress (kbar)      0.00      0.00      0.00
                                0.00      0.00      0.00
                                0.00      0.00      0.00

     TS-vdW  stress (kbar)      0.00      0.00      0.00
                                0.00      0.00      0.00
                                0.00      0.00      0.00

[...]

                                0.00      0.00      0.00

     Writing all to output data dir calculations/myprefix.save/

     General routines

     Parallel routines

     PAW routines

   This run was terminated on:  16:21:18   3Mar2023

   JOB DONE.