     Program PWSCF v.7.0 starts on  3Mar2023 at 13:30:34

     R & G space division:  proc/nbgrp/npool/nimage =      32

     Reading input from espresso_437.pwi
Warning: card &CELL ignored
Warning: card / ignored

     Current dimensions of program PWSCF are:
     Max number of different atomic species (ntypx) = 10
     Max number of k-points (npk) =  40000
     Max angular momentum in pseudopotentials (lmaxx) =  4

     gamma-point specific algorithms are used
     Message from routine setup:
     using ibrav=0 with symmetry is DISCOURAGED, use correct ibrav instead

     Using Slab Decomposition

     bravais-lattice index     =            0
     lattice parameter (alat)  =      10.2464  a.u.
     unit-cell volume          =     760.6799 (a.u.)^3
     number of atoms/cell      =            6
     number of atomic types    =            2
     number of electrons       =        80.00
     number of Kohn-Sham states=           48
     kinetic-energy cutoff     =      30.0000  Ry
     charge density cutoff     =     240.0000  Ry
     scf convergence threshold =      1.0E-06
     mixing beta               =       0.7000
     number of iterations used =            8  plain     mixing
     Exchange-correlation= SLA  PW   PBE  PBE
                           (   1   4   3   4   0   0   0)

     celldm(1)=  10.246424  celldm(2)=   0.000000  celldm(3)=   0.000000
     celldm(4)=   0.000000  celldm(5)=   0.000000  celldm(6)=   0.000000

     crystal axes: (cart. coord. in units of alat)
               a(1) = (   1.000000   0.000000   0.000000 )
               a(2) = (   0.500000   0.866025   0.000000 )
               a(3) = (   0.500000   0.288675   0.816497 )

     reciprocal axes: (cart. coord. in units 2 pi/alat)
               b(1) = (  1.000000 -0.577350 -0.408248 )
               b(2) = (  0.000000  1.154701 -0.408248 )
               b(3) = (  0.000000  0.000000  1.224745 )

     PseudoPot. # 1 for Zr read from file:
     /home/pragov/projects/rrg-bengioy-ad/pragov/crystal_structure_design/SSSP/Zr_pbe_v1.uspp.F.UPF
     MD5 check sum: 5db81b1e868ab7776c4564c113de050b
     Pseudo is Ultrasoft + core correction, Zval = 12.0
     Generated by new atomic code, or converted to UPF format
     Using radial grid of  887 points,  6 beta functions with:
                l(1) =   0
                l(2) =   0
                l(3) =   1
                l(4) =   1
                l(5) =   2
                l(6) =   2
     Q(r) pseudized with  6 coefficients,  rinner =    1.200   1.200   1.200
                                                       1.200   1.200

     PseudoPot. # 2 for W  read from file:
     /home/pragov/projects/rrg-bengioy-ad/pragov/crystal_structure_design/SSSP/W_pbe_v1.2.uspp.F.UPF
     MD5 check sum: 9c083fa34c2a2ea0f02f1f893e16e1c8
     Pseudo is Ultrasoft + core correction, Zval = 14.0
     Generated by new atomic code, or converted to UPF format
     Using radial grid of  923 points,  8 beta functions with:
                l(1) =   0
                l(2) =   0
                l(3) =   0
                l(4) =   1
                l(5) =   1
                l(6) =   2
                l(7) =   2
                l(8) =   3
     Q(r) pseudized with  6 coefficients,  rinner =    1.350   1.350   1.350
                                                       1.350   1.350   1.350
                                                       1.350

     atomic species   valence    mass     pseudopotential
        Zr            12.00    91.22400     Zr( 1.00)
        W             14.00   183.84000     W ( 1.00)

     12 Sym. Ops., with inversion, found ( 6 have fractional translation)

                                    s                        frac. trans.

      isym =  1     identity

 cryst.   s( 1) = (     1          0          0      )
                  (     0          1          0      )
                  (     0          0          1      )

 cart.    s( 1) = (  1.0000000  0.0000000  0.0000000 )
                  (  0.0000000  1.0000000  0.0000000 )
                  (  0.0000000  0.0000000  1.0000000 )

      isym =  2     180 deg rotation - cart. axis [1,0,0]

 cryst.   s( 2) = (     1          0          0      )    f =( -0.2500000 )
                  (     1         -1          0      )       ( -0.2500000 )
                  (     1          0         -1      )       ( -0.2500000 )

 cart.    s( 2) = (  1.0000000  0.0000000  0.0000000 )    f =( -0.5000000 )
                  (  0.0000000 -1.0000000 -0.0000000 )       ( -0.2886751 )
                  (  0.0000000  0.0000000 -1.0000000 )       ( -0.2041241 )

      isym =  3     120 deg rotation - cryst. axis [0,0,1]

[...]

      isym =  6     180 deg rotation - cryst. axis [1,1,0]

[...]

      isym =  7     inversion

[...]

      isym =  8     inv. 180 deg rotation - cart. axis [1,0,0]

 cryst.   s( 8) = (    -1          0          0      )
                  (    -1          1          0      )
                  (    -1          0          1      )

 cart.    s( 8) = ( -1.0000000  0.0000000  0.0000000 )
                  (  0.0000000  1.0000000  0.0000000 )
                  (  0.0000000  0.0000000  1.0000000 )

      isym =  9     inv. 120 deg rotation - cryst. axis [0,0,1]

 cryst.   s( 9) = (     1         -1          0      )    f =( -0.2500000 )
                  (     1          0          0      )       ( -0.2500000 )
                  (     1          0         -1      )       ( -0.2500000 )

 cart.    s( 9) = (  0.5000000  0.8660254  0.0000000 )    f =( -0.5000000 )
                  ( -0.8660254  0.5000000  0.0000000 )       ( -0.2886751 )
                  (  0.0000000  0.0000000 -1.0000000 )       ( -0.2041241 )

[...]

 cryst.   s(10) = (     0          1          0      )    f =( -0.2500000 )
                  (    -1          1          0      )       ( -0.2500000 )
                  (     0          1         -1      )       ( -0.2500000 )

 cart.    s(10) = (  0.5000000 -0.8660254 -0.0000000 )    f =( -0.5000000 )
                  (  0.8660254  0.5000000  0.0000000 )       ( -0.2886751 )
                  (  0.0000000  0.0000000 -1.0000000 )       ( -0.2041241 )

[...]

 cryst.   s(11) = (     0          1          0      )
                  (     1          0          0      )
                  (     0          0          1      )

 cart.    s(11) = (  0.5000000  0.8660254  0.0000000 )
                  (  0.8660254 -0.5000000 -0.0000000 )
                  (  0.0000000  0.0000000  1.0000000 )

      isym = 12     inv. 180 deg rotation - cryst. axis [1,1,0]

 cryst.   s(12) = (     1         -1          0      )
                  (     0         -1          0      )
                  (     0         -1          1      )

 cart.    s(12) = (  0.5000000 -0.8660254 -0.0000000 )
                  ( -0.8660254 -0.5000000 -0.0000000 )
                  (  0.0000000  0.0000000  1.0000000 )

   Cartesian axes

     site n.     atom                  positions (alat units)
         1           Zr  tau(   1) = (   1.5000000   0.8660254   0.6123724  )
         2           Zr  tau(   2) = (   1.0000000   0.5773503   0.4082483  )
         3           W   tau(   3) = (   0.5000000   0.5773503   0.1020621  )
         4           W   tau(   4) = (   0.5000000   0.2886751   0.5103104  )
         5           W   tau(   5) = (   0.7500000   0.1443376   0.1020621  )
         6           W   tau(   6) = (   0.2500000   0.1443376   0.1020621  )

   Crystallographic axes

     site n.     atom                  positions (cryst. coord.)
         1           Zr  tau(   1) = (  0.7500000  0.7500000  0.7500000  )
         2           Zr  tau(   2) = (  0.5000000  0.5000000  0.5000000  )
         3           W   tau(   3) = (  0.1250000  0.6250000  0.1250000  )
         4           W   tau(   4) = (  0.1250000  0.1250000  0.6250000  )
         5           W   tau(   5) = (  0.6250000  0.1250000  0.1250000  )
         6           W   tau(   6) = (  0.1250000  0.1250000  0.1250000  )

     number of k points=     1  Methfessel-Paxton smearing, width (Ry)=  0.0010
                       cart. coord. in units 2pi/alat
        k(    1) = (   0.0000000   0.0000000   0.0000000), wk =   2.0000000

                       cryst. coord.
        k(    1) = (   0.0000000   0.0000000   0.0000000), wk =   2.0000000

     Check: negative core charge=   -0.000002

     Initial potential from superposition of free atoms

     starting charge      79.5943, renormalised to      80.0000

     negative rho (up, down):  3.713E-01 0.000E+00
     Starting wfcs are   78 randomized atomic wfcs

     Self-consistent Calculation

     iteration #  1     ecut=    30.00 Ry     beta= 0.70
     Davidson diagonalization with overlap

     ethr =  1.00E-02,  avg # of iterations =  2.0

     negative rho (up, down):  3.630E-01 0.000E+00

     total energy              =    -834.18821482 Ry
     estimated scf accuracy    <       0.91562318 Ry

[...]

     total energy              =    -834.65889710 Ry
     estimated scf accuracy    <       0.00000273 Ry

     iteration # 24     ecut=    30.00 Ry     beta= 0.70
     Davidson diagonalization with overlap

     ethr =  3.42E-09,  avg # of iterations =  1.0

[...]

     End of self-consistent calculation

          k = 0.0000 0.0000 0.0000 (  1043 PWs)   bands (ev):

   -56.9158 -56.7811 -56.7811 -56.7810 -28.6819 -28.6181 -22.2395 -21.3566
   -21.3565 -21.3565 -21.0514 -21.0514 -20.5509 -20.5508 -20.5508 -20.5368
   -20.5367 -20.5367  -6.8909  -6.8909  -6.8909  -6.6769  -6.6769  -6.6769
     9.1358  12.2030  12.8810  12.8810  12.8810  14.8414  14.8414  14.9993
    14.9993  14.9993  18.0920  18.0920  18.4865  18.4865  18.4866  18.8088
    18.8088  18.8088  19.3872  19.3872  19.4774  19.6422  19.6422  19.6422

     occupation numbers
     1.0000   1.0000   1.0000   1.0000   1.0000   1.0000   1.0000   1.0000
     1.0000   1.0000   1.0000   1.0000   1.0000   1.0000   1.0000   1.0000
     1.0000   1.0000   1.0000   1.0000   1.0000   1.0000   1.0000   1.0000
     1.0000   1.0000   1.0000   1.0000   1.0000   1.0000   1.0000   1.0000
     1.0000   1.0000   1.0000   1.0000   1.0000   1.0000   1.0000   0.3351
     0.3328   0.3321  -0.0000  -0.0000  -0.0000  -0.0000  -0.0000  -0.0000

     the Fermi energy is    18.8061 ev

!    total energy              =    -834.65889643 Ry
     estimated scf accuracy    <       0.00000088 Ry
     smearing contrib. (-TS)   =      -0.00074671 Ry
     internal energy E=F+TS    =    -834.65814972 Ry

     The total energy is F=E-TS. E is the sum of the following terms:
     one-electron contribution =    -135.33383251 Ry
     hartree contribution      =     105.33363911 Ry
     xc contribution           =    -200.30390485 Ry
     ewald contribution        =    -604.35405146 Ry

     convergence has been achieved in  24 iterations

     negative rho (up, down):  3.688E-01 0.000E+00

     Forces acting on atoms (cartesian axes, Ry/au):

     atom    1 type  1   force =     0.00000000   -0.00000000    0.00013120
     atom    2 type  1   force =    -0.00000000   -0.00000000   -0.00013120
     atom    3 type  2   force =     0.00000000    0.00000000    0.00000000
     atom    4 type  2   force =    -0.00000000   -0.00000000    0.00000000
     atom    5 type  2   force =     0.00000000    0.00000000   -0.00000000
     atom    6 type  2   force =     0.00000000    0.00000000    0.00000000
     The non-local contrib.  to forces
     atom    1 type  1   force =     0.00000000    0.00000000    0.00002973
     atom    2 type  1   force =     0.00000000   -0.00000000   -0.00002973
     atom    3 type  2   force =     0.00000000    0.00000000    0.00000000
     atom    4 type  2   force =     0.00000000    0.00000000    0.00000000
     atom    5 type  2   force =     0.00000000   -0.00000000   -0.00000000
     atom    6 type  2   force =     0.00000000    0.00000000    0.00000000
     The ionic contribution  to forces
     atom    1 type  1   force =    -0.00000000    0.00000000    0.00000000
     atom    2 type  1   force =     0.00000000    0.00000000    0.00000000
     atom    3 type  2   force =     0.00000000    0.00000000   -0.00000000
     atom    4 type  2   force =    -0.00000000   -0.00000000    0.00000000
     atom    5 type  2   force =     0.00000000   -0.00000000   -0.00000000
     atom    6 type  2   force =    -0.00000000   -0.00000000   -0.00000000
     The local contribution  to forces
     atom    1 type  1   force =     0.00023393   -0.00066856    0.00043503
     atom    2 type  1   force =    -0.00014506    0.00061131   -0.00036653
     atom    3 type  2   force =    -0.00005928    0.00002574   -0.00003060
     atom    4 type  2   force =    -0.00011020    0.00007076    0.00009243
     atom    5 type  2   force =     0.00004564   -0.00001996   -0.00014290
     atom    6 type  2   force =    -0.00006569    0.00003862   -0.00003122
     The core correction contribution to forces
     atom    1 type  1   force =     0.00000073   -0.00000187    0.00000193
     atom    2 type  1   force =    -0.00000075    0.00000256   -0.00000179
     atom    3 type  2   force =     0.00000226    0.00000270   -0.00000063
     atom    4 type  2   force =     0.00000213    0.00000010    0.00000483
     atom    5 type  2   force =     0.00000311   -0.00000150   -0.00000014
     atom    6 type  2   force =    -0.00000184   -0.00000071   -0.00000111
     The Hubbard contrib.    to forces
     atom    1 type  1   force =     0.00000000    0.00000000    0.00000000
     atom    2 type  1   force =     0.00000000    0.00000000    0.00000000
     atom    3 type  2   force =     0.00000000    0.00000000    0.00000000
     atom    4 type  2   force =     0.00000000    0.00000000    0.00000000
     atom    5 type  2   force =     0.00000000    0.00000000    0.00000000
     atom    6 type  2   force =     0.00000000    0.00000000    0.00000000
     The SCF correction term to forces
     atom    1 type  1   force =    -0.00019671    0.00051230   -0.00033579
     atom    2 type  1   force =     0.00008318   -0.00045164    0.00026654
     atom    3 type  2   force =     0.00007234   -0.00001633    0.00002786
     atom    4 type  2   force =     0.00012487   -0.00007602   -0.00009271
     atom    5 type  2   force =    -0.00004124    0.00002180    0.00015656
     atom    6 type  2   force =     0.00005768   -0.00005117    0.00002857

     Total force =     0.000186     Total SCF correction =     0.000875
     SCF correction compared to forces is large: reduce conv_thr to get better values

     Computing stress (Cartesian axis) and pressure

     negative rho (up, down):  3.688E-01 0.000E+00
          total   stress  (Ry/bohr**3)                   (kbar)     P=      -80.20
  -0.00054555   0.00000000  -0.00000000          -80.25        0.00       -0.00
   0.00000000  -0.00054555  -0.00000000            0.00      -80.25       -0.00
   0.00000000  -0.00000000  -0.00054440            0.00       -0.00      -80.08

     kinetic stress (kbar)  31244.58     -0.00     -0.00
                               -0.00  31244.58      0.00
                                0.00      0.00  31243.63

     local   stress (kbar)  14282.29     -0.49     -0.33
                               -0.49  14279.64      1.22
                               -0.33      1.22  14282.71

     nonloc. stress (kbar)  -5177.33     -0.00     -0.00
                                0.00  -5177.33     -0.00
                                0.00     -0.00  -5177.15

     hartree stress (kbar)   6789.64      0.24      0.16
                                0.24   6790.98     -0.56
                                0.16     -0.56   6789.46

     exc-cor stress (kbar)  14392.75      0.00      0.00
                                0.00  14392.77     -0.01
                                0.00     -0.01  14392.75

     corecor stress (kbar) -22653.56     -0.01     -0.01
                               -0.01 -22653.64      0.03
                               -0.01      0.03 -22653.55

     ewald   stress (kbar) -38957.93     -0.00     -0.00
                               -0.00 -38957.93      0.00
                               -0.00      0.00 -38957.93

     hubbard stress (kbar)      0.00      0.00      0.00
                                0.00      0.00      0.00
                                0.00      0.00      0.00

     DFT-D   stress (kbar)      0.00      0.00      0.00
                                0.00      0.00      0.00
                                0.00      0.00      0.00

     XDM     stress (kbar)      0.00      0.00      0.00
                                0.00      0.00      0.00
                                0.00      0.00      0.00

     dft-nl  stress (kbar)      0.00      0.00      0.00
                                0.00      0.00      0.00
                                0.00      0.00      0.00

     TS-vdW  stress (kbar)      0.00      0.00      0.00
                                0.00      0.00      0.00
                                0.00      0.00      0.00

[...]

                                0.00      0.00      0.00

     Writing all to output data dir calculations/myprefix.save/

     General routines

     Parallel routines

   This run was terminated on:  13:30:36   3Mar2023

   JOB DONE.