     Program PWSCF v.7.0 starts on  6Mar2023 at 12:37:39

     R & G space division:  proc/nbgrp/npool/nimage =      32

     Reading input from espresso_4632.pwi
Warning: card &CELL ignored
Warning: card / ignored

     Current dimensions of program PWSCF are:
     Max number of different atomic species (ntypx) = 10
     Max number of k-points (npk) =  40000
     Max angular momentum in pseudopotentials (lmaxx) =  4
     file Al.pbe-n-kjpaw_psl.1.0.0.UPF: wavefunction(s)  3S 3P renormalized

     gamma-point specific algorithms are used
     Message from routine setup:
     using ibrav=0 with symmetry is DISCOURAGED, use correct ibrav instead

     Using Slab Decomposition

     bravais-lattice index     =            0
     lattice parameter (alat)  =      10.2145  a.u.
     unit-cell volume          =     790.9089 (a.u.)^3
     number of atoms/cell      =            6
     number of atomic types    =            3
     number of electrons       =        55.00
     number of Kohn-Sham states=           34
     kinetic-energy cutoff     =      30.0000  Ry
     charge density cutoff     =     240.0000  Ry
     scf convergence threshold =      1.0E-06
     mixing beta               =       0.7000
     number of iterations used =            8  plain     mixing
     Exchange-correlation= PBE
                           (   1   4   3   4   0   0   0)

     celldm(1)=  10.214494  celldm(2)=   0.000000  celldm(3)=   0.000000
     celldm(4)=   0.000000  celldm(5)=   0.000000  celldm(6)=   0.000000

     crystal axes: (cart. coord. in units of alat)
               a(1) = (   1.000000   0.000000   0.000000 )
               a(2) = (  -0.528587   0.848879   0.000000 )
               a(3) = (  -0.235706  -0.424439   0.874239 )

     reciprocal axes: (cart. coord. in units 2 pi/alat)
               b(1) = (  1.000000  0.622689  0.571926 )
               b(2) = (  0.000000  1.178024  0.571926 )
               b(3) = (  0.000000  0.000000  1.143852 )

     PseudoPot. # 1 for Hf read from file:
     /home/pragov/projects/rrg-bengioy-ad/pragov/crystal_structure_design/SSSP/Hf-sp.oncvpsp.upf
     MD5 check sum: 417ed15784afe83d2e06dacf143de3f8
     Pseudo is Norm-conserving + core correction, Zval = 12.0
     Generated using ONCVPSP code by D. R. Hamann
     Using radial grid of 1656 points,  8 beta functions with:
                l(1) =   0
                l(2) =   0
                l(3) =   1
                l(4) =   1
                l(5) =   2
                l(6) =   2
                l(7) =   3
                l(8) =   3

     PseudoPot. # 2 for Al read from file:
     /home/pragov/projects/rrg-bengioy-ad/pragov/crystal_structure_design/SSSP/Al.pbe-n-kjpaw_psl.1.0.0.UPF
     MD5 check sum: cfc449ca30b5f3223ec38ddd88ac046d
     Pseudo is Projector augmented-wave + core cor, Zval =  3.0
     Generated using "atomic" code by A. Dal Corso  v.5.1
     Shape of augmentation charge: PSQ
     Using radial grid of 1135 points,  6 beta functions with:
                l(1) =   0
                l(2) =   0
                l(3) =   1
                l(4) =   1
                l(5) =   2
                l(6) =   2
     Q(r) pseudized with 0 coefficients

     PseudoPot. # 3 for Si read from file:
     /home/pragov/projects/rrg-bengioy-ad/pragov/crystal_structure_design/SSSP/Si.pbe-n-rrkjus_psl.1.0.0.UPF
     MD5 check sum: 0b0bb1205258b0d07b9f9672cf965d36
     Pseudo is Ultrasoft + core correction, Zval =  4.0
     Generated using "atomic" code by A. Dal Corso  v.5.1
     Using radial grid of 1141 points,  6 beta functions with:
                l(1) =   0
                l(2) =   0
                l(3) =   1
                l(4) =   1
                l(5) =   2
                l(6) =   2
     Q(r) pseudized with 0 coefficients

     atomic species   valence    mass     pseudopotential
        Hf            12.00   178.49000     Hf( 1.00)
        Al             3.00    26.98154     Al( 1.00)
        Si             4.00    28.08500     Si( 1.00)

      2 Sym. Ops. (no inversion) found

                                    s                        frac. trans.

      isym =  1     identity

 cryst.   s( 1) = (     1          0          0      )
                  (     0          1          0      )
                  (     0          0          1      )

 cart.    s( 1) = (  1.0000000  0.0000000  0.0000000 )
                  (  0.0000000  1.0000000  0.0000000 )
                  (  0.0000000  0.0000000  1.0000000 )

      isym =  2     180 deg rotation - cart. axis [0,0,1]

 cryst.   s( 2) = (    -1          0          0      )
                  (     0         -1          0      )
                  (     1          1          1      )

 cart.    s( 2) = ( -1.0000000 -0.0000000  0.0000000 )
                  (  0.0000000 -1.0000000  0.0000000 )
                  (  0.0000000  0.0000000  1.0000000 )

   Cartesian axes

     site n.     atom                  positions (alat units)
         1           Hf  tau(   1) = (  -0.2642937   0.4244394   0.7066141  )
         2           Hf  tau(   2) = (  -0.2642937   0.4244394   0.1676248  )
         3           Hf  tau(   3) = (   0.2643973   0.1308385   0.4371195  )
         4           Hf  tau(   4) = (   0.7356027  -0.1308385   0.4371195  )
         5           Al  tau(   5) = (   0.2357063   0.4244394   0.0000000  )
         6           Si  tau(   6) = (   0.0000000   0.0000000   0.0000000  )

   Crystallographic axes

     site n.     atom                  positions (cryst. coord.)
         1           Hf  tau(   1) = (  0.4041310  0.9041310  0.8082620  )
         2           Hf  tau(   2) = (  0.0958690  0.5958690  0.1917380  )
         3           Hf  tau(   3) = (  0.5958690  0.4041310  0.5000000  )
         4           Hf  tau(   4) = (  0.9041310  0.0958690  0.5000000  )
         5           Al  tau(   5) = (  0.5000000  0.5000000  0.0000000  )
         6           Si  tau(   6) = (  0.0000000  0.0000000  0.0000000  )

     number of k points=     1  Methfessel-Paxton smearing, width (Ry)=  0.0010
                       cart. coord. in units 2pi/alat
        k(    1) = (   0.0000000   0.0000000   0.0000000), wk =   2.0000000

                       cryst. coord.
        k(    1) = (   0.0000000   0.0000000   0.0000000), wk =   2.0000000

     Initial potential from superposition of free atoms

     starting charge      54.9897, renormalised to      55.0000
     Starting wfcs are   48 randomized atomic wfcs
     Checking if some PAW data can be deallocated...

     Self-consistent Calculation

     iteration #  1     ecut=    30.00 Ry     beta= 0.70
     Davidson diagonalization with overlap

     ethr =  1.00E-02,  avg # of iterations =  3.0

     Threshold (ethr) on eigenvalues was too large:
     Diagonalizing with lowered threshold

     Davidson diagonalization with overlap

[...]

     total energy              =    -502.03910679 Ry
     estimated scf accuracy    <       0.28472145 Ry

[...]

     total energy              =    -502.13855230 Ry
     estimated scf accuracy    <       0.00003401 Ry

     iteration # 17     ecut=    30.00 Ry     beta= 0.70
     Davidson diagonalization with overlap

     ethr =  3.24E-08,  avg # of iterations =  1.0

     End of self-consistent calculation

          k = 0.0000 0.0000 0.0000 (  1077 PWs)   bands (ev):

   -48.6252 -48.5641 -48.5602 -48.5602 -17.6250 -17.6174 -17.4002 -17.4002
   -17.3400 -17.3400 -17.2866 -17.2830 -17.2639 -17.0467 -17.0467 -17.0075
     3.5952   8.3282   9.8681  10.2956  10.4041  10.4041  11.7829  11.7829
    11.7980  12.1906  12.2190  12.2190  14.5111  14.9701  15.1916  15.3510
    15.3511  15.7059

     occupation numbers
     1.0000   1.0000   1.0000   1.0000   1.0000   1.0000   1.0000   1.0000
     1.0000   1.0000   1.0000   1.0000   1.0000   1.0000   1.0000   1.0000
     1.0000   1.0000   1.0000   1.0000   1.0000   1.0000   1.0000   1.0000
     1.0000   1.0018   0.7502   0.7480  -0.0000  -0.0000  -0.0000  -0.0000
    -0.0000  -0.0000

     the Fermi energy is    12.2232 ev

!    total energy              =    -502.13855237 Ry
     estimated scf accuracy    <       0.00000042 Ry
     smearing contrib. (-TS)   =      -0.00040440 Ry
     internal energy E=F+TS    =    -502.13814797 Ry

     The total energy is F=E-TS. E is the sum of the following terms:
     one-electron contribution =     -91.89946723 Ry
     hartree contribution      =      64.56079254 Ry
     xc contribution           =    -122.86241957 Ry
     ewald contribution        =    -317.21779388 Ry
     one-center paw contrib.   =     -34.71925982 Ry
      -> PAW hartree energy AE =       0.00000000 Ry
      -> PAW hartree energy PS =       0.00000000 Ry
      -> PAW xc energy AE      =       0.00000000 Ry
      -> PAW xc energy PS      =       0.00000000 Ry
      -> total E_H with PAW    =      64.56079254 Ry
      -> total E_XC with PAW   =    -122.86241957 Ry

     convergence has been achieved in  17 iterations

     Forces acting on atoms (cartesian axes, Ry/au):

     atom    1 type  1   force =     0.00000000    0.00000000   -0.02894354
     atom    2 type  1   force =     0.00000000    0.00000000    0.02895992
     atom    3 type  1   force =     0.02524592   -0.01402175   -0.00001586
     atom    4 type  1   force =    -0.02524592    0.01402175   -0.00001586
     atom    5 type  2   force =     0.00000000    0.00000000    0.00010076
     atom    6 type  3   force =     0.00000000    0.00000000   -0.00008542
     The non-local contrib.  to forces
     atom    1 type  1   force =     0.00000000    0.00000000    0.03250819
     atom    2 type  1   force =     0.00000000    0.00000000   -0.03261520
     atom    3 type  1   force =    -0.02862046    0.01586771    0.00005582
     atom    4 type  1   force =     0.02862046   -0.01586771    0.00005582
     atom    5 type  2   force =     0.00000000    0.00000000   -0.00002783
     atom    6 type  3   force =     0.00000000    0.00000000    0.00002435
     The ionic contribution  to forces
     atom    1 type  1   force =    -0.00000000   -0.00000000    2.08980471
     atom    2 type  1   force =     0.00000000    0.00000000   -2.08980471
     atom    3 type  1   force =    -1.82698867    1.01459160    0.00000000
     atom    4 type  1   force =     1.82698867   -1.01459160    0.00000000
     atom    5 type  2   force =    -0.00000000    0.00000000   -0.00000000
     atom    6 type  3   force =     0.00000000   -0.00000000   -0.00000000
     The local contribution  to forces
     atom    1 type  1   force =     0.00005864    0.00065774   -2.12892178
     atom    2 type  1   force =     0.00004875   -0.00004639    2.12893792
     atom    3 type  1   force =     1.86049689   -1.03249098    0.00006868
     atom    4 type  1   force =    -1.86075563    1.03194898   -0.00020509
     atom    5 type  2   force =     0.00008173   -0.00004819    0.00022007
     atom    6 type  3   force =    -0.00003434    0.00002318   -0.00023732
     The core correction contribution to forces
     atom    1 type  1   force =     0.00001679   -0.00001813   -0.02296106
     atom    2 type  1   force =    -0.00002304    0.00001418    0.02297831
     atom    3 type  1   force =     0.02011190   -0.01119178   -0.00003647
     atom    4 type  1   force =    -0.02010580    0.01119233    0.00002003
     atom    5 type  2   force =     0.00000154   -0.00000079    0.00000436
     atom    6 type  3   force =    -0.00000091   -0.00000019   -0.00000383
     The Hubbard contrib.    to forces
     atom    1 type  1   force =     0.00000000    0.00000000    0.00000000
     atom    2 type  1   force =     0.00000000    0.00000000    0.00000000
     atom    3 type  1   force =     0.00000000    0.00000000    0.00000000
     atom    4 type  1   force =     0.00000000    0.00000000    0.00000000
     atom    5 type  2   force =     0.00000000    0.00000000    0.00000000
     atom    6 type  3   force =     0.00000000    0.00000000    0.00000000
     The SCF correction term to forces
     atom    1 type  1   force =     0.00002745   -0.00060694    0.00062546
     atom    2 type  1   force =    -0.00009736    0.00010388   -0.00053734
     atom    3 type  1   force =     0.00023158   -0.00086092   -0.00021685
     atom    4 type  1   force =    -0.00000831    0.00127713    0.00022443
     atom    5 type  2   force =    -0.00004117    0.00002609   -0.00009678
     atom    6 type  3   force =     0.00000988   -0.00001175    0.00013044

     Total force =     0.057830     Total SCF correction =     0.001903

     Computing stress (Cartesian axis) and pressure

          total   stress  (Ry/bohr**3)                   (kbar)     P=     -219.27
  -0.00148088  -0.00004391   0.00000000         -217.84       -6.46        0.00
  -0.00004391  -0.00153597   0.00000000           -6.46     -225.95        0.00
   0.00000000   0.00000000  -0.00145487            0.00        0.00     -214.02

     kinetic stress (kbar)  14830.78     70.64     -0.00
                               70.64  14919.29     -0.00
                               -0.00     -0.00  14791.52

     local   stress (kbar)  -1743.12  -1007.34      0.14
                            -1007.34  -2998.70     -0.24
                                0.14     -0.24  -1182.77

     nonloc. stress (kbar)   7371.29      7.67     -0.00
                                7.67   7380.88     -0.00
                               -0.00     -0.00   7367.06

     hartree stress (kbar)   3892.01    481.47      0.05
                              481.47   4492.06      0.04
                                0.05      0.04   3623.92

     exc-cor stress (kbar)   7993.11      1.62     -0.00
                                1.62   7995.15      0.00
                               -0.00      0.00   7992.21

     corecor stress (kbar) -12794.38      2.23      0.01
                                2.23 -12791.61     -0.01
                                0.01     -0.01 -12795.61

     ewald   stress (kbar) -19767.54    437.24     -0.00
                              437.24 -19223.02     -0.00
                               -0.00     -0.00 -20010.36

     hubbard stress (kbar)      0.00      0.00      0.00
                                0.00      0.00      0.00
                                0.00      0.00      0.00

     DFT-D   stress (kbar)      0.00      0.00      0.00
                                0.00      0.00      0.00
                                0.00      0.00      0.00

     XDM     stress (kbar)      0.00      0.00      0.00
                                0.00      0.00      0.00
                                0.00      0.00      0.00

     dft-nl  stress (kbar)      0.00      0.00      0.00
                                0.00      0.00      0.00
                                0.00      0.00      0.00

     TS-vdW  stress (kbar)      0.00      0.00      0.00
                                0.00      0.00      0.00
                                0.00      0.00      0.00

[...]

                                0.00      0.00      0.00

     Writing all to output data dir calculations/myprefix.save/

     General routines

     Parallel routines

     PAW routines

   This run was terminated on:  12:37:43   6Mar2023

   JOB DONE.