     Program PWSCF v.7.0 starts on  4Mar2023 at 21:28:50

     R & G space division:  proc/nbgrp/npool/nimage =      32

     Reading input from espresso_7741.pwi
Warning: card &CELL ignored
Warning: card / ignored

     Current dimensions of program PWSCF are:
     Max number of different atomic species (ntypx) = 10
     Max number of k-points (npk) =  40000
     Max angular momentum in pseudopotentials (lmaxx) =  4
     file O.pbe-n-kjpaw_psl.0.1.UPF: wavefunction(s)  2P renormalized

     gamma-point specific algorithms are used

     Using Slab Decomposition

     bravais-lattice index     =            0
     lattice parameter (alat)  =      14.4955  a.u.
     unit-cell volume          =    1196.1610 (a.u.)^3
     number of atoms/cell      =           20
     number of atomic types    =            4
     number of electrons       =       142.00
     number of Kohn-Sham states=           85
     kinetic-energy cutoff     =      30.0000  Ry
     charge density cutoff     =     240.0000  Ry
     scf convergence threshold =      1.0E-06
     mixing beta               =       0.7000
     number of iterations used =            8  plain     mixing
     Exchange-correlation= SLA  PW   PBX  PBC
                           (   1   4   3   4   0   0   0)

     celldm(1)=  14.495454  celldm(2)=   0.000000  celldm(3)=   0.000000
     celldm(4)=   0.000000  celldm(5)=   0.000000  celldm(6)=   0.000000

     crystal axes: (cart. coord. in units of alat)
               a(1) = (   1.000000   0.000000   0.000000 )
               a(2) = (  -0.779408   0.626516   0.000000 )
               a(3) = (   0.078901   0.224091   0.626847 )

     reciprocal axes: (cart. coord. in units 2 pi/alat)
               b(1) = (  1.000000  1.244035 -0.570597 )
               b(2) = (  0.000000  1.596127 -0.570597 )
               b(3) = (  0.000000  0.000000  1.595285 )

     PseudoPot. # 1 for Li read from file:
     /home/pragov/projects/rrg-bengioy-ad/pragov/crystal_structure_design/SSSP/li_pbe_v1.4.uspp.F.UPF
     MD5 check sum: e912e257baa3777c20ea3d68f190483c
     Pseudo is Ultrasoft, Zval =  3.0
     Generated by new atomic code, or converted to UPF format
     Using radial grid of  751 points,  5 beta functions with:
                l(1) =   0
                l(2) =   0
                l(3) =   0
                l(4) =   1
                l(5) =   1
     Q(r) pseudized with 10 coefficients,  rinner =    1.150   1.150   1.150

     PseudoPot. # 2 for Mn read from file:
     /home/pragov/projects/rrg-bengioy-ad/pragov/crystal_structure_design/SSSP/mn_pbe_v1.5.uspp.F.UPF
     MD5 check sum: 82ef2b46521d7a7d9e736dc3972e4928
     Pseudo is Ultrasoft + core correction, Zval = 15.0
     Generated by new atomic code, or converted to UPF format
     Using radial grid of  859 points,  6 beta functions with:
                l(1) =   0
                l(2) =   0
                l(3) =   1
                l(4) =   1
                l(5) =   2
                l(6) =   2
     Q(r) pseudized with  8 coefficients,  rinner =    0.950   0.950   0.950
                                                       0.950   0.950

     PseudoPot. # 3 for Co read from file:
     /home/pragov/projects/rrg-bengioy-ad/pragov/crystal_structure_design/SSSP/Co_pbe_v1.2.uspp.F.UPF
     MD5 check sum: 5f91765df6ddd3222702df6e7b74a16d
     Pseudo is Ultrasoft + core correction, Zval = 17.0
     Generated by new atomic code, or converted to UPF format
     Using radial grid of  863 points,  6 beta functions with:
                l(1) =   0
                l(2) =   0
                l(3) =   1
                l(4) =   1
                l(5) =   2
                l(6) =   2
     Q(r) pseudized with  8 coefficients,  rinner =    1.200   1.200   1.200
                                                       1.200   1.200

     PseudoPot. # 4 for O  read from file:
     /home/pragov/projects/rrg-bengioy-ad/pragov/crystal_structure_design/SSSP/O.pbe-n-kjpaw_psl.0.1.UPF
     MD5 check sum: 0234752ac141de4415c5fc33072bef88
     Pseudo is Projector augmented-wave + core cor, Zval =  6.0
     Generated using "atomic" code by A. Dal Corso  v.5.0.99 svn rev. 10869
     Shape of augmentation charge: BESSEL
     Using radial grid of 1095 points,  4 beta functions with:
                l(1) =   0
                l(2) =   0
                l(3) =   1
                l(4) =   1
     Q(r) pseudized with 0 coefficients

     atomic species   valence    mass     pseudopotential
        Li             3.00     6.94000     Li( 1.00)
        Mn            15.00    54.93804     Mn( 1.00)
        Co            17.00    58.93319     Co( 1.00)
        O              6.00    15.99900     O ( 1.00)

     No symmetry found

                                    s                        frac. trans.

      isym =  1     identity

 cryst.   s( 1) = (     1          0          0      )
                  (     0          1          0      )
                  (     0          0          1      )

 cart.    s( 1) = (  1.0000000  0.0000000 -0.0000000 )
                  (  0.0000000  1.0000000  0.0000000 )
                  (  0.0000000  0.0000000  1.0000000 )

   Cartesian axes

     site n.     atom                  positions (alat units)
         1           Li  tau(   1) = (   0.8645220   0.1736362   0.3134236  )
         2           Li  tau(   2) = (  -0.2071728   0.5509720   0.3134236  )
         3           Li  tau(   3) = (   0.4981650   0.3026278   0.3134236  )
         4           Li  tau(   4) = (  -0.5597910   0.6751263   0.3134236  )
         5           Li  tau(   5) = (   0.1549243   0.4234803   0.3134236  )
         6           Li  tau(   6) = (   0.2885303   0.2505032   0.0000000  )
         7           Mn  tau(   7) = (   0.9989199   0.0003803   0.0000000  )
         8           Mn  tau(   8) = (   0.6412927   0.1262982   0.0000000  )
         9           Co  tau(   9) = (  -0.0639669   0.3746149   0.0000000  )
        10           Co  tau(  10) = (  -0.4311673   0.5039034   0.0000000  )
        11           O   tau(  11) = (   0.0122131   0.5989508   0.1457626  )
        12           O   tau(  12) = (  -0.2802295   0.3286167   0.1328452  )
        13           O   tau(  13) = (   0.4474985   0.0830193   0.1458742  )
        14           O   tau(  14) = (   0.3609380   0.4812227   0.1477886  )
        15           O   tau(  15) = (   0.0609177   0.2070611   0.1337228  )
        16           O   tau(  16) = (  -0.0662411   0.3761281   0.4810845  )
        17           O   tau(  17) = (  -0.1248045   0.7700488   0.4940019  )
        18           O   tau(  18) = (   0.5962635   0.5055359   0.4809729  )
        19           O   tau(  19) = (   0.2793165   0.2494045   0.4790585  )
        20           O   tau(  20) = (   0.2172450   0.6510560   0.4931244  )

   Crystallographic axes

     site n.     atom                  positions (cryst. coord.)
         1           Li  tau(   1) = (  0.9016930  0.0983070  0.5000000  )
         2           Li  tau(   2) = (  0.2994170  0.7005830  0.5000000  )
         3           Li  tau(   3) = (  0.6958060  0.3041940  0.5000000  )
         4           Li  tau(   4) = (  0.1012510  0.8987490  0.5000000  )
         5           Li  tau(   5) = (  0.5029100  0.4970900  0.5000000  )
         6           Li  tau(   6) = (  0.6001650  0.3998350  0.0000000  )
         7           Mn  tau(   7) = (  0.9993930  0.0006070  0.0000000  )
         8           Mn  tau(   8) = (  0.7984120  0.2015880  0.0000000  )
         9           Co  tau(   9) = (  0.4020670  0.5979330  0.0000000  )
        10           Co  tau(  10) = (  0.1957060  0.8042940  0.0000000  )
        11           O   tau(  11) = (  0.6741570  0.8728300  0.2325330  )
        12           O   tau(  12) = (  0.0527800  0.4487130  0.2119260  )
        13           O   tau(  13) = (  0.4675420  0.0492740  0.2327110  )
        14           O   tau(  14) = (  0.8752680  0.6837650  0.2357650  )
        15           O   tau(  15) = (  0.2422070  0.2541940  0.2133260  )
        16           O   tau(  16) = (  0.1271700  0.3258430  0.7674670  )
        17           O   tau(  17) = (  0.5512870  0.9472200  0.7880740  )
        18           O   tau(  18) = (  0.9507260  0.5324580  0.7672890  )
        19           O   tau(  19) = (  0.3162350  0.1247320  0.7642350  )
        20           O   tau(  20) = (  0.7458060  0.7577930  0.7866740  )

     number of k points=     1  Methfessel-Paxton smearing, width (Ry)=  0.0010
                       cart. coord. in units 2pi/alat
        k(    1) = (   0.0000000   0.0000000   0.0000000), wk =   2.0000000

                       cryst. coord.
        k(    1) = (   0.0000000   0.0000000   0.0000000), wk =   2.0000000

     Check: negative core charge=   -0.000026

     Initial potential from superposition of free atoms

     starting charge     136.2953, renormalised to     142.0000
     Starting wfcs are  122 randomized atomic wfcs
     Checking if some PAW data can be deallocated...

     Self-consistent Calculation

     iteration #  1     ecut=    30.00 Ry     beta= 0.70
     Davidson diagonalization with overlap

     ethr =  1.00E-02,  avg # of iterations =  3.0

     total energy              =   -1469.66082824 Ry
     estimated scf accuracy    <      69.38354514 Ry

[...]

     total energy              =   -1523.03233055 Ry
     estimated scf accuracy    <       0.00000164 Ry

     iteration # 44     ecut=    30.00 Ry     beta= 0.70
     Davidson diagonalization with overlap

     ethr =  1.16E-09,  avg # of iterations =  1.0

     End of self-consistent calculation

          k = 0.0000 0.0000 0.0000 (  1666 PWs)   bands (ev):

   -87.0501 -86.8664 -71.6841 -71.6037 -50.3996 -50.3505 -50.1874 -50.1425
   -50.1112 -49.9792 -40.5403 -40.5218 -40.4219 -40.3957 -40.2020 -40.0378
   -36.3849 -36.3119 -36.0941 -35.9889 -35.9479 -35.5462 -11.0478 -10.1352
    -9.9485  -9.8591  -9.7411  -9.6338  -9.4084  -9.3611  -9.3218  -9.2062
     2.0066   2.1361   2.5735   2.8232   2.9521   3.0383   3.1441   3.1467
     3.2542   3.4144   3.5921   3.7236   3.8174   3.8541   3.9777   4.2459
     4.3509   4.5338   4.6831   4.7232   4.8577   5.3061   5.3327   5.4737
     5.8491   6.0003   6.2765   6.4934   6.5253   6.5915   7.4165   7.6125
     7.6305   7.6798   7.8149   7.9826   8.3033   8.3165   8.4042   8.4303
     8.5503   8.6608   9.0630   9.5572   9.7051  10.1655  10.7121  10.8157
    10.9233  10.9910  13.6821  15.6708  16.3652

     occupation numbers
     1.0000   1.0000   1.0000   1.0000   1.0000   1.0000   1.0000   1.0000
     1.0000   1.0000   1.0000   1.0000   1.0000   1.0000   1.0000   1.0000
     1.0000   1.0000   1.0000   1.0000   1.0000   1.0000   1.0000   1.0000
     1.0000   1.0000   1.0000   1.0000   1.0000   1.0000   1.0000   1.0000
     1.0000   1.0000   1.0000   1.0000   1.0000   1.0000   1.0000   1.0000
     1.0000   1.0000   1.0000   1.0000   1.0000   1.0000   1.0000   1.0000
     1.0000   1.0000   1.0000   1.0000   1.0000   1.0000   1.0000   1.0000
     1.0000   1.0000   1.0000   1.0000   1.0000   1.0000   1.0000   1.0000
     1.0000   1.0000   1.0000   1.0000   1.0000   1.0000   1.0204  -0.0204
    -0.0000  -0.0000  -0.0000  -0.0000  -0.0000  -0.0000  -0.0000  -0.0000
    -0.0000  -0.0000  -0.0000  -0.0000  -0.0000

     the Fermi energy is     8.4172 ev

!    total energy              =   -1523.03232990 Ry
     estimated scf accuracy    <       0.00000075 Ry
     smearing contrib. (-TS)   =       0.00018894 Ry
     internal energy E=F+TS    =   -1523.03251884 Ry

     The total energy is F=E-TS. E is the sum of the following terms:
     one-electron contribution =    -957.80496258 Ry
     hartree contribution      =     538.32239585 Ry
     xc contribution           =    -212.76662461 Ry
     ewald contribution        =    -795.55999824 Ry
     one-center paw contrib.   =     -95.22332925 Ry
      -> PAW hartree energy AE =       0.00000000 Ry
      -> PAW hartree energy PS =       0.00000000 Ry
      -> PAW xc energy AE      =       0.00000000 Ry
      -> PAW xc energy PS      =       0.00000000 Ry
      -> total E_H with PAW    =     538.32239585 Ry
      -> total E_XC with PAW   =    -212.76662461 Ry

     convergence has been achieved in  44 iterations

     Forces acting on atoms (cartesian axes, Ry/au):

     atom    1 type  1   force =     0.00426757   -0.00150671    0.00000218
     atom    2 type  1   force =    -0.00222633    0.00078270    0.00000155
     atom    3 type  1   force =    -0.00080572    0.00028450    0.00000117
     atom    4 type  1   force =    -0.00088896    0.00030531    0.00000165
     atom    5 type  1   force =    -0.00122084    0.00043216   -0.00000285
     atom    6 type  1   force =    -0.00164369    0.00058222   -0.00000083
     atom    7 type  2   force =    -0.00440191    0.00158260   -0.00001854
     atom    8 type  2   force =     0.03940215   -0.01387479    0.00000405
     atom    9 type  3   force =    -0.01742491    0.00609773    0.00001699
     atom   10 type  3   force =     0.02651220   -0.00928546   -0.00002542
     atom   11 type  4   force =    -0.02589268   -0.05961598   -0.01282638
     atom   12 type  4   force =    -0.02155484    0.02690470   -0.03165761
     atom   13 type  4   force =    -0.00074355   -0.02754891   -0.04913099
     atom   14 type  4   force =     0.01099792    0.00698250   -0.01897620
     atom   15 type  4   force =    -0.00845885   -0.01007259   -0.01498891
     atom   16 type  4   force =     0.01717027    0.06268507    0.01284032
     atom   17 type  4   force =    -0.03365672   -0.00746785    0.03165805
     atom   18 type  4   force =     0.01667093    0.02193956    0.04912586
     atom   19 type  4   force =     0.00417750   -0.01233962    0.01899388
     atom   20 type  4   force =    -0.00027953    0.01313286    0.01498205
     The non-local contrib.  to forces
     atom    1 type  1   force =    -0.03376483    0.01188897    0.00000051
     atom    2 type  1   force =     0.03896922   -0.01372031   -0.00000023
     atom    3 type  1   force =     0.01635930   -0.00576122   -0.00000000
     atom    4 type  1   force =     0.00122160   -0.00042923    0.00000155
     atom    5 type  1   force =    -0.01635888    0.00575879   -0.00000173
     atom    6 type  1   force =     0.01654784   -0.00582785   -0.00000137
     atom    7 type  2   force =     0.02755397   -0.00967219   -0.00000577
     atom    8 type  2   force =    -0.12762405    0.04493456    0.00000313
     atom    9 type  3   force =    -0.01560207    0.00546350    0.00001397
     atom   10 type  3   force =     0.01870223   -0.00654297   -0.00001788
     atom   11 type  4   force =     0.02359053   -0.09276933   -0.75446920
     atom   12 type  4   force =    -0.05760924    0.02362748   -0.71078094
     atom   13 type  4   force =     0.22561267   -0.24431372   -0.59100612
     atom   14 type  4   force =     0.18688649    0.35940881   -0.57119370
     atom   15 type  4   force =    -0.42233739   -0.05529399   -0.54914528
     atom   16 type  4   force =     0.07651567    0.05752275    0.75448600
     atom   17 type  4   force =    -0.05970039    0.01768377    0.71077609
     atom   18 type  4   force =     0.32890607    0.04907642    0.59100580
     atom   19 type  4   force =    -0.07951853   -0.39722675    0.57120976
     atom   20 type  4   force =    -0.29453097    0.30769295    0.54912526
     The ionic contribution  to forces
     atom    1 type  1   force =     0.54990546   -0.19361764   -0.00000000
     atom    2 type  1   force =    -0.53904452    0.18979359   -0.00000000
     atom    3 type  1   force =    -2.04226014    0.71906468   -0.00000000
     atom    4 type  1   force =    -0.02278098    0.00802101   -0.00000000
     atom    5 type  1   force =     2.06779862   -0.72805659   -0.00000000
     atom    6 type  1   force =     0.23948754   -0.08432179    0.00000000
     atom    7 type  2   force =    10.26799748   -3.61528591    0.00000000
     atom    8 type  2   force =    -8.81073271    3.10219378    0.00000000
     atom    9 type  3   force =     8.60400107   -3.02940509    0.00000000
     atom   10 type  3   force =   -10.19701028    3.59029185   -0.00000000
     atom   11 type  4   force =     1.07945243   -1.57504783   15.60275221
     atom   12 type  4   force =    -2.79725374    0.55511462   15.81356445
     atom   13 type  4   force =    -7.56894968    5.70687118   11.90996946
     atom   14 type  4   force =    -1.97685393   -6.44168413   13.25065829
     atom   15 type  4   force =    10.53863205   -0.11697022   12.55248749
     atom   16 type  4   force =     1.82812746    0.55131047  -15.60275221
     atom   17 type  4   force =    -2.52799093    1.31986461  -15.81356445
     atom   18 type  4   force =    -9.47475009    0.29408936  -11.90996946
     atom   19 type  4   force =     2.49504496    6.25923291  -13.25065829
     atom   20 type  4   force =     8.28717993   -6.51145884  -12.55248749
     The local contribution  to forces
     atom    1 type  1   force =    -0.51202475    0.18026415    0.00000101
     atom    2 type  1   force =     0.49774871   -0.17525241    0.00000117
     atom    3 type  1   force =     2.02517568   -0.71303104   -0.00000231
     atom    4 type  1   force =     0.02083599   -0.00736789   -0.00000152
     atom    5 type  1   force =    -2.05260111    0.72273034   -0.00001218
     atom    6 type  1   force =    -0.25747261    0.09068607   -0.00000636
     atom    7 type  2   force =   -10.29465321    3.62453663    0.00005301
     atom    8 type  2   force =     8.96502732   -3.15650962    0.00000922
     atom    9 type  3   force =    -8.60503583    3.02984505   -0.00003750
     atom   10 type  3   force =    10.20445231   -3.59302196    0.00004344
     atom   11 type  4   force =    -1.12970747    1.60652677  -14.86905985
     atom   12 type  4   force =     2.83228602   -0.55103986  -15.14221685
     atom   13 type  4   force =     7.34457293   -5.49312092  -11.37467307
     atom   14 type  4   force =     1.80411050    6.09246725  -12.70428197
     atom   15 type  4   force =   -10.12907984    0.16223432  -12.02381358
     atom   16 type  4   force =    -1.88700430   -0.54434741   14.86907198
     atom   17 type  4   force =     2.55274337   -1.34500591   15.14221412
     atom   18 type  4   force =     9.16593551   -0.32013039   11.37467589
     atom   19 type  4   force =    -2.41089081   -5.87884112   12.70428676
     atom   20 type  4   force =    -7.99630011    6.21955376   12.02382720
     The core correction contribution to forces
     atom    1 type  1   force =     0.00000000    0.00000000    0.00000000
     atom    2 type  1   force =     0.00000000    0.00000000    0.00000000
     atom    3 type  1   force =     0.00000000    0.00000000    0.00000000
     atom    4 type  1   force =     0.00000000    0.00000000    0.00000000
     atom    5 type  1   force =     0.00000000    0.00000000    0.00000000
     atom    6 type  1   force =     0.00000000    0.00000000    0.00000000
     atom    7 type  2   force =    -0.00520371    0.00183133   -0.00000022
     atom    8 type  2   force =     0.01182505   -0.00416334   -0.00000001
     atom    9 type  3   force =    -0.00177843    0.00062628   -0.00000003
     atom   10 type  3   force =     0.00121327   -0.00042719   -0.00000005
     atom   11 type  4   force =    -0.00006364    0.00179394    0.00818402
     atom   12 type  4   force =     0.00074002   -0.00085448    0.00768784
     atom   13 type  4   force =    -0.00167883    0.00304943    0.00645098
     atom   14 type  4   force =    -0.00259199   -0.00369618    0.00623781
     atom   15 type  4   force =     0.00447392    0.00035044    0.00572454
     atom   16 type  4   force =    -0.00117366   -0.00135829   -0.00818421
     atom   17 type  4   force =     0.00111207    0.00020225   -0.00768778
     atom   18 type  4   force =    -0.00321898   -0.00132501   -0.00645101
     atom   19 type  4   force =     0.00029551    0.00450489   -0.00623793
     atom   20 type  4   force =     0.00326750   -0.00307612   -0.00572427
     The Hubbard contrib.    to forces
     atom    1 type  1   force =     0.00000000    0.00000000    0.00000000
     atom    2 type  1   force =     0.00000000    0.00000000    0.00000000
     atom    3 type  1   force =     0.00000000    0.00000000    0.00000000
     atom    4 type  1   force =     0.00000000    0.00000000    0.00000000
     atom    5 type  1   force =     0.00000000    0.00000000    0.00000000
     atom    6 type  1   force =     0.00000000    0.00000000    0.00000000
     atom    7 type  2   force =     0.00000000    0.00000000    0.00000000
     atom    8 type  2   force =     0.00000000    0.00000000    0.00000000
     atom    9 type  3   force =     0.00000000    0.00000000    0.00000000
     atom   10 type  3   force =     0.00000000    0.00000000    0.00000000
     atom   11 type  4   force =     0.00000000    0.00000000    0.00000000
     atom   12 type  4   force =     0.00000000    0.00000000    0.00000000
     atom   13 type  4   force =     0.00000000    0.00000000    0.00000000
     atom   14 type  4   force =     0.00000000    0.00000000    0.00000000
     atom   15 type  4   force =     0.00000000    0.00000000    0.00000000
     atom   16 type  4   force =     0.00000000    0.00000000    0.00000000
     atom   17 type  4   force =     0.00000000    0.00000000    0.00000000
     atom   18 type  4   force =     0.00000000    0.00000000    0.00000000
     atom   19 type  4   force =     0.00000000    0.00000000    0.00000000
     atom   20 type  4   force =     0.00000000    0.00000000    0.00000000
     The SCF correction term to forces
     atom    1 type  1   force =     0.00016064   -0.00004359   -0.00000056
     atom    2 type  1   force =     0.00010920   -0.00003958   -0.00000060
     atom    3 type  1   force =    -0.00007160    0.00001068    0.00000227
     atom    4 type  1   force =    -0.00015662    0.00008001    0.00000041
     atom    5 type  1   force =    -0.00005051   -0.00000179    0.00000985
     atom    6 type  1   force =    -0.00019751    0.00004439    0.00000569
     atom    7 type  2   force =    -0.00008749    0.00017134   -0.00006677
     atom    8 type  2   force =     0.00091550   -0.00033157   -0.00000950
     atom    9 type  3   force =     0.00099929   -0.00043341    0.00003935
     atom   10 type  3   force =    -0.00083639    0.00041342   -0.00005213
     atom   11 type  4   force =     0.00084442   -0.00012093   -0.00023478
     atom   12 type  4   force =     0.00029104    0.00005554    0.00008669
     atom   13 type  4   force =    -0.00029170   -0.00003627    0.00012655
     atom   14 type  4   force =    -0.00054420    0.00048535   -0.00039784
     atom   15 type  4   force =    -0.00013864   -0.00039454   -0.00024329
     atom   16 type  4   force =     0.00071405   -0.00044385    0.00021755
     atom   17 type  4   force =     0.00018809   -0.00021397   -0.00008114
     atom   18 type  4   force =    -0.00019264    0.00022777   -0.00013656
     atom   19 type  4   force =    -0.00074468   -0.00001095    0.00039236
     atom   20 type  4   force =     0.00011307    0.00041970    0.00024015

     Total force =     0.155852     Total SCF correction =     0.002642

     Computing stress (Cartesian axis) and pressure

          total   stress  (Ry/bohr**3)                   (kbar)     P=     -641.88
  -0.00441091   0.00000533  -0.00012133         -648.87        0.78      -17.85
   0.00000533  -0.00439777  -0.00034427            0.78     -646.93      -50.64
  -0.00012133  -0.00034427  -0.00428158          -17.85      -50.64     -629.84

     kinetic stress (kbar)  29331.80     15.64    -15.49
                               15.64  29370.80    -44.13
                              -15.49    -44.13  29646.28

     local   stress (kbar) -38244.39   -544.80    614.90
                             -544.80 -39600.12   1746.83
                              614.90   1746.83  15544.27

     nonloc. stress (kbar)   9360.76     20.08     -5.40
                               20.08   9410.79    -15.44
                               -5.40    -15.44   9426.94

     hartree stress (kbar)  29815.41    388.86   -204.99
                              388.86  30782.99   -582.33
                             -204.99   -582.33   5605.03

     exc-cor stress (kbar)  -6220.53     -1.39     -1.07
                               -1.39  -6224.00     -3.04
                               -1.07     -3.04  -6227.08

     corecor stress (kbar)  -1954.34     -0.25      0.08
                               -0.25  -1954.96      0.22
                                0.08      0.22  -1956.50

     ewald   stress (kbar) -22737.57    122.64   -405.87
                              122.64 -22432.42  -1152.75
                             -405.87  -1152.75 -52668.77

     hubbard stress (kbar)      0.00      0.00      0.00
                                0.00      0.00      0.00
                                0.00      0.00      0.00

     DFT-D   stress (kbar)      0.00      0.00      0.00
                                0.00      0.00      0.00
                                0.00      0.00      0.00

     XDM     stress (kbar)      0.00      0.00      0.00
                                0.00      0.00      0.00
                                0.00      0.00      0.00

     dft-nl  stress (kbar)      0.00      0.00      0.00
                                0.00      0.00      0.00
                                0.00      0.00      0.00

     TS-vdW  stress (kbar)      0.00      0.00      0.00
                                0.00      0.00      0.00
                                0.00      0.00      0.00

[...]

                                0.00      0.00      0.00

     Writing all to output data dir calculations/myprefix.save/

     General routines

     Parallel routines

     PAW routines

   This run was terminated on:  21:28:57   4Mar2023

   JOB DONE.