     Program PWSCF v.7.0 starts on  6Mar2023 at 13: 1:15

     R & G space division:  proc/nbgrp/npool/nimage =      32

     Reading input from espresso_4702.pwi
Warning: card &CELL ignored
Warning: card / ignored

     Current dimensions of program PWSCF are:
     Max number of different atomic species (ntypx) = 10
     Max number of k-points (npk) =  40000
     Max angular momentum in pseudopotentials (lmaxx) =  4

     gamma-point specific algorithms are used
     Message from routine setup:
     using ibrav=0 with symmetry is DISCOURAGED, use correct ibrav instead

     Using Slab Decomposition

     bravais-lattice index     =            0
     lattice parameter (alat)  =      12.4815  a.u.
     unit-cell volume          =    3340.0904 (a.u.)^3
     number of atoms/cell      =           16
     number of atomic types    =            2
     number of electrons       =       196.00
     number of Kohn-Sham states=          118
     kinetic-energy cutoff     =      30.0000  Ry
     charge density cutoff     =     240.0000  Ry
     scf convergence threshold =      1.0E-06
     mixing beta               =       0.7000
     number of iterations used =            8  plain     mixing
     Exchange-correlation= PBE
                           (   1   4   3   4   0   0   0)

     celldm(1)=  12.481539  celldm(2)=   0.000000  celldm(3)=   0.000000
     celldm(4)=   0.000000  celldm(5)=   0.000000  celldm(6)=   0.000000

     crystal axes: (cart. coord. in units of alat)
               a(1) = (   1.000000   0.000000   0.000000 )
               a(2) = (   0.000000   1.118678   0.000000 )
               a(3) = (   0.000000   0.000000   1.535496 )

     reciprocal axes: (cart. coord. in units 2 pi/alat)
               b(1) = (  1.000000  0.000000  0.000000 )
               b(2) = (  0.000000  0.893912  0.000000 )
               b(3) = (  0.000000  0.000000  0.651255 )

     PseudoPot. # 1 for La read from file:
     /home/pragov/projects/rrg-bengioy-ad/pragov/crystal_structure_design/SSSP/La.GGA-PBE-paw-v1.0.UPF
     MD5 check sum: 436541e95c1ad8901025bd0b0ed42ae2
     Pseudo is Projector augmented-wave + core cor, Zval = 11.0
     Generated using ATOMPAW code
     Shape of augmentation charge: BESSEL
     Using radial grid of 1101 points,  8 beta functions with:
                l(1) =   0
                l(2) =   0
                l(3) =   1
                l(4) =   1
                l(5) =   2
                l(6) =   2
                l(7) =   3
                l(8) =   3
     Q(r) pseudized with 0 coefficients

     PseudoPot. # 2 for Ru read from file:
     /home/pragov/projects/rrg-bengioy-ad/pragov/crystal_structure_design/SSSP/Ru_ONCV_PBE-1.0.oncvpsp.upf
     MD5 check sum: be037bb81c227cfb9b1461a9f099f4bd
     Pseudo is Norm-conserving, Zval = 16.0
     Generated using ONCVPSP code by D. R. Hamann
     Using radial grid of 1458 points,  6 beta functions with:
                l(1) =   0
                l(2) =   0
                l(3) =   1
                l(4) =   1
                l(5) =   2
                l(6) =   2

     atomic species   valence    mass     pseudopotential
        La            11.00   138.90547     La( 1.00)
        Ru            16.00   101.07000     Ru( 1.00)

      8 Sym. Ops., with inversion, found ( 6 have fractional translation)

                                    s                        frac. trans.

      isym =  1     identity

 cryst.   s( 1) = (     1          0          0      )
                  (     0          1          0      )
                  (     0          0          1      )

 cart.    s( 1) = (  1.0000000  0.0000000  0.0000000 )
                  (  0.0000000  1.0000000  0.0000000 )
                  (  0.0000000  0.0000000  1.0000000 )

      isym =  2     180 deg rotation - cart. axis [0,0,1]

 cryst.   s( 2) = (    -1          0          0      )    f =(  0.0000000 )
                  (     0         -1          0      )       (  0.0000000 )
                  (     0          0          1      )       ( -0.5000000 )

 cart.    s( 2) = ( -1.0000000  0.0000000  0.0000000 )    f =(  0.0000000 )
                  (  0.0000000 -1.0000000  0.0000000 )       (  0.0000000 )
                  (  0.0000000  0.0000000  1.0000000 )       ( -0.7677482 )

[...]

      isym =  4     180 deg rotation - cart. axis [1,0,0]

[...]

      isym =  5     inversion

 cryst.   s( 5) = (    -1          0          0      )
                  (     0         -1          0      )
                  (     0          0         -1      )

 cart.    s( 5) = ( -1.0000000  0.0000000  0.0000000 )
                  (  0.0000000 -1.0000000  0.0000000 )
                  (  0.0000000  0.0000000 -1.0000000 )

      isym =  6     inv. 180 deg rotation - cart. axis [0,0,1]

[...]

      isym =  8     inv. 180 deg rotation - cart. axis [1,0,0]

 cryst.   s( 8) = (    -1          0          0      )    f =(  0.5000000 )
                  (     0          1          0      )       (  0.5000000 )
                  (     0          0          1      )       (  0.0000000 )

 cart.    s( 8) = ( -1.0000000  0.0000000  0.0000000 )    f =(  0.5000000 )
                  (  0.0000000  1.0000000  0.0000000 )       (  0.5593389 )
                  (  0.0000000  0.0000000  1.0000000 )       (  0.0000000 )

   Cartesian axes

     site n.     atom                  positions (alat units)
         1           La  tau(   1) = (   0.3291040   0.7476392   0.1062026  )
         2           La  tau(   2) = (   0.1708960   0.1883003   0.6615456  )
         3           La  tau(   3) = (   0.6708960   0.3710386   0.8739508  )
         4           La  tau(   4) = (   0.8291040   0.9303774   1.4292938  )
         5           La  tau(   5) = (   0.6708960   0.3710386   1.4292938  )
         6           La  tau(   6) = (   0.8291040   0.9303774   0.8739508  )
         7           La  tau(   7) = (   0.3291040   0.7476392   0.6615456  )
         8           La  tau(   8) = (   0.1708960   0.1883003   0.1062026  )
         9           La  tau(   9) = (   0.8504900   0.6161006   0.3838741  )
        10           La  tau(  10) = (   0.6495100   0.0567617   0.3838741  )
        11           La  tau(  11) = (   0.1495100   0.5025772   1.1516223  )
        12           La  tau(  12) = (   0.3504900   1.0619160   1.1516223  )
        13           Ru  tau(  13) = (   0.0548790   0.9769726   0.3838741  )
        14           Ru  tau(  14) = (   0.4451210   0.4176337   0.3838741  )
        15           Ru  tau(  15) = (   0.9451210   0.1417051   1.1516223  )
        16           Ru  tau(  16) = (   0.5548790   0.7010440   1.1516223  )

   Crystallographic axes

     site n.     atom                  positions (cryst. coord.)
         1           La  tau(   1) = (  0.3291040  0.6683240  0.0691650  )
         2           La  tau(   2) = (  0.1708960  0.1683240  0.4308350  )
         3           La  tau(   3) = (  0.6708960  0.3316760  0.5691650  )
         4           La  tau(   4) = (  0.8291040  0.8316760  0.9308350  )
         5           La  tau(   5) = (  0.6708960  0.3316760  0.9308350  )
         6           La  tau(   6) = (  0.8291040  0.8316760  0.5691650  )
         7           La  tau(   7) = (  0.3291040  0.6683240  0.4308350  )
         8           La  tau(   8) = (  0.1708960  0.1683240  0.0691650  )
         9           La  tau(   9) = (  0.8504900  0.5507400  0.2500000  )
        10           La  tau(  10) = (  0.6495100  0.0507400  0.2500000  )
        11           La  tau(  11) = (  0.1495100  0.4492600  0.7500000  )
        12           La  tau(  12) = (  0.3504900  0.9492600  0.7500000  )
        13           Ru  tau(  13) = (  0.0548790  0.8733280  0.2500000  )
        14           Ru  tau(  14) = (  0.4451210  0.3733280  0.2500000  )
        15           Ru  tau(  15) = (  0.9451210  0.1266720  0.7500000  )
        16           Ru  tau(  16) = (  0.5548790  0.6266720  0.7500000  )

     number of k points=     1  Methfessel-Paxton smearing, width (Ry)=  0.0010
                       cart. coord. in units 2pi/alat
        k(    1) = (   0.0000000   0.0000000   0.0000000), wk =   2.0000000

                       cryst. coord.
        k(    1) = (   0.0000000   0.0000000   0.0000000), wk =   2.0000000

     Initial potential from superposition of free atoms

     starting charge     195.8954, renormalised to     196.0000
     Starting wfcs are  424 randomized atomic wfcs
     Checking if some PAW data can be deallocated...

     Self-consistent Calculation

     iteration #  1     ecut=    30.00 Ry     beta= 0.70
     Davidson diagonalization with overlap

     ethr =  1.00E-02,  avg # of iterations =  2.0

     total energy              =   -6247.57539935 Ry
     estimated scf accuracy    <       7.57591504 Ry

[...]

     WARNING: integrated charge=   196.00092366, expected=   196.00000000

[...]

     ethr =  4.99E-05,  avg # of iterations =  2.0
     Minimization algorithm failed to find Fermi energy: reverting to bisection
     Possible cause: smearing is larger than the electronic band-gap.

[...]

     ethr =  4.35E-05,  avg # of iterations =  2.0
     Minimization algorithm failed to find Fermi energy: reverting to bisection
     Possible cause: smearing is larger than the electronic band-gap.

[...]

     WARNING: integrated charge=   196.00002273, expected=   196.00000000

[...]

     total energy              =   -6253.10364894 Ry
     estimated scf accuracy    <       0.00000122 Ry

     iteration # 44     ecut=    30.00 Ry     beta= 0.70
     Davidson diagonalization with overlap

     ethr =  5.37E-10,  avg # of iterations =  1.0

     End of self-consistent calculation

          k = 0.0000 0.0000 0.0000 (  4627 PWs)   bands (ev):

   -59.3410 -59.3406 -59.3405 -59.3401 -29.3552 -29.3545 -29.3543 -29.3535
   -29.3520 -29.3514 -29.3501 -29.3496 -29.3104 -29.3099 -29.3073 -29.3068
   -20.0901 -20.0188 -19.9652 -19.9596 -19.9532 -19.9277 -19.9150 -19.9146
   -19.8080 -19.7822 -19.7705 -19.7702  -4.4304  -4.2661  -4.2486  -4.1988
    -4.1725  -4.1725  -4.1677  -4.0398  -4.0294  -4.0191  -4.0156  -3.9905
    -3.9120  -3.8565  -3.7889  -3.7658  -3.7323  -3.6911  -3.6197  -3.5842
    -3.5808  -3.5698  -3.5028  -3.5004  -3.4842  -3.4544  -3.4460  -3.4171
    -3.3808  -3.3688  -3.3460  -3.3429  -3.3277  -3.2515  -3.2490  -3.1854
     8.8225   9.9730  10.1741  10.2086  10.2682  10.3192  10.3213  10.4069
    10.4166  10.4286  10.5459  10.5544  10.6009  10.6851  10.6929  10.7211
    10.7228  10.8297  10.8667  10.9348  11.0323  11.1016  11.1551  11.3053
    11.3503  11.3958  11.4466  11.7704  11.9485  12.3011  12.4056  12.4555
    12.5050  12.5154  12.5285  12.6080  12.6934  12.7931  13.0124  13.0577
    13.2175  13.2276  13.4152  13.4546  13.6871  13.7275  13.7913  13.8929
    13.9234  13.9981  14.0529  14.0742  14.1711  14.2168

     occupation numbers
     1.0000   1.0000   1.0000   1.0000   1.0000   1.0000   1.0000   1.0000
     1.0000   1.0000   1.0000   1.0000   1.0000   1.0000   1.0000   1.0000
     1.0000   1.0000   1.0000   1.0000   1.0000   1.0000   1.0000   1.0000
     1.0000   1.0000   1.0000   1.0000   1.0000   1.0000   1.0000   1.0000
     1.0000   1.0000   1.0000   1.0000   1.0000   1.0000   1.0000   1.0000
     1.0000   1.0000   1.0000   1.0000   1.0000   1.0000   1.0000   1.0000
     1.0000   1.0000   1.0000   1.0000   1.0000   1.0000   1.0000   1.0000
     1.0000   1.0000   1.0000   1.0000   1.0000   1.0000   1.0000   1.0000
     1.0000   1.0000   1.0000   1.0000   1.0000   1.0000   1.0000   1.0000
     1.0000   1.0000   1.0000   1.0000   1.0000   1.0000   1.0000   1.0000
     1.0000   1.0000   1.0000   1.0000   1.0000   1.0000   1.0000   1.0000
     1.0000   1.0000   1.0000   1.0000   1.0000   1.0000   1.0000   1.0000
     1.0354   0.8416   0.1230  -0.0000  -0.0000  -0.0000  -0.0000  -0.0000
    -0.0000  -0.0000  -0.0000  -0.0000  -0.0000  -0.0000  -0.0000  -0.0000
    -0.0000  -0.0000  -0.0000  -0.0000  -0.0000  -0.0000

     the Fermi energy is    12.5215 ev

!    total energy              =   -6253.10364858 Ry
     estimated scf accuracy    <       0.00000055 Ry
     smearing contrib. (-TS)   =      -0.00011393 Ry
     internal energy E=F+TS    =   -6253.10353464 Ry

     The total energy is F=E-TS. E is the sum of the following terms:
     one-electron contribution =    -507.78792173 Ry
     hartree contribution      =     351.38005254 Ry
     xc contribution           =    -184.61452351 Ry
     ewald contribution        =   -1134.99307282 Ry
     one-center paw contrib.   =   -4777.08806912 Ry
      -> PAW hartree energy AE =      35.42262334 Ry
      -> PAW hartree energy PS =     -35.46368668 Ry
      -> PAW xc energy AE      =    -405.39666428 Ry
      -> PAW xc energy PS      =       7.34950279 Ry
      -> total E_H with PAW    =     351.33898920 Ry
      -> total E_XC with PAW   =    -582.66168500 Ry

     convergence has been achieved in  44 iterations

     Forces acting on atoms (cartesian axes, Ry/au):

     atom    1 type  1   force =    -0.02212037    0.01135994   -0.00149719
     atom    2 type  1   force =     0.02212037    0.01135994    0.00149719
     atom    3 type  1   force =     0.02212037   -0.01135994   -0.00149719
     atom    4 type  1   force =    -0.02212037   -0.01135994    0.00149719
     atom    5 type  1   force =     0.02212037   -0.01135994    0.00149719
     atom    6 type  1   force =    -0.02212037   -0.01135994   -0.00149719
     atom    7 type  1   force =    -0.02212037    0.01135994    0.00149719
     atom    8 type  1   force =     0.02212037    0.01135994   -0.00149719
     atom    9 type  1   force =    -0.03230095   -0.04289244    0.00000000
     atom   10 type  1   force =     0.03230095   -0.04289244    0.00000000
     atom   11 type  1   force =     0.03230095    0.04289244   -0.00000000
     atom   12 type  1   force =    -0.03230095    0.04289244    0.00000000
     atom   13 type  2   force =     0.02130122    0.02082780   -0.00000000
     atom   14 type  2   force =    -0.02130122    0.02082780    0.00000000
     atom   15 type  2   force =    -0.02130122   -0.02082780    0.00000000
     atom   16 type  2   force =     0.02130122   -0.02082780    0.00000000
     The non-local contrib.  to forces
     atom    1 type  1   force =     0.07000251   -0.00892857   -0.01095229
     atom    2 type  1   force =    -0.07000251   -0.00892857    0.01095229
     atom    3 type  1   force =    -0.07000251    0.00892857   -0.01095229
     atom    4 type  1   force =     0.07000251    0.00892857    0.01095229
     atom    5 type  1   force =    -0.07000251    0.00892857    0.01095229
     atom    6 type  1   force =     0.07000251    0.00892857   -0.01095229
     atom    7 type  1   force =     0.07000251   -0.00892857    0.01095229
     atom    8 type  1   force =    -0.07000251   -0.00892857   -0.01095229
     atom    9 type  1   force =     0.08875151   -0.00189571    0.00000000
     atom   10 type  1   force =    -0.08875151   -0.00189571    0.00000000
     atom   11 type  1   force =    -0.08875151    0.00189571    0.00000000
     atom   12 type  1   force =     0.08875151    0.00189571    0.00000000
     atom   13 type  2   force =    -0.01659205   -0.12232721   -0.00000000
     atom   14 type  2   force =     0.01659205   -0.12232721    0.00000000
     atom   15 type  2   force =     0.01659205    0.12232721   -0.00000000
     atom   16 type  2   force =    -0.01659205    0.12232721    0.00000000
     The ionic contribution  to forces
     atom    1 type  1   force =     0.69124341    1.82832469   -4.94188481
     atom    2 type  1   force =    -0.69124341    1.82832469    4.94188481
     atom    3 type  1   force =    -0.69124341   -1.82832469   -4.94188481
     atom    4 type  1   force =     0.69124341   -1.82832469    4.94188481
     atom    5 type  1   force =    -0.69124341   -1.82832469    4.94188481
     atom    6 type  1   force =     0.69124341   -1.82832469   -4.94188481
     atom    7 type  1   force =     0.69124341    1.82832469    4.94188481
     atom    8 type  1   force =    -0.69124341    1.82832469   -4.94188481
     atom    9 type  1   force =     0.05314504   -3.82674214   -0.00000000
     atom   10 type  1   force =    -0.05314504   -3.82674214   -0.00000000
     atom   11 type  1   force =    -0.05314504    3.82674214    0.00000000
     atom   12 type  1   force =     0.05314504    3.82674214    0.00000000
     atom   13 type  2   force =    -1.06917597    0.93453209   -0.00000000
     atom   14 type  2   force =     1.06917597    0.93453209   -0.00000000
     atom   15 type  2   force =     1.06917597   -0.93453209    0.00000000
     atom   16 type  2   force =    -1.06917597   -0.93453209    0.00000000
     The local contribution  to forces
     atom    1 type  1   force =    -0.78309737   -1.80754350    4.95086933
     atom    2 type  1   force =     0.78385624   -1.80852588   -4.95137589
     atom    3 type  1   force =     0.78275417    1.80806833    4.95212607
     atom    4 type  1   force =    -0.78357837    1.80817983   -4.95143325
     atom    5 type  1   force =     0.78285186    1.80779350   -4.95159657
     atom    6 type  1   force =    -0.78363778    1.80821249    4.95190282
     atom    7 type  1   force =    -0.78302594   -1.80775897   -4.95138807
     atom    8 type  1   force =     0.78380837   -1.80843614    4.95083509
     atom    9 type  1   force =    -0.17431435    3.78621716   -0.00043178
     atom   10 type  1   force =     0.17369387    3.78546752   -0.00056105
     atom   11 type  1   force =     0.17469858   -3.78568258    0.00047662
     atom   12 type  1   force =    -0.17398274   -3.78582326    0.00057905
     atom   13 type  2   force =     1.10760602   -0.79136574   -0.00078880
     atom   14 type  2   force =    -1.10732098   -0.79180855   -0.00054533
     atom   15 type  2   force =    -1.10741241    0.79089405    0.00084139
     atom   16 type  2   force =     1.10694913    0.79168202    0.00053223
     The core correction contribution to forces
     atom    1 type  1   force =    -0.00008192    0.00001872   -0.00000161
     atom    2 type  1   force =     0.00008201    0.00001853    0.00000147
     atom    3 type  1   force =     0.00008180   -0.00001862   -0.00000149
     atom    4 type  1   force =    -0.00008196   -0.00001872    0.00000157
     atom    5 type  1   force =     0.00008184   -0.00001867    0.00000158
     atom    6 type  1   force =    -0.00008194   -0.00001864   -0.00000152
     atom    7 type  1   force =    -0.00008190    0.00001868    0.00000152
     atom    8 type  1   force =     0.00008204    0.00001862   -0.00000155
     atom    9 type  1   force =     0.00007216   -0.00000024    0.00000003
     atom   10 type  1   force =    -0.00007210   -0.00000038   -0.00000002
     atom   11 type  1   force =    -0.00007203    0.00000043   -0.00000001
     atom   12 type  1   force =     0.00007201    0.00000034    0.00000003
     atom   13 type  2   force =     0.00000000    0.00000000    0.00000000
     atom   14 type  2   force =     0.00000000    0.00000000    0.00000000
     atom   15 type  2   force =     0.00000000    0.00000000    0.00000000
     atom   16 type  2   force =     0.00000000    0.00000000    0.00000000
     The Hubbard contrib.    to forces
     atom    1 type  1   force =     0.00000000    0.00000000    0.00000000
     atom    2 type  1   force =     0.00000000    0.00000000    0.00000000
     atom    3 type  1   force =     0.00000000    0.00000000    0.00000000
     atom    4 type  1   force =     0.00000000    0.00000000    0.00000000
     atom    5 type  1   force =     0.00000000    0.00000000    0.00000000
     atom    6 type  1   force =     0.00000000    0.00000000    0.00000000
     atom    7 type  1   force =     0.00000000    0.00000000    0.00000000
     atom    8 type  1   force =     0.00000000    0.00000000    0.00000000
     atom    9 type  1   force =     0.00000000    0.00000000    0.00000000
     atom   10 type  1   force =     0.00000000    0.00000000    0.00000000
     atom   11 type  1   force =     0.00000000    0.00000000    0.00000000
     atom   12 type  1   force =     0.00000000    0.00000000    0.00000000
     atom   13 type  2   force =     0.00000000    0.00000000    0.00000000
     atom   14 type  2   force =     0.00000000    0.00000000    0.00000000
     atom   15 type  2   force =     0.00000000    0.00000000    0.00000000
     atom   16 type  2   force =     0.00000000    0.00000000    0.00000000
     The SCF correction term to forces
     atom    1 type  1   force =    -0.00016365   -0.00040340    0.00040066
     atom    2 type  1   force =    -0.00045841    0.00032704   -0.00000657
     atom    3 type  1   force =     0.00038830   -0.00000970   -0.00070966
     atom    4 type  1   force =     0.00025488   -0.00015250    0.00013325
     atom    5 type  1   force =     0.00031291    0.00018812    0.00027970
     atom    6 type  1   force =     0.00033195   -0.00009618   -0.00055913
     atom    7 type  1   force =    -0.00023018   -0.00024976    0.00000083
     atom    8 type  1   force =    -0.00038494    0.00033578    0.00047994
     atom    9 type  1   force =     0.00012586   -0.00033965    0.00045201
     atom   10 type  1   force =     0.00054759    0.00022744    0.00053676
     atom   11 type  1   force =    -0.00038167   -0.00002737   -0.00048148
     atom   12 type  1   force =    -0.00034872    0.00012266   -0.00053994
     atom   13 type  2   force =    -0.00060735   -0.00002836    0.00078808
     atom   14 type  2   force =     0.00023871    0.00036819    0.00058054
     atom   15 type  2   force =     0.00032604    0.00053324   -0.00083672
     atom   16 type  2   force =     0.00016050   -0.00043547   -0.00055658

     Total force =     0.141589     Total SCF correction =     0.002756

     Computing stress (Cartesian axis) and pressure

          total   stress  (Ry/bohr**3)                   (kbar)     P=      -15.35
  -0.00011000   0.00000000   0.00000000          -16.18        0.00        0.00
   0.00000000  -0.00015276   0.00000000            0.00      -22.47        0.00
   0.00000000   0.00000000  -0.00005024            0.00        0.00       -7.39

     kinetic stress (kbar)  13514.41      0.00      0.00
                                0.00  13602.26      0.00
                                0.00      0.00  13555.84

     local   stress (kbar)  -5295.96      0.06     -0.01
                                0.06  -9964.25     -0.03
                               -0.01     -0.03  -4791.40

     nonloc. stress (kbar)   7147.53      0.00      0.00
                                0.00   7141.00      0.00
                                0.00      0.00   7152.88

     hartree stress (kbar)   4650.08     -0.02     -0.00
                               -0.02   6381.55      0.02
                               -0.00      0.02   4443.93

     exc-cor stress (kbar)  -2499.59      0.00      0.00
                                0.00  -2495.17      0.00
                                0.00      0.00  -2499.37

     corecor stress (kbar)    -34.02      0.00     -0.00
                                0.00    -34.11     -0.00
                               -0.00     -0.00    -34.01

     ewald   stress (kbar) -17498.63     -0.00      0.00
                               -0.00 -14653.75      0.00
                                0.00      0.00 -17835.26

     hubbard stress (kbar)      0.00      0.00      0.00
                                0.00      0.00      0.00
                                0.00      0.00      0.00

     DFT-D   stress (kbar)      0.00      0.00      0.00
                                0.00      0.00      0.00
                                0.00      0.00      0.00

     XDM     stress (kbar)      0.00      0.00      0.00
                                0.00      0.00      0.00
                                0.00      0.00      0.00

     dft-nl  stress (kbar)      0.00      0.00      0.00
                                0.00      0.00      0.00
                                0.00      0.00      0.00

     TS-vdW  stress (kbar)      0.00      0.00      0.00
                                0.00      0.00      0.00
                                0.00      0.00      0.00

[...]

                                0.00      0.00      0.00

     Writing all to output data dir calculations/myprefix.save/

     General routines

     Parallel routines

     PAW routines

   This run was terminated on:  13: 1:44   6Mar2023

   JOB DONE.