     Program PWSCF v.7.0 starts on  3Mar2023 at 14: 0:42

     R & G space division:  proc/nbgrp/npool/nimage =      32

     Reading input from espresso_518.pwi
Warning: card &CELL ignored
Warning: card / ignored

     Current dimensions of program PWSCF are:
     Max number of different atomic species (ntypx) = 10
     Max number of k-points (npk) =  40000
     Max angular momentum in pseudopotentials (lmaxx) =  4
     file Mg.pbe-n-kjpaw_psl.0.3.0.UPF: wavefunction(s)  3S renormalized

     gamma-point specific algorithms are used
     Message from routine setup:
     using ibrav=0 with symmetry is DISCOURAGED, use correct ibrav instead

     Using Slab Decomposition

     bravais-lattice index     =            0
     lattice parameter (alat)  =       8.8246  a.u.
     unit-cell volume          =     536.6069 (a.u.)^3
     number of atoms/cell      =            6
     number of atomic types    =            3
     number of electrons       =        62.00
     number of Kohn-Sham states=           37
     kinetic-energy cutoff     =      30.0000  Ry
     charge density cutoff     =     240.0000  Ry
     scf convergence threshold =      1.0E-06
     mixing beta               =       0.7000
     number of iterations used =            8  plain     mixing
     Exchange-correlation=  SLA  PW   PBX  PBC
                           (   1   4   3   4   0   0   0)

     celldm(1)=   8.824588  celldm(2)=   0.000000  celldm(3)=   0.000000
     celldm(4)=   0.000000  celldm(5)=   0.000000  celldm(6)=   0.000000

     crystal axes: (cart. coord. in units of alat)
               a(1) = (   1.000000   0.000000   0.000000 )
               a(2) = (   0.426305   0.904579   0.000000 )
               a(3) = (   0.426305   0.270368   0.863230 )

     reciprocal axes: (cart. coord. in units 2 pi/alat)
               b(1) = (  1.000000 -0.471275 -0.346244 )
               b(2) = (  0.000000  1.105486 -0.346244 )
               b(3) = (  0.000000  0.000000  1.158440 )

     PseudoPot. # 1 for Mg read from file:
     /home/pragov/projects/rrg-bengioy-ad/pragov/crystal_structure_design/SSSP/Mg.pbe-n-kjpaw_psl.0.3.0.UPF
     MD5 check sum: 24ecedc7f3e3cbe212e682f4413594e4
     Pseudo is Projector augmented-wave + core cor, Zval =  2.0
     Generated using "atomic" code by A. Dal Corso  v.5.0.99 svn rev. 10869
     Shape of augmentation charge: PSQ
     Using radial grid of 1129 points,  4 beta functions with:
                l(1) =   0
                l(2) =   0
                l(3) =   1
                l(4) =   1
     Q(r) pseudized with 0 coefficients

     PseudoPot. # 2 for Si read from file:
     /home/pragov/projects/rrg-bengioy-ad/pragov/crystal_structure_design/SSSP/Si.pbe-n-rrkjus_psl.1.0.0.UPF
     MD5 check sum: 0b0bb1205258b0d07b9f9672cf965d36
     Pseudo is Ultrasoft + core correction, Zval =  4.0
     Generated using "atomic" code by A. Dal Corso  v.5.1
     Using radial grid of 1141 points,  6 beta functions with:
                l(1) =   0
                l(2) =   0
                l(3) =   1
                l(4) =   1
                l(5) =   2
                l(6) =   2
     Q(r) pseudized with 0 coefficients

     PseudoPot. # 3 for Ni read from file:
     /home/pragov/projects/rrg-bengioy-ad/pragov/crystal_structure_design/SSSP/ni_pbe_v1.4.uspp.F.UPF
     MD5 check sum: 1ee80287db30b12d2bc1f57a5b5d6409
     Pseudo is Ultrasoft + core correction, Zval = 18.0
     Generated by new atomic code, or converted to UPF format
     Using radial grid of  865 points,  6 beta functions with:
                l(1) =   0
                l(2) =   0
                l(3) =   1
                l(4) =   1
                l(5) =   2
                l(6) =   2
     Q(r) pseudized with 10 coefficients,  rinner =    0.980   0.980   0.980
                                                       0.980   0.980

     atomic species   valence    mass     pseudopotential
        Mg             2.00    24.30500     Mg( 1.00)
        Si             4.00    28.08500     Si( 1.00)
        Ni            18.00    58.69340     Ni( 1.00)

      2 Sym. Ops., with inversion, found

                                    s                        frac. trans.

      isym =  1     identity

 cryst.   s( 1) = (     1          0          0      )
                  (     0          1          0      )
                  (     0          0          1      )

 cart.    s( 1) = (  1.0000000  0.0000000  0.0000000 )
                  (  0.0000000  1.0000000  0.0000000 )
                  (  0.0000000  0.0000000  1.0000000 )

      isym =  2     inversion

 cryst.   s( 2) = (    -1          0          0      )
                  (     0         -1          0      )
                  (     0          0         -1      )

 cart.    s( 2) = ( -1.0000000 -0.0000000 -0.0000000 )
                  (  0.0000000 -1.0000000 -0.0000000 )
                  (  0.0000000  0.0000000 -1.0000000 )

   Cartesian axes

     site n.     atom                  positions (alat units)
         1           Mg  tau(   1) = (   0.2321062   0.1472044   0.1081506  )
         2           Mg  tau(   2) = (   1.6205045   1.0277428   0.7550790  )
         3           Si  tau(   3) = (   0.9263054   0.5874736   0.4316148  )
         4           Ni  tau(   4) = (   0.7131526   0.4522897   0.0000000  )
         5           Ni  tau(   5) = (   0.4263054   0.5874736   0.4316148  )
         6           Ni  tau(   6) = (   0.7131527   0.1351839   0.4316148  )

   Crystallographic axes

     site n.     atom                  positions (cryst. coord.)
         1           Mg  tau(   1) = (  0.1252860  0.1252860  0.1252860  )
         2           Mg  tau(   2) = (  0.8747140  0.8747140  0.8747140  )
         3           Si  tau(   3) = (  0.5000000  0.5000000  0.5000000  )
         4           Ni  tau(   4) = (  0.5000000  0.5000000  0.0000000  )
         5           Ni  tau(   5) = (  0.0000000  0.5000000  0.5000000  )
         6           Ni  tau(   6) = (  0.5000000 -0.0000000  0.5000000  )

     number of k points=     1  Methfessel-Paxton smearing, width (Ry)=  0.0010
                       cart. coord. in units 2pi/alat
        k(    1) = (   0.0000000   0.0000000   0.0000000), wk =   2.0000000

                       cryst. coord.
        k(    1) = (   0.0000000   0.0000000   0.0000000), wk =   2.0000000

     Check: negative core charge=   -0.000005

     Initial potential from superposition of free atoms

     starting charge      55.9976, renormalised to      62.0000
     Starting wfcs are   51 randomized atomic wfcs
     Checking if some PAW data can be deallocated...

     Self-consistent Calculation

     iteration #  1     ecut=    30.00 Ry     beta= 0.70
     Davidson diagonalization with overlap

     ethr =  1.00E-02,  avg # of iterations =  6.0

     total energy              =    -987.16731019 Ry
     estimated scf accuracy    <     180.00560889 Ry

[...]

     total energy              =   -1107.59948124 Ry
     estimated scf accuracy    <       0.00000520 Ry

     iteration # 23     ecut=    30.00 Ry     beta= 0.70
     Davidson diagonalization with overlap

     ethr =  8.39E-09,  avg # of iterations =  2.0

     End of self-consistent calculation

          k = 0.0000 0.0000 0.0000 (   739 PWs)   bands (ev):

   -91.6568 -91.6427 -91.6416 -52.2370 -52.1934 -52.1924 -51.9395 -51.9305
   -51.9298 -51.8713 -51.7943 -51.7935   1.5091   6.8604   8.0169   8.5141
     8.5414   8.5418   8.9569   8.9574   9.9248   9.9249  10.0179  10.0185
    10.2671  10.5631  10.6107  10.6113  10.8254  10.8262  11.6747  11.9260
    13.8778  13.9433  13.9434  14.3220  14.3221

     occupation numbers
     1.0000   1.0000   1.0000   1.0000   1.0000   1.0000   1.0000   1.0000
     1.0000   1.0000   1.0000   1.0000   1.0000   1.0000   1.0000   1.0000
     1.0000   1.0000   1.0000   1.0000   1.0000   1.0000   1.0000   1.0000
     1.0000   1.0000   1.0000   1.0000   1.0000   1.0000   1.0000  -0.0000
    -0.0000  -0.0000  -0.0000  -0.0000  -0.0000

     the Fermi energy is    11.7604 ev

!    total energy              =   -1107.59948160 Ry
     estimated scf accuracy    <       0.00000054 Ry
     smearing contrib. (-TS)   =       0.00000000 Ry
     internal energy E=F+TS    =   -1107.59948160 Ry

     The total energy is F=E-TS. E is the sum of the following terms:
     one-electron contribution =    -907.20377545 Ry
     hartree contribution      =     481.99047568 Ry
     xc contribution           =    -116.45564938 Ry
     ewald contribution        =    -503.33733318 Ry
     one-center paw contrib.   =     -62.59319927 Ry
      -> PAW hartree energy AE =       0.87661004 Ry
      -> PAW hartree energy PS =      -0.87459352 Ry
      -> PAW xc energy AE      =     -32.65390224 Ry
      -> PAW xc energy PS      =       1.35528609 Ry
      -> total E_H with PAW    =     481.99249219 Ry
      -> total E_XC with PAW   =    -147.75426553 Ry

     convergence has been achieved in  23 iterations

     Forces acting on atoms (cartesian axes, Ry/au):

     atom    1 type  1   force =     0.00787636    0.00499412    0.00367133
     atom    2 type  1   force =    -0.00787636   -0.00499412   -0.00367133
     atom    3 type  2   force =     0.00000000    0.00000000    0.00000000
     atom    4 type  3   force =     0.00000000    0.00000000    0.00000000
     atom    5 type  3   force =     0.00000000    0.00000000    0.00000000
     atom    6 type  3   force =     0.00000000    0.00000000    0.00000000
     The non-local contrib.  to forces
     atom    1 type  1   force =     0.01450046    0.00919316    0.00675271
     atom    2 type  1   force =    -0.01450046   -0.00919316   -0.00675271
     atom    3 type  2   force =     0.00000000    0.00000000    0.00000000
     atom    4 type  3   force =     0.00000000    0.00000000    0.00000000
     atom    5 type  3   force =     0.00000000    0.00000000    0.00000000
     atom    6 type  3   force =     0.00000000    0.00000000    0.00000000
     The ionic contribution  to forces
     atom    1 type  1   force =    -0.33101660   -0.20993457   -0.15423903
     atom    2 type  1   force =     0.33101660    0.20993457    0.15423903
     atom    3 type  2   force =     0.00000000   -0.00000000    0.00000000
     atom    4 type  3   force =     0.00000000   -0.00000000   -0.00000000
     atom    5 type  3   force =    -0.00000000   -0.00000000    0.00000000
     atom    6 type  3   force =    -0.00000000    0.00000000   -0.00000000
     The local contribution  to forces
     atom    1 type  1   force =     0.32524427    0.20621874    0.15151793
     atom    2 type  1   force =    -0.32522489   -0.20626067   -0.15157234
     atom    3 type  2   force =    -0.00011402    0.00007272    0.00010733
     atom    4 type  3   force =    -0.00025112    0.00027253   -0.00029341
     atom    5 type  3   force =     0.00050378    0.00022078    0.00035892
     atom    6 type  3   force =    -0.00017739   -0.00000386    0.00053025
     The core correction contribution to forces
     atom    1 type  1   force =    -0.00083752   -0.00053165   -0.00039067
     atom    2 type  1   force =     0.00083773    0.00053038    0.00038896
     atom    3 type  2   force =    -0.00000298    0.00000193    0.00000289
     atom    4 type  3   force =     0.00000125   -0.00000136    0.00000191
     atom    5 type  3   force =    -0.00000266    0.00000055   -0.00000074
     atom    6 type  3   force =     0.00000083    0.00000005   -0.00000214
     The Hubbard contrib.    to forces
     atom    1 type  1   force =     0.00000000    0.00000000    0.00000000
     atom    2 type  1   force =     0.00000000    0.00000000    0.00000000
     atom    3 type  2   force =     0.00000000    0.00000000    0.00000000
     atom    4 type  3   force =     0.00000000    0.00000000    0.00000000
     atom    5 type  3   force =     0.00000000    0.00000000    0.00000000
     atom    6 type  3   force =     0.00000000    0.00000000    0.00000000
     The SCF correction term to forces
     atom    1 type  1   force =    -0.00001203    0.00003854    0.00001785
     atom    2 type  1   force =    -0.00000312   -0.00001514    0.00001318
     atom    3 type  2   force =     0.00007280   -0.00004882   -0.00007410
     atom    4 type  3   force =     0.00035955   -0.00041306    0.00043536
     atom    5 type  3   force =    -0.00077472   -0.00026802   -0.00050537
     atom    6 type  3   force =     0.00023791    0.00000799   -0.00080718

     Total force =     0.014174     Total SCF correction =     0.001463
     SCF correction compared to forces is large: reduce conv_thr to get better values

     Computing stress (Cartesian axis) and pressure

          total   stress  (Ry/bohr**3)                   (kbar)     P=     -826.02
  -0.00641186  -0.00109898  -0.00080731         -943.22     -161.67     -118.76
  -0.00109898  -0.00537745  -0.00051156         -161.67     -791.05      -75.25
  -0.00080731  -0.00051156  -0.00505621         -118.76      -75.25     -743.79

     kinetic stress (kbar)  26972.14   -230.41   -169.27
                             -230.41  27189.30   -107.36
                             -169.27   -107.36  27256.55

     local   stress (kbar)  -7711.54  27789.56  20416.78
                            27789.56 -33905.75  12949.30
                            20416.78  12949.30 -42016.41

     nonloc. stress (kbar)  11481.07   -148.76   -109.33
                             -148.76  11621.21    -69.32
                             -109.33    -69.32  11664.66

     hartree stress (kbar)  34497.39 -13155.27  -9664.99
                           -13155.27  46897.95  -6130.35
                            -9664.99  -6130.35  50737.24

     exc-cor stress (kbar)  -6849.93      2.25      1.65
                                2.25  -6852.05      1.05
                                1.65      1.05  -6852.70

     corecor stress (kbar)  -2873.87      0.46      0.33
                                0.46  -2874.30      0.21
                                0.33      0.21  -2874.43

     ewald   stress (kbar) -56458.48 -14419.48 -10593.93
                           -14419.48 -42867.41  -6718.79
                           -10593.93  -6718.79 -38658.69

     hubbard stress (kbar)      0.00      0.00      0.00
                                0.00      0.00      0.00
                                0.00      0.00      0.00

     DFT-D   stress (kbar)      0.00      0.00      0.00
                                0.00      0.00      0.00
                                0.00      0.00      0.00

     XDM     stress (kbar)      0.00      0.00      0.00
                                0.00      0.00      0.00
                                0.00      0.00      0.00

     dft-nl  stress (kbar)      0.00      0.00      0.00
                                0.00      0.00      0.00
                                0.00      0.00      0.00

     TS-vdW  stress (kbar)      0.00      0.00      0.00
                                0.00      0.00      0.00
                                0.00      0.00      0.00

[...]

                                0.00      0.00      0.00

     Writing all to output data dir calculations/myprefix.save/

     General routines

     Parallel routines

     PAW routines

   This run was terminated on:  14: 0:44   3Mar2023

   JOB DONE.