     Program PWSCF v.7.0 starts on  6Mar2023 at 12:54:54

     R & G space division:  proc/nbgrp/npool/nimage =      32

     Reading input from espresso_4685.pwi
Warning: card &CELL ignored
Warning: card / ignored

     Current dimensions of program PWSCF are:
     Max number of different atomic species (ntypx) = 10
     Max number of k-points (npk) =  40000
     Max angular momentum in pseudopotentials (lmaxx) =  4

     gamma-point specific algorithms are used
     Message from routine setup:
     using ibrav=0 with symmetry is DISCOURAGED, use correct ibrav instead

     Using Slab Decomposition

     bravais-lattice index     =            0
     lattice parameter (alat)  =      13.2138  a.u.
     unit-cell volume          =    3271.6298 (a.u.)^3
     number of atoms/cell      =           20
     number of atomic types    =            3
     number of electrons       =       280.00
     number of Kohn-Sham states=          168
     kinetic-energy cutoff     =      30.0000  Ry
     charge density cutoff     =     240.0000  Ry
     scf convergence threshold =      1.0E-06
     mixing beta               =       0.7000
     number of iterations used =            8  plain     mixing
     Exchange-correlation=  SLA  PW   PBX  PBC
                           (   1   4   3   4   0   0   0)

     celldm(1)=  13.213777  celldm(2)=   0.000000  celldm(3)=   0.000000
     celldm(4)=   0.000000  celldm(5)=   0.000000  celldm(6)=   0.000000

     crystal axes: (cart. coord. in units of alat)
               a(1) = (   1.000000   0.000000   0.000000 )
               a(2) = (  -0.018337   0.999832   0.000000 )
               a(3) = (   0.000000   0.000000   1.418261 )

     reciprocal axes: (cart. coord. in units 2 pi/alat)
               b(1) = (  1.000000  0.018340  0.000000 )
               b(2) = (  0.000000  1.000168  0.000000 )
               b(3) = (  0.000000  0.000000  0.705089 )

     PseudoPot. # 1 for Ag read from file:
     /home/pragov/projects/rrg-bengioy-ad/pragov/crystal_structure_design/SSSP/Ag_ONCV_PBE-1.0.oncvpsp.upf
     MD5 check sum: 94f47bd0669c641108e45594df92fabc
     Pseudo is Norm-conserving, Zval = 19.0
     Generated using ONCVPSP code by D. R. Hamann
     Using radial grid of 1398 points,  6 beta functions with:
                l(1) =   0
                l(2) =   0
                l(3) =   1
                l(4) =   1
                l(5) =   2
                l(6) =   2

     PseudoPot. # 2 for S  read from file:
     /home/pragov/projects/rrg-bengioy-ad/pragov/crystal_structure_design/SSSP/s_pbe_v1.4.uspp.F.UPF
     MD5 check sum: 88d86576ff6df21479756cfb9bdac1df
     Pseudo is Ultrasoft + core correction, Zval =  6.0
     Generated by new atomic code, or converted to UPF format
     Using radial grid of  907 points,  6 beta functions with:
                l(1) =   0
                l(2) =   0
                l(3) =   1
                l(4) =   1
                l(5) =   2
                l(6) =   2
     Q(r) pseudized with  8 coefficients,  rinner =    1.300   1.300   1.300
                                                       1.300   1.300

     PseudoPot. # 3 for Br read from file:
     /home/pragov/projects/rrg-bengioy-ad/pragov/crystal_structure_design/SSSP/br_pbe_v1.4.uspp.F.UPF
     MD5 check sum: d3ffb7b29f6225aa16fe06858fb2a80b
     Pseudo is Ultrasoft + core correction, Zval =  7.0
     Generated by new atomic code, or converted to UPF format
     Using radial grid of  879 points,  6 beta functions with:
                l(1) =   0
                l(2) =   0
                l(3) =   1
                l(4) =   1
                l(5) =   2
                l(6) =   2
     Q(r) pseudized with  8 coefficients,  rinner =    1.100   1.100   1.100
                                                       1.100   1.100

     atomic species   valence    mass     pseudopotential
        Ag            19.00   107.86820     Ag( 1.00)
        S              6.00    32.06000     S ( 1.00)
        Br             7.00    79.90400     Br( 1.00)

      4 Sym. Ops., with inversion, found ( 2 have fractional translation)

                                    s                        frac. trans.

      isym =  1     identity

 cryst.   s( 1) = (     1          0          0      )
                  (     0          1          0      )
                  (     0          0          1      )

 cart.    s( 1) = (  1.0000000 -0.0000000  0.0000000 )
                  (  0.0000000  1.0000000  0.0000000 )
                  (  0.0000000  0.0000000  1.0000000 )

      isym =  2     180 deg rotation - cart. axis [0,0,1]

 cryst.   s( 2) = (    -1          0          0      )    f =( -0.0000000 )
                  (     0         -1          0      )       (  0.0000000 )
                  (     0          0          1      )       (  0.5000000 )

 cart.    s( 2) = ( -1.0000000  0.0000000  0.0000000 )    f =( -0.0000000 )
                  (  0.0000000 -1.0000000  0.0000000 )       (  0.0000000 )
                  (  0.0000000  0.0000000  1.0000000 )       (  0.7091307 )

      isym =  3     inversion

 cryst.   s( 3) = (    -1          0          0      )
                  (     0         -1          0      )
                  (     0          0         -1      )

 cart.    s( 3) = ( -1.0000000  0.0000000  0.0000000 )
                  (  0.0000000 -1.0000000  0.0000000 )
                  (  0.0000000  0.0000000 -1.0000000 )

      isym =  4     inv. 180 deg rotation - cart. axis [0,0,1]

 cryst.   s( 4) = (     1          0          0      )    f =(  0.0000000 )
                  (     0          1          0      )       (  0.0000000 )
                  (     0          0         -1      )       (  0.5000000 )

 cart.    s( 4) = (  1.0000000 -0.0000000  0.0000000 )    f =(  0.0000000 )
                  (  0.0000000  1.0000000  0.0000000 )       (  0.0000000 )
                  (  0.0000000  0.0000000 -1.0000000 )       (  0.7091307 )

   Cartesian axes

     site n.     atom                  positions (alat units)
         1           Ag  tau(   1) = (   0.5350093   0.9746601   1.0636961  )
         2           Ag  tau(   2) = (   0.0169771   0.4470398   0.3545654  )
         3           Ag  tau(   3) = (   0.4466533   0.0251718   0.3545654  )
         4           Ag  tau(   4) = (   0.9646855   0.5527920   1.0636961  )
         5           Ag  tau(   5) = (   0.2527271   0.2574047   0.0293112  )
         6           Ag  tau(   6) = (   0.7289355   0.7424271   1.3889502  )
         7           Ag  tau(   7) = (   0.2527271   0.2574047   0.6798195  )
         8           Ag  tau(   8) = (   0.7289355   0.7424271   0.7384419  )
         9           Ag  tau(   9) = (   0.2787890   0.7081049   0.0000000  )
        10           Ag  tau(  10) = (   0.2787890   0.7081049   0.7091307  )
        11           Ag  tau(  11) = (   0.7028736   0.2917269   0.0000000  )
        12           Ag  tau(  12) = (   0.7028736   0.2917269   0.7091307  )
        13           S   tau(  13) = (   0.5000000   0.0000000   0.0000000  )
        14           S   tau(  14) = (  -0.0091687   0.4999159   0.0000000  )
        15           S   tau(  15) = (   0.5000000   0.0000000   0.7091307  )
        16           S   tau(  16) = (  -0.0091687   0.4999159   0.7091307  )
        17           Br  tau(  17) = (   0.9494827   0.9670564   1.0636961  )
        18           Br  tau(  18) = (   0.0321799   0.0327755   0.3545654  )
        19           Br  tau(  19) = (   0.4867682   0.4957776   1.0636961  )
        20           Br  tau(  20) = (   0.4948944   0.5040542   0.3545654  )

   Crystallographic axes

     site n.     atom                  positions (cryst. coord.)
         1           Ag  tau(   1) = (  0.5528850  0.9748240  0.7500000  )
         2           Ag  tau(   2) = (  0.0251760  0.4471150  0.2500000  )
         3           Ag  tau(   3) = (  0.4471150  0.0251760  0.2500000  )
         4           Ag  tau(   4) = (  0.9748240  0.5528850  0.7500000  )
         5           Ag  tau(   5) = (  0.2574480  0.2574480  0.0206670  )
         6           Ag  tau(   6) = (  0.7425520  0.7425520  0.9793330  )
         7           Ag  tau(   7) = (  0.2574480  0.2574480  0.4793330  )
         8           Ag  tau(   8) = (  0.7425520  0.7425520  0.5206670  )
         9           Ag  tau(   9) = (  0.2917760  0.7082240  0.0000000  )
        10           Ag  tau(  10) = (  0.2917760  0.7082240  0.5000000  )
        11           Ag  tau(  11) = (  0.7082240  0.2917760  0.0000000  )
        12           Ag  tau(  12) = (  0.7082240  0.2917760  0.5000000  )
        13           S   tau(  13) = (  0.5000000  0.0000000  0.0000000  )
        14           S   tau(  14) = ( -0.0000000  0.5000000  0.0000000  )
        15           S   tau(  15) = (  0.5000000  0.0000000  0.5000000  )
        16           S   tau(  16) = ( -0.0000000  0.5000000  0.5000000  )
        17           Br  tau(  17) = (  0.9672190  0.9672190  0.7500000  )
        18           Br  tau(  18) = (  0.0327810  0.0327810  0.2500000  )
        19           Br  tau(  19) = (  0.4958610  0.4958610  0.7500000  )
        20           Br  tau(  20) = (  0.5041390  0.5041390  0.2500000  )

     number of k points=     1  Methfessel-Paxton smearing, width (Ry)=  0.0010
                       cart. coord. in units 2pi/alat
        k(    1) = (   0.0000000   0.0000000   0.0000000), wk =   2.0000000

                       cryst. coord.
        k(    1) = (   0.0000000   0.0000000   0.0000000), wk =   2.0000000

     Check: negative core charge=   -0.000001

     Initial potential from superposition of free atoms

     starting charge     279.9963, renormalised to     280.0000
     Starting wfcs are  152 randomized atomic wfcs +   16 random wfcs

     Self-consistent Calculation

     iteration #  1     ecut=    30.00 Ry     beta= 0.70
     Davidson diagonalization with overlap

     ethr =  1.00E-02,  avg # of iterations =  6.0

     Threshold (ethr) on eigenvalues was too large:
     Diagonalizing with lowered threshold

     Davidson diagonalization with overlap

[...]

     total energy              =   -3728.84725324 Ry
     estimated scf accuracy    <       0.80178737 Ry

[...]

     total energy              =   -3729.02515026 Ry
     estimated scf accuracy    <       0.00000213 Ry

     iteration #  9     ecut=    30.00 Ry     beta= 0.70
     Davidson diagonalization with overlap

     ethr =  7.60E-10,  avg # of iterations =  2.0

     End of self-consistent calculation

          k = 0.0000 0.0000 0.0000 (  4547 PWs)   bands (ev):

   -83.9453 -83.9452 -83.9450 -83.9450 -83.8107 -83.8107 -83.8104 -83.8104
   -83.7748 -83.7747 -83.7745 -83.7744 -47.0868 -47.0865 -47.0855 -47.0849
   -46.9653 -46.9638 -46.9603 -46.9588 -46.9573 -46.9512 -46.9509 -46.9508
   -46.9243 -46.9239 -46.9221 -46.9190 -46.9082 -46.9076 -46.9065 -46.9053
   -46.8228 -46.8218 -46.8197 -46.8191 -46.8158 -46.8149 -46.8142 -46.8124
   -46.7843 -46.7821 -46.7817 -46.7815 -46.7794 -46.7786 -46.7770 -46.7761
    -6.0008  -5.9586  -5.6291  -5.5986  -4.8575  -4.7132  -4.4740  -4.2642
     2.0348   2.2522   2.2837   2.3395   2.3972   3.2437   3.5719   3.7847
[...]
     4.2815   4.3345   4.3518   4.4103   4.4203   4.4513   4.5133   4.5141
     4.6903   4.7105   4.7238   4.7414   4.7415   4.7534   4.8083   4.8239
     4.8314   4.8671   4.8965   4.8970   4.9104   4.9496   4.9858   4.9982
     5.0326   5.0742   5.0839   5.1093   5.1263   5.1444   5.2131   5.2445
     5.2551   5.2671   5.2744   5.3006   5.3434   5.3701   5.3890   5.4315
     5.4511   5.4562   5.5007   5.5097   5.5308   5.5395   5.5606   5.7031
     5.7167   5.7613   5.7850   5.8819   5.9544   6.2535   6.4127   6.6171
     6.7695   6.7918   6.8338   6.8483   6.9099   7.0292   7.2782   7.3993
     7.5741   7.6279   7.9825   8.1401   8.4183  10.0297  10.1788  10.6077
    10.6852  11.2766  11.3242  12.4222  12.7374  12.8232  13.0114  13.4130
    13.4535  13.5544  13.5841  13.6936  13.6975  14.2408  14.3361  14.8262
    14.8956  14.9735  15.0152  15.3270  16.0302  16.0444  16.0757  16.2451

     occupation numbers
     1.0000   1.0000   1.0000   1.0000   1.0000   1.0000   1.0000   1.0000
     1.0000   1.0000   1.0000   1.0000   1.0000   1.0000   1.0000   1.0000
     1.0000   1.0000   1.0000   1.0000   1.0000   1.0000   1.0000   1.0000
     1.0000   1.0000   1.0000   1.0000   1.0000   1.0000   1.0000   1.0000
     1.0000   1.0000   1.0000   1.0000   1.0000   1.0000   1.0000   1.0000
     1.0000   1.0000   1.0000   1.0000   1.0000   1.0000   1.0000   1.0000
     1.0000   1.0000   1.0000   1.0000   1.0000   1.0000   1.0000   1.0000
     1.0000   1.0000   1.0000   1.0000   1.0000   1.0000   1.0000   1.0000
     1.0000   1.0000   1.0000   1.0000   1.0000   1.0000   1.0000   1.0000
     1.0000   1.0000   1.0000   1.0000   1.0000   1.0000   1.0000   1.0000
     1.0000   1.0000   1.0000   1.0000   1.0000   1.0000   1.0000   1.0000
     1.0000   1.0000   1.0000   1.0000   1.0000   1.0000   1.0000   1.0000
     1.0000   1.0000   1.0000   1.0000   1.0000   1.0000   1.0000   1.0000
     1.0000   1.0000   1.0000   1.0000   1.0000   1.0000   1.0000   1.0000
     1.0000   1.0000   1.0000   1.0000   1.0000   1.0000   1.0000   1.0000
     1.0000   1.0000   1.0000   1.0000   1.0000   1.0000   1.0000   1.0000
     1.0000   1.0000   1.0000   1.0000   1.0000   1.0000   1.0000   1.0000
     1.0000   1.0000   1.0000   1.0000  -0.0000  -0.0000  -0.0000  -0.0000
    -0.0000  -0.0000  -0.0000  -0.0000  -0.0000  -0.0000  -0.0000  -0.0000
    -0.0000  -0.0000  -0.0000  -0.0000  -0.0000  -0.0000  -0.0000  -0.0000
    -0.0000  -0.0000  -0.0000  -0.0000  -0.0000  -0.0000  -0.0000  -0.0000

     the Fermi energy is     8.3364 ev

!    total energy              =   -3729.02515059 Ry
     estimated scf accuracy    <       0.00000012 Ry
     smearing contrib. (-TS)   =       0.00000000 Ry
     internal energy E=F+TS    =   -3729.02515059 Ry

     The total energy is F=E-TS. E is the sum of the following terms:
     one-electron contribution =   -2346.46741795 Ry
     hartree contribution      =    1243.39830854 Ry
     xc contribution           =    -462.90631324 Ry
     ewald contribution        =   -2163.04972794 Ry

     convergence has been achieved in   9 iterations

     Forces acting on atoms (cartesian axes, Ry/au):

     atom    1 type  1   force =    -0.01615366    0.00490174    0.00000000
     atom    2 type  1   force =    -0.00519708    0.01605933    0.00000000
     atom    3 type  1   force =     0.01615366   -0.00490174    0.00000000
     atom    4 type  1   force =     0.00519708   -0.01605933    0.00000000
     atom    5 type  1   force =    -0.00232330   -0.00236568    0.00101809
     atom    6 type  1   force =     0.00232330    0.00236568   -0.00101809
     atom    7 type  1   force =    -0.00232330   -0.00236568   -0.00101809
     atom    8 type  1   force =     0.00232330    0.00236568    0.00101809
     atom    9 type  1   force =    -0.00447337    0.00439164    0.00000082
     atom   10 type  1   force =    -0.00447337    0.00439164   -0.00000082
     atom   11 type  1   force =     0.00447337   -0.00439164   -0.00000082
     atom   12 type  1   force =     0.00447337   -0.00439164    0.00000082
     atom   13 type  2   force =     0.00000000    0.00000000    0.00000000
     atom   14 type  2   force =     0.00000000    0.00000000    0.00000000
     atom   15 type  2   force =     0.00000000    0.00000000    0.00000000
     atom   16 type  2   force =     0.00000000    0.00000000    0.00000000
     atom   17 type  3   force =     0.00374944    0.00381876    0.00000000
     atom   18 type  3   force =    -0.00374944   -0.00381876    0.00000000
     atom   19 type  3   force =     0.00611242    0.00622567    0.00000000
     atom   20 type  3   force =    -0.00611242   -0.00622567    0.00000000
     The non-local contrib.  to forces
     atom    1 type  1   force =    -0.05138760   -0.01554289    0.00000000
     atom    2 type  1   force =     0.01459736    0.05166336    0.00000000
     atom    3 type  1   force =     0.05138760    0.01554289    0.00000000
     atom    4 type  1   force =    -0.01459736   -0.05166336    0.00000000
     atom    5 type  1   force =     0.04120638    0.04196861   -0.00982089
     atom    6 type  1   force =    -0.04120638   -0.04196861    0.00982089
     atom    7 type  1   force =     0.04120638    0.04196861    0.00982089
     atom    8 type  1   force =    -0.04120638   -0.04196861   -0.00982089
     atom    9 type  1   force =     0.05521933   -0.05421560   -0.00000012
     atom   10 type  1   force =     0.05521933   -0.05421560    0.00000012
     atom   11 type  1   force =    -0.05521933    0.05421560    0.00000012
     atom   12 type  1   force =    -0.05521933    0.05421560   -0.00000012
     atom   13 type  2   force =     0.00000000    0.00000000    0.00000000
     atom   14 type  2   force =     0.00000000    0.00000000    0.00000000
     atom   15 type  2   force =     0.00000000    0.00000000    0.00000000
     atom   16 type  2   force =     0.00000000    0.00000000    0.00000000
     atom   17 type  3   force =     0.01485613    0.01513037    0.00000000
     atom   18 type  3   force =    -0.01485613   -0.01513037    0.00000000
     atom   19 type  3   force =    -0.00405998   -0.00413482    0.00000000
     atom   20 type  3   force =     0.00405998    0.00413482    0.00000000
     The ionic contribution  to forces
     atom    1 type  1   force =    -7.36667572    8.91203154    0.00000000
     atom    2 type  1   force =    -9.04561849    7.20201384    0.00000000
     atom    3 type  1   force =     7.36667572   -8.91203153    0.00000000
     atom    4 type  1   force =     9.04561849   -7.20201384    0.00000000
     atom    5 type  1   force =    -8.43373390   -8.58983072  -13.28050641
     atom    6 type  1   force =     8.43373390    8.58983072   13.28050642
     atom    7 type  1   force =    -8.43373390   -8.58983072   13.28050641
     atom    8 type  1   force =     8.43373390    8.58983072  -13.28050642
     atom    9 type  1   force =    -6.74981802    6.62715842   -0.00000000
     atom   10 type  1   force =    -6.74981802    6.62715842    0.00000000
     atom   11 type  1   force =     6.74981802   -6.62715843    0.00000000
     atom   12 type  1   force =     6.74981802   -6.62715843   -0.00000000
     atom   13 type  2   force =    -0.00000000    0.00000000   -0.00000000
     atom   14 type  2   force =     0.00000000    0.00000000    0.00000000
     atom   15 type  2   force =    -0.00000000    0.00000000    0.00000000
     atom   16 type  2   force =     0.00000000    0.00000000   -0.00000000
     atom   17 type  3   force =     6.81673619    6.94290461    0.00000000
     atom   18 type  3   force =    -6.81673618   -6.94290460    0.00000000
     atom   19 type  3   force =    -3.25385551   -3.31407991    0.00000000
     atom   20 type  3   force =     3.25385551    3.31407991    0.00000000
     The local contribution  to forces
     atom    1 type  1   force =     7.40238133   -8.89223269    0.00026540
     atom    2 type  1   force =     9.02645276   -7.23809173   -0.00026990
     atom    3 type  1   force =    -7.40231866    8.89229499   -0.00026460
     atom    4 type  1   force =    -9.02655276    7.23800839    0.00027656
     atom    5 type  1   force =     8.39035399    8.54563952   13.29200109
     atom    6 type  1   force =    -8.39036614   -8.54567412  -13.29233855
     atom    7 type  1   force =     8.39030636    8.54558032  -13.29203013
     atom    8 type  1   force =    -8.39032182   -8.54561843   13.29236313
     atom    9 type  1   force =     6.69032771   -6.56873294   -0.00016905
     atom   10 type  1   force =     6.69026611   -6.56866192    0.00016809
     atom   11 type  1   force =    -6.69028973    6.56873465   -0.00016490
     atom   12 type  1   force =    -6.69021988    6.56865471    0.00016290
     atom   13 type  2   force =    -0.00002014    0.00001904   -0.00004764
     atom   14 type  2   force =    -0.00001145   -0.00004935   -0.00004524
     atom   15 type  2   force =    -0.00002118    0.00002042    0.00004744
     atom   16 type  2   force =    -0.00001233   -0.00005015    0.00004458
     atom   17 type  3   force =    -6.83676608   -6.96328449    0.00007894
     atom   18 type  3   force =     6.83676434    6.96332417   -0.00007802
     atom   19 type  3   force =     3.26650152    3.32693772    0.00009811
     atom   20 type  3   force =    -3.26647720   -3.32696007   -0.00009720
     The core correction contribution to forces
     atom    1 type  1   force =     0.00000000    0.00000000    0.00000000
     atom    2 type  1   force =     0.00000000    0.00000000    0.00000000
     atom    3 type  1   force =     0.00000000    0.00000000    0.00000000
     atom    4 type  1   force =     0.00000000    0.00000000    0.00000000
     atom    5 type  1   force =     0.00000000    0.00000000    0.00000000
     atom    6 type  1   force =     0.00000000    0.00000000    0.00000000
     atom    7 type  1   force =     0.00000000    0.00000000    0.00000000
     atom    8 type  1   force =     0.00000000    0.00000000    0.00000000
     atom    9 type  1   force =     0.00000000    0.00000000    0.00000000
     atom   10 type  1   force =     0.00000000    0.00000000    0.00000000
     atom   11 type  1   force =     0.00000000    0.00000000    0.00000000
     atom   12 type  1   force =     0.00000000    0.00000000    0.00000000
     atom   13 type  2   force =    -0.00000175    0.00000086    0.00000196
     atom   14 type  2   force =     0.00000065   -0.00000207    0.00000206
     atom   15 type  2   force =    -0.00000185    0.00000092   -0.00000191
     atom   16 type  2   force =     0.00000059   -0.00000205   -0.00000206
     atom   17 type  3   force =     0.00879898    0.00896175    0.00000012
     atom   18 type  3   force =    -0.00880426   -0.00896701   -0.00000007
     atom   19 type  3   force =    -0.00233859   -0.00238184    0.00000041
     atom   20 type  3   force =     0.00234223    0.00238557   -0.00000031
     The Hubbard contrib.    to forces
     atom    1 type  1   force =     0.00000000    0.00000000    0.00000000
     atom    2 type  1   force =     0.00000000    0.00000000    0.00000000
     atom    3 type  1   force =     0.00000000    0.00000000    0.00000000
     atom    4 type  1   force =     0.00000000    0.00000000    0.00000000
     atom    5 type  1   force =     0.00000000    0.00000000    0.00000000
     atom    6 type  1   force =     0.00000000    0.00000000    0.00000000
     atom    7 type  1   force =     0.00000000    0.00000000    0.00000000
     atom    8 type  1   force =     0.00000000    0.00000000    0.00000000
     atom    9 type  1   force =     0.00000000    0.00000000    0.00000000
     atom   10 type  1   force =     0.00000000    0.00000000    0.00000000
     atom   11 type  1   force =     0.00000000    0.00000000    0.00000000
     atom   12 type  1   force =     0.00000000    0.00000000    0.00000000
     atom   13 type  2   force =     0.00000000    0.00000000    0.00000000
     atom   14 type  2   force =     0.00000000    0.00000000    0.00000000
     atom   15 type  2   force =     0.00000000    0.00000000    0.00000000
     atom   16 type  2   force =     0.00000000    0.00000000    0.00000000
     atom   17 type  3   force =     0.00000000    0.00000000    0.00000000
     atom   18 type  3   force =     0.00000000    0.00000000    0.00000000
     atom   19 type  3   force =     0.00000000    0.00000000    0.00000000
     atom   20 type  3   force =     0.00000000    0.00000000    0.00000000
     The SCF correction term to forces
     atom    1 type  1   force =    -0.00048641    0.00064783   -0.00030751
     atom    2 type  1   force =    -0.00061502    0.00046941    0.00031223
     atom    3 type  1   force =     0.00039425   -0.00070605    0.00030605
     atom    4 type  1   force =     0.00074240   -0.00039496   -0.00032132
     atom    5 type  1   force =    -0.00015306   -0.00014464   -0.00058774
     atom    6 type  1   force =     0.00015955    0.00017974    0.00105253
     atom    7 type  1   force =    -0.00010382   -0.00008302    0.00062509
     atom    8 type  1   force =     0.00011499    0.00011926   -0.00108597
     atom    9 type  1   force =    -0.00020365    0.00018211    0.00023480
     atom   10 type  1   force =    -0.00014181    0.00010926   -0.00023514
     atom   11 type  1   force =     0.00016298   -0.00018461    0.00022862
     atom   12 type  1   force =     0.00009373   -0.00010350   -0.00022822
     atom   13 type  2   force =    -0.00000811   -0.00000974    0.00008030
     atom   14 type  2   force =     0.00001928    0.00001727    0.00008032
     atom   15 type  2   force =    -0.00000750   -0.00001069   -0.00007963
     atom   16 type  2   force =     0.00001935    0.00001829   -0.00007926
     atom   17 type  3   force =     0.00013768    0.00011924   -0.00008223
     atom   18 type  3   force =    -0.00010375   -0.00012823    0.00008074
     atom   19 type  3   force =    -0.00014383   -0.00012331   -0.00010201
     atom   20 type  3   force =     0.00009824    0.00012629    0.00010054

     Total force =     0.039428     Total SCF correction =     0.002600

     Computing stress (Cartesian axis) and pressure

          total   stress  (Ry/bohr**3)                   (kbar)     P=     -759.56
  -0.00516019   0.00001016   0.00000000         -759.09        1.49        0.00
   0.00001016  -0.00515982   0.00000000            1.49     -759.04        0.00
   0.00000000   0.00000000  -0.00517005            0.00        0.00     -760.54

     kinetic stress (kbar)  36347.75      4.55      0.00
                                4.55  36347.92      0.00
                                0.00      0.00  36333.76

     local   stress (kbar) -15968.85   2410.52      0.00
                             2410.52 -15880.43      0.01
                                0.00      0.01 -15726.00

     nonloc. stress (kbar)  -2074.06      0.01      0.00
                                0.01  -2074.06      0.00
                                0.00      0.00  -2073.29

     hartree stress (kbar)  18643.48  -1060.62     -0.00
                            -1060.62  18604.57     -0.00
                               -0.00     -0.00  18659.93

     exc-cor stress (kbar)   -991.47     -0.35      0.00
                               -0.35   -991.48      0.00
                                0.00      0.00   -993.14

     corecor stress (kbar)  -4395.27     -0.07     -0.00
                               -0.07  -4395.28     -0.00
                               -0.00     -0.00  -4393.70

     ewald   stress (kbar) -32320.67  -1352.55     -0.00
                            -1352.55 -32370.28     -0.00
                               -0.00     -0.00 -32568.09

     hubbard stress (kbar)      0.00      0.00      0.00
                                0.00      0.00      0.00
                                0.00      0.00      0.00

     DFT-D   stress (kbar)      0.00      0.00      0.00
                                0.00      0.00      0.00
                                0.00      0.00      0.00

     XDM     stress (kbar)      0.00      0.00      0.00
                                0.00      0.00      0.00
                                0.00      0.00      0.00

     dft-nl  stress (kbar)      0.00      0.00      0.00
                                0.00      0.00      0.00
                                0.00      0.00      0.00

     TS-vdW  stress (kbar)      0.00      0.00      0.00
                                0.00      0.00      0.00
                                0.00      0.00      0.00

[...]

                                0.00      0.00      0.00

     Writing all to output data dir calculations/myprefix.save/

     General routines

     Parallel routines

   This run was terminated on:  12:54:59   6Mar2023

   JOB DONE.