     Program PWSCF v.7.0 starts on  4Mar2023 at 20:28:37

     R & G space division:  proc/nbgrp/npool/nimage =      32

     Reading input from espresso_7569.pwi
Warning: card &CELL ignored
Warning: card / ignored

     Current dimensions of program PWSCF are:
     Max number of different atomic species (ntypx) = 10
     Max number of k-points (npk) =  40000
     Max angular momentum in pseudopotentials (lmaxx) =  4
     file Ba.pbe-spn-kjpaw_psl.1.0.0.UPF: wavefunction(s)  5S 6S renormalized

     gamma-point specific algorithms are used
     Message from routine setup:
     using ibrav=0 with symmetry is DISCOURAGED, use correct ibrav instead

     Using Slab Decomposition

     bravais-lattice index     =            0
     lattice parameter (alat)  =      12.7987  a.u.
     unit-cell volume          =    3190.1898 (a.u.)^3
     number of atoms/cell      =           16
     number of atomic types    =            2
     number of electrons       =       200.00
     number of Kohn-Sham states=          120
     kinetic-energy cutoff     =      30.0000  Ry
     charge density cutoff     =     240.0000  Ry
     scf convergence threshold =      1.0E-06
     mixing beta               =       0.7000
     number of iterations used =            8  plain     mixing
     Exchange-correlation=  SLA  PW   PBX  PBC
                           (   1   4   3   4   0   0   0)

     celldm(1)=  12.798729  celldm(2)=   0.000000  celldm(3)=   0.000000
     celldm(4)=   0.000000  celldm(5)=   0.000000  celldm(6)=   0.000000

     crystal axes: (cart. coord. in units of alat)
               a(1) = (   1.000000   0.000000   0.000000 )
               a(2) = (  -0.179429   0.983771   0.000000 )
               a(3) = (   0.000000   0.000000   1.546757 )

     reciprocal axes: (cart. coord. in units 2 pi/alat)
               b(1) = (  1.000000  0.182388  0.000000 )
               b(2) = (  0.000000  1.016497  0.000000 )
               b(3) = (  0.000000  0.000000  0.646514 )

     PseudoPot. # 1 for Ba read from file:
     /home/pragov/projects/rrg-bengioy-ad/pragov/crystal_structure_design/SSSP/Ba.pbe-spn-kjpaw_psl.1.0.0.UPF
     MD5 check sum: c432291d3e53af55f19d5e8866385beb
     Pseudo is Projector augmented-wave + core cor, Zval = 10.0
     Generated using "atomic" code by A. Dal Corso  v.5.1
     Shape of augmentation charge: PSQ
     Using radial grid of 1251 points,  7 beta functions with:
                l(1) =   0
                l(2) =   0
                l(3) =   0
                l(4) =   1
                l(5) =   1
                l(6) =   2
                l(7) =   2
     Q(r) pseudized with 0 coefficients

     PseudoPot. # 2 for Ge read from file:
     /home/pragov/projects/rrg-bengioy-ad/pragov/crystal_structure_design/SSSP/ge_pbe_v1.4.uspp.F.UPF
     MD5 check sum: 9c9eaa91e581c3f09632fb3098b2c6b2
     Pseudo is Ultrasoft + core correction, Zval = 14.0
     Generated by new atomic code, or converted to UPF format
     Using radial grid of  873 points,  6 beta functions with:
                l(1) =   0
                l(2) =   0
                l(3) =   1
                l(4) =   1
                l(5) =   2
                l(6) =   2
     Q(r) pseudized with  8 coefficients,  rinner =    1.400   1.400   1.400
                                                       1.400   1.400

     atomic species   valence    mass     pseudopotential
        Ba            10.00   137.32700     Ba( 1.00)
        Ge            14.00    72.63000     Ge( 1.00)

      4 Sym. Ops., with inversion, found ( 2 have fractional translation)

                                    s                        frac. trans.

      isym =  1     identity

 cryst.   s( 1) = (     1          0          0      )
                  (     0          1          0      )
                  (     0          0          1      )

 cart.    s( 1) = (  1.0000000  0.0000000  0.0000000 )
                  (  0.0000000  1.0000000  0.0000000 )
                  (  0.0000000  0.0000000  1.0000000 )

      isym =  2     180 deg rotation - cart. axis [0,0,1]

 cryst.   s( 2) = (    -1          0          0      )    f =(  0.0000000 )
                  (     0         -1          0      )       ( -0.0000000 )
                  (     0          0          1      )       ( -0.5000000 )

 cart.    s( 2) = ( -1.0000000 -0.0000000  0.0000000 )    f =(  0.0000000 )
                  (  0.0000000 -1.0000000  0.0000000 )       ( -0.0000000 )
                  (  0.0000000  0.0000000  1.0000000 )       ( -0.7733784 )

      isym =  3     inversion

 cryst.   s( 3) = (    -1          0          0      )
                  (     0         -1          0      )
                  (     0          0         -1      )

 cart.    s( 3) = ( -1.0000000 -0.0000000  0.0000000 )
                  (  0.0000000 -1.0000000  0.0000000 )
                  (  0.0000000  0.0000000 -1.0000000 )

      isym =  4     inv. 180 deg rotation - cart. axis [0,0,1]

 cryst.   s( 4) = (     1          0          0      )    f =(  0.0000000 )
                  (     0          1          0      )       (  0.0000000 )
                  (     0          0         -1      )       (  0.5000000 )

 cart.    s( 4) = (  1.0000000  0.0000000  0.0000000 )    f =(  0.0000000 )
                  (  0.0000000  1.0000000  0.0000000 )       (  0.0000000 )
                  (  0.0000000  0.0000000 -1.0000000 )       (  0.7733784 )

   Cartesian axes

     site n.     atom                  positions (alat units)
         1           Ba  tau(   1) = (   0.5353293   0.6417984   0.3866892  )
         2           Ba  tau(   2) = (   0.2852421   0.3419726   1.1600676  )
         3           Ba  tau(   3) = (   0.0683765   0.7770748   0.7733784  )
         4           Ba  tau(   4) = (   0.0683765   0.7770748   0.0000000  )
         5           Ba  tau(   5) = (   0.7521950   0.2066962   0.7733784  )
         6           Ba  tau(   6) = (   0.7521950   0.2066962   0.0000000  )
         7           Ge  tau(   7) = (   0.4442472   0.1027411   0.3866892  )
         8           Ge  tau(   8) = (   0.7992084   0.5282988   1.1600676  )
         9           Ge  tau(   9) = (   0.3763243   0.8810299   1.1600676  )
        10           Ge  tau(  10) = (   0.0213631   0.4554722   0.3866892  )
        11           Ge  tau(  11) = (   0.0555314   0.0665757   0.3866892  )
        12           Ge  tau(  12) = (   0.7650401   0.9171953   1.1600676  )
        13           Ge  tau(  13) = (   0.2444737   0.2930959   0.6634643  )
        14           Ge  tau(  14) = (   0.5760978   0.6906751   0.8832924  )
        15           Ge  tau(  15) = (   0.2444737   0.2930959   0.1099141  )
        16           Ge  tau(  16) = (   0.5760978   0.6906751   1.4368427  )

   Crystallographic axes

     site n.     atom                  positions (cryst. coord.)
         1           Ba  tau(   1) = (  0.6523860  0.6523860  0.2500000  )
         2           Ba  tau(   2) = (  0.3476140  0.3476140  0.7500000  )
         3           Ba  tau(   3) = (  0.2101060  0.7898940  0.5000000  )
         4           Ba  tau(   4) = (  0.2101060  0.7898940  0.0000000  )
         5           Ba  tau(   5) = (  0.7898940  0.2101060  0.5000000  )
         6           Ba  tau(   6) = (  0.7898940  0.2101060  0.0000000  )
         7           Ge  tau(   7) = (  0.4629860  0.1044360  0.2500000  )
         8           Ge  tau(   8) = (  0.8955640  0.5370140  0.7500000  )
         9           Ge  tau(   9) = (  0.5370140  0.8955640  0.7500000  )
        10           Ge  tau(  10) = (  0.1044360  0.4629860  0.2500000  )
        11           Ge  tau(  11) = (  0.0676740  0.0676740  0.2500000  )
        12           Ge  tau(  12) = (  0.9323260  0.9323260  0.7500000  )
        13           Ge  tau(  13) = (  0.2979310  0.2979310  0.4289390  )
        14           Ge  tau(  14) = (  0.7020690  0.7020690  0.5710610  )
        15           Ge  tau(  15) = (  0.2979310  0.2979310  0.0710610  )
        16           Ge  tau(  16) = (  0.7020690  0.7020690  0.9289390  )

     number of k points=     1  Methfessel-Paxton smearing, width (Ry)=  0.0010
                       cart. coord. in units 2pi/alat
        k(    1) = (   0.0000000   0.0000000   0.0000000), wk =   2.0000000

                       cryst. coord.
        k(    1) = (   0.0000000   0.0000000   0.0000000), wk =   2.0000000

     Initial potential from superposition of free atoms

     starting charge     199.8892, renormalised to     200.0000
     Starting wfcs are  120 randomized atomic wfcs
     Checking if some PAW data can be deallocated...

     Self-consistent Calculation

     iteration #  1     ecut=    30.00 Ry     beta= 0.70
     Davidson diagonalization with overlap

     ethr =  1.00E-02,  avg # of iterations = 10.0

     Threshold (ethr) on eigenvalues was too large:
     Diagonalizing with lowered threshold

     Davidson diagonalization with overlap

[...]

     negative rho (up, down):  5.692E-01 0.000E+00

     total energy              =   -4754.00337136 Ry
     estimated scf accuracy    <       1.26356504 Ry

[...]

     negative rho (up, down):  1.128E-04 0.000E+00

[...]

     total energy              =   -4754.08561159 Ry
     estimated scf accuracy    <       0.00000215 Ry

     iteration # 26     ecut=    30.00 Ry     beta= 0.70
     Davidson diagonalization with overlap

     ethr =  1.08E-09,  avg # of iterations =  3.0

     End of self-consistent calculation

          k = 0.0000 0.0000 0.0000 (  4429 PWs)   bands (ev):

   -19.1060 -19.0951 -19.0180 -19.0102 -18.9924 -18.9910 -15.5289 -15.5267
   -15.5090 -15.5081 -15.4972 -15.4962 -15.4866 -15.4852 -15.4678 -15.4670
   -15.4302 -15.4291 -15.4152 -15.4128 -15.4064 -15.4038 -15.3943 -15.3922
   -15.3790 -15.3786 -15.3710 -15.3706 -15.3590 -15.3582 -15.3573 -15.3561
   -15.3461 -15.3445 -15.3237 -15.3209 -15.2773 -15.2764 -15.2734 -15.2726
   -15.2721 -15.2700 -15.2633 -15.2625 -15.2583 -15.2564 -15.2543 -15.2528
   -15.2337 -15.2315 -15.2279 -15.2273 -15.2240 -15.2217 -15.1983 -15.1969
    -4.6305  -4.5812  -4.5512  -4.5367  -4.5349  -4.5076  -4.4411  -4.3847
    -4.3170  -4.3058  -4.2508  -4.2410  -4.2340  -4.2319  -4.1872  -4.1675
    -4.1352  -4.1348  -2.1829  -1.7741   0.7013   0.9423   0.9993   1.1355
     2.0700   2.0925   2.9426   3.1018   5.2792   5.8032   6.3789   6.3861
     6.6136   6.6894   6.6930   6.9746   7.1548   7.1962   7.9245   8.1311
     8.1333   8.3457   8.5828   9.1956   9.2480  10.0909  10.0983  10.2515
    10.5614  10.5880  10.6012  10.8497  11.1673  11.4367  11.5100  11.5310
    11.8353  11.8640  11.9102  12.1081  12.1120  12.2287  12.4840  12.5830

     occupation numbers
     1.0000   1.0000   1.0000   1.0000   1.0000   1.0000   1.0000   1.0000
     1.0000   1.0000   1.0000   1.0000   1.0000   1.0000   1.0000   1.0000
     1.0000   1.0000   1.0000   1.0000   1.0000   1.0000   1.0000   1.0000
     1.0000   1.0000   1.0000   1.0000   1.0000   1.0000   1.0000   1.0000
     1.0000   1.0000   1.0000   1.0000   1.0000   1.0000   1.0000   1.0000
     1.0000   1.0000   1.0000   1.0000   1.0000   1.0000   1.0000   1.0000
     1.0000   1.0000   1.0000   1.0000   1.0000   1.0000   1.0000   1.0000
     1.0000   1.0000   1.0000   1.0000   1.0000   1.0000   1.0000   1.0000
     1.0000   1.0000   1.0000   1.0000   1.0000   1.0000   1.0000   1.0000
     1.0000   1.0000   1.0000   1.0000   1.0000   1.0000   1.0000   1.0000
     1.0000   1.0000   1.0000   1.0000   1.0000   1.0000   1.0000   1.0000
     1.0000   1.0000   1.0000   1.0000   1.0000   1.0000   1.0000   1.0000
     1.0000   1.0000   1.0000   1.0102  -0.0102  -0.0000  -0.0000  -0.0000
    -0.0000  -0.0000  -0.0000  -0.0000  -0.0000  -0.0000  -0.0000  -0.0000
    -0.0000  -0.0000  -0.0000  -0.0000  -0.0000  -0.0000  -0.0000  -0.0000

     the Fermi energy is     9.2218 ev

!    total energy              =   -4754.08561148 Ry
     estimated scf accuracy    <       0.00000052 Ry
     smearing contrib. (-TS)   =       0.00008929 Ry
     internal energy E=F+TS    =   -4754.08570077 Ry

     The total energy is F=E-TS. E is the sum of the following terms:
     one-electron contribution =   -1621.35159216 Ry
     hartree contribution      =     971.68912835 Ry
     xc contribution           =    -704.38289135 Ry
     ewald contribution        =   -1150.29767407 Ry
     one-center paw contrib.   =   -2249.74267153 Ry
      -> PAW hartree energy AE =      28.84586705 Ry
      -> PAW hartree energy PS =     -28.73387536 Ry
      -> PAW xc energy AE      =    -394.25022851 Ry
      -> PAW xc energy PS      =      19.17995689 Ry
      -> total E_H with PAW    =     971.80112003 Ry
      -> total E_XC with PAW   =   -1079.45316298 Ry

     convergence has been achieved in  26 iterations

     Forces acting on atoms (cartesian axes, Ry/au):

     atom    1 type  1   force =    -0.00967539   -0.01160580   -0.00000000
     atom    2 type  1   force =     0.00967539    0.01160580   -0.00000000
     atom    3 type  1   force =     0.00366464   -0.00305743   -0.00001611
     atom    4 type  1   force =     0.00366464   -0.00305743    0.00001611
     atom    5 type  1   force =    -0.00366464    0.00305743    0.00001611
     atom    6 type  1   force =    -0.00366464    0.00305743   -0.00001611
     atom    7 type  2   force =    -0.01658941   -0.01590828    0.00000000
     atom    8 type  2   force =     0.01266039    0.01918018    0.00000000
     atom    9 type  2   force =     0.01658941    0.01590828   -0.00000000
     atom   10 type  2   force =    -0.01266039   -0.01918018    0.00000000
     atom   11 type  2   force =    -0.01311736   -0.01573480    0.00000000
     atom   12 type  2   force =     0.01311736    0.01573480    0.00000000
     atom   13 type  2   force =     0.02085434    0.02497506   -0.03534487
     atom   14 type  2   force =    -0.02085434   -0.02497506    0.03534487
     atom   15 type  2   force =     0.02085434    0.02497506    0.03534487
     atom   16 type  2   force =    -0.02085434   -0.02497506   -0.03534487
     The non-local contrib.  to forces
     atom    1 type  1   force =     0.01693560    0.02023287    0.00000000
     atom    2 type  1   force =    -0.01693560   -0.02023287    0.00000000
     atom    3 type  1   force =     0.01792996   -0.01496585   -0.00008512
     atom    4 type  1   force =     0.01792996   -0.01496585    0.00008512
     atom    5 type  1   force =    -0.01792996    0.01496585    0.00008512
     atom    6 type  1   force =    -0.01792996    0.01496585   -0.00008512
     atom    7 type  2   force =    -0.23347111    0.41395449    0.00000000
     atom    8 type  2   force =    -0.44913837    0.15540748    0.00000000
     atom    9 type  2   force =     0.23347111   -0.41395449    0.00000000
     atom   10 type  2   force =     0.44913837   -0.15540748    0.00000000
     atom   11 type  2   force =     0.22916250    0.27473155    0.00000000
     atom   12 type  2   force =    -0.22916250   -0.27473155    0.00000000
     atom   13 type  2   force =    -0.10246355   -0.12286167   -0.23938361
     atom   14 type  2   force =     0.10246355    0.12286167    0.23938361
     atom   15 type  2   force =    -0.10246355   -0.12286167    0.23938361
     atom   16 type  2   force =     0.10246355    0.12286167   -0.23938361
     The ionic contribution  to forces
     atom    1 type  1   force =     2.07827246    2.49161011    0.00000000
     atom    2 type  1   force =    -2.07827246   -2.49161011   -0.00000000
     atom    3 type  1   force =     0.97183812   -0.81061816    0.00000000
     atom    4 type  1   force =     0.97183812   -0.81061816   -0.00000000
     atom    5 type  1   force =    -0.97183812    0.81061816   -0.00000000
     atom    6 type  1   force =    -0.97183812    0.81061816    0.00000000
     atom    7 type  2   force =    18.76656978   -9.32858780    0.00000000
     atom    8 type  2   force =    12.54445208  -16.78819269   -0.00000000
     atom    9 type  2   force =   -18.76656978    9.32858780   -0.00000000
     atom   10 type  2   force =   -12.54445208   16.78819269    0.00000000
     atom   11 type  2   force =   -15.11684633  -18.12336348    0.00000000
     atom   12 type  2   force =    15.11684633   18.12336348   -0.00000000
     atom   13 type  2   force =     3.79221863    4.54643483   19.12420982
     atom   14 type  2   force =    -3.79221863   -4.54643483  -19.12420982
     atom   15 type  2   force =     3.79221863    4.54643483  -19.12420982
     atom   16 type  2   force =    -3.79221863   -4.54643483   19.12420982
     The local contribution  to forces
     atom    1 type  1   force =    -2.10334677   -2.52160981    0.00042329
     atom    2 type  1   force =     2.10294433    2.52116814   -0.00002133
     atom    3 type  1   force =    -0.98515564    0.82174937   -0.00043302
     atom    4 type  1   force =    -0.98475012    0.82122194   -0.00002289
     atom    5 type  1   force =     0.98550572   -0.82177459   -0.00060256
     atom    6 type  1   force =     0.98517911   -0.82206561    0.00010710
     atom    7 type  2   force =   -18.54895136    8.90570290   -0.00009084
     atom    8 type  2   force =   -12.08930576   16.64992921    0.00008987
     atom    9 type  2   force =    18.54887616   -8.90567808    0.00014206
     atom   10 type  2   force =    12.08938342  -16.64995964   -0.00008683
     atom   11 type  2   force =    14.87459699   17.83292942   -0.00006315
     atom   12 type  2   force =   -14.87446157  -17.83280425    0.00008579
     atom   13 type  2   force =    -3.66959939   -4.39945057  -18.92085382
     atom   14 type  2   force =     3.66968205    4.39938925   18.92016184
     atom   15 type  2   force =    -3.66963605   -4.39936763   18.92078358
     atom   16 type  2   force =     3.66955171    4.39945291  -18.92010286
     The core correction contribution to forces
     atom    1 type  1   force =    -0.00172563   -0.00206769    0.00000723
     atom    2 type  1   force =     0.00171853    0.00206108   -0.00000269
     atom    3 type  1   force =    -0.00098544    0.00082122   -0.00000472
     atom    4 type  1   force =    -0.00097938    0.00081574   -0.00000216
     atom    5 type  1   force =     0.00099290   -0.00082548   -0.00000638
     atom    6 type  1   force =     0.00098582   -0.00082574    0.00000173
     atom    7 type  2   force =    -0.00083583   -0.00696665   -0.00000025
     atom    8 type  2   force =     0.00670441    0.00207241    0.00000024
     atom    9 type  2   force =     0.00083556    0.00696724    0.00000007
     atom   10 type  2   force =    -0.00670363   -0.00207212    0.00000026
     atom   11 type  2   force =     0.00008480    0.00010151    0.00000014
     atom   12 type  2   force =    -0.00008408   -0.00010101   -0.00000004
     atom   13 type  2   force =     0.00062337    0.00074810    0.00017655
     atom   14 type  2   force =    -0.00062339   -0.00074726   -0.00017642
     atom   15 type  2   force =     0.00062379    0.00074743   -0.00017635
     atom   16 type  2   force =    -0.00062314   -0.00074739    0.00017604
     The Hubbard contrib.    to forces
     atom    1 type  1   force =     0.00000000    0.00000000    0.00000000
     atom    2 type  1   force =     0.00000000    0.00000000    0.00000000
     atom    3 type  1   force =     0.00000000    0.00000000    0.00000000
     atom    4 type  1   force =     0.00000000    0.00000000    0.00000000
     atom    5 type  1   force =     0.00000000    0.00000000    0.00000000
     atom    6 type  1   force =     0.00000000    0.00000000    0.00000000
     atom    7 type  2   force =     0.00000000    0.00000000    0.00000000
     atom    8 type  2   force =     0.00000000    0.00000000    0.00000000
     atom    9 type  2   force =     0.00000000    0.00000000    0.00000000
     atom   10 type  2   force =     0.00000000    0.00000000    0.00000000
     atom   11 type  2   force =     0.00000000    0.00000000    0.00000000
     atom   12 type  2   force =     0.00000000    0.00000000    0.00000000
     atom   13 type  2   force =     0.00000000    0.00000000    0.00000000
     atom   14 type  2   force =     0.00000000    0.00000000    0.00000000
     atom   15 type  2   force =     0.00000000    0.00000000    0.00000000
     atom   16 type  2   force =     0.00000000    0.00000000    0.00000000
     The SCF correction term to forces
     atom    1 type  1   force =     0.00002891    0.00004624    0.00000315
     atom    2 type  1   force =     0.00006053    0.00003708   -0.00006081
     atom    3 type  1   force =     0.00007130   -0.00003488    0.00029254
     atom    4 type  1   force =    -0.00006961    0.00009227   -0.00022504
     atom    5 type  1   force =    -0.00006329   -0.00002001    0.00031253
     atom    6 type  1   force =    -0.00005540    0.00007079   -0.00023412
     atom    7 type  2   force =     0.00010216   -0.00000443    0.00010101
     atom    8 type  2   force =    -0.00005182   -0.00003591   -0.00009878
     atom    9 type  2   force =    -0.00002057   -0.00000740   -0.00016271
     atom   10 type  2   force =    -0.00002633    0.00006669    0.00010045
     atom   11 type  2   force =    -0.00012060   -0.00013730    0.00006683
     atom   12 type  2   force =    -0.00002609    0.00000461   -0.00009212
     atom   13 type  2   force =     0.00007903    0.00011382    0.00056147
     atom   14 type  2   force =    -0.00016064   -0.00004109    0.00023084
     atom   15 type  2   force =     0.00011568    0.00001689   -0.00048360
     atom   16 type  2   force =    -0.00001719   -0.00010597   -0.00030183

     Total force =     0.112834     Total SCF correction =     0.001105

     Computing stress (Cartesian axis) and pressure

          total   stress  (Ry/bohr**3)                   (kbar)     P=      -67.44
  -0.00059338  -0.00000040   0.00000000          -87.29       -0.06        0.00
  -0.00000040  -0.00059353   0.00000000           -0.06      -87.31        0.00
   0.00000000   0.00000000  -0.00018852            0.00        0.00      -27.73

     kinetic stress (kbar)   8037.36     42.89      0.00
                               42.89   8053.00      0.00
                                0.00      0.00   8101.96

     local   stress (kbar)  -2201.09   3068.18      0.01
                             3068.18  -1081.88      0.00
                                0.01      0.00  -5507.97

     nonloc. stress (kbar)   3282.73    -10.79      0.00
                              -10.79   3278.79      0.00
                                0.00      0.00   3313.58

     hartree stress (kbar)  14635.97  -1347.51     -0.01
                            -1347.51  14144.43     -0.00
                               -0.01     -0.00  16025.83

     exc-cor stress (kbar)  11992.92      0.35      0.00
                                0.35  11993.04      0.00
                                0.00      0.00  11995.29

     corecor stress (kbar) -17741.31      1.56      0.00
                                1.56 -17740.74      0.00
                                0.00      0.00 -17742.06

     ewald   stress (kbar) -18093.87  -1754.73     -0.00
                            -1754.73 -18733.96      0.00
                               -0.00      0.00 -16214.36

     hubbard stress (kbar)      0.00      0.00      0.00
                                0.00      0.00      0.00
                                0.00      0.00      0.00

     DFT-D   stress (kbar)      0.00      0.00      0.00
                                0.00      0.00      0.00
                                0.00      0.00      0.00

     XDM     stress (kbar)      0.00      0.00      0.00
                                0.00      0.00      0.00
                                0.00      0.00      0.00

     dft-nl  stress (kbar)      0.00      0.00      0.00
                                0.00      0.00      0.00
                                0.00      0.00      0.00

     TS-vdW  stress (kbar)      0.00      0.00      0.00
                                0.00      0.00      0.00
                                0.00      0.00      0.00

[...]

                                0.00      0.00      0.00

     Writing all to output data dir calculations/myprefix.save/

     General routines

     Parallel routines

     PAW routines

   This run was terminated on:  20:28:47   4Mar2023

   JOB DONE.