     Program PWSCF v.7.0 starts on  3Mar2023 at 12: 5:42

     R & G space division:  proc/nbgrp/npool/nimage =      32

     Reading input from espresso_197.pwi
Warning: card &CELL ignored
Warning: card / ignored

     Current dimensions of program PWSCF are:
     Max number of different atomic species (ntypx) = 10
     Max number of k-points (npk) =  40000
     Max angular momentum in pseudopotentials (lmaxx) =  4

     gamma-point specific algorithms are used
     Message from routine setup:
     using ibrav=0 with symmetry is DISCOURAGED, use correct ibrav instead

     Using Slab Decomposition

     bravais-lattice index     =            0
     lattice parameter (alat)  =      12.9095  a.u.
     unit-cell volume          =    2007.1596 (a.u.)^3
     number of atoms/cell      =           14
     number of atomic types    =            3
     number of electrons       =        96.00
     number of Kohn-Sham states=           58
     kinetic-energy cutoff     =      30.0000  Ry
     charge density cutoff     =     240.0000  Ry
     scf convergence threshold =      1.0E-06
     mixing beta               =       0.7000
     number of iterations used =            8  plain     mixing
     Exchange-correlation=  SLA  PW   PBX  PBC
                           (   1   4   3   4   0   0   0)

     celldm(1)=  12.909549  celldm(2)=   0.000000  celldm(3)=   0.000000
     celldm(4)=   0.000000  celldm(5)=   0.000000  celldm(6)=   0.000000

     crystal axes: (cart. coord. in units of alat)
               a(1) = (   1.000000   0.000000   0.000000 )
               a(2) = (   0.519569   0.854429   0.000000 )
               a(3) = (   0.506599   0.284852   1.091875 )

     reciprocal axes: (cart. coord. in units 2 pi/alat)
               b(1) = (  1.000000 -0.608089 -0.305331 )
               b(2) = (  0.000000  1.170373 -0.305331 )
               b(3) = (  0.000000  0.000000  0.915856 )

     PseudoPot. # 1 for Na read from file:
     /home/pragov/projects/rrg-bengioy-ad/pragov/crystal_structure_design/SSSP/na_pbe_v1.5.uspp.F.UPF
     MD5 check sum: 44600605ef58000f06b90626533354dc
     Pseudo is Ultrasoft, Zval =  9.0
     Generated by new atomic code, or converted to UPF format
     Using radial grid of  819 points,  5 beta functions with:
                l(1) =   0
                l(2) =   0
                l(3) =   1
                l(4) =   1
                l(5) =   2
     Q(r) pseudized with  8 coefficients,  rinner =    1.250   1.250   1.250
                                                       1.250   1.250

     PseudoPot. # 2 for B  read from file:
     /home/pragov/projects/rrg-bengioy-ad/pragov/crystal_structure_design/SSSP/b_pbe_v1.4.uspp.F.UPF
     MD5 check sum: cc6de2960df11db49a60e589f9ebb39b
     Pseudo is Ultrasoft + core correction, Zval =  3.0
     Generated by new atomic code, or converted to UPF format
     Using radial grid of  781 points,  4 beta functions with:
                l(1) =   0
                l(2) =   0
                l(3) =   1
                l(4) =   1
     Q(r) pseudized with  8 coefficients,  rinner =    1.100   1.100   1.100

     PseudoPot. # 3 for S  read from file:
     /home/pragov/projects/rrg-bengioy-ad/pragov/crystal_structure_design/SSSP/s_pbe_v1.4.uspp.F.UPF
     MD5 check sum: 88d86576ff6df21479756cfb9bdac1df
     Pseudo is Ultrasoft + core correction, Zval =  6.0
     Generated by new atomic code, or converted to UPF format
     Using radial grid of  907 points,  6 beta functions with:
                l(1) =   0
                l(2) =   0
                l(3) =   1
                l(4) =   1
                l(5) =   2
                l(6) =   2
     Q(r) pseudized with  8 coefficients,  rinner =    1.300   1.300   1.300
                                                       1.300   1.300

     atomic species   valence    mass     pseudopotential
        Na             9.00    22.98977     Na( 1.00)
        B              3.00    10.81000     B ( 1.00)
        S              6.00    32.06000     S ( 1.00)

      2 Sym. Ops., with inversion, found

                                    s                        frac. trans.

      isym =  1     identity

 cryst.   s( 1) = (     1          0          0      )
                  (     0          1          0      )
                  (     0          0          1      )

 cart.    s( 1) = (  1.0000000 -0.0000000  0.0000000 )
                  (  0.0000000  1.0000000 -0.0000000 )
                  (  0.0000000  0.0000000  1.0000000 )

      isym =  2     inversion

 cryst.   s( 2) = (    -1          0          0      )
                  (     0         -1          0      )
                  (     0          0         -1      )

 cart.    s( 2) = ( -1.0000000  0.0000000 -0.0000000 )
                  (  0.0000000 -1.0000000  0.0000000 )
                  (  0.0000000  0.0000000 -1.0000000 )

   Cartesian axes

     site n.     atom                  positions (alat units)
         1           Na  tau(   1) = (   1.3078822   0.9774177   1.0871023  )
         2           Na  tau(   2) = (   1.2613690   0.4672301   0.5411649  )
         3           Na  tau(   3) = (   0.2597844   0.4272143   0.0000000  )
         4           Na  tau(   4) = (   0.7532994   0.1424261   0.5459374  )
         5           Na  tau(   5) = (   0.7182854   0.1618631   0.0047726  )
         6           Na  tau(   6) = (   0.7647986   0.6720507   0.5507100  )
         7           B   tau(   7) = (   1.0891429   0.1379174   0.2729687  )
         8           B   tau(   8) = (   0.9370247   1.0013634   0.8189062  )
         9           S   tau(   9) = (   0.5558780   0.3774694   0.8154329  )
        10           S   tau(  10) = (   1.6681294   1.0028702   0.8223794  )
        11           S   tau(  11) = (   1.4702896   0.7618114   0.2764420  )
        12           S   tau(  12) = (   0.3580382   0.1364107   0.2694955  )
        13           S   tau(  13) = (   1.0705889   0.7638245   0.8189062  )
        14           S   tau(  14) = (   0.9555787   0.3754563   0.2729687  )

   Crystallographic axes

     site n.     atom                  positions (cryst. coord.)
         1           Na  tau(   1) = (  0.3815990  0.8120170  0.9956290  )
         2           Na  tau(   2) = (  0.8120170  0.3815990  0.4956290  )
         3           Na  tau(   3) = ( -0.0000000  0.5000000  0.0000000  )
         4           Na  tau(   4) = (  0.5000000 -0.0000000  0.5000000  )
         5           Na  tau(   5) = (  0.6184010  0.1879830  0.0043710  )
         6           Na  tau(   6) = (  0.1879830  0.6184010  0.5043710  )
         7           B   tau(   7) = (  0.9219310  0.0780690  0.2500000  )
         8           B   tau(   8) = (  0.0780690  0.9219310  0.7500000  )
         9           S   tau(   9) = (  0.0773660  0.1928030  0.7468190  )
        10           S   tau(  10) = (  0.8071970  0.9226340  0.7531810  )
        11           S   tau(  11) = (  0.9226340  0.8071970  0.2531810  )
        12           S   tau(  12) = (  0.1928030  0.0773660  0.2468190  )
        13           S   tau(  13) = (  0.3560780  0.6439220  0.7500000  )
        14           S   tau(  14) = (  0.6439220  0.3560780  0.2500000  )

     number of k points=     1  Methfessel-Paxton smearing, width (Ry)=  0.0010
                       cart. coord. in units 2pi/alat
        k(    1) = (   0.0000000   0.0000000   0.0000000), wk =   2.0000000

                       cryst. coord.
        k(    1) = (   0.0000000   0.0000000   0.0000000), wk =   2.0000000

     Initial potential from superposition of free atoms

     starting charge      95.9615, renormalised to      96.0000
     Starting wfcs are   62 randomized atomic wfcs

     Self-consistent Calculation

     iteration #  1     ecut=    30.00 Ry     beta= 0.70
     Davidson diagonalization with overlap

     ethr =  1.00E-02,  avg # of iterations =  4.0

     Threshold (ethr) on eigenvalues was too large:
     Diagonalizing with lowered threshold

     Davidson diagonalization with overlap

[...]

     total energy              =    -730.03349769 Ry
     estimated scf accuracy    <       0.75946739 Ry

[...]

     total energy              =    -730.29018961 Ry
     estimated scf accuracy    <       0.00000151 Ry

     iteration #  8     ecut=    30.00 Ry     beta= 0.70
     Davidson diagonalization with overlap

     ethr =  1.57E-09,  avg # of iterations =  4.0

     End of self-consistent calculation

          k = 0.0000 0.0000 0.0000 (  2785 PWs)   bands (ev):

   -48.1615 -48.1607 -48.1606 -48.1601 -48.0189 -48.0183 -20.0877 -20.0855
   -20.0788 -20.0759 -20.0751 -20.0739 -20.0720 -20.0715 -20.0578 -20.0518
   -20.0497 -20.0485 -19.9539 -19.9532 -19.9326 -19.9319 -19.9129 -19.9118
   -10.0454  -9.7959  -8.3909  -8.3837  -8.2888  -8.2616  -2.5712  -2.5111
    -0.8911  -0.7229  -0.6425  -0.5995  -0.5114   0.7273   1.5745   1.6781
     1.9358   2.0113   2.0487   2.2281   2.3428   2.4044   2.4607   2.5009
     5.6874   5.9816   6.0360   7.7496   8.4940   8.5340   8.6746   8.7162
     9.2006   9.3082

     occupation numbers
     1.0000   1.0000   1.0000   1.0000   1.0000   1.0000   1.0000   1.0000
     1.0000   1.0000   1.0000   1.0000   1.0000   1.0000   1.0000   1.0000
     1.0000   1.0000   1.0000   1.0000   1.0000   1.0000   1.0000   1.0000
     1.0000   1.0000   1.0000   1.0000   1.0000   1.0000   1.0000   1.0000
     1.0000   1.0000   1.0000   1.0000   1.0000   1.0000   1.0000   1.0000
     1.0000   1.0000   1.0000   1.0000   1.0000   1.0000   1.0000   1.0000
    -0.0000  -0.0000  -0.0000  -0.0000  -0.0000  -0.0000  -0.0000  -0.0000
    -0.0000  -0.0000

     the Fermi energy is     4.0310 ev

!    total energy              =    -730.29018992 Ry
     estimated scf accuracy    <       0.00000043 Ry
     smearing contrib. (-TS)   =       0.00000000 Ry
     internal energy E=F+TS    =    -730.29018992 Ry

     The total energy is F=E-TS. E is the sum of the following terms:
     one-electron contribution =    -493.92982383 Ry
     hartree contribution      =     273.90996748 Ry
     xc contribution           =    -143.13880956 Ry
     ewald contribution        =    -367.13152402 Ry

     convergence has been achieved in   8 iterations

     Forces acting on atoms (cartesian axes, Ry/au):

     atom    1 type  1   force =    -0.00078726    0.00172372    0.00028455
     atom    2 type  1   force =     0.00107983   -0.00160634    0.00029179
     atom    3 type  1   force =     0.00000000    0.00000000    0.00000000
     atom    4 type  1   force =     0.00000000    0.00000000    0.00000000
     atom    5 type  1   force =     0.00078726   -0.00172372   -0.00028455
     atom    6 type  1   force =    -0.00107983    0.00160634   -0.00029179
     atom    7 type  2   force =     0.00255225   -0.00453154    0.00000334
     atom    8 type  2   force =    -0.00255225    0.00453154   -0.00000334
     atom    9 type  3   force =    -0.00281071   -0.00578010   -0.00290014
     atom   10 type  3   force =     0.00640104   -0.00060160    0.00289859
     atom   11 type  3   force =     0.00281071    0.00578010    0.00290014
     atom   12 type  3   force =    -0.00640104    0.00060160   -0.00289859
     atom   13 type  3   force =    -0.00068964    0.00122367   -0.00000375
     atom   14 type  3   force =     0.00068964   -0.00122367    0.00000375
     The non-local contrib.  to forces
     atom    1 type  1   force =     0.15131052   -0.11344278   -0.02547542
     atom    2 type  1   force =    -0.01826877    0.18821130   -0.02550390
     atom    3 type  1   force =     0.00000000    0.00000000    0.00000000
     atom    4 type  1   force =     0.00000000    0.00000000    0.00000000
     atom    5 type  1   force =    -0.15131052    0.11344278    0.02547542
     atom    6 type  1   force =     0.01826877   -0.18821130    0.02550390
     atom    7 type  2   force =    -0.01390662    0.02472645    0.00002611
     atom    8 type  2   force =     0.01390662   -0.02472645   -0.00002611
     atom    9 type  3   force =    -0.06644714   -0.11846980   -0.00653065
     atom   10 type  3   force =     0.13574689   -0.00478429    0.00651574
     atom   11 type  3   force =     0.06644714    0.11846980    0.00653065
     atom   12 type  3   force =    -0.13574689    0.00478429   -0.00651574
     atom   13 type  3   force =    -0.06893490    0.12261092   -0.00000340
     atom   14 type  3   force =     0.06893490   -0.12261092    0.00000340
     The ionic contribution  to forces
     atom    1 type  1   force =     1.50519035   -0.86187748   -0.10912988
     atom    2 type  1   force =     0.04563718    1.73388236   -0.10912988
     atom    3 type  1   force =     0.00000000    0.00000000   -0.00000000
     atom    4 type  1   force =     0.00000000    0.00000000   -0.00000000
     atom    5 type  1   force =    -1.50519035    0.86187748    0.10912988
     atom    6 type  1   force =    -0.04563718   -1.73388236    0.10912988
     atom    7 type  2   force =     0.02011462   -0.03577308    0.00000000
     atom    8 type  2   force =    -0.02011462    0.03577308   -0.00000000
     atom    9 type  3   force =     1.68836218    3.07901631    0.42571296
     atom   10 type  3   force =    -3.50801996    0.15717589   -0.42571296
     atom   11 type  3   force =    -1.68836218   -3.07901631   -0.42571296
     atom   12 type  3   force =     3.50801996   -0.15717589    0.42571296
     atom   13 type  3   force =     1.60179005   -2.84872273    0.00000000
     atom   14 type  3   force =    -1.60179005    2.84872273    0.00000000
     The local contribution  to forces
     atom    1 type  1   force =    -1.65735551    0.97720168    0.13487658
     atom    2 type  1   force =    -0.02637043   -1.92375882    0.13490555
     atom    3 type  1   force =    -0.00014404   -0.00021594    0.00001569
     atom    4 type  1   force =     0.00025845    0.00001585   -0.00002398
     atom    5 type  1   force =     1.65748099   -0.97704520   -0.13490023
     atom    6 type  1   force =     0.02619066    1.92372726   -0.13487253
     atom    7 type  2   force =    -0.00429991    0.00762801   -0.00013103
     atom    8 type  2   force =     0.00426897   -0.00758079    0.00012816
     atom    9 type  3   force =    -1.62751430   -2.97134895   -0.42204385
     atom   10 type  3   force =     3.38443597   -0.15321498    0.42247131
     atom   11 type  3   force =     1.62798563    2.97217536    0.42223299
     atom   12 type  3   force =    -3.38537894    0.15323550   -0.42265670
     atom   13 type  3   force =    -1.53662680    2.73280548    0.00019620
     atom   14 type  3   force =     1.53703874   -2.73356433   -0.00018334
     The core correction contribution to forces
     atom    1 type  1   force =     0.00000000    0.00000000    0.00000000
     atom    2 type  1   force =     0.00000000    0.00000000    0.00000000
     atom    3 type  1   force =     0.00000000    0.00000000    0.00000000
     atom    4 type  1   force =     0.00000000    0.00000000    0.00000000
     atom    5 type  1   force =     0.00000000    0.00000000    0.00000000
     atom    6 type  1   force =     0.00000000    0.00000000    0.00000000
     atom    7 type  2   force =     0.00059965   -0.00106613   -0.00000104
     atom    8 type  2   force =    -0.00059944    0.00106607    0.00000106
     atom    9 type  3   force =     0.00292692    0.00524295    0.00031505
     atom   10 type  3   force =    -0.00600109    0.00022365   -0.00031260
     atom   11 type  3   force =    -0.00292511   -0.00524057   -0.00031265
     atom   12 type  3   force =     0.00599672   -0.00022396    0.00031090
     atom   13 type  3   force =     0.00316468   -0.00562960    0.00000073
     atom   14 type  3   force =    -0.00316301    0.00562617   -0.00000084
     The Hubbard contrib.    to forces
     atom    1 type  1   force =     0.00000000    0.00000000    0.00000000
     atom    2 type  1   force =     0.00000000    0.00000000    0.00000000
     atom    3 type  1   force =     0.00000000    0.00000000    0.00000000
     atom    4 type  1   force =     0.00000000    0.00000000    0.00000000
     atom    5 type  1   force =     0.00000000    0.00000000    0.00000000
     atom    6 type  1   force =     0.00000000    0.00000000    0.00000000
     atom    7 type  2   force =     0.00000000    0.00000000    0.00000000
     atom    8 type  2   force =     0.00000000    0.00000000    0.00000000
     atom    9 type  3   force =     0.00000000    0.00000000    0.00000000
     atom   10 type  3   force =     0.00000000    0.00000000    0.00000000
     atom   11 type  3   force =     0.00000000    0.00000000    0.00000000
     atom   12 type  3   force =     0.00000000    0.00000000    0.00000000
     atom   13 type  3   force =     0.00000000    0.00000000    0.00000000
     atom   14 type  3   force =     0.00000000    0.00000000    0.00000000
     The SCF correction term to forces
     atom    1 type  1   force =     0.00002497   -0.00020493    0.00002783
     atom    2 type  1   force =     0.00015956    0.00006823   -0.00000619
     atom    3 type  1   force =     0.00027067    0.00037422   -0.00005334
     atom    4 type  1   force =    -0.00045859   -0.00005133    0.00007084
     atom    5 type  1   force =    -0.00023525   -0.00004600    0.00002497
     atom    6 type  1   force =     0.00017565   -0.00001785   -0.00007923
     atom    7 type  2   force =     0.00005202   -0.00006022    0.00010769
     atom    8 type  2   force =    -0.00000626   -0.00001379   -0.00010805
     atom    9 type  3   force =    -0.00011848   -0.00018963   -0.00034160
     atom   10 type  3   force =     0.00020235   -0.00000395   -0.00007328
     atom   11 type  3   force =    -0.00031489   -0.00057722    0.00017414
     atom   12 type  3   force =     0.00067122   -0.00002044    0.00023962
     atom   13 type  3   force =    -0.00006441    0.00012509   -0.00019394
     atom   14 type  3   force =    -0.00031267    0.00056817    0.00018785

     Total force =     0.016491     Total SCF correction =     0.001527

     Computing stress (Cartesian axis) and pressure

          total   stress  (Ry/bohr**3)                   (kbar)     P=      -26.98
  -0.00016419  -0.00000345   0.00001843          -24.15       -0.51        2.71
  -0.00000345  -0.00016000   0.00001037           -0.51      -23.54        1.53
   0.00001843   0.00001037  -0.00022612            2.71        1.53      -33.26

     kinetic stress (kbar)   7621.93     -5.00      8.91
                               -5.00   7628.01      5.01
                                8.91      5.01   7704.13

     local   stress (kbar)  13317.19     79.20    441.16
                               79.20  13220.86    248.05
                              441.16    248.05  13002.64

     nonloc. stress (kbar) -15675.50      0.61     -0.42
                                0.61 -15676.24     -0.23
                               -0.42     -0.23 -15695.21

     hartree stress (kbar)   6512.91    -45.37   -166.40
                              -45.37   6568.10    -93.56
                             -166.40    -93.56   6993.90

     exc-cor stress (kbar)  -1069.54      0.12     -0.32
                                0.12  -1069.68     -0.18
                               -0.32     -0.18  -1077.58

     corecor stress (kbar)  -1828.26     -0.13      0.15
                               -0.13  -1828.10      0.08
                                0.15      0.08  -1823.36

     ewald   stress (kbar)  -8902.89    -29.94   -280.36
                              -29.94  -8866.47   -157.64
                             -280.36   -157.64  -9137.77

     hubbard stress (kbar)      0.00      0.00      0.00
                                0.00      0.00      0.00
                                0.00      0.00      0.00

     DFT-D   stress (kbar)      0.00      0.00      0.00
                                0.00      0.00      0.00
                                0.00      0.00      0.00

     XDM     stress (kbar)      0.00      0.00      0.00
                                0.00      0.00      0.00
                                0.00      0.00      0.00

     dft-nl  stress (kbar)      0.00      0.00      0.00
                                0.00      0.00      0.00
                                0.00      0.00      0.00

     TS-vdW  stress (kbar)      0.00      0.00      0.00
                                0.00      0.00      0.00
                                0.00      0.00      0.00

[...]

                                0.00      0.00      0.00

     Writing all to output data dir calculations/myprefix.save/

     General routines

     Parallel routines

   This run was terminated on:  12: 5:45   3Mar2023

   JOB DONE.