     Program PWSCF v.7.0 starts on  6Mar2023 at  8:33:12

     R & G space division:  proc/nbgrp/npool/nimage =      32

     Reading input from espresso_4988.pwi
Warning: card &CELL ignored
Warning: card / ignored

     Current dimensions of program PWSCF are:
     Max number of different atomic species (ntypx) = 10
     Max number of k-points (npk) =  40000
     Max angular momentum in pseudopotentials (lmaxx) =  4

     gamma-point specific algorithms are used
     Message from routine setup:
     using ibrav=0 with symmetry is DISCOURAGED, use correct ibrav instead

     Using Slab Decomposition

     bravais-lattice index     =            0
     lattice parameter (alat)  =       9.9275  a.u.
     unit-cell volume          =    1312.4292 (a.u.)^3
     number of atoms/cell      =           16
     number of atomic types    =            3
     number of electrons       =       184.00
     number of Kohn-Sham states=          110
     kinetic-energy cutoff     =      30.0000  Ry
     charge density cutoff     =     240.0000  Ry
     scf convergence threshold =      1.0E-06
     mixing beta               =       0.7000
     number of iterations used =            8  plain     mixing
     Exchange-correlation= SLA  PW   PBE  PBE
                           (   1   4   3   4   0   0   0)

     celldm(1)=   9.927459  celldm(2)=   0.000000  celldm(3)=   0.000000
     celldm(4)=   0.000000  celldm(5)=   0.000000  celldm(6)=   0.000000

     crystal axes: (cart. coord. in units of alat)
               a(1) = (   1.000000   0.000000   0.000000 )
               a(2) = (   0.000000   1.119018   0.000000 )
               a(3) = (   0.000000   0.000000   1.198739 )

     reciprocal axes: (cart. coord. in units 2 pi/alat)
               b(1) = (  1.000000  0.000000  0.000000 )
               b(2) = (  0.000000  0.893641  0.000000 )
               b(3) = (  0.000000  0.000000  0.834210 )

     PseudoPot. # 1 for Yb read from file:
     /home/pragov/projects/rrg-bengioy-ad/pragov/crystal_structure_design/SSSP/Yb.GGA-PBE-paw-v1.0.UPF
     MD5 check sum: 43b6465ad8021f06e3edb42ae292e187
     Pseudo is Projector augmented-wave + core cor, Zval = 24.0
     Generated using ATOMPAW code
     Shape of augmentation charge: BESSEL
     Using radial grid of 1117 points,  8 beta functions with:
                l(1) =   0
                l(2) =   0
                l(3) =   1
                l(4) =   1
                l(5) =   2
                l(6) =   2
                l(7) =   3
                l(8) =   3
     Q(r) pseudized with 0 coefficients

     PseudoPot. # 2 for B  read from file:
     /home/pragov/projects/rrg-bengioy-ad/pragov/crystal_structure_design/SSSP/b_pbe_v1.4.uspp.F.UPF
     MD5 check sum: cc6de2960df11db49a60e589f9ebb39b
     Pseudo is Ultrasoft + core correction, Zval =  3.0
     Generated by new atomic code, or converted to UPF format
     Using radial grid of  781 points,  4 beta functions with:
                l(1) =   0
                l(2) =   0
                l(3) =   1
                l(4) =   1
     Q(r) pseudized with  8 coefficients,  rinner =    1.100   1.100   1.100

     PseudoPot. # 3 for Os read from file:
     /home/pragov/projects/rrg-bengioy-ad/pragov/crystal_structure_design/SSSP/Os_pbe_v1.2.uspp.F.UPF
     MD5 check sum: a3fb40a04f0c37c25c34bbc47164c9a8
     Pseudo is Ultrasoft + core correction, Zval = 16.0
     Generated by new atomic code, or converted to UPF format
     Using radial grid of  983 points,  8 beta functions with:
                l(1) =   0
                l(2) =   0
                l(3) =   1
                l(4) =   1
                l(5) =   2
                l(6) =   2
                l(7) =   3
                l(8) =   3
     Q(r) pseudized with  8 coefficients,  rinner =    1.150   1.150   1.150
                                                       1.150   1.150   1.150
                                                       1.150

     atomic species   valence    mass     pseudopotential
        Yb            24.00   173.05400     Yb( 1.00)
        B              3.00    10.81000     B ( 1.00)
        Os            16.00   190.23000     Os( 1.00)

      8 Sym. Ops., with inversion, found ( 6 have fractional translation)

                                    s                        frac. trans.

      isym =  1     identity

 cryst.   s( 1) = (     1          0          0      )
                  (     0          1          0      )
                  (     0          0          1      )

 cart.    s( 1) = (  1.0000000  0.0000000  0.0000000 )
                  (  0.0000000  1.0000000  0.0000000 )
                  (  0.0000000  0.0000000  1.0000000 )

      isym =  2     180 deg rotation - cart. axis [0,0,1]

 cryst.   s( 2) = (    -1          0          0      )    f =(  0.0000000 )
                  (     0         -1          0      )       (  0.5000000 )
                  (     0          0          1      )       (  0.5000000 )

 cart.    s( 2) = ( -1.0000000  0.0000000  0.0000000 )    f =(  0.0000000 )
                  (  0.0000000 -1.0000000  0.0000000 )       (  0.5595091 )
                  (  0.0000000  0.0000000  1.0000000 )       (  0.5993693 )

[...]

      isym =  4     180 deg rotation - cart. axis [1,0,0]

[...]

      isym =  5     inversion

 cryst.   s( 5) = (    -1          0          0      )
                  (     0         -1          0      )
                  (     0          0         -1      )

 cart.    s( 5) = ( -1.0000000  0.0000000  0.0000000 )
                  (  0.0000000 -1.0000000  0.0000000 )
                  (  0.0000000  0.0000000 -1.0000000 )

      isym =  6     inv. 180 deg rotation - cart. axis [0,0,1]

[...]

      isym =  8     inv. 180 deg rotation - cart. axis [1,0,0]

 cryst.   s( 8) = (    -1          0          0      )    f =(  0.5000000 )
                  (     0          1          0      )       (  0.0000000 )
                  (     0          0          1      )       (  0.0000000 )

 cart.    s( 8) = ( -1.0000000  0.0000000  0.0000000 )    f =(  0.5000000 )
                  (  0.0000000  1.0000000  0.0000000 )       (  0.0000000 )
                  (  0.0000000  0.0000000  1.0000000 )       (  0.0000000 )

   Cartesian axes

     site n.     atom                  positions (alat units)
         1           Yb  tau(   1) = (   0.2500000   0.0071695   0.4181763  )
         2           Yb  tau(   2) = (   0.2500000   0.5666786   0.1811929  )
         3           Yb  tau(   3) = (   0.7500000   1.1118486   0.7805622  )
         4           Yb  tau(   4) = (   0.7500000   0.5523395   1.0175456  )
         5           B   tau(   5) = (   0.0730000   0.4165825   0.6515935  )
         6           B   tau(   6) = (   0.4270000   0.9760915   1.1465143  )
         7           B   tau(   7) = (   0.5730000   0.7024356   0.5471450  )
         8           B   tau(   8) = (   0.9270000   0.1429266   0.0522242  )
         9           B   tau(   9) = (   0.9270000   0.7024356   0.5471450  )
        10           B   tau(  10) = (   0.5730000   0.1429266   0.0522242  )
        11           B   tau(  11) = (   0.4270000   0.4165825   0.6515935  )
        12           B   tau(  12) = (   0.0730000   0.9760915   1.1465143  )
        13           Os  tau(  13) = (   0.2500000   0.2012688   0.9691957  )
        14           Os  tau(  14) = (   0.2500000   0.7607779   0.8289121  )
        15           Os  tau(  15) = (   0.7500000   0.9177493   0.2295428  )
        16           Os  tau(  16) = (   0.7500000   0.3582402   0.3698264  )

   Crystallographic axes

     site n.     atom                  positions (cryst. coord.)
         1           Yb  tau(   1) = (  0.2500000  0.0064070  0.3488470  )
         2           Yb  tau(   2) = (  0.2500000  0.5064070  0.1511530  )
         3           Yb  tau(   3) = (  0.7500000  0.9935930  0.6511530  )
         4           Yb  tau(   4) = (  0.7500000  0.4935930  0.8488470  )
         5           B   tau(   5) = (  0.0730000  0.3722750  0.5435660  )
         6           B   tau(   6) = (  0.4270000  0.8722750  0.9564340  )
         7           B   tau(   7) = (  0.5730000  0.6277250  0.4564340  )
         8           B   tau(   8) = (  0.9270000  0.1277250  0.0435660  )
         9           B   tau(   9) = (  0.9270000  0.6277250  0.4564340  )
        10           B   tau(  10) = (  0.5730000  0.1277250  0.0435660  )
        11           B   tau(  11) = (  0.4270000  0.3722750  0.5435660  )
        12           B   tau(  12) = (  0.0730000  0.8722750  0.9564340  )
        13           Os  tau(  13) = (  0.2500000  0.1798620  0.8085130  )
        14           Os  tau(  14) = (  0.2500000  0.6798620  0.6914870  )
        15           Os  tau(  15) = (  0.7500000  0.8201380  0.1914870  )
        16           Os  tau(  16) = (  0.7500000  0.3201380  0.3085130  )

     number of k points=     1  Methfessel-Paxton smearing, width (Ry)=  0.0010
                       cart. coord. in units 2pi/alat
        k(    1) = (   0.0000000   0.0000000   0.0000000), wk =   2.0000000

                       cryst. coord.
        k(    1) = (   0.0000000   0.0000000   0.0000000), wk =   2.0000000

     Check: negative core charge=   -0.000001

     Initial potential from superposition of free atoms

     starting charge     181.9816, renormalised to     184.0000

     negative rho (up, down):  5.078E-01 0.000E+00
     Starting wfcs are  212 randomized atomic wfcs
     Checking if some PAW data can be deallocated...

     Self-consistent Calculation

     iteration #  1     ecut=    30.00 Ry     beta= 0.70
     Davidson diagonalization with overlap

     ethr =  1.00E-02,  avg # of iterations =  2.0

     negative rho (up, down):  4.760E-01 0.000E+00

     total energy              =   -4875.26611770 Ry
     estimated scf accuracy    <      13.75430875 Ry

[...]

     total energy              =   -4890.28068746 Ry
     estimated scf accuracy    <       0.00000150 Ry

     iteration # 37     ecut=    30.00 Ry     beta= 0.70
     Davidson diagonalization with overlap

     ethr =  8.15E-10,  avg # of iterations =  1.0

[...]

     End of self-consistent calculation

          k = 0.0000 0.0000 0.0000 (  1830 PWs)   bands (ev):

   -67.2113 -67.2110 -67.2042 -67.2039 -32.4441 -32.4127 -32.4059 -32.3730
   -26.8214 -26.8192 -26.7152 -26.7149 -26.5978 -26.5973 -26.5176 -26.5157
   -26.4797 -26.4743 -26.4599 -26.4576  -5.1482  -5.0480  -4.9258  -4.9120
    -4.7675  -4.7250  -4.7185  -4.6298  -4.5208  -4.4403  -4.3273  -4.2365
     6.4671   8.4271   9.1589  10.1478  10.8334  11.0941  12.3838  12.7259
    13.3156  13.3738  13.6479  13.6721  14.1061  14.3232  14.8388  15.1709
    15.3054  15.4114  15.5945  15.6694  16.0046  16.4054  16.5379  16.5752
    16.7888  16.9534  17.0001  17.0874  17.2008  17.3050  17.7388  17.8215
    18.1691  18.1754  18.2469  18.2557  18.2772  18.2860  18.3335  18.4322
    18.4854  18.5203  18.5251  18.5272  18.5396  18.5646  18.5931  18.5938
    18.6349  18.6508  18.6792  18.6906  18.6916  18.7174  18.7579  18.7623
    18.7705  18.7842  18.8200  18.8253  19.0409  19.1163  19.6863  19.8436
    20.0220  20.8993  20.9993  21.6582  21.6752  21.7435  22.1642  22.2130
    22.7803  23.3722  23.4174  24.5752  24.9730  25.1296

     occupation numbers
     1.0000   1.0000   1.0000   1.0000   1.0000   1.0000   1.0000   1.0000
     1.0000   1.0000   1.0000   1.0000   1.0000   1.0000   1.0000   1.0000
     1.0000   1.0000   1.0000   1.0000   1.0000   1.0000   1.0000   1.0000
     1.0000   1.0000   1.0000   1.0000   1.0000   1.0000   1.0000   1.0000
     1.0000   1.0000   1.0000   1.0000   1.0000   1.0000   1.0000   1.0000
     1.0000   1.0000   1.0000   1.0000   1.0000   1.0000   1.0000   1.0000
     1.0000   1.0000   1.0000   1.0000   1.0000   1.0000   1.0000   1.0000
     1.0000   1.0000   1.0000   1.0000   1.0000   1.0000   1.0000   1.0000
     1.0000   1.0000   1.0000   1.0000   1.0000   1.0000   1.0000   1.0000
     1.0000   1.0000   1.0000   1.0000   1.0000   1.0000   1.0000   1.0000
     1.0000   1.0000   1.0000   1.0000   1.0000   1.0000   1.0000   1.0000
     1.0000   1.0000   1.0000   1.0000  -0.0000  -0.0000  -0.0000  -0.0000
    -0.0000  -0.0000  -0.0000  -0.0000  -0.0000  -0.0000  -0.0000  -0.0000
    -0.0000  -0.0000  -0.0000  -0.0000  -0.0000  -0.0000

     the Fermi energy is    18.9347 ev

!    total energy              =   -4890.28068712 Ry
     estimated scf accuracy    <       0.00000049 Ry
     smearing contrib. (-TS)   =       0.00000000 Ry
     internal energy E=F+TS    =   -4890.28068712 Ry

     The total energy is F=E-TS. E is the sum of the following terms:
     one-electron contribution =   -1459.81942883 Ry
     hartree contribution      =     717.68499326 Ry
     xc contribution           =    -326.91770622 Ry
     ewald contribution        =   -1881.28538185 Ry
     one-center paw contrib.   =   -1939.94316349 Ry
      -> PAW hartree energy AE =     450.85631363 Ry
      -> PAW hartree energy PS =    -388.35097112 Ry
      -> PAW xc energy AE      =    -584.72124725 Ry
      -> PAW xc energy PS      =      37.23011386 Ry
      -> total E_H with PAW    =     780.19033578 Ry
      -> total E_XC with PAW   =    -874.40883961 Ry

     convergence has been achieved in  37 iterations

     negative rho (up, down):  5.026E-01 0.000E+00

     Forces acting on atoms (cartesian axes, Ry/au):

     atom    1 type  1   force =     0.00000000    0.02208662   -0.00232804
     atom    2 type  1   force =    -0.00000000    0.02208662    0.00232804
     atom    3 type  1   force =     0.00000000   -0.02208662    0.00232804
     atom    4 type  1   force =     0.00000000   -0.02208662   -0.00232804
     atom    5 type  2   force =    -0.03302253   -0.01951823    0.04312009
     atom    6 type  2   force =     0.03302253   -0.01951823   -0.04312009
     atom    7 type  2   force =    -0.03302253    0.01951823   -0.04312009
     atom    8 type  2   force =     0.03302253    0.01951823    0.04312009
     atom    9 type  2   force =     0.03302253    0.01951823   -0.04312009
     atom   10 type  2   force =    -0.03302253    0.01951823    0.04312009
     atom   11 type  2   force =     0.03302253   -0.01951823    0.04312009
     atom   12 type  2   force =    -0.03302253   -0.01951823   -0.04312009
     atom   13 type  3   force =     0.00000000    0.04364858   -0.02902445
     atom   14 type  3   force =    -0.00000000    0.04364858    0.02902445
     atom   15 type  3   force =     0.00000000   -0.04364858    0.02902445
     atom   16 type  3   force =    -0.00000000   -0.04364858   -0.02902445
     The non-local contrib.  to forces
     atom    1 type  1   force =     0.00000000    0.14788110   -0.08093532
     atom    2 type  1   force =    -0.00000000    0.14788110    0.08093532
     atom    3 type  1   force =     0.00000000   -0.14788110    0.08093532
     atom    4 type  1   force =     0.00000000   -0.14788110   -0.08093532
     atom    5 type  2   force =     0.04959530    0.02941410   -0.01662205
     atom    6 type  2   force =    -0.04959530    0.02941410    0.01662205
     atom    7 type  2   force =     0.04959530   -0.02941410    0.01662205
     atom    8 type  2   force =    -0.04959530   -0.02941410   -0.01662205
     atom    9 type  2   force =    -0.04959530   -0.02941410    0.01662205
     atom   10 type  2   force =     0.04959530   -0.02941410   -0.01662205
     atom   11 type  2   force =    -0.04959530    0.02941410   -0.01662205
     atom   12 type  2   force =     0.04959530    0.02941410    0.01662205
     atom   13 type  3   force =     0.00000000    0.08249493    0.09856163
     atom   14 type  3   force =     0.00000000    0.08249493   -0.09856163
     atom   15 type  3   force =    -0.00000000   -0.08249493   -0.09856163
     atom   16 type  3   force =    -0.00000000   -0.08249493    0.09856163
     The ionic contribution  to forces
     atom    1 type  1   force =    -0.00000000    1.52847365   -4.73466178
     atom    2 type  1   force =    -0.00000000    1.52847365    4.73466178
     atom    3 type  1   force =    -0.00000000   -1.52847365    4.73466178
     atom    4 type  1   force =    -0.00000000   -1.52847365   -4.73466178
     atom    5 type  2   force =    -0.12980611    0.40062952   -0.58654699
     atom    6 type  2   force =     0.12980611    0.40062952    0.58654699
     atom    7 type  2   force =    -0.12980611   -0.40062952    0.58654699
     atom    8 type  2   force =     0.12980611   -0.40062952   -0.58654699
     atom    9 type  2   force =     0.12980611   -0.40062952    0.58654699
     atom   10 type  2   force =    -0.12980611   -0.40062952   -0.58654699
     atom   11 type  2   force =     0.12980611    0.40062952   -0.58654699
     atom   12 type  2   force =    -0.12980611    0.40062952    0.58654699
     atom   13 type  3   force =    -0.00000000   -1.28089870    1.65534202
     atom   14 type  3   force =     0.00000000   -1.28089870   -1.65534202
     atom   15 type  3   force =     0.00000000    1.28089870   -1.65534202
     atom   16 type  3   force =     0.00000000    1.28089870    1.65534202
     The local contribution  to forces
     atom    1 type  1   force =     0.00002782   -1.65436311    4.81361788
     atom    2 type  1   force =     0.00002374   -1.65409085   -4.81322907
     atom    3 type  1   force =    -0.00002888    1.65435456   -4.81350523
     atom    4 type  1   force =    -0.00007571    1.65463341    4.81362194
     atom    5 type  2   force =     0.04795021   -0.45075048    0.64525899
     atom    6 type  2   force =    -0.04799914   -0.45074576   -0.64527559
     atom    7 type  2   force =     0.04811209    0.45075500   -0.64524467
     atom    8 type  2   force =    -0.04812791    0.45071078    0.64534571
     atom    9 type  2   force =    -0.04810760    0.45075159   -0.64524446
     atom   10 type  2   force =     0.04813172    0.45071524    0.64534610
     atom   11 type  2   force =    -0.04795546   -0.45075181    0.64525777
     atom   12 type  2   force =     0.04799487   -0.45074192   -0.64527337
     atom   13 type  3   force =    -0.00001615    1.23793148   -1.79265397
     atom   14 type  3   force =    -0.00001219    1.23859263    1.79242300
     atom   15 type  3   force =     0.00002135   -1.23802163    1.79256090
     atom   16 type  3   force =     0.00001054   -1.23851680   -1.79247606
     The core correction contribution to forces
     atom    1 type  1   force =     0.00000000   -0.00000022   -0.00000011
     atom    2 type  1   force =     0.00000000   -0.00000022    0.00000011
     atom    3 type  1   force =    -0.00000000    0.00000022    0.00000011
     atom    4 type  1   force =    -0.00000000    0.00000022   -0.00000011
     atom    5 type  2   force =    -0.00085106    0.00118938    0.00101907
     atom    6 type  2   force =     0.00085101    0.00119008   -0.00101924
     atom    7 type  2   force =    -0.00085109   -0.00118959   -0.00101871
     atom    8 type  2   force =     0.00085121   -0.00118973    0.00101873
     atom    9 type  2   force =     0.00085108   -0.00118961   -0.00101875
     atom   10 type  2   force =    -0.00085120   -0.00118974    0.00101873
     atom   11 type  2   force =     0.00085102    0.00118942    0.00101899
     atom   12 type  2   force =    -0.00085105    0.00119015   -0.00101918
     atom   13 type  3   force =    -0.00000029    0.00379957    0.00961864
     atom   14 type  3   force =    -0.00000017    0.00380073   -0.00961833
     atom   15 type  3   force =     0.00000058   -0.00379820   -0.00961494
     atom   16 type  3   force =    -0.00000019   -0.00380273    0.00962195
     The Hubbard contrib.    to forces
     atom    1 type  1   force =     0.00000000    0.00000000    0.00000000
     atom    2 type  1   force =     0.00000000    0.00000000    0.00000000
     atom    3 type  1   force =     0.00000000    0.00000000    0.00000000
     atom    4 type  1   force =     0.00000000    0.00000000    0.00000000
     atom    5 type  2   force =     0.00000000    0.00000000    0.00000000
     atom    6 type  2   force =     0.00000000    0.00000000    0.00000000
     atom    7 type  2   force =     0.00000000    0.00000000    0.00000000
     atom    8 type  2   force =     0.00000000    0.00000000    0.00000000
     atom    9 type  2   force =     0.00000000    0.00000000    0.00000000
     atom   10 type  2   force =     0.00000000    0.00000000    0.00000000
     atom   11 type  2   force =     0.00000000    0.00000000    0.00000000
     atom   12 type  2   force =     0.00000000    0.00000000    0.00000000
     atom   13 type  3   force =     0.00000000    0.00000000    0.00000000
     atom   14 type  3   force =     0.00000000    0.00000000    0.00000000
     atom   15 type  3   force =     0.00000000    0.00000000    0.00000000
     atom   16 type  3   force =     0.00000000    0.00000000    0.00000000
     The SCF correction term to forces
     atom    1 type  1   force =    -0.00003714    0.00010158   -0.00030559
     atom    2 type  1   force =    -0.00002461   -0.00020695   -0.00000250
     atom    3 type  1   force =     0.00003626   -0.00008880    0.00016191
     atom    4 type  1   force =     0.00008970   -0.00038690   -0.00043246
     atom    5 type  2   force =     0.00008694   -0.00001154    0.00001049
     atom    6 type  2   force =    -0.00004393    0.00000431   -0.00000534
     atom    7 type  2   force =    -0.00007207   -0.00000254   -0.00002306
     atom    8 type  2   force =     0.00009057    0.00004019   -0.00008212
     atom    9 type  2   force =     0.00006841    0.00000006   -0.00002353
     atom   10 type  2   force =    -0.00009381    0.00003644   -0.00008247
     atom   11 type  2   force =    -0.00008266   -0.00000995    0.00001006
     atom   12 type  2   force =     0.00004734    0.00000149   -0.00000707
     atom   13 type  3   force =     0.00002117    0.00032449    0.00011471
     atom   14 type  3   force =     0.00001451   -0.00034927    0.00012332
     atom   15 type  3   force =    -0.00003193   -0.00025794   -0.00003950
     atom   16 type  3   force =    -0.00000945    0.00028751   -0.00010321

     Total force =     0.199022     Total SCF correction =     0.001006

     Computing stress (Cartesian axis) and pressure

     negative rho (up, down):  5.026E-01 0.000E+00
          total   stress  (Ry/bohr**3)                   (kbar)     P=      -34.03
  -0.00055084   0.00000000   0.00000000          -81.03        0.00        0.00
   0.00000000  -0.00015484   0.00000000            0.00      -22.78        0.00
   0.00000000   0.00000000   0.00001178            0.00        0.00        1.73

     kinetic stress (kbar)  27324.55      0.00      0.00
                                0.00  27039.64      0.00
                                0.00      0.00  27211.59

     local   stress (kbar)  28834.57     -0.00      0.00
                               -0.00  33121.02      0.10
                                0.00      0.10  35616.16

     nonloc. stress (kbar)  -5891.07      0.00      0.00
                                0.00  -6041.87      0.00
                                0.00      0.00  -6066.79

     hartree stress (kbar)  28783.99      0.00     -0.00
                                0.00  26411.80     -0.09
                               -0.00     -0.09  25246.73

     exc-cor stress (kbar)  -1187.77     -0.00      0.00
                               -0.00  -1191.84     -0.00
                                0.00     -0.00  -1188.58

     corecor stress (kbar)  -9083.90      0.00      0.00
                                0.00  -9090.19      0.00
                                0.00      0.00  -9084.16

     ewald   stress (kbar) -68861.40      0.00     -0.00
                                0.00 -70271.34      0.00
                               -0.00      0.00 -71733.22

     hubbard stress (kbar)      0.00      0.00      0.00
                                0.00      0.00      0.00
                                0.00      0.00      0.00

     DFT-D   stress (kbar)      0.00      0.00      0.00
                                0.00      0.00      0.00
                                0.00      0.00      0.00

     XDM     stress (kbar)      0.00      0.00      0.00
                                0.00      0.00      0.00
                                0.00      0.00      0.00

     dft-nl  stress (kbar)      0.00      0.00      0.00
                                0.00      0.00      0.00
                                0.00      0.00      0.00

     TS-vdW  stress (kbar)      0.00      0.00      0.00
                                0.00      0.00      0.00
                                0.00      0.00      0.00

[...]

                                0.00      0.00      0.00

     Writing all to output data dir calculations/myprefix.save/

     General routines

     Parallel routines

     PAW routines

   This run was terminated on:   8:33:32   6Mar2023

   JOB DONE.