     Program PWSCF v.7.0 starts on  6Mar2023 at 14:28:32

     R & G space division:  proc/nbgrp/npool/nimage =      32

     Reading input from espresso_4931.pwi
Warning: card &CELL ignored
Warning: card / ignored

     Current dimensions of program PWSCF are:
     Max number of different atomic species (ntypx) = 10
     Max number of k-points (npk) =  40000
     Max angular momentum in pseudopotentials (lmaxx) =  4
     file Mg.pbe-n-kjpaw_psl.0.3.0.UPF: wavefunction(s)  3S renormalized

     gamma-point specific algorithms are used

     Using Slab Decomposition

     bravais-lattice index     =            0
     lattice parameter (alat)  =      11.4053  a.u.
     unit-cell volume          =     999.3983 (a.u.)^3
     number of atoms/cell      =            6
     number of atomic types    =            2
     number of electrons       =        48.00
     number of Kohn-Sham states=           29
     kinetic-energy cutoff     =      30.0000  Ry
     charge density cutoff     =     240.0000  Ry
     scf convergence threshold =      1.0E-06
     mixing beta               =       0.7000
     number of iterations used =            8  plain     mixing
     Exchange-correlation= SLA  PW   PBE  PBE
                           (   1   4   3   4   0   0   0)

     celldm(1)=  11.405292  celldm(2)=   0.000000  celldm(3)=   0.000000
     celldm(4)=   0.000000  celldm(5)=   0.000000  celldm(6)=   0.000000

     crystal axes: (cart. coord. in units of alat)
               a(1) = (   1.000000   0.000000   0.000000 )
               a(2) = (   0.840322   0.542088   0.000000 )
               a(3) = (   0.434949   0.128119   1.242652 )

     reciprocal axes: (cart. coord. in units 2 pi/alat)
               b(1) = (  1.000000 -1.550157 -0.190193 )
               b(2) = (  0.000000  1.844719 -0.190193 )
               b(3) = (  0.000000  0.000000  0.804731 )

     PseudoPot. # 1 for Mg read from file:
     /home/pragov/projects/rrg-bengioy-ad/pragov/crystal_structure_design/SSSP/Mg.pbe-n-kjpaw_psl.0.3.0.UPF
     MD5 check sum: 24ecedc7f3e3cbe212e682f4413594e4
     Pseudo is Projector augmented-wave + core cor, Zval =  2.0
     Generated using "atomic" code by A. Dal Corso  v.5.0.99 svn rev. 10869
     Shape of augmentation charge: PSQ
     Using radial grid of 1129 points,  4 beta functions with:
                l(1) =   0
                l(2) =   0
                l(3) =   1
                l(4) =   1
     Q(r) pseudized with 0 coefficients

     PseudoPot. # 2 for Sn read from file:
     /home/pragov/projects/rrg-bengioy-ad/pragov/crystal_structure_design/SSSP/Sn_pbe_v1.uspp.F.UPF
     MD5 check sum: 4cf58ce39ec5d5d420df3dd08604eb00
     Pseudo is Ultrasoft + core correction, Zval = 14.0
     Generated by new atomic code, or converted to UPF format
     Using radial grid of  891 points,  6 beta functions with:
                l(1) =   0
                l(2) =   0
                l(3) =   1
                l(4) =   1
                l(5) =   2
                l(6) =   2
     Q(r) pseudized with  6 coefficients,  rinner =    1.200   1.200   1.200
                                                       1.200   1.200

     atomic species   valence    mass     pseudopotential
        Mg             2.00    24.30500     Mg( 1.00)
        Sn            14.00   118.71000     Sn( 1.00)

     No symmetry found

                                    s                        frac. trans.

      isym =  1     identity

 cryst.   s( 1) = (     1          0          0      )
                  (     0          1          0      )
                  (     0          0          1      )

 cart.    s( 1) = (  1.0000000  0.0000000 -0.0000000 )
                  (  0.0000000  1.0000000 -0.0000000 )
                  (  0.0000000  0.0000000  1.0000000 )

   Cartesian axes

     site n.     atom                  positions (alat units)
         1           Mg  tau(   1) = (   1.8198565   0.5360599   0.0044723  )
         2           Mg  tau(   2) = (   1.2448729   0.3666918   0.3419107  )
         3           Mg  tau(   3) = (   1.5348562   0.4521097   0.8260454  )
         4           Sn  tau(   4) = (   0.7534633   0.2219414   0.4066305  )
         5           Sn  tau(   5) = (   2.0332336   0.5989126   0.7654276  )
         6           Sn  tau(   6) = (   0.9006359   0.2652928   1.1763589  )

   Crystallographic axes

     site n.     atom                  positions (cryst. coord.)
         1           Mg  tau(   1) = (  0.9880290  0.9880290  0.0035990  )
         2           Mg  tau(   2) = (  0.6114140  0.6114140  0.2751460  )
         3           Mg  tau(   3) = (  0.6769070  0.6769070  0.6647440  )
         4           Sn  tau(   4) = (  0.3320810  0.3320810  0.3272280  )
         5           Sn  tau(   5) = (  0.9592460  0.9592460  0.6159630  )
         6           Sn  tau(   6) = (  0.2656550  0.2656550  0.9466520  )

     number of k points=     1  Methfessel-Paxton smearing, width (Ry)=  0.0010
                       cart. coord. in units 2pi/alat
        k(    1) = (   0.0000000   0.0000000   0.0000000), wk =   2.0000000

                       cryst. coord.
        k(    1) = (   0.0000000   0.0000000   0.0000000), wk =   2.0000000

     Initial potential from superposition of free atoms

     starting charge      44.9971, renormalised to      48.0000
     Starting wfcs are   39 randomized atomic wfcs
     Checking if some PAW data can be deallocated...

     Self-consistent Calculation

     iteration #  1     ecut=    30.00 Ry     beta= 0.70
     Davidson diagonalization with overlap

     ethr =  1.00E-02,  avg # of iterations =  3.0

     total energy              =    -589.54583082 Ry
     estimated scf accuracy    <       3.19546910 Ry

[...]

     total energy              =    -590.82543746 Ry
     estimated scf accuracy    <       0.00000120 Ry

     iteration # 10     ecut=    30.00 Ry     beta= 0.70
     Davidson diagonalization with overlap

     ethr =  2.51E-09,  avg # of iterations =  5.0

     End of self-consistent calculation

          k = 0.0000 0.0000 0.0000 (  1387 PWs)   bands (ev):

   -14.5354 -14.4203 -14.2959 -14.2774 -14.1890 -14.1597 -14.1405 -14.0408
   -13.9296 -13.8826 -13.8789 -13.8203 -13.6849 -13.5856 -13.5758  -2.4291
    -0.2787  -0.0458   3.8203   4.0878   4.2431   4.8294   8.2699   8.8612
     9.2270   9.3267  10.5622  10.7861  10.9944

     occupation numbers
     1.0000   1.0000   1.0000   1.0000   1.0000   1.0000   1.0000   1.0000
     1.0000   1.0000   1.0000   1.0000   1.0000   1.0000   1.0000   1.0000
     1.0000   1.0000   1.0000   1.0000   1.0000   1.0000   1.0000   1.0000
    -0.0000  -0.0000  -0.0000  -0.0000  -0.0000

     the Fermi energy is     9.1147 ev

!    total energy              =    -590.82543796 Ry
     estimated scf accuracy    <       0.00000004 Ry
     smearing contrib. (-TS)   =       0.00000000 Ry
     internal energy E=F+TS    =    -590.82543796 Ry

     The total energy is F=E-TS. E is the sum of the following terms:
     one-electron contribution =    -246.41876141 Ry
     hartree contribution      =     152.14018664 Ry
     xc contribution           =    -147.51385247 Ry
     ewald contribution        =    -255.16122651 Ry
     one-center paw contrib.   =     -93.87178421 Ry
      -> PAW hartree energy AE =       0.77631184 Ry
      -> PAW hartree energy PS =      -0.77444697 Ry
      -> PAW xc energy AE      =     -32.60378362 Ry
      -> PAW xc energy PS      =       1.30823621 Ry
      -> total E_H with PAW    =     152.14205151 Ry
      -> total E_XC with PAW   =    -178.80939988 Ry

     convergence has been achieved in  10 iterations

     Forces acting on atoms (cartesian axes, Ry/au):

     atom    1 type  1   force =     0.00836488    0.00246042   -0.00763396
     atom    2 type  1   force =    -0.00580110   -0.00171263    0.00207656
     atom    3 type  1   force =     0.03315413    0.00976103    0.01347978
     atom    4 type  2   force =     0.01801051    0.00530616    0.08760725
     atom    5 type  2   force =     0.01178824    0.00347334   -0.09595186
     atom    6 type  2   force =    -0.06551666   -0.01928832    0.00042223
     The non-local contrib.  to forces
     atom    1 type  1   force =    -0.01416854   -0.00417214    0.05617910
     atom    2 type  1   force =    -0.02426652   -0.00714850    0.03886815
     atom    3 type  1   force =     0.03512374    0.01034582    0.02822932
     atom    4 type  2   force =     0.11158009    0.03288227    0.24955899
     atom    5 type  2   force =     0.42529301    0.12528386   -0.36503571
     atom    6 type  2   force =    -0.29915703   -0.08811747    0.32578380
     The ionic contribution  to forces
     atom    1 type  1   force =     0.97111473    0.28605313   -0.23774278
     atom    2 type  1   force =    -0.34211977   -0.10077535   -0.34692737
     atom    3 type  1   force =    -0.65171487   -0.19197018    0.62899906
     atom    4 type  2   force =    -0.37755419   -0.11121297   -1.70109049
     atom    5 type  2   force =     5.78642607    1.70445902   -1.95685710
     atom    6 type  2   force =    -5.38615198   -1.58655363    3.61361869
     The local contribution  to forces
     atom    1 type  1   force =    -0.94970416   -0.27974690    0.17894906
     atom    2 type  1   force =     0.35815979    0.10550112    0.31375550
     atom    3 type  1   force =     0.65246072    0.19218984   -0.64071649
     atom    4 type  2   force =     0.28477062    0.08387305    1.54956116
     atom    5 type  2   force =    -6.18927848   -1.82313705    2.21597654
     atom    6 type  2   force =     5.61262169    1.65326045   -3.92873588
     The core correction contribution to forces
     atom    1 type  1   force =     0.00110442    0.00032518   -0.00504338
     atom    2 type  1   force =     0.00241273    0.00071076   -0.00355633
     atom    3 type  1   force =    -0.00274753   -0.00080930   -0.00305799
     atom    4 type  2   force =    -0.00090759   -0.00026763   -0.00986454
     atom    5 type  2   force =    -0.01024541   -0.00301906    0.00990119
     atom    6 type  2   force =     0.00702422    0.00206885   -0.01083099
     The Hubbard contrib.    to forces
     atom    1 type  1   force =     0.00000000    0.00000000    0.00000000
     atom    2 type  1   force =     0.00000000    0.00000000    0.00000000
     atom    3 type  1   force =     0.00000000    0.00000000    0.00000000
     atom    4 type  2   force =     0.00000000    0.00000000    0.00000000
     atom    5 type  2   force =     0.00000000    0.00000000    0.00000000
     atom    6 type  2   force =     0.00000000    0.00000000    0.00000000
     The SCF correction term to forces
     atom    1 type  1   force =     0.00000040    0.00000014    0.00002943
     atom    2 type  1   force =    -0.00000536   -0.00000168   -0.00005801
     atom    3 type  1   force =     0.00001403    0.00000384    0.00003126
     atom    4 type  2   force =     0.00010355    0.00003042   -0.00055248
     atom    5 type  2   force =    -0.00042498   -0.00011445    0.00006860
     atom    6 type  2   force =     0.00012841    0.00005246    0.00059200

     Total force =     0.153627     Total SCF correction =     0.000944

     Computing stress (Cartesian axis) and pressure

          total   stress  (Ry/bohr**3)                   (kbar)     P=      -47.01
   0.00149793   0.00182828  -0.00025121          220.35      268.95      -36.95
   0.00182828  -0.00417031  -0.00007400          268.95     -613.47      -10.89
  -0.00025121  -0.00007400   0.00171377          -36.95      -10.89      252.10

     kinetic stress (kbar)   6661.68    298.82    -16.82
                              298.82   5735.25     -4.95
                              -16.82     -4.95   6696.57

     local   stress (kbar)   5171.87   3822.93  -1959.40
                             3822.93  -6680.41   -577.17
                            -1959.40   -577.17  -2933.69

     nonloc. stress (kbar)   4051.94     67.45      6.31
                               67.45   3842.81      1.86
                                6.31      1.86   4113.31

     hartree stress (kbar)   4436.92  -1743.09    951.45
                            -1743.09   9841.05    280.26
                              951.45    280.26   8116.10

     exc-cor stress (kbar)   9155.16      1.93     -0.14
                                1.93   9149.18     -0.04
                               -0.14     -0.04   9156.23

     corecor stress (kbar) -13034.17     -3.48      0.20
                               -3.48 -13023.38      0.06
                                0.20      0.06 -13039.32

     ewald   stress (kbar) -16223.04  -2175.61    981.45
                            -2175.61  -9477.96    289.10
                              981.45    289.10 -11857.11

     hubbard stress (kbar)      0.00      0.00      0.00
                                0.00      0.00      0.00
                                0.00      0.00      0.00

     DFT-D   stress (kbar)      0.00      0.00      0.00
                                0.00      0.00      0.00
                                0.00      0.00      0.00

     XDM     stress (kbar)      0.00      0.00      0.00
                                0.00      0.00      0.00
                                0.00      0.00      0.00

     dft-nl  stress (kbar)      0.00      0.00      0.00
                                0.00      0.00      0.00
                                0.00      0.00      0.00

     TS-vdW  stress (kbar)      0.00      0.00      0.00
                                0.00      0.00      0.00
                                0.00      0.00      0.00

[...]

                                0.00      0.00      0.00

     Writing all to output data dir calculations/myprefix.save/

     General routines

     Parallel routines

     PAW routines

   This run was terminated on:  14:28:34   6Mar2023

   JOB DONE.