     Program PWSCF v.7.0 starts on  4Mar2023 at 18:57:54

     R & G space division:  proc/nbgrp/npool/nimage =      32

     Reading input from espresso_7308.pwi
Warning: card &CELL ignored
Warning: card / ignored

     Current dimensions of program PWSCF are:
     Max number of different atomic species (ntypx) = 10
     Max number of k-points (npk) =  40000
     Max angular momentum in pseudopotentials (lmaxx) =  4
     file Pb.pbe-dn-kjpaw_psl.0.2.2.UPF: wavefunction(s)  6S renormalized

     gamma-point specific algorithms are used
     Message from routine setup:
     using ibrav=0 with symmetry is DISCOURAGED, use correct ibrav instead

     Using Slab Decomposition

     bravais-lattice index     =            0
     lattice parameter (alat)  =      16.2420  a.u.
     unit-cell volume          =    3298.3658 (a.u.)^3
     number of atoms/cell      =           14
     number of atomic types    =            2
     number of electrons       =       172.00
     number of Kohn-Sham states=          103
     kinetic-energy cutoff     =      30.0000  Ry
     charge density cutoff     =     240.0000  Ry
     scf convergence threshold =      1.0E-06
     mixing beta               =       0.7000
     number of iterations used =            8  plain     mixing
     Exchange-correlation= SLA  PW   PBX  PBC
                           (   1   4   3   4   0   0   0)

     celldm(1)=  16.242027  celldm(2)=   0.000000  celldm(3)=   0.000000
     celldm(4)=   0.000000  celldm(5)=   0.000000  celldm(6)=   0.000000

     crystal axes: (cart. coord. in units of alat)
               a(1) = (   1.000000   0.000000   0.000000 )
               a(2) = (  -0.333333   0.942809   0.000000 )
               a(3) = (  -0.333333  -0.471405   0.816497 )

     reciprocal axes: (cart. coord. in units 2 pi/alat)
               b(1) = (  1.000000  0.353553  0.612372 )
               b(2) = (  0.000000  1.060660  0.612372 )
               b(3) = (  0.000000  0.000000  1.224745 )

     PseudoPot. # 1 for La read from file:
     /home/pragov/projects/rrg-bengioy-ad/pragov/crystal_structure_design/SSSP/La.GGA-PBE-paw-v1.0.UPF
     MD5 check sum: 436541e95c1ad8901025bd0b0ed42ae2
     Pseudo is Projector augmented-wave + core cor, Zval = 11.0
     Generated using ATOMPAW code
     Shape of augmentation charge: BESSEL
     Using radial grid of 1101 points,  8 beta functions with:
                l(1) =   0
                l(2) =   0
                l(3) =   1
                l(4) =   1
                l(5) =   2
                l(6) =   2
                l(7) =   3
                l(8) =   3
     Q(r) pseudized with 0 coefficients

     PseudoPot. # 2 for Pb read from file:
     /home/pragov/projects/rrg-bengioy-ad/pragov/crystal_structure_design/SSSP/Pb.pbe-dn-kjpaw_psl.0.2.2.UPF
     MD5 check sum: 9d431e6316058b74ade52399a6cf67da
     Pseudo is Projector augmented-wave + core cor, Zval = 14.0
     Generated using "atomic" code by A. Dal Corso  v.5.0.99 svn rev. 10869
     Shape of augmentation charge: PSQ
     Using radial grid of 1281 points,  6 beta functions with:
                l(1) =   0
                l(2) =   0
                l(3) =   1
                l(4) =   1
                l(5) =   2
                l(6) =   2
     Q(r) pseudized with 0 coefficients

     atomic species   valence    mass     pseudopotential
        La            11.00   138.90547     La( 1.00)
        Pb            14.00   207.20000     Pb( 1.00)

      2 Sym. Ops. (no inversion) found ( 1 have fractional translation)

                                    s                        frac. trans.

      isym =  1     identity

 cryst.   s( 1) = (     1          0          0      )
                  (     0          1          0      )
                  (     0          0          1      )

 cart.    s( 1) = (  1.0000000 -0.0000000 -0.0000000 )
                  (  0.0000000  1.0000000 -0.0000000 )
                  (  0.0000000  0.0000000  1.0000000 )

      isym =  2     inv. 180 deg rotation - cart. axis [0,0,1]

 cryst.   s( 2) = (     1          0          0      )    f =( -0.5000000 )
                  (     0          1          0      )       (  0.0000000 )
                  (    -1         -1         -1      )       (  0.0000000 )

 cart.    s( 2) = (  1.0000000 -0.0000000 -0.0000000 )    f =( -0.5000000 )
                  (  0.0000000  1.0000000 -0.0000000 )       (  0.0000000 )
                  (  0.0000000  0.0000000 -1.0000000 )       (  0.0000000 )

   Cartesian axes

     site n.     atom                  positions (alat units)
         1           La  tau(   1) = (   0.3808577  -0.1684927   0.2918379  )
         2           La  tau(   2) = (   0.2141910  -0.4041950   0.7000862  )
         3           La  tau(   3) = (   0.2141910   0.3029118   0.5246587  )
         4           La  tau(   4) = (   0.7141910   0.1012831   0.4082483  )
         5           La  tau(   5) = (   0.0475243   0.0672096   0.1164104  )
         6           La  tau(   6) = (   0.6907603   0.4714045   0.0000000  )
         7           La  tau(   7) = (   0.5475243   0.5726877   0.4082483  )
         8           La  tau(   8) = (   0.1907603   0.4714045   0.0000000  )
         9           Pb  tau(   9) = (  -0.4166667   0.2946278   0.7144345  )
        10           Pb  tau(  10) = (   0.5833333  -0.2357023   0.6123724  )
        11           Pb  tau(  11) = (   0.4166667   0.2357023   0.2041241  )
        12           Pb  tau(  12) = (   0.0833333  -0.0589256   0.5103104  )
        13           Pb  tau(  13) = (   0.4166667   0.7660323   0.1020621  )
        14           Pb  tau(  14) = (  -0.0833333   0.4124790   0.3061862  )

   Crystallographic axes

     site n.     atom                  positions (cryst. coord.)
         1           La  tau(   1) = (  0.5000000 -0.0000000  0.3574270  )
         2           La  tau(   2) = (  0.5000000  0.0000000  0.8574270  )
         3           La  tau(   3) = (  0.6425730  0.6425730  0.6425730  )
         4           La  tau(   4) = (  1.0000000  0.3574270  0.5000000  )
         5           La  tau(   5) = (  0.1425730  0.1425730  0.1425730  )
         6           La  tau(   6) = (  0.8574270  0.5000000  0.0000000  )
         7           La  tau(   7) = (  1.0000000  0.8574270  0.5000000  )
         8           La  tau(   8) = (  0.3574270  0.5000000  0.0000000  )
         9           Pb  tau(   9) = (  0.1250000  0.7500000  0.8750000  )
        10           Pb  tau(  10) = (  0.8750000  0.1250000  0.7500000  )
        11           Pb  tau(  11) = (  0.6250000  0.3750000  0.2500000  )
        12           Pb  tau(  12) = (  0.3750000  0.2500000  0.6250000  )
        13           Pb  tau(  13) = (  0.7500000  0.8750000  0.1250000  )
        14           Pb  tau(  14) = (  0.2500000  0.6250000  0.3750000  )

     number of k points=     1  Methfessel-Paxton smearing, width (Ry)=  0.0010
                       cart. coord. in units 2pi/alat
        k(    1) = (   0.0000000   0.0000000   0.0000000), wk =   2.0000000

                       cryst. coord.
        k(    1) = (   0.0000000   0.0000000   0.0000000), wk =   2.0000000

     Initial potential from superposition of free atoms

     starting charge     171.9176, renormalised to     172.0000
     Starting wfcs are  310 randomized atomic wfcs
     Checking if some PAW data can be deallocated...

     Self-consistent Calculation

     iteration #  1     ecut=    30.00 Ry     beta= 0.70
     Davidson diagonalization with overlap

     ethr =  1.00E-02,  avg # of iterations =  7.0

     Threshold (ethr) on eigenvalues was too large:
     Diagonalizing with lowered threshold

     Davidson diagonalization with overlap

[...]

     total energy              =   -8892.52082493 Ry
     estimated scf accuracy    <       0.23020687 Ry

[...]

     c_bands:  1 eigenvalues not converged
     ethr =  1.45E-05,  avg # of iterations = 20.0

[...]

     c_bands:  2 eigenvalues not converged
     ethr =  3.58E-07,  avg # of iterations = 20.0

[...]

     total energy              =   -8892.60652742 Ry
     estimated scf accuracy    <       0.00000930 Ry

     iteration # 14     ecut=    30.00 Ry     beta= 0.70
     Davidson diagonalization with overlap

     ethr =  5.40E-09,  avg # of iterations =  2.0

     End of self-consistent calculation

          k = 0.0000 0.0000 0.0000 (  4595 PWs)   bands (ev):

   -26.6532 -22.9819 -22.3939 -22.0536 -21.9839 -21.8455 -21.7367 -21.6563
   -10.8729  -7.8187  -7.3790  -6.7991  -6.2948  -6.1706  -6.1301  -6.0943
    -6.0541  -6.0097  -5.9821  -5.9531  -5.8914  -5.8671  -5.8187  -5.8133
    -5.7746  -5.7565  -5.7196  -5.6999  -5.6772  -5.6626  -5.6560  -5.6452
    -5.6301  -5.6146  -5.5917  -5.5783  -5.5556  -5.5511  -5.5398  -5.5269
    -5.5082  -5.5024  -5.4763  -5.4733  -5.4268  -5.3948  -5.3771  -5.3543
    -5.3462  -5.3195  -5.3041  -5.2636  -5.2575  -5.2258  -5.1598  -5.1338
    -5.1024  -4.9832  -4.9307  -4.8518  -4.7619  -3.8987   1.3873   1.8001
     2.4833   2.6722   2.6955   2.8492   6.5610   8.0032   8.1008   8.6598
     8.6960   8.9646   9.0212   9.2003   9.3419   9.3763   9.3891   9.4891
     9.5915   9.6387   9.9614  10.2317  10.6827  10.7321  10.8978  10.9765
    11.0249  11.1576  11.2644  11.2758  11.3834  11.6616  11.8767  12.2129
    12.2511  12.3244  12.4163  12.4714  12.4937  12.5309  12.5738

     occupation numbers
     1.0000   1.0000   1.0000   1.0000   1.0000   1.0000   1.0000   1.0000
     1.0000   1.0000   1.0000   1.0000   1.0000   1.0000   1.0000   1.0000
     1.0000   1.0000   1.0000   1.0000   1.0000   1.0000   1.0000   1.0000
     1.0000   1.0000   1.0000   1.0000   1.0000   1.0000   1.0000   1.0000
     1.0000   1.0000   1.0000   1.0000   1.0000   1.0000   1.0000   1.0000
     1.0000   1.0000   1.0000   1.0000   1.0000   1.0000   1.0000   1.0000
     1.0000   1.0000   1.0000   1.0000   1.0000   1.0000   1.0000   1.0000
     1.0000   1.0000   1.0000   1.0000   1.0000   1.0000   1.0000   1.0000
     1.0000   1.0000   1.0000   1.0000   1.0000   1.0000   1.0000   1.0000
     1.0000   1.0000   1.0000   1.0000   1.0000   1.0000   1.0000   1.0000
     1.0000   1.0000   1.0000   1.0000   1.0000   1.0000  -0.0000  -0.0000
    -0.0000  -0.0000  -0.0000  -0.0000  -0.0000  -0.0000  -0.0000  -0.0000
    -0.0000  -0.0000  -0.0000  -0.0000  -0.0000  -0.0000  -0.0000

     the Fermi energy is    10.8198 ev

!    total energy              =   -8892.60652873 Ry

     total all-electron energy =   -254253.777323 Ry
     estimated scf accuracy    <       0.00000097 Ry
     smearing contrib. (-TS)   =       0.00000000 Ry
     internal energy E=F+TS    =   -8892.60652873 Ry

     The total energy is F=E-TS. E is the sum of the following terms:
     one-electron contribution =    -266.21057188 Ry
     hartree contribution      =     250.33637986 Ry
     xc contribution           =    -336.14245414 Ry
     ewald contribution        =    -986.23340617 Ry
     one-center paw contrib.   =   -7554.35647639 Ry
      -> PAW hartree energy AE =      35.00185387 Ry
      -> PAW hartree energy PS =     -35.07197316 Ry
      -> PAW xc energy AE      =    -405.19690364 Ry
      -> PAW xc energy PS      =       7.25405723 Ry
      -> total E_H with PAW    =     250.26626057 Ry
      -> total E_XC with PAW   =    -734.08530055 Ry

     convergence has been achieved in  14 iterations

     Forces acting on atoms (cartesian axes, Ry/au):

     atom    1 type  1   force =     0.00407717    0.08981615    0.08379951
     atom    2 type  1   force =    -0.01564161   -0.14836542   -0.08570794
     atom    3 type  1   force =     0.00407717    0.08981615   -0.08379951
     atom    4 type  1   force =     0.02019482    0.00529863    0.01488220
     atom    5 type  1   force =    -0.01564161   -0.14836542    0.08570794
     atom    6 type  1   force =    -0.05011715    0.08104432    0.07552857
     atom    7 type  1   force =     0.02019482    0.00529863   -0.01488220
     atom    8 type  1   force =    -0.05011715    0.08104432   -0.07552857
     atom    9 type  2   force =     0.01407730   -0.04035800   -0.02430941
     atom   10 type  2   force =     0.01009916   -0.01986081   -0.05177282
     atom   11 type  2   force =     0.01009916   -0.01986081    0.05177282
     atom   12 type  2   force =     0.01731030    0.03242513   -0.04654640
     atom   13 type  2   force =     0.01407730   -0.04035800    0.02430941
     atom   14 type  2   force =     0.01731030    0.03242513    0.04654640
     The non-local contrib.  to forces
     atom    1 type  1   force =    -0.00498009    0.05390147    0.14275648
     atom    2 type  1   force =    -0.02872473   -0.11926988   -0.07683237
     atom    3 type  1   force =    -0.00498009    0.05390147   -0.14275648
     atom    4 type  1   force =    -0.03400754    0.02668580   -0.00059239
     atom    5 type  1   force =    -0.02872473   -0.11926988    0.07683237
     atom    6 type  1   force =     0.02109321    0.04924710    0.06369637
     atom    7 type  1   force =    -0.03400754    0.02668580    0.00059239
     atom    8 type  1   force =     0.02109321    0.04924710   -0.06369637
     atom    9 type  2   force =    -0.00496791    0.03014362    0.00306134
     atom   10 type  2   force =    -0.01006251    0.00818479   -0.01398059
     atom   11 type  2   force =    -0.01006251    0.00818479    0.01398059
     atom   12 type  2   force =     0.00510369   -0.01933287    0.06231866
     atom   13 type  2   force =    -0.00496791    0.03014362   -0.00306134
     atom   14 type  2   force =     0.00510369   -0.01933287   -0.06231866
     The ionic contribution  to forces
     atom    1 type  1   force =     0.18428750    0.26062188   -0.45141033
     atom    2 type  1   force =     0.18428750    0.26062188   -0.45141033
     atom    3 type  1   force =     0.18428750    0.26062188    0.45141033
     atom    4 type  1   force =     0.18428750   -0.52124375   -0.00000000
     atom    5 type  1   force =     0.18428750    0.26062188    0.45141033
     atom    6 type  1   force =    -0.55286249   -0.00000000   -0.00000000
     atom    7 type  1   force =     0.18428750   -0.52124375   -0.00000000
     atom    8 type  1   force =    -0.55286249    0.00000000   -0.00000000
     atom    9 type  2   force =     0.00000000   -0.00000000    0.00000000
     atom   10 type  2   force =    -0.00000000    0.00000000    0.00000000
     atom   11 type  2   force =     0.00000000    0.00000000    0.00000000
     atom   12 type  2   force =    -0.00000000    0.00000000    0.00000000
     atom   13 type  2   force =     0.00000000    0.00000000    0.00000000
     atom   14 type  2   force =     0.00000000    0.00000000   -0.00000000
     The local contribution  to forces
     atom    1 type  1   force =    -0.16999411   -0.21381447    0.36849728
     atom    2 type  1   force =    -0.18171398   -0.29871750    0.42567556
     atom    3 type  1   force =    -0.19427023   -0.24017637   -0.41689901
     atom    4 type  1   force =    -0.13397246    0.51297332    0.02234195
     atom    5 type  1   force =    -0.17545087   -0.28404804   -0.45995135
     atom    6 type  1   force =     0.51171149    0.05419890   -0.02847072
     atom    7 type  1   force =    -0.14157832    0.48231316   -0.00892653
     atom    8 type  1   force =     0.43697536    0.00457376   -0.05191567
     atom    9 type  2   force =    -0.02255260   -0.05582463   -0.03719653
     atom   10 type  2   force =     0.00812318   -0.04894488   -0.02869116
     atom   11 type  2   force =     0.01505368   -0.00944815    0.02953397
     atom   12 type  2   force =    -0.01032452    0.03424867   -0.08537419
     atom   13 type  2   force =     0.04304954   -0.06315181    0.01750547
     atom   14 type  2   force =     0.01440895    0.04099968    0.11497108
     The core correction contribution to forces
     atom    1 type  1   force =     0.00002700   -0.00002407   -0.00010760
     atom    2 type  1   force =    -0.00002700   -0.00000540   -0.00002836
     atom    3 type  1   force =     0.00003860    0.00002631    0.00009409
     atom    4 type  1   force =     0.00003358   -0.00002125    0.00000459
     atom    5 type  1   force =     0.00002227    0.00000295    0.00002074
     atom    6 type  1   force =    -0.00004309    0.00003120    0.00000697
     atom    7 type  1   force =     0.00003328   -0.00006988   -0.00000686
     atom    8 type  1   force =    -0.00005778    0.00004809    0.00002399
     atom    9 type  2   force =     0.00408137   -0.00673300   -0.00456805
     atom   10 type  2   force =    -0.00081455   -0.00368556   -0.00934060
     atom   11 type  2   force =     0.00364040    0.00303148    0.00768164
     atom   12 type  2   force =     0.00371245    0.00423068   -0.00412668
     atom   13 type  2   force =    -0.00154453   -0.02120525   -0.00416897
     atom   14 type  2   force =     0.00183587    0.01970549    0.01153403
     The Hubbard contrib.    to forces
     atom    1 type  1   force =     0.00000000    0.00000000    0.00000000
     atom    2 type  1   force =     0.00000000    0.00000000    0.00000000
     atom    3 type  1   force =     0.00000000    0.00000000    0.00000000
     atom    4 type  1   force =     0.00000000    0.00000000    0.00000000
     atom    5 type  1   force =     0.00000000    0.00000000    0.00000000
     atom    6 type  1   force =     0.00000000    0.00000000    0.00000000
     atom    7 type  1   force =     0.00000000    0.00000000    0.00000000
     atom    8 type  1   force =     0.00000000    0.00000000    0.00000000
     atom    9 type  2   force =     0.00000000    0.00000000    0.00000000
     atom   10 type  2   force =     0.00000000    0.00000000    0.00000000
     atom   11 type  2   force =     0.00000000    0.00000000    0.00000000
     atom   12 type  2   force =     0.00000000    0.00000000    0.00000000
     atom   13 type  2   force =     0.00000000    0.00000000    0.00000000
     atom   14 type  2   force =     0.00000000    0.00000000    0.00000000
     The SCF correction term to forces
     atom    1 type  1   force =    -0.00003999   -0.00058528    0.00008954
     atom    2 type  1   force =     0.00058250   -0.00067734   -0.00063790
     atom    3 type  1   force =    -0.00087736    0.00084212    0.00037743
     atom    4 type  1   force =     0.00032848    0.00031370   -0.00001583
     atom    5 type  1   force =    -0.00047729   -0.00030687   -0.00012963
     atom    6 type  1   force =    -0.00017732   -0.00018710    0.00009197
     atom    7 type  1   force =     0.00032954   -0.00011323    0.00031491
     atom    8 type  1   force =     0.00023999    0.00061224   -0.00014449
     atom    9 type  2   force =     0.00077666    0.00067594   -0.00041473
     atom   10 type  2   force =    -0.00076352   -0.00120780   -0.00044048
     atom   11 type  2   force =     0.00042852   -0.00015366   -0.00010338
     atom   12 type  2   force =    -0.00005863   -0.00028443    0.00008106
     atom   13 type  2   force =    -0.00037563    0.00091816   -0.00077431
     atom   14 type  2   force =     0.00018349    0.00029858    0.00180520

     Total force =     0.372191     Total SCF correction =     0.003635

     Computing stress (Cartesian axis) and pressure

          total   stress  (Ry/bohr**3)                   (kbar)     P=       80.50
  -0.00048927   0.00024267   0.00000000          -71.97       35.70        0.00
   0.00024267   0.00134271  -0.00000000           35.70      197.52       -0.00
   0.00000000  -0.00000000   0.00078833            0.00       -0.00      115.97

     kinetic stress (kbar)   9844.90     15.03     -0.00
                               15.03  10096.52     -0.00
                               -0.00     -0.00   9986.81

     local   stress (kbar)    -77.83     10.04    -12.76
                               10.04   -102.93     -5.63
                              -12.76     -5.63    -55.41

     nonloc. stress (kbar)   4227.57     10.15     -0.00
                               10.15   4258.32     -0.00
                               -0.00     -0.00   4256.23

     hartree stress (kbar)   3720.61     -0.41      3.93
                               -0.41   3730.41     -4.90
                                3.93     -4.90   3713.83

     exc-cor stress (kbar)   4563.75      0.15      0.21
                                0.15   4564.64     -0.03
                                0.21     -0.03   4563.94

     corecor stress (kbar)  -7689.18      0.74     -0.01
                                0.74  -7687.64     -0.46
                               -0.01     -0.46  -7687.63

     ewald   stress (kbar) -14661.80     -0.00     -0.00
                               -0.00 -14661.80     -0.00
                               -0.00     -0.00 -14661.80

     hubbard stress (kbar)      0.00      0.00      0.00
                                0.00      0.00      0.00
                                0.00      0.00      0.00

     DFT-D   stress (kbar)      0.00      0.00      0.00
                                0.00      0.00      0.00
                                0.00      0.00      0.00

     XDM     stress (kbar)      0.00      0.00      0.00
                                0.00      0.00      0.00
                                0.00      0.00      0.00

     dft-nl  stress (kbar)      0.00      0.00      0.00
                                0.00      0.00      0.00
                                0.00      0.00      0.00

     TS-vdW  stress (kbar)      0.00      0.00      0.00
                                0.00      0.00      0.00
                                0.00      0.00      0.00

[...]

                                0.00      0.00      0.00

     Writing all to output data dir calculations/myprefix.save/

     General routines

     Parallel routines

     PAW routines

   This run was terminated on:  18:58: 8   4Mar2023

   JOB DONE.