     Program PWSCF v.7.0 starts on  4Mar2023 at 18: 4:14

     R & G space division:  proc/nbgrp/npool/nimage =      32

     Reading input from espresso_7148.pwi
Warning: card &CELL ignored
Warning: card / ignored

     Current dimensions of program PWSCF are:
     Max number of different atomic species (ntypx) = 10
     Max number of k-points (npk) =  40000
     Max angular momentum in pseudopotentials (lmaxx) =  4

     gamma-point specific algorithms are used
     Message from routine setup:
     using ibrav=0 with symmetry is DISCOURAGED, use correct ibrav instead

     Using Slab Decomposition

     bravais-lattice index     =            0
     lattice parameter (alat)  =      12.0073  a.u.
     unit-cell volume          =    2638.6847 (a.u.)^3
     number of atoms/cell      =           16
     number of atomic types    =            4
     number of electrons       =       172.00
     number of Kohn-Sham states=          103
     kinetic-energy cutoff     =      30.0000  Ry
     charge density cutoff     =     240.0000  Ry
     scf convergence threshold =      1.0E-06
     mixing beta               =       0.7000
     number of iterations used =            8  plain     mixing
     Exchange-correlation= SLA  PW   PBE  PBE
                           (   1   4   3   4   0   0   0)

     celldm(1)=  12.007273  celldm(2)=   0.000000  celldm(3)=   0.000000
     celldm(4)=   0.000000  celldm(5)=   0.000000  celldm(6)=   0.000000

     crystal axes: (cart. coord. in units of alat)
               a(1) = (   1.000000   0.000000   0.000000 )
               a(2) = (  -0.457277   0.889324   0.000000 )
               a(3) = (   0.000000   0.000000   1.713934 )

     reciprocal axes: (cart. coord. in units 2 pi/alat)
               b(1) = (  1.000000  0.514185  0.000000 )
               b(2) = (  0.000000  1.124449  0.000000 )
               b(3) = (  0.000000  0.000000  0.583453 )

     PseudoPot. # 1 for Sr read from file:
     /home/pragov/projects/rrg-bengioy-ad/pragov/crystal_structure_design/SSSP/Sr_pbe_v1.uspp.F.UPF
     MD5 check sum: 6b418c05fbe9db5448babca5e47b7a5b
     Pseudo is Ultrasoft + core correction, Zval = 10.0
     Generated by new atomic code, or converted to UPF format
     Using radial grid of  883 points,  6 beta functions with:
                l(1) =   0
                l(2) =   0
                l(3) =   1
                l(4) =   1
                l(5) =   2
                l(6) =   2
     Q(r) pseudized with  6 coefficients,  rinner =    1.400   1.400   1.400
                                                       1.400   1.400

     PseudoPot. # 2 for Cu read from file:
     /home/pragov/projects/rrg-bengioy-ad/pragov/crystal_structure_design/SSSP/Cu_pbe_v1.2.uspp.F.UPF
     MD5 check sum: 6e991ff952a84172a2a52a1c1e996048
     Pseudo is Ultrasoft + core correction, Zval = 19.0
     Generated by new atomic code, or converted to UPF format
     Using radial grid of  867 points,  6 beta functions with:
                l(1) =   0
                l(2) =   0
                l(3) =   1
                l(4) =   1
                l(5) =   2
                l(6) =   2
     Q(r) pseudized with  8 coefficients,  rinner =    1.150   1.150   1.150
                                                       1.150   1.150

     PseudoPot. # 3 for Ge read from file:
     /home/pragov/projects/rrg-bengioy-ad/pragov/crystal_structure_design/SSSP/ge_pbe_v1.4.uspp.F.UPF
     MD5 check sum: 9c9eaa91e581c3f09632fb3098b2c6b2
     Pseudo is Ultrasoft + core correction, Zval = 14.0
     Generated by new atomic code, or converted to UPF format
     Using radial grid of  873 points,  6 beta functions with:
                l(1) =   0
                l(2) =   0
                l(3) =   1
                l(4) =   1
                l(5) =   2
                l(6) =   2
     Q(r) pseudized with  8 coefficients,  rinner =    1.400   1.400   1.400
                                                       1.400   1.400

     PseudoPot. # 4 for Se read from file:
     /home/pragov/projects/rrg-bengioy-ad/pragov/crystal_structure_design/SSSP/Se_pbe_v1.uspp.F.UPF
     MD5 check sum: 1b3568f3a8ae88f9a2a0ad0698632c85
     Pseudo is Ultrasoft + core correction, Zval =  6.0
     Generated by new atomic code, or converted to UPF format
     Using radial grid of  877 points,  6 beta functions with:
                l(1) =   0
                l(2) =   0
                l(3) =   1
                l(4) =   1
                l(5) =   2
                l(6) =   2
     Q(r) pseudized with  8 coefficients,  rinner =    1.300   1.300   1.300
                                                       1.300   1.300

     atomic species   valence    mass     pseudopotential
        Sr            10.00    87.62000     Sr( 1.00)
        Cu            19.00    63.54600     Cu( 1.00)
        Ge            14.00    72.63000     Ge( 1.00)
        Se             6.00    78.97100     Se( 1.00)

      2 Sym. Ops. (no inversion) found ( 1 have fractional translation)

                                    s                        frac. trans.

      isym =  1     identity

 cryst.   s( 1) = (     1          0          0      )
                  (     0          1          0      )
                  (     0          0          1      )

 cart.    s( 1) = (  1.0000000  0.0000000  0.0000000 )
                  (  0.0000000  1.0000000  0.0000000 )
                  (  0.0000000  0.0000000  1.0000000 )

      isym =  2     inv. 180 deg rotation - cart. axis [0,0,1]

 cryst.   s( 2) = (     1          0          0      )    f =(  0.0000000 )
                  (     0          1          0      )       (  0.0000000 )
                  (     0          0         -1      )       (  0.5000000 )

 cart.    s( 2) = (  1.0000000  0.0000000  0.0000000 )    f =(  0.0000000 )
                  (  0.0000000  1.0000000  0.0000000 )       (  0.0000000 )
                  (  0.0000000  0.0000000 -1.0000000 )       (  0.8569672 )

   Cartesian axes

     site n.     atom                  positions (alat units)
         1           Sr  tau(   1) = (   0.0068209   0.0111770   0.8569672  )
         2           Sr  tau(   2) = (   0.0068209   0.0111770   0.0000000  )
         3           Cu  tau(   3) = (   0.5440600   0.1701197   1.0794736  )
         4           Cu  tau(   4) = (  -0.0974946   0.5616376   0.6344608  )
         5           Cu  tau(   5) = (  -0.0974946   0.5616376   0.2225064  )
         6           Cu  tau(   6) = (   0.5440600   0.1701197   1.4914281  )
         7           Ge  tau(   7) = (   0.0082152   0.4967588   1.2854508  )
         8           Ge  tau(   8) = (   0.4380230   0.2344623   0.4284836  )
         9           Se  tau(   9) = (   0.2122068   0.1754237   1.2854508  )
        10           Se  tau(  10) = (   0.0589712   0.2689379   0.4284836  )
        11           Se  tau(  11) = (  -0.2273686   0.4630720   0.9869400  )
        12           Se  tau(  12) = (   0.5157917   0.0095478   0.7269944  )
        13           Se  tau(  13) = (  -0.2273686   0.4630720   1.5839617  )
        14           Se  tau(  14) = (   0.5157917   0.0095478   0.1299728  )
        15           Se  tau(  15) = (   0.5698317   0.5907550   0.4284836  )
        16           Se  tau(  16) = (   0.2648018   0.7769039   1.2854508  )

   Crystallographic axes

     site n.     atom                  positions (cryst. coord.)
         1           Sr  tau(   1) = (  0.0125680  0.0125680  0.5000000  )
         2           Sr  tau(   2) = (  0.0125680  0.0125680  0.0000000  )
         3           Cu  tau(   3) = (  0.6315330  0.1912910  0.6298220  )
         4           Cu  tau(   4) = (  0.1912910  0.6315330  0.3701780  )
         5           Cu  tau(   5) = (  0.1912910  0.6315330  0.1298220  )
         6           Cu  tau(   6) = (  0.6315330  0.1912910  0.8701780  )
         7           Ge  tau(   7) = (  0.2636410  0.5585800  0.7500000  )
         8           Ge  tau(   8) = (  0.5585800  0.2636410  0.2500000  )
         9           Se  tau(   9) = (  0.3024070  0.1972550  0.7500000  )
        10           Se  tau(  10) = (  0.1972550  0.3024070  0.2500000  )
        11           Se  tau(  11) = (  0.0107360  0.5207010  0.5758330  )
        12           Se  tau(  12) = (  0.5207010  0.0107360  0.4241670  )
        13           Se  tau(  13) = (  0.0107360  0.5207010  0.9241670  )
        14           Se  tau(  14) = (  0.5207010  0.0107360  0.0758330  )
        15           Se  tau(  15) = (  0.8735890  0.6642740  0.2500000  )
        16           Se  tau(  16) = (  0.6642740  0.8735890  0.7500000  )

     number of k points=     1  Methfessel-Paxton smearing, width (Ry)=  0.0010
                       cart. coord. in units 2pi/alat
        k(    1) = (   0.0000000   0.0000000   0.0000000), wk =   2.0000000

                       cryst. coord.
        k(    1) = (   0.0000000   0.0000000   0.0000000), wk =   2.0000000

     Check: negative core charge=   -0.000001

     Initial potential from superposition of free atoms

     starting charge     167.9304, renormalised to     172.0000

     negative rho (up, down):  1.319E-01 0.000E+00
     Starting wfcs are  128 randomized atomic wfcs

     Self-consistent Calculation

     iteration #  1     ecut=    30.00 Ry     beta= 0.70
     Davidson diagonalization with overlap

     ethr =  1.00E-02,  avg # of iterations =  3.0

     negative rho (up, down):  1.301E-01 0.000E+00

     total energy              =   -2529.53797292 Ry
     estimated scf accuracy    <       4.47456597 Ry

[...]

     total energy              =   -2531.96545860 Ry
     estimated scf accuracy    <       0.00000333 Ry

     iteration # 16     ecut=    30.00 Ry     beta= 0.70
     Davidson diagonalization with overlap

     ethr =  1.93E-09,  avg # of iterations =  5.0

[...]

     End of self-consistent calculation

          k = 0.0000 0.0000 0.0000 (  3665 PWs)   bands (ev):

  -104.6255-104.6253-104.6238-104.6230 -62.0766 -62.0740 -62.0582 -62.0579
   -62.0099 -62.0083 -62.0041 -62.0030 -61.9948 -61.9945 -61.9896 -61.9896
   -28.4708 -28.4706 -18.5741 -18.5734 -18.5638 -18.5621 -18.5528 -18.5520
   -18.5413 -18.5403 -18.5319 -18.5285 -10.5372 -10.5271 -10.5258 -10.4801
   -10.4751 -10.4698  -7.2108  -6.8823  -6.0049  -5.8878  -5.8459  -5.7429
    -5.7275  -5.5257  -1.4824  -1.2017   1.7091   1.7853   1.9884   2.2954
     2.3784   2.6615   2.7168   2.9914   3.1351   3.2505   3.6150   3.6251
     3.8639   3.9309   4.0519   4.0985   4.1001   4.1864   4.2729   4.3524
     4.5061   4.9101   4.9791   4.9883   5.0971   5.1523   5.4096   5.4388
     5.4769   5.4857   5.5175   5.5975   5.6069   5.6133   5.9607   5.9610
     6.0459   6.3242   6.8316   6.8468   6.9587   6.9798   7.6085   8.3797
     9.0464   9.6748  10.0626  10.1127  10.3849  10.4202  10.5231  10.8194
    11.0083  11.1248  11.2355  11.4689  11.4857  11.5224  11.5500

     occupation numbers
     1.0000   1.0000   1.0000   1.0000   1.0000   1.0000   1.0000   1.0000
     1.0000   1.0000   1.0000   1.0000   1.0000   1.0000   1.0000   1.0000
     1.0000   1.0000   1.0000   1.0000   1.0000   1.0000   1.0000   1.0000
     1.0000   1.0000   1.0000   1.0000   1.0000   1.0000   1.0000   1.0000
     1.0000   1.0000   1.0000   1.0000   1.0000   1.0000   1.0000   1.0000
     1.0000   1.0000   1.0000   1.0000   1.0000   1.0000   1.0000   1.0000
     1.0000   1.0000   1.0000   1.0000   1.0000   1.0000   1.0000   1.0000
     1.0000   1.0000   1.0000   1.0000   1.0000   1.0000   1.0000   1.0000
     1.0000   1.0000   1.0000   1.0000   1.0000   1.0000   1.0000   1.0000
     1.0000   1.0000   1.0000   1.0000   1.0000   1.0000   1.0000   1.0000
     1.0000   1.0000   1.0000   1.0000   1.0000   1.0000  -0.0000  -0.0000
    -0.0000  -0.0000  -0.0000  -0.0000  -0.0000  -0.0000  -0.0000  -0.0000
    -0.0000  -0.0000  -0.0000  -0.0000  -0.0000  -0.0000  -0.0000

     the Fermi energy is     7.1374 ev

!    total energy              =   -2531.96545924 Ry
     estimated scf accuracy    <       0.00000095 Ry
     smearing contrib. (-TS)   =       0.00000000 Ry
     internal energy E=F+TS    =   -2531.96545924 Ry

     The total energy is F=E-TS. E is the sum of the following terms:
     one-electron contribution =   -2143.17916348 Ry
     hartree contribution      =    1149.02315708 Ry
     xc contribution           =    -546.36036989 Ry
     ewald contribution        =    -991.44908294 Ry

     convergence has been achieved in  16 iterations

     negative rho (up, down):  1.346E-01 0.000E+00

     Forces acting on atoms (cartesian axes, Ry/au):

     atom    1 type  1   force =    -0.00231677   -0.00380340   -0.00000314
     atom    2 type  1   force =    -0.00231677   -0.00380340    0.00000314
     atom    3 type  2   force =    -0.00579042    0.00239394   -0.00633340
     atom    4 type  2   force =     0.00459348   -0.00422946    0.00614329
     atom    5 type  2   force =     0.00459348   -0.00422946   -0.00614329
     atom    6 type  2   force =    -0.00579042    0.00239394    0.00633340
     atom    7 type  3   force =    -0.01187037    0.02137538    0.00000000
     atom    8 type  3   force =     0.02453374   -0.00077099    0.00000000
     atom    9 type  4   force =     0.00079980   -0.00133864    0.00000000
     atom   10 type  4   force =    -0.00155049    0.00009768    0.00000000
     atom   11 type  4   force =    -0.00006036    0.00415860    0.01336703
     atom   12 type  4   force =     0.00373405    0.00183462   -0.01336101
     atom   13 type  4   force =    -0.00006036    0.00415860   -0.01336703
     atom   14 type  4   force =     0.00373405    0.00183462    0.01336101
     atom   15 type  4   force =    -0.03599171    0.00819879    0.00000000
     atom   16 type  4   force =     0.02375908   -0.02827080    0.00000000
     The non-local contrib.  to forces
     atom    1 type  1   force =     0.00739735    0.01212104    0.00002396
     atom    2 type  1   force =     0.00739735    0.01212104   -0.00002396
     atom    3 type  2   force =    -0.15739455   -0.02925378   -0.03764014
     atom    4 type  2   force =     0.04584238   -0.15346309    0.03749386
     atom    5 type  2   force =     0.04584238   -0.15346309   -0.03749386
     atom    6 type  2   force =    -0.15739455   -0.02925378    0.03764014
     atom    7 type  3   force =     0.05529693    0.00720954    0.00000000
     atom    8 type  3   force =    -0.01879565    0.05243653    0.00000000
     atom    9 type  4   force =     0.09377677    0.26447083    0.00000000
     atom   10 type  4   force =     0.19235380    0.20429760    0.00000000
     atom   11 type  4   force =     0.14956299   -0.01244858    0.04512627
     atom   12 type  4   force =    -0.07943364    0.12733026   -0.04512084
     atom   13 type  4   force =     0.14956299   -0.01244858   -0.04512627
     atom   14 type  4   force =    -0.07943364    0.12733026    0.04512084
     atom   15 type  4   force =     0.17219633   -0.32170827    0.00000000
     atom   16 type  4   force =    -0.36477171    0.00601334    0.00000000
     The ionic contribution  to forces
     atom    1 type  1   force =    -1.35161606   -2.21480417    0.00000000
     atom    2 type  1   force =    -1.35161606   -2.21480417   -0.00000000
     atom    3 type  2   force =    -3.45624406    3.72793943  -16.77185123
     atom    4 type  2   force =     4.89580824   -1.36902047   16.77185123
     atom    5 type  2   force =     4.89580824   -1.36902047  -16.77185123
     atom    6 type  2   force =    -3.45624406    3.72793943   16.77185123
     atom    7 type  3   force =     2.97129257    0.93311562   -0.00000000
     atom    8 type  3   force =    -0.52886163    3.06913500   -0.00000000
     atom    9 type  4   force =    -7.51125967   -2.81175994   -0.00000000
     atom   10 type  4   force =     0.93416055   -7.96569895   -0.00000000
     atom   11 type  4   force =    -1.42339830    3.66596300    0.43388511
     atom   12 type  4   force =     3.91111732    0.41049821   -0.43388511
     atom   13 type  4   force =    -1.42339830    3.66596300   -0.43388511
     atom   14 type  4   force =     3.91111732    0.41049821    0.43388511
     atom   15 type  4   force =   -10.32989005    5.16077440   -0.00000000
     atom   16 type  4   force =     9.31322396   -6.82671811   -0.00000000
     The local contribution  to forces
     atom    1 type  1   force =     1.34248160    2.19981378    0.00006056
     atom    2 type  1   force =     1.34245736    2.19983910   -0.00015946
     atom    3 type  2   force =     3.60747058   -3.69656801   16.80344002
     atom    4 type  2   force =    -4.93670039    1.51808408  -16.80297066
     atom    5 type  2   force =    -4.93671924    1.51810969   16.80347142
     atom    6 type  2   force =     3.60745468   -3.69653686  -16.80358655
     atom    7 type  3   force =    -3.03781706   -0.91712054   -0.00008538
     atom    8 type  3   force =     0.57340316   -3.12102278    0.00006685
     atom    9 type  4   force =     7.43125072    2.57678343   -0.00003173
     atom   10 type  4   force =    -1.10659551    7.78720132    0.00009098
     atom   11 type  4   force =     1.29081109   -3.65062644   -0.46139581
     atom   12 type  4   force =    -3.83689940   -0.52161456    0.46150486
     atom   13 type  4   force =     1.29079276   -3.65064031    0.46126014
     atom   14 type  4   force =    -3.83686459   -0.52147754   -0.46146317
     atom   15 type  4   force =    10.14314247   -4.86869804    0.00011813
     atom   16 type  4   force =    -8.96817742    6.79417047   -0.00006087
     The core correction contribution to forces
     atom    1 type  1   force =    -0.00054854   -0.00089852   -0.00000146
     atom    2 type  1   force =    -0.00054858   -0.00089893    0.00000030
     atom    3 type  2   force =     0.00016719    0.00005170    0.00002685
     atom    4 type  2   force =    -0.00003065    0.00017239   -0.00002696
     atom    5 type  2   force =    -0.00003057    0.00017235    0.00002684
     atom    6 type  2   force =     0.00016724    0.00005188   -0.00002699
     atom    7 type  3   force =    -0.00043587   -0.00179128    0.00000042
     atom    8 type  3   force =    -0.00139582   -0.00120197   -0.00000064
     atom    9 type  4   force =    -0.01314005   -0.03078212    0.00000040
     atom   10 type  4   force =    -0.02137160   -0.02575589   -0.00000007
     atom   11 type  4   force =    -0.01691867    0.00133984   -0.00413303
     atom   12 type  4   force =     0.00892353   -0.01444126    0.00413196
     atom   13 type  4   force =    -0.01692001    0.00133899    0.00413060
     atom   14 type  4   force =     0.00892512   -0.01443439   -0.00413247
     atom   15 type  4   force =    -0.02158760    0.03782266    0.00000366
     atom   16 type  4   force =     0.04349806   -0.00190184   -0.00000130
     The Hubbard contrib.    to forces
     atom    1 type  1   force =     0.00000000    0.00000000    0.00000000
     atom    2 type  1   force =     0.00000000    0.00000000    0.00000000
     atom    3 type  2   force =     0.00000000    0.00000000    0.00000000
     atom    4 type  2   force =     0.00000000    0.00000000    0.00000000
     atom    5 type  2   force =     0.00000000    0.00000000    0.00000000
     atom    6 type  2   force =     0.00000000    0.00000000    0.00000000
     atom    7 type  3   force =     0.00000000    0.00000000    0.00000000
     atom    8 type  3   force =     0.00000000    0.00000000    0.00000000
     atom    9 type  4   force =     0.00000000    0.00000000    0.00000000
     atom   10 type  4   force =     0.00000000    0.00000000    0.00000000
     atom   11 type  4   force =     0.00000000    0.00000000    0.00000000
     atom   12 type  4   force =     0.00000000    0.00000000    0.00000000
     atom   13 type  4   force =     0.00000000    0.00000000    0.00000000
     atom   14 type  4   force =     0.00000000    0.00000000    0.00000000
     atom   15 type  4   force =     0.00000000    0.00000000    0.00000000
     atom   16 type  4   force =     0.00000000    0.00000000    0.00000000
     The SCF correction term to forces
     atom    1 type  1   force =    -0.00003339   -0.00003631   -0.00010103
     atom    2 type  1   force =    -0.00001440   -0.00005841    0.00017145
     atom    3 type  2   force =     0.00019473    0.00022995   -0.00035260
     atom    4 type  2   force =    -0.00034950   -0.00000580   -0.00025101
     atom    5 type  2   force =    -0.00029380   -0.00002326   -0.00034327
     atom    6 type  2   force =     0.00023211    0.00018915    0.00041186
     atom    7 type  3   force =    -0.00021186   -0.00003733    0.00010124
     atom    8 type  3   force =     0.00017876   -0.00011716   -0.00006519
     atom    9 type  4   force =     0.00016711   -0.00005022    0.00004413
     atom   10 type  4   force =    -0.00010265    0.00005422   -0.00009302
     atom   11 type  4   force =    -0.00011773   -0.00006228   -0.00012379
     atom   12 type  4   force =     0.00001621    0.00003725    0.00000026
     atom   13 type  4   force =    -0.00010738   -0.00006019    0.00024534
     atom   14 type  4   force =    -0.00000996   -0.00005596   -0.00005717
     atom   15 type  4   force =     0.00014222    0.00000866   -0.00010079
     atom   16 type  4   force =    -0.00001874    0.00016597    0.00005863

     Total force =     0.071183     Total SCF correction =     0.001118

     Computing stress (Cartesian axis) and pressure

     negative rho (up, down):  1.346E-01 0.000E+00
          total   stress  (Ry/bohr**3)                   (kbar)     P=     -156.00
  -0.00103809  -0.00012388   0.00000000         -152.71      -18.22        0.00
  -0.00012388  -0.00116547   0.00000000          -18.22     -171.45        0.00
   0.00000000   0.00000000  -0.00097788            0.00        0.00     -143.85

     kinetic stress (kbar)  10842.20    -45.10      0.00
                              -45.10  10795.82      0.00
                                0.00      0.00  10818.50

     local   stress (kbar)  -8006.29  -5472.80      0.01
                            -5472.80 -13634.42      0.00
                                0.01      0.00 -30224.69

     nonloc. stress (kbar)   8689.52     -9.57      0.00
                               -9.57   8679.68      0.00
                                0.00      0.00   8665.93

     hartree stress (kbar)  17033.88   2578.70     -0.01
                             2578.70  19685.80     -0.00
                               -0.01     -0.00  27337.66

     exc-cor stress (kbar)  10527.00      0.63      0.00
                                0.63  10527.65     -0.00
                                0.00     -0.00  10529.39

     corecor stress (kbar) -15821.80      1.20     -0.00
                                1.20 -15820.56     -0.00
                               -0.00     -0.00 -15820.60

     ewald   stress (kbar) -23417.22   2928.72     -0.00
                             2928.72 -20405.42     -0.00
                               -0.00     -0.00 -11450.05

     hubbard stress (kbar)      0.00      0.00      0.00
                                0.00      0.00      0.00
                                0.00      0.00      0.00

     DFT-D   stress (kbar)      0.00      0.00      0.00
                                0.00      0.00      0.00
                                0.00      0.00      0.00

     XDM     stress (kbar)      0.00      0.00      0.00
                                0.00      0.00      0.00
                                0.00      0.00      0.00

     dft-nl  stress (kbar)      0.00      0.00      0.00
                                0.00      0.00      0.00
                                0.00      0.00      0.00

     TS-vdW  stress (kbar)      0.00      0.00      0.00
                                0.00      0.00      0.00
                                0.00      0.00      0.00

[...]

                                0.00      0.00      0.00

     Writing all to output data dir calculations/myprefix.save/

     General routines

     Parallel routines

   This run was terminated on:  18: 4:19   4Mar2023

   JOB DONE.