     Program PWSCF v.7.0 starts on  3Mar2023 at  2:10:22

     R & G space division:  proc/nbgrp/npool/nimage =      32

     Reading input from espresso_2006.pwi
Warning: card &CELL ignored
Warning: card / ignored

     Current dimensions of program PWSCF are:
     Max number of different atomic species (ntypx) = 10
     Max number of k-points (npk) =  40000
     Max angular momentum in pseudopotentials (lmaxx) =  4
     file Nb.pbe-spn-kjpaw_psl.0.3.0.UPF: wavefunction(s)  4S 4P renormalized
     file In.pbe-dn-rrkjus_psl.0.2.2.UPF: wavefunction(s)  5S renormalized
     file C.pbe-n-kjpaw_psl.1.0.0.UPF: wavefunction(s)  2S 2P renormalized

     gamma-point specific algorithms are used
     Message from routine setup:
     using ibrav=0 with symmetry is DISCOURAGED, use correct ibrav instead

     Using Slab Decomposition

     bravais-lattice index     =            0
     lattice parameter (alat)  =       6.0526  a.u.
     unit-cell volume          =     870.3605 (a.u.)^3
     number of atoms/cell      =            8
     number of atomic types    =            3
     number of electrons       =        86.00
     number of Kohn-Sham states=           52
     kinetic-energy cutoff     =      30.0000  Ry
     charge density cutoff     =     240.0000  Ry
     scf convergence threshold =      1.0E-06
     mixing beta               =       0.7000
     number of iterations used =            8  plain     mixing
     Exchange-correlation= SLA  PW   PBX  PBC
                           (   1   4   3   4   0   0   0)

     celldm(1)=   6.052635  celldm(2)=   0.000000  celldm(3)=   0.000000
     celldm(4)=   0.000000  celldm(5)=   0.000000  celldm(6)=   0.000000

     crystal axes: (cart. coord. in units of alat)
               a(1) = (   1.000000   0.000000   0.000000 )
               a(2) = (  -0.500000   0.866025   0.000000 )
               a(3) = (   0.000000   0.000000   4.532472 )

     reciprocal axes: (cart. coord. in units 2 pi/alat)
               b(1) = (  1.000000  0.577350  0.000000 )
               b(2) = (  0.000000  1.154701  0.000000 )
               b(3) = (  0.000000  0.000000  0.220630 )

     PseudoPot. # 1 for Nb read from file:
     /home/pragov/projects/rrg-bengioy-ad/pragov/crystal_structure_design/SSSP/Nb.pbe-spn-kjpaw_psl.0.3.0.UPF
     MD5 check sum: 411d72ad547312f8017e2943ceca08cc
     Pseudo is Projector augmented-wave + core cor, Zval = 13.0
     Generated using "atomic" code by A. Dal Corso  v.5.0.99 svn rev. 10869
     Shape of augmentation charge: PSQ
     Using radial grid of 1227 points,  6 beta functions with:
                l(1) =   0
                l(2) =   0
                l(3) =   1
                l(4) =   1
                l(5) =   2
                l(6) =   2
     Q(r) pseudized with 0 coefficients

     PseudoPot. # 2 for In read from file:
     /home/pragov/projects/rrg-bengioy-ad/pragov/crystal_structure_design/SSSP/In.pbe-dn-rrkjus_psl.0.2.2.UPF
     MD5 check sum: 25e7c42c3b55b68f4bf926be2e7201a4
     Pseudo is Ultrasoft + core correction, Zval = 13.0
     Generated using "atomic" code by A. Dal Corso  v.5.0.99 svn rev. 10869
     Using radial grid of 1241 points,  6 beta functions with:
                l(1) =   0
                l(2) =   0
                l(3) =   1
                l(4) =   1
                l(5) =   2
                l(6) =   2
     Q(r) pseudized with 0 coefficients

     PseudoPot. # 3 for C  read from file:
     /home/pragov/projects/rrg-bengioy-ad/pragov/crystal_structure_design/SSSP/C.pbe-n-kjpaw_psl.1.0.0.UPF
     MD5 check sum: 5d2aebdfa2cae82b50a7e79e9516da0f
     Pseudo is Projector augmented-wave + core cor, Zval =  4.0
     Generated using "atomic" code by A. Dal Corso  v.5.1
     Shape of augmentation charge: PSQ
     Using radial grid of 1073 points,  4 beta functions with:
                l(1) =   0
                l(2) =   0
                l(3) =   1
                l(4) =   1
     Q(r) pseudized with 0 coefficients

     atomic species   valence    mass     pseudopotential
        Nb            13.00    92.90637     Nb( 1.00)
        In            13.00   114.81800     In( 1.00)
        C              4.00    12.01100     C ( 1.00)

     24 Sym. Ops., with inversion, found (12 have fractional translation)

                                    s                        frac. trans.

      isym =  1     identity

 cryst.   s( 1) = (     1          0          0      )
                  (     0          1          0      )
                  (     0          0          1      )

 cart.    s( 1) = (  1.0000000  0.0000000  0.0000000 )
                  (  0.0000000  1.0000000  0.0000000 )
                  (  0.0000000  0.0000000  1.0000000 )

      isym =  2     180 deg rotation - cart. axis [0,0,1]

 cryst.   s( 2) = (    -1          0          0      )    f =( -0.0000000 )
                  (     0         -1          0      )       ( -0.0000000 )
                  (     0          0          1      )       ( -0.5000000 )

 cart.    s( 2) = ( -1.0000000 -0.0000000  0.0000000 )    f =( -0.0000000 )
                  (  0.0000000 -1.0000000  0.0000000 )       ( -0.0000000 )
                  (  0.0000000  0.0000000  1.0000000 )       ( -2.2662362 )

[...]

      isym =  4     180 deg rotation - cart. axis [1,0,0]

[...]

      isym =  5      60 deg rotation - cryst. axis [0,0,1]

[...]

 cryst.   s( 8) = (    -1         -1          0      )
                  (     1          0          0      )
                  (     0          0          1      )

 cart.    s( 8) = ( -0.4999999  0.8660255  0.0000000 )
                  ( -0.8660253 -0.5000001  0.0000000 )
                  (  0.0000000  0.0000000  1.0000000 )

[...]

 cryst.   s( 9) = (     0         -1          0      )    f =( -0.0000000 )
                  (    -1          0          0      )       ( -0.0000000 )
                  (     0          0         -1      )       (  0.5000000 )

 cart.    s( 9) = (  0.5000001 -0.8660253  0.0000000 )    f =( -0.0000000 )
                  ( -0.8660253 -0.5000001  0.0000000 )       ( -0.0000000 )
                  (  0.0000000  0.0000000 -1.0000000 )       (  2.2662362 )

[...]

 cryst.   s(10) = (     1          1          0      )    f =(  0.0000000 )
                  (     0         -1          0      )       ( -0.0000010 )
                  (     0          0         -1      )       (  0.5000000 )

 cart.    s(10) = (  0.4999999  0.8660256  0.0000000 )    f =(  0.0000005 )
                  (  0.8660253 -0.4999999  0.0000000 )       ( -0.0000009 )
                  (  0.0000000  0.0000000 -1.0000000 )       (  2.2662362 )

[...]

 cryst.   s(11) = (    -1         -1          0      )
                  (     0          1          0      )
                  (     0          0         -1      )

 cart.    s(11) = ( -0.4999999 -0.8660256  0.0000000 )
                  ( -0.8660253  0.4999999  0.0000000 )
                  (  0.0000000  0.0000000 -1.0000000 )

      isym = 12     180 deg rotation - cryst. axis [1,1,0]

[...]

      isym = 13     inversion

[...]

      isym = 14     inv. 180 deg rotation - cart. axis [0,0,1]

[...]

      isym = 16     inv. 180 deg rotation - cart. axis [1,0,0]

[...]

      isym = 17     inv.  60 deg rotation - cryst. axis [0,0,1]

[...]

 cryst.   s(22) = (    -1         -1          0      )    f =( -0.0000000 )
                  (     0          1          0      )       ( -0.0000010 )
                  (     0          0          1      )       ( -0.5000000 )

 cart.    s(22) = ( -0.4999999 -0.8660256  0.0000000 )    f =(  0.0000005 )
                  ( -0.8660253  0.4999999  0.0000000 )       ( -0.0000009 )
                  (  0.0000000  0.0000000  1.0000000 )       ( -2.2662362 )

[...]

      isym = 24     inv. 180 deg rotation - cryst. axis [1,1,0]

 cryst.   s(24) = (     0         -1          0      )
                  (    -1          0          0      )
                  (     0          0          1      )

 cart.    s(24) = (  0.5000001 -0.8660253  0.0000000 )
                  ( -0.8660253 -0.5000001  0.0000000 )
                  (  0.0000000  0.0000000  1.0000000 )

   Cartesian axes

     site n.     atom                  positions (alat units)
         1           Nb  tau(   1) = (  -0.0000006   0.5773505   1.8941565  )
         2           Nb  tau(   2) = (   0.5000005   0.2886748   2.6383159  )
         3           Nb  tau(   3) = (   0.5000005   0.2886748   4.1603927  )
         4           Nb  tau(   4) = (  -0.0000006   0.5773505   0.3720797  )
         5           In  tau(   5) = (  -0.0000006   0.5773505   3.3993543  )
         6           In  tau(   6) = (   0.5000005   0.2886748   1.1331181  )
         7           C   tau(   7) = (   0.0000000   0.0000000   2.2662362  )
         8           C   tau(   8) = (   0.0000000   0.0000000   0.0000000  )

   Crystallographic axes

     site n.     atom                  positions (cryst. coord.)
         1           Nb  tau(   1) = (  0.3333330  0.6666670  0.4179080  )
         2           Nb  tau(   2) = (  0.6666670  0.3333330  0.5820920  )
         3           Nb  tau(   3) = (  0.6666670  0.3333330  0.9179080  )
         4           Nb  tau(   4) = (  0.3333330  0.6666670  0.0820920  )
         5           In  tau(   5) = (  0.3333330  0.6666670  0.7500000  )
         6           In  tau(   6) = (  0.6666670  0.3333330  0.2500000  )
         7           C   tau(   7) = (  0.0000000  0.0000000  0.5000000  )
         8           C   tau(   8) = (  0.0000000  0.0000000  0.0000000  )

     number of k points=     1  Methfessel-Paxton smearing, width (Ry)=  0.0010
                       cart. coord. in units 2pi/alat
        k(    1) = (   0.0000000   0.0000000   0.0000000), wk =   2.0000000

                       cryst. coord.
        k(    1) = (   0.0000000   0.0000000   0.0000000), wk =   2.0000000

     Check: negative core charge=   -0.000018

     Initial potential from superposition of free atoms

     starting charge      85.9840, renormalised to      86.0000
     Starting wfcs are   66 randomized atomic wfcs
     Checking if some PAW data can be deallocated...

     Self-consistent Calculation

     iteration #  1     ecut=    30.00 Ry     beta= 0.70
     Davidson diagonalization with overlap

     ethr =  1.00E-02,  avg # of iterations =  2.0

     total energy              =   -1662.43749500 Ry
     estimated scf accuracy    <       2.94929843 Ry

[...]

     total energy              =   -1664.14827454 Ry
     estimated scf accuracy    <       0.00000765 Ry

     iteration # 58     ecut=    30.00 Ry     beta= 0.70
     Davidson diagonalization with overlap

     ethr =  8.89E-09,  avg # of iterations =  1.0

     End of self-consistent calculation

          k = 0.0000 0.0000 0.0000 (  1200 PWs)   bands (ev):

   -37.6610 -37.6608 -37.5658 -37.5655 -14.3868 -14.3812 -13.7813 -13.7748
   -13.4792 -13.4792 -13.4789 -13.4789 -13.3982 -13.3982 -13.3981 -13.3981
    -0.9603  -0.9603  -0.9602  -0.9602  -0.7789  -0.7784  -0.5030  -0.5030
    -0.5027  -0.5027   4.6749   5.1264   5.6657   6.3680  10.2948  11.1064
    12.3211  12.9476  12.9476  12.9708  12.9708  13.0875  16.0303  16.2112
    16.7139  16.7139  16.7226  16.7226  17.9505  17.9505  18.1417  18.1417
    19.1765  19.1765  19.1877  19.1877

     occupation numbers
     1.0000   1.0000   1.0000   1.0000   1.0000   1.0000   1.0000   1.0000
     1.0000   1.0000   1.0000   1.0000   1.0000   1.0000   1.0000   1.0000
     1.0000   1.0000   1.0000   1.0000   1.0000   1.0000   1.0000   1.0000
     1.0000   1.0000   1.0000   1.0000   1.0000   1.0000   1.0000   1.0000
     1.0000   1.0000   1.0000   1.0000   1.0000   1.0000   1.0000   1.0000
     0.9564   0.9562   0.5439   0.5434  -0.0000  -0.0000  -0.0000  -0.0000
    -0.0000  -0.0000  -0.0000  -0.0000

     the Fermi energy is    16.7233 ev

!    total energy              =   -1664.14827448 Ry
     estimated scf accuracy    <       0.00000011 Ry
     smearing contrib. (-TS)   =      -0.00057641 Ry
     internal energy E=F+TS    =   -1664.14769807 Ry

     The total energy is F=E-TS. E is the sum of the following terms:
     one-electron contribution =    -142.59496623 Ry
     hartree contribution      =     136.15628905 Ry
     xc contribution           =    -220.70465597 Ry
     ewald contribution        =    -590.71216599 Ry
     one-center paw contrib.   =    -846.29219892 Ry
      -> PAW hartree energy AE =      71.04318427 Ry
      -> PAW hartree energy PS =     -70.67185901 Ry
      -> PAW xc energy AE      =    -236.13319430 Ry
      -> PAW xc energy PS      =      27.27474342 Ry
      -> total E_H with PAW    =     136.52761432 Ry
      -> total E_XC with PAW   =    -429.56310685 Ry

     convergence has been achieved in  58 iterations

     Forces acting on atoms (cartesian axes, Ry/au):

     atom    1 type  1   force =     0.00000000    0.00000000    0.32548048
     atom    2 type  1   force =     0.00000000    0.00000000   -0.32548048
     atom    3 type  1   force =     0.00000000    0.00000000    0.32548048
     atom    4 type  1   force =     0.00000000    0.00000000   -0.32548048
     atom    5 type  2   force =     0.00000000    0.00000000    0.00000000
     atom    6 type  2   force =     0.00000000   -0.00000000    0.00000000
     atom    7 type  3   force =    -0.00000000   -0.00000000   -0.00000000
     atom    8 type  3   force =     0.00000000    0.00000000   -0.00000000
     The non-local contrib.  to forces
     atom    1 type  1   force =     0.00000000   -0.00000000    0.34242132
     atom    2 type  1   force =    -0.00000000   -0.00000000   -0.34242132
     atom    3 type  1   force =     0.00000000   -0.00000000    0.34242132
     atom    4 type  1   force =     0.00000000    0.00000000   -0.34242132
     atom    5 type  2   force =     0.00000000    0.00000000    0.00000000
     atom    6 type  2   force =     0.00000000    0.00000000    0.00000000
     atom    7 type  3   force =    -0.00000000   -0.00000000    0.00000000
     atom    8 type  3   force =    -0.00000000   -0.00000000    0.00000000
     The ionic contribution  to forces
     atom    1 type  1   force =     0.00001090   -0.00000629  -11.39200490
     atom    2 type  1   force =    -0.00001090    0.00000629   11.39200490
     atom    3 type  1   force =    -0.00001090    0.00000629  -11.39200490
     atom    4 type  1   force =     0.00001090   -0.00000629   11.39200490
     atom    5 type  2   force =     0.00000610   -0.00000352   -0.00000000
     atom    6 type  2   force =    -0.00000610    0.00000352    0.00000000
     atom    7 type  3   force =     0.00000000    0.00000000    0.00000000
     atom    8 type  3   force =     0.00000000    0.00000000   -0.00000000
     The local contribution  to forces
     atom    1 type  1   force =    -0.00001046    0.00006070   11.40467997
     atom    2 type  1   force =     0.00000560   -0.00005175  -11.40431220
     atom    3 type  1   force =     0.00006071    0.00002331   11.40498449
     atom    4 type  1   force =    -0.00006830   -0.00003785  -11.40519861
     atom    5 type  2   force =    -0.00001832    0.00000818    0.00062524
     atom    6 type  2   force =     0.00001968   -0.00000504   -0.00081932
     atom    7 type  3   force =    -0.00000262    0.00000206    0.00015981
     atom    8 type  3   force =    -0.00000100    0.00000083   -0.00007229
     The core correction contribution to forces
     atom    1 type  1   force =     0.00000012    0.00000591   -0.03009873
     atom    2 type  1   force =    -0.00000029   -0.00000551    0.03009827
     atom    3 type  1   force =     0.00000529    0.00000360   -0.03009891
     atom    4 type  1   force =    -0.00000550   -0.00000400    0.03009764
     atom    5 type  2   force =    -0.00000026    0.00000013    0.00000096
     atom    6 type  2   force =     0.00000030    0.00000008   -0.00000099
     atom    7 type  3   force =    -0.00000012    0.00000010    0.00000058
     atom    8 type  3   force =     0.00000002    0.00000008   -0.00000097
     The Hubbard contrib.    to forces
     atom    1 type  1   force =     0.00000000    0.00000000    0.00000000
     atom    2 type  1   force =     0.00000000    0.00000000    0.00000000
     atom    3 type  1   force =     0.00000000    0.00000000    0.00000000
     atom    4 type  1   force =     0.00000000    0.00000000    0.00000000
     atom    5 type  2   force =     0.00000000    0.00000000    0.00000000
     atom    6 type  2   force =     0.00000000    0.00000000    0.00000000
     atom    7 type  3   force =     0.00000000    0.00000000    0.00000000
     atom    8 type  3   force =     0.00000000    0.00000000    0.00000000
     The SCF correction term to forces
     atom    1 type  1   force =     0.00000120    0.00001727    0.00050152
     atom    2 type  1   force =     0.00000198   -0.00002705   -0.00084648
     atom    3 type  1   force =     0.00001242    0.00001476    0.00014734
     atom    4 type  1   force =    -0.00000774   -0.00000745    0.00002082
     atom    5 type  2   force =     0.00000888   -0.00000228   -0.00061535
     atom    6 type  2   force =    -0.00001159   -0.00000133    0.00080662
     atom    7 type  3   force =    -0.00000075    0.00000126   -0.00014023
     atom    8 type  3   force =     0.00000057   -0.00000008    0.00004907

     Total force =     0.650961     Total SCF correction =     0.001429

     Computing stress (Cartesian axis) and pressure

          total   stress  (Ry/bohr**3)                   (kbar)     P=      -87.53
  -0.00127943  -0.00000000   0.00000000         -188.21       -0.00        0.00
  -0.00000000  -0.00127943   0.00000000           -0.00     -188.21        0.00
  -0.00000000   0.00000000   0.00077380           -0.00        0.00      113.83

     kinetic stress (kbar)  27818.38      0.00      0.00
                                0.00  27818.38     -0.00
                                0.00      0.00  27102.50

     local   stress (kbar)  -6157.40      0.02      0.35
                                0.02  -6157.39      0.64
                                0.35      0.64   -656.27

     nonloc. stress (kbar)   9093.15      0.00      0.00
                                0.00   9093.16     -0.00
                                0.00     -0.00   9800.61

     hartree stress (kbar)   8604.14      0.02     -0.09
                                0.02   8604.16     -0.17
                               -0.09     -0.17   5804.33

     exc-cor stress (kbar)  13477.94     -0.00     -0.00
                               -0.00  13477.94     -0.01
                               -0.00     -0.01  13469.36

     corecor stress (kbar) -20528.22      0.00      0.00
                                0.00 -20528.22      0.01
                                0.00      0.01 -20559.18

     ewald   stress (kbar) -32496.23      0.00      0.00
                                0.00 -32496.22      0.00
                                0.00      0.00 -34847.52

     hubbard stress (kbar)      0.00      0.00      0.00
                                0.00      0.00      0.00
                                0.00      0.00      0.00

     DFT-D   stress (kbar)      0.00      0.00      0.00
                                0.00      0.00      0.00
                                0.00      0.00      0.00

     XDM     stress (kbar)      0.00      0.00      0.00
                                0.00      0.00      0.00
                                0.00      0.00      0.00

     dft-nl  stress (kbar)      0.00      0.00      0.00
                                0.00      0.00      0.00
                                0.00      0.00      0.00

     TS-vdW  stress (kbar)      0.00      0.00      0.00
                                0.00      0.00      0.00
                                0.00      0.00      0.00

[...]

                                0.00      0.00      0.00

     Writing all to output data dir calculations/myprefix.save/

     General routines

     Parallel routines

     PAW routines

   This run was terminated on:   2:10:30   3Mar2023

   JOB DONE.