     Program PWSCF v.7.0 starts on  4Mar2023 at 18:39:11

     R & G space division:  proc/nbgrp/npool/nimage =      32

     Reading input from espresso_7248.pwi
Warning: card &CELL ignored
Warning: card / ignored

     Current dimensions of program PWSCF are:
     Max number of different atomic species (ntypx) = 10
     Max number of k-points (npk) =  40000
     Max angular momentum in pseudopotentials (lmaxx) =  4

     gamma-point specific algorithms are used
     Message from routine setup:
     using ibrav=0 with symmetry is DISCOURAGED, use correct ibrav instead

     Using Slab Decomposition

     bravais-lattice index     =            0
     lattice parameter (alat)  =       6.2533  a.u.
     unit-cell volume          =    2405.2081 (a.u.)^3
     number of atoms/cell      =           12
     number of atomic types    =            4
     number of electrons       =       104.00
     number of Kohn-Sham states=           62
     kinetic-energy cutoff     =      30.0000  Ry
     charge density cutoff     =     240.0000  Ry
     scf convergence threshold =      1.0E-06
     mixing beta               =       0.7000
     number of iterations used =            8  plain     mixing
     Exchange-correlation=  SLA  PW   PBX  PBC
                           (   1   4   3   4   0   0   0)

     celldm(1)=   6.253328  celldm(2)=   0.000000  celldm(3)=   0.000000
     celldm(4)=   0.000000  celldm(5)=   0.000000  celldm(6)=   0.000000

     crystal axes: (cart. coord. in units of alat)
               a(1) = (   1.000000   0.000000   0.000000 )
               a(2) = (  -0.500000   0.866025   0.000000 )
               a(3) = (   0.000000   0.000000  11.357650 )

     reciprocal axes: (cart. coord. in units 2 pi/alat)
               b(1) = (  1.000000  0.577351  0.000000 )
               b(2) = (  0.000000  1.154701  0.000000 )
               b(3) = (  0.000000  0.000000  0.088046 )

     PseudoPot. # 1 for Te read from file:
     /home/pragov/projects/rrg-bengioy-ad/pragov/crystal_structure_design/SSSP/Te_pbe_v1.uspp.F.UPF
     MD5 check sum: c319670d6894cc26e93307826a071b75
     Pseudo is Ultrasoft + core correction, Zval =  6.0
     Generated by new atomic code, or converted to UPF format
     Using radial grid of  891 points,  5 beta functions with:
                l(1) =   0
                l(2) =   0
                l(3) =   1
                l(4) =   1
                l(5) =   2
     Q(r) pseudized with  6 coefficients,  rinner =    1.800   1.800   1.800
                                                       1.800   1.800

     PseudoPot. # 2 for Mo read from file:
     /home/pragov/projects/rrg-bengioy-ad/pragov/crystal_structure_design/SSSP/Mo_ONCV_PBE-1.0.oncvpsp.upf
     MD5 check sum: 1b5d28e075c9ccadda658a603575cd1f
     Pseudo is Norm-conserving, Zval = 14.0
     Generated using ONCVPSP code by D. R. Hamann
     Using radial grid of 1526 points,  6 beta functions with:
                l(1) =   0
                l(2) =   0
                l(3) =   1
                l(4) =   1
                l(5) =   2
                l(6) =   2

     PseudoPot. # 3 for Se read from file:
     /home/pragov/projects/rrg-bengioy-ad/pragov/crystal_structure_design/SSSP/Se_pbe_v1.uspp.F.UPF
     MD5 check sum: 1b3568f3a8ae88f9a2a0ad0698632c85
     Pseudo is Ultrasoft + core correction, Zval =  6.0
     Generated by new atomic code, or converted to UPF format
     Using radial grid of  877 points,  6 beta functions with:
                l(1) =   0
                l(2) =   0
                l(3) =   1
                l(4) =   1
                l(5) =   2
                l(6) =   2
     Q(r) pseudized with  8 coefficients,  rinner =    1.300   1.300   1.300
                                                       1.300   1.300

     PseudoPot. # 4 for S  read from file:
     /home/pragov/projects/rrg-bengioy-ad/pragov/crystal_structure_design/SSSP/s_pbe_v1.4.uspp.F.UPF
     MD5 check sum: 88d86576ff6df21479756cfb9bdac1df
     Pseudo is Ultrasoft + core correction, Zval =  6.0
     Generated by new atomic code, or converted to UPF format
     Using radial grid of  907 points,  6 beta functions with:
                l(1) =   0
                l(2) =   0
                l(3) =   1
                l(4) =   1
                l(5) =   2
                l(6) =   2
     Q(r) pseudized with  8 coefficients,  rinner =    1.300   1.300   1.300
                                                       1.300   1.300

     atomic species   valence    mass     pseudopotential
        Te             6.00   127.60000     Te( 1.00)
        Mo            14.00    95.95000     Mo( 1.00)
        Se             6.00    78.97100     Se( 1.00)
        S              6.00    32.06000     S ( 1.00)

      6 Sym. Ops. (no inversion) found

                                    s                        frac. trans.

      isym =  1     identity

 cryst.   s( 1) = (     1          0          0      )
                  (     0          1          0      )
                  (     0          0          1      )

 cart.    s( 1) = (  1.0000000 -0.0000000  0.0000000 )
                  (  0.0000000  1.0000000  0.0000000 )
                  (  0.0000000  0.0000000  1.0000000 )

      isym =  2     120 deg rotation - cryst. axis [0,0,1]

[...]

      isym =  3     120 deg rotation - cryst. axis [0,0,-1]

[...]

      isym =  4     inv. 180 deg rotation - cart. axis [1,0,0]

[...]

      isym =  5     inv. 180 deg rotation - cryst. axis [0,1,0]

[...]

      isym =  6     inv. 180 deg rotation - cryst. axis [1,1,0]

 cryst.   s( 6) = (     0         -1          0      )
                  (    -1          0          0      )
                  (     0          0          1      )

 cart.    s( 6) = (  0.5000002 -0.8660253  0.0000000 )
                  ( -0.8660253 -0.5000002  0.0000000 )
                  (  0.0000000  0.0000000  1.0000000 )

   Cartesian axes

     site n.     atom                  positions (alat units)
         1           Te  tau(   1) = (  -0.0000006   0.5773505   8.0455204  )
         2           Te  tau(   2) = (  -0.0000006   0.5773505   6.8914583  )
         3           Mo  tau(   3) = (  -0.0000006   0.5773505   1.0666764  )
         4           Mo  tau(   4) = (  -0.0000006   0.5773505   5.3338021  )
         5           Mo  tau(   5) = (   0.5000004   0.2886748   3.2006652  )
         6           Mo  tau(   6) = (   0.5000004   0.2886748   7.4687904  )
         7           Se  tau(   7) = (   0.5000004   0.2886748   4.8268648  )
         8           Se  tau(   8) = (   0.5000004   0.2886748   5.8405123  )
         9           S   tau(   9) = (  -0.0000006   0.5773505   3.6626489  )
        10           S   tau(  10) = (   0.5000004   0.2886748   0.6047267  )
        11           S   tau(  11) = (   0.5000004   0.2886748   1.5288532  )
        12           S   tau(  12) = (  -0.0000006   0.5773505   2.7382612  )

   Crystallographic axes

     site n.     atom                  positions (cryst. coord.)
         1           Te  tau(   1) = (  0.3333330  0.6666670  0.7083790  )
         2           Te  tau(   2) = (  0.3333330  0.6666670  0.6067680  )
         3           Mo  tau(   3) = (  0.3333330  0.6666670  0.0939170  )
         4           Mo  tau(   4) = (  0.3333330  0.6666670  0.4696220  )
         5           Mo  tau(   5) = (  0.6666670  0.3333330  0.2818070  )
         6           Mo  tau(   6) = (  0.6666670  0.3333330  0.6576000  )
         7           Se  tau(   7) = (  0.6666670  0.3333330  0.4249880  )
         8           Se  tau(   8) = (  0.6666670  0.3333330  0.5142360  )
         9           S   tau(   9) = (  0.3333330  0.6666670  0.3224830  )
        10           S   tau(  10) = (  0.6666670  0.3333330  0.0532440  )
        11           S   tau(  11) = (  0.6666670  0.3333330  0.1346100  )
        12           S   tau(  12) = (  0.3333330  0.6666670  0.2410940  )

     number of k points=     1  Methfessel-Paxton smearing, width (Ry)=  0.0010
                       cart. coord. in units 2pi/alat
        k(    1) = (   0.0000000   0.0000000   0.0000000), wk =   2.0000000

                       cryst. coord.
        k(    1) = (   0.0000000   0.0000000   0.0000000), wk =   2.0000000

     Initial potential from superposition of free atoms

     starting charge     103.9953, renormalised to     104.0000

     negative rho (up, down):  5.401E-05 0.000E+00
     Starting wfcs are   72 randomized atomic wfcs

     Self-consistent Calculation

     iteration #  1     ecut=    30.00 Ry     beta= 0.70
     Davidson diagonalization with overlap

     ethr =  1.00E-02,  avg # of iterations =  2.0

     total energy              =    -774.92351005 Ry
     estimated scf accuracy    <      11.74093351 Ry

[...]

     negative rho (up, down):  2.483E-06 0.000E+00

[...]

     total energy              =    -783.19576260 Ry
     estimated scf accuracy    <       0.00000295 Ry

     iteration # 31     ecut=    30.00 Ry     beta= 0.70
     Davidson diagonalization with overlap

     ethr =  1.99E-09,  avg # of iterations =  2.0

[...]

     End of self-consistent calculation

          k = 0.0000 0.0000 0.0000 (  3392 PWs)   bands (ev):

   -55.0429 -55.0275 -53.9400 -51.7406 -29.2106 -29.2106 -29.1950 -29.1950
   -28.9407 -28.9261 -28.0729 -28.0729 -28.0114 -26.1155 -25.7956 -25.7956
    -9.5357  -9.4980  -9.4764  -8.7206  -8.3451  -8.3060  -8.1202  -7.5594
    -0.7261  -0.5704  -0.2692   0.7738   1.9410   1.9410   1.9546   1.9546
     2.4177   2.8411   2.9118   2.9118   2.9270   2.9270   3.2026   3.4513
     3.4513   3.6586   4.2362   4.2363   5.2715   5.4703   5.6209   6.1311
     6.1311   6.1430   6.6537   6.6537   7.1507   7.1507   7.1687   7.1688
     7.2808   7.2808   7.3039   7.3040   8.0334   8.0334

     occupation numbers
     1.0000   1.0000   1.0000   1.0000   1.0000   1.0000   1.0000   1.0000
     1.0000   1.0000   1.0000   1.0000   1.0000   1.0000   1.0000   1.0000
     1.0000   1.0000   1.0000   1.0000   1.0000   1.0000   1.0000   1.0000
     1.0000   1.0000   1.0000   1.0000   1.0000   1.0000   1.0000   1.0000
     1.0000   1.0000   1.0000   1.0000   1.0000   1.0000   1.0000   1.0000
     1.0000   1.0000   1.0000   1.0000   1.0000   1.0000   1.0000   1.0000
     1.0000   1.0000   1.0000   1.0000  -0.0000  -0.0000  -0.0000  -0.0000
    -0.0000  -0.0000  -0.0000  -0.0000  -0.0000  -0.0000

     the Fermi energy is     6.9322 ev

!    total energy              =    -783.19576232 Ry
     estimated scf accuracy    <       0.00000047 Ry
     smearing contrib. (-TS)   =       0.00000000 Ry
     internal energy E=F+TS    =    -783.19576232 Ry

     The total energy is F=E-TS. E is the sum of the following terms:
     one-electron contribution =   -3772.12708866 Ry
     hartree contribution      =    1912.64401379 Ry
     xc contribution           =    -185.60321781 Ry
     ewald contribution        =    1261.89053037 Ry

     convergence has been achieved in  31 iterations

     negative rho (up, down):  9.487E-06 0.000E+00

     Forces acting on atoms (cartesian axes, Ry/au):

     atom    1 type  1   force =     0.00000000   -0.00000000   -0.12203277
     atom    2 type  1   force =     0.00000000    0.00000000    0.17041870
     atom    3 type  2   force =     0.00000000   -0.00000000   -0.00008486
     atom    4 type  2   force =     0.00000000    0.00000000   -0.00900378
     atom    5 type  2   force =     0.00000000   -0.00000000   -0.00145771
     atom    6 type  2   force =     0.00000000    0.00000000    0.01143139
     atom    7 type  3   force =     0.00000000   -0.00000000    0.10664996
     atom    8 type  3   force =    -0.00000000   -0.00000000   -0.14474225
     atom    9 type  4   force =     0.00000000    0.00000000   -0.10164396
     atom   10 type  4   force =     0.00000000    0.00000000    0.09036391
     atom   11 type  4   force =     0.00000000   -0.00000000   -0.09662058
     atom   12 type  4   force =     0.00000000    0.00000000    0.09672195
     The non-local contrib.  to forces
     atom    1 type  1   force =     0.00000000    0.00000000   -0.30935141
     atom    2 type  1   force =     0.00000000   -0.00000000    0.23423752
     atom    3 type  2   force =     0.00000000    0.00000000   -0.00062764
     atom    4 type  2   force =     0.00000000    0.00000000   -0.00270351
     atom    5 type  2   force =     0.00000000    0.00000000    0.00036649
     atom    6 type  2   force =     0.00000000    0.00000000    0.00219640
     atom    7 type  3   force =     0.00000000    0.00000000   -0.09512930
     atom    8 type  3   force =     0.00000000    0.00000000    0.02021892
     atom    9 type  4   force =     0.00000000    0.00000000    0.10430597
     atom   10 type  4   force =     0.00000000    0.00000000   -0.12523237
     atom   11 type  4   force =     0.00000000   -0.00000000    0.11368997
     atom   12 type  4   force =     0.00000000    0.00000000   -0.11343679
     The ionic contribution  to forces
     atom    1 type  1   force =     0.00000521   -0.00000301   62.84508238
     atom    2 type  1   force =     0.00000528   -0.00000305   23.41447172
     atom    3 type  2   force =     0.00002130   -0.00001230 -100.69779324
     atom    4 type  2   force =     0.00001623   -0.00000937   33.61733999
     atom    5 type  2   force =    -0.00002128    0.00001229  -33.57166142
     atom    6 type  2   force =    -0.00001041    0.00000601  100.64057945
     atom    7 type  3   force =    -0.00000815    0.00000470   -7.39972460
     atom    8 type  3   force =    -0.00000821    0.00000474   36.22987489
     atom    9 type  4   force =     0.00001069   -0.00000617    8.56269450
     atom   10 type  4   force =    -0.00001066    0.00000615  -66.10108539
     atom   11 type  4   force =    -0.00001067    0.00000616  -20.20668501
     atom   12 type  4   force =     0.00001066   -0.00000615  -37.33309329
     The local contribution  to forces
     atom    1 type  1   force =    -0.00001821    0.00001729  -62.63242439
     atom    2 type  1   force =     0.00000824   -0.00000108  -23.49388103
     atom    3 type  2   force =    -0.00001690    0.00000979  100.69854262
     atom    4 type  2   force =    -0.00001524    0.00001227  -33.62522985
     atom    5 type  2   force =     0.00001365   -0.00000916   33.56909496
     atom    6 type  2   force =     0.00000536    0.00000246 -100.62738851
     atom    7 type  3   force =     0.00000479   -0.00000158    7.58560289
     atom    8 type  3   force =     0.00000597   -0.00000492  -36.38958871
     atom    9 type  4   force =    -0.00001067    0.00000404   -8.76129820
     atom   10 type  4   force =     0.00001036   -0.00000790   66.30777077
     atom   11 type  4   force =     0.00001023   -0.00000929   20.00465198
     atom   12 type  4   force =    -0.00000811    0.00000567   37.53490505
     The core correction contribution to forces
     atom    1 type  1   force =     0.00000149   -0.00000162   -0.02431946
     atom    2 type  1   force =    -0.00000132    0.00000040    0.01617333
     atom    3 type  2   force =     0.00000000    0.00000000    0.00000000
     atom    4 type  2   force =     0.00000000    0.00000000    0.00000000
     atom    5 type  2   force =     0.00000000    0.00000000    0.00000000
     atom    6 type  2   force =     0.00000000    0.00000000    0.00000000
     atom    7 type  3   force =    -0.00000039    0.00000032    0.01546135
     atom    8 type  3   force =     0.00000008   -0.00000026   -0.00574401
     atom    9 type  4   force =    -0.00000022    0.00000004   -0.00756528
     atom   10 type  4   force =     0.00000000   -0.00000009    0.00872750
     atom   11 type  4   force =     0.00000007   -0.00000024   -0.00812376
     atom   12 type  4   force =     0.00000014   -0.00000007    0.00811938
     The Hubbard contrib.    to forces
     atom    1 type  1   force =     0.00000000    0.00000000    0.00000000
     atom    2 type  1   force =     0.00000000    0.00000000    0.00000000
     atom    3 type  2   force =     0.00000000    0.00000000    0.00000000
     atom    4 type  2   force =     0.00000000    0.00000000    0.00000000
     atom    5 type  2   force =     0.00000000    0.00000000    0.00000000
     atom    6 type  2   force =     0.00000000    0.00000000    0.00000000
     atom    7 type  3   force =     0.00000000    0.00000000    0.00000000
     atom    8 type  3   force =     0.00000000    0.00000000    0.00000000
     atom    9 type  4   force =     0.00000000    0.00000000    0.00000000
     atom   10 type  4   force =     0.00000000    0.00000000    0.00000000
     atom   11 type  4   force =     0.00000000    0.00000000    0.00000000
     atom   12 type  4   force =     0.00000000    0.00000000    0.00000000
     The SCF correction term to forces
     atom    1 type  1   force =    -0.00000219    0.00000266   -0.00101244
     atom    2 type  1   force =     0.00000144   -0.00000051   -0.00057539
     atom    3 type  2   force =     0.00000070   -0.00000089   -0.00019914
     atom    4 type  2   force =     0.00000393   -0.00000564    0.00159704
     atom    5 type  2   force =     0.00000040    0.00000091    0.00074971
     atom    6 type  2   force =     0.00000012   -0.00000253   -0.00394850
     atom    7 type  3   force =    -0.00000000   -0.00000007    0.00044708
     atom    8 type  3   force =     0.00000069    0.00000018    0.00050412
     atom    9 type  4   force =    -0.00000017    0.00000089    0.00022650
     atom   10 type  4   force =    -0.00000001    0.00000078    0.00019084
     atom   11 type  4   force =    -0.00000041    0.00000158   -0.00014631
     atom   12 type  4   force =    -0.00000030    0.00000021    0.00023505

     Total force =     0.337136     Total SCF correction =     0.004552

     Computing stress (Cartesian axis) and pressure

     negative rho (up, down):  9.487E-06 0.000E+00
          total   stress  (Ry/bohr**3)                   (kbar)     P=       95.84
   0.00140238   0.00000000   0.00000000          206.30        0.00        0.00
   0.00000000   0.00140238   0.00000000            0.00      206.30        0.00
   0.00000000   0.00000000  -0.00085021            0.00        0.00     -125.07

     kinetic stress (kbar)   9254.93      0.00      0.00
                                0.00   9254.93      0.00
                                0.00      0.00   9495.92

     local   stress (kbar)-224060.16     -0.03      0.00
                               -0.03-224060.19      0.00
                                0.00      0.00 222357.58

     nonloc. stress (kbar)   3418.68      0.00      0.00
                                0.00   3418.68      0.00
                                0.00      0.00   3482.76

     hartree stress (kbar) 112314.23      0.01     -0.00
                                0.01 112314.24     -0.00
                               -0.00     -0.00-107649.13

     exc-cor stress (kbar)   3220.01      0.00     -0.00
                                0.00   3220.01     -0.00
                               -0.00     -0.00   3228.80

     corecor stress (kbar)  -5366.98      0.00     -0.00
                                0.00  -5366.98      0.00
                               -0.00      0.00  -5368.38

     ewald   stress (kbar) 101425.58      0.02      0.00
                                0.02 101425.60     -0.00
                                0.00     -0.00-125672.62

     hubbard stress (kbar)      0.00      0.00      0.00
                                0.00      0.00      0.00
                                0.00      0.00      0.00

     DFT-D   stress (kbar)      0.00      0.00      0.00
                                0.00      0.00      0.00
                                0.00      0.00      0.00

     XDM     stress (kbar)      0.00      0.00      0.00
                                0.00      0.00      0.00
                                0.00      0.00      0.00

     dft-nl  stress (kbar)      0.00      0.00      0.00
                                0.00      0.00      0.00
                                0.00      0.00      0.00

     TS-vdW  stress (kbar)      0.00      0.00      0.00
                                0.00      0.00      0.00
                                0.00      0.00      0.00

[...]

                                0.00      0.00      0.00

     Writing all to output data dir calculations/myprefix.save/

     General routines

     Parallel routines

   This run was terminated on:  18:39:17   4Mar2023

   JOB DONE.