     Program PWSCF v.7.0 starts on  6Mar2023 at  8:43:32

     R & G space division:  proc/nbgrp/npool/nimage =      32

     Reading input from espresso_4018.pwi
Warning: card &CELL ignored
Warning: card / ignored

     Current dimensions of program PWSCF are:
     Max number of different atomic species (ntypx) = 10
     Max number of k-points (npk) =  40000
     Max angular momentum in pseudopotentials (lmaxx) =  4
     file Pb.pbe-dn-kjpaw_psl.0.2.2.UPF: wavefunction(s)  6S renormalized

     gamma-point specific algorithms are used
     Message from routine setup:
     using ibrav=0 with symmetry is DISCOURAGED, use correct ibrav instead

     Using Slab Decomposition

     bravais-lattice index     =            0
     lattice parameter (alat)  =       9.3881  a.u.
     unit-cell volume          =    1618.9496 (a.u.)^3
     number of atoms/cell      =            9
     number of atomic types    =            3
     number of electrons       =       129.00
     number of Kohn-Sham states=           78
     kinetic-energy cutoff     =      30.0000  Ry
     charge density cutoff     =     240.0000  Ry
     scf convergence threshold =      1.0E-06
     mixing beta               =       0.7000
     number of iterations used =            8  plain     mixing
     Exchange-correlation= SLA  PW   PBX  PBC
                           (   1   4   3   4   0   0   0)

     celldm(1)=   9.388102  celldm(2)=   0.000000  celldm(3)=   0.000000
     celldm(4)=   0.000000  celldm(5)=   0.000000  celldm(6)=   0.000000

     crystal axes: (cart. coord. in units of alat)
               a(1) = (   1.000000   0.000000   0.000000 )
               a(2) = (  -0.500000   0.866025   0.000000 )
               a(3) = (   0.000000   0.000000   2.259276 )

     reciprocal axes: (cart. coord. in units 2 pi/alat)
               b(1) = (  1.000000  0.577350  0.000000 )
               b(2) = (  0.000000  1.154701  0.000000 )
               b(3) = (  0.000000  0.000000  0.442620 )

     PseudoPot. # 1 for Ca read from file:
     /home/pragov/projects/rrg-bengioy-ad/pragov/crystal_structure_design/SSSP/Ca_pbe_v1.uspp.F.UPF
     MD5 check sum: 403a4c14b9e4d4dfdc3024c9a3812218
     Pseudo is Ultrasoft + core correction, Zval = 10.0
     Generated by new atomic code, or converted to UPF format
     Using radial grid of  845 points,  6 beta functions with:
                l(1) =   0
                l(2) =   0
                l(3) =   1
                l(4) =   1
                l(5) =   2
                l(6) =   2
     Q(r) pseudized with  8 coefficients,  rinner =    1.500   1.500   1.500
                                                       1.500   1.500

     PseudoPot. # 2 for Ag read from file:
     /home/pragov/projects/rrg-bengioy-ad/pragov/crystal_structure_design/SSSP/Ag_ONCV_PBE-1.0.oncvpsp.upf
     MD5 check sum: 94f47bd0669c641108e45594df92fabc
     Pseudo is Norm-conserving, Zval = 19.0
     Generated using ONCVPSP code by D. R. Hamann
     Using radial grid of 1398 points,  6 beta functions with:
                l(1) =   0
                l(2) =   0
                l(3) =   1
                l(4) =   1
                l(5) =   2
                l(6) =   2

     PseudoPot. # 3 for Pb read from file:
     /home/pragov/projects/rrg-bengioy-ad/pragov/crystal_structure_design/SSSP/Pb.pbe-dn-kjpaw_psl.0.2.2.UPF
     MD5 check sum: 9d431e6316058b74ade52399a6cf67da
     Pseudo is Projector augmented-wave + core cor, Zval = 14.0
     Generated using "atomic" code by A. Dal Corso  v.5.0.99 svn rev. 10869
     Shape of augmentation charge: PSQ
     Using radial grid of 1281 points,  6 beta functions with:
                l(1) =   0
                l(2) =   0
                l(3) =   1
                l(4) =   1
                l(5) =   2
                l(6) =   2
     Q(r) pseudized with 0 coefficients

     atomic species   valence    mass     pseudopotential
        Ca            10.00    40.07800     Ca( 1.00)
        Ag            19.00   107.86820     Ag( 1.00)
        Pb            14.00   207.20000     Pb( 1.00)

      6 Sym. Ops. (no inversion) found

                                    s                        frac. trans.

      isym =  1     identity

 cryst.   s( 1) = (     1          0          0      )
                  (     0          1          0      )
                  (     0          0          1      )

 cart.    s( 1) = (  1.0000000 -0.0000000  0.0000000 )
                  (  0.0000000  1.0000000  0.0000000 )
                  (  0.0000000  0.0000000  1.0000000 )

      isym =  2     120 deg rotation - cryst. axis [0,0,1]

[...]

      isym =  3     120 deg rotation - cryst. axis [0,0,-1]

[...]

      isym =  4     inv. 180 deg rotation - cart. axis [1,0,0]

[...]

      isym =  5     inv. 180 deg rotation - cryst. axis [0,1,0]

[...]

      isym =  6     inv. 180 deg rotation - cryst. axis [1,1,0]

 cryst.   s( 6) = (     0         -1          0      )
                  (    -1          0          0      )
                  (     0          0          1      )

 cart.    s( 6) = (  0.5000000 -0.8660254  0.0000000 )
                  ( -0.8660254 -0.5000000  0.0000000 )
                  (  0.0000000  0.0000000  1.0000000 )

   Cartesian axes

     site n.     atom                  positions (alat units)
         1           Ca  tau(   1) = (   0.5000005   0.2886749   1.8744488  )
         2           Ca  tau(   2) = (   0.5000005   0.2886749   1.1245658  )
         3           Ca  tau(   3) = (   0.5000005   0.2886749   0.3747122  )
         4           Ag  tau(   4) = (  -0.0000005   0.5773506   2.2519829  )
         5           Ag  tau(   5) = (   0.0000000   0.0000000   1.5595758  )
         6           Ag  tau(   6) = (   0.0000000   0.0000000   0.6816574  )
         7           Pb  tau(   7) = (  -0.0000005   0.5773506   1.4664892  )
         8           Pb  tau(   8) = (  -0.0000005   0.5773506   0.7851390  )
         9           Pb  tau(   9) = (   0.0000000   0.0000000   2.2575181  )

   Crystallographic axes

     site n.     atom                  positions (cryst. coord.)
         1           Ca  tau(   1) = (  0.6666670  0.3333330  0.8296680  )
         2           Ca  tau(   2) = (  0.6666670  0.3333330  0.4977550  )
         3           Ca  tau(   3) = (  0.6666670  0.3333330  0.1658550  )
         4           Ag  tau(   4) = (  0.3333330  0.6666670  0.9967720  )
         5           Ag  tau(   5) = (  0.0000000  0.0000000  0.6902990  )
         6           Ag  tau(   6) = (  0.0000000  0.0000000  0.3017150  )
         7           Pb  tau(   7) = (  0.3333330  0.6666670  0.6490970  )
         8           Pb  tau(   8) = (  0.3333330  0.6666670  0.3475180  )
         9           Pb  tau(   9) = (  0.0000000  0.0000000  0.9992220  )

     number of k points=     1  Methfessel-Paxton smearing, width (Ry)=  0.0010
                       cart. coord. in units 2pi/alat
        k(    1) = (   0.0000000   0.0000000   0.0000000), wk =   2.0000000

                       cryst. coord.
        k(    1) = (   0.0000000   0.0000000   0.0000000), wk =   2.0000000

     Check: negative core charge=   -0.000001

     Initial potential from superposition of free atoms

     starting charge     128.9757, renormalised to     129.0000
     Starting wfcs are   87 randomized atomic wfcs
     Checking if some PAW data can be deallocated...

     Self-consistent Calculation

     iteration #  1     ecut=    30.00 Ry     beta= 0.70
     Davidson diagonalization with overlap

     ethr =  1.00E-02,  avg # of iterations =  3.0

     Threshold (ethr) on eigenvalues was too large:
     Diagonalizing with lowered threshold

     Davidson diagonalization with overlap

[...]

     total energy              =   -3696.37032170 Ry
     estimated scf accuracy    <       0.54133787 Ry

[...]

     total energy              =   -3696.72706171 Ry
     estimated scf accuracy    <       0.00000223 Ry

     iteration # 27     ecut=    30.00 Ry     beta= 0.70
     Davidson diagonalization with overlap

     ethr =  1.72E-09,  avg # of iterations =  1.0

     End of self-consistent calculation

          k = 0.0000 0.0000 0.0000 (  2248 PWs)   bands (ev):

   -83.2109 -83.1901 -82.9405 -46.3047 -46.3047 -46.2866 -46.2866 -46.0838
   -46.0838 -46.0800 -46.0526 -45.7188 -30.2431 -30.1547 -30.1191 -11.4887
   -11.3302 -11.2526 -11.2019 -11.2019 -11.1466 -11.1466 -11.1107 -11.1107
    -5.7212  -5.7212  -5.6277  -5.6073  -5.6073  -5.5813  -5.5812  -5.5777
    -5.5777  -5.5639  -5.5609  -5.5609  -5.4918  -5.4918  -5.4609   1.1315
     1.7324   2.0855   5.2507   5.2507   5.2623   5.2623   5.4030   5.4030
     5.7551   5.7551   5.8174   5.8174   5.8610   6.0026   6.1009   6.1010
     6.2864   8.3933   8.7116  10.3770  10.3770  10.8340  11.4160  11.5653
    11.5653  11.5685  11.5685  12.0144  12.4124  12.8254  12.8254  12.9589
    12.9589  13.4680  14.3096  14.3097  14.5605  14.6630

     occupation numbers
     1.0000   1.0000   1.0000   1.0000   1.0000   1.0000   1.0000   1.0000
     1.0000   1.0000   1.0000   1.0000   1.0000   1.0000   1.0000   1.0000
     1.0000   1.0000   1.0000   1.0000   1.0000   1.0000   1.0000   1.0000
     1.0000   1.0000   1.0000   1.0000   1.0000   1.0000   1.0000   1.0000
     1.0000   1.0000   1.0000   1.0000   1.0000   1.0000   1.0000   1.0000
     1.0000   1.0000   1.0000   1.0000   1.0000   1.0000   1.0000   1.0000
     1.0000   1.0000   1.0000   1.0000   1.0000   1.0000   1.0000   1.0000
     1.0000   1.0000   1.0000   1.0000   1.0000   1.0000   1.0000   0.4692
     0.4682   0.2823   0.2802  -0.0000  -0.0000  -0.0000  -0.0000  -0.0000
    -0.0000  -0.0000  -0.0000  -0.0000  -0.0000  -0.0000

     the Fermi energy is    11.5648 ev

!    total energy              =   -3696.72706119 Ry
     estimated scf accuracy    <       0.00000074 Ry
     smearing contrib. (-TS)   =      -0.00101078 Ry
     internal energy E=F+TS    =   -3696.72605041 Ry

     The total energy is F=E-TS. E is the sum of the following terms:
     one-electron contribution =    -711.99208405 Ry
     hartree contribution      =     413.64236389 Ry
     xc contribution           =    -250.16182075 Ry
     ewald contribution        =    -962.74120981 Ry
     one-center paw contrib.   =   -2185.47329969 Ry
      -> PAW hartree energy AE =       0.00000000 Ry
      -> PAW hartree energy PS =       0.00000000 Ry
      -> PAW xc energy AE      =       0.00000000 Ry
      -> PAW xc energy PS      =       0.00000000 Ry
      -> total E_H with PAW    =     413.64236389 Ry
      -> total E_XC with PAW   =    -250.16182075 Ry

     convergence has been achieved in  27 iterations

     Forces acting on atoms (cartesian axes, Ry/au):

     atom    1 type  1   force =     0.00000000    0.00000000   -0.01484439
     atom    2 type  1   force =     0.00000000    0.00000000    0.00137796
     atom    3 type  1   force =     0.00000000    0.00000000    0.01061017
     atom    4 type  2   force =     0.00000000    0.00000000    0.00099623
     atom    5 type  2   force =     0.00000000    0.00000000    0.01795020
     atom    6 type  2   force =     0.00000000    0.00000000   -0.02055903
     atom    7 type  3   force =     0.00000000    0.00000000   -0.02310241
     atom    8 type  3   force =     0.00000000    0.00000000    0.02327502
     atom    9 type  3   force =     0.00000000    0.00000000    0.00429624
     The non-local contrib.  to forces
     atom    1 type  1   force =     0.00000000    0.00000000   -0.02648145
     atom    2 type  1   force =     0.00000000    0.00000000   -0.00345946
     atom    3 type  1   force =     0.00000000    0.00000000    0.02598449
     atom    4 type  2   force =     0.00000000    0.00000000   -0.00539125
     atom    5 type  2   force =     0.00000000    0.00000000   -0.11002108
     atom    6 type  2   force =     0.00000000    0.00000000    0.12932629
     atom    7 type  3   force =     0.00000000    0.00000000    0.05206453
     atom    8 type  3   force =     0.00000000    0.00000000   -0.06417949
     atom    9 type  3   force =     0.00000000    0.00000000   -0.00185697
     The ionic contribution  to forces
     atom    1 type  1   force =    -0.00004126    0.00002382   -1.28007683
     atom    2 type  1   force =    -0.00003833    0.00002213   -0.05976835
     atom    3 type  1   force =    -0.00004141    0.00002391    1.23904232
     atom    4 type  2   force =     0.00007036   -0.00004062   -0.34966107
     atom    5 type  2   force =    -0.00001959    0.00001131   -5.18503822
     atom    6 type  2   force =    -0.00001877    0.00001084    5.68746277
     atom    7 type  3   force =     0.00005771   -0.00003332   -4.88735767
     atom    8 type  3   force =     0.00005720   -0.00003302    5.19906762
     atom    9 type  3   force =    -0.00002590    0.00001495   -0.36367055
     The local contribution  to forces
     atom    1 type  1   force =    -0.00020245   -0.00005276    1.29173462
     atom    2 type  1   force =    -0.00007701    0.00005899    0.06599346
     atom    3 type  1   force =    -0.00004087   -0.00008470   -1.25582749
     atom    4 type  2   force =     0.00186772    0.00104594    0.35569210
     atom    5 type  2   force =     0.00101276   -0.00037365    5.31292623
     atom    6 type  2   force =    -0.00031226   -0.00022608   -5.83834278
     atom    7 type  3   force =    -0.00011835    0.00009048    4.81482414
     atom    8 type  3   force =    -0.00004443    0.00007732   -5.11392677
     atom    9 type  3   force =    -0.00027974   -0.00020922    0.36936463
     The core correction contribution to forces
     atom    1 type  1   force =     0.00000200    0.00000084   -0.00118555
     atom    2 type  1   force =    -0.00000545   -0.00000234    0.00009261
     atom    3 type  1   force =     0.00000062    0.00000061    0.00115149
     atom    4 type  2   force =     0.00000000    0.00000000    0.00000000
     atom    5 type  2   force =     0.00000000    0.00000000    0.00000000
     atom    6 type  2   force =     0.00000000    0.00000000    0.00000000
     atom    7 type  3   force =    -0.00000286    0.00000116   -0.00177486
     atom    8 type  3   force =     0.00000078    0.00000060    0.00208902
     atom    9 type  3   force =    -0.00000616   -0.00000359    0.00038198
     The Hubbard contrib.    to forces
     atom    1 type  1   force =     0.00000000    0.00000000    0.00000000
     atom    2 type  1   force =     0.00000000    0.00000000    0.00000000
     atom    3 type  1   force =     0.00000000    0.00000000    0.00000000
     atom    4 type  2   force =     0.00000000    0.00000000    0.00000000
     atom    5 type  2   force =     0.00000000    0.00000000    0.00000000
     atom    6 type  2   force =     0.00000000    0.00000000    0.00000000
     atom    7 type  3   force =     0.00000000    0.00000000    0.00000000
     atom    8 type  3   force =     0.00000000    0.00000000    0.00000000
     atom    9 type  3   force =     0.00000000    0.00000000    0.00000000
     The SCF correction term to forces
     atom    1 type  1   force =     0.00024588    0.00003260    0.00116419
     atom    2 type  1   force =     0.00002308   -0.00009702   -0.00148094
     atom    3 type  1   force =     0.00008512    0.00006486    0.00025872
     atom    4 type  2   force =    -0.00150827   -0.00075024    0.00035580
     atom    5 type  2   force =    -0.00076555    0.00029850    0.00008263
     atom    6 type  2   force =     0.00028483    0.00014268    0.00099405
     atom    7 type  3   force =     0.00005459   -0.00005343   -0.00085919
     atom    8 type  3   force =    -0.00001523   -0.00003872    0.00022400
     atom    9 type  3   force =     0.00025663    0.00017956    0.00007650

     Total force =     0.046633     Total SCF correction =     0.003055

     Computing stress (Cartesian axis) and pressure

          total   stress  (Ry/bohr**3)                   (kbar)     P=     -272.82
  -0.00134689   0.00000000   0.00000000         -198.13        0.00        0.00
   0.00000000  -0.00134689   0.00000000            0.00     -198.13        0.00
   0.00000000   0.00000000  -0.00287000            0.00        0.00     -422.19

     kinetic stress (kbar)  26746.77     -0.00      0.00
                               -0.00  26746.77     -0.00
                                0.00      0.00  26873.15

     local   stress (kbar) -10722.11     -0.20      0.24
                               -0.20 -10721.39     -0.02
                                0.24     -0.02   4662.40

     nonloc. stress (kbar)    731.11     -0.00      0.00
                               -0.00    731.11      0.00
                                0.00     -0.00    610.26

     hartree stress (kbar)  14495.17      0.11     -0.12
                                0.11  14494.82      0.01
                               -0.12      0.01   8595.42

     exc-cor stress (kbar)   2746.26      0.00     -0.00
                                0.00   2746.26      0.00
                               -0.00      0.00   2739.51

     corecor stress (kbar)  -8272.06     -0.00      0.00
                               -0.00  -8272.05     -0.00
                                0.00     -0.00  -8270.83

     ewald   stress (kbar) -25923.45     -0.03      0.00
                               -0.03 -25923.48     -0.00
                                0.00     -0.00 -35632.09

     hubbard stress (kbar)      0.00      0.00      0.00
                                0.00      0.00      0.00
                                0.00      0.00      0.00

     DFT-D   stress (kbar)      0.00      0.00      0.00
                                0.00      0.00      0.00
                                0.00      0.00      0.00

     XDM     stress (kbar)      0.00      0.00      0.00
                                0.00      0.00      0.00
                                0.00      0.00      0.00

     dft-nl  stress (kbar)      0.00      0.00      0.00
                                0.00      0.00      0.00
                                0.00      0.00      0.00

     TS-vdW  stress (kbar)      0.00      0.00      0.00
                                0.00      0.00      0.00
                                0.00      0.00      0.00

[...]

                                0.00      0.00      0.00

     Writing all to output data dir calculations/myprefix.save/

     General routines

     Parallel routines

     PAW routines

   This run was terminated on:   8:43:39   6Mar2023

   JOB DONE.