     Program PWSCF v.7.0 starts on  4Mar2023 at 18:56:21

     R & G space division:  proc/nbgrp/npool/nimage =      32

     Reading input from espresso_7303.pwi
Warning: card &CELL ignored
Warning: card / ignored

     Current dimensions of program PWSCF are:
     Max number of different atomic species (ntypx) = 10
     Max number of k-points (npk) =  40000
     Max angular momentum in pseudopotentials (lmaxx) =  4
     file K.pbe-spn-kjpaw_psl.1.0.0.UPF: wavefunction(s)  3S renormalized
     file Ba.pbe-spn-kjpaw_psl.1.0.0.UPF: wavefunction(s)  5S 6S renormalized
     file O.pbe-n-kjpaw_psl.0.1.UPF: wavefunction(s)  2P renormalized

     gamma-point specific algorithms are used
     Message from routine setup:
     using ibrav=0 with symmetry is DISCOURAGED, use correct ibrav instead

     Using Slab Decomposition

     bravais-lattice index     =            0
     lattice parameter (alat)  =      11.4116  a.u.
     unit-cell volume          =    1050.8161 (a.u.)^3
     number of atoms/cell      =           10
     number of atomic types    =            5
     number of electrons       =        86.00
     number of Kohn-Sham states=           52
     kinetic-energy cutoff     =      30.0000  Ry
     charge density cutoff     =     240.0000  Ry
     scf convergence threshold =      1.0E-06
     mixing beta               =       0.7000
     number of iterations used =            8  plain     mixing
     Exchange-correlation= SLA  PW   PBX  PBC
                           (   1   4   3   4   0   0   0)

     celldm(1)=  11.411618  celldm(2)=   0.000000  celldm(3)=   0.000000
     celldm(4)=   0.000000  celldm(5)=   0.000000  celldm(6)=   0.000000

     crystal axes: (cart. coord. in units of alat)
               a(1) = (   1.000000   0.000000   0.000000 )
               a(2) = (   0.500000   0.866025   0.000000 )
               a(3) = (   0.500000   0.288675   0.816497 )

     reciprocal axes: (cart. coord. in units 2 pi/alat)
               b(1) = (  1.000000 -0.577350 -0.408248 )
               b(2) = (  0.000000  1.154701 -0.408248 )
               b(3) = (  0.000000  0.000000  1.224745 )

     PseudoPot. # 1 for K  read from file:
     /home/pragov/projects/rrg-bengioy-ad/pragov/crystal_structure_design/SSSP/K.pbe-spn-kjpaw_psl.1.0.0.UPF
     MD5 check sum: 7d58810084cac21f60fbe77ea2b688fd
     Pseudo is Projector augmented-wave + core cor, Zval =  9.0
     Generated using "atomic" code by A. Dal Corso  v.5.1
     Shape of augmentation charge: PSQ
     Using radial grid of 1165 points,  6 beta functions with:
                l(1) =   0
                l(2) =   0
                l(3) =   1
                l(4) =   1
                l(5) =   2
                l(6) =   2
     Q(r) pseudized with 0 coefficients

     PseudoPot. # 2 for Ba read from file:
     /home/pragov/projects/rrg-bengioy-ad/pragov/crystal_structure_design/SSSP/Ba.pbe-spn-kjpaw_psl.1.0.0.UPF
     MD5 check sum: c432291d3e53af55f19d5e8866385beb
     Pseudo is Projector augmented-wave + core cor, Zval = 10.0
     Generated using "atomic" code by A. Dal Corso  v.5.1
     Shape of augmentation charge: PSQ
     Using radial grid of 1251 points,  7 beta functions with:
                l(1) =   0
                l(2) =   0
                l(3) =   0
                l(4) =   1
                l(5) =   1
                l(6) =   2
                l(7) =   2
     Q(r) pseudized with 0 coefficients

     PseudoPot. # 3 for Eu read from file:
     /home/pragov/projects/rrg-bengioy-ad/pragov/crystal_structure_design/SSSP/Eu.GGA-PBE-paw-v1.0.UPF
     MD5 check sum: acec5fd9176fb57ec8e299eae1ecaf48
     Pseudo is Projector augmented-wave + core cor, Zval = 17.0
     Generated using ATOMPAW code
     Shape of augmentation charge: BESSEL
     Using radial grid of 1109 points,  8 beta functions with:
                l(1) =   0
                l(2) =   0
                l(3) =   1
                l(4) =   1
                l(5) =   2
                l(6) =   2
                l(7) =   3
                l(8) =   3
     Q(r) pseudized with 0 coefficients

     PseudoPot. # 4 for W  read from file:
     /home/pragov/projects/rrg-bengioy-ad/pragov/crystal_structure_design/SSSP/W_pbe_v1.2.uspp.F.UPF
     MD5 check sum: 9c083fa34c2a2ea0f02f1f893e16e1c8
     Pseudo is Ultrasoft + core correction, Zval = 14.0
     Generated by new atomic code, or converted to UPF format
     Using radial grid of  923 points,  8 beta functions with:
                l(1) =   0
                l(2) =   0
                l(3) =   0
                l(4) =   1
                l(5) =   1
                l(6) =   2
                l(7) =   2
                l(8) =   3
     Q(r) pseudized with  6 coefficients,  rinner =    1.350   1.350   1.350
                                                       1.350   1.350   1.350
                                                       1.350

     PseudoPot. # 5 for O  read from file:
     /home/pragov/projects/rrg-bengioy-ad/pragov/crystal_structure_design/SSSP/O.pbe-n-kjpaw_psl.0.1.UPF
     MD5 check sum: 0234752ac141de4415c5fc33072bef88
     Pseudo is Projector augmented-wave + core cor, Zval =  6.0
     Generated using "atomic" code by A. Dal Corso  v.5.0.99 svn rev. 10869
     Shape of augmentation charge: BESSEL
     Using radial grid of 1095 points,  4 beta functions with:
                l(1) =   0
                l(2) =   0
                l(3) =   1
                l(4) =   1
     Q(r) pseudized with 0 coefficients

     atomic species   valence    mass     pseudopotential
        K              9.00    39.09830     K ( 1.00)
        Ba            10.00   137.32700     Ba( 1.00)
        Eu            17.00   151.96400     Eu( 1.00)
        W             14.00   183.84000     W ( 1.00)
        O              6.00    15.99900     O ( 1.00)

      6 Sym. Ops. (no inversion) found

                                    s                        frac. trans.

      isym =  1     identity

 cryst.   s( 1) = (     1          0          0      )
                  (     0          1          0      )
                  (     0          0          1      )

 cart.    s( 1) = (  1.0000000  0.0000000  0.0000000 )
                  (  0.0000000  1.0000000  0.0000000 )
                  (  0.0000000  0.0000000  1.0000000 )

      isym =  2     120 deg rotation - cryst. axis [0,0,1]

[...]

      isym =  3     120 deg rotation - cryst. axis [0,0,-1]

[...]

      isym =  4     inv. 180 deg rotation - cart. axis [1,0,0]

[...]

      isym =  5     inv. 180 deg rotation - cryst. axis [0,1,0]

[...]

      isym =  6     inv. 180 deg rotation - cryst. axis [1,1,0]

 cryst.   s( 6) = (     1         -1          0      )
                  (     0         -1          0      )
                  (     0         -1          1      )

 cart.    s( 6) = (  0.5000000 -0.8660254  0.0000000 )
                  ( -0.8660254 -0.5000000  0.0000000 )
                  (  0.0000000  0.0000000  1.0000000 )

   Cartesian axes

     site n.     atom                  positions (alat units)
         1           K   tau(   1) = (   1.5000000   0.8660254   0.6123724  )
         2           Ba  tau(   2) = (   0.5000000   0.2886751   0.2041241  )
         3           Eu  tau(   3) = (   0.0000000   0.0000000   0.0000000  )
         4           W   tau(   4) = (   1.0000000   0.5773503   0.4082483  )
         5           O   tau(   5) = (   1.0000000   0.3132218   0.2214813  )
         6           O   tau(   6) = (   1.0000000   0.8414787   0.5950153  )
         7           O   tau(   7) = (   1.2287420   0.4452860   0.5950153  )
         8           O   tau(   8) = (   0.7712580   0.7094145   0.2214813  )
         9           O   tau(   9) = (   1.2287420   0.7094145   0.2214813  )
        10           O   tau(  10) = (   0.7712580   0.4452860   0.5950153  )

   Crystallographic axes

     site n.     atom                  positions (cryst. coord.)
         1           K   tau(   1) = (  0.7500000  0.7500000  0.7500000  )
         2           Ba  tau(   2) = (  0.2500000  0.2500000  0.2500000  )
         3           Eu  tau(   3) = (  0.0000000  0.0000000  0.0000000  )
         4           W   tau(   4) = (  0.5000000  0.5000000  0.5000000  )
         5           O   tau(   5) = (  0.7287420  0.2712580  0.2712580  )
         6           O   tau(   6) = (  0.2712580  0.7287420  0.7287420  )
         7           O   tau(   7) = (  0.7287420  0.2712580  0.7287420  )
         8           O   tau(   8) = (  0.2712580  0.7287420  0.2712580  )
         9           O   tau(   9) = (  0.7287420  0.7287420  0.2712580  )
        10           O   tau(  10) = (  0.2712580  0.2712580  0.7287420  )

     number of k points=     1  Methfessel-Paxton smearing, width (Ry)=  0.0010
                       cart. coord. in units 2pi/alat
        k(    1) = (   0.0000000   0.0000000   0.0000000), wk =   2.0000000

                       cryst. coord.
        k(    1) = (   0.0000000   0.0000000   0.0000000), wk =   2.0000000

     Check: negative core charge=   -0.000010

     Initial potential from superposition of free atoms

     starting charge      85.8591, renormalised to      86.0000

     negative rho (up, down):  6.325E-02 0.000E+00
     Starting wfcs are   82 randomized atomic wfcs
     Checking if some PAW data can be deallocated...

     Self-consistent Calculation

     iteration #  1     ecut=    30.00 Ry     beta= 0.70
     Davidson diagonalization with overlap

     ethr =  1.00E-02,  avg # of iterations =  2.0
     Minimization algorithm failed to find Fermi energy: reverting to bisection
     Possible cause: smearing is larger than the electronic band-gap.

     negative rho (up, down):  5.933E-02 0.000E+00

     total energy              =   -1598.18851349 Ry
     estimated scf accuracy    <       3.82306144 Ry

[...]

     ethr =  4.45E-03,  avg # of iterations =  6.0

[...]

     total energy              =   -1600.49617776 Ry
     estimated scf accuracy    <       0.00000118 Ry

     iteration # 36     ecut=    30.00 Ry     beta= 0.70
     Davidson diagonalization with overlap

     ethr =  1.38E-09,  avg # of iterations =  3.0

[...]

     End of self-consistent calculation

          k = 0.0000 0.0000 0.0000 (  1446 PWs)   bands (ev):

   -65.7459 -29.9002 -29.9002 -29.9002 -29.8619 -19.6725 -17.9085  -9.4541
    -9.4540  -9.4532  -7.9336  -7.3908  -7.3906  -6.0739  -6.0737  -6.0734
    -3.2913  -3.2913  -3.2913  -3.0761  -3.0761  -3.0761   4.5092   4.5094
     4.8028   5.3667   5.3667   5.3668   7.2621   7.2621   7.2622   8.0900
     8.0900   8.0902   8.4298   8.4298   8.4299   9.1595   9.1595   9.1597
    11.1445  11.1461  11.1461  11.3608  11.3608  11.3613  11.4989  11.4989
    11.4997  11.6166  13.7951  13.9262

     occupation numbers
     1.0000   1.0000   1.0000   1.0000   1.0000   1.0000   1.0000   1.0000
     1.0000   1.0000   1.0000   1.0000   1.0000   1.0000   1.0000   1.0000
     1.0000   1.0000   1.0000   1.0000   1.0000   1.0000   1.0000   1.0000
     1.0000   1.0000   1.0000   1.0000   1.0000   1.0000   1.0000   1.0000
     1.0000   1.0000   1.0000   1.0000   1.0000   1.0000   1.0000   1.0000
     1.0000   1.0000   1.0000  -0.0000  -0.0000  -0.0000  -0.0000  -0.0000
    -0.0000  -0.0000  -0.0000  -0.0000

     the Fermi energy is    11.2517 ev

!    total energy              =   -1600.49617780 Ry
     estimated scf accuracy    <       0.00000019 Ry
     smearing contrib. (-TS)   =       0.00000000 Ry
     internal energy E=F+TS    =   -1600.49617780 Ry

     The total energy is F=E-TS. E is the sum of the following terms:
     one-electron contribution =    -225.61596890 Ry
     hartree contribution      =     166.89815559 Ry
     xc contribution           =    -138.10306045 Ry
     ewald contribution        =    -458.96358407 Ry
     one-center paw contrib.   =    -944.71171997 Ry
      -> PAW hartree energy AE =      37.81796600 Ry
      -> PAW hartree energy PS =     -37.60655632 Ry
      -> PAW xc energy AE      =     -66.24133014 Ry
      -> PAW xc energy PS      =      10.60996924 Ry
      -> total E_H with PAW    =     167.10956528 Ry
      -> total E_XC with PAW   =    -193.73442135 Ry

     convergence has been achieved in  36 iterations

     negative rho (up, down):  6.040E-02 0.000E+00

     Forces acting on atoms (cartesian axes, Ry/au):

     atom    1 type  1   force =     0.00000000    0.00000000    0.00004674
     atom    2 type  2   force =     0.00000000    0.00000000    0.00002898
     atom    3 type  3   force =    -0.00000000   -0.00000000   -0.00022784
     atom    4 type  4   force =     0.00000000    0.00000000   -0.00000208
     atom    5 type  5   force =     0.00000000    0.03955877    0.02799920
     atom    6 type  5   force =     0.00000000   -0.03958770   -0.02794780
     atom    7 type  5   force =    -0.03428395    0.01979385   -0.02794780
     atom    8 type  5   force =     0.03425890   -0.01977939    0.02799920
     atom    9 type  5   force =    -0.03425890   -0.01977939    0.02799920
     atom   10 type  5   force =     0.03428395    0.01979385   -0.02794780
     The non-local contrib.  to forces
     atom    1 type  1   force =     0.00000000    0.00000000   -0.00000022
     atom    2 type  2   force =     0.00000000    0.00000000    0.00000391
     atom    3 type  3   force =     0.00000000    0.00000000   -0.00009576
     atom    4 type  4   force =     0.00000000    0.00000000   -0.00008907
     atom    5 type  5   force =     0.00000000    0.37526353    0.26532384
     atom    6 type  5   force =     0.00000000   -0.37531625   -0.26538524
     atom    7 type  5   force =    -0.32503341    0.18765813   -0.26538524
     atom    8 type  5   force =     0.32498775   -0.18763177    0.26532384
     atom    9 type  5   force =    -0.32498775   -0.18763177    0.26532384
     atom   10 type  5   force =     0.32503341    0.18765813   -0.26538524
     The ionic contribution  to forces
     atom    1 type  1   force =    -0.00000000   -0.00000000    0.00000000
     atom    2 type  2   force =     0.00000000    0.00000000   -0.00000000
     atom    3 type  3   force =     0.00000000    0.00000000    0.00000000
     atom    4 type  4   force =    -0.00000000    0.00000000   -0.00000000
     atom    5 type  5   force =    -0.00000000   -3.69401505   -2.61206309
     atom    6 type  5   force =     0.00000000    3.69401505    2.61206309
     atom    7 type  5   force =     3.19911088   -1.84700753    2.61206309
     atom    8 type  5   force =    -3.19911088    1.84700753   -2.61206309
     atom    9 type  5   force =     3.19911088    1.84700753   -2.61206309
     atom   10 type  5   force =    -3.19911088   -1.84700753    2.61206309
     The local contribution  to forces
     atom    1 type  1   force =     0.00001432   -0.00003892    0.00000539
     atom    2 type  2   force =    -0.00013019   -0.00034525   -0.00002332
     atom    3 type  3   force =    -0.00003504   -0.00050125    0.00045157
     atom    4 type  4   force =     0.00009647    0.00011635   -0.00028694
     atom    5 type  5   force =     0.00001339    3.36149752    2.37692326
     atom    6 type  5   force =    -0.00000746   -3.36142373   -2.37684926
     atom    7 type  5   force =    -2.91110638    1.68072654   -2.37695004
     atom    8 type  5   force =     2.91111350   -1.68076396    2.37691731
     atom    9 type  5   force =    -2.91111394   -1.68078610    2.37694006
     atom   10 type  5   force =     2.91111941    1.68074453   -2.37694806
     The core correction contribution to forces
     atom    1 type  1   force =     0.00000014   -0.00000034    0.00000005
     atom    2 type  2   force =    -0.00000369   -0.00000741   -0.00000159
     atom    3 type  3   force =     0.00000000   -0.00000001    0.00000000
     atom    4 type  4   force =     0.00000290    0.00000220   -0.00001011
     atom    5 type  5   force =    -0.00000015   -0.00314457   -0.00222299
     atom    6 type  5   force =    -0.00000012    0.00314504    0.00222419
     atom    7 type  5   force =     0.00272391   -0.00157288    0.00222414
     atom    8 type  5   force =    -0.00272357    0.00157226   -0.00222360
     atom    9 type  5   force =     0.00272324    0.00157229   -0.00222336
     atom   10 type  5   force =    -0.00272410   -0.00157294    0.00222409
     The Hubbard contrib.    to forces
     atom    1 type  1   force =     0.00000000    0.00000000    0.00000000
     atom    2 type  2   force =     0.00000000    0.00000000    0.00000000
     atom    3 type  3   force =     0.00000000    0.00000000    0.00000000
     atom    4 type  4   force =     0.00000000    0.00000000    0.00000000
     atom    5 type  5   force =     0.00000000    0.00000000    0.00000000
     atom    6 type  5   force =     0.00000000    0.00000000    0.00000000
     atom    7 type  5   force =     0.00000000    0.00000000    0.00000000
     atom    8 type  5   force =     0.00000000    0.00000000    0.00000000
     atom    9 type  5   force =     0.00000000    0.00000000    0.00000000
     atom   10 type  5   force =     0.00000000    0.00000000    0.00000000
     The SCF correction term to forces
     atom    1 type  1   force =    -0.00000945    0.00003300    0.00000018
     atom    2 type  2   force =     0.00003605    0.00000215    0.00000867
     atom    3 type  3   force =     0.00000350    0.00049668   -0.00062498
     atom    4 type  4   force =    -0.00011010   -0.00014135    0.00034271
     atom    5 type  5   force =    -0.00001656   -0.00004837    0.00001106
     atom    6 type  5   force =     0.00000562   -0.00000730   -0.00003008
     atom    7 type  5   force =     0.00001171   -0.00001727    0.00005558
     atom    8 type  5   force =    -0.00000714    0.00003439   -0.00000758
     atom    9 type  5   force =     0.00000253    0.00006135   -0.00002279
     atom   10 type  5   force =    -0.00003199   -0.00003991    0.00004851

     Total force =     0.118707     Total SCF correction =     0.000898

     Computing stress (Cartesian axis) and pressure

     negative rho (up, down):  6.040E-02 0.000E+00
          total   stress  (Ry/bohr**3)                   (kbar)     P=     -196.75
  -0.00133747   0.00000000  -0.00000000         -196.75        0.00       -0.00
   0.00000000  -0.00133747   0.00000000            0.00     -196.75        0.00
  -0.00000000   0.00000000  -0.00133749           -0.00        0.00     -196.75

     kinetic stress (kbar)  19548.99     -0.00      0.00
                                0.00  19548.99     -0.00
                                0.00     -0.00  19549.04

     local   stress (kbar)  -4585.19      0.01     -0.02
                                0.01  -4585.40     -0.13
                               -0.02     -0.13  -4585.62

     nonloc. stress (kbar)   3455.59     -0.00     -0.00
                                0.00   3455.59     -0.00
                               -0.00     -0.00   3455.76

     hartree stress (kbar)   7788.00     -0.01      0.01
                               -0.01   7788.12      0.09
                                0.01      0.09   7788.16

     exc-cor stress (kbar)   1210.17     -0.00      0.00
                               -0.00   1210.17     -0.00
                                0.00     -0.00   1210.17

     corecor stress (kbar)  -6197.30      0.00      0.00
                                0.00  -6197.30      0.00
                                0.00      0.00  -6197.30

     ewald   stress (kbar) -21416.96     -0.00     -0.00
                               -0.00 -21416.96      0.00
                               -0.00      0.00 -21416.96

     hubbard stress (kbar)      0.00      0.00      0.00
                                0.00      0.00      0.00
                                0.00      0.00      0.00

     DFT-D   stress (kbar)      0.00      0.00      0.00
                                0.00      0.00      0.00
                                0.00      0.00      0.00

     XDM     stress (kbar)      0.00      0.00      0.00
                                0.00      0.00      0.00
                                0.00      0.00      0.00

     dft-nl  stress (kbar)      0.00      0.00      0.00
                                0.00      0.00      0.00
                                0.00      0.00      0.00

     TS-vdW  stress (kbar)      0.00      0.00      0.00
                                0.00      0.00      0.00
                                0.00      0.00      0.00

[...]

                                0.00      0.00      0.00

     Writing all to output data dir calculations/myprefix.save/

     General routines

     Parallel routines

     PAW routines

   This run was terminated on:  18:56:37   4Mar2023

   JOB DONE.