     Program PWSCF v.7.0 starts on  4Mar2023 at 20: 2: 9

     R & G space division:  proc/nbgrp/npool/nimage =      32

     Reading input from espresso_7487.pwi
Warning: card &CELL ignored
Warning: card / ignored

     Current dimensions of program PWSCF are:
     Max number of different atomic species (ntypx) = 10
     Max number of k-points (npk) =  40000
     Max angular momentum in pseudopotentials (lmaxx) =  4
     file Al.pbe-n-kjpaw_psl.1.0.0.UPF: wavefunction(s)  3S 3P renormalized

     gamma-point specific algorithms are used
     Message from routine setup:
     using ibrav=0 with symmetry is DISCOURAGED, use correct ibrav instead

     Using Slab Decomposition

     bravais-lattice index     =            0
     lattice parameter (alat)  =      12.7375  a.u.
     unit-cell volume          =    1645.4086 (a.u.)^3
     number of atoms/cell      =           18
     number of atomic types    =            3
     number of electrons       =       112.00
     number of Kohn-Sham states=           67
     kinetic-energy cutoff     =      30.0000  Ry
     charge density cutoff     =     240.0000  Ry
     scf convergence threshold =      1.0E-06
     mixing beta               =       0.7000
     number of iterations used =            8  plain     mixing
     Exchange-correlation= PBE
                           (   1   4   3   4   0   0   0)

     celldm(1)=  12.737481  celldm(2)=   0.000000  celldm(3)=   0.000000
     celldm(4)=   0.000000  celldm(5)=   0.000000  celldm(6)=   0.000000

     crystal axes: (cart. coord. in units of alat)
               a(1) = (   1.000000   0.000000   0.000000 )
               a(2) = (   0.243763   0.969835   0.000000 )
               a(3) = (   0.023012   0.017944   0.820966 )

     reciprocal axes: (cart. coord. in units 2 pi/alat)
               b(1) = (  1.000000 -0.251345 -0.022536 )
               b(2) = (  0.000000  1.031104 -0.022536 )
               b(3) = (  0.000000  0.000000  1.218077 )

     PseudoPot. # 1 for Ca read from file:
     /home/pragov/projects/rrg-bengioy-ad/pragov/crystal_structure_design/SSSP/Ca_pbe_v1.uspp.F.UPF
     MD5 check sum: 403a4c14b9e4d4dfdc3024c9a3812218
     Pseudo is Ultrasoft + core correction, Zval = 10.0
     Generated by new atomic code, or converted to UPF format
     Using radial grid of  845 points,  6 beta functions with:
                l(1) =   0
                l(2) =   0
                l(3) =   1
                l(4) =   1
                l(5) =   2
                l(6) =   2
     Q(r) pseudized with  8 coefficients,  rinner =    1.500   1.500   1.500
                                                       1.500   1.500

     PseudoPot. # 2 for Al read from file:
     /home/pragov/projects/rrg-bengioy-ad/pragov/crystal_structure_design/SSSP/Al.pbe-n-kjpaw_psl.1.0.0.UPF
     MD5 check sum: cfc449ca30b5f3223ec38ddd88ac046d
     Pseudo is Projector augmented-wave + core cor, Zval =  3.0
     Generated using "atomic" code by A. Dal Corso  v.5.1
     Shape of augmentation charge: PSQ
     Using radial grid of 1135 points,  6 beta functions with:
                l(1) =   0
                l(2) =   0
                l(3) =   1
                l(4) =   1
                l(5) =   2
                l(6) =   2
     Q(r) pseudized with 0 coefficients

     PseudoPot. # 3 for N  read from file:
     /home/pragov/projects/rrg-bengioy-ad/pragov/crystal_structure_design/SSSP/N.pbe-n-radius_5.UPF
     MD5 check sum: 16739722b17309cd8fe442a2ace49922
     Pseudo is Ultrasoft + core correction, Zval =  5.0
     Generated using "atomic" code by A. Dal Corso  v.5.1
     Using radial grid of 1085 points,  4 beta functions with:
                l(1) =   0
                l(2) =   0
                l(3) =   1
                l(4) =   1
     Q(r) pseudized with 0 coefficients

     atomic species   valence    mass     pseudopotential
        Ca            10.00    40.07800     Ca( 1.00)
        Al             3.00    26.98154     Al( 1.00)
        N              5.00    14.00700     N ( 1.00)

      2 Sym. Ops., with inversion, found

                                    s                        frac. trans.

      isym =  1     identity

 cryst.   s( 1) = (     1          0          0      )
                  (     0          1          0      )
                  (     0          0          1      )

 cart.    s( 1) = (  1.0000000  0.0000000  0.0000000 )
                  (  0.0000000  1.0000000  0.0000000 )
                  (  0.0000000  0.0000000  1.0000000 )

      isym =  2     inversion

 cryst.   s( 2) = (    -1          0          0      )
                  (     0         -1          0      )
                  (     0          0         -1      )

 cart.    s( 2) = ( -1.0000000 -0.0000000 -0.0000000 )
                  (  0.0000000 -1.0000000 -0.0000000 )
                  (  0.0000000  0.0000000 -1.0000000 )

   Cartesian axes

     site n.     atom                  positions (alat units)
         1           Ca  tau(   1) = (   0.7642175   0.0307470   0.4472477  )
         2           Ca  tau(   2) = (   0.5025576   0.9570313   0.3737187  )
         3           Ca  tau(   3) = (   0.5630154   0.5960015   0.6157248  )
         4           Ca  tau(   4) = (   0.7037597   0.3917768   0.2052416  )
         5           Ca  tau(   5) = (   0.2046019   0.7246979   0.0367645  )
         6           Ca  tau(   6) = (   1.0621732   0.2630804   0.7842018  )
         7           Al  tau(   7) = (   0.4785679   0.1877525   0.7488839  )
         8           Al  tau(   8) = (   0.7882072   0.8000259   0.0720825  )
         9           Al  tau(   9) = (   0.9795348   0.5783855   0.4825657  )
        10           Al  tau(  10) = (   0.2872403   0.4093928   0.3384007  )
        11           N   tau(  11) = (   0.7120977   0.0570375   0.0170662  )
        12           N   tau(  12) = (   0.3657931   0.4002094   0.0671518  )
        13           N   tau(  13) = (   1.0263689   0.3020931   0.3934169  )
        14           N   tau(  14) = (   0.4888098   0.2661743   0.4776349  )
        15           N   tau(  15) = (   0.2404062   0.6856852   0.4275494  )
        16           N   tau(  16) = (   0.7779652   0.7216041   0.3433314  )
        17           N   tau(  17) = (   0.5546774   0.9307408   0.8039001  )
        18           N   tau(  18) = (   0.9009820   0.5875689   0.7538146  )

   Crystallographic axes

     site n.     atom                  positions (cryst. coord.)
         1           Ca  tau(   1) = (  0.7464100  0.0216240  0.5447820  )
         2           Ca  tau(   2) = (  0.2535900  0.9783760  0.4552180  )
         3           Ca  tau(   3) = (  0.3993370  0.6006630  0.7500000  )
         4           Ca  tau(   4) = (  0.6006630  0.3993370  0.2500000  )
         5           Ca  tau(   5) = (  0.0216240  0.7464100  0.0447820  )
         6           Ca  tau(   6) = (  0.9783760  0.2535900  0.9552180  )
         7           Al  tau(   7) = (  0.4145000  0.1767150  0.9121980  )
         8           Al  tau(   8) = (  0.5855000  0.8232850  0.0878020  )
         9           Al  tau(   9) = (  0.8232850  0.5855000  0.5878020  )
        10           Al  tau(  10) = (  0.1767150  0.4145000  0.4121980  )
        11           N   tau(  11) = (  0.6973770  0.0584270  0.0207880  )
        12           N   tau(  12) = (  0.2636890  0.4111440  0.0817960  )
        13           N   tau(  13) = (  0.9415730  0.3026230  0.4792120  )
        14           N   tau(  14) = (  0.4111440  0.2636890  0.5817960  )
        15           N   tau(  15) = (  0.0584270  0.6973770  0.5207880  )
        16           N   tau(  16) = (  0.5888560  0.7363110  0.4182040  )
        17           N   tau(  17) = (  0.3026230  0.9415730  0.9792120  )
        18           N   tau(  18) = (  0.7363110  0.5888560  0.9182040  )

     number of k points=     1  Methfessel-Paxton smearing, width (Ry)=  0.0010
                       cart. coord. in units 2pi/alat
        k(    1) = (   0.0000000   0.0000000   0.0000000), wk =   2.0000000

                       cryst. coord.
        k(    1) = (   0.0000000   0.0000000   0.0000000), wk =   2.0000000

     Check: negative core charge=   -0.000002

     Initial potential from superposition of free atoms

     starting charge     111.9580, renormalised to     112.0000
     Starting wfcs are  108 randomized atomic wfcs
     Checking if some PAW data can be deallocated...

     Self-consistent Calculation

     iteration #  1     ecut=    30.00 Ry     beta= 0.70
     Davidson diagonalization with overlap

     ethr =  1.00E-02,  avg # of iterations =  2.0

     total energy              =    -767.61824598 Ry
     estimated scf accuracy    <       5.33913179 Ry

[...]

     total energy              =    -770.19962127 Ry
     estimated scf accuracy    <       0.00000793 Ry

     iteration # 12     ecut=    30.00 Ry     beta= 0.70
     Davidson diagonalization with overlap

     ethr =  7.08E-09,  avg # of iterations =  2.0

     End of self-consistent calculation

          k = 0.0000 0.0000 0.0000 (  2282 PWs)   bands (ev):

   -31.1794 -31.1450 -31.1355 -31.1329 -30.4370 -30.3821 -12.4231 -12.4216
   -12.3983 -12.3627 -12.3447 -12.3371 -12.2975 -12.2051 -12.1653 -12.1356
   -12.0611 -12.0232 -11.7593 -11.5858 -11.5707 -11.4788 -11.4274 -11.3843
    -5.2439  -4.2585  -4.2335  -3.6416  -3.5913  -3.5442  -3.4001  -3.3921
     3.2446   4.0040   4.6960   4.9758   5.1095   5.1704   5.2838   5.7148
     5.9376   6.6353   6.9219   7.0333   7.0560   7.1516   7.3085   7.4648
     7.4756   7.7189   7.8230   7.9021   8.1489   8.1751   8.1978   8.4627
    10.7988  11.0574  11.3754  11.4528  11.8221  12.8382  12.8488  13.0539
    13.1126  13.4867  13.5885

     occupation numbers
     1.0000   1.0000   1.0000   1.0000   1.0000   1.0000   1.0000   1.0000
     1.0000   1.0000   1.0000   1.0000   1.0000   1.0000   1.0000   1.0000
     1.0000   1.0000   1.0000   1.0000   1.0000   1.0000   1.0000   1.0000
     1.0000   1.0000   1.0000   1.0000   1.0000   1.0000   1.0000   1.0000
     1.0000   1.0000   1.0000   1.0000   1.0000   1.0000   1.0000   1.0000
     1.0000   1.0000   1.0000   1.0000   1.0000   1.0000   1.0000   1.0000
     1.0000   1.0000   1.0000   1.0000   1.0000   1.0000   1.0000   1.0000
    -0.0000  -0.0000  -0.0000  -0.0000  -0.0000  -0.0000  -0.0000  -0.0000
    -0.0000  -0.0000  -0.0000

     the Fermi energy is     9.5020 ev

!    total energy              =    -770.19962255 Ry
     estimated scf accuracy    <       0.00000021 Ry
     smearing contrib. (-TS)   =       0.00000000 Ry
     internal energy E=F+TS    =    -770.19962255 Ry

     The total energy is F=E-TS. E is the sum of the following terms:
     one-electron contribution =    -145.40390505 Ry
     hartree contribution      =     126.11982763 Ry
     xc contribution           =    -126.81458464 Ry
     ewald contribution        =    -485.35100825 Ry
     one-center paw contrib.   =    -138.74995224 Ry
      -> PAW hartree energy AE =       0.00000000 Ry
      -> PAW hartree energy PS =       0.00000000 Ry
      -> PAW xc energy AE      =       0.00000000 Ry
      -> PAW xc energy PS      =       0.00000000 Ry
      -> total E_H with PAW    =     126.11982763 Ry
      -> total E_XC with PAW   =    -126.81458464 Ry

     convergence has been achieved in  12 iterations

     Forces acting on atoms (cartesian axes, Ry/au):

     atom    1 type  1   force =     0.02073255   -0.00521047    0.00211030
     atom    2 type  1   force =    -0.02073255    0.00521047   -0.00211030
     atom    3 type  1   force =    -0.00411678    0.00523756    0.00001843
     atom    4 type  1   force =     0.00411678   -0.00523756   -0.00001843
     atom    5 type  1   force =     0.00000754    0.02129586    0.00212449
     atom    6 type  1   force =    -0.00000754   -0.02129586   -0.00212449
     atom    7 type  2   force =     0.00554630   -0.01818998    0.00042231
     atom    8 type  2   force =    -0.00554630    0.01818998   -0.00042231
     atom    9 type  2   force =     0.01629668   -0.00981913   -0.00040844
     atom   10 type  2   force =    -0.01629668    0.00981913    0.00040844
     atom   11 type  3   force =    -0.01781933    0.01219625    0.01512077
     atom   12 type  3   force =    -0.02675936    0.01765465    0.01027738
     atom   13 type  3   force =    -0.00747761    0.02026016   -0.01512263
     atom   14 type  3   force =     0.01059339   -0.03024642    0.01028213
     atom   15 type  3   force =     0.00747761   -0.02026016    0.01512263
     atom   16 type  3   force =    -0.01059339    0.03024642   -0.01028213
     atom   17 type  3   force =     0.01781933   -0.01219625   -0.01512077
     atom   18 type  3   force =     0.02675936   -0.01765465   -0.01027738
     The non-local contrib.  to forces
     atom    1 type  1   force =     0.02000416   -0.00156687   -0.02183946
     atom    2 type  1   force =    -0.02000416    0.00156687    0.02183946
     atom    3 type  1   force =    -0.02035001    0.02608043    0.00002125
     atom    4 type  1   force =     0.02035001   -0.02608043   -0.00002125
     atom    5 type  1   force =     0.00335820    0.01973836   -0.02183711
     atom    6 type  1   force =    -0.00335820   -0.01973836    0.02183711
     atom    7 type  2   force =     0.01677063   -0.00393945    0.02066665
     atom    8 type  2   force =    -0.01677063    0.00393945   -0.02066665
     atom    9 type  2   force =    -0.00026013   -0.01722747   -0.02064132
     atom   10 type  2   force =     0.00026013    0.01722747    0.02064132
     atom   11 type  3   force =    -0.30824834   -0.15075239   -0.03463977
     atom   12 type  3   force =     0.07213610   -0.29997837    0.17836911
     atom   13 type  3   force =     0.22139670    0.26223648    0.03464462
     atom   14 type  3   force =    -0.27335691    0.14313381    0.17840563
     atom   15 type  3   force =    -0.22139670   -0.26223648   -0.03464462
     atom   16 type  3   force =     0.27335691   -0.14313381   -0.17840563
     atom   17 type  3   force =     0.30824834    0.15075239    0.03463977
     atom   18 type  3   force =    -0.07213610    0.29997837   -0.17836911
     The ionic contribution  to forces
     atom    1 type  1   force =     1.21391219   -1.24611627    0.61091406
     atom    2 type  1   force =    -1.21391219    1.24611627   -0.61091406
     atom    3 type  1   force =    -0.03304127    0.04237373    0.00000000
     atom    4 type  1   force =     0.03304127   -0.04237373   -0.00000000
     atom    5 type  1   force =    -0.91261955    1.48105169    0.61091406
     atom    6 type  1   force =     0.91261955   -1.48105169   -0.61091406
     atom    7 type  2   force =    -0.01828402   -0.48946137    0.11215362
     atom    8 type  2   force =     0.01828402    0.48946137   -0.11215362
     atom    9 type  2   force =     0.47915361   -0.10158026   -0.11215362
     atom   10 type  2   force =    -0.47915361    0.10158026    0.11215362
     atom   11 type  3   force =     0.13670255   -0.49090735   -0.03352856
     atom   12 type  3   force =    -0.75789628   -0.60825453    0.40977466
     atom   13 type  3   force =     0.44277593   -0.25224410    0.03352856
     atom   14 type  3   force =    -0.77465371   -0.58676398    0.40977466
     atom   15 type  3   force =    -0.44277593    0.25224410   -0.03352856
     atom   16 type  3   force =     0.77465371    0.58676398   -0.40977466
     atom   17 type  3   force =    -0.13670255    0.49090735    0.03352856
     atom   18 type  3   force =     0.75789628    0.60825453   -0.40977466
     The local contribution  to forces
     atom    1 type  1   force =    -1.21552530    1.24286119   -0.58757030
     atom    2 type  1   force =     1.21552155   -1.24297013    0.58766176
     atom    3 type  1   force =     0.04912169   -0.06333867    0.00010659
     atom    4 type  1   force =    -0.04943535    0.06330494   -0.00011785
     atom    5 type  1   force =     0.90921215   -1.48216877   -0.58765824
     atom    6 type  1   force =    -0.90902353    1.48210282    0.58756226
     atom    7 type  2   force =     0.00927016    0.47531621   -0.13016276
     atom    8 type  2   force =    -0.00929172   -0.47529675    0.13013180
     atom    9 type  2   force =    -0.46314686    0.10685335    0.13021180
     atom   10 type  2   force =     0.46322656   -0.10678691   -0.13018847
     atom   11 type  3   force =     0.15126624    0.65271614    0.08302449
     atom   12 type  3   force =     0.65970647    0.92344897   -0.57648445
     atom   13 type  3   force =    -0.66995128    0.01241587   -0.08302972
     atom   14 type  3   force =     1.05633379    0.41476460   -0.57643975
     atom   15 type  3   force =     0.66992776   -0.01242402    0.08305969
     atom   16 type  3   force =    -1.05635578   -0.41471343    0.57647859
     atom   17 type  3   force =    -0.15130297   -0.65275545   -0.08304289
     atom   18 type  3   force =    -0.65969454   -0.92341023    0.57644408
     The core correction contribution to forces
     atom    1 type  1   force =     0.00193054   -0.00041148    0.00062038
     atom    2 type  1   force =    -0.00192979    0.00041206   -0.00061977
     atom    3 type  1   force =     0.00008264   -0.00010982    0.00000036
     atom    4 type  1   force =    -0.00008470    0.00010890    0.00000001
     atom    5 type  1   force =     0.00007291    0.00196701    0.00062002
     atom    6 type  1   force =    -0.00007080   -0.00196757   -0.00062210
     atom    7 type  2   force =    -0.00220252   -0.00006175   -0.00220697
     atom    8 type  2   force =     0.00220301    0.00006162    0.00220743
     atom    9 type  2   force =     0.00059535    0.00212002    0.00220466
     atom   10 type  2   force =    -0.00059730   -0.00212269   -0.00220460
     atom   11 type  3   force =     0.00222246    0.00116615    0.00027249
     atom   12 type  3   force =    -0.00063877    0.00247444   -0.00139203
     atom   13 type  3   force =    -0.00167426   -0.00187163   -0.00027253
     atom   14 type  3   force =     0.00224439   -0.00122298   -0.00139249
     atom   15 type  3   force =     0.00167309    0.00187157    0.00027241
     atom   16 type  3   force =    -0.00224417    0.00122321    0.00139244
     atom   17 type  3   force =    -0.00222268   -0.00116676   -0.00027215
     atom   18 type  3   force =     0.00063846   -0.00247450    0.00139201
     The Hubbard contrib.    to forces
     atom    1 type  1   force =     0.00000000    0.00000000    0.00000000
     atom    2 type  1   force =     0.00000000    0.00000000    0.00000000
     atom    3 type  1   force =     0.00000000    0.00000000    0.00000000
     atom    4 type  1   force =     0.00000000    0.00000000    0.00000000
     atom    5 type  1   force =     0.00000000    0.00000000    0.00000000
     atom    6 type  1   force =     0.00000000    0.00000000    0.00000000
     atom    7 type  2   force =     0.00000000    0.00000000    0.00000000
     atom    8 type  2   force =     0.00000000    0.00000000    0.00000000
     atom    9 type  2   force =     0.00000000    0.00000000    0.00000000
     atom   10 type  2   force =     0.00000000    0.00000000    0.00000000
     atom   11 type  3   force =     0.00000000    0.00000000    0.00000000
     atom   12 type  3   force =     0.00000000    0.00000000    0.00000000
     atom   13 type  3   force =     0.00000000    0.00000000    0.00000000
     atom   14 type  3   force =     0.00000000    0.00000000    0.00000000
     atom   15 type  3   force =     0.00000000    0.00000000    0.00000000
     atom   16 type  3   force =     0.00000000    0.00000000    0.00000000
     atom   17 type  3   force =     0.00000000    0.00000000    0.00000000
     atom   18 type  3   force =     0.00000000    0.00000000    0.00000000
     The SCF correction term to forces
     atom    1 type  1   force =     0.00041617    0.00003461   -0.00001810
     atom    2 type  1   force =    -0.00040276    0.00009706   -0.00008142
     atom    3 type  1   force =     0.00007795    0.00022748   -0.00010652
     atom    4 type  1   force =     0.00025335   -0.00020166    0.00012392
     atom    5 type  1   force =    -0.00001272    0.00070440    0.00007846
     atom    6 type  1   force =    -0.00017110   -0.00064420    0.00000500
     atom    7 type  2   force =    -0.00000726   -0.00004502   -0.00002962
     atom    8 type  2   force =     0.00002970    0.00002290    0.00005736
     atom    9 type  2   force =    -0.00005324    0.00000198   -0.00002905
     atom   10 type  2   force =    -0.00004041   -0.00009226    0.00000749
     atom   11 type  3   force =     0.00023834   -0.00004199    0.00000765
     atom   12 type  3   force =    -0.00007791   -0.00004278    0.00001302
     atom   13 type  3   force =    -0.00006905   -0.00027308    0.00000011
     atom   14 type  3   force =     0.00003160   -0.00015310   -0.00006849
     atom   15 type  3   force =     0.00000505    0.00028805   -0.00004262
     atom   16 type  3   force =     0.00000171    0.00011124    0.00002456
     atom   17 type  3   force =    -0.00020022    0.00005053    0.00004147
     atom   18 type  3   force =     0.00004423   -0.00000974    0.00003324

     Total force =     0.103383     Total SCF correction =     0.001353

     Computing stress (Cartesian axis) and pressure

          total   stress  (Ry/bohr**3)                   (kbar)     P=      -38.04
  -0.00035987  -0.00012498   0.00005532          -52.94      -18.39        8.14
  -0.00012498  -0.00029701   0.00004304          -18.39      -43.69        6.33
   0.00005532   0.00004304  -0.00011886            8.14        6.33      -17.49

     kinetic stress (kbar)  13382.14     42.61     38.92
                               42.61  13360.72     30.34
                               38.92     30.34  13352.73

     local   stress (kbar)  -4614.67    211.89    319.28
                              211.89  -4721.14    248.97
                              319.28    248.97  -2392.70

     nonloc. stress (kbar)   4622.96     -9.52     -8.10
                               -9.52   4627.74     -6.32
                               -8.10     -6.32   4661.28

     hartree stress (kbar)   4018.71    -22.04    -94.95
                              -22.04   4029.76    -74.04
                              -94.95    -74.04   3227.06

     exc-cor stress (kbar)  -1890.98     -0.43     -0.35
                               -0.43  -1890.77     -0.27
                               -0.35     -0.27  -1897.14

     corecor stress (kbar)  -1532.00      1.14      1.05
                                1.14  -1532.57      0.82
                                1.05      0.82  -1533.25

     ewald   stress (kbar) -14039.10   -242.03   -247.71
                             -242.03 -13917.44   -193.16
                             -247.71   -193.16 -15435.48

     hubbard stress (kbar)      0.00      0.00      0.00
                                0.00      0.00      0.00
                                0.00      0.00      0.00

     DFT-D   stress (kbar)      0.00      0.00      0.00
                                0.00      0.00      0.00
                                0.00      0.00      0.00

     XDM     stress (kbar)      0.00      0.00      0.00
                                0.00      0.00      0.00
                                0.00      0.00      0.00

     dft-nl  stress (kbar)      0.00      0.00      0.00
                                0.00      0.00      0.00
                                0.00      0.00      0.00

     TS-vdW  stress (kbar)      0.00      0.00      0.00
                                0.00      0.00      0.00
                                0.00      0.00      0.00

[...]

                                0.00      0.00      0.00

     Writing all to output data dir calculations/myprefix.save/

     General routines

     Parallel routines

     PAW routines

   This run was terminated on:  20: 2:13   4Mar2023

   JOB DONE.