     Program PWSCF v.7.0 starts on  6Mar2023 at 13:16:44

     R & G space division:  proc/nbgrp/npool/nimage =      32

     Reading input from espresso_4736.pwi
Warning: card &CELL ignored
Warning: card / ignored

     Current dimensions of program PWSCF are:
     Max number of different atomic species (ntypx) = 10
     Max number of k-points (npk) =  40000
     Max angular momentum in pseudopotentials (lmaxx) =  4
     file O.pbe-n-kjpaw_psl.0.1.UPF: wavefunction(s)  2P renormalized

     gamma-point specific algorithms are used
     Message from routine setup:
     using ibrav=0 with symmetry is DISCOURAGED, use correct ibrav instead

     Using Slab Decomposition

     bravais-lattice index     =            0
     lattice parameter (alat)  =      11.1913  a.u.
     unit-cell volume          =     961.7214 (a.u.)^3
     number of atoms/cell      =           16
     number of atomic types    =            4
     number of electrons       =       117.00
     number of Kohn-Sham states=           71
     kinetic-energy cutoff     =      30.0000  Ry
     charge density cutoff     =     240.0000  Ry
     scf convergence threshold =      1.0E-06
     mixing beta               =       0.7000
     number of iterations used =            8  plain     mixing
     Exchange-correlation= SLA  PW   PBX  PBC
                           (   1   4   3   4   0   0   0)

     celldm(1)=  11.191316  celldm(2)=   0.000000  celldm(3)=   0.000000
     celldm(4)=   0.000000  celldm(5)=   0.000000  celldm(6)=   0.000000

     crystal axes: (cart. coord. in units of alat)
               a(1) = (   1.000000   0.000000   0.000000 )
               a(2) = (   0.519494   0.854474   0.000000 )
               a(3) = (   0.519494   0.292133   0.802984 )

     reciprocal axes: (cart. coord. in units 2 pi/alat)
               b(1) = (  1.000000 -0.607970 -0.425770 )
               b(2) = (  0.000000  1.170311 -0.425770 )
               b(3) = (  0.000000  0.000000  1.245354 )

     PseudoPot. # 1 for Li read from file:
     /home/pragov/projects/rrg-bengioy-ad/pragov/crystal_structure_design/SSSP/li_pbe_v1.4.uspp.F.UPF
     MD5 check sum: e912e257baa3777c20ea3d68f190483c
     Pseudo is Ultrasoft, Zval =  3.0
     Generated by new atomic code, or converted to UPF format
     Using radial grid of  751 points,  5 beta functions with:
                l(1) =   0
                l(2) =   0
                l(3) =   0
                l(4) =   1
                l(5) =   1
     Q(r) pseudized with 10 coefficients,  rinner =    1.150   1.150   1.150

     PseudoPot. # 2 for V  read from file:
     /home/pragov/projects/rrg-bengioy-ad/pragov/crystal_structure_design/SSSP/v_pbe_v1.4.uspp.F.UPF
     MD5 check sum: 22b79981416ebb76fdaf5b1b8640f6fb
     Pseudo is Ultrasoft + core correction, Zval = 13.0
     Generated by new atomic code, or converted to UPF format
     Using radial grid of  853 points,  6 beta functions with:
                l(1) =   0
                l(2) =   0
                l(3) =   1
                l(4) =   1
                l(5) =   2
                l(6) =   2
     Q(r) pseudized with  8 coefficients,  rinner =    1.100   1.100   1.100
                                                       1.100   1.100

     PseudoPot. # 3 for Ni read from file:
     /home/pragov/projects/rrg-bengioy-ad/pragov/crystal_structure_design/SSSP/ni_pbe_v1.4.uspp.F.UPF
     MD5 check sum: 1ee80287db30b12d2bc1f57a5b5d6409
     Pseudo is Ultrasoft + core correction, Zval = 18.0
     Generated by new atomic code, or converted to UPF format
     Using radial grid of  865 points,  6 beta functions with:
                l(1) =   0
                l(2) =   0
                l(3) =   1
                l(4) =   1
                l(5) =   2
                l(6) =   2
     Q(r) pseudized with 10 coefficients,  rinner =    0.980   0.980   0.980
                                                       0.980   0.980

     PseudoPot. # 4 for O  read from file:
     /home/pragov/projects/rrg-bengioy-ad/pragov/crystal_structure_design/SSSP/O.pbe-n-kjpaw_psl.0.1.UPF
     MD5 check sum: 0234752ac141de4415c5fc33072bef88
     Pseudo is Projector augmented-wave + core cor, Zval =  6.0
     Generated using "atomic" code by A. Dal Corso  v.5.0.99 svn rev. 10869
     Shape of augmentation charge: BESSEL
     Using radial grid of 1095 points,  4 beta functions with:
                l(1) =   0
                l(2) =   0
                l(3) =   1
                l(4) =   1
     Q(r) pseudized with 0 coefficients

     atomic species   valence    mass     pseudopotential
        Li             3.00     6.94000     Li( 1.00)
        V             13.00    50.94150     V ( 1.00)
        Ni            18.00    58.69340     Ni( 1.00)
        O              6.00    15.99900     O ( 1.00)

      2 Sym. Ops., with inversion, found

                                    s                        frac. trans.

      isym =  1     identity

 cryst.   s( 1) = (     1          0          0      )
                  (     0          1          0      )
                  (     0          0          1      )

 cart.    s( 1) = (  1.0000000 -0.0000000  0.0000000 )
                  (  0.0000000  1.0000000 -0.0000000 )
                  (  0.0000000  0.0000000  1.0000000 )

      isym =  2     inversion

 cryst.   s( 2) = (    -1          0          0      )
                  (     0         -1          0      )
                  (     0          0         -1      )

 cart.    s( 2) = ( -1.0000000  0.0000000 -0.0000000 )
                  (  0.0000000 -1.0000000  0.0000000 )
                  (  0.0000000  0.0000000 -1.0000000 )

   Cartesian axes

     site n.     atom                  positions (alat units)
         1           Li  tau(   1) = (   1.0194944   0.5733034   0.4014922  )
         2           Li  tau(   2) = (   0.2597472   0.4272369   0.0000000  )
         3           Li  tau(   3) = (   0.2597472   0.1460665   0.4014922  )
         4           Li  tau(   4) = (   0.5000000   0.0000000   0.0000000  )
         5           V   tau(   5) = (   0.7597472   0.1460665   0.4014922  )
         6           V   tau(   6) = (   0.7597472   0.4272369   0.0000000  )
         7           V   tau(   7) = (   0.5194944   0.5733034   0.4014922  )
         8           Ni  tau(   8) = (   0.0000000   0.0000000   0.0000000  )
         9           O   tau(   9) = (   1.5199152   0.8547105   0.5985654  )
        10           O   tau(  10) = (   0.7588384   0.6985885   0.1999359  )
        11           O   tau(  11) = (   0.7588384   0.4267259   0.5881370  )
        12           O   tau(  12) = (   0.5190735   0.2918963   0.2044189  )
        13           O   tau(  13) = (   0.9911378   0.2854948   0.1999359  )
        14           O   tau(  14) = (   1.2801504   0.4480184   0.6030484  )
        15           O   tau(  15) = (   1.2801504   0.7198810   0.2148473  )
        16           O   tau(  16) = (   1.0478509   0.8611120   0.6030484  )

   Crystallographic axes

     site n.     atom                  positions (cryst. coord.)
         1           Li  tau(   1) = (  0.5000000  0.5000000  0.5000000  )
         2           Li  tau(   2) = ( -0.0000000  0.5000000  0.0000000  )
         3           Li  tau(   3) = (  0.0000000  0.0000000  0.5000000  )
         4           Li  tau(   4) = (  0.5000000  0.0000000  0.0000000  )
         5           V   tau(   5) = (  0.5000000  0.0000000  0.5000000  )
         6           V   tau(   6) = (  0.5000000  0.5000000  0.0000000  )
         7           V   tau(   7) = (  0.0000000  0.5000000  0.5000000  )
         8           Ni  tau(   8) = (  0.0000000  0.0000000  0.0000000  )
         9           O   tau(   9) = (  0.7454260  0.7454260  0.7454260  )
        10           O   tau(  10) = (  0.2489910  0.7324390  0.2489910  )
        11           O   tau(  11) = (  0.2489910  0.2489910  0.7324390  )
        12           O   tau(  12) = (  0.2545740  0.2545740  0.2545740  )
        13           O   tau(  13) = (  0.7324390  0.2489910  0.2489910  )
        14           O   tau(  14) = (  0.7510090  0.2675610  0.7510090  )
        15           O   tau(  15) = (  0.7510090  0.7510090  0.2675610  )
        16           O   tau(  16) = (  0.2675610  0.7510090  0.7510090  )

     number of k points=     1  Methfessel-Paxton smearing, width (Ry)=  0.0010
                       cart. coord. in units 2pi/alat
        k(    1) = (   0.0000000   0.0000000   0.0000000), wk =   2.0000000

                       cryst. coord.
        k(    1) = (   0.0000000   0.0000000   0.0000000), wk =   2.0000000

     Check: negative core charge=   -0.000018

     Initial potential from superposition of free atoms

     starting charge     113.1933, renormalised to     117.0000

     negative rho (up, down):  3.072E-03 0.000E+00
     Starting wfcs are   95 randomized atomic wfcs
     Checking if some PAW data can be deallocated...

     Self-consistent Calculation

     iteration #  1     ecut=    30.00 Ry     beta= 0.70
     Davidson diagonalization with overlap

     ethr =  1.00E-02,  avg # of iterations =  2.0

     negative rho (up, down):  5.474E-03 0.000E+00

     total energy              =   -1161.13390857 Ry
     estimated scf accuracy    <      13.91243565 Ry

[...]

     total energy              =   -1170.20451654 Ry
     estimated scf accuracy    <       0.00000200 Ry

     iteration # 36     ecut=    30.00 Ry     beta= 0.70
     Davidson diagonalization with overlap

     ethr =  1.71E-09,  avg # of iterations =  1.0

[...]

     End of self-consistent calculation

          k = 0.0000 0.0000 0.0000 (  1344 PWs)   bands (ev):

   -93.0202 -54.3165 -54.2777 -54.2776 -53.6360 -53.2443 -53.2442 -34.6849
   -34.6637 -34.6637 -34.5653 -28.6329 -28.3779 -28.3779 -28.1031 -28.1030
   -28.0107 -27.9866 -27.9109 -27.9107  -9.3056  -8.2986  -8.1007  -8.0772
    -8.0771  -7.9634  -7.8988  -7.8987   3.1404   3.6250   3.7263   3.7263
     4.4158   4.4948   4.4948   5.6806   5.6806   5.8378   5.9919   5.9919
     6.1886   6.2145   6.2146   6.6698   6.8272   6.8272   7.0119   7.0120
     7.1275   7.8726   8.1297   8.1297   8.9132   9.0901   9.0902  10.5475
    10.5475  10.7797  10.7797  10.7934  11.8865  11.8866  11.9810  12.0675
    12.2378  12.2379  14.0042  14.0073  14.4057  14.4166  14.4981

     occupation numbers
     1.0000   1.0000   1.0000   1.0000   1.0000   1.0000   1.0000   1.0000
     1.0000   1.0000   1.0000   1.0000   1.0000   1.0000   1.0000   1.0000
     1.0000   1.0000   1.0000   1.0000   1.0000   1.0000   1.0000   1.0000
     1.0000   1.0000   1.0000   1.0000   1.0000   1.0000   1.0000   1.0000
     1.0000   1.0000   1.0000   1.0000   1.0000   1.0000   1.0000   1.0000
     1.0000   1.0000   1.0000   1.0000   1.0000   1.0000   1.0000   1.0000
     1.0000   1.0000   1.0000   1.0000   1.0000   1.0000   1.0000   1.0000
     1.0000   0.7337   0.7334   0.0328  -0.0000  -0.0000  -0.0000  -0.0000
    -0.0000  -0.0000  -0.0000  -0.0000  -0.0000  -0.0000  -0.0000

     the Fermi energy is    10.7836 ev

!    total energy              =   -1170.20451649 Ry
     estimated scf accuracy    <       0.00000017 Ry
     smearing contrib. (-TS)   =      -0.00042543 Ry
     internal energy E=F+TS    =   -1170.20409107 Ry

     The total energy is F=E-TS. E is the sum of the following terms:
     one-electron contribution =    -613.85147932 Ry
     hartree contribution      =     361.16674228 Ry
     xc contribution           =    -167.98971758 Ry
     ewald contribution        =    -673.39930957 Ry
     one-center paw contrib.   =     -76.13032687 Ry
      -> PAW hartree energy AE =       0.00000000 Ry
      -> PAW hartree energy PS =       0.00000000 Ry
      -> PAW xc energy AE      =       0.00000000 Ry
      -> PAW xc energy PS      =       0.00000000 Ry
      -> total E_H with PAW    =     361.16674228 Ry
      -> total E_XC with PAW   =    -167.98971758 Ry

     convergence has been achieved in  36 iterations

     negative rho (up, down):  3.719E-03 0.000E+00

     Forces acting on atoms (cartesian axes, Ry/au):

     atom    1 type  1   force =     0.00000000    0.00000000    0.00000000
     atom    2 type  1   force =     0.00000000    0.00000000    0.00000000
     atom    3 type  1   force =     0.00000000    0.00000000    0.00000000
     atom    4 type  1   force =     0.00000000    0.00000000    0.00000000
     atom    5 type  2   force =     0.00000000    0.00000000    0.00000000
     atom    6 type  2   force =     0.00000000    0.00000000    0.00000000
     atom    7 type  2   force =     0.00000000    0.00000000    0.00000000
     atom    8 type  3   force =     0.00000000    0.00000000    0.00000000
     atom    9 type  4   force =    -0.03375081   -0.01897675   -0.01327990
     atom   10 type  4   force =    -0.01320477   -0.01701392   -0.00171339
     atom   11 type  4   force =    -0.01322663   -0.00743352   -0.01540149
     atom   12 type  4   force =     0.03375081    0.01897675    0.01327990
     atom   13 type  4   force =    -0.02139854   -0.00242327   -0.00170313
     atom   14 type  4   force =     0.01320477    0.01701392    0.00171339
     atom   15 type  4   force =     0.01322663    0.00743352    0.01540149
     atom   16 type  4   force =     0.02139854    0.00242327    0.00170313
     The non-local contrib.  to forces
     atom    1 type  1   force =     0.00000000    0.00000000    0.00000000
     atom    2 type  1   force =     0.00000000    0.00000000    0.00000000
     atom    3 type  1   force =     0.00000000    0.00000000    0.00000000
     atom    4 type  1   force =     0.00000000    0.00000000    0.00000000
     atom    5 type  2   force =     0.00000000    0.00000000    0.00000000
     atom    6 type  2   force =     0.00000000    0.00000000    0.00000000
     atom    7 type  2   force =     0.00000000    0.00000000    0.00000000
     atom    8 type  3   force =     0.00000000    0.00000000    0.00000000
     atom    9 type  4   force =    -0.50072520   -0.28156212   -0.19717206
     atom   10 type  4   force =    -0.49364474   -0.31931203   -0.17925077
     atom   11 type  4   force =    -0.49362916   -0.27760075   -0.23873379
     atom   12 type  4   force =     0.50072520    0.28156212    0.19717206
     atom   13 type  4   force =    -0.52932066   -0.25589393   -0.17921993
     atom   14 type  4   force =     0.49364474    0.31931203    0.17925077
     atom   15 type  4   force =     0.49362916    0.27760075    0.23873379
     atom   16 type  4   force =     0.52932066    0.25589393    0.17921993
     The ionic contribution  to forces
     atom    1 type  1   force =     0.00000000    0.00000000    0.00000000
     atom    2 type  1   force =    -0.00000000    0.00000000   -0.00000000
     atom    3 type  1   force =    -0.00000000   -0.00000000    0.00000000
     atom    4 type  1   force =     0.00000000    0.00000000   -0.00000000
     atom    5 type  2   force =     0.00000000    0.00000000    0.00000000
     atom    6 type  2   force =     0.00000000   -0.00000000   -0.00000000
     atom    7 type  2   force =     0.00000000    0.00000000    0.00000000
     atom    8 type  3   force =    -0.00000000    0.00000000   -0.00000000
     atom    9 type  4   force =    10.67544237    6.00323817    4.20414983
     atom   10 type  4   force =    12.27868388    5.33683067    5.40597376
     atom   11 type  4   force =    12.27868389    6.90480650    3.16701172
     atom   12 type  4   force =   -10.67544237   -6.00323817   -4.20414983
     atom   13 type  4   force =    10.93888951    7.71936110    5.40597376
     atom   14 type  4   force =   -12.27868388   -5.33683067   -5.40597376
     atom   15 type  4   force =   -12.27868389   -6.90480650   -3.16701172
     atom   16 type  4   force =   -10.93888951   -7.71936110   -5.40597376
     The local contribution  to forces
     atom    1 type  1   force =    -0.00000079    0.00000151   -0.00000026
     atom    2 type  1   force =     0.00000066    0.00000047   -0.00000037
     atom    3 type  1   force =     0.00000073   -0.00000099    0.00000014
     atom    4 type  1   force =    -0.00000075   -0.00000056    0.00000063
     atom    5 type  2   force =    -0.00000416   -0.00000425    0.00000493
     atom    6 type  2   force =    -0.00000520    0.00000864   -0.00000050
     atom    7 type  2   force =     0.00000477    0.00000332   -0.00000393
     atom    8 type  3   force =     0.00000497   -0.00001056    0.00000046
     atom    9 type  4   force =   -10.21312440   -5.74324491   -4.02232166
     atom   10 type  4   force =   -11.80341128   -5.03686950   -5.23041045
     atom   11 type  4   force =   -11.80349713   -6.63758276   -2.94540574
     atom   12 type  4   force =    10.21312135    5.74324487    4.02232382
     atom   13 type  4   force =   -10.43561051   -7.46910357   -5.23042754
     atom   14 type  4   force =    11.80340997    5.03687079    5.23041128
     atom   15 type  4   force =    11.80349946    6.63758285    2.94540861
     atom   16 type  4   force =    10.43561381    7.46910273    5.23042952
     The core correction contribution to forces
     atom    1 type  1   force =     0.00000000    0.00000000    0.00000000
     atom    2 type  1   force =     0.00000000    0.00000000    0.00000000
     atom    3 type  1   force =     0.00000000    0.00000000    0.00000000
     atom    4 type  1   force =     0.00000000    0.00000000    0.00000000
     atom    5 type  2   force =     0.00000001   -0.00000002    0.00000000
     atom    6 type  2   force =    -0.00000004    0.00000004   -0.00000001
     atom    7 type  2   force =     0.00000004    0.00000005   -0.00000002
     atom    8 type  3   force =    -0.00000000   -0.00000000   -0.00000000
     atom    9 type  4   force =     0.00473789    0.00266409    0.00186579
     atom   10 type  4   force =     0.00508232    0.00254078    0.00211702
     atom   11 type  4   force =     0.00508202    0.00285802    0.00166324
     atom   12 type  4   force =    -0.00473793   -0.00266412   -0.00186577
     atom   13 type  4   force =     0.00481184    0.00302243    0.00211669
     atom   14 type  4   force =    -0.00508236   -0.00254076   -0.00211702
     atom   15 type  4   force =    -0.00508199   -0.00285802   -0.00166320
     atom   16 type  4   force =    -0.00481180   -0.00302245   -0.00211664
     The Hubbard contrib.    to forces
     atom    1 type  1   force =     0.00000000    0.00000000    0.00000000
     atom    2 type  1   force =     0.00000000    0.00000000    0.00000000
     atom    3 type  1   force =     0.00000000    0.00000000    0.00000000
     atom    4 type  1   force =     0.00000000    0.00000000    0.00000000
     atom    5 type  2   force =     0.00000000    0.00000000    0.00000000
     atom    6 type  2   force =     0.00000000    0.00000000    0.00000000
     atom    7 type  2   force =     0.00000000    0.00000000    0.00000000
     atom    8 type  3   force =     0.00000000    0.00000000    0.00000000
     atom    9 type  4   force =     0.00000000    0.00000000    0.00000000
     atom   10 type  4   force =     0.00000000    0.00000000    0.00000000
     atom   11 type  4   force =     0.00000000    0.00000000    0.00000000
     atom   12 type  4   force =     0.00000000    0.00000000    0.00000000
     atom   13 type  4   force =     0.00000000    0.00000000    0.00000000
     atom   14 type  4   force =     0.00000000    0.00000000    0.00000000
     atom   15 type  4   force =     0.00000000    0.00000000    0.00000000
     atom   16 type  4   force =     0.00000000    0.00000000    0.00000000
     The SCF correction term to forces
     atom    1 type  1   force =     0.00000057   -0.00000121    0.00000004
     atom    2 type  1   force =    -0.00000065   -0.00000019    0.00000039
     atom    3 type  1   force =    -0.00000051    0.00000085   -0.00000002
     atom    4 type  1   force =     0.00000054    0.00000050   -0.00000055
     atom    5 type  2   force =     0.00000481    0.00000482   -0.00000443
     atom    6 type  2   force =     0.00000488   -0.00000946    0.00000093
     atom    7 type  2   force =    -0.00000493   -0.00000315    0.00000397
     atom    8 type  3   force =    -0.00000529    0.00001222   -0.00000131
     atom    9 type  4   force =    -0.00008257   -0.00007208    0.00019896
     atom   10 type  4   force =     0.00008438   -0.00020347   -0.00014246
     atom   11 type  4   force =     0.00013453    0.00008518    0.00006397
     atom   12 type  4   force =     0.00008346    0.00007195   -0.00019964
     atom   13 type  4   force =    -0.00016756    0.00019006   -0.00014531
     atom   14 type  4   force =    -0.00008437    0.00020290    0.00014260
     atom   15 type  4   force =    -0.00013533   -0.00008585   -0.00006508
     atom   16 type  4   force =     0.00016653   -0.00019045    0.00014489

     Total force =     0.078440     Total SCF correction =     0.000686

     Computing stress (Cartesian axis) and pressure

     negative rho (up, down):  3.719E-03 0.000E+00
          total   stress  (Ry/bohr**3)                   (kbar)     P=     -626.76
  -0.00428338  -0.00002453  -0.00001730         -630.11       -3.61       -2.54
  -0.00002453  -0.00425323  -0.00000975           -3.61     -625.67       -1.43
  -0.00001730  -0.00000975  -0.00424530           -2.54       -1.43     -624.50

     kinetic stress (kbar)  31487.42    135.19     94.66
                              135.19  31323.06     53.27
                               94.66     53.27  31284.38

     local   stress (kbar)  10562.68  24476.85  17141.54
                            24476.85 -19199.86   9639.32
                            17141.54   9639.32 -26213.87

     nonloc. stress (kbar)   3555.41    -52.72    -36.94
                              -52.72   3619.61    -20.76
                              -36.94    -20.76   3634.84

     hartree stress (kbar)   8547.89 -10888.69  -7625.55
                           -10888.69  21787.96  -4288.14
                            -7625.55  -4288.14  24908.28

     exc-cor stress (kbar)  -6079.48     -2.06     -1.44
                               -2.06  -6076.97     -0.81
                               -1.44     -0.81  -6076.38

     corecor stress (kbar)  -1980.87     -0.24     -0.17
                               -0.24  -1980.58     -0.10
                               -0.17     -0.10  -1980.51

     ewald   stress (kbar) -46723.14 -13671.94  -9574.65
                           -13671.94 -30098.89  -5384.22
                            -9574.65  -5384.22 -26181.24

     hubbard stress (kbar)      0.00      0.00      0.00
                                0.00      0.00      0.00
                                0.00      0.00      0.00

     DFT-D   stress (kbar)      0.00      0.00      0.00
                                0.00      0.00      0.00
                                0.00      0.00      0.00

     XDM     stress (kbar)      0.00      0.00      0.00
                                0.00      0.00      0.00
                                0.00      0.00      0.00

     dft-nl  stress (kbar)      0.00      0.00      0.00
                                0.00      0.00      0.00
                                0.00      0.00      0.00

     TS-vdW  stress (kbar)      0.00      0.00      0.00
                                0.00      0.00      0.00
                                0.00      0.00      0.00

[...]

                                0.00      0.00      0.00

     Writing all to output data dir calculations/myprefix.save/

     General routines

     Parallel routines

     PAW routines

   This run was terminated on:  13:16:49   6Mar2023

   JOB DONE.