     Program PWSCF v.7.0 starts on  3Mar2023 at 12: 6: 7

     R & G space division:  proc/nbgrp/npool/nimage =      32

     Reading input from espresso_199.pwi
Warning: card &CELL ignored
Warning: card / ignored

     Current dimensions of program PWSCF are:
     Max number of different atomic species (ntypx) = 10
     Max number of k-points (npk) =  40000
     Max angular momentum in pseudopotentials (lmaxx) =  4

     gamma-point specific algorithms are used
     Message from routine setup:
     using ibrav=0 with symmetry is DISCOURAGED, use correct ibrav instead

     Using Slab Decomposition

     bravais-lattice index     =            0
     lattice parameter (alat)  =      11.8172  a.u.
     unit-cell volume          =    1166.8999 (a.u.)^3
     number of atoms/cell      =           10
     number of atomic types    =            4
     number of electrons       =        97.00
     number of Kohn-Sham states=           59
     kinetic-energy cutoff     =      30.0000  Ry
     charge density cutoff     =     240.0000  Ry
     scf convergence threshold =      1.0E-06
     mixing beta               =       0.7000
     number of iterations used =            8  plain     mixing
     Exchange-correlation=  SLA  PW   PBX  PBC
                           (   1   4   3   4   0   0   0)

     celldm(1)=  11.817244  celldm(2)=   0.000000  celldm(3)=   0.000000
     celldm(4)=   0.000000  celldm(5)=   0.000000  celldm(6)=   0.000000

     crystal axes: (cart. coord. in units of alat)
               a(1) = (   1.000000   0.000000   0.000000 )
               a(2) = (   0.500000   0.866025   0.000000 )
               a(3) = (   0.500000   0.288675   0.816497 )

     reciprocal axes: (cart. coord. in units 2 pi/alat)
               b(1) = (  1.000000 -0.577350 -0.408248 )
               b(2) = (  0.000000  1.154701 -0.408248 )
               b(3) = (  0.000000  0.000000  1.224745 )

     PseudoPot. # 1 for Rb read from file:
     /home/pragov/projects/rrg-bengioy-ad/pragov/crystal_structure_design/SSSP/Rb_ONCV_PBE-1.0.oncvpsp.upf
     MD5 check sum: 55a5172d6bfbce6759a58e35d43f6aa9
     Pseudo is Norm-conserving, Zval =  9.0
     Generated using ONCVPSP code by D. R. Hamann
     Using radial grid of 2308 points,  6 beta functions with:
                l(1) =   0
                l(2) =   0
                l(3) =   1
                l(4) =   1
                l(5) =   2
                l(6) =   2

     PseudoPot. # 2 for Ag read from file:
     /home/pragov/projects/rrg-bengioy-ad/pragov/crystal_structure_design/SSSP/Ag_ONCV_PBE-1.0.oncvpsp.upf
     MD5 check sum: 94f47bd0669c641108e45594df92fabc
     Pseudo is Norm-conserving, Zval = 19.0
     Generated using ONCVPSP code by D. R. Hamann
     Using radial grid of 1398 points,  6 beta functions with:
                l(1) =   0
                l(2) =   0
                l(3) =   1
                l(4) =   1
                l(5) =   2
                l(6) =   2

     PseudoPot. # 3 for Pd read from file:
     /home/pragov/projects/rrg-bengioy-ad/pragov/crystal_structure_design/SSSP/Pd_ONCV_PBE-1.0.oncvpsp.upf
     MD5 check sum: eb77f42b51d86fb18e25f68156a31cf1
     Pseudo is Norm-conserving, Zval = 18.0
     Generated using ONCVPSP code by D. R. Hamann
     Using radial grid of 1410 points,  6 beta functions with:
                l(1) =   0
                l(2) =   0
                l(3) =   1
                l(4) =   1
                l(5) =   2
                l(6) =   2

     PseudoPot. # 4 for F  read from file:
     /home/pragov/projects/rrg-bengioy-ad/pragov/crystal_structure_design/SSSP/f_pbe_v1.4.uspp.F.UPF
     MD5 check sum: 4c38b6a325caf53ec0e86aed9459de46
     Pseudo is Ultrasoft, Zval =  7.0
     Generated by new atomic code, or converted to UPF format
     Using radial grid of  799 points,  4 beta functions with:
                l(1) =   0
                l(2) =   0
                l(3) =   1
                l(4) =   1
     Q(r) pseudized with  8 coefficients,  rinner =    0.950   0.950   0.950

     atomic species   valence    mass     pseudopotential
        Rb             9.00    85.46780     Rb( 1.00)
        Ag            19.00   107.86820     Ag( 1.00)
        Pd            18.00   106.42000     Pd( 1.00)
        F              7.00    18.99840     F ( 1.00)

     12 Sym. Ops., with inversion, found

                                    s                        frac. trans.

      isym =  1     identity

 cryst.   s( 1) = (     1          0          0      )
                  (     0          1          0      )
                  (     0          0          1      )

 cart.    s( 1) = (  1.0000000  0.0000000  0.0000000 )
                  (  0.0000000  1.0000000  0.0000000 )
                  (  0.0000000  0.0000000  1.0000000 )

      isym =  2     180 deg rotation - cart. axis [1,0,0]

[...]

      isym =  3     120 deg rotation - cryst. axis [0,0,1]

[...]

      isym =  6     180 deg rotation - cryst. axis [1,1,0]

[...]

      isym =  7     inversion

[...]

      isym =  8     inv. 180 deg rotation - cart. axis [1,0,0]

[...]

      isym =  9     inv. 120 deg rotation - cryst. axis [0,0,1]

 cryst.   s( 9) = (     1         -1          0      )
                  (     1          0          0      )
                  (     1          0         -1      )

 cart.    s( 9) = (  0.5000000  0.8660254  0.0000000 )
                  ( -0.8660254  0.5000000  0.0000000 )
                  (  0.0000000  0.0000000 -1.0000000 )

[...]

 cryst.   s(10) = (     0          1          0      )
                  (    -1          1          0      )
                  (     0          1         -1      )

 cart.    s(10) = (  0.5000000 -0.8660254 -0.0000000 )
                  (  0.8660254  0.5000000  0.0000000 )
                  (  0.0000000  0.0000000 -1.0000000 )

[...]

      isym = 12     inv. 180 deg rotation - cryst. axis [1,1,0]

 cryst.   s(12) = (     1         -1          0      )
                  (     0         -1          0      )
                  (     0         -1          1      )

 cart.    s(12) = (  0.5000000 -0.8660254 -0.0000000 )
                  ( -0.8660254 -0.5000000 -0.0000000 )
                  (  0.0000000  0.0000000  1.0000000 )

   Cartesian axes

     site n.     atom                  positions (alat units)
         1           Rb  tau(   1) = (   0.5000000   0.2886751   0.2041241  )
         2           Rb  tau(   2) = (   1.5000000   0.8660254   0.6123724  )
         3           Ag  tau(   3) = (   1.0000000   0.5773503   0.4082483  )
         4           Pd  tau(   4) = (   0.0000000   0.0000000   0.0000000  )
         5           F   tau(   5) = (   0.7370040   0.4255095   0.6229836  )
         6           F   tau(   6) = (   1.0000000   0.8810319   0.6229836  )
         7           F   tau(   7) = (   1.2629960   0.7291911   0.1935130  )
         8           F   tau(   8) = (   0.7370040   0.7291911   0.1935130  )
         9           F   tau(   9) = (   1.2629960   0.4255095   0.6229836  )
        10           F   tau(  10) = (   1.0000000   0.2736686   0.1935130  )

   Crystallographic axes

     site n.     atom                  positions (cryst. coord.)
         1           Rb  tau(   1) = (  0.2500000  0.2500000  0.2500000  )
         2           Rb  tau(   2) = (  0.7500000  0.7500000  0.7500000  )
         3           Ag  tau(   3) = (  0.5000000  0.5000000  0.5000000  )
         4           Pd  tau(   4) = (  0.0000000  0.0000000  0.0000000  )
         5           F   tau(   5) = (  0.2370040  0.2370040  0.7629960  )
         6           F   tau(   6) = (  0.2370040  0.7629960  0.7629960  )
         7           F   tau(   7) = (  0.7629960  0.7629960  0.2370040  )
         8           F   tau(   8) = (  0.2370040  0.7629960  0.2370040  )
         9           F   tau(   9) = (  0.7629960  0.2370040  0.7629960  )
        10           F   tau(  10) = (  0.7629960  0.2370040  0.2370040  )

     number of k points=     1  Methfessel-Paxton smearing, width (Ry)=  0.0010
                       cart. coord. in units 2pi/alat
        k(    1) = (   0.0000000   0.0000000   0.0000000), wk =   2.0000000

                       cryst. coord.
        k(    1) = (   0.0000000   0.0000000   0.0000000), wk =   2.0000000

     Initial potential from superposition of free atoms

     starting charge      96.9498, renormalised to      97.0000
     Starting wfcs are   54 randomized atomic wfcs +    5 random wfcs

     Self-consistent Calculation

     iteration #  1     ecut=    30.00 Ry     beta= 0.70
     Davidson diagonalization with overlap

     ethr =  1.00E-02,  avg # of iterations =  9.0

     Threshold (ethr) on eigenvalues was too large:
     Diagonalizing with lowered threshold

     Davidson diagonalization with overlap

[...]

     total energy              =    -929.51043114 Ry
     estimated scf accuracy    <       0.94900400 Ry

[...]

     total energy              =    -929.91462897 Ry
     estimated scf accuracy    <       0.00001608 Ry

     iteration # 17     ecut=    30.00 Ry     beta= 0.70
     Davidson diagonalization with overlap

     ethr =  7.26E-09,  avg # of iterations =  1.0

     End of self-consistent calculation

          k = 0.0000 0.0000 0.0000 (  1644 PWs)   bands (ev):

   -85.9238 -79.5145 -48.9852 -48.9852 -48.9852 -44.9049 -44.9049 -44.9048
   -19.5774 -19.5344 -16.4713 -16.2153 -16.2153 -16.2047 -16.2047 -16.2047
    -3.8502  -3.8502  -3.8502  -3.6643  -3.6643  -3.6643  -0.1551  -0.0901
    -0.0901   1.2934   1.2934   1.2935   1.3290   1.3290   1.3290   2.6876
     2.6876   2.6876   2.7930   2.7930   2.7930   3.1016   3.1016   3.1016
     3.1136   3.1136   3.1136   3.5846   3.5846   4.9194   4.9194   4.9194
     7.1206   7.1206   8.3952  12.3606  12.3606  12.3606  12.5760  12.5760
    13.4949  15.2674  15.6484

     occupation numbers
     1.0000   1.0000   1.0000   1.0000   1.0000   1.0000   1.0000   1.0000
     1.0000   1.0000   1.0000   1.0000   1.0000   1.0000   1.0000   1.0000
     1.0000   1.0000   1.0000   1.0000   1.0000   1.0000   1.0000   1.0000
     1.0000   1.0000   1.0000   1.0000   1.0000   1.0000   1.0000   1.0000
     1.0000   1.0000   1.0000   1.0000   1.0000   1.0000   1.0000   1.0000
     1.0000   1.0000   1.0000   1.0000   1.0000   1.0000   1.0000   1.0000
     0.2505   0.2495  -0.0000  -0.0000  -0.0000  -0.0000  -0.0000  -0.0000
    -0.0000  -0.0000  -0.0000

     the Fermi energy is     7.1164 ev

!    total energy              =    -929.91462901 Ry
     estimated scf accuracy    <       0.00000009 Ry
     smearing contrib. (-TS)   =      -0.00041261 Ry
     internal energy E=F+TS    =    -929.91421639 Ry

     The total energy is F=E-TS. E is the sum of the following terms:
     one-electron contribution =    -573.90887793 Ry
     hartree contribution      =     327.43366280 Ry
     xc contribution           =    -123.03177259 Ry
     ewald contribution        =    -560.40722867 Ry

     convergence has been achieved in  17 iterations

     Forces acting on atoms (cartesian axes, Ry/au):

     atom    1 type  1   force =     0.00000000    0.00000000    0.00000001
     atom    2 type  1   force =     0.00000000    0.00000000   -0.00000001
     atom    3 type  2   force =     0.00000000    0.00000000    0.00000000
     atom    4 type  3   force =     0.00000000    0.00000000    0.00000000
     atom    5 type  4   force =     0.00750451    0.00433273   -0.00612739
     atom    6 type  4   force =     0.00000000   -0.00866546   -0.00612739
     atom    7 type  4   force =    -0.00750451   -0.00433273    0.00612739
     atom    8 type  4   force =     0.00750451   -0.00433273    0.00612739
     atom    9 type  4   force =    -0.00750451    0.00433273   -0.00612739
     atom   10 type  4   force =     0.00000000    0.00866546    0.00612739
     The non-local contrib.  to forces
     atom    1 type  1   force =    -0.00000000    0.00000000    0.00000000
     atom    2 type  1   force =    -0.00000000   -0.00000000   -0.00000000
     atom    3 type  2   force =     0.00000000    0.00000000   -0.00000000
     atom    4 type  3   force =     0.00000000    0.00000000   -0.00000000
     atom    5 type  4   force =    -0.18154289   -0.10481384    0.14822914
     atom    6 type  4   force =     0.00000000    0.20962767    0.14822914
     atom    7 type  4   force =     0.18154289    0.10481384   -0.14822914
     atom    8 type  4   force =    -0.18154289    0.10481384   -0.14822914
     atom    9 type  4   force =     0.18154289   -0.10481384    0.14822914
     atom   10 type  4   force =     0.00000000   -0.20962767   -0.14822914
     The ionic contribution  to forces
     atom    1 type  1   force =     0.00000000    0.00000000   -0.00000000
     atom    2 type  1   force =     0.00000000    0.00000000    0.00000000
     atom    3 type  2   force =     0.00000000    0.00000000    0.00000000
     atom    4 type  3   force =    -0.00000000   -0.00000000   -0.00000000
     atom    5 type  4   force =     3.05822442    1.76566669   -2.49702979
     atom    6 type  4   force =     0.00000000   -3.53133339   -2.49702979
     atom    7 type  4   force =    -3.05822442   -1.76566669    2.49702978
     atom    8 type  4   force =     3.05822442   -1.76566669    2.49702978
     atom    9 type  4   force =    -3.05822442    1.76566669   -2.49702979
     atom   10 type  4   force =    -0.00000000    3.53133339    2.49702979
     The local contribution  to forces
     atom    1 type  1   force =     0.00000001    0.00000001    0.00000005
     atom    2 type  1   force =    -0.00000009   -0.00000003    0.00000000
     atom    3 type  2   force =    -0.00000113    0.00000015    0.00000080
     atom    4 type  3   force =     0.00000162   -0.00000021   -0.00000120
     atom    5 type  4   force =    -2.86920420   -1.65653579    2.34269537
     atom    6 type  4   force =     0.00000004    3.31288731    2.34256505
     atom    7 type  4   force =     2.86920409    1.65653569   -2.34269531
     atom    8 type  4   force =    -2.86928736    1.65658389   -2.34276350
     atom    9 type  4   force =     2.86928747   -1.65658395    2.34276337
     atom   10 type  4   force =     0.00000012   -3.31288721   -2.34256503
     The core correction contribution to forces
     atom    1 type  1   force =     0.00000000    0.00000000    0.00000000
     atom    2 type  1   force =     0.00000000    0.00000000    0.00000000
     atom    3 type  2   force =     0.00000000    0.00000000    0.00000000
     atom    4 type  3   force =     0.00000000    0.00000000    0.00000000
     atom    5 type  4   force =     0.00000000    0.00000000    0.00000000
     atom    6 type  4   force =     0.00000000    0.00000000    0.00000000
     atom    7 type  4   force =     0.00000000    0.00000000    0.00000000
     atom    8 type  4   force =     0.00000000    0.00000000    0.00000000
     atom    9 type  4   force =     0.00000000    0.00000000    0.00000000
     atom   10 type  4   force =     0.00000000    0.00000000    0.00000000
     The Hubbard contrib.    to forces
     atom    1 type  1   force =     0.00000000    0.00000000    0.00000000
     atom    2 type  1   force =     0.00000000    0.00000000    0.00000000
     atom    3 type  2   force =     0.00000000    0.00000000    0.00000000
     atom    4 type  3   force =     0.00000000    0.00000000    0.00000000
     atom    5 type  4   force =     0.00000000    0.00000000    0.00000000
     atom    6 type  4   force =     0.00000000    0.00000000    0.00000000
     atom    7 type  4   force =     0.00000000    0.00000000    0.00000000
     atom    8 type  4   force =     0.00000000    0.00000000    0.00000000
     atom    9 type  4   force =     0.00000000    0.00000000    0.00000000
     atom   10 type  4   force =     0.00000000    0.00000000    0.00000000
     The SCF correction term to forces
     atom    1 type  1   force =     0.00000003    0.00000003   -0.00000005
     atom    2 type  1   force =     0.00000002    0.00000000   -0.00000002
     atom    3 type  2   force =     0.00000143   -0.00000028   -0.00000097
     atom    4 type  3   force =    -0.00000181    0.00000027    0.00000133
     atom    5 type  4   force =     0.00001485    0.00000860   -0.00001205
     atom    6 type  4   force =    -0.00000009    0.00008122    0.00005746
     atom    7 type  4   force =    -0.00001480   -0.00000850    0.00001207
     atom    8 type  4   force =     0.00006047   -0.00003494    0.00004954
     atom    9 type  4   force =    -0.00006063    0.00003502   -0.00004939
     atom   10 type  4   force =    -0.00000015   -0.00008128   -0.00005746

     Total force =     0.025996     Total SCF correction =     0.000188

     Computing stress (Cartesian axis) and pressure

          total   stress  (Ry/bohr**3)                   (kbar)     P=     -357.76
  -0.00243198  -0.00000000  -0.00000000         -357.76       -0.00       -0.00
  -0.00000000  -0.00243198  -0.00000000           -0.00     -357.76       -0.00
  -0.00000000  -0.00000000  -0.00243198           -0.00       -0.00     -357.76

     kinetic stress (kbar)  26608.21     -0.00      0.00
                               -0.00  26608.21      0.00
                                0.00      0.00  26608.21

     local   stress (kbar) -13523.48      0.21     -0.29
                                0.21 -13522.29      0.84
                               -0.29      0.84 -13522.89

     nonloc. stress (kbar)   1253.33     -0.00     -0.00
                               -0.00   1253.33      0.00
                               -0.00      0.00   1253.33

     hartree stress (kbar)  13759.57     -0.10      0.14
                               -0.10  13759.01     -0.40
                                0.14     -0.40  13759.29

     exc-cor stress (kbar)  -4906.48     -0.00      0.00
                               -0.00  -4906.48     -0.00
                                0.00     -0.00  -4906.48

     corecor stress (kbar)      0.00      0.00      0.00
                                0.00      0.00      0.00
                                0.00      0.00      0.00

     ewald   stress (kbar) -23549.22     -0.00     -0.00
                               -0.00 -23549.22      0.00
                               -0.00      0.00 -23549.22

     hubbard stress (kbar)      0.00      0.00      0.00
                                0.00      0.00      0.00
                                0.00      0.00      0.00

     DFT-D   stress (kbar)      0.00      0.00      0.00
                                0.00      0.00      0.00
                                0.00      0.00      0.00

     XDM     stress (kbar)      0.00      0.00      0.00
                                0.00      0.00      0.00
                                0.00      0.00      0.00

     dft-nl  stress (kbar)      0.00      0.00      0.00
                                0.00      0.00      0.00
                                0.00      0.00      0.00

     TS-vdW  stress (kbar)      0.00      0.00      0.00
                                0.00      0.00      0.00
                                0.00      0.00      0.00

[...]

                                0.00      0.00      0.00

     Writing all to output data dir calculations/myprefix.save/

     General routines

     Parallel routines

   This run was terminated on:  12: 6: 9   3Mar2023

   JOB DONE.