     Program PWSCF v.7.0 starts on  4Mar2023 at 21:42:27

     R & G space division:  proc/nbgrp/npool/nimage =      32

     Reading input from espresso_7783.pwi
Warning: card &CELL ignored
Warning: card / ignored

     Current dimensions of program PWSCF are:
     Max number of different atomic species (ntypx) = 10
     Max number of k-points (npk) =  40000
     Max angular momentum in pseudopotentials (lmaxx) =  4
     file O.pbe-n-kjpaw_psl.0.1.UPF: wavefunction(s)  2P renormalized

     gamma-point specific algorithms are used
     Message from routine setup:
     using ibrav=0 with symmetry is DISCOURAGED, use correct ibrav instead

     Using Slab Decomposition

     bravais-lattice index     =            0
     lattice parameter (alat)  =      10.4012  a.u.
     unit-cell volume          =    1424.1119 (a.u.)^3
     number of atoms/cell      =           13
     number of atomic types    =            4
     number of electrons       =       119.00
     number of Kohn-Sham states=           72
     kinetic-energy cutoff     =      30.0000  Ry
     charge density cutoff     =     240.0000  Ry
     scf convergence threshold =      1.0E-06
     mixing beta               =       0.7000
     number of iterations used =            8  plain     mixing
     Exchange-correlation= SLA  PW   PBX  PBC
                           (   1   4   3   4   0   0   0)

     celldm(1)=  10.401219  celldm(2)=   0.000000  celldm(3)=   0.000000
     celldm(4)=   0.000000  celldm(5)=   0.000000  celldm(6)=   0.000000

     crystal axes: (cart. coord. in units of alat)
               a(1) = (   1.000000   0.000000   0.000000 )
               a(2) = (   0.355749   0.934581   0.000000 )
               a(3) = (   0.350928   0.241911   1.354173 )

     reciprocal axes: (cart. coord. in units 2 pi/alat)
               b(1) = (  1.000000 -0.380651 -0.191145 )
               b(2) = (  0.000000  1.069998 -0.191145 )
               b(3) = (  0.000000  0.000000  0.738458 )

     PseudoPot. # 1 for Cu read from file:
     /home/pragov/projects/rrg-bengioy-ad/pragov/crystal_structure_design/SSSP/Cu_pbe_v1.2.uspp.F.UPF
     MD5 check sum: 6e991ff952a84172a2a52a1c1e996048
     Pseudo is Ultrasoft + core correction, Zval = 19.0
     Generated by new atomic code, or converted to UPF format
     Using radial grid of  867 points,  6 beta functions with:
                l(1) =   0
                l(2) =   0
                l(3) =   1
                l(4) =   1
                l(5) =   2
                l(6) =   2
     Q(r) pseudized with  8 coefficients,  rinner =    1.150   1.150   1.150
                                                       1.150   1.150

     PseudoPot. # 2 for Se read from file:
     /home/pragov/projects/rrg-bengioy-ad/pragov/crystal_structure_design/SSSP/Se_pbe_v1.uspp.F.UPF
     MD5 check sum: 1b3568f3a8ae88f9a2a0ad0698632c85
     Pseudo is Ultrasoft + core correction, Zval =  6.0
     Generated by new atomic code, or converted to UPF format
     Using radial grid of  877 points,  6 beta functions with:
                l(1) =   0
                l(2) =   0
                l(3) =   1
                l(4) =   1
                l(5) =   2
                l(6) =   2
     Q(r) pseudized with  8 coefficients,  rinner =    1.300   1.300   1.300
                                                       1.300   1.300

     PseudoPot. # 3 for Cl read from file:
     /home/pragov/projects/rrg-bengioy-ad/pragov/crystal_structure_design/SSSP/cl_pbe_v1.4.uspp.F.UPF
     MD5 check sum: fc6f6913ecf08c9257cb748ef0700058
     Pseudo is Ultrasoft + core correction, Zval =  7.0
     Generated by new atomic code, or converted to UPF format
     Using radial grid of  909 points,  6 beta functions with:
                l(1) =   0
                l(2) =   0
                l(3) =   1
                l(4) =   1
                l(5) =   2
                l(6) =   2
     Q(r) pseudized with  8 coefficients,  rinner =    1.300   1.300   1.300
                                                       1.300   1.300

     PseudoPot. # 4 for O  read from file:
     /home/pragov/projects/rrg-bengioy-ad/pragov/crystal_structure_design/SSSP/O.pbe-n-kjpaw_psl.0.1.UPF
     MD5 check sum: 0234752ac141de4415c5fc33072bef88
     Pseudo is Projector augmented-wave + core cor, Zval =  6.0
     Generated using "atomic" code by A. Dal Corso  v.5.0.99 svn rev. 10869
     Shape of augmentation charge: BESSEL
     Using radial grid of 1095 points,  4 beta functions with:
                l(1) =   0
                l(2) =   0
                l(3) =   1
                l(4) =   1
     Q(r) pseudized with 0 coefficients

     atomic species   valence    mass     pseudopotential
        Cu            19.00    63.54600     Cu( 1.00)
        Se             6.00    78.97100     Se( 1.00)
        Cl             7.00    35.45000     Cl( 1.00)
        O              6.00    15.99900     O ( 1.00)

      2 Sym. Ops., with inversion, found

                                    s                        frac. trans.

      isym =  1     identity

 cryst.   s( 1) = (     1          0          0      )
                  (     0          1          0      )
                  (     0          0          1      )

 cart.    s( 1) = (  1.0000000  0.0000000 -0.0000000 )
                  (  0.0000000  1.0000000 -0.0000000 )
                  (  0.0000000  0.0000000  1.0000000 )

      isym =  2     inversion

 cryst.   s( 2) = (    -1          0          0      )
                  (     0         -1          0      )
                  (     0          0         -1      )

 cart.    s( 2) = ( -1.0000000 -0.0000000  0.0000000 )
                  (  0.0000000 -1.0000000  0.0000000 )
                  (  0.0000000  0.0000000 -1.0000000 )

   Cartesian axes

     site n.     atom                  positions (alat units)
         1           Cu  tau(   1) = (   0.8731083   0.6018743   1.1129124  )
         2           Cu  tau(   2) = (   0.0000000   0.0000000   0.0000000  )
         3           Cu  tau(   3) = (   0.8335688   0.5746180   0.2412609  )
         4           Se  tau(   4) = (   1.3887994   0.9573643   1.0015546  )
         5           Se  tau(   5) = (   0.3178777   0.2191280   0.3526186  )
         6           Cl  tau(   6) = (   1.0889506   0.7506645   0.4984075  )
         7           Cl  tau(   7) = (   0.6177265   0.4258278   0.8557657  )
         8           O   tau(   8) = (   0.6369184   0.8661017   0.2022539  )
         9           O   tau(   9) = (   1.0697587   0.3103905   1.1519193  )
        10           O   tau(  10) = (   1.1811021   0.8141889   1.1780359  )
        11           O   tau(  11) = (   0.5255750   0.3623034   0.1761373  )
        12           O   tau(  12) = (   0.6706512   0.8893553   1.1519193  )
        13           O   tau(  13) = (   1.0360259   0.2871370   0.2022539  )

   Crystallographic axes

     site n.     atom                  positions (cryst. coord.)
         1           Cu  tau(   1) = (  0.4312760  0.4312760  0.8218390  )
         2           Cu  tau(   2) = (  0.0000000  0.0000000  0.0000000  )
         3           Cu  tau(   3) = (  0.5687240  0.5687240  0.1781610  )
         4           Se  tau(   4) = (  0.8329350  0.8329350  0.7396060  )
         5           Se  tau(   5) = (  0.1670650  0.1670650  0.2603940  )
         6           Cl  tau(   6) = (  0.7079410  0.7079410  0.3680530  )
         7           Cl  tau(   7) = (  0.2920590  0.2920590  0.6319470  )
         8           O   tau(   8) = (  0.2685760  0.8880670  0.1493560  )
         9           O   tau(   9) = (  0.7314240  0.1119330  0.8506440  )
        10           O   tau(  10) = (  0.6460040  0.6460040  0.8699300  )
        11           O   tau(  11) = (  0.3539960  0.3539960  0.1300700  )
        12           O   tau(  12) = (  0.1119330  0.7314240  0.8506440  )
        13           O   tau(  13) = (  0.8880670  0.2685760  0.1493560  )

     number of k points=     1  Methfessel-Paxton smearing, width (Ry)=  0.0010
                       cart. coord. in units 2pi/alat
        k(    1) = (   0.0000000   0.0000000   0.0000000), wk =   2.0000000

                       cryst. coord.
        k(    1) = (   0.0000000   0.0000000   0.0000000), wk =   2.0000000

     Check: negative core charge=   -0.000008

     Initial potential from superposition of free atoms

     starting charge     115.9998, renormalised to     119.0000

     negative rho (up, down):  3.196E-02 0.000E+00
     Starting wfcs are   79 randomized atomic wfcs
     Checking if some PAW data can be deallocated...

     Self-consistent Calculation

     iteration #  1     ecut=    30.00 Ry     beta= 0.70
     Davidson diagonalization with overlap

     ethr =  1.00E-02,  avg # of iterations =  3.0

     negative rho (up, down):  3.107E-02 0.000E+00

     total energy              =   -1612.42407750 Ry
     estimated scf accuracy    <       2.95279276 Ry

[...]

     total energy              =   -1614.06192183 Ry
     estimated scf accuracy    <       0.00000187 Ry

     iteration # 26     ecut=    30.00 Ry     beta= 0.70
     Davidson diagonalization with overlap

     ethr =  1.57E-09,  avg # of iterations =  1.0

[...]

     End of self-consistent calculation

          k = 0.0000 0.0000 0.0000 (  1973 PWs)   bands (ev):

  -107.6160-106.8648-106.8647 -65.2561 -65.2162 -64.6078 -64.6075 -64.4470
   -64.2612 -64.2612 -63.8570 -63.8565 -16.2784 -16.0513 -13.7624 -13.7480
   -13.4578 -13.4197  -9.1261  -8.9503  -7.4174  -6.7700  -2.0798  -2.0225
    -1.8438  -1.5832  -1.3488  -0.7656  -0.4584   0.5779   0.7364   1.1110
     1.2701   1.3863   1.4674   1.6743   1.9711   2.0872   2.2586   2.3805
     2.3846   2.6542   2.8049   2.8349   2.8784   3.0345   3.2492   3.3304
     3.3386   3.5310   3.5906   3.6642   3.7993   4.1681   4.1834   4.2488
     4.3247   4.5203   5.0132   5.0786   5.0821   7.8059   8.5041   8.8529
     8.8594   9.6103  10.0188  10.0444  10.9587  12.4026  12.6768  12.7829

     occupation numbers
     1.0000   1.0000   1.0000   1.0000   1.0000   1.0000   1.0000   1.0000
     1.0000   1.0000   1.0000   1.0000   1.0000   1.0000   1.0000   1.0000
     1.0000   1.0000   1.0000   1.0000   1.0000   1.0000   1.0000   1.0000
     1.0000   1.0000   1.0000   1.0000   1.0000   1.0000   1.0000   1.0000
     1.0000   1.0000   1.0000   1.0000   1.0000   1.0000   1.0000   1.0000
     1.0000   1.0000   1.0000   1.0000   1.0000   1.0000   1.0000   1.0000
     1.0000   1.0000   1.0000   1.0000   1.0000   1.0000   1.0000   1.0000
     1.0000   1.0000   1.0000   0.3420   0.1580  -0.0000  -0.0000  -0.0000
    -0.0000  -0.0000  -0.0000  -0.0000  -0.0000  -0.0000  -0.0000  -0.0000

     the Fermi energy is     5.0760 ev

!    total energy              =   -1614.06192174 Ry
     estimated scf accuracy    <       0.00000012 Ry
     smearing contrib. (-TS)   =      -0.00038883 Ry
     internal energy E=F+TS    =   -1614.06153291 Ry

     The total energy is F=E-TS. E is the sum of the following terms:
     one-electron contribution =   -1592.65709981 Ry
     hartree contribution      =     844.52093469 Ry
     xc contribution           =    -238.82778090 Ry
     ewald contribution        =    -569.93610022 Ry
     one-center paw contrib.   =     -57.16148668 Ry
      -> PAW hartree energy AE =       0.00000000 Ry
      -> PAW hartree energy PS =       0.00000000 Ry
      -> PAW xc energy AE      =       0.00000000 Ry
      -> PAW xc energy PS      =       0.00000000 Ry
      -> total E_H with PAW    =     844.52093469 Ry
      -> total E_XC with PAW   =    -238.82778090 Ry

     convergence has been achieved in  26 iterations

     negative rho (up, down):  3.049E-02 0.000E+00

     Forces acting on atoms (cartesian axes, Ry/au):

     atom    1 type  1   force =     0.01769621    0.01218259    0.02391766
     atom    2 type  1   force =     0.00000000    0.00000000    0.00000000
     atom    3 type  1   force =    -0.01769621   -0.01218259   -0.02391766
     atom    4 type  2   force =     0.00008461    0.00005845    0.00553579
     atom    5 type  2   force =    -0.00008461   -0.00005845   -0.00553579
     atom    6 type  3   force =     0.00070462    0.00048552    0.00917520
     atom    7 type  3   force =    -0.00070462   -0.00048552   -0.00917520
     atom    8 type  4   force =     0.00082825    0.02541543    0.00756636
     atom    9 type  4   force =    -0.00082825   -0.02541543   -0.00756636
     atom   10 type  4   force =     0.00176685    0.00121780    0.01968153
     atom   11 type  4   force =    -0.00176685   -0.00121780   -0.01968153
     atom   12 type  4   force =    -0.02404774    0.00826733   -0.00756612
     atom   13 type  4   force =     0.02404774   -0.00826733    0.00756612
     The non-local contrib.  to forces
     atom    1 type  1   force =     0.16688367    0.11503615   -0.04230754
     atom    2 type  1   force =     0.00000000    0.00000000    0.00000000
     atom    3 type  1   force =    -0.16688367   -0.11503615    0.04230754
     atom    4 type  2   force =     0.08098128    0.05582507    0.77872573
     atom    5 type  2   force =    -0.08098128   -0.05582507   -0.77872573
     atom    6 type  3   force =    -0.10859686   -0.07486017   -0.15221163
     atom    7 type  3   force =     0.10859686    0.07486017    0.15221163
     atom    8 type  4   force =     0.03347105    0.88459011    0.38335677
     atom    9 type  4   force =    -0.03347105   -0.88459011   -0.38335677
     atom   10 type  4   force =     0.95506908    0.65837353   -0.92208101
     atom   11 type  4   force =    -0.95506908   -0.65837353    0.92208101
     atom   12 type  4   force =    -0.83862610    0.28341192   -0.38335580
     atom   13 type  4   force =     0.83862610   -0.28341192    0.38335580
     The ionic contribution  to forces
     atom    1 type  1   force =    -3.90906465   -2.69470094  -36.45583822
     atom    2 type  1   force =     0.00000000    0.00000000    0.00000000
     atom    3 type  1   force =     3.90906465    2.69470094   36.45583822
     atom    4 type  2   force =    -1.74992083   -1.20630221  -19.68097225
     atom    5 type  2   force =     1.74992084    1.20630221   19.68097225
     atom    6 type  3   force =     6.31192140    4.35110238   15.41710562
     atom    7 type  3   force =    -6.31192140   -4.35110238  -15.41710562
     atom    8 type  4   force =     2.12357735    3.19273178   12.56267086
     atom    9 type  4   force =    -2.12357735   -3.19273178  -12.56267086
     atom   10 type  4   force =     4.27967416    2.95017939  -11.28218571
     atom   11 type  4   force =    -4.27967416   -2.95017940   11.28218571
     atom   12 type  4   force =    -3.73932903   -0.84884356  -12.56267086
     atom   13 type  4   force =     3.73932903    0.84884356   12.56267086
     The local contribution  to forces
     atom    1 type  1   force =     3.75992558    2.59193085   36.52190222
     atom    2 type  1   force =     0.00010874    0.00004711    0.00051182
     atom    3 type  1   force =    -3.75988967   -2.59184260  -36.52142198
     atom    4 type  2   force =     1.68059777    1.15850472   19.00608661
     atom    5 type  2   force =    -1.68059499   -1.15851925  -19.00619066
     atom    6 type  3   force =    -6.20545308   -4.27771195  -15.25997375
     atom    7 type  3   force =     6.20533573    4.27762798   15.25967012
     atom    8 type  4   force =    -2.15559265   -4.04346204  -12.93441666
     atom    9 type  4   force =     2.15576659    4.04314817   12.93471493
     atom   10 type  4   force =    -5.22344931   -3.60076621   12.21499102
     atom   11 type  4   force =     5.22364219    3.60089982  -12.21454356
     atom   12 type  4   force =     4.54553957    0.57637333   12.93469852
     atom   13 type  4   force =    -4.54581219   -0.57612615  -12.93442177
     The core correction contribution to forces
     atom    1 type  1   force =     0.00000552    0.00000388    0.00032382
     atom    2 type  1   force =     0.00000011    0.00000001    0.00000002
     atom    3 type  1   force =    -0.00000551   -0.00000374   -0.00032371
     atom    4 type  2   force =    -0.01160408   -0.00799960   -0.09838788
     atom    5 type  2   force =     0.01160292    0.00799849    0.09838618
     atom    6 type  3   force =     0.00272752    0.00188011    0.00412976
     atom    7 type  3   force =    -0.00272831   -0.00188077   -0.00413009
     atom    8 type  4   force =    -0.00040160   -0.00868992   -0.00380156
     atom    9 type  4   force =     0.00040228    0.00868808    0.00380270
     atom   10 type  4   force =    -0.00947722   -0.00653309    0.00916719
     atom   11 type  4   force =     0.00947789    0.00653355   -0.00916608
     atom   12 type  4   force =     0.00826260   -0.00271501    0.00380256
     atom   13 type  4   force =    -0.00826444    0.00271596   -0.00380162
     The Hubbard contrib.    to forces
     atom    1 type  1   force =     0.00000000    0.00000000    0.00000000
     atom    2 type  1   force =     0.00000000    0.00000000    0.00000000
     atom    3 type  1   force =     0.00000000    0.00000000    0.00000000
     atom    4 type  2   force =     0.00000000    0.00000000    0.00000000
     atom    5 type  2   force =     0.00000000    0.00000000    0.00000000
     atom    6 type  3   force =     0.00000000    0.00000000    0.00000000
     atom    7 type  3   force =     0.00000000    0.00000000    0.00000000
     atom    8 type  4   force =     0.00000000    0.00000000    0.00000000
     atom    9 type  4   force =     0.00000000    0.00000000    0.00000000
     atom   10 type  4   force =     0.00000000    0.00000000    0.00000000
     atom   11 type  4   force =     0.00000000    0.00000000    0.00000000
     atom   12 type  4   force =     0.00000000    0.00000000    0.00000000
     atom   13 type  4   force =     0.00000000    0.00000000    0.00000000
     The SCF correction term to forces
     atom    1 type  1   force =    -0.00006650   -0.00008242   -0.00014877
     atom    2 type  1   force =    -0.00007189   -0.00005801   -0.00048658
     atom    3 type  1   force =     0.00000542    0.00000389   -0.00030387
     atom    4 type  2   force =     0.00002682    0.00002508    0.00006484
     atom    5 type  2   force =    -0.00003576   -0.00002020    0.00000343
     atom    6 type  3   force =     0.00009886    0.00006988    0.00012800
     atom    7 type  3   force =     0.00000569    0.00000421    0.00018156
     atom    8 type  4   force =    -0.00020780    0.00019269   -0.00020661
     atom    9 type  4   force =     0.00006937    0.00001740   -0.00001993
     atom   10 type  4   force =    -0.00003053   -0.00002384   -0.00017243
     atom   11 type  4   force =    -0.00012437   -0.00008626   -0.00020108
     atom   12 type  4   force =     0.00004559    0.00006617   -0.00001085
     atom   13 type  4   force =     0.00010962   -0.00026326   -0.00020746

     Total force =     0.076798     Total SCF correction =     0.000892

     Computing stress (Cartesian axis) and pressure

     negative rho (up, down):  3.049E-02 0.000E+00
          total   stress  (Ry/bohr**3)                   (kbar)     P=     -374.34
  -0.00250342  -0.00003503   0.00006643         -368.27       -5.15        9.77
  -0.00003503  -0.00247676   0.00004579           -5.15     -364.34        6.74
   0.00006643   0.00004579  -0.00265404            9.77        6.74     -390.42

     kinetic stress (kbar)  17944.19     33.11   -316.14
                               33.11  17918.98   -217.93
                             -316.14   -217.93  18259.26

     local   stress (kbar) -55915.37   7371.98 -16327.65
                             7371.98 -61527.68 -11255.41
                           -16327.65 -11255.41  21938.04

     nonloc. stress (kbar)  10110.15     97.19    -79.20
                               97.19  10036.16    -54.60
                              -79.20    -54.60  10222.32

     hartree stress (kbar)  40432.46  -3482.81   6667.22
                            -3482.81  43083.93   4596.02
                             6667.22   4596.02   3719.26

     exc-cor stress (kbar)    176.00      1.13      7.11
                                1.13    175.14      4.90
                                7.11      4.90    168.67

     corecor stress (kbar)  -6330.78     -3.31      3.17
                               -3.31  -6328.26      2.19
                                3.17      2.19  -6333.37

     ewald   stress (kbar)  -6784.91  -4022.45  10055.27
                            -4022.45  -3722.61   6931.57
                            10055.27   6931.57 -48364.60

     hubbard stress (kbar)      0.00      0.00      0.00
                                0.00      0.00      0.00
                                0.00      0.00      0.00

     DFT-D   stress (kbar)      0.00      0.00      0.00
                                0.00      0.00      0.00
                                0.00      0.00      0.00

     XDM     stress (kbar)      0.00      0.00      0.00
                                0.00      0.00      0.00
                                0.00      0.00      0.00

     dft-nl  stress (kbar)      0.00      0.00      0.00
                                0.00      0.00      0.00
                                0.00      0.00      0.00

     TS-vdW  stress (kbar)      0.00      0.00      0.00
                                0.00      0.00      0.00
                                0.00      0.00      0.00

[...]

                                0.00      0.00      0.00

     Writing all to output data dir calculations/myprefix.save/

     General routines

     Parallel routines

     PAW routines

   This run was terminated on:  21:42:31   4Mar2023

   JOB DONE.