     Program PWSCF v.7.0 starts on  4Mar2023 at 21:19:25

     R & G space division:  proc/nbgrp/npool/nimage =      32

     Reading input from espresso_7715.pwi
Warning: card &CELL ignored
Warning: card / ignored

     Current dimensions of program PWSCF are:
     Max number of different atomic species (ntypx) = 10
     Max number of k-points (npk) =  40000
     Max angular momentum in pseudopotentials (lmaxx) =  4
     file O.pbe-n-kjpaw_psl.0.1.UPF: wavefunction(s)  2P renormalized

     gamma-point specific algorithms are used
     Message from routine setup:
     using ibrav=0 with symmetry is DISCOURAGED, use correct ibrav instead

     Using Slab Decomposition

     bravais-lattice index     =            0
     lattice parameter (alat)  =      10.9722  a.u.
     unit-cell volume          =    1209.9368 (a.u.)^3
     number of atoms/cell      =           18
     number of atomic types    =            5
     number of electrons       =        80.00
     number of Kohn-Sham states=           48
     kinetic-energy cutoff     =      30.0000  Ry
     charge density cutoff     =     240.0000  Ry
     scf convergence threshold =      1.0E-06
     mixing beta               =       0.7000
     number of iterations used =            8  plain     mixing
     Exchange-correlation= SLA  PW   PBX  PBC
                           (   1   4   3   4   0   0   0)

     celldm(1)=  10.972238  celldm(2)=   0.000000  celldm(3)=   0.000000
     celldm(4)=   0.000000  celldm(5)=   0.000000  celldm(6)=   0.000000

     crystal axes: (cart. coord. in units of alat)
               a(1) = (   1.000000   0.000000   0.000000 )
               a(2) = (  -0.500000   0.866025   0.000000 )
               a(3) = (   0.000000   0.000000   1.057661 )

     reciprocal axes: (cart. coord. in units 2 pi/alat)
               b(1) = (  1.000000  0.577350  0.000000 )
               b(2) = (  0.000000  1.154701  0.000000 )
               b(3) = (  0.000000  0.000000  0.945483 )

     PseudoPot. # 1 for Na read from file:
     /home/pragov/projects/rrg-bengioy-ad/pragov/crystal_structure_design/SSSP/na_pbe_v1.5.uspp.F.UPF
     MD5 check sum: 44600605ef58000f06b90626533354dc
     Pseudo is Ultrasoft, Zval =  9.0
     Generated by new atomic code, or converted to UPF format
     Using radial grid of  819 points,  5 beta functions with:
                l(1) =   0
                l(2) =   0
                l(3) =   1
                l(4) =   1
                l(5) =   2
     Q(r) pseudized with  8 coefficients,  rinner =    1.250   1.250   1.250
                                                       1.250   1.250

     PseudoPot. # 2 for P  read from file:
     /home/pragov/projects/rrg-bengioy-ad/pragov/crystal_structure_design/SSSP/P.pbe-n-rrkjus_psl.1.0.0.UPF
     MD5 check sum: 8b930f418f0a4573dca56cd030ffe088
     Pseudo is Ultrasoft + core correction, Zval =  5.0
     Generated using "atomic" code by A. Dal Corso  v.5.1
     Using radial grid of 1147 points,  6 beta functions with:
                l(1) =   0
                l(2) =   0
                l(3) =   1
                l(4) =   1
                l(5) =   2
                l(6) =   2
     Q(r) pseudized with 0 coefficients

     PseudoPot. # 3 for H  read from file:
     /home/pragov/projects/rrg-bengioy-ad/pragov/crystal_structure_design/SSSP/H.pbe-rrkjus_psl.1.0.0.UPF
     MD5 check sum: f52b6d4d1c606e5624b1dc7b2218f220
     Pseudo is Ultrasoft, Zval =  1.0
     Generated using "atomic" code by A. Dal Corso  v.5.1
     Using radial grid of  929 points,  2 beta functions with:
                l(1) =   0
                l(2) =   0
     Q(r) pseudized with 0 coefficients

     PseudoPot. # 4 for N  read from file:
     /home/pragov/projects/rrg-bengioy-ad/pragov/crystal_structure_design/SSSP/N.pbe-n-radius_5.UPF
     MD5 check sum: 16739722b17309cd8fe442a2ace49922
     Pseudo is Ultrasoft + core correction, Zval =  5.0
     Generated using "atomic" code by A. Dal Corso  v.5.1
     Using radial grid of 1085 points,  4 beta functions with:
                l(1) =   0
                l(2) =   0
                l(3) =   1
                l(4) =   1
     Q(r) pseudized with 0 coefficients

     PseudoPot. # 5 for O  read from file:
     /home/pragov/projects/rrg-bengioy-ad/pragov/crystal_structure_design/SSSP/O.pbe-n-kjpaw_psl.0.1.UPF
     MD5 check sum: 0234752ac141de4415c5fc33072bef88
     Pseudo is Projector augmented-wave + core cor, Zval =  6.0
     Generated using "atomic" code by A. Dal Corso  v.5.0.99 svn rev. 10869
     Shape of augmentation charge: BESSEL
     Using radial grid of 1095 points,  4 beta functions with:
                l(1) =   0
                l(2) =   0
                l(3) =   1
                l(4) =   1
     Q(r) pseudized with 0 coefficients

     atomic species   valence    mass     pseudopotential
        Na             9.00    22.98977     Na( 1.00)
        P              5.00    30.97376     P ( 1.00)
        H              1.00     1.00800     H ( 1.00)
        N              5.00    14.00700     N ( 1.00)
        O              6.00    15.99900     O ( 1.00)

      6 Sym. Ops. (no inversion) found ( 3 have fractional translation)

                                    s                        frac. trans.

      isym =  1     identity

 cryst.   s( 1) = (     1          0          0      )
                  (     0          1          0      )
                  (     0          0          1      )

 cart.    s( 1) = (  1.0000000 -0.0000000  0.0000000 )
                  (  0.0000000  1.0000000  0.0000000 )
                  (  0.0000000  0.0000000  1.0000000 )

      isym =  2     180 deg rotation - cart. axis [0,0,1]

 cryst.   s( 2) = (    -1          0          0      )    f =(  0.0000000 )
                  (     0         -1          0      )       (  0.0000000 )
                  (     0          0          1      )       (  0.5000000 )

 cart.    s( 2) = ( -1.0000000  0.0000000  0.0000000 )    f =(  0.0000000 )
                  (  0.0000000 -1.0000000  0.0000000 )       (  0.0000000 )
                  (  0.0000000  0.0000000  1.0000000 )       (  0.5288304 )

      isym =  3      60 deg rotation - cryst. axis [0,0,1]

[...]

 cryst.   s( 4) = (     0         -1          0      )    f =(  0.0000000 )
                  (     1          1          0      )       (  0.0000000 )
                  (     0          0          1      )       (  0.5000000 )

 cart.    s( 4) = (  0.5000000  0.8660254  0.0000000 )    f =(  0.0000000 )
                  ( -0.8660254  0.5000000  0.0000000 )       (  0.0000000 )
                  (  0.0000000  0.0000000  1.0000000 )       (  0.5288304 )

[...]

      isym =  6     120 deg rotation - cryst. axis [0,0,-1]

 cryst.   s( 6) = (    -1         -1          0      )
                  (     1          0          0      )
                  (     0          0          1      )

 cart.    s( 6) = ( -0.5000000  0.8660254  0.0000000 )
                  ( -0.8660254 -0.5000000  0.0000000 )
                  (  0.0000000  0.0000000  1.0000000 )

   Cartesian axes

     site n.     atom                  positions (alat units)
         1           Na  tau(   1) = (   0.0000000   0.0000000   0.5280975  )
         2           Na  tau(   2) = (   0.0000000   0.0000000   1.0569279  )
         3           P   tau(   3) = (   0.5000005   0.2886748   0.8542166  )
         4           P   tau(   4) = (  -0.0000005   0.5773506   0.3253862  )
         5           H   tau(   5) = (   0.5991035   0.4258844   0.1718371  )
         6           H   tau(   6) = (   0.5692750   0.1342443   0.1718371  )
         7           H   tau(   7) = (   0.3316215   0.3058966   0.1718371  )
         8           H   tau(   8) = (  -0.0991035   0.4401410   0.7006675  )
         9           H   tau(   9) = (  -0.0692750   0.7317811   0.7006675  )
        10           H   tau(  10) = (   0.1683785   0.5601288   0.7006675  )
        11           N   tau(  11) = (   0.5000005   0.2886748   0.1076350  )
        12           N   tau(  12) = (  -0.0000005   0.5773506   0.6364654  )
        13           O   tau(  13) = (   0.3008410   0.1281406   0.7932393  )
        14           O   tau(  14) = (   0.4605525   0.5414192   0.7932393  )
        15           O   tau(  15) = (   0.7386065   0.1964657   0.7932393  )
        16           O   tau(  16) = (   0.1991590   0.7378848   0.2644089  )
        17           O   tau(  17) = (   0.0394475   0.3246062   0.2644089  )
        18           O   tau(  18) = (  -0.2386065   0.6695597   0.2644089  )

   Crystallographic axes

     site n.     atom                  positions (cryst. coord.)
         1           Na  tau(   1) = (  0.0000000  0.0000000  0.4993070  )
         2           Na  tau(   2) = (  0.0000000  0.0000000  0.9993070  )
         3           P   tau(   3) = (  0.6666670  0.3333330  0.8076470  )
         4           P   tau(   4) = (  0.3333330  0.6666670  0.3076470  )
         5           H   tau(   5) = (  0.8449880  0.4917690  0.1624690  )
         6           H   tau(   6) = (  0.6467810  0.1550120  0.1624690  )
         7           H   tau(   7) = (  0.5082310  0.3532190  0.1624690  )
         8           H   tau(   8) = (  0.1550120  0.5082310  0.6624690  )
         9           H   tau(   9) = (  0.3532190  0.8449880  0.6624690  )
        10           H   tau(  10) = (  0.4917690  0.6467810  0.6624690  )
        11           N   tau(  11) = (  0.6666670  0.3333330  0.1017670  )
        12           N   tau(  12) = (  0.3333330  0.6666670  0.6017670  )
        13           O   tau(  13) = (  0.3748230  0.1479640  0.7499940  )
        14           O   tau(  14) = (  0.7731410  0.6251770  0.7499940  )
        15           O   tau(  15) = (  0.8520360  0.2268590  0.7499940  )
        16           O   tau(  16) = (  0.6251770  0.8520360  0.2499940  )
        17           O   tau(  17) = (  0.2268590  0.3748230  0.2499940  )
        18           O   tau(  18) = (  0.1479640  0.7731410  0.2499940  )

     number of k points=     1  Methfessel-Paxton smearing, width (Ry)=  0.0010
                       cart. coord. in units 2pi/alat
        k(    1) = (   0.0000000   0.0000000   0.0000000), wk =   2.0000000

                       cryst. coord.
        k(    1) = (   0.0000000   0.0000000   0.0000000), wk =   2.0000000

     Check: negative core charge=   -0.000011

     Initial potential from superposition of free atoms

     starting charge      79.9870, renormalised to      80.0000
     Starting wfcs are   56 randomized atomic wfcs
     Checking if some PAW data can be deallocated...

     Self-consistent Calculation

     iteration #  1     ecut=    30.00 Ry     beta= 0.70
     Davidson diagonalization with overlap

     ethr =  1.00E-02,  avg # of iterations =  4.0

     total energy              =    -515.40053249 Ry
     estimated scf accuracy    <       2.87784949 Ry

[...]

     total energy              =    -516.60734326 Ry
     estimated scf accuracy    <       0.00001211 Ry

     iteration #  9     ecut=    30.00 Ry     beta= 0.70
     Davidson diagonalization with overlap

     ethr =  1.51E-08,  avg # of iterations =  2.0

     End of self-consistent calculation

          k = 0.0000 0.0000 0.0000 (  1679 PWs)   bands (ev):

   -46.8056 -46.7967 -18.8298 -18.7337 -18.7337 -18.6962 -18.6962 -18.6690
   -17.4330 -17.0570 -15.0175 -15.0174 -14.9994 -14.9992 -14.5847 -14.1028
    -5.6492  -4.9844  -4.7657  -4.7657  -4.5163  -4.5162  -3.1377  -2.8142
    -1.6638  -1.6637  -1.1822  -1.1822   0.3164   0.4557   0.4557   0.9809
     0.9809   1.0595   1.4417   1.4418   1.5762   1.5762   2.1879   2.2923
     7.2271  10.1056  10.4384  11.1929  11.1983  11.1986  11.2521  11.3448

     occupation numbers
     1.0000   1.0000   1.0000   1.0000   1.0000   1.0000   1.0000   1.0000
     1.0000   1.0000   1.0000   1.0000   1.0000   1.0000   1.0000   1.0000
     1.0000   1.0000   1.0000   1.0000   1.0000   1.0000   1.0000   1.0000
     1.0000   1.0000   1.0000   1.0000   1.0000   1.0000   1.0000   1.0000
     1.0000   1.0000   1.0000   1.0000   1.0000   1.0000   1.0000   1.0000
    -0.0000  -0.0000  -0.0000  -0.0000  -0.0000  -0.0000  -0.0000  -0.0000

     the Fermi energy is     4.1780 ev

!    total energy              =    -516.60734616 Ry
     estimated scf accuracy    <       0.00000005 Ry
     smearing contrib. (-TS)   =       0.00000000 Ry
     internal energy E=F+TS    =    -516.60734616 Ry

     The total energy is F=E-TS. E is the sum of the following terms:
     one-electron contribution =    -272.38144292 Ry
     hartree contribution      =     171.74999298 Ry
     xc contribution           =     -98.46578205 Ry
     ewald contribution        =    -260.42427965 Ry
     one-center paw contrib.   =     -57.08583451 Ry
      -> PAW hartree energy AE =       0.00000000 Ry
      -> PAW hartree energy PS =       0.00000000 Ry
      -> PAW xc energy AE      =       0.00000000 Ry
      -> PAW xc energy PS      =       0.00000000 Ry
      -> total E_H with PAW    =     171.74999298 Ry
      -> total E_XC with PAW   =     -98.46578205 Ry

     convergence has been achieved in   9 iterations

     Forces acting on atoms (cartesian axes, Ry/au):

     atom    1 type  1   force =    -0.00000000   -0.00000000   -0.00337229
     atom    2 type  1   force =    -0.00000000   -0.00000000   -0.00337229
     atom    3 type  2   force =     0.00000000   -0.00000000   -0.00371568
     atom    4 type  2   force =     0.00000000    0.00000000   -0.00371568
     atom    5 type  3   force =     0.00335284    0.00499978   -0.00279571
     atom    6 type  3   force =     0.00265352   -0.00540353   -0.00279571
     atom    7 type  3   force =    -0.00600636    0.00040375   -0.00279571
     atom    8 type  3   force =    -0.00335284   -0.00499978   -0.00279571
     atom    9 type  3   force =    -0.00265352    0.00540353   -0.00279571
     atom   10 type  3   force =     0.00600636   -0.00040375   -0.00279571
     atom   11 type  4   force =     0.00000000    0.00000000   -0.01258717
     atom   12 type  4   force =     0.00000000    0.00000000   -0.01258717
     atom   13 type  5   force =     0.01962322   -0.01405163    0.00935408
     atom   14 type  5   force =    -0.02198068   -0.00996839    0.00935408
     atom   15 type  5   force =     0.00235746    0.02402002    0.00935408
     atom   16 type  5   force =    -0.01962322    0.01405163    0.00935408
     atom   17 type  5   force =     0.02198068    0.00996839    0.00935408
     atom   18 type  5   force =    -0.00235746   -0.02402002    0.00935408
     The non-local contrib.  to forces
     atom    1 type  1   force =     0.00000000   -0.00000000    0.04023036
     atom    2 type  1   force =     0.00000000    0.00000000    0.04023036
     atom    3 type  2   force =    -0.00000000   -0.00000000    0.12442370
     atom    4 type  2   force =     0.00000000    0.00000000    0.12442370
     atom    5 type  3   force =    -0.04979011   -0.06856980   -0.03258558
     atom    6 type  3   force =    -0.03448814    0.07740440   -0.03258558
     atom    7 type  3   force =     0.08427824   -0.00883460   -0.03258558
     atom    8 type  3   force =     0.04979011    0.06856980   -0.03258558
     atom    9 type  3   force =     0.03448814   -0.07740440   -0.03258558
     atom   10 type  3   force =    -0.08427824    0.00883460   -0.03258558
     atom   11 type  4   force =     0.00000000    0.00000000    0.20763082
     atom   12 type  4   force =     0.00000000    0.00000000    0.20763082
     atom   13 type  5   force =     1.33761187    0.99260715    0.34632982
     atom   14 type  5   force =     0.19081705   -1.65470943    0.34632982
     atom   15 type  5   force =    -1.52842892    0.66210228    0.34632982
     atom   16 type  5   force =    -1.33761187   -0.99260715    0.34632982
     atom   17 type  5   force =    -0.19081705    1.65470943    0.34632982
     atom   18 type  5   force =     1.52842892   -0.66210228    0.34632982
     The ionic contribution  to forces
     atom    1 type  1   force =    -0.00000371    0.00000214   -0.11092196
     atom    2 type  1   force =     0.00000371   -0.00000214   -0.11092196
     atom    3 type  2   force =    -0.00003279    0.00001903    0.26500426
     atom    4 type  2   force =     0.00003279   -0.00001903    0.26500426
     atom    5 type  3   force =     0.93616177    1.20127004    0.99217860
     atom    6 type  3   force =     0.57224146   -1.41138948    0.99218480
     atom    7 type  3   force =    -1.50839841    0.21011672    0.99217044
     atom    8 type  3   force =    -0.93616177   -1.20127004    0.99217860
     atom    9 type  3   force =    -0.57224146    1.41138948    0.99218480
     atom   10 type  3   force =     1.50839842   -0.21011672    0.99217044
     atom   11 type  4   force =    -0.00002289    0.00001313    2.44896796
     atom   12 type  4   force =     0.00002289   -0.00001313    2.44896796
     atom   13 type  5   force =    -2.65084178   -2.63972247   -1.85985550
     atom   14 type  5   force =    -0.96068805    3.61554504   -1.85985372
     atom   15 type  5   force =     3.61154073   -0.97582905   -1.85987488
     atom   16 type  5   force =     2.65084178    2.63972248   -1.85985550
     atom   17 type  5   force =     0.96068805   -3.61554504   -1.85985372
     atom   18 type  5   force =    -3.61154073    0.97582905   -1.85987488
     The local contribution  to forces
     atom    1 type  1   force =     0.00001753    0.00002040    0.06734814
     atom    2 type  1   force =     0.00002022    0.00002699    0.06736434
     atom    3 type  2   force =     0.00002687    0.00000498   -0.38063633
     atom    4 type  2   force =     0.00000865    0.00003264   -0.38061731
     atom    5 type  3   force =    -0.88303322   -1.12771031   -0.96237875
     atom    6 type  3   force =    -0.53510536    1.32858754   -0.96238016
     atom    7 type  3   force =     1.41812654   -0.20088178   -0.96237102
     atom    8 type  3   force =     0.88303251    1.12771230   -0.96237729
     atom    9 type  3   force =     0.53510900   -1.32859092   -0.96238472
     atom   10 type  3   force =    -1.41813991    0.20088286   -0.96237821
     atom   11 type  4   force =    -0.00003125   -0.00001245   -2.66767974
     atom   12 type  4   force =     0.00004582    0.00003316   -2.66772600
     atom   13 type  5   force =     1.34435635    1.64165004    1.52547404
     atom   14 type  5   force =     0.74957612   -1.98521283    1.52554754
     atom   15 type  5   force =    -2.09392046    0.34340813    1.52546655
     atom   16 type  5   force =    -1.34443235   -1.64170570    1.52554290
     atom   17 type  5   force =    -0.74948942    1.98505478    1.52548221
     atom   18 type  5   force =     2.09390591   -0.34337549    1.52546923
     The core correction contribution to forces
     atom    1 type  1   force =     0.00000000    0.00000000    0.00000000
     atom    2 type  1   force =     0.00000000    0.00000000    0.00000000
     atom    3 type  2   force =     0.00000051    0.00000534   -0.01248961
     atom    4 type  2   force =     0.00000194    0.00000293   -0.01248836
     atom    5 type  3   force =     0.00000000    0.00000000    0.00000000
     atom    6 type  3   force =     0.00000000    0.00000000    0.00000000
     atom    7 type  3   force =     0.00000000    0.00000000    0.00000000
     atom    8 type  3   force =     0.00000000    0.00000000    0.00000000
     atom    9 type  3   force =     0.00000000    0.00000000    0.00000000
     atom   10 type  3   force =     0.00000000    0.00000000    0.00000000
     atom   11 type  4   force =    -0.00000014   -0.00000022   -0.00140256
     atom   12 type  4   force =     0.00000040    0.00000011   -0.00140313
     atom   13 type  5   force =    -0.01157130   -0.00865194   -0.00269262
     atom   14 type  5   force =    -0.00170723    0.01434617   -0.00269157
     atom   15 type  5   force =     0.01327891   -0.00569455   -0.00269269
     atom   16 type  5   force =     0.01157088    0.00865166   -0.00269217
     atom   17 type  5   force =     0.00170795   -0.01434689   -0.00269265
     atom   18 type  5   force =    -0.01327896    0.00569496   -0.00269249
     The Hubbard contrib.    to forces
     atom    1 type  1   force =     0.00000000    0.00000000    0.00000000
     atom    2 type  1   force =     0.00000000    0.00000000    0.00000000
     atom    3 type  2   force =     0.00000000    0.00000000    0.00000000
     atom    4 type  2   force =     0.00000000    0.00000000    0.00000000
     atom    5 type  3   force =     0.00000000    0.00000000    0.00000000
     atom    6 type  3   force =     0.00000000    0.00000000    0.00000000
     atom    7 type  3   force =     0.00000000    0.00000000    0.00000000
     atom    8 type  3   force =     0.00000000    0.00000000    0.00000000
     atom    9 type  3   force =     0.00000000    0.00000000    0.00000000
     atom   10 type  3   force =     0.00000000    0.00000000    0.00000000
     atom   11 type  4   force =     0.00000000    0.00000000    0.00000000
     atom   12 type  4   force =     0.00000000    0.00000000    0.00000000
     atom   13 type  5   force =     0.00000000    0.00000000    0.00000000
     atom   14 type  5   force =     0.00000000    0.00000000    0.00000000
     atom   15 type  5   force =     0.00000000    0.00000000    0.00000000
     atom   16 type  5   force =     0.00000000    0.00000000    0.00000000
     atom   17 type  5   force =     0.00000000    0.00000000    0.00000000
     atom   18 type  5   force =     0.00000000    0.00000000    0.00000000
     The SCF correction term to forces
     atom    1 type  1   force =     0.00000232   -0.00000988   -0.00001022
     atom    2 type  1   force =    -0.00000805   -0.00001696   -0.00004526
     atom    3 type  2   force =     0.00001061    0.00004422   -0.00002313
     atom    4 type  2   force =    -0.00003565    0.00001089   -0.00001413
     atom    5 type  3   force =     0.00001272    0.00001000   -0.00000107
     atom    6 type  3   force =     0.00000770   -0.00001120   -0.00000279
     atom    7 type  3   force =    -0.00000781    0.00000243   -0.00000394
     atom    8 type  3   force =    -0.00001413   -0.00001178   -0.00000076
     atom    9 type  3   force =    -0.00001029    0.00001242    0.00000054
     atom   10 type  3   force =     0.00002278   -0.00000521    0.00000491
     atom   11 type  4   force =     0.00003497    0.00000353   -0.00008393
     atom   12 type  4   force =    -0.00005340   -0.00003476   -0.00005816
     atom   13 type  5   force =     0.00004141    0.00006512    0.00009750
     atom   14 type  5   force =     0.00005175    0.00001107    0.00006256
     atom   15 type  5   force =    -0.00006710    0.00004563    0.00012359
     atom   16 type  5   force =    -0.00001587   -0.00004148    0.00003848
     atom   17 type  5   force =    -0.00009869    0.00008706    0.00007976
     atom   18 type  5   force =     0.00010027   -0.00006786    0.00013875

     Total force =     0.068203     Total SCF correction =     0.000360

     Computing stress (Cartesian axis) and pressure

          total   stress  (Ry/bohr**3)                   (kbar)     P=     -257.17
  -0.00162987  -0.00000000   0.00000000         -239.76       -0.00        0.00
  -0.00000000  -0.00162987   0.00000000           -0.00     -239.76        0.00
   0.00000000   0.00000000  -0.00198494            0.00        0.00     -291.99

     kinetic stress (kbar)  14434.00      0.00      0.00
                                0.00  14434.00      0.00
                                0.00      0.00  14920.89

     local   stress (kbar)  -1513.14      0.03     -0.00
                                0.03  -1513.09     -0.02
                               -0.00     -0.02   2529.80

     nonloc. stress (kbar)  -7335.94     -0.00     -0.00
                               -0.00  -7335.94     -0.00
                                0.00      0.00  -7423.38

     hartree stress (kbar)   7208.26     -0.01     -0.00
                               -0.01   7208.24      0.01
                               -0.00      0.01   6464.99

     exc-cor stress (kbar)  -3074.41     -0.00     -0.00
                               -0.00  -3074.41     -0.00
                               -0.00     -0.00  -3092.96

     corecor stress (kbar)   -651.39     -0.00     -0.00
                               -0.00   -651.39     -0.00
                               -0.00     -0.00   -643.08

     ewald   stress (kbar)  -9307.15     -0.02     -0.00
                               -0.02  -9307.18     -0.00
                               -0.00     -0.00 -13048.25

     hubbard stress (kbar)      0.00      0.00      0.00
                                0.00      0.00      0.00
                                0.00      0.00      0.00

     DFT-D   stress (kbar)      0.00      0.00      0.00
                                0.00      0.00      0.00
                                0.00      0.00      0.00

     XDM     stress (kbar)      0.00      0.00      0.00
                                0.00      0.00      0.00
                                0.00      0.00      0.00

     dft-nl  stress (kbar)      0.00      0.00      0.00
                                0.00      0.00      0.00
                                0.00      0.00      0.00

     TS-vdW  stress (kbar)      0.00      0.00      0.00
                                0.00      0.00      0.00
                                0.00      0.00      0.00

[...]

                                0.00      0.00      0.00

     Writing all to output data dir calculations/myprefix.save/

     General routines

     Parallel routines

     PAW routines

   This run was terminated on:  21:19:28   4Mar2023

   JOB DONE.