     Program PWSCF v.7.0 starts on  3Mar2023 at 14:41:14

     R & G space division:  proc/nbgrp/npool/nimage =      32

     Reading input from espresso_639.pwi
Warning: card &CELL ignored
Warning: card / ignored

     Current dimensions of program PWSCF are:
     Max number of different atomic species (ntypx) = 10
     Max number of k-points (npk) =  40000
     Max angular momentum in pseudopotentials (lmaxx) =  4

     gamma-point specific algorithms are used
     Message from routine setup:
     using ibrav=0 with symmetry is DISCOURAGED, use correct ibrav instead

     Using Slab Decomposition

     bravais-lattice index     =            0
     lattice parameter (alat)  =      26.6310  a.u.
     unit-cell volume          =    2032.5250 (a.u.)^3
     number of atoms/cell      =           12
     number of atomic types    =            3
     number of electrons       =       167.00
     number of Kohn-Sham states=          101
     kinetic-energy cutoff     =      30.0000  Ry
     charge density cutoff     =     240.0000  Ry
     scf convergence threshold =      1.0E-06
     mixing beta               =       0.7000
     number of iterations used =            8  plain     mixing
     Exchange-correlation= SLA  PW   PBE  PBE
                           (   1   4   3   4   0   0   0)

     celldm(1)=  26.630998  celldm(2)=   0.000000  celldm(3)=   0.000000
     celldm(4)=   0.000000  celldm(5)=   0.000000  celldm(6)=   0.000000

     crystal axes: (cart. coord. in units of alat)
               a(1) = (   1.000000   0.000000   0.000000 )
               a(2) = (  -0.945422   0.325848   0.000000 )
               a(3) = (   0.000000   0.000000   0.330262 )

     reciprocal axes: (cart. coord. in units 2 pi/alat)
               b(1) = (  1.000000  2.901424  0.000000 )
               b(2) = (  0.000000  3.068918  0.000000 )
               b(3) = (  0.000000  0.000000  3.027897 )

     PseudoPot. # 1 for La read from file:
     /home/pragov/projects/rrg-bengioy-ad/pragov/crystal_structure_design/SSSP/La.GGA-PBE-paw-v1.0.UPF
     MD5 check sum: 436541e95c1ad8901025bd0b0ed42ae2
     Pseudo is Projector augmented-wave + core cor, Zval = 11.0
     Generated using ATOMPAW code
     Shape of augmentation charge: BESSEL
     Using radial grid of 1101 points,  8 beta functions with:
                l(1) =   0
                l(2) =   0
                l(3) =   1
                l(4) =   1
                l(5) =   2
                l(6) =   2
                l(7) =   3
                l(8) =   3
     Q(r) pseudized with 0 coefficients

     PseudoPot. # 2 for Ni read from file:
     /home/pragov/projects/rrg-bengioy-ad/pragov/crystal_structure_design/SSSP/ni_pbe_v1.4.uspp.F.UPF
     MD5 check sum: 1ee80287db30b12d2bc1f57a5b5d6409
     Pseudo is Ultrasoft + core correction, Zval = 18.0
     Generated by new atomic code, or converted to UPF format
     Using radial grid of  865 points,  6 beta functions with:
                l(1) =   0
                l(2) =   0
                l(3) =   1
                l(4) =   1
                l(5) =   2
                l(6) =   2
     Q(r) pseudized with 10 coefficients,  rinner =    0.980   0.980   0.980
                                                       0.980   0.980

     PseudoPot. # 3 for Sn read from file:
     /home/pragov/projects/rrg-bengioy-ad/pragov/crystal_structure_design/SSSP/Sn_pbe_v1.uspp.F.UPF
     MD5 check sum: 4cf58ce39ec5d5d420df3dd08604eb00
     Pseudo is Ultrasoft + core correction, Zval = 14.0
     Generated by new atomic code, or converted to UPF format
     Using radial grid of  891 points,  6 beta functions with:
                l(1) =   0
                l(2) =   0
                l(3) =   1
                l(4) =   1
                l(5) =   2
                l(6) =   2
     Q(r) pseudized with  6 coefficients,  rinner =    1.200   1.200   1.200
                                                       1.200   1.200

     atomic species   valence    mass     pseudopotential
        La            11.00   138.90547     La( 1.00)
        Ni            18.00    58.69340     Ni( 1.00)
        Sn            14.00   118.71000     Sn( 1.00)

      4 Sym. Ops., with inversion, found

                                    s                        frac. trans.

      isym =  1     identity

 cryst.   s( 1) = (     1          0          0      )
                  (     0          1          0      )
                  (     0          0          1      )

 cart.    s( 1) = (  1.0000000 -0.0000000  0.0000000 )
                  (  0.0000000  1.0000000  0.0000000 )
                  (  0.0000000  0.0000000  1.0000000 )

      isym =  2     180 deg rotation - cart. axis [0,0,1]

[...]

      isym =  3     inversion

[...]

      isym =  4     inv. 180 deg rotation - cart. axis [0,0,1]

 cryst.   s( 4) = (     1          0          0      )
                  (     0          1          0      )
                  (     0          0         -1      )

 cart.    s( 4) = (  1.0000000 -0.0000000  0.0000000 )
                  (  0.0000000  1.0000000  0.0000000 )
                  (  0.0000000  0.0000000 -1.0000000 )

   Cartesian axes

     site n.     atom                  positions (alat units)
         1           La  tau(   1) = (  -0.5867856   0.2657780   0.0000000  )
         2           La  tau(   2) = (   0.6413633   0.0600697   0.0000000  )
         3           La  tau(   3) = (   0.0272889   0.1629238   0.1651311  )
         4           Ni  tau(   4) = (  -0.2217077   0.2046294   0.1651311  )
         5           Ni  tau(   5) = (   0.2762854   0.1212183   0.1651311  )
         6           Sn  tau(   6) = (  -0.7715988   0.2967332   0.1651311  )
         7           Sn  tau(   7) = (   0.8261765   0.0291145   0.1651311  )
         8           Sn  tau(   8) = (  -0.3977665   0.2341183   0.1651311  )
         9           Sn  tau(   9) = (   0.4523442   0.0917294   0.1651311  )
        10           Sn  tau(  10) = (   0.0000000   0.0000000   0.0000000  )
        11           Sn  tau(  11) = (   0.2008361   0.1338556   0.0000000  )
        12           Sn  tau(  12) = (  -0.1462584   0.1919921   0.0000000  )

   Crystallographic axes

     site n.     atom                  positions (cryst. coord.)
         1           La  tau(   1) = (  0.1843490  0.8156510  0.0000000  )
         2           La  tau(   2) = (  0.8156510  0.1843490  0.0000000  )
         3           La  tau(   3) = (  0.5000000  0.5000000  0.5000000  )
         4           Ni  tau(   4) = (  0.3720090  0.6279910  0.5000000  )
         5           Ni  tau(   5) = (  0.6279910  0.3720090  0.5000000  )
         6           Sn  tau(   6) = (  0.0893500  0.9106500  0.5000000  )
         7           Sn  tau(   7) = (  0.9106500  0.0893500  0.5000000  )
         8           Sn  tau(   8) = (  0.2815100  0.7184900  0.5000000  )
         9           Sn  tau(   9) = (  0.7184900  0.2815100  0.5000000  )
        10           Sn  tau(  10) = (  0.0000000  0.0000000  0.0000000  )
        11           Sn  tau(  11) = (  0.5892080  0.4107920  0.0000000  )
        12           Sn  tau(  12) = (  0.4107920  0.5892080  0.0000000  )

     number of k points=     1  Methfessel-Paxton smearing, width (Ry)=  0.0010
                       cart. coord. in units 2pi/alat
        k(    1) = (   0.0000000   0.0000000   0.0000000), wk =   2.0000000

                       cryst. coord.
        k(    1) = (   0.0000000   0.0000000   0.0000000), wk =   2.0000000

     Check: negative core charge=   -0.000002

     Initial potential from superposition of free atoms

     starting charge     155.9741, renormalised to     167.0000
     Starting wfcs are  185 randomized atomic wfcs
     Checking if some PAW data can be deallocated...

     Self-consistent Calculation

     iteration #  1     ecut=    30.00 Ry     beta= 0.70
     Davidson diagonalization with overlap

     ethr =  1.00E-02,  avg # of iterations =  4.0

     total energy              =   -3109.49358780 Ry
     estimated scf accuracy    <     123.03282011 Ry

[...]

     total energy              =   -3203.35576914 Ry
     estimated scf accuracy    <       0.00002524 Ry

     iteration # 45     ecut=    30.00 Ry     beta= 0.70
     Davidson diagonalization with overlap

     ethr =  8.12E-10,  avg # of iterations =  2.0

     End of self-consistent calculation

          k = 0.0000 0.0000 0.0000 (  2829 PWs)   bands (ev):

   -90.9593 -90.9561 -51.4945 -51.4838 -51.2415 -51.2342 -51.2313 -51.2234
   -20.2390 -20.2272 -20.1324  -9.0164  -8.9951  -8.9912  -8.9910  -8.9886
    -8.9740  -8.9366  -8.9033  -8.9000  -8.8976  -8.8971  -8.8894  -8.8679
    -8.8620  -8.8583  -8.8480  -8.8442  -8.8422  -8.8369  -8.8295  -8.8196
    -8.8162  -8.8019  -8.7926  -8.7775  -8.7714  -8.7589  -8.7423  -8.7011
    -8.7006  -8.6927  -8.6577  -8.6414  -8.6299  -8.5246  -4.2116  -4.1860
    -4.0098  -3.9906  -3.9675  -3.9670  -3.9129  -3.8091  -3.7672   2.0975
     2.8529   3.5379   5.2824   6.1358   7.0968   7.2720   9.0692   9.0824
     9.1133   9.2013   9.2204   9.6962   9.8526  10.2138  10.6159  10.6367
    10.6571  10.8357  10.8666  10.9080  10.9268  11.0784  11.2512  11.3407
    12.1134  12.2855  12.7289  12.7292  12.7316  13.2689  13.4788  13.6516
    13.8790  13.9454  13.9741  13.9979  14.2041  14.2683  14.3041  14.3604
    14.3636  14.3905  14.5200  14.5277  14.5501

     occupation numbers
     1.0000   1.0000   1.0000   1.0000   1.0000   1.0000   1.0000   1.0000
     1.0000   1.0000   1.0000   1.0000   1.0000   1.0000   1.0000   1.0000
     1.0000   1.0000   1.0000   1.0000   1.0000   1.0000   1.0000   1.0000
     1.0000   1.0000   1.0000   1.0000   1.0000   1.0000   1.0000   1.0000
     1.0000   1.0000   1.0000   1.0000   1.0000   1.0000   1.0000   1.0000
     1.0000   1.0000   1.0000   1.0000   1.0000   1.0000   1.0000   1.0000
     1.0000   1.0000   1.0000   1.0000   1.0000   1.0000   1.0000   1.0000
     1.0000   1.0000   1.0000   1.0000   1.0000   1.0000   1.0000   1.0000
     1.0000   1.0000   1.0000   1.0000   1.0000   1.0000   1.0000   1.0000
     1.0000   1.0000   1.0000   1.0000   1.0000   1.0000   1.0000   1.0000
     1.0000   1.0000   0.5590   0.5447   0.3963  -0.0000  -0.0000  -0.0000
    -0.0000  -0.0000  -0.0000  -0.0000  -0.0000  -0.0000  -0.0000  -0.0000
    -0.0000  -0.0000  -0.0000  -0.0000  -0.0000

     the Fermi energy is    12.7299 ev

!    total energy              =   -3203.35576897 Ry
     estimated scf accuracy    <       0.00000036 Ry
     smearing contrib. (-TS)   =      -0.00082705 Ry
     internal energy E=F+TS    =   -3203.35494192 Ry

     The total energy is F=E-TS. E is the sum of the following terms:
     one-electron contribution =   -1085.57780591 Ry
     hartree contribution      =     657.10398960 Ry
     xc contribution           =    -431.00255502 Ry
     ewald contribution        =   -1149.57630594 Ry
     one-center paw contrib.   =   -1194.30226464 Ry
      -> PAW hartree energy AE =      35.09163428 Ry
      -> PAW hartree energy PS =     -35.12268868 Ry
      -> PAW xc energy AE      =    -405.34034842 Ry
      -> PAW xc energy PS      =       7.32198549 Ry
      -> total E_H with PAW    =     657.07293520 Ry
      -> total E_XC with PAW   =    -829.02091794 Ry

     convergence has been achieved in  45 iterations

     Forces acting on atoms (cartesian axes, Ry/au):

     atom    1 type  1   force =    -0.00535376    0.00089730   -0.00000000
     atom    2 type  1   force =     0.00535376   -0.00089730    0.00000000
     atom    3 type  1   force =     0.00000000    0.00000000    0.00000000
     atom    4 type  2   force =    -0.00157121    0.00026182    0.00000000
     atom    5 type  2   force =     0.00157121   -0.00026182    0.00000000
     atom    6 type  3   force =     0.00032392   -0.00005366    0.00000000
     atom    7 type  3   force =    -0.00032392    0.00005366    0.00000000
     atom    8 type  3   force =    -0.08331343    0.01396091    0.00000000
     atom    9 type  3   force =     0.08331343   -0.01396091    0.00000000
     atom   10 type  3   force =     0.00000000    0.00000000    0.00000000
     atom   11 type  3   force =    -0.00922153    0.00154313    0.00000000
     atom   12 type  3   force =     0.00922153   -0.00154313    0.00000000
     The non-local contrib.  to forces
     atom    1 type  1   force =     0.07343930   -0.01230092    0.00000000
     atom    2 type  1   force =    -0.07343930    0.01230092    0.00000000
     atom    3 type  1   force =     0.00000000    0.00000000    0.00000000
     atom    4 type  2   force =     0.25240746   -0.04228205    0.00000000
     atom    5 type  2   force =    -0.25240746    0.04228205    0.00000000
     atom    6 type  3   force =     0.11699846   -0.01959860    0.00000000
     atom    7 type  3   force =    -0.11699846    0.01959860   -0.00000000
     atom    8 type  3   force =     0.07075445   -0.01184346    0.00000000
     atom    9 type  3   force =    -0.07075445    0.01184346    0.00000000
     atom   10 type  3   force =     0.00000000    0.00000000    0.00000000
     atom   11 type  3   force =     0.14442225   -0.02419317    0.00000000
     atom   12 type  3   force =    -0.14442225    0.02419317    0.00000000
     The ionic contribution  to forces
     atom    1 type  1   force =    11.54290311   -1.93337378   -0.00000000
     atom    2 type  1   force =   -11.54290311    1.93337377   -0.00000000
     atom    3 type  1   force =    -0.00000000    0.00000000   -0.00000000
     atom    4 type  2   force =   -16.93428446    2.83640096   -0.00000000
     atom    5 type  2   force =    16.93428446   -2.83640096   -0.00000000
     atom    6 type  3   force =    -3.92714540    0.65777559   -0.00000000
     atom    7 type  3   force =     3.92714540   -0.65777559    0.00000000
     atom    8 type  3   force =   -13.97688452    2.34105248    0.00000000
     atom    9 type  3   force =    13.97688452   -2.34105248   -0.00000000
     atom   10 type  3   force =    -0.00000000   -0.00000000   -0.00000000
     atom   11 type  3   force =    -3.79775645    0.63610364   -0.00000000
     atom   12 type  3   force =     3.79775645   -0.63610364   -0.00000000
     The local contribution  to forces
     atom    1 type  1   force =   -11.62127335    1.94649543    0.00000021
     atom    2 type  1   force =    11.62101884   -1.94646156    0.00000260
     atom    3 type  1   force =     0.00029696   -0.00008609    0.00000947
     atom    4 type  2   force =    16.67817788   -2.79347211   -0.00001203
     atom    5 type  2   force =   -16.67867348    2.79360331    0.00000840
     atom    6 type  3   force =     3.81425763   -0.63887485    0.00001435
     atom    7 type  3   force =    -3.81424672    0.63885081   -0.00000274
     atom    8 type  3   force =    13.82739085   -2.31603728   -0.00000795
     atom    9 type  3   force =   -13.82753850    2.31603738   -0.00000285
     atom   10 type  3   force =     0.00035908    0.00011251    0.00000263
     atom   11 type  3   force =     3.64797259   -0.61099656   -0.00000276
     atom   12 type  3   force =    -3.64793868    0.61102387    0.00000719
     The core correction contribution to forces
     atom    1 type  1   force =    -0.00012809    0.00002145   -0.00000000
     atom    2 type  1   force =     0.00012805   -0.00002145    0.00000000
     atom    3 type  1   force =     0.00000006   -0.00000003    0.00000000
     atom    4 type  2   force =     0.00044143   -0.00007317    0.00000001
     atom    5 type  2   force =    -0.00044137    0.00007465    0.00000002
     atom    6 type  3   force =    -0.00222693    0.00037234    0.00000032
     atom    7 type  3   force =     0.00222643   -0.00037361   -0.00000013
     atom    8 type  3   force =    -0.00489697    0.00081951   -0.00000006
     atom    9 type  3   force =     0.00489650   -0.00082008   -0.00000003
     atom   10 type  3   force =     0.00000301    0.00000600    0.00000001
     atom   11 type  3   force =    -0.00237146    0.00039815    0.00000006
     atom   12 type  3   force =     0.00237151   -0.00039668    0.00000011
     The Hubbard contrib.    to forces
     atom    1 type  1   force =     0.00000000    0.00000000    0.00000000
     atom    2 type  1   force =     0.00000000    0.00000000    0.00000000
     atom    3 type  1   force =     0.00000000    0.00000000    0.00000000
     atom    4 type  2   force =     0.00000000    0.00000000    0.00000000
     atom    5 type  2   force =     0.00000000    0.00000000    0.00000000
     atom    6 type  3   force =     0.00000000    0.00000000    0.00000000
     atom    7 type  3   force =     0.00000000    0.00000000    0.00000000
     atom    8 type  3   force =     0.00000000    0.00000000    0.00000000
     atom    9 type  3   force =     0.00000000    0.00000000    0.00000000
     atom   10 type  3   force =     0.00000000    0.00000000    0.00000000
     atom   11 type  3   force =     0.00000000    0.00000000    0.00000000
     atom   12 type  3   force =     0.00000000    0.00000000    0.00000000
     The SCF correction term to forces
     atom    1 type  1   force =    -0.00029394    0.00005239    0.00000079
     atom    2 type  1   force =     0.00055007   -0.00009170   -0.00000238
     atom    3 type  1   force =    -0.00027813    0.00006973   -0.00000365
     atom    4 type  2   force =     0.00170610   -0.00030932    0.00001297
     atom    5 type  2   force =    -0.00117132    0.00018163   -0.00000550
     atom    6 type  3   force =    -0.00155178    0.00026765   -0.00001508
     atom    7 type  3   force =     0.00155747   -0.00025076    0.00000278
     atom    8 type  3   force =     0.00032784   -0.00003575    0.00000864
     atom    9 type  3   force =    -0.00016954    0.00002541    0.00000490
     atom   10 type  3   force =    -0.00037026   -0.00006000    0.00000219
     atom   11 type  3   force =    -0.00147611    0.00023363    0.00000454
     atom   12 type  3   force =     0.00146684   -0.00025729   -0.00000615

     Total force =     0.120462     Total SCF correction =     0.003820

     Computing stress (Cartesian axis) and pressure

          total   stress  (Ry/bohr**3)                   (kbar)     P=     -108.80
  -0.00144127   0.00018256   0.00000000         -212.02       26.86        0.00
   0.00018256  -0.00038189   0.00000000           26.86      -56.18        0.00
   0.00000000   0.00000000  -0.00039559            0.00        0.00      -58.19

     kinetic stress (kbar)  14249.92     27.37      0.00
                               27.37  14408.74      0.00
                                0.00      0.00  14465.91

     local   stress (kbar)   1880.68  -2052.78     -0.01
                            -2052.78 -10031.26     -0.04
                               -0.01     -0.04  -6113.88

     nonloc. stress (kbar)   8603.66     18.87      0.00
                               18.87   8713.13      0.00
                                0.00      0.00   8683.10

     hartree stress (kbar)  12604.75    990.34      0.00
                              990.34  18351.51      0.02
                                0.00      0.02  16601.99

     exc-cor stress (kbar)   8342.63      0.06      0.00
                                0.06   8342.95      0.00
                                0.00      0.00   8342.70

     corecor stress (kbar) -14855.53     -0.52     -0.00
                               -0.52 -14858.56     -0.00
                               -0.00     -0.00 -14857.62

     ewald   stress (kbar) -31038.12   1043.53     -0.00
                             1043.53 -24982.69      0.00
                               -0.00      0.00 -27180.39

     hubbard stress (kbar)      0.00      0.00      0.00
                                0.00      0.00      0.00
                                0.00      0.00      0.00

     DFT-D   stress (kbar)      0.00      0.00      0.00
                                0.00      0.00      0.00
                                0.00      0.00      0.00

     XDM     stress (kbar)      0.00      0.00      0.00
                                0.00      0.00      0.00
                                0.00      0.00      0.00

     dft-nl  stress (kbar)      0.00      0.00      0.00
                                0.00      0.00      0.00
                                0.00      0.00      0.00

     TS-vdW  stress (kbar)      0.00      0.00      0.00
                                0.00      0.00      0.00
                                0.00      0.00      0.00

[...]

                                0.00      0.00      0.00

     Writing all to output data dir calculations/myprefix.save/

     General routines

     Parallel routines

     PAW routines

   This run was terminated on:  14:41:39   3Mar2023

   JOB DONE.