     Program PWSCF v.7.0 starts on  4Mar2023 at 19:29: 0

     R & G space division:  proc/nbgrp/npool/nimage =      32

     Reading input from espresso_7400.pwi
Warning: card &CELL ignored
Warning: card / ignored

     Current dimensions of program PWSCF are:
     Max number of different atomic species (ntypx) = 10
     Max number of k-points (npk) =  40000
     Max angular momentum in pseudopotentials (lmaxx) =  4
     file O.pbe-n-kjpaw_psl.0.1.UPF: wavefunction(s)  2P renormalized

     gamma-point specific algorithms are used

     Using Slab Decomposition

     bravais-lattice index     =            0
     lattice parameter (alat)  =      14.7121  a.u.
     unit-cell volume          =    1216.1543 (a.u.)^3
     number of atoms/cell      =           20
     number of atomic types    =            4
     number of electrons       =       168.00
     number of Kohn-Sham states=          101
     kinetic-energy cutoff     =      30.0000  Ry
     charge density cutoff     =     240.0000  Ry
     scf convergence threshold =      1.0E-06
     mixing beta               =       0.7000
     number of iterations used =            8  plain     mixing
     Exchange-correlation= SLA  PW   PBX  PBC
                           (   1   4   3   4   0   0   0)

     celldm(1)=  14.712090  celldm(2)=   0.000000  celldm(3)=   0.000000
     celldm(4)=   0.000000  celldm(5)=   0.000000  celldm(6)=   0.000000

     crystal axes: (cart. coord. in units of alat)
               a(1) = (   1.000000   0.000000   0.000000 )
               a(2) = (  -0.786823   0.617179   0.000000 )
               a(3) = (   0.071725   0.207653   0.618806 )

     reciprocal axes: (cart. coord. in units 2 pi/alat)
               b(1) = (  1.000000  1.274869 -0.543717 )
               b(2) = (  0.000000  1.620275 -0.543717 )
               b(3) = (  0.000000  0.000000  1.616016 )

     PseudoPot. # 1 for Li read from file:
     /home/pragov/projects/rrg-bengioy-ad/pragov/crystal_structure_design/SSSP/li_pbe_v1.4.uspp.F.UPF
     MD5 check sum: e912e257baa3777c20ea3d68f190483c
     Pseudo is Ultrasoft, Zval =  3.0
     Generated by new atomic code, or converted to UPF format
     Using radial grid of  751 points,  5 beta functions with:
                l(1) =   0
                l(2) =   0
                l(3) =   0
                l(4) =   1
                l(5) =   1
     Q(r) pseudized with 10 coefficients,  rinner =    1.150   1.150   1.150

     PseudoPot. # 2 for Ti read from file:
     /home/pragov/projects/rrg-bengioy-ad/pragov/crystal_structure_design/SSSP/ti_pbe_v1.4.uspp.F.UPF
     MD5 check sum: 88a00a6731bd790ddea75d31a80cb452
     Pseudo is Ultrasoft + core correction, Zval = 12.0
     Generated by new atomic code, or converted to UPF format
     Using radial grid of  851 points,  6 beta functions with:
                l(1) =   0
                l(2) =   0
                l(3) =   1
                l(4) =   1
                l(5) =   2
                l(6) =   2
     Q(r) pseudized with  6 coefficients,  rinner =    1.000   1.000   1.000
                                                       1.000   1.000

     PseudoPot. # 3 for Ni read from file:
     /home/pragov/projects/rrg-bengioy-ad/pragov/crystal_structure_design/SSSP/ni_pbe_v1.4.uspp.F.UPF
     MD5 check sum: 1ee80287db30b12d2bc1f57a5b5d6409
     Pseudo is Ultrasoft + core correction, Zval = 18.0
     Generated by new atomic code, or converted to UPF format
     Using radial grid of  865 points,  6 beta functions with:
                l(1) =   0
                l(2) =   0
                l(3) =   1
                l(4) =   1
                l(5) =   2
                l(6) =   2
     Q(r) pseudized with 10 coefficients,  rinner =    0.980   0.980   0.980
                                                       0.980   0.980

     PseudoPot. # 4 for O  read from file:
     /home/pragov/projects/rrg-bengioy-ad/pragov/crystal_structure_design/SSSP/O.pbe-n-kjpaw_psl.0.1.UPF
     MD5 check sum: 0234752ac141de4415c5fc33072bef88
     Pseudo is Projector augmented-wave + core cor, Zval =  6.0
     Generated using "atomic" code by A. Dal Corso  v.5.0.99 svn rev. 10869
     Shape of augmentation charge: BESSEL
     Using radial grid of 1095 points,  4 beta functions with:
                l(1) =   0
                l(2) =   0
                l(3) =   1
                l(4) =   1
     Q(r) pseudized with 0 coefficients

     atomic species   valence    mass     pseudopotential
        Li             3.00     6.94000     Li( 1.00)
        Ti            12.00    47.86700     Ti( 1.00)
        Ni            18.00    58.69340     Ni( 1.00)
        O              6.00    15.99900     O ( 1.00)

     No symmetry found

                                    s                        frac. trans.

      isym =  1     identity

 cryst.   s( 1) = (     1          0          0      )
                  (     0          1          0      )
                  (     0          0          1      )

 cart.    s( 1) = (  1.0000000  0.0000000  0.0000000 )
                  (  0.0000000  1.0000000 -0.0000000 )
                  (  0.0000000  0.0000000  1.0000000 )

   Cartesian axes

     site n.     atom                  positions (alat units)
         1           Li  tau(   1) = (  -0.3928542   0.5973138   0.3094028  )
         2           Li  tau(   2) = (  -0.2495876   0.4316151   0.0000000  )
         3           Li  tau(   3) = (   0.6782351   0.2273531   0.3094028  )
         4           Li  tau(   4) = (   0.0997237   0.3109608   0.0000000  )
         5           Ti  tau(   5) = (  -0.0496467   0.4787679   0.3094028  )
         6           Ti  tau(   6) = (   0.4572526   0.1874682   0.0000000  )
         7           Ni  tau(   7) = (  -0.6078991   0.5553780   0.0000000  )
         8           Ni  tau(   8) = (  -0.7494343   0.7204787   0.3094028  )
         9           Ni  tau(   9) = (   0.3241709   0.3496490   0.3094028  )
        10           Ni  tau(  10) = (   0.8209800   0.0618346   0.0000000  )
        11           O   tau(  11) = (  -0.1763074   0.6352425   0.1550189  )
        12           O   tau(  12) = (   0.4032096   0.5500442   0.4695454  )
        13           O   tau(  13) = (   0.5272588   0.3771468   0.1428141  )
        14           O   tau(  14) = (   0.0335727   0.6664033   0.4521996  )
        15           O   tau(  15) = (   0.1723408   0.5175875   0.1606129  )
        16           O   tau(  16) = (   0.2626806   0.1431926   0.1492602  )
        17           O   tau(  17) = (  -0.0999725   0.2797707   0.1666060  )
        18           O   tau(  18) = (  -0.2458791   0.4338225   0.4637868  )
        19           O   tau(  19) = (   0.4669940   0.2026715   0.4759915  )
        20           O   tau(  20) = (   0.1010594   0.3112176   0.4581928  )

   Crystallographic axes

     site n.     atom                  positions (cryst. coord.)
         1           Li  tau(   1) = (  0.2004150  0.7995850  0.5000000  )
         2           Li  tau(   2) = (  0.3006650  0.6993350  0.0000000  )
         3           Li  tau(   3) = (  0.7998530  0.2001470  0.5000000  )
         4           Li  tau(   4) = (  0.4961580  0.5038420  0.0000000  )
         5           Ti  tau(   5) = (  0.3924920  0.6075080  0.5000000  )
         6           Ti  tau(   6) = (  0.6962500  0.3037500  0.0000000  )
         7           Ni  tau(   7) = (  0.1001350  0.8998650  0.0000000  )
         8           Ni  tau(   8) = (  0.0008540  0.9991460  0.5000000  )
         9           Ni  tau(   9) = (  0.6017000  0.3983000  0.5000000  )
        10           Ni  tau(  10) = (  0.8998110  0.1001890  0.0000000  )
        11           O   tau(  11) = (  0.5492570  0.9449810  0.2505130  )
        12           O   tau(  12) = (  0.8491440  0.6359230  0.7587930  )
        13           O   tau(  13) = (  0.9304210  0.5334310  0.2307900  )
        14           O   tau(  14) = (  0.6372810  0.8338880  0.7307620  )
        15           O   tau(  15) = (  0.7448690  0.7513060  0.2595530  )
        16           O   tau(  16) = (  0.3640770  0.1508560  0.2412070  )
        17           O   tau(  17) = (  0.1661120  0.3627190  0.2692380  )
        18           O   tau(  18) = (  0.0550190  0.4507430  0.7494870  )
        19           O   tau(  19) = (  0.4665690  0.0695790  0.7692100  )
        20           O   tau(  20) = (  0.2486940  0.2551310  0.7404470  )

     number of k points=     1  Methfessel-Paxton smearing, width (Ry)=  0.0010
                       cart. coord. in units 2pi/alat
        k(    1) = (   0.0000000   0.0000000   0.0000000), wk =   2.0000000

                       cryst. coord.
        k(    1) = (   0.0000000   0.0000000   0.0000000), wk =   2.0000000

     Check: negative core charge=   -0.000018

     Initial potential from superposition of free atoms

     starting charge     156.1969, renormalised to     168.0000

     negative rho (up, down):  3.399E-03 0.000E+00
     Starting wfcs are  132 randomized atomic wfcs
     Checking if some PAW data can be deallocated...

     Self-consistent Calculation

     iteration #  1     ecut=    30.00 Ry     beta= 0.70
     Davidson diagonalization with overlap

     ethr =  1.00E-02,  avg # of iterations =  4.0

     total energy              =   -1906.87655323 Ry
     estimated scf accuracy    <     232.44646713 Ry

[...]

     negative rho (up, down):  1.047E-04 0.000E+00

[...]

     total energy              =   -2085.94299295 Ry
     estimated scf accuracy    <       0.00000157 Ry

     iteration # 51     ecut=    30.00 Ry     beta= 0.70
     Davidson diagonalization with overlap

     ethr =  9.34E-10,  avg # of iterations =  1.0

[...]

     End of self-consistent calculation

          k = 0.0000 0.0000 0.0000 (  1690 PWs)   bands (ev):

   -93.0883 -92.6635 -92.4168 -92.3184 -53.7232 -53.3119 -53.2203 -53.1886
   -53.0003 -52.8781 -52.8366 -52.8364 -52.8358 -52.8167 -52.5826 -52.3552
   -47.3059 -47.2123 -34.0401 -33.7911 -33.7607 -33.6886 -23.6849 -23.6330
   -23.6100 -23.5167 -23.4345 -23.4168  -8.9606  -8.2029  -8.1105  -7.8199
    -7.7925  -7.6513  -7.5368  -7.2815  -7.2459  -6.7229   3.5156   4.2135
     4.3362   4.7014   4.7148   5.0941   5.1657   5.1706   5.4038   5.4616
     5.5326   5.7435   5.8169   5.8600   5.9601   6.0418   6.0823   6.1874
     6.3042   6.5548   6.7493   6.8235   7.1124   7.4644   7.5287   7.9967
     8.0153   8.3221   8.5636   8.5855   9.1618   9.2057   9.3671   9.6118
     9.6682   9.7078   9.8136   9.9157   9.9696  10.0027  10.0961  10.2152
    10.2517  10.6988  10.7317  10.7545  10.8582  10.8589  11.7237  11.8113
    12.0487  12.3544  12.6419  12.6693  12.7135  13.0196  14.0097  14.2430
    15.0695  15.4895  15.5934  17.3743  17.5999

     occupation numbers
     1.0000   1.0000   1.0000   1.0000   1.0000   1.0000   1.0000   1.0000
     1.0000   1.0000   1.0000   1.0000   1.0000   1.0000   1.0000   1.0000
     1.0000   1.0000   1.0000   1.0000   1.0000   1.0000   1.0000   1.0000
     1.0000   1.0000   1.0000   1.0000   1.0000   1.0000   1.0000   1.0000
     1.0000   1.0000   1.0000   1.0000   1.0000   1.0000   1.0000   1.0000
     1.0000   1.0000   1.0000   1.0000   1.0000   1.0000   1.0000   1.0000
     1.0000   1.0000   1.0000   1.0000   1.0000   1.0000   1.0000   1.0000
     1.0000   1.0000   1.0000   1.0000   1.0000   1.0000   1.0000   1.0000
     1.0000   1.0000   1.0000   1.0000   1.0000   1.0000   1.0000   1.0000
     1.0000   1.0000   1.0000   1.0000   1.0000   1.0000   1.0000   1.0000
     1.0000   1.0000   1.0000   1.0000  -0.0000  -0.0000  -0.0000  -0.0000
    -0.0000  -0.0000  -0.0000  -0.0000  -0.0000  -0.0000  -0.0000  -0.0000
    -0.0000  -0.0000  -0.0000  -0.0000  -0.0000

     the Fermi energy is    10.8059 ev

!    total energy              =   -2085.94299292 Ry
     estimated scf accuracy    <       0.00000007 Ry
     smearing contrib. (-TS)   =       0.00000001 Ry
     internal energy E=F+TS    =   -2085.94299293 Ry

     The total energy is F=E-TS. E is the sum of the following terms:
     one-electron contribution =   -1292.43115561 Ry
     hartree contribution      =     729.26020065 Ry
     xc contribution           =    -266.40944472 Ry
     ewald contribution        =   -1161.14332187 Ry
     one-center paw contrib.   =     -95.21927139 Ry
      -> PAW hartree energy AE =       0.00000000 Ry
      -> PAW hartree energy PS =       0.00000000 Ry
      -> PAW xc energy AE      =       0.00000000 Ry
      -> PAW xc energy PS      =       0.00000000 Ry
      -> total E_H with PAW    =     729.26020065 Ry
      -> total E_XC with PAW   =    -266.40944472 Ry

     convergence has been achieved in  51 iterations

     negative rho (up, down):  2.782E-03 0.000E+00

     Forces acting on atoms (cartesian axes, Ry/au):

     atom    1 type  1   force =    -0.00598038    0.00206667    0.00000053
     atom    2 type  1   force =     0.00399182   -0.00137805   -0.00000222
     atom    3 type  1   force =     0.00641542   -0.00221884    0.00000212
     atom    4 type  1   force =    -0.00337009    0.00116532    0.00000183
     atom    5 type  2   force =    -0.00922061    0.00318326    0.00000498
     atom    6 type  2   force =    -0.00435336    0.00151344    0.00000502
     atom    7 type  3   force =     0.01607204   -0.00557686    0.00000805
     atom    8 type  3   force =    -0.01051378    0.00365593    0.00002172
     atom    9 type  3   force =    -0.00424471    0.00148651   -0.00000945
     atom   10 type  3   force =     0.00868971   -0.00299090   -0.00001521
     atom   11 type  4   force =     0.00234412   -0.00315023   -0.00011295
     atom   12 type  4   force =    -0.01541627    0.00217699   -0.01623712
     atom   13 type  4   force =    -0.01154499    0.02660444    0.00487710
     atom   14 type  4   force =    -0.00094544   -0.00466604   -0.01098687
     atom   15 type  4   force =     0.03140525   -0.00811788   -0.00896676
     atom   16 type  4   force =    -0.01347480    0.00779888    0.01623340
     atom   17 type  4   force =     0.00213889    0.00424285    0.01098433
     atom   18 type  4   force =     0.00378686    0.00103296    0.00011091
     atom   19 type  4   force =    -0.02549959   -0.01382086   -0.00488433
     atom   20 type  4   force =     0.02971991   -0.01300758    0.00896491
     The non-local contrib.  to forces
     atom    1 type  1   force =     0.01143927   -0.00394901    0.00000010
     atom    2 type  1   force =    -0.00797859    0.00275727   -0.00000064
     atom    3 type  1   force =    -0.02474851    0.00854790    0.00000051
     atom    4 type  1   force =     0.03995892   -0.01380017    0.00000022
     atom    5 type  2   force =     0.01646598   -0.00568755    0.00000699
     atom    6 type  2   force =     0.00166972   -0.00055808    0.00001075
     atom    7 type  3   force =    -0.10505003    0.03626197    0.00000673
     atom    8 type  3   force =     0.18377906   -0.06345283    0.00002220
     atom    9 type  3   force =    -0.18511557    0.06395799   -0.00000656
     atom   10 type  3   force =     0.15683328   -0.05416242   -0.00001799
     atom   11 type  4   force =     0.28750499   -0.02333120   -0.11354050
     atom   12 type  4   force =     0.04839955   -0.11382223    0.12397817
     atom   13 type  4   force =    -0.58335718   -0.10407904   -0.18541369
     atom   14 type  4   force =     0.29593764   -0.07225901   -0.31583013
     atom   15 type  4   force =     0.08657022    0.42939467    0.27915364
     atom   16 type  4   force =     0.10835099    0.05968568   -0.12399512
     atom   17 type  4   force =     0.27745500   -0.12578544    0.31583505
     atom   18 type  4   force =     0.24061947   -0.15908702    0.11353341
     atom   19 type  4   force =    -0.39475064    0.44191154    0.18540918
     atom   20 type  4   force =    -0.19690553   -0.39131734   -0.27918303
     The ionic contribution  to forces
     atom    1 type  1   force =     4.40754098   -1.52239120    0.00000000
     atom    2 type  1   force =    -0.41165042    0.14218654   -0.00000000
     atom    3 type  1   force =    -1.43090338    0.49424265    0.00000000
     atom    4 type  1   force =    -2.03102733    0.70152907   -0.00000000
     atom    5 type  2   force =   -16.58352427    5.72804918    0.00000000
     atom    6 type  2   force =    15.21988551   -5.25704014    0.00000000
     atom    7 type  3   force =    17.15244223   -5.92455687   -0.00000000
     atom    8 type  3   force =    -6.50638025    2.24734293    0.00000000
     atom    9 type  3   force =    15.53681289   -5.36650877    0.00000000
     atom   10 type  3   force =   -22.64035668    7.82011558   -0.00000000
     atom   11 type  4   force =    -7.91816536   -0.76992712    3.57358504
     atom   12 type  4   force =     5.05799140   -2.01438970   -0.09345959
     atom   13 type  4   force =    16.63246249   -0.86811968    3.01117588
     atom   14 type  4   force =   -11.79473263    0.16234294    4.99712408
     atom   15 type  4   force =    -6.63262524   -5.59145509   -2.27114103
     atom   16 type  4   force =     5.22298132   -1.53672021    0.09345959
     atom   17 type  4   force =    -9.38055642    7.15172945   -4.99712408
     atom   18 type  4   force =    -5.75500807    5.49272360   -3.57358505
     atom   19 type  4   force =    13.62258219   -9.58215502   -3.01117589
     atom   20 type  4   force =    -1.76776897    8.49300185    2.27114103
     The local contribution  to forces
     atom    1 type  1   force =    -4.42496949    1.52842339    0.00000548
     atom    2 type  1   force =     0.42356199   -0.14629236   -0.00000907
     atom    3 type  1   force =     1.46201368   -0.50499436    0.00001034
     atom    4 type  1   force =     1.98771863   -0.68656366    0.00001105
     atom    5 type  2   force =    16.55456819   -5.71803995   -0.00003004
     atom    6 type  2   force =   -15.23059541    5.26063505   -0.00005079
     atom    7 type  3   force =   -17.03120665    5.88273594   -0.00001996
     atom    8 type  3   force =     6.31300016   -2.18058662   -0.00005457
     atom    9 type  3   force =   -15.35844841    5.30485556    0.00001909
     atom   10 type  3   force =    22.49467561   -7.76981245    0.00004032
     atom   11 type  4   force =     7.63596443    0.79044342   -3.46211383
     atom   12 type  4   force =    -5.12208198    2.13002177   -0.04603033
     atom   13 type  4   force =   -16.06705360    0.99904909   -2.82203483
     atom   14 type  4   force =    11.50199887   -0.09413342   -4.69495296
     atom   15 type  4   force =     6.57927443    5.15930231    1.98589459
     atom   16 type  4   force =    -5.34480921    1.48529255    0.04604982
     atom   17 type  4   force =     9.10812467   -7.02474586    4.69493225
     atom   18 type  4   force =     5.52029300   -5.33469417    3.46212064
     atom   19 type  4   force =   -13.25851296    9.13017890    2.82202966
     atom   20 type  4   force =     1.99252759   -8.12003209   -1.98586274
     The core correction contribution to forces
     atom    1 type  1   force =     0.00000000    0.00000000    0.00000000
     atom    2 type  1   force =     0.00000000    0.00000000    0.00000000
     atom    3 type  1   force =     0.00000000    0.00000000    0.00000000
     atom    4 type  1   force =     0.00000000    0.00000000    0.00000000
     atom    5 type  2   force =     0.00312118   -0.00107829   -0.00000020
     atom    6 type  2   force =     0.00467040   -0.00161460   -0.00000081
     atom    7 type  3   force =     0.00015320   -0.00005285   -0.00000005
     atom    8 type  3   force =    -0.00080069    0.00027620    0.00000005
     atom    9 type  3   force =     0.00282172   -0.00097479    0.00000003
     atom   10 type  3   force =    -0.00260385    0.00089941   -0.00000000
     atom   11 type  4   force =    -0.00306606   -0.00024285    0.00187905
     atom   12 type  4   force =     0.00042471    0.00035600   -0.00058050
     atom   13 type  4   force =     0.00632331   -0.00020916    0.00104716
     atom   14 type  4   force =    -0.00422301   -0.00053554    0.00275840
     atom   15 type  4   force =    -0.00170253   -0.00537337   -0.00302977
     atom   16 type  4   force =     0.00011416   -0.00054221    0.00058075
     atom   17 type  4   force =    -0.00299238    0.00302763   -0.00275851
     atom   18 type  4   force =    -0.00226265    0.00208344   -0.00187893
     atom   19 type  4   force =     0.00510428   -0.00373790   -0.00104714
     atom   20 type  4   force =     0.00197686    0.00527905    0.00303022
     The Hubbard contrib.    to forces
     atom    1 type  1   force =     0.00000000    0.00000000    0.00000000
     atom    2 type  1   force =     0.00000000    0.00000000    0.00000000
     atom    3 type  1   force =     0.00000000    0.00000000    0.00000000
     atom    4 type  1   force =     0.00000000    0.00000000    0.00000000
     atom    5 type  2   force =     0.00000000    0.00000000    0.00000000
     atom    6 type  2   force =     0.00000000    0.00000000    0.00000000
     atom    7 type  3   force =     0.00000000    0.00000000    0.00000000
     atom    8 type  3   force =     0.00000000    0.00000000    0.00000000
     atom    9 type  3   force =     0.00000000    0.00000000    0.00000000
     atom   10 type  3   force =     0.00000000    0.00000000    0.00000000
     atom   11 type  4   force =     0.00000000    0.00000000    0.00000000
     atom   12 type  4   force =     0.00000000    0.00000000    0.00000000
     atom   13 type  4   force =     0.00000000    0.00000000    0.00000000
     atom   14 type  4   force =     0.00000000    0.00000000    0.00000000
     atom   15 type  4   force =     0.00000000    0.00000000    0.00000000
     atom   16 type  4   force =     0.00000000    0.00000000    0.00000000
     atom   17 type  4   force =     0.00000000    0.00000000    0.00000000
     atom   18 type  4   force =     0.00000000    0.00000000    0.00000000
     atom   19 type  4   force =     0.00000000    0.00000000    0.00000000
     atom   20 type  4   force =     0.00000000    0.00000000    0.00000000
     The SCF correction term to forces
     atom    1 type  1   force =    -0.00000011   -0.00001198   -0.00000496
     atom    2 type  1   force =     0.00004987   -0.00002497    0.00000759
     atom    3 type  1   force =     0.00004467   -0.00001050   -0.00000864
     atom    4 type  1   force =    -0.00002929    0.00000460   -0.00000935
     atom    5 type  2   force =     0.00013934   -0.00005560    0.00002833
     atom    6 type  2   force =     0.00000745    0.00009573    0.00004596
     atom    7 type  3   force =    -0.00027569    0.00003948    0.00002141
     atom    8 type  3   force =    -0.00012105    0.00008077    0.00005414
     atom    9 type  3   force =    -0.00032430    0.00016105   -0.00002191
     atom   10 type  3   force =     0.00013239   -0.00002649   -0.00003744
     atom   11 type  4   force =     0.00009716   -0.00008795    0.00007739
     atom   12 type  4   force =    -0.00015892    0.00001567   -0.00014478
     atom   13 type  4   force =     0.00007102   -0.00003224    0.00010267
     atom   14 type  4   force =     0.00006472   -0.00007649   -0.00008617
     atom   15 type  4   force =    -0.00012060    0.00001813    0.00015590
     atom   16 type  4   force =    -0.00012102    0.00008758    0.00013845
     atom   17 type  4   force =     0.00009905    0.00002159    0.00009972
     atom   18 type  4   force =     0.00013615    0.00001165   -0.00007907
     atom   19 type  4   force =     0.00006857   -0.00001387   -0.00010005
     atom   20 type  4   force =    -0.00011901    0.00006548   -0.00016048

     Total force =     0.077948     Total SCF correction =     0.000764

     Computing stress (Cartesian axis) and pressure

     negative rho (up, down):  2.782E-03 0.000E+00
          total   stress  (Ry/bohr**3)                   (kbar)     P=     -927.68
  -0.00646019   0.00008392  -0.00002324         -950.33       12.35       -3.42
   0.00008392  -0.00624617  -0.00006731           12.35     -918.84       -9.90
  -0.00002324  -0.00006731  -0.00621240           -3.42       -9.90     -913.88

     kinetic stress (kbar)  34024.95     30.55     29.96
                               30.55  34102.84     86.75
                               29.96     86.75  34184.17

     local   stress (kbar)   -796.31  -7923.29    382.89
                            -7923.29 -20998.55   1108.52
                              382.89   1108.52 -30695.31

     nonloc. stress (kbar)   9940.64      7.47     -9.70
                                7.47   9959.69    -28.07
                               -9.70    -28.07  10020.69

     hartree stress (kbar)  21444.58   3765.15   -166.86
                             3765.15  31044.70   -483.10
                             -166.86   -483.10  35721.46

     exc-cor stress (kbar)  -7831.11      1.27      1.04
                                1.27  -7827.88      3.00
                                1.04      3.00  -7828.71

     corecor stress (kbar)  -2266.40      0.50     -0.05
                                0.50  -2265.12     -0.13
                               -0.05     -0.13  -2266.40

     ewald   stress (kbar) -55466.69   4130.69   -240.70
                             4130.69 -44934.52   -696.87
                             -240.70   -696.87 -40049.78

     hubbard stress (kbar)      0.00      0.00      0.00
                                0.00      0.00      0.00
                                0.00      0.00      0.00

     DFT-D   stress (kbar)      0.00      0.00      0.00
                                0.00      0.00      0.00
                                0.00      0.00      0.00

     XDM     stress (kbar)      0.00      0.00      0.00
                                0.00      0.00      0.00
                                0.00      0.00      0.00

     dft-nl  stress (kbar)      0.00      0.00      0.00
                                0.00      0.00      0.00
                                0.00      0.00      0.00

     TS-vdW  stress (kbar)      0.00      0.00      0.00
                                0.00      0.00      0.00
                                0.00      0.00      0.00

[...]

                                0.00      0.00      0.00

     Writing all to output data dir calculations/myprefix.save/

     General routines

     Parallel routines

     PAW routines

   This run was terminated on:  19:29: 8   4Mar2023

   JOB DONE.