     Program PWSCF v.7.0 starts on  4Mar2023 at 19:28:13

     R & G space division:  proc/nbgrp/npool/nimage =      32

     Reading input from espresso_7397.pwi
Warning: card &CELL ignored
Warning: card / ignored

     Current dimensions of program PWSCF are:
     Max number of different atomic species (ntypx) = 10
     Max number of k-points (npk) =  40000
     Max angular momentum in pseudopotentials (lmaxx) =  4
     file Fe.pbe-spn-kjpaw_psl.0.2.1.UPF: wavefunction(s)  3D renormalized
     file O.pbe-n-kjpaw_psl.0.1.UPF: wavefunction(s)  2P renormalized

     gamma-point specific algorithms are used
     Message from routine setup:
     using ibrav=0 with symmetry is DISCOURAGED, use correct ibrav instead

     Using Slab Decomposition

     bravais-lattice index     =            0
     lattice parameter (alat)  =       7.5512  a.u.
     unit-cell volume          =    1926.9248 (a.u.)^3
     number of atoms/cell      =           14
     number of atomic types    =            4
     number of electrons       =       124.00
     number of Kohn-Sham states=           74
     kinetic-energy cutoff     =      30.0000  Ry
     charge density cutoff     =     240.0000  Ry
     scf convergence threshold =      1.0E-06
     mixing beta               =       0.7000
     number of iterations used =            8  plain     mixing
     Exchange-correlation= SLA  PW   PBX  PBC
                           (   1   4   3   4   0   0   0)

     celldm(1)=   7.551217  celldm(2)=   0.000000  celldm(3)=   0.000000
     celldm(4)=   0.000000  celldm(5)=   0.000000  celldm(6)=   0.000000

     crystal axes: (cart. coord. in units of alat)
               a(1) = (   1.000000   0.000000   0.000000 )
               a(2) = (  -0.499931   1.450221   0.000000 )
               a(3) = (   0.500170  -0.431353   3.085886 )

     reciprocal axes: (cart. coord. in units 2 pi/alat)
               b(1) = (  1.000000  0.344727 -0.113896 )
               b(2) = (  0.000000  0.689550  0.096387 )
               b(3) = (  0.000000  0.000000  0.324056 )

     PseudoPot. # 1 for La read from file:
     /home/pragov/projects/rrg-bengioy-ad/pragov/crystal_structure_design/SSSP/La.GGA-PBE-paw-v1.0.UPF
     MD5 check sum: 436541e95c1ad8901025bd0b0ed42ae2
     Pseudo is Projector augmented-wave + core cor, Zval = 11.0
     Generated using ATOMPAW code
     Shape of augmentation charge: BESSEL
     Using radial grid of 1101 points,  8 beta functions with:
                l(1) =   0
                l(2) =   0
                l(3) =   1
                l(4) =   1
                l(5) =   2
                l(6) =   2
                l(7) =   3
                l(8) =   3
     Q(r) pseudized with 0 coefficients

     PseudoPot. # 2 for Fe read from file:
     /home/pragov/projects/rrg-bengioy-ad/pragov/crystal_structure_design/SSSP/Fe.pbe-spn-kjpaw_psl.0.2.1.UPF
     MD5 check sum: e86618425769142926afa95317d90200
     Pseudo is Projector augmented-wave + core cor, Zval = 16.0
     Generated using "atomic" code by A. Dal Corso  v.5.0.99 svn rev. 10869
     Shape of augmentation charge: PSQ
     Using radial grid of 1191 points,  6 beta functions with:
                l(1) =   0
                l(2) =   0
                l(3) =   1
                l(4) =   1
                l(5) =   2
                l(6) =   2
     Q(r) pseudized with 0 coefficients

     PseudoPot. # 3 for Se read from file:
     /home/pragov/projects/rrg-bengioy-ad/pragov/crystal_structure_design/SSSP/Se_pbe_v1.uspp.F.UPF
     MD5 check sum: 1b3568f3a8ae88f9a2a0ad0698632c85
     Pseudo is Ultrasoft + core correction, Zval =  6.0
     Generated by new atomic code, or converted to UPF format
     Using radial grid of  877 points,  6 beta functions with:
                l(1) =   0
                l(2) =   0
                l(3) =   1
                l(4) =   1
                l(5) =   2
                l(6) =   2
     Q(r) pseudized with  8 coefficients,  rinner =    1.300   1.300   1.300
                                                       1.300   1.300

     PseudoPot. # 4 for O  read from file:
     /home/pragov/projects/rrg-bengioy-ad/pragov/crystal_structure_design/SSSP/O.pbe-n-kjpaw_psl.0.1.UPF
     MD5 check sum: 0234752ac141de4415c5fc33072bef88
     Pseudo is Projector augmented-wave + core cor, Zval =  6.0
     Generated using "atomic" code by A. Dal Corso  v.5.0.99 svn rev. 10869
     Shape of augmentation charge: BESSEL
     Using radial grid of 1095 points,  4 beta functions with:
                l(1) =   0
                l(2) =   0
                l(3) =   1
                l(4) =   1
     Q(r) pseudized with 0 coefficients

     atomic species   valence    mass     pseudopotential
        La            11.00   138.90547     La( 1.00)
        Fe            16.00    55.84500     Fe( 1.00)
        Se             6.00    78.97100     Se( 1.00)
        O              6.00    15.99900     O ( 1.00)

      2 Sym. Ops., with inversion, found

                                    s                        frac. trans.

      isym =  1     identity

 cryst.   s( 1) = (     1          0          0      )
                  (     0          1          0      )
                  (     0          0          1      )

 cart.    s( 1) = (  1.0000000 -0.0000000 -0.0000000 )
                  (  0.0000000  1.0000000  0.0000000 )
                  (  0.0000000  0.0000000  1.0000000 )

      isym =  2     inversion

 cryst.   s( 2) = (    -1          0          0      )
                  (     0         -1          0      )
                  (     0          0         -1      )

 cart.    s( 2) = ( -1.0000000  0.0000000  0.0000000 )
                  (  0.0000000 -1.0000000 -0.0000000 )
                  (  0.0000000  0.0000000 -1.0000000 )

   Cartesian axes

     site n.     atom                  positions (alat units)
         1           La  tau(   1) = (   1.0000673  -0.1400511   1.1483414  )
         2           La  tau(   2) = (   0.5001856   0.3693883   2.6913060  )
         3           La  tau(   3) = (   0.5000560   0.6494792   0.3945799  )
         4           La  tau(   4) = (   0.0001728   1.1589172   1.9375444  )
         5           Fe  tau(   5) = (   0.5001188   0.5094338   1.5429429  )
         6           Fe  tau(   6) = (   0.9999985   0.0000015   0.0000000  )
         7           Se  tau(   7) = (   0.0001139   0.6402277   1.0551600  )
         8           Se  tau(   8) = (   1.0001668  -0.3005603   2.5981122  )
         9           Se  tau(   9) = (   0.0000733   1.3194265   0.4877736  )
        10           Se  tau(  10) = (   1.0001257   0.3786399   2.0307258  )
        11           O   tau(  11) = (   0.5000895   0.0176246   1.4177825  )
        12           O   tau(  12) = (   1.0002108   0.5270777   2.9607532  )
        13           O   tau(  13) = (   0.0000288   0.4917908   0.1251358  )
        14           O   tau(  14) = (   0.5001500   1.0012429   1.6681034  )

   Crystallographic axes

     site n.     atom                  positions (cryst. coord.)
         1           La  tau(   1) = (  0.8209960  0.0141130  0.3721270  )
         2           La  tau(   2) = (  0.3209940  0.5141190  0.8721340  )
         3           La  tau(   3) = (  0.6790080  0.4858810  0.1278660  )
         4           La  tau(   4) = (  0.1790040  0.9858860  0.6278730  )
         5           Fe  tau(   5) = (  0.4999990  0.5000000  0.5000000  )
         6           Fe  tau(   6) = (  0.9999990  0.0000010  0.0000000  )
         7           Se  tau(   7) = (  0.1006390  0.5431730  0.3419310  )
         8           Se  tau(   8) = (  0.6006400  0.0431730  0.8419340  )
         9           Se  tau(   9) = (  0.3993600  0.9568260  0.1580660  )
        10           Se  tau(  10) = (  0.8993610  0.4568270  0.6580690  )
        11           O   tau(  11) = (  0.3446850  0.1488090  0.4594410  )
        12           O   tau(  12) = (  0.8446900  0.6488250  0.9594500  )
        13           O   tau(  13) = (  0.1553100  0.3511760  0.0405510  )
        14           O   tau(  14) = (  0.6553150  0.8511910  0.5405590  )

     number of k points=     1  Methfessel-Paxton smearing, width (Ry)=  0.0010
                       cart. coord. in units 2pi/alat
        k(    1) = (   0.0000000   0.0000000   0.0000000), wk =   2.0000000

                       cryst. coord.
        k(    1) = (   0.0000000   0.0000000   0.0000000), wk =   2.0000000

     Check: negative core charge=   -0.000050

     Initial potential from superposition of free atoms

     starting charge     123.9647, renormalised to     124.0000
     Starting wfcs are  186 randomized atomic wfcs
     Checking if some PAW data can be deallocated...

     Self-consistent Calculation

     iteration #  1     ecut=    30.00 Ry     beta= 0.70
     Davidson diagonalization with overlap

     ethr =  1.00E-02,  avg # of iterations =  2.0

     total energy              =   -2830.78636560 Ry
     estimated scf accuracy    <       3.25387717 Ry

[...]

     negative rho (up, down):  3.020E-05 0.000E+00

[...]

     c_bands:  1 eigenvalues not converged
     ethr =  2.51E-06,  avg # of iterations = 20.0

[...]

     c_bands:  1 eigenvalues not converged
     ethr =  1.20E-07,  avg # of iterations = 20.0

[...]

     total energy              =   -2832.92637794 Ry
     estimated scf accuracy    <       0.00000150 Ry

     iteration # 22     ecut=    30.00 Ry     beta= 0.70
     Davidson diagonalization with overlap

     ethr =  1.21E-09,  avg # of iterations =  8.0

     End of self-consistent calculation

          k = 0.0000 0.0000 0.0000 (  2663 PWs)   bands (ev):

   -76.5641 -76.5626 -42.3643 -42.3561 -42.1214 -42.1188 -42.0553 -42.0472
   -22.3698 -22.3495 -22.2703 -22.2493  -9.3743  -9.3534  -8.7180  -8.6998
    -6.2571  -6.1482  -6.0350  -6.0104  -5.9939  -5.8548  -5.7932  -5.7761
    -5.6825  -5.5534  -5.2101  -4.9522  -2.4121  -2.3227  -2.2437  -2.0618
     4.6090   4.9642   5.3308   5.5205   5.5881   5.6326   5.6539   5.7081
     6.1123   6.3363   6.4578   6.6075   6.7240   6.8948   7.2880   7.3017
     7.8333   7.8544   8.1086   8.3034   8.4613   8.6602   8.7870   9.0792
     9.1407   9.2515   9.4661   9.4948   9.7692   9.9287  10.5905  10.6457
    11.1220  11.2700  11.5202  11.8133  12.2176  12.2835  12.3038  12.4102
    12.4212  12.5694

     occupation numbers
     1.0000   1.0000   1.0000   1.0000   1.0000   1.0000   1.0000   1.0000
     1.0000   1.0000   1.0000   1.0000   1.0000   1.0000   1.0000   1.0000
     1.0000   1.0000   1.0000   1.0000   1.0000   1.0000   1.0000   1.0000
     1.0000   1.0000   1.0000   1.0000   1.0000   1.0000   1.0000   1.0000
     1.0000   1.0000   1.0000   1.0000   1.0000   1.0000   1.0000   1.0000
     1.0000   1.0000   1.0000   1.0000   1.0000   1.0000   1.0000   1.0000
     1.0000   1.0000   1.0000   1.0000   1.0000   1.0000   1.0000   1.0000
     1.0000   1.0000   1.0000   1.0000   1.0000   1.0000  -0.0000  -0.0000
    -0.0000  -0.0000  -0.0000  -0.0000  -0.0000  -0.0000  -0.0000  -0.0000
    -0.0000  -0.0000

     the Fermi energy is    10.2608 ev

!    total energy              =   -2832.92637804 Ry
     estimated scf accuracy    <       0.00000033 Ry
     smearing contrib. (-TS)   =       0.00000000 Ry
     internal energy E=F+TS    =   -2832.92637804 Ry

     The total energy is F=E-TS. E is the sum of the following terms:
     one-electron contribution =    -520.71219053 Ry
     hartree contribution      =     329.97526209 Ry
     xc contribution           =    -253.58455010 Ry
     ewald contribution        =    -606.00993586 Ry
     one-center paw contrib.   =   -1782.59496365 Ry
      -> PAW hartree energy AE =      35.17118507 Ry
      -> PAW hartree energy PS =     -35.21297149 Ry
      -> PAW xc energy AE      =    -405.38549501 Ry
      -> PAW xc energy PS      =       7.33576738 Ry
      -> total E_H with PAW    =     329.93347567 Ry
      -> total E_XC with PAW   =    -651.63427772 Ry

     convergence has been achieved in  22 iterations

     Forces acting on atoms (cartesian axes, Ry/au):

     atom    1 type  1   force =     0.00000396    0.02033930    0.06918168
     atom    2 type  1   force =     0.00001368    0.02033271    0.06934150
     atom    3 type  1   force =    -0.00001368   -0.02033271   -0.06934150
     atom    4 type  1   force =    -0.00000396   -0.02033930   -0.06918168
     atom    5 type  2   force =     0.00000000    0.00000000    0.00000000
     atom    6 type  2   force =     0.00000000    0.00000000    0.00000000
     atom    7 type  3   force =    -0.00002660    0.00393835   -0.00233824
     atom    8 type  3   force =    -0.00003172    0.00394441   -0.00226686
     atom    9 type  3   force =     0.00003172   -0.00394441    0.00226686
     atom   10 type  3   force =     0.00002660   -0.00393835    0.00233824
     atom   11 type  4   force =    -0.00001169   -0.03521465   -0.03130248
     atom   12 type  4   force =    -0.00001125   -0.03525062   -0.03133375
     atom   13 type  4   force =     0.00001125    0.03525062    0.03133375
     atom   14 type  4   force =     0.00001169    0.03521465    0.03130248
     The non-local contrib.  to forces
     atom    1 type  1   force =     0.00002434    0.04923761   -0.06394642
     atom    2 type  1   force =     0.00002223    0.04927473   -0.06387370
     atom    3 type  1   force =    -0.00002223   -0.04927473    0.06387370
     atom    4 type  1   force =    -0.00002434   -0.04923761    0.06394642
     atom    5 type  2   force =     0.00000000    0.00000000    0.00000000
     atom    6 type  2   force =     0.00000000    0.00000000    0.00000000
     atom    7 type  3   force =    -0.00006481   -0.08693524    0.12642383
     atom    8 type  3   force =    -0.00006266   -0.08693412    0.12647374
     atom    9 type  3   force =     0.00006266    0.08693412   -0.12647374
     atom   10 type  3   force =     0.00006481    0.08693524   -0.12642383
     atom   11 type  4   force =     0.00000376    0.06682871   -0.07089000
     atom   12 type  4   force =     0.00000730    0.06678628   -0.07084401
     atom   13 type  4   force =    -0.00000730   -0.06678628    0.07084401
     atom   14 type  4   force =    -0.00000376   -0.06682871    0.07089000
     The ionic contribution  to forces
     atom    1 type  1   force =     0.00064310   -0.53936984  -12.45270106
     atom    2 type  1   force =     0.00076217   -0.53906371  -12.45469719
     atom    3 type  1   force =    -0.00083041    0.53907659   12.45469717
     atom    4 type  1   force =    -0.00066171    0.53942639   12.45273614
     atom    5 type  2   force =    -0.00000024   -0.00004156    0.00002561
     atom    6 type  2   force =     0.00001044   -0.00008249   -0.00010585
     atom    7 type  3   force =     0.00001427    0.76181271   -5.88620615
     atom    8 type  3   force =    -0.00005486    0.76193535   -5.88719754
     atom    9 type  3   force =     0.00000909   -0.76192660    5.88717205
     atom   10 type  3   force =    -0.00003385   -0.76184386    5.88623191
     atom   11 type  4   force =    -0.00118347   -4.33032009   -3.70427405
     atom   12 type  4   force =    -0.00126415   -4.33128428   -3.70469932
     atom   13 type  4   force =     0.00136206    4.33134320    3.70471558
     atom   14 type  4   force =     0.00122756    4.33033819    3.70430269
     The local contribution  to forces
     atom    1 type  1   force =    -0.00065741    0.51033433   12.58522553
     atom    2 type  1   force =    -0.00075524    0.51010934   12.58829785
     atom    3 type  1   force =     0.00084238   -0.51020215  -12.58801956
     atom    4 type  1   force =     0.00068115   -0.51071678  -12.58551650
     atom    5 type  2   force =     0.00000083    0.00048639   -0.00022070
     atom    6 type  2   force =    -0.00001993    0.00022957    0.00041650
     atom    7 type  3   force =     0.00002528   -0.68128496    5.77263054
     atom    8 type  3   force =     0.00009007   -0.68148499    5.77417590
     atom    9 type  3   force =    -0.00002809    0.68146021   -5.77407141
     atom   10 type  3   force =     0.00000214    0.68142031   -5.77278012
     atom   11 type  4   force =     0.00116249    4.22841155    3.74254341
     atom   12 type  4   force =     0.00120291    4.22967224    3.74329288
     atom   13 type  4   force =    -0.00137578   -4.22973121   -3.74308454
     atom   14 type  4   force =    -0.00119208   -4.22861024   -3.74275279
     The core correction contribution to forces
     atom    1 type  1   force =    -0.00000021   -0.00008032   -0.00006605
     atom    2 type  1   force =    -0.00000021   -0.00008037   -0.00006591
     atom    3 type  1   force =     0.00000022    0.00008034    0.00006590
     atom    4 type  1   force =     0.00000022    0.00008026    0.00006607
     atom    5 type  2   force =     0.00000020   -0.00000102    0.00000034
     atom    6 type  2   force =    -0.00000158    0.00000451    0.00000761
     atom    7 type  3   force =     0.00000697    0.01046493   -0.01565733
     atom    8 type  3   force =     0.00000514    0.01046282   -0.01566430
     atom    9 type  3   force =    -0.00000376   -0.01046449    0.01566143
     atom   10 type  3   force =    -0.00000513   -0.01046324    0.01565958
     atom   11 type  4   force =     0.00000699   -0.00058441    0.00103674
     atom   12 type  4   force =     0.00000663   -0.00058412    0.00103597
     atom   13 type  4   force =    -0.00000743    0.00058447   -0.00103644
     atom   14 type  4   force =    -0.00000678    0.00058379   -0.00103686
     The Hubbard contrib.    to forces
     atom    1 type  1   force =     0.00000000    0.00000000    0.00000000
     atom    2 type  1   force =     0.00000000    0.00000000    0.00000000
     atom    3 type  1   force =     0.00000000    0.00000000    0.00000000
     atom    4 type  1   force =     0.00000000    0.00000000    0.00000000
     atom    5 type  2   force =     0.00000000    0.00000000    0.00000000
     atom    6 type  2   force =     0.00000000    0.00000000    0.00000000
     atom    7 type  3   force =     0.00000000    0.00000000    0.00000000
     atom    8 type  3   force =     0.00000000    0.00000000    0.00000000
     atom    9 type  3   force =     0.00000000    0.00000000    0.00000000
     atom   10 type  3   force =     0.00000000    0.00000000    0.00000000
     atom   11 type  4   force =     0.00000000    0.00000000    0.00000000
     atom   12 type  4   force =     0.00000000    0.00000000    0.00000000
     atom   13 type  4   force =     0.00000000    0.00000000    0.00000000
     atom   14 type  4   force =     0.00000000    0.00000000    0.00000000
     The SCF correction term to forces
     atom    1 type  1   force =    -0.00000468    0.00020812    0.00069905
     atom    2 type  1   force =    -0.00001068    0.00009316   -0.00033908
     atom    3 type  1   force =     0.00000094   -0.00001233    0.00002174
     atom    4 type  1   force =     0.00000188    0.00009904   -0.00038444
     atom    5 type  2   force =     0.00001081   -0.00056611    0.00026335
     atom    6 type  2   force =     0.00001858   -0.00024376   -0.00039026
     atom    7 type  3   force =    -0.00000552   -0.00011430    0.00048432
     atom    8 type  3   force =    -0.00000232   -0.00004332   -0.00007574
     atom    9 type  3   force =    -0.00000110    0.00004370   -0.00004255
     atom   10 type  3   force =     0.00000143    0.00001798   -0.00033585
     atom   11 type  4   force =     0.00000459    0.00043062    0.00030139
     atom   12 type  4   force =     0.00001741    0.00018704   -0.00013746
     atom   13 type  4   force =     0.00002104   -0.00013177   -0.00012304
     atom   14 type  4   force =    -0.00000721   -0.00028736   -0.00008059

     Total force =     0.172670     Total SCF correction =     0.001497

     Computing stress (Cartesian axis) and pressure

          total   stress  (Ry/bohr**3)                   (kbar)     P=     -172.23
  -0.00099274  -0.00000034  -0.00000128         -146.04       -0.05       -0.19
  -0.00000034  -0.00110468   0.00004348           -0.05     -162.50        6.40
  -0.00000128   0.00004348  -0.00141499           -0.19        6.40     -208.15

     kinetic stress (kbar)  13406.24     -0.03      0.02
                               -0.03  13255.62    -72.72
                                0.02    -72.72  13321.93

     local   stress (kbar)  -8595.56      0.00      0.71
                                0.00 -16170.66  -1864.59
                                0.71  -1864.59   9875.25

     nonloc. stress (kbar)   2174.42      0.03     -0.15
                                0.03   2266.52     34.28
                               -0.15     34.28   2169.28

     hartree stress (kbar)  10077.19      0.05     -0.04
                                0.05  13744.77    908.42
                               -0.04    908.42   1368.97

     exc-cor stress (kbar)   5426.20     -0.01      0.03
                               -0.01   5425.08     -0.89
                                0.03     -0.89   5424.78

     corecor stress (kbar)  -9141.90     -0.02      0.02
                               -0.02  -9142.09     -0.16
                                0.02     -0.16  -9138.79

     ewald   stress (kbar) -13492.62     -0.08     -0.77
                               -0.08  -9541.75   1002.05
                               -0.77   1002.05 -23229.57

     hubbard stress (kbar)      0.00      0.00      0.00
                                0.00      0.00      0.00
                                0.00      0.00      0.00

     DFT-D   stress (kbar)      0.00      0.00      0.00
                                0.00      0.00      0.00
                                0.00      0.00      0.00

     XDM     stress (kbar)      0.00      0.00      0.00
                                0.00      0.00      0.00
                                0.00      0.00      0.00

     dft-nl  stress (kbar)      0.00      0.00      0.00
                                0.00      0.00      0.00
                                0.00      0.00      0.00

     TS-vdW  stress (kbar)      0.00      0.00      0.00
                                0.00      0.00      0.00
                                0.00      0.00      0.00

[...]

                                0.00      0.00      0.00

     Writing all to output data dir calculations/myprefix.save/

     General routines

     Parallel routines

     PAW routines

   This run was terminated on:  19:28:28   4Mar2023

   JOB DONE.