     Program PWSCF v.7.0 starts on  3Mar2023 at 14:39:46

     R & G space division:  proc/nbgrp/npool/nimage =      32

     Reading input from espresso_635.pwi
Warning: card &CELL ignored
Warning: card / ignored

     Current dimensions of program PWSCF are:
     Max number of different atomic species (ntypx) = 10
     Max number of k-points (npk) =  40000
     Max angular momentum in pseudopotentials (lmaxx) =  4
     file O.pbe-n-kjpaw_psl.0.1.UPF: wavefunction(s)  2P renormalized

     gamma-point specific algorithms are used
     Message from routine setup:
     using ibrav=0 with symmetry is DISCOURAGED, use correct ibrav instead

     Using Slab Decomposition

     bravais-lattice index     =            0
     lattice parameter (alat)  =       9.4876  a.u.
     unit-cell volume          =    2114.0954 (a.u.)^3
     number of atoms/cell      =           20
     number of atomic types    =            3
     number of electrons       =       144.00
     number of Kohn-Sham states=           86
     kinetic-energy cutoff     =      30.0000  Ry
     charge density cutoff     =     240.0000  Ry
     scf convergence threshold =      1.0E-06
     mixing beta               =       0.7000
     number of iterations used =            8  plain     mixing
     Exchange-correlation= SLA  PW   PBX  PBC
                           (   1   4   3   4   0   0   0)

     celldm(1)=   9.487635  celldm(2)=   0.000000  celldm(3)=   0.000000
     celldm(4)=   0.000000  celldm(5)=   0.000000  celldm(6)=   0.000000

     crystal axes: (cart. coord. in units of alat)
               a(1) = (   1.000000   0.000000   0.000000 )
               a(2) = (  -0.212661   0.977126   0.000000 )
               a(3) = (   0.350601   0.435114   2.533379 )

     reciprocal axes: (cart. coord. in units 2 pi/alat)
               b(1) = (  1.000000  0.217640 -0.175773 )
               b(2) = (  0.000000  1.023410 -0.175773 )
               b(3) = (  0.000000  0.000000  0.394730 )

     PseudoPot. # 1 for B  read from file:
     /home/pragov/projects/rrg-bengioy-ad/pragov/crystal_structure_design/SSSP/b_pbe_v1.4.uspp.F.UPF
     MD5 check sum: cc6de2960df11db49a60e589f9ebb39b
     Pseudo is Ultrasoft + core correction, Zval =  3.0
     Generated by new atomic code, or converted to UPF format
     Using radial grid of  781 points,  4 beta functions with:
                l(1) =   0
                l(2) =   0
                l(3) =   1
                l(4) =   1
     Q(r) pseudized with  8 coefficients,  rinner =    1.100   1.100   1.100

     PseudoPot. # 2 for Sb read from file:
     /home/pragov/projects/rrg-bengioy-ad/pragov/crystal_structure_design/SSSP/sb_pbe_v1.4.uspp.F.UPF
     MD5 check sum: 9bc50dfb53373b713f5709b9110fe27f
     Pseudo is Ultrasoft + core correction, Zval = 15.0
     Generated by new atomic code, or converted to UPF format
     Using radial grid of  891 points,  6 beta functions with:
                l(1) =   0
                l(2) =   0
                l(3) =   1
                l(4) =   1
                l(5) =   2
                l(6) =   2
     Q(r) pseudized with  8 coefficients,  rinner =    1.350   1.350   1.350
                                                       1.350   1.350

     PseudoPot. # 3 for O  read from file:
     /home/pragov/projects/rrg-bengioy-ad/pragov/crystal_structure_design/SSSP/O.pbe-n-kjpaw_psl.0.1.UPF
     MD5 check sum: 0234752ac141de4415c5fc33072bef88
     Pseudo is Projector augmented-wave + core cor, Zval =  6.0
     Generated using "atomic" code by A. Dal Corso  v.5.0.99 svn rev. 10869
     Shape of augmentation charge: BESSEL
     Using radial grid of 1095 points,  4 beta functions with:
                l(1) =   0
                l(2) =   0
                l(3) =   1
                l(4) =   1
     Q(r) pseudized with 0 coefficients

     atomic species   valence    mass     pseudopotential
        B              3.00    10.81000     B ( 1.00)
        Sb            15.00   121.76000     Sb( 1.00)
        O              6.00    15.99900     O ( 1.00)

      2 Sym. Ops., with inversion, found

                                    s                        frac. trans.

      isym =  1     identity

 cryst.   s( 1) = (     1          0          0      )
                  (     0          1          0      )
                  (     0          0          1      )

 cart.    s( 1) = (  1.0000000  0.0000000 -0.0000000 )
                  (  0.0000000  1.0000000  0.0000000 )
                  (  0.0000000  0.0000000  1.0000000 )

      isym =  2     inversion

 cryst.   s( 2) = (    -1          0          0      )
                  (     0         -1          0      )
                  (     0          0         -1      )

 cart.    s( 2) = ( -1.0000000 -0.0000000  0.0000000 )
                  (  0.0000000 -1.0000000 -0.0000000 )
                  (  0.0000000  0.0000000 -1.0000000 )

   Cartesian axes

     site n.     atom                  positions (alat units)
         1           B   tau(   1) = (   0.9881588   0.4892250   0.8937811  )
         2           B   tau(   2) = (   0.6947481   0.1250879   0.3729083  )
         3           B   tau(   3) = (   0.4431920   1.2871516   2.1604704  )
         4           B   tau(   4) = (   0.1497813   0.9230146   1.6395976  )
         5           Sb  tau(   5) = (   0.8842698   0.2878201   1.5920131  )
         6           Sb  tau(   6) = (  -0.0821142   0.7076943   0.3253238  )
         7           Sb  tau(   7) = (   0.2536703   1.1244195   0.9413655  )
         8           Sb  tau(   8) = (   1.2200543   0.7045452   2.2080548  )
         9           O   tau(   9) = (   0.8462218   0.3201731   0.2451297  )
        10           O   tau(  10) = (   0.8297486   0.2997290   1.0215596  )
        11           O   tau(  11) = (   0.8785530   0.6740324   0.7238952  )
        12           O   tau(  12) = (   0.4908591   0.1928852   0.5427941  )
        13           O   tau(  13) = (   0.8769949   0.9203719   1.5855302  )
        14           O   tau(  14) = (   0.5375156   0.8351052   0.3188409  )
        15           O   tau(  15) = (   0.6004245   0.5771344   2.2145377  )
        16           O   tau(  16) = (   0.2609452   0.4918677   0.9478484  )
        17           O   tau(  17) = (   0.6470810   1.2193544   1.9905845  )
        18           O   tau(  18) = (   0.2593871   0.7382072   1.8094834  )
        19           O   tau(  19) = (   0.3081915   1.1125106   1.5118190  )
        20           O   tau(  20) = (   0.2917183   1.0920665   2.2882489  )

   Crystallographic axes

     site n.     atom                  positions (cryst. coord.)
         1           B   tau(   1) = (  0.9375310  0.3435750  0.3528020  )
         2           B   tau(   2) = (  0.6564250  0.0624690  0.1471980  )
         3           B   tau(   3) = (  0.3435750  0.9375310  0.8528020  )
         4           B   tau(   4) = (  0.0624690  0.6564250  0.6471980  )
         5           Sb  tau(   5) = (  0.6670780  0.0147250  0.6284150  )
         6           Sb  tau(   6) = (  0.0147250  0.6670780  0.1284150  )
         7           Sb  tau(   7) = (  0.3329220  0.9852750  0.3715850  )
         8           Sb  tau(   8) = (  0.9852750  0.3329220  0.8715850  )
         9           O   tau(   9) = (  0.8728170  0.2845810  0.0967600  )
        10           O   tau(  10) = (  0.7154190  0.1271830  0.4032400  )
        11           O   tau(  11) = (  0.8980080  0.5625700  0.2857430  )
        12           O   tau(  12) = (  0.4374300  0.1019920  0.2142570  )
        13           O   tau(  13) = (  0.7986110  0.6632240  0.6258560  )
        14           O   tau(  14) = (  0.6632240  0.7986110  0.1258560  )
        15           O   tau(  15) = (  0.3367760  0.2013890  0.8741440  )
        16           O   tau(  16) = (  0.2013890  0.3367760  0.3741440  )
        17           O   tau(  17) = (  0.5625700  0.8980080  0.7857430  )
        18           O   tau(  18) = (  0.1019920  0.4374300  0.7142570  )
        19           O   tau(  19) = (  0.2845810  0.8728170  0.5967600  )
        20           O   tau(  20) = (  0.1271830  0.7154190  0.9032400  )

     number of k points=     1  Methfessel-Paxton smearing, width (Ry)=  0.0010
                       cart. coord. in units 2pi/alat
        k(    1) = (   0.0000000   0.0000000   0.0000000), wk =   2.0000000

                       cryst. coord.
        k(    1) = (   0.0000000   0.0000000   0.0000000), wk =   2.0000000

     Check: negative core charge=   -0.000011

     Initial potential from superposition of free atoms

     starting charge     139.9988, renormalised to     144.0000
     Starting wfcs are  100 randomized atomic wfcs
     Checking if some PAW data can be deallocated...

     Self-consistent Calculation

     iteration #  1     ecut=    30.00 Ry     beta= 0.70
     Davidson diagonalization with overlap

     ethr =  1.00E-02,  avg # of iterations =  2.0

     total energy              =   -1264.20993168 Ry
     estimated scf accuracy    <       3.16177394 Ry

[...]

     total energy              =   -1265.58579706 Ry
     estimated scf accuracy    <       0.00001160 Ry

     iteration #  9     ecut=    30.00 Ry     beta= 0.70
     Davidson diagonalization with overlap

     ethr =  8.06E-09,  avg # of iterations =  2.0

     End of self-consistent calculation

          k = 0.0000 0.0000 0.0000 (  2943 PWs)   bands (ev):

   -24.5180 -24.5165 -24.5142 -24.5126 -24.5069 -24.5027 -24.4976 -24.4950
   -24.4120 -24.4110 -24.4089 -24.4064 -24.3998 -24.3975 -24.3955 -24.3953
   -24.3443 -24.3419 -24.3403 -24.3396 -15.7903 -15.7043 -15.3636 -15.2301
   -14.2055 -14.1928 -14.0365 -13.9678 -13.9646 -13.9402 -13.7772 -13.7602
    -5.4135  -5.3438  -4.7499  -4.7444  -2.6823  -2.4258  -2.2060  -1.8937
    -1.6045  -1.5454  -1.4514  -1.4001  -0.7999  -0.5302  -0.4043  -0.0319
    -0.0155   0.1712   0.3900   0.5501   0.8820   1.1280   1.2479   1.2841
     1.8772   1.9038   1.9990   2.0476   2.0527   2.2368   2.2714   2.2761
     2.3681   2.4927   2.8846   3.1325   3.1494   3.1911   3.3817   3.5943
     8.6318   8.8925   8.8957   8.9814   9.0958   9.1159   9.1590   9.4656
     9.6979   9.7868  10.3696  10.3831  10.4493  10.5074

     occupation numbers
     1.0000   1.0000   1.0000   1.0000   1.0000   1.0000   1.0000   1.0000
     1.0000   1.0000   1.0000   1.0000   1.0000   1.0000   1.0000   1.0000
     1.0000   1.0000   1.0000   1.0000   1.0000   1.0000   1.0000   1.0000
     1.0000   1.0000   1.0000   1.0000   1.0000   1.0000   1.0000   1.0000
     1.0000   1.0000   1.0000   1.0000   1.0000   1.0000   1.0000   1.0000
     1.0000   1.0000   1.0000   1.0000   1.0000   1.0000   1.0000   1.0000
     1.0000   1.0000   1.0000   1.0000   1.0000   1.0000   1.0000   1.0000
     1.0000   1.0000   1.0000   1.0000   1.0000   1.0000   1.0000   1.0000
     1.0000   1.0000   1.0000   1.0000   1.0000   1.0000   1.0000   1.0000
    -0.0000  -0.0000  -0.0000  -0.0000  -0.0000  -0.0000  -0.0000  -0.0000
    -0.0000  -0.0000  -0.0000  -0.0000  -0.0000  -0.0000

     the Fermi energy is     6.2312 ev

!    total energy              =   -1265.58579929 Ry
     estimated scf accuracy    <       0.00000049 Ry
     smearing contrib. (-TS)   =       0.00000000 Ry
     internal energy E=F+TS    =   -1265.58579929 Ry

     The total energy is F=E-TS. E is the sum of the following terms:
     one-electron contribution =    -661.40825719 Ry
     hartree contribution      =     403.15002872 Ry
     xc contribution           =    -277.55052321 Ry
     ewald contribution        =    -615.53561162 Ry
     one-center paw contrib.   =    -114.24143599 Ry
      -> PAW hartree energy AE =       0.00000000 Ry
      -> PAW hartree energy PS =       0.00000000 Ry
      -> PAW xc energy AE      =       0.00000000 Ry
      -> PAW xc energy PS      =       0.00000000 Ry
      -> total E_H with PAW    =     403.15002872 Ry
      -> total E_XC with PAW   =    -277.55052321 Ry

     convergence has been achieved in   9 iterations

     Forces acting on atoms (cartesian axes, Ry/au):

     atom    1 type  1   force =     0.01799874    0.01078588   -0.00324118
     atom    2 type  1   force =    -0.00664497   -0.01989902    0.00330783
     atom    3 type  1   force =     0.00664497    0.01989902   -0.00330783
     atom    4 type  1   force =    -0.01799874   -0.01078588    0.00324118
     atom    5 type  2   force =     0.01349385    0.04030950    0.00879445
     atom    6 type  2   force =     0.03649406    0.02161412    0.00779514
     atom    7 type  2   force =    -0.01349385   -0.04030950   -0.00879445
     atom    8 type  2   force =    -0.03649406   -0.02161412   -0.00779514
     atom    9 type  3   force =     0.03469572    0.00401082   -0.00352255
     atom   10 type  3   force =     0.00352383   -0.03477021    0.00351570
     atom   11 type  3   force =    -0.00188222   -0.01105796   -0.00057240
     atom   12 type  3   force =     0.01040463    0.00418023    0.00062522
     atom   13 type  3   force =     0.01423197   -0.06741128   -0.00242317
     atom   14 type  3   force =    -0.06886271   -0.00035007   -0.00253422
     atom   15 type  3   force =     0.06886271    0.00035007    0.00253422
     atom   16 type  3   force =    -0.01423197    0.06741128    0.00242317
     atom   17 type  3   force =    -0.01040463   -0.00418023   -0.00062522
     atom   18 type  3   force =     0.00188222    0.01105796    0.00057240
     atom   19 type  3   force =    -0.00352383    0.03477021   -0.00351570
     atom   20 type  3   force =    -0.03469572   -0.00401082    0.00352255
     The non-local contrib.  to forces
     atom    1 type  1   force =     0.00722604   -0.02190493    0.06061853
     atom    2 type  1   force =     0.02292789   -0.00239610   -0.06055215
     atom    3 type  1   force =    -0.02292789    0.00239610    0.06055215
     atom    4 type  1   force =    -0.00722604    0.02190493   -0.06061853
     atom    5 type  2   force =    -0.36283211   -0.66113803    0.37890310
     atom    6 type  2   force =    -0.56888547   -0.49524711    0.37808612
     atom    7 type  2   force =     0.36283211    0.66113803   -0.37890310
     atom    8 type  2   force =     0.56888547    0.49524711   -0.37808612
     atom    9 type  3   force =    -0.81783889   -0.04310717    0.88476402
     atom   10 type  3   force =    -0.13159176    0.80830515   -0.88469288
     atom   11 type  3   force =     0.81427057   -1.01414438   -0.03578126
     atom   12 type  3   force =     1.16410424   -0.58007307    0.03622241
     atom   13 type  3   force =     1.16586752    0.91282244    0.30194195
     atom   14 type  3   force =     0.64406413    1.33338390    0.30199869
     atom   15 type  3   force =    -0.64406413   -1.33338390   -0.30199869
     atom   16 type  3   force =    -1.16586752   -0.91282244   -0.30194195
     atom   17 type  3   force =    -1.16410424    0.58007307   -0.03622241
     atom   18 type  3   force =    -0.81427057    1.01414438    0.03578126
     atom   19 type  3   force =     0.13159176   -0.80830515    0.88469288
     atom   20 type  3   force =     0.81783889    0.04310717   -0.88476402
     The ionic contribution  to forces
     atom    1 type  1   force =    -0.00330390    0.77476991    1.41756021
     atom    2 type  1   force =    -0.75775040   -0.16153531   -1.41756021
     atom    3 type  1   force =     0.75775040    0.16153531    1.41756021
     atom    4 type  1   force =     0.00330390   -0.77476991   -1.41756021
     atom    5 type  2   force =     2.96924464   11.03595220   -8.63783123
     atom    6 type  2   force =    10.15207173    5.24824679   -8.63783123
     atom    7 type  2   force =    -2.96924464  -11.03595220    8.63783123
     atom    8 type  2   force =   -10.15207173   -5.24824679    8.63783123
     atom    9 type  3   force =     1.77508388   -2.96567535   -4.81098414
     atom   10 type  3   force =     3.27533015   -1.10379595    4.81098414
     atom   11 type  3   force =    -3.28129723    4.30889296    5.44776442
     atom   12 type  3   force =    -4.90813635    2.28990560   -5.44776442
     atom   13 type  3   force =    -2.13617813   -7.49915744   -3.91775640
     atom   14 type  3   force =    -6.87333883   -3.68209623   -3.91775640
     atom   15 type  3   force =     6.87333883    3.68209623    3.91775640
     atom   16 type  3   force =     2.13617813    7.49915744    3.91775640
     atom   17 type  3   force =     4.90813635   -2.28990560    5.44776442
     atom   18 type  3   force =     3.28129723   -4.30889296   -5.44776442
     atom   19 type  3   force =    -3.27533015    1.10379595   -4.81098414
     atom   20 type  3   force =    -1.77508388    2.96567535    4.81098414
     The local contribution  to forces
     atom    1 type  1   force =     0.01391423   -0.74311719   -1.47907720
     atom    2 type  1   force =     0.72915751    0.14432115    1.47930579
     atom    3 type  1   force =    -0.72916091   -0.14431942   -1.47930567
     atom    4 type  1   force =    -0.01391198    0.74311285    1.47908083
     atom    5 type  2   force =    -2.59695528  -10.33868074    8.27264858
     atom    6 type  2   force =    -9.54974744   -4.73592370    8.27464601
     atom    7 type  2   force =     2.59696016   10.33869054   -8.27264235
     atom    8 type  2   force =     9.54976624    4.73592537   -8.27467424
     atom    9 type  3   force =    -0.93060267    3.01311881    3.93164459
     atom   10 type  3   force =    -3.14229049    0.26862249   -3.93112993
     atom   11 type  3   force =     2.47283797   -3.31477072   -5.41339302
     atom   12 type  3   force =     3.76476697   -1.71123670    5.41392447
     atom   13 type  3   force =     0.99548081    6.52770436    3.61611709
     atom   14 type  3   force =     6.16666473    2.36079257    3.61662300
     atom   15 type  3   force =    -6.16667138   -2.36078866   -3.61662538
     atom   16 type  3   force =    -0.99547469   -6.52770576   -3.61611646
     atom   17 type  3   force =    -3.76476833    1.71123705   -5.41392523
     atom   18 type  3   force =    -2.47283761    3.31476907    5.41339882
     atom   19 type  3   force =     3.14228433   -0.26862645    3.93113261
     atom   20 type  3   force =     0.93060229   -3.01311777   -3.93164709
     The core correction contribution to forces
     atom    1 type  1   force =     0.00013282    0.00110961   -0.00225530
     atom    2 type  1   force =    -0.00103557   -0.00036209    0.00236637
     atom    3 type  1   force =     0.00103558    0.00036206   -0.00236641
     atom    4 type  1   force =    -0.00013286   -0.00110958    0.00225527
     atom    5 type  2   force =     0.00411122    0.00460907   -0.00457665
     atom    6 type  2   force =     0.00362987    0.00499792   -0.00457048
     atom    7 type  2   force =    -0.00411039   -0.00460877    0.00457689
     atom    8 type  2   force =    -0.00362992   -0.00499785    0.00457005
     atom    9 type  3   force =     0.00804009   -0.00049387   -0.00835398
     atom   10 type  3   force =     0.00218760   -0.00775137    0.00836679
     atom   11 type  3   force =    -0.00748037    0.00913680    0.00121553
     atom   12 type  3   force =    -0.01051844    0.00536735   -0.00122091
     atom   13 type  3   force =    -0.01071946   -0.00906396   -0.00279844
     atom   14 type  3   force =    -0.00657708   -0.01240285   -0.00280189
     atom   15 type  3   force =     0.00657705    0.01240287    0.00280190
     atom   16 type  3   force =     0.01071945    0.00906398    0.00279840
     atom   17 type  3   force =     0.01051845   -0.00536737    0.00122095
     atom   18 type  3   force =     0.00748033   -0.00913681   -0.00121546
     atom   19 type  3   force =    -0.00218766    0.00775137   -0.00836681
     atom   20 type  3   force =    -0.00804008    0.00049387    0.00835396
     The Hubbard contrib.    to forces
     atom    1 type  1   force =     0.00000000    0.00000000    0.00000000
     atom    2 type  1   force =     0.00000000    0.00000000    0.00000000
     atom    3 type  1   force =     0.00000000    0.00000000    0.00000000
     atom    4 type  1   force =     0.00000000    0.00000000    0.00000000
     atom    5 type  2   force =     0.00000000    0.00000000    0.00000000
     atom    6 type  2   force =     0.00000000    0.00000000    0.00000000
     atom    7 type  2   force =     0.00000000    0.00000000    0.00000000
     atom    8 type  2   force =     0.00000000    0.00000000    0.00000000
     atom    9 type  3   force =     0.00000000    0.00000000    0.00000000
     atom   10 type  3   force =     0.00000000    0.00000000    0.00000000
     atom   11 type  3   force =     0.00000000    0.00000000    0.00000000
     atom   12 type  3   force =     0.00000000    0.00000000    0.00000000
     atom   13 type  3   force =     0.00000000    0.00000000    0.00000000
     atom   14 type  3   force =     0.00000000    0.00000000    0.00000000
     atom   15 type  3   force =     0.00000000    0.00000000    0.00000000
     atom   16 type  3   force =     0.00000000    0.00000000    0.00000000
     atom   17 type  3   force =     0.00000000    0.00000000    0.00000000
     atom   18 type  3   force =     0.00000000    0.00000000    0.00000000
     atom   19 type  3   force =     0.00000000    0.00000000    0.00000000
     atom   20 type  3   force =     0.00000000    0.00000000    0.00000000
     The SCF correction term to forces
     atom    1 type  1   force =     0.00002937   -0.00007120   -0.00008818
     atom    2 type  1   force =     0.00005571    0.00007299   -0.00025239
     atom    3 type  1   force =    -0.00005208   -0.00007539    0.00025149
     atom    4 type  1   force =    -0.00003192    0.00007616    0.00008305
     atom    5 type  2   force =    -0.00006433   -0.00043322   -0.00034674
     atom    6 type  2   force =    -0.00058224   -0.00045892   -0.00253351
     atom    7 type  2   force =     0.00007919    0.00042271    0.00034549
     atom    8 type  2   force =     0.00054828    0.00045889    0.00256571
     atom    9 type  3   force =     0.00001358    0.00016848   -0.00059339
     atom   10 type  3   force =    -0.00011322   -0.00015044   -0.00001385
     atom   11 type  3   force =    -0.00021457   -0.00017325   -0.00037647
     atom   12 type  3   force =     0.00018829    0.00021706   -0.00053561
     atom   13 type  3   force =    -0.00021907    0.00028359    0.00007182
     atom   14 type  3   force =     0.00032368   -0.00002756   -0.00059666
     atom   15 type  3   force =    -0.00031833    0.00002342    0.00060095
     atom   16 type  3   force =     0.00021237   -0.00028168   -0.00007402
     atom   17 type  3   force =    -0.00018677   -0.00021738    0.00053776
     atom   18 type  3   force =     0.00021143    0.00017363    0.00037379
     atom   19 type  3   force =     0.00011633    0.00015459    0.00000833
     atom   20 type  3   force =    -0.00001265   -0.00016937    0.00059519

     Total force =     0.183660     Total SCF correction =     0.004248

     Computing stress (Cartesian axis) and pressure

          total   stress  (Ry/bohr**3)                   (kbar)     P=     -363.24
  -0.00252201   0.00003375  -0.00004693         -371.00        4.96       -6.90
   0.00003375  -0.00250717  -0.00005787            4.96     -368.82       -8.51
  -0.00004693  -0.00005787  -0.00237865           -6.90       -8.51     -349.91

     kinetic stress (kbar)  16826.31     53.80     46.85
                               53.80  16849.73     58.17
                               46.85     58.17  17003.60

     local   stress (kbar)  -9644.74   -726.57   1790.20
                             -726.57  -9960.85   2221.85
                             1790.20   2221.85  -8830.82

     nonloc. stress (kbar)   1650.13      8.69    -19.51
                                8.69   1653.92    -24.21
                              -19.51    -24.21   1633.83

     hartree stress (kbar)   9347.28    331.20   -619.54
                              331.20   9491.32   -768.99
                             -619.54   -768.99   9213.78

     exc-cor stress (kbar)   2471.48      1.35     -5.07
                                1.35   2472.07     -6.29
                               -5.07     -6.29   2462.89

     corecor stress (kbar)  -6967.22     -0.38      2.10
                               -0.38  -6967.38      2.61
                                2.10      2.61  -6964.26

     ewald   stress (kbar) -14054.25    336.86  -1201.93
                              336.86 -13907.63  -1491.66
                            -1201.93  -1491.66 -14868.93

     hubbard stress (kbar)      0.00      0.00      0.00
                                0.00      0.00      0.00
                                0.00      0.00      0.00

     DFT-D   stress (kbar)      0.00      0.00      0.00
                                0.00      0.00      0.00
                                0.00      0.00      0.00

     XDM     stress (kbar)      0.00      0.00      0.00
                                0.00      0.00      0.00
                                0.00      0.00      0.00

     dft-nl  stress (kbar)      0.00      0.00      0.00
                                0.00      0.00      0.00
                                0.00      0.00      0.00

     TS-vdW  stress (kbar)      0.00      0.00      0.00
                                0.00      0.00      0.00
                                0.00      0.00      0.00

[...]

                                0.00      0.00      0.00

     Writing all to output data dir calculations/myprefix.save/

     General routines

     Parallel routines

     PAW routines

   This run was terminated on:  14:39:49   3Mar2023

   JOB DONE.