     Program PWSCF v.7.0 starts on  3Mar2023 at 14:17:38

     R & G space division:  proc/nbgrp/npool/nimage =      32

     Reading input from espresso_575.pwi
Warning: card &CELL ignored
Warning: card / ignored

     Current dimensions of program PWSCF are:
     Max number of different atomic species (ntypx) = 10
     Max number of k-points (npk) =  40000
     Max angular momentum in pseudopotentials (lmaxx) =  4
     file Nb.pbe-spn-kjpaw_psl.0.3.0.UPF: wavefunction(s)  4S 4P renormalized

     gamma-point specific algorithms are used
     Message from routine setup:
     using ibrav=0 with symmetry is DISCOURAGED, use correct ibrav instead

     Using Slab Decomposition

     bravais-lattice index     =            0
     lattice parameter (alat)  =      12.0491  a.u.
     unit-cell volume          =     481.8970 (a.u.)^3
     number of atoms/cell      =            4
     number of atomic types    =            2
     number of electrons       =        36.00
     number of Kohn-Sham states=           22
     kinetic-energy cutoff     =      30.0000  Ry
     charge density cutoff     =     240.0000  Ry
     scf convergence threshold =      1.0E-06
     mixing beta               =       0.7000
     number of iterations used =            8  plain     mixing
     Exchange-correlation= PBE
                           (   1   4   3   4   0   0   0)

     celldm(1)=  12.049083  celldm(2)=   0.000000  celldm(3)=   0.000000
     celldm(4)=   0.000000  celldm(5)=   0.000000  celldm(6)=   0.000000

     crystal axes: (cart. coord. in units of alat)
               a(1) = (   1.000000   0.000000   0.000000 )
               a(2) = (   0.701314   0.712853   0.000000 )
               a(3) = (  -0.850657  -0.356426   0.386449 )

     reciprocal axes: (cart. coord. in units 2 pi/alat)
               b(1) = (  1.000000 -0.983813  1.293831 )
               b(2) = (  0.000000  1.402815  1.293831 )
               b(3) = (  0.000000  0.000000  2.587662 )

     PseudoPot. # 1 for Nb read from file:
     /home/pragov/projects/rrg-bengioy-ad/pragov/crystal_structure_design/SSSP/Nb.pbe-spn-kjpaw_psl.0.3.0.UPF
     MD5 check sum: 411d72ad547312f8017e2943ceca08cc
     Pseudo is Projector augmented-wave + core cor, Zval = 13.0
     Generated using "atomic" code by A. Dal Corso  v.5.0.99 svn rev. 10869
     Shape of augmentation charge: PSQ
     Using radial grid of 1227 points,  6 beta functions with:
                l(1) =   0
                l(2) =   0
                l(3) =   1
                l(4) =   1
                l(5) =   2
                l(6) =   2
     Q(r) pseudized with 0 coefficients

     PseudoPot. # 2 for As read from file:
     /home/pragov/projects/rrg-bengioy-ad/pragov/crystal_structure_design/SSSP/As.pbe-n-rrkjus_psl.0.2.UPF
     MD5 check sum: 767315de957beeeb34f87d97bf945c8f
     Pseudo is Ultrasoft + core correction, Zval =  5.0
     Generated using "atomic" code by A. Dal Corso  v.5.0.99 svn rev. 10869
     Using radial grid of 1209 points,  4 beta functions with:
                l(1) =   0
                l(2) =   0
                l(3) =   1
                l(4) =   1
     Q(r) pseudized with 0 coefficients

     atomic species   valence    mass     pseudopotential
        Nb            13.00    92.90637     Nb( 1.00)
        As             5.00    74.92159     As( 1.00)

      2 Sym. Ops. (no inversion) found ( 1 have fractional translation)

                                    s                        frac. trans.

      isym =  1     identity

 cryst.   s( 1) = (     1          0          0      )
                  (     0          1          0      )
                  (     0          0          1      )

 cart.    s( 1) = (  1.0000000 -0.0000000  0.0000000 )
                  (  0.0000000  1.0000000  0.0000000 )
                  (  0.0000000  0.0000000  1.0000000 )

      isym =  2     inv. 180 deg rotation - cart. axis [0,0,1]

 cryst.   s( 2) = (     1          0          0      )    f =(  0.2500000 )
                  (     0          1          0      )       ( -0.2500000 )
                  (    -1         -1         -1      )       (  0.5000000 )

 cart.    s( 2) = (  1.0000000 -0.0000000  0.0000000 )    f =( -0.3506569 )
                  (  0.0000000  1.0000000  0.0000000 )       ( -0.3564263 )
                  (  0.0000000  0.0000000 -1.0000000 )       (  0.1932247 )

   Cartesian axes

     site n.     atom                  positions (alat units)
         1           Nb  tau(   1) = (   1.2748676   0.5341711   0.0000000  )
         2           Nb  tau(   2) = (   0.7748676   0.5341711   0.1932247  )
         3           As  tau(   3) = (   0.2852372   0.1195147   0.0000000  )
         4           As  tau(   4) = (   0.7852372   0.1195147   0.1932247  )

   Crystallographic axes

     site n.     atom                  positions (cryst. coord.)
         1           Nb  tau(   1) = (  0.7493430  0.7493430  0.0000000  )
         2           Nb  tau(   2) = (  0.4993430  0.9993430  0.5000000  )
         3           As  tau(   3) = (  0.1676570  0.1676570  0.0000000  )
         4           As  tau(   4) = (  0.9176570  0.4176570  0.5000000  )

     number of k points=     1  Methfessel-Paxton smearing, width (Ry)=  0.0010
                       cart. coord. in units 2pi/alat
        k(    1) = (   0.0000000   0.0000000   0.0000000), wk =   2.0000000

                       cryst. coord.
        k(    1) = (   0.0000000   0.0000000   0.0000000), wk =   2.0000000

     Check: negative core charge=   -0.000008

     Initial potential from superposition of free atoms

     starting charge      35.9953, renormalised to      36.0000
     Starting wfcs are   28 randomized atomic wfcs
     Checking if some PAW data can be deallocated...

     Self-consistent Calculation

     iteration #  1     ecut=    30.00 Ry     beta= 0.70
     Davidson diagonalization with overlap

     ethr =  1.00E-02,  avg # of iterations =  2.0

     Threshold (ethr) on eigenvalues was too large:
     Diagonalizing with lowered threshold

     Davidson diagonalization with overlap

[...]

     total energy              =    -704.55967693 Ry
     estimated scf accuracy    <       0.37773708 Ry

[...]

     total energy              =    -704.70527181 Ry
     estimated scf accuracy    <       0.00000482 Ry

     iteration #  9     ecut=    30.00 Ry     beta= 0.70
     Davidson diagonalization with overlap

     ethr =  1.34E-08,  avg # of iterations =  4.0

     End of self-consistent calculation

          k = 0.0000 0.0000 0.0000 (   682 PWs)   bands (ev):

   -40.5042 -40.4782 -16.7221 -16.5962 -16.5926 -16.5649 -16.5622 -16.4312
     0.8510   3.0193   7.8778  11.4339  12.0679  12.0685  12.3692  12.7678
    12.8204  12.8208  15.1332  15.7705  16.8255  17.1069

     occupation numbers
     1.0000   1.0000   1.0000   1.0000   1.0000   1.0000   1.0000   1.0000
     1.0000   1.0000   1.0000   1.0000   1.0000   1.0000   1.0000   1.0000
     1.0000   1.0000  -0.0000  -0.0000  -0.0000  -0.0000

     the Fermi energy is    13.6252 ev

!    total energy              =    -704.70527246 Ry
     estimated scf accuracy    <       0.00000092 Ry
     smearing contrib. (-TS)   =       0.00000000 Ry
     internal energy E=F+TS    =    -704.70527246 Ry

     The total energy is F=E-TS. E is the sum of the following terms:
     one-electron contribution =     -46.59684575 Ry
     hartree contribution      =      43.54171569 Ry
     xc contribution           =     -76.59562196 Ry
     ewald contribution        =    -208.09642094 Ry
     one-center paw contrib.   =    -416.95809949 Ry
      -> PAW hartree energy AE =      69.45870515 Ry
      -> PAW hartree energy PS =     -69.08975250 Ry
      -> PAW xc energy AE      =    -235.96650026 Ry
      -> PAW xc energy PS      =      27.11849787 Ry
      -> total E_H with PAW    =      43.91066833 Ry
      -> total E_XC with PAW   =    -285.44362435 Ry

     convergence has been achieved in   9 iterations

     Forces acting on atoms (cartesian axes, Ry/au):

     atom    1 type  1   force =     0.09839512    0.04122939   -0.00000437
     atom    2 type  1   force =     0.09839512    0.04122939    0.00000437
     atom    3 type  2   force =    -0.09839512   -0.04122939    0.00000056
     atom    4 type  2   force =    -0.09839512   -0.04122939   -0.00000056
     The non-local contrib.  to forces
     atom    1 type  1   force =    -0.36283353   -0.15202537   -0.00000247
     atom    2 type  1   force =    -0.36283353   -0.15202537    0.00000247
     atom    3 type  2   force =     0.00614812    0.00257512    0.00000079
     atom    4 type  2   force =     0.00614812    0.00257512   -0.00000079
     The ionic contribution  to forces
     atom    1 type  1   force =    -0.12474553   -0.05226853    0.00000000
     atom    2 type  1   force =    -0.12474553   -0.05226853    0.00000000
     atom    3 type  2   force =     0.12474553    0.05226853   -0.00000000
     atom    4 type  2   force =     0.12474553    0.05226853   -0.00000000
     The local contribution  to forces
     atom    1 type  1   force =     0.55827092    0.23391629   -0.00001303
     atom    2 type  1   force =     0.55613616    0.23304173    0.00001363
     atom    3 type  2   force =    -0.22261198   -0.09327228    0.00000001
     atom    4 type  2   force =    -0.22171602   -0.09290457   -0.00000350
     The core correction contribution to forces
     atom    1 type  1   force =     0.02877671    0.01205728   -0.00000065
     atom    2 type  1   force =     0.02875626    0.01204887   -0.00000038
     atom    3 type  2   force =    -0.00708610   -0.00296870   -0.00000026
     atom    4 type  2   force =    -0.00711031   -0.00297967   -0.00000028
     The Hubbard contrib.    to forces
     atom    1 type  1   force =     0.00000000    0.00000000    0.00000000
     atom    2 type  1   force =     0.00000000    0.00000000    0.00000000
     atom    3 type  2   force =     0.00000000    0.00000000    0.00000000
     atom    4 type  2   force =     0.00000000    0.00000000    0.00000000
     The SCF correction term to forces
     atom    1 type  1   force =    -0.00100684   -0.00042170    0.00001015
     atom    2 type  1   force =     0.00103141    0.00041288   -0.00001297
     atom    3 type  2   force =     0.00044296    0.00018543   -0.00000179
     atom    4 type  2   force =    -0.00047984   -0.00019756    0.00000219

     Total force =     0.213368     Total SCF correction =     0.001711

     Computing stress (Cartesian axis) and pressure

          total   stress  (Ry/bohr**3)                   (kbar)     P=        8.59
   0.00005739  -0.00000074   0.00000000            8.44       -0.11        0.00
  -0.00000074   0.00005885   0.00000000           -0.11        8.66        0.00
   0.00000000   0.00000000   0.00005890            0.00        0.00        8.66

     kinetic stress (kbar)  19759.87     -1.10      0.00
                               -1.10  19762.03      0.00
                                0.00      0.00  19762.50

     local   stress (kbar)  -5344.96    173.36      0.05
                              173.36  -5686.07     -0.11
                                0.05     -0.11  -5758.76

     nonloc. stress (kbar)   7238.57      1.89      0.00
                                1.89   7234.86      0.00
                                0.00      0.00   7234.07

     hartree stress (kbar)   4560.69     89.67     -0.03
                               89.67   4384.26      0.08
                               -0.03      0.08   4346.70

     exc-cor stress (kbar)   8333.83     -2.84      0.00
                               -2.84   8339.43     -0.00
                                0.00     -0.00   8340.62

     corecor stress (kbar) -12970.50     10.65     -0.00
                               10.65 -12991.45      0.01
                               -0.00      0.01 -12995.91

     ewald   stress (kbar) -21569.07   -271.73      0.00
                             -271.73 -21034.41      0.00
                                0.00      0.00 -20920.55

     hubbard stress (kbar)      0.00      0.00      0.00
                                0.00      0.00      0.00
                                0.00      0.00      0.00

     DFT-D   stress (kbar)      0.00      0.00      0.00
                                0.00      0.00      0.00
                                0.00      0.00      0.00

     XDM     stress (kbar)      0.00      0.00      0.00
                                0.00      0.00      0.00
                                0.00      0.00      0.00

     dft-nl  stress (kbar)      0.00      0.00      0.00
                                0.00      0.00      0.00
                                0.00      0.00      0.00

     TS-vdW  stress (kbar)      0.00      0.00      0.00
                                0.00      0.00      0.00
                                0.00      0.00      0.00

[...]

                                0.00      0.00      0.00

     Writing all to output data dir calculations/myprefix.save/

     General routines

     Parallel routines

     PAW routines

   This run was terminated on:  14:17:41   3Mar2023

   JOB DONE.