     Program PWSCF v.7.0 starts on  4Mar2023 at 18:38:40

     R & G space division:  proc/nbgrp/npool/nimage =      32

     Reading input from espresso_7246.pwi
Warning: card &CELL ignored
Warning: card / ignored

     Current dimensions of program PWSCF are:
     Max number of different atomic species (ntypx) = 10
     Max number of k-points (npk) =  40000
     Max angular momentum in pseudopotentials (lmaxx) =  4

     gamma-point specific algorithms are used
     Message from routine setup:
     using ibrav=0 with symmetry is DISCOURAGED, use correct ibrav instead

     Using Slab Decomposition

     bravais-lattice index     =            0
     lattice parameter (alat)  =       7.4987  a.u.
     unit-cell volume          =    1752.4825 (a.u.)^3
     number of atoms/cell      =           13
     number of atomic types    =            3
     number of electrons       =       229.00
     number of Kohn-Sham states=          138
     kinetic-energy cutoff     =      30.0000  Ry
     charge density cutoff     =     240.0000  Ry
     scf convergence threshold =      1.0E-06
     mixing beta               =       0.7000
     number of iterations used =            8  plain     mixing
     Exchange-correlation= PBE
                           (   1   4   3   4   0   0   0)

     celldm(1)=   7.498749  celldm(2)=   0.000000  celldm(3)=   0.000000
     celldm(4)=   0.000000  celldm(5)=   0.000000  celldm(6)=   0.000000

     crystal axes: (cart. coord. in units of alat)
               a(1) = (   1.000000   0.000000   0.000000 )
               a(2) = (   0.000000   1.028958   0.000000 )
               a(3) = (   0.000000   0.000000   4.039147 )

     reciprocal axes: (cart. coord. in units 2 pi/alat)
               b(1) = (  1.000000  0.000000  0.000000 )
               b(2) = (  0.000000  0.971857  0.000000 )
               b(3) = (  0.000000  0.000000  0.247577 )

     PseudoPot. # 1 for Lu read from file:
     /home/pragov/projects/rrg-bengioy-ad/pragov/crystal_structure_design/SSSP/Lu.GGA-PBE-paw-v1.0.UPF
     MD5 check sum: 9ceca61ee0c17e9380a83635bfffa61d
     Pseudo is Projector augmented-wave + core cor, Zval = 25.0
     Generated using ATOMPAW code
     Shape of augmentation charge: BESSEL
     Using radial grid of 1118 points,  8 beta functions with:
                l(1) =   0
                l(2) =   0
                l(3) =   1
                l(4) =   1
                l(5) =   2
                l(6) =   2
                l(7) =   3
                l(8) =   3
     Q(r) pseudized with 0 coefficients

     PseudoPot. # 2 for Ge read from file:
     /home/pragov/projects/rrg-bengioy-ad/pragov/crystal_structure_design/SSSP/ge_pbe_v1.4.uspp.F.UPF
     MD5 check sum: 9c9eaa91e581c3f09632fb3098b2c6b2
     Pseudo is Ultrasoft + core correction, Zval = 14.0
     Generated by new atomic code, or converted to UPF format
     Using radial grid of  873 points,  6 beta functions with:
                l(1) =   0
                l(2) =   0
                l(3) =   1
                l(4) =   1
                l(5) =   2
                l(6) =   2
     Q(r) pseudized with  8 coefficients,  rinner =    1.400   1.400   1.400
                                                       1.400   1.400

     PseudoPot. # 3 for Rh read from file:
     /home/pragov/projects/rrg-bengioy-ad/pragov/crystal_structure_design/SSSP/Rh_ONCV_PBE-1.0.oncvpsp.upf
     MD5 check sum: ba07c69523b14cacd10683cd4c4284c1
     Pseudo is Norm-conserving, Zval = 17.0
     Generated using ONCVPSP code by D. R. Hamann
     Using radial grid of 1442 points,  6 beta functions with:
                l(1) =   0
                l(2) =   0
                l(3) =   1
                l(4) =   1
                l(5) =   2
                l(6) =   2

     atomic species   valence    mass     pseudopotential
        Lu            25.00   174.96680     Lu( 1.00)
        Ge            14.00    72.63000     Ge( 1.00)
        Rh            17.00   102.90550     Rh( 1.00)

      4 Sym. Ops. (no inversion) found ( 2 have fractional translation)

                                    s                        frac. trans.

      isym =  1     identity

 cryst.   s( 1) = (     1          0          0      )
                  (     0          1          0      )
                  (     0          0          1      )

 cart.    s( 1) = (  1.0000000  0.0000000  0.0000000 )
                  (  0.0000000  1.0000000  0.0000000 )
                  (  0.0000000  0.0000000  1.0000000 )

      isym =  2     180 deg rotation - cart. axis [0,0,1]

 cryst.   s( 2) = (    -1          0          0      )    f =(  0.5000000 )
                  (     0         -1          0      )       (  0.0000000 )
                  (     0          0          1      )       (  0.0000000 )

 cart.    s( 2) = ( -1.0000000  0.0000000  0.0000000 )    f =(  0.5000000 )
                  (  0.0000000 -1.0000000  0.0000000 )       (  0.0000000 )
                  (  0.0000000  0.0000000  1.0000000 )       (  0.0000000 )

      isym =  3     inv. 180 deg rotation - cart. axis [0,1,0]

 cryst.   s( 3) = (     1          0          0      )
                  (     0         -1          0      )
                  (     0          0          1      )

 cart.    s( 3) = (  1.0000000  0.0000000  0.0000000 )
                  (  0.0000000 -1.0000000  0.0000000 )
                  (  0.0000000  0.0000000  1.0000000 )

      isym =  4     inv. 180 deg rotation - cart. axis [1,0,0]

 cryst.   s( 4) = (    -1          0          0      )    f =(  0.5000000 )
                  (     0          1          0      )       (  0.0000000 )
                  (     0          0          1      )       (  0.0000000 )

 cart.    s( 4) = ( -1.0000000  0.0000000  0.0000000 )    f =(  0.5000000 )
                  (  0.0000000  1.0000000  0.0000000 )       (  0.0000000 )
                  (  0.0000000  0.0000000  1.0000000 )       (  0.0000000 )

   Cartesian axes

     site n.     atom                  positions (alat units)
         1           Lu  tau(   1) = (   0.2500000   0.0000000   0.3915185  )
         2           Lu  tau(   2) = (   0.2500000   0.5144790   2.4640694  )
         3           Lu  tau(   3) = (   0.7500000   0.5144790   1.6133039  )
         4           Lu  tau(   4) = (   0.7500000   0.0000000   3.6144386  )
         5           Ge  tau(   5) = (   0.2500000   0.0000000   1.8887777  )
         6           Ge  tau(   6) = (   0.2500000   0.5144790   3.7977755  )
         7           Ge  tau(   7) = (   0.7500000   0.5144790   0.1932732  )
         8           Ge  tau(   8) = (   0.7500000   0.0000000   2.3062599  )
         9           Ge  tau(   9) = (   0.2500000   0.5144790   0.9244597  )
        10           Ge  tau(  10) = (   0.2500000   0.0000000   3.0306486  )
        11           Ge  tau(  11) = (   0.7500000   0.0000000   0.9178638  )
        12           Ge  tau(  12) = (   0.7500000   0.5144790   3.0501173  )
        13           Rh  tau(  13) = (   0.2500000   0.0000000   1.2823968  )

   Crystallographic axes

     site n.     atom                  positions (cryst. coord.)
         1           Lu  tau(   1) = (  0.2500000  0.0000000  0.0969310  )
         2           Lu  tau(   2) = (  0.2500000  0.5000000  0.6100470  )
         3           Lu  tau(   3) = (  0.7500000  0.5000000  0.3994170  )
         4           Lu  tau(   4) = (  0.7500000  0.0000000  0.8948520  )
         5           Ge  tau(   5) = (  0.2500000  0.0000000  0.4676180  )
         6           Ge  tau(   6) = (  0.2500000  0.5000000  0.9402420  )
         7           Ge  tau(   7) = (  0.7500000  0.5000000  0.0478500  )
         8           Ge  tau(   8) = (  0.7500000  0.0000000  0.5709770  )
         9           Ge  tau(   9) = (  0.2500000  0.5000000  0.2288750  )
        10           Ge  tau(  10) = (  0.2500000  0.0000000  0.7503190  )
        11           Ge  tau(  11) = (  0.7500000  0.0000000  0.2272420  )
        12           Ge  tau(  12) = (  0.7500000  0.5000000  0.7551390  )
        13           Rh  tau(  13) = (  0.2500000  0.0000000  0.3174920  )

     number of k points=     1  Methfessel-Paxton smearing, width (Ry)=  0.0010
                       cart. coord. in units 2pi/alat
        k(    1) = (   0.0000000   0.0000000   0.0000000), wk =   2.0000000

                       cryst. coord.
        k(    1) = (   0.0000000   0.0000000   0.0000000), wk =   2.0000000

     Check: negative core charge=   -0.000001

     Initial potential from superposition of free atoms

     starting charge     228.9775, renormalised to     229.0000
     Starting wfcs are  210 randomized atomic wfcs
     Checking if some PAW data can be deallocated...

     Self-consistent Calculation

     iteration #  1     ecut=    30.00 Ry     beta= 0.70
     Davidson diagonalization with overlap

     ethr =  1.00E-02,  avg # of iterations =  3.0

     Threshold (ethr) on eigenvalues was too large:
     Diagonalizing with lowered threshold

     Davidson diagonalization with overlap

[...]

     total energy              =   -6245.18147154 Ry
     estimated scf accuracy    <       1.35759244 Ry

[...]

     total energy              =   -6246.05483270 Ry
     estimated scf accuracy    <       0.00000197 Ry

     iteration # 18     ecut=    30.00 Ry     beta= 0.70
     Davidson diagonalization with overlap

     ethr =  7.40E-10,  avg # of iterations =  2.0

     End of self-consistent calculation

          k = 0.0000 0.0000 0.0000 (  2443 PWs)   bands (ev):

   -64.6641 -42.3388 -42.1812 -42.1136 -41.8631 -32.7041 -32.6636 -32.3851
   -13.0470 -13.0178 -12.9088 -12.9038 -12.8766 -12.8558 -12.8435 -12.7423
   -12.7290 -12.5931 -12.5308 -12.4953 -10.7976 -10.7803 -10.7649 -10.7544
   -10.7540 -10.7373 -10.7338 -10.7178 -10.6805 -10.6736 -10.6547 -10.6496
   -10.6265 -10.6107 -10.5787 -10.5061 -10.4996 -10.4782 -10.4772 -10.4436
   -10.3819 -10.3601 -10.3572 -10.3449 -10.3364 -10.2201 -10.2149 -10.2105
   -10.1915 -10.1260  -9.4533  -9.4172  -9.4054  -9.3920  -9.3910  -9.3365
    -9.3324  -9.3276  -9.3022  -9.2245   2.2189   2.8329   3.0143   4.0912
     6.0190   6.8023   7.7487   8.9532   8.9997   9.0262   9.0384   9.0419
     9.0531   9.0809   9.0897   9.1091   9.1209   9.1219   9.1252   9.1343
     9.1456   9.1577   9.1700   9.1731   9.1985   9.2057   9.2312   9.2710
     9.2877   9.3796   9.3811   9.4063   9.4086   9.4171   9.4538   9.4898
     9.7372   9.9091  10.2801  10.4452  11.2977  11.3378  11.8996  12.2634
    12.2935  12.2987  12.3251  12.3586  12.4724  12.7767  13.0195  13.1446
    13.3617  14.1455  14.3383  14.4816  14.6472  15.9468  16.0125  16.3206
    16.4610  16.6438  16.7719  16.7857  16.8075  16.9569  17.1617  17.2002
    17.2044  17.2698  17.3174  17.5280  17.7832  18.2221  18.4346  18.8653
    18.8668  18.9279

     occupation numbers
     1.0000   1.0000   1.0000   1.0000   1.0000   1.0000   1.0000   1.0000
     1.0000   1.0000   1.0000   1.0000   1.0000   1.0000   1.0000   1.0000
     1.0000   1.0000   1.0000   1.0000   1.0000   1.0000   1.0000   1.0000
     1.0000   1.0000   1.0000   1.0000   1.0000   1.0000   1.0000   1.0000
     1.0000   1.0000   1.0000   1.0000   1.0000   1.0000   1.0000   1.0000
     1.0000   1.0000   1.0000   1.0000   1.0000   1.0000   1.0000   1.0000
     1.0000   1.0000   1.0000   1.0000   1.0000   1.0000   1.0000   1.0000
     1.0000   1.0000   1.0000   1.0000   1.0000   1.0000   1.0000   1.0000
     1.0000   1.0000   1.0000   1.0000   1.0000   1.0000   1.0000   1.0000
     1.0000   1.0000   1.0000   1.0000   1.0000   1.0000   1.0000   1.0000
     1.0000   1.0000   1.0000   1.0000   1.0000   1.0000   1.0000   1.0000
     1.0000   1.0000   1.0000   1.0000   1.0000   1.0000   1.0000   1.0000
     1.0000   1.0000   1.0000   1.0000   1.0000   1.0000   1.0000   1.0000
     1.0000   1.0000   1.0000   1.0000   1.0000   1.0000   1.0000   1.0000
     1.0000   1.0000   0.5000  -0.0000  -0.0000  -0.0000  -0.0000  -0.0000
    -0.0000  -0.0000  -0.0000  -0.0000  -0.0000  -0.0000  -0.0000  -0.0000
    -0.0000  -0.0000  -0.0000  -0.0000  -0.0000  -0.0000  -0.0000  -0.0000
    -0.0000  -0.0000

     the Fermi energy is    14.3383 ev

!    total energy              =   -6246.05483250 Ry
     estimated scf accuracy    <       0.00000043 Ry
     smearing contrib. (-TS)   =      -0.00028209 Ry
     internal energy E=F+TS    =   -6246.05455041 Ry

     The total energy is F=E-TS. E is the sum of the following terms:
     one-electron contribution =   -2673.66566408 Ry
     hartree contribution      =    1366.43690646 Ry
     xc contribution           =    -654.41993744 Ry
     ewald contribution        =   -2320.66103345 Ry
     one-center paw contrib.   =   -1963.74482189 Ry
      -> PAW hartree energy AE =     492.43005834 Ry
      -> PAW hartree energy PS =    -424.10545554 Ry
      -> PAW xc energy AE      =    -599.35996551 Ry
      -> PAW xc energy PS      =      40.06120085 Ry
      -> total E_H with PAW    =    1434.76150926 Ry
      -> total E_XC with PAW   =   -1213.71870210 Ry

     convergence has been achieved in  18 iterations

     Forces acting on atoms (cartesian axes, Ry/au):

     atom    1 type  1   force =     0.00000000    0.00000000    0.04039298
     atom    2 type  1   force =     0.00000000    0.00000000    0.04330167
     atom    3 type  1   force =     0.00000000    0.00000000   -0.00548728
     atom    4 type  1   force =     0.00000000    0.00000000   -0.05450392
     atom    5 type  2   force =     0.00000000    0.00000000    0.09539403
     atom    6 type  2   force =     0.00000000    0.00000000    0.13552624
     atom    7 type  2   force =     0.00000000    0.00000000   -0.13225540
     atom    8 type  2   force =     0.00000000    0.00000000   -0.13292934
     atom    9 type  2   force =     0.00000000    0.00000000   -0.05903230
     atom   10 type  2   force =     0.00000000    0.00000000    0.00473335
     atom   11 type  2   force =     0.00000000    0.00000000   -0.05207288
     atom   12 type  2   force =     0.00000000    0.00000000   -0.00136896
     atom   13 type  3   force =     0.00000000    0.00000000    0.11830182
     The non-local contrib.  to forces
     atom    1 type  1   force =     0.00000000    0.00000000   -0.12619747
     atom    2 type  1   force =     0.00000000    0.00000000   -0.23051107
     atom    3 type  1   force =     0.00000000    0.00000000    0.20121955
     atom    4 type  1   force =     0.00000000    0.00000000    0.22328964
     atom    5 type  2   force =     0.00000000    0.00000000   -0.29513906
     atom    6 type  2   force =     0.00000000    0.00000000   -0.05536633
     atom    7 type  2   force =     0.00000000    0.00000000    0.22089885
     atom    8 type  2   force =     0.00000000    0.00000000   -0.06030755
     atom    9 type  2   force =     0.00000000    0.00000000    0.45858060
     atom   10 type  2   force =     0.00000000    0.00000000   -0.00569481
     atom   11 type  2   force =     0.00000000    0.00000000    0.26099590
     atom   12 type  2   force =     0.00000000    0.00000000   -0.10427829
     atom   13 type  3   force =     0.00000000    0.00000000   -0.04579942
     The ionic contribution  to forces
     atom    1 type  1   force =    -0.00000000    0.00000000  -26.30998431
     atom    2 type  1   force =    -0.00000000    0.00000000   26.32375697
     atom    3 type  1   force =     0.00000000   -0.00000000   20.49328238
     atom    4 type  1   force =     0.00000000    0.00000000  -21.29571660
     atom    5 type  2   force =    -0.00000000    0.00000000   16.57887707
     atom    6 type  2   force =    -0.00000000   -0.00000000  -17.67478034
     atom    7 type  2   force =     0.00000000   -0.00000000   -7.21125918
     atom    8 type  2   force =     0.00000000    0.00000000   18.76924459
     atom    9 type  2   force =    -0.00000000   -0.00000000  -10.80177084
     atom   10 type  2   force =    -0.00000000    0.00000000    2.77263188
     atom   11 type  2   force =     0.00000000    0.00000000  -10.61160683
     atom   12 type  2   force =     0.00000000    0.00000000    1.94460971
     atom   13 type  3   force =    -0.00000000    0.00000000    7.02271549
     The local contribution  to forces
     atom    1 type  1   force =     0.00003861    0.00000746   26.47854033
     atom    2 type  1   force =    -0.00002008   -0.00000842  -26.04821382
     atom    3 type  1   force =    -0.00000336   -0.00000259  -20.70086332
     atom    4 type  1   force =     0.00000173    0.00000297   21.01782092
     atom    5 type  2   force =    -0.00000333   -0.00000314  -16.19564105
     atom    6 type  2   force =     0.00000011   -0.00000353   17.86039605
     atom    7 type  2   force =    -0.00000593   -0.00000399    6.86966069
     atom    8 type  2   force =     0.00000829   -0.00000221  -18.83618337
     atom    9 type  2   force =     0.00000072   -0.00000376   10.28969322
     atom   10 type  2   force =    -0.00000355   -0.00000061   -2.76473326
     atom   11 type  2   force =    -0.00000183    0.00000250   10.29981698
     atom   12 type  2   force =     0.00000252   -0.00000017   -1.84554530
     atom   13 type  3   force =     0.00000549    0.00000177   -6.86028224
     The core correction contribution to forces
     atom    1 type  1   force =     0.00000000    0.00000000    0.00000418
     atom    2 type  1   force =    -0.00000000   -0.00000000   -0.00000068
     atom    3 type  1   force =    -0.00000000   -0.00000000   -0.00000013
     atom    4 type  1   force =     0.00000000    0.00000000    0.00000212
     atom    5 type  2   force =    -0.00000001   -0.00000007    0.00775231
     atom    6 type  2   force =    -0.00000000   -0.00000005    0.00640185
     atom    7 type  2   force =    -0.00000009   -0.00000005   -0.00975144
     atom    8 type  2   force =     0.00000011   -0.00000004   -0.00421821
     atom    9 type  2   force =     0.00000001   -0.00000005   -0.00674987
     atom   10 type  2   force =    -0.00000007   -0.00000006    0.00055428
     atom   11 type  2   force =    -0.00000001    0.00000004   -0.00267315
     atom   12 type  2   force =    -0.00000000    0.00000002    0.00185771
     atom   13 type  3   force =     0.00000000    0.00000000    0.00000000
     The Hubbard contrib.    to forces
     atom    1 type  1   force =     0.00000000    0.00000000    0.00000000
     atom    2 type  1   force =     0.00000000    0.00000000    0.00000000
     atom    3 type  1   force =     0.00000000    0.00000000    0.00000000
     atom    4 type  1   force =     0.00000000    0.00000000    0.00000000
     atom    5 type  2   force =     0.00000000    0.00000000    0.00000000
     atom    6 type  2   force =     0.00000000    0.00000000    0.00000000
     atom    7 type  2   force =     0.00000000    0.00000000    0.00000000
     atom    8 type  2   force =     0.00000000    0.00000000    0.00000000
     atom    9 type  2   force =     0.00000000    0.00000000    0.00000000
     atom   10 type  2   force =     0.00000000    0.00000000    0.00000000
     atom   11 type  2   force =     0.00000000    0.00000000    0.00000000
     atom   12 type  2   force =     0.00000000    0.00000000    0.00000000
     atom   13 type  3   force =     0.00000000    0.00000000    0.00000000
     The SCF correction term to forces
     atom    1 type  1   force =    -0.00004753   -0.00000829   -0.00212640
     atom    2 type  1   force =     0.00002424    0.00000731   -0.00188638
     atom    3 type  1   force =     0.00000313    0.00000464    0.00071760
     atom    4 type  1   force =     0.00000138   -0.00000317   -0.00005665
     atom    5 type  2   force =     0.00000410    0.00000610   -0.00061188
     atom    6 type  2   force =    -0.00000068    0.00000636   -0.00128162
     atom    7 type  2   force =     0.00000878    0.00000425   -0.00196095
     atom    8 type  2   force =    -0.00001186    0.00000444   -0.00162145
     atom    9 type  2   force =    -0.00000066    0.00000612    0.00105795
     atom   10 type  2   force =     0.00000677    0.00000137    0.00181861
     atom   11 type  2   force =     0.00000199   -0.00000475    0.00123756
     atom   12 type  2   force =    -0.00000343   -0.00000155    0.00183057
     atom   13 type  3   force =    -0.00000662   -0.00000159    0.00151135

     Total force =     0.298919     Total SCF correction =     0.005356

     Computing stress (Cartesian axis) and pressure

          total   stress  (Ry/bohr**3)                   (kbar)     P=      -40.87
   0.00037584   0.00000000   0.00000000           55.29        0.00        0.00
   0.00000000   0.00006467   0.00000000            0.00        9.51        0.00
   0.00000000   0.00000000  -0.00127396            0.00        0.00     -187.41

     kinetic stress (kbar)  16869.15      0.00      0.00
                                0.00  16875.94      0.00
                                0.00      0.00  16779.74

     local   stress (kbar)   5677.32     -0.00     -0.00
                               -0.00   5675.89      0.00
                               -0.00      0.00  15284.74

     nonloc. stress (kbar)  12829.31      0.00      0.00
                                0.00  12850.69      0.00
                                0.00      0.00  12792.53

     hartree stress (kbar)  39726.09      0.00      0.00
                                0.00  39846.35     -0.00
                                0.00     -0.00  35127.59

     exc-cor stress (kbar)   8754.70      0.00      0.00
                                0.00   8753.51     -0.00
                                0.00     -0.00   8753.61

     corecor stress (kbar) -20641.89      0.00     -0.00
                                0.00 -20640.42      0.00
                               -0.00      0.00 -20638.94

     ewald   stress (kbar) -63159.40      0.00     -0.00
                                0.00 -63352.45      0.00
                               -0.00      0.00 -68286.68

     hubbard stress (kbar)      0.00      0.00      0.00
                                0.00      0.00      0.00
                                0.00      0.00      0.00

     DFT-D   stress (kbar)      0.00      0.00      0.00
                                0.00      0.00      0.00
                                0.00      0.00      0.00

     XDM     stress (kbar)      0.00      0.00      0.00
                                0.00      0.00      0.00
                                0.00      0.00      0.00

     dft-nl  stress (kbar)      0.00      0.00      0.00
                                0.00      0.00      0.00
                                0.00      0.00      0.00

     TS-vdW  stress (kbar)      0.00      0.00      0.00
                                0.00      0.00      0.00
                                0.00      0.00      0.00

[...]

                                0.00      0.00      0.00

     Writing all to output data dir calculations/myprefix.save/

     General routines

     Parallel routines

     PAW routines

   This run was terminated on:  18:38:51   4Mar2023

   JOB DONE.