     Program PWSCF v.7.0 starts on  3Mar2023 at 11:42:37

     R & G space division:  proc/nbgrp/npool/nimage =      32

     Reading input from espresso_133.pwi
Warning: card &CELL ignored
Warning: card / ignored

     Current dimensions of program PWSCF are:
     Max number of different atomic species (ntypx) = 10
     Max number of k-points (npk) =  40000
     Max angular momentum in pseudopotentials (lmaxx) =  4
     file K.pbe-spn-kjpaw_psl.1.0.0.UPF: wavefunction(s)  3S renormalized
     file Fe.pbe-spn-kjpaw_psl.0.2.1.UPF: wavefunction(s)  3D renormalized

     gamma-point specific algorithms are used
     Message from routine setup:
     using ibrav=0 with symmetry is DISCOURAGED, use correct ibrav instead

     Using Slab Decomposition

     bravais-lattice index     =            0
     lattice parameter (alat)  =      12.5613  a.u.
     unit-cell volume          =    1329.5820 (a.u.)^3
     number of atoms/cell      =            8
     number of atomic types    =            3
     number of electrons       =        74.00
     number of Kohn-Sham states=           44
     kinetic-energy cutoff     =      30.0000  Ry
     charge density cutoff     =     240.0000  Ry
     scf convergence threshold =      1.0E-06
     mixing beta               =       0.7000
     number of iterations used =            8  plain     mixing
     Exchange-correlation=  SLA  PW   PBX  PBC
                           (   1   4   3   4   0   0   0)

     celldm(1)=  12.561305  celldm(2)=   0.000000  celldm(3)=   0.000000
     celldm(4)=   0.000000  celldm(5)=   0.000000  celldm(6)=   0.000000

     crystal axes: (cart. coord. in units of alat)
               a(1) = (   1.000000   0.000000   0.000000 )
               a(2) = (  -0.442038   0.896996   0.000000 )
               a(3) = (   0.161592   0.259781   0.747860 )

     reciprocal axes: (cart. coord. in units 2 pi/alat)
               b(1) = (  1.000000  0.492799 -0.387254 )
               b(2) = (  0.000000  1.114832 -0.387254 )
               b(3) = (  0.000000  0.000000  1.337149 )

     PseudoPot. # 1 for K  read from file:
     /home/pragov/projects/rrg-bengioy-ad/pragov/crystal_structure_design/SSSP/K.pbe-spn-kjpaw_psl.1.0.0.UPF
     MD5 check sum: 7d58810084cac21f60fbe77ea2b688fd
     Pseudo is Projector augmented-wave + core cor, Zval =  9.0
     Generated using "atomic" code by A. Dal Corso  v.5.1
     Shape of augmentation charge: PSQ
     Using radial grid of 1165 points,  6 beta functions with:
                l(1) =   0
                l(2) =   0
                l(3) =   1
                l(4) =   1
                l(5) =   2
                l(6) =   2
     Q(r) pseudized with 0 coefficients

     PseudoPot. # 2 for Fe read from file:
     /home/pragov/projects/rrg-bengioy-ad/pragov/crystal_structure_design/SSSP/Fe.pbe-spn-kjpaw_psl.0.2.1.UPF
     MD5 check sum: e86618425769142926afa95317d90200
     Pseudo is Projector augmented-wave + core cor, Zval = 16.0
     Generated using "atomic" code by A. Dal Corso  v.5.0.99 svn rev. 10869
     Shape of augmentation charge: PSQ
     Using radial grid of 1191 points,  6 beta functions with:
                l(1) =   0
                l(2) =   0
                l(3) =   1
                l(4) =   1
                l(5) =   2
                l(6) =   2
     Q(r) pseudized with 0 coefficients

     PseudoPot. # 3 for S  read from file:
     /home/pragov/projects/rrg-bengioy-ad/pragov/crystal_structure_design/SSSP/s_pbe_v1.4.uspp.F.UPF
     MD5 check sum: 88d86576ff6df21479756cfb9bdac1df
     Pseudo is Ultrasoft + core correction, Zval =  6.0
     Generated by new atomic code, or converted to UPF format
     Using radial grid of  907 points,  6 beta functions with:
                l(1) =   0
                l(2) =   0
                l(3) =   1
                l(4) =   1
                l(5) =   2
                l(6) =   2
     Q(r) pseudized with  8 coefficients,  rinner =    1.300   1.300   1.300
                                                       1.300   1.300

     atomic species   valence    mass     pseudopotential
        K              9.00    39.09830     K ( 1.00)
        Fe            16.00    55.84500     Fe( 1.00)
        S              6.00    32.06000     S ( 1.00)

      2 Sym. Ops., with inversion, found

                                    s                        frac. trans.

      isym =  1     identity

 cryst.   s( 1) = (     1          0          0      )
                  (     0          1          0      )
                  (     0          0          1      )

 cart.    s( 1) = (  1.0000000 -0.0000000 -0.0000000 )
                  (  0.0000000  1.0000000 -0.0000000 )
                  (  0.0000000  0.0000000  1.0000000 )

      isym =  2     inversion

 cryst.   s( 2) = (    -1          0          0      )
                  (     0         -1          0      )
                  (     0          0         -1      )

 cart.    s( 2) = ( -1.0000000  0.0000000  0.0000000 )
                  (  0.0000000 -1.0000000  0.0000000 )
                  (  0.0000000  0.0000000 -1.0000000 )

   Cartesian axes

     site n.     atom                  positions (alat units)
         1           K   tau(   1) = (   0.6047743   0.5160661   0.5608950  )
         2           K   tau(   2) = (   0.1147796   0.6407109   0.1869650  )
         3           Fe  tau(   3) = (   1.0373987   0.0668110   0.1869650  )
         4           Fe  tau(   4) = (  -0.3178447   1.0899660   0.5608950  )
         5           S   tau(   5) = (   0.3244305   0.1803658   0.3012066  )
         6           S   tau(   6) = (   0.6203811   0.6561450   0.0727234  )
         7           S   tau(   7) = (   0.0991728   0.5006320   0.6751365  )
         8           S   tau(   8) = (   0.3951234   0.9764112   0.4466534  )

   Crystallographic axes

     site n.     atom                  positions (cryst. coord.)
         1           K   tau(   1) = (  0.6418820  0.3581180  0.7500000  )
         2           K   tau(   2) = (  0.3581180  0.6418820  0.2500000  )
         3           Fe  tau(   3) = (  0.9979200  0.0020800  0.2500000  )
         4           Fe  tau(   4) = (  0.0020800  0.9979200  0.7500000  )
         5           S   tau(   5) = (  0.2966710  0.0844340  0.4027580  )
         6           S   tau(   6) = (  0.9155660  0.7033290  0.0972420  )
         7           S   tau(   7) = (  0.0844340  0.2966710  0.9027580  )
         8           S   tau(   8) = (  0.7033290  0.9155660  0.5972420  )

     number of k points=     1  Methfessel-Paxton smearing, width (Ry)=  0.0010
                       cart. coord. in units 2pi/alat
        k(    1) = (   0.0000000   0.0000000   0.0000000), wk =   2.0000000

                       cryst. coord.
        k(    1) = (   0.0000000   0.0000000   0.0000000), wk =   2.0000000

     Check: negative core charge=   -0.000072

     Initial potential from superposition of free atoms

     starting charge      73.9613, renormalised to      74.0000
     Starting wfcs are   58 randomized atomic wfcs
     Checking if some PAW data can be deallocated...

     Self-consistent Calculation

     iteration #  1     ecut=    30.00 Ry     beta= 0.70
     Davidson diagonalization with overlap

     ethr =  1.00E-02,  avg # of iterations =  4.0

     Threshold (ethr) on eigenvalues was too large:
     Diagonalizing with lowered threshold

     Davidson diagonalization with overlap

[...]

     total energy              =    -980.48640063 Ry
     estimated scf accuracy    <       0.44811193 Ry

[...]

     total energy              =    -980.67716117 Ry
     estimated scf accuracy    <       0.00000481 Ry

     iteration # 12     ecut=    30.00 Ry     beta= 0.70
     Davidson diagonalization with overlap

     ethr =  6.50E-09,  avg # of iterations =  2.0

     End of self-consistent calculation

          k = 0.0000 0.0000 0.0000 (  1852 PWs)   bands (ev):

   -81.9209 -81.9073 -47.8138 -47.6916 -47.4784 -47.4632 -47.4175 -47.4022
   -24.6933 -24.6820  -8.2560  -8.2389  -8.2173  -8.1952  -8.1662  -8.1569
    -7.7410  -6.7073  -6.6549  -6.6494   0.3586   1.1693   1.6711   1.7048
     1.7929   2.1189   2.2366   2.5050   2.5253   2.6583   3.4413   3.9629
     4.1982   4.3625   4.4176   4.9850   5.0353   5.5911   5.9456   6.7069
     6.8197   6.9485   8.5668  10.2729

     occupation numbers
     1.0000   1.0000   1.0000   1.0000   1.0000   1.0000   1.0000   1.0000
     1.0000   1.0000   1.0000   1.0000   1.0000   1.0000   1.0000   1.0000
     1.0000   1.0000   1.0000   1.0000   1.0000   1.0000   1.0000   1.0000
     1.0000   1.0000   1.0000   1.0000   1.0000   1.0000   1.0000   1.0000
     1.0000   1.0000   1.0000   1.0000   1.0000  -0.0000  -0.0000  -0.0000
    -0.0000  -0.0000  -0.0000  -0.0000

     the Fermi energy is     5.3523 ev

!    total energy              =    -980.67716308 Ry
     estimated scf accuracy    <       0.00000042 Ry
     smearing contrib. (-TS)   =       0.00000000 Ry
     internal energy E=F+TS    =    -980.67716308 Ry

     The total energy is F=E-TS. E is the sum of the following terms:
     one-electron contribution =    -596.66005576 Ry
     hartree contribution      =     321.57143535 Ry
     xc contribution           =    -125.56106455 Ry
     ewald contribution        =    -317.04146991 Ry
     one-center paw contrib.   =    -262.98600821 Ry
      -> PAW hartree energy AE =      37.71193176 Ry
      -> PAW hartree energy PS =     -37.50171357 Ry
      -> PAW xc energy AE      =     -66.21991719 Ry
      -> PAW xc energy PS      =      10.59285545 Ry
      -> total E_H with PAW    =     321.78165354 Ry
      -> total E_XC with PAW   =    -181.18812629 Ry

     convergence has been achieved in  12 iterations

     Forces acting on atoms (cartesian axes, Ry/au):

     atom    1 type  1   force =     0.00155086   -0.00095444    0.00000215
     atom    2 type  1   force =    -0.00155086    0.00095444   -0.00000215
     atom    3 type  2   force =    -0.00148377    0.00093972    0.00001575
     atom    4 type  2   force =     0.00148377   -0.00093972   -0.00001575
     atom    5 type  3   force =     0.00897220   -0.00731119    0.00315011
     atom    6 type  3   force =     0.01053007   -0.00484105   -0.00314042
     atom    7 type  3   force =    -0.01053007    0.00484105    0.00314042
     atom    8 type  3   force =    -0.00897220    0.00731119   -0.00315011
     The non-local contrib.  to forces
     atom    1 type  1   force =    -0.00936872    0.00584694   -0.00000416
     atom    2 type  1   force =     0.00936872   -0.00584694    0.00000416
     atom    3 type  2   force =     0.03673563   -0.02285891    0.00002315
     atom    4 type  2   force =    -0.03673563    0.02285891   -0.00002315
     atom    5 type  3   force =    -0.08941627   -0.00562970    0.02455418
     atom    6 type  3   force =    -0.03448398    0.08272414   -0.02456650
     atom    7 type  3   force =     0.03448398   -0.08272414    0.02456650
     atom    8 type  3   force =     0.08941627    0.00562970   -0.02455418
     The ionic contribution  to forces
     atom    1 type  1   force =     1.63497300   -1.01700784   -0.00000000
     atom    2 type  1   force =    -1.63497300    1.01700784   -0.00000000
     atom    3 type  2   force =    -0.98601360    0.61333341    0.00000000
     atom    4 type  2   force =     0.98601359   -0.61333341   -0.00000000
     atom    5 type  3   force =    14.09311095    2.41295249   -3.80520292
     atom    6 type  3   force =     4.06528790  -13.70808339    3.80520292
     atom    7 type  3   force =    -4.06528790   13.70808339   -3.80520292
     atom    8 type  3   force =   -14.09311095   -2.41295249    3.80520292
     The local contribution  to forces
     atom    1 type  1   force =    -1.62428696    1.01047918    0.00001259
     atom    2 type  1   force =     1.62430335   -1.01049474    0.00004062
     atom    3 type  2   force =     0.94963254   -0.59091354   -0.00019409
     atom    4 type  2   force =    -0.94984997    0.59090130    0.00025284
     atom    5 type  3   force =   -13.99807879   -2.41450584    3.78479808
     atom    6 type  3   force =    -4.02184172   13.62337439   -3.78475812
     atom    7 type  3   force =     4.02181097  -13.62347011    3.78435811
     atom    8 type  3   force =    13.99821340    2.41452074   -3.78442097
     The core correction contribution to forces
     atom    1 type  1   force =     0.00022687   -0.00014256    0.00000059
     atom    2 type  1   force =    -0.00022848    0.00014154    0.00000023
     atom    3 type  2   force =    -0.00200521    0.00125202   -0.00000258
     atom    4 type  2   force =     0.00206152   -0.00127849   -0.00000193
     atom    5 type  3   force =     0.00361389    0.00001850   -0.00089016
     atom    6 type  3   force =     0.00158193   -0.00325253    0.00089078
     atom    7 type  3   force =    -0.00158196    0.00324543   -0.00091242
     atom    8 type  3   force =    -0.00360844   -0.00001558    0.00091111
     The Hubbard contrib.    to forces
     atom    1 type  1   force =     0.00000000    0.00000000    0.00000000
     atom    2 type  1   force =     0.00000000    0.00000000    0.00000000
     atom    3 type  2   force =     0.00000000    0.00000000    0.00000000
     atom    4 type  2   force =     0.00000000    0.00000000    0.00000000
     atom    5 type  3   force =     0.00000000    0.00000000    0.00000000
     atom    6 type  3   force =     0.00000000    0.00000000    0.00000000
     atom    7 type  3   force =     0.00000000    0.00000000    0.00000000
     atom    8 type  3   force =     0.00000000    0.00000000    0.00000000
     The SCF correction term to forces
     atom    1 type  1   force =    -0.00000360   -0.00014907    0.00000266
     atom    2 type  1   force =    -0.00003174    0.00012784   -0.00003763
     atom    3 type  2   force =     0.00026463    0.00016391    0.00014928
     atom    4 type  2   force =     0.00009201   -0.00005087   -0.00028350
     atom    5 type  3   force =    -0.00023747   -0.00018671   -0.00012833
     atom    6 type  3   force =     0.00004096    0.00039748    0.00010380
     atom    7 type  3   force =     0.00009988   -0.00029235    0.00034443
     atom    8 type  3   force =     0.00013761    0.00008876   -0.00030824

     Total force =     0.024268     Total SCF correction =     0.000930

     Computing stress (Cartesian axis) and pressure

          total   stress  (Ry/bohr**3)                   (kbar)     P=     -162.83
  -0.00115692  -0.00000225   0.00006523         -170.19       -0.33        9.59
  -0.00000225  -0.00115911   0.00010489           -0.33     -170.51       15.43
   0.00006523   0.00010489  -0.00100460            9.59       15.43     -147.78

     kinetic stress (kbar)  12902.54     -9.44     -5.94
                               -9.44  12893.21     -9.55
                               -5.94     -9.55  12799.76

     local   stress (kbar)   4578.85  -5137.64  -5832.16
                            -5137.64   -485.10  -9375.84
                            -5832.16  -9375.84 -25614.41

     nonloc. stress (kbar)  -2313.43     -3.72      1.80
                               -3.72  -2317.09      2.90
                                1.80      2.90  -2304.35

     hartree stress (kbar)   6626.17   2278.45   2605.44
                             2278.45   8872.13   4188.47
                             2605.44   4188.47  20080.40

     exc-cor stress (kbar)    539.70      0.67      1.16
                                0.67    540.35      1.86
                                1.16      1.86    543.96

     corecor stress (kbar)  -4254.46      1.16      1.23
                                1.16  -4253.31      1.98
                                1.23      1.98  -4245.89

     ewald   stress (kbar) -18249.56   2870.20   3238.07
                             2870.20 -15420.70   5205.62
                             3238.07   5205.62  -1407.25

     hubbard stress (kbar)      0.00      0.00      0.00
                                0.00      0.00      0.00
                                0.00      0.00      0.00

     DFT-D   stress (kbar)      0.00      0.00      0.00
                                0.00      0.00      0.00
                                0.00      0.00      0.00

     XDM     stress (kbar)      0.00      0.00      0.00
                                0.00      0.00      0.00
                                0.00      0.00      0.00

     dft-nl  stress (kbar)      0.00      0.00      0.00
                                0.00      0.00      0.00
                                0.00      0.00      0.00

     TS-vdW  stress (kbar)      0.00      0.00      0.00
                                0.00      0.00      0.00
                                0.00      0.00      0.00

[...]

                                0.00      0.00      0.00

     Writing all to output data dir calculations/myprefix.save/

     General routines

     Parallel routines

     PAW routines

   This run was terminated on:  11:42:41   3Mar2023

   JOB DONE.