     Program PWSCF v.7.0 starts on  6Mar2023 at 14:27:49

     R & G space division:  proc/nbgrp/npool/nimage =      32

     Reading input from espresso_4927.pwi
Warning: card &CELL ignored
Warning: card / ignored

     Current dimensions of program PWSCF are:
     Max number of different atomic species (ntypx) = 10
     Max number of k-points (npk) =  40000
     Max angular momentum in pseudopotentials (lmaxx) =  4

     gamma-point specific algorithms are used
     Message from routine setup:
     using ibrav=0 with symmetry is DISCOURAGED, use correct ibrav instead

     Using Slab Decomposition

     bravais-lattice index     =            0
     lattice parameter (alat)  =      14.3952  a.u.
     unit-cell volume          =    1660.1610 (a.u.)^3
     number of atoms/cell      =           12
     number of atomic types    =            3
     number of electrons       =       112.00
     number of Kohn-Sham states=           67
     kinetic-energy cutoff     =      30.0000  Ry
     charge density cutoff     =     240.0000  Ry
     scf convergence threshold =      1.0E-06
     mixing beta               =       0.7000
     number of iterations used =            8  plain     mixing
     Exchange-correlation=  SLA  PW   PBX  PBC
                           (   1   4   3   4   0   0   0)

     celldm(1)=  14.395229  celldm(2)=   0.000000  celldm(3)=   0.000000
     celldm(4)=   0.000000  celldm(5)=   0.000000  celldm(6)=   0.000000

     crystal axes: (cart. coord. in units of alat)
               a(1) = (   1.000000   0.000000   0.000000 )
               a(2) = (   0.313170   0.949697   0.000000 )
               a(3) = (  -0.656585  -0.474848   0.586016 )

     reciprocal axes: (cart. coord. in units 2 pi/alat)
               b(1) = (  1.000000 -0.329758  0.853219 )
               b(2) = (  0.000000  1.052967  0.853219 )
               b(3) = (  0.000000  0.000000  1.706438 )

     PseudoPot. # 1 for Cs read from file:
     /home/pragov/projects/rrg-bengioy-ad/pragov/crystal_structure_design/SSSP/Cs_pbe_v1.uspp.F.UPF
     MD5 check sum: 3476d69cb178dfad3ffaa59df4e07ca4
     Pseudo is Ultrasoft + core correction, Zval =  9.0
     Generated by new atomic code, or converted to UPF format
     Using radial grid of  905 points,  6 beta functions with:
                l(1) =   0
                l(2) =   0
                l(3) =   1
                l(4) =   1
                l(5) =   2
                l(6) =   2
     Q(r) pseudized with  6 coefficients,  rinner =    1.500   1.500   1.500
                                                       1.500   1.500

     PseudoPot. # 2 for Cu read from file:
     /home/pragov/projects/rrg-bengioy-ad/pragov/crystal_structure_design/SSSP/Cu_pbe_v1.2.uspp.F.UPF
     MD5 check sum: 6e991ff952a84172a2a52a1c1e996048
     Pseudo is Ultrasoft + core correction, Zval = 19.0
     Generated by new atomic code, or converted to UPF format
     Using radial grid of  867 points,  6 beta functions with:
                l(1) =   0
                l(2) =   0
                l(3) =   1
                l(4) =   1
                l(5) =   2
                l(6) =   2
     Q(r) pseudized with  8 coefficients,  rinner =    1.150   1.150   1.150
                                                       1.150   1.150

     PseudoPot. # 3 for F  read from file:
     /home/pragov/projects/rrg-bengioy-ad/pragov/crystal_structure_design/SSSP/f_pbe_v1.4.uspp.F.UPF
     MD5 check sum: 4c38b6a325caf53ec0e86aed9459de46
     Pseudo is Ultrasoft, Zval =  7.0
     Generated by new atomic code, or converted to UPF format
     Using radial grid of  799 points,  4 beta functions with:
                l(1) =   0
                l(2) =   0
                l(3) =   1
                l(4) =   1
     Q(r) pseudized with  8 coefficients,  rinner =    0.950   0.950   0.950

     atomic species   valence    mass     pseudopotential
        Cs             9.00   132.90545     Cs( 1.00)
        Cu            19.00    63.54600     Cu( 1.00)
        F              7.00    18.99840     F ( 1.00)

      4 Sym. Ops., with inversion, found ( 2 have fractional translation)

                                    s                        frac. trans.

      isym =  1     identity

 cryst.   s( 1) = (     1          0          0      )
                  (     0          1          0      )
                  (     0          0          1      )

 cart.    s( 1) = (  1.0000000  0.0000000 -0.0000000 )
                  (  0.0000000  1.0000000 -0.0000000 )
                  (  0.0000000  0.0000000  1.0000000 )

      isym =  2     180 deg rotation - cart. axis [0,0,1]

 cryst.   s( 2) = (    -1          0          0      )    f =( -0.5000000 )
                  (     0         -1          0      )       ( -0.5000000 )
                  (     1          1          1      )       (  0.0000000 )

 cart.    s( 2) = ( -1.0000000 -0.0000000 -0.0000000 )    f =( -0.6565852 )
                  (  0.0000000 -1.0000000 -0.0000000 )       ( -0.4748485 )
                  (  0.0000000  0.0000000  1.0000000 )       (  0.0000000 )

      isym =  3     inversion

 cryst.   s( 3) = (    -1          0          0      )
                  (     0         -1          0      )
                  (     0          0         -1      )

 cart.    s( 3) = ( -1.0000000 -0.0000000  0.0000000 )
                  (  0.0000000 -1.0000000  0.0000000 )
                  (  0.0000000  0.0000000 -1.0000000 )

      isym =  4     inv. 180 deg rotation - cart. axis [0,0,1]

 cryst.   s( 4) = (     1          0          0      )    f =(  0.5000000 )
                  (     0          1          0      )       ( -0.5000000 )
                  (    -1         -1         -1      )       (  0.0000000 )

 cart.    s( 4) = (  1.0000000  0.0000000  0.0000000 )    f =(  0.3434148 )
                  (  0.0000000  1.0000000  0.0000000 )       ( -0.4748485 )
                  (  0.0000000  0.0000000 -1.0000000 )       (  0.0000000 )

   Cartesian axes

     site n.     atom                  positions (alat units)
         1           Cs  tau(   1) = (   0.9848778   0.7122727   0.0000000  )
         2           Cs  tau(   2) = (   0.3282926   0.2374242   0.0000000  )
         3           Cu  tau(   3) = (  -0.1717074   0.2374242   0.2930080  )
         4           Cu  tau(   4) = (   0.1717074  -0.2374242   0.2930080  )
         5           F   tau(   5) = (  -0.0384803   0.3337753   0.4587808  )
         6           F   tau(   6) = (   0.7152501   0.6742972   0.2930080  )
         7           F   tau(   7) = (   0.2077879  -0.0067476   0.2930080  )
         8           F   tau(   8) = (  -0.0586649  -0.1994487   0.2930080  )
         9           F   tau(   9) = (   0.4487973   0.4815961   0.2930080  )
        10           F   tau(  10) = (  -0.3049331   0.1410742   0.4587808  )
        11           F   tau(  11) = (   0.6950656   0.1410732   0.1272352  )
        12           F   tau(  12) = (   0.9615184   0.3337743   0.1272352  )

   Crystallographic axes

     site n.     atom                  positions (cryst. coord.)
         1           Cs  tau(   1) = (  0.7500000  0.7500000  0.0000000  )
         2           Cs  tau(   2) = (  0.2500000  0.2500000  0.0000000  )
         3           Cu  tau(   3) = ( -0.0000000  0.5000000  0.5000000  )
         4           Cu  tau(   4) = (  0.5000000 -0.0000000  0.5000000  )
         5           F   tau(   5) = (  0.2428950  0.7428950  0.7828810  )
         6           F   tau(   6) = (  0.7428950  0.9600130  0.5000000  )
         7           F   tau(   7) = (  0.4600130  0.2428950  0.5000000  )
         8           F   tau(   8) = (  0.2571050  0.0399870  0.5000000  )
         9           F   tau(   9) = (  0.5399870  0.7571050  0.5000000  )
        10           F   tau(  10) = (  0.0399870  0.5399870  0.7828810  )
        11           F   tau(  11) = (  0.7571050  0.2571050  0.2171190  )
        12           F   tau(  12) = (  0.9600130  0.4600130  0.2171190  )

     number of k points=     1  Methfessel-Paxton smearing, width (Ry)=  0.0010
                       cart. coord. in units 2pi/alat
        k(    1) = (   0.0000000   0.0000000   0.0000000), wk =   2.0000000

                       cryst. coord.
        k(    1) = (   0.0000000   0.0000000   0.0000000), wk =   2.0000000

     Initial potential from superposition of free atoms

     starting charge     109.9212, renormalised to     112.0000
     Starting wfcs are   84 randomized atomic wfcs

     Self-consistent Calculation

     iteration #  1     ecut=    30.00 Ry     beta= 0.70
     Davidson diagonalization with overlap

     ethr =  1.00E-02,  avg # of iterations =  3.0

     Threshold (ethr) on eigenvalues was too large:
     Diagonalizing with lowered threshold

     Davidson diagonalization with overlap

[...]

     total energy              =   -1322.44633146 Ry
     estimated scf accuracy    <       0.62658622 Ry

[...]

     c_bands:  2 eigenvalues not converged
     ethr =  6.57E-06,  avg # of iterations = 20.0

[...]

     total energy              =   -1322.69610646 Ry
     estimated scf accuracy    <       0.00000740 Ry

     iteration #  9     ecut=    30.00 Ry     beta= 0.70
     Davidson diagonalization with overlap

     ethr =  6.61E-09,  avg # of iterations =  2.0

     End of self-consistent calculation

          k = 0.0000 0.0000 0.0000 (  2319 PWs)   bands (ev):

  -111.8760-111.8634 -69.5963 -69.5424 -69.5148 -69.4456 -68.4028 -68.2647
   -20.4151 -20.3219 -19.9845 -19.9642 -19.9312 -19.9095 -19.8814 -19.7873
   -16.9362 -16.9180  -4.6512  -4.6392  -4.1805  -4.0326  -3.8858  -3.8492
    -3.8443  -3.7466  -3.4382  -3.4208  -3.2300  -3.1867  -2.3190  -2.2684
    -2.2521  -2.1679  -2.1502  -2.0230  -1.9747  -1.7222  -1.3011  -1.2571
    -0.7390  -0.7038  -0.5432  -0.5290  -0.4498  -0.3802  -0.3228  -0.2291
     0.0496   0.0902   0.1316   0.2927   0.3085   0.3554   0.3884   0.4739
     2.1649   2.2335   6.7103   8.8782   9.0705   9.0805   9.7084   9.7148
    10.5923  11.4765  11.5464

     occupation numbers
     1.0000   1.0000   1.0000   1.0000   1.0000   1.0000   1.0000   1.0000
     1.0000   1.0000   1.0000   1.0000   1.0000   1.0000   1.0000   1.0000
     1.0000   1.0000   1.0000   1.0000   1.0000   1.0000   1.0000   1.0000
     1.0000   1.0000   1.0000   1.0000   1.0000   1.0000   1.0000   1.0000
     1.0000   1.0000   1.0000   1.0000   1.0000   1.0000   1.0000   1.0000
     1.0000   1.0000   1.0000   1.0000   1.0000   1.0000   1.0000   1.0000
     1.0000   1.0000   1.0000   1.0000   1.0000   1.0000   1.0000   1.0000
    -0.0000  -0.0000  -0.0000  -0.0000  -0.0000  -0.0000  -0.0000  -0.0000
    -0.0000  -0.0000  -0.0000

     the Fermi energy is     2.0188 ev

!    total energy              =   -1322.69610757 Ry
     estimated scf accuracy    <       0.00000058 Ry
     smearing contrib. (-TS)   =       0.00000000 Ry
     internal energy E=F+TS    =   -1322.69610757 Ry

     The total energy is F=E-TS. E is the sum of the following terms:
     one-electron contribution =   -1307.82877187 Ry
     hartree contribution      =     695.78916455 Ry
     xc contribution           =    -212.37677662 Ry
     ewald contribution        =    -498.27972363 Ry

     convergence has been achieved in   9 iterations

     Forces acting on atoms (cartesian axes, Ry/au):

     atom    1 type  1   force =     0.00000000    0.00000000   -0.00123159
     atom    2 type  1   force =     0.00000000    0.00000000    0.00123159
     atom    3 type  2   force =     0.00000000    0.00000000    0.00000000
     atom    4 type  2   force =     0.00000000    0.00000000    0.00000000
     atom    5 type  3   force =     0.00645299   -0.00116699   -0.00236496
     atom    6 type  3   force =     0.00729189    0.00266665    0.00000000
     atom    7 type  3   force =     0.00996844   -0.01942381   -0.00000000
     atom    8 type  3   force =    -0.00729189   -0.00266665   -0.00000000
     atom    9 type  3   force =    -0.00996844    0.01942381    0.00000000
     atom   10 type  3   force =    -0.00645299    0.00116699   -0.00236496
     atom   11 type  3   force =    -0.00645299    0.00116699    0.00236496
     atom   12 type  3   force =     0.00645299   -0.00116699    0.00236496
     The non-local contrib.  to forces
     atom    1 type  1   force =     0.00000000    0.00000000    0.00271819
     atom    2 type  1   force =     0.00000000    0.00000000   -0.00271819
     atom    3 type  2   force =     0.00000000    0.00000000   -0.00000000
     atom    4 type  2   force =     0.00000000    0.00000000    0.00000000
     atom    5 type  3   force =    -0.57143228   -0.41746301   -0.76893780
     atom    6 type  3   force =    -1.02483199    0.21264060   -0.00000000
     atom    7 type  3   force =    -0.11076146   -1.06812719   -0.00000000
     atom    8 type  3   force =     1.02483199   -0.21264060    0.00000000
     atom    9 type  3   force =     0.11076146    1.06812719    0.00000000
     atom   10 type  3   force =     0.57143228    0.41746301   -0.76893780
     atom   11 type  3   force =     0.57143228    0.41746301    0.76893780
     atom   12 type  3   force =    -0.57143228   -0.41746301    0.76893780
     The ionic contribution  to forces
     atom    1 type  1   force =     0.00002203   -0.00003047   -0.00000000
     atom    2 type  1   force =    -0.00002203    0.00003047   -0.00000000
     atom    3 type  2   force =    -0.00000000   -0.00000000    0.00000000
     atom    4 type  2   force =     0.00000000   -0.00000000    0.00000000
     atom    5 type  3   force =    14.23205375   10.29275202   13.53637968
     atom    6 type  3   force =    22.16456552   -0.67580503    0.00000499
     atom    7 type  3   force =     6.29947703   21.26126211    0.00000499
     atom    8 type  3   force =   -22.16456553    0.67580503   -0.00000499
     atom    9 type  3   force =    -6.29947703  -21.26126211   -0.00000499
     atom   10 type  3   force =   -14.23214160  -10.29281556   13.53663041
     atom   11 type  3   force =   -14.23205375  -10.29275202  -13.53637968
     atom   12 type  3   force =    14.23214161   10.29281556  -13.53663041
     The local contribution  to forces
     atom    1 type  1   force =    -0.00100934    0.00203387   -0.00370883
     atom    2 type  1   force =     0.00101342   -0.00203999    0.00370869
     atom    3 type  2   force =    -0.00008785   -0.00008270    0.00020238
     atom    4 type  2   force =     0.00000719    0.00009061   -0.00002598
     atom    5 type  3   force =   -13.65781957   -9.86975793  -12.77527330
     atom    6 type  3   force =   -21.13269647    0.46588661   -0.00204807
     atom    7 type  3   force =    -6.17882197  -20.21294350   -0.00153282
     atom    8 type  3   force =    21.13269840   -0.46586370    0.00204150
     atom    9 type  3   force =     6.17882399   20.21293456    0.00152027
     atom   10 type  3   force =    13.65055342    9.88313327  -12.76438792
     atom   11 type  3   force =    13.65780094    9.86973711   12.77530212
     atom   12 type  3   force =   -13.65053896   -9.88312592   12.76439103
     The core correction contribution to forces
     atom    1 type  1   force =    -0.00027660    0.00053528   -0.00017106
     atom    2 type  1   force =     0.00027754   -0.00053700    0.00017151
     atom    3 type  2   force =    -0.00000004   -0.00000003    0.00000011
     atom    4 type  2   force =     0.00000001    0.00000004   -0.00000002
     atom    5 type  3   force =     0.00000000    0.00000000    0.00000000
     atom    6 type  3   force =     0.00000000    0.00000000    0.00000000
     atom    7 type  3   force =     0.00000000    0.00000000    0.00000000
     atom    8 type  3   force =     0.00000000    0.00000000    0.00000000
     atom    9 type  3   force =     0.00000000    0.00000000    0.00000000
     atom   10 type  3   force =     0.00000000    0.00000000    0.00000000
     atom   11 type  3   force =     0.00000000    0.00000000    0.00000000
     atom   12 type  3   force =     0.00000000    0.00000000    0.00000000
     The Hubbard contrib.    to forces
     atom    1 type  1   force =     0.00000000    0.00000000    0.00000000
     atom    2 type  1   force =     0.00000000    0.00000000    0.00000000
     atom    3 type  2   force =     0.00000000    0.00000000    0.00000000
     atom    4 type  2   force =     0.00000000    0.00000000    0.00000000
     atom    5 type  3   force =     0.00000000    0.00000000    0.00000000
     atom    6 type  3   force =     0.00000000    0.00000000    0.00000000
     atom    7 type  3   force =     0.00000000    0.00000000    0.00000000
     atom    8 type  3   force =     0.00000000    0.00000000    0.00000000
     atom    9 type  3   force =     0.00000000    0.00000000    0.00000000
     atom   10 type  3   force =     0.00000000    0.00000000    0.00000000
     atom   11 type  3   force =     0.00000000    0.00000000    0.00000000
     atom   12 type  3   force =     0.00000000    0.00000000    0.00000000
     The SCF correction term to forces
     atom    1 type  1   force =    -0.00009974    0.00011310   -0.00006878
     atom    2 type  1   force =     0.00009853   -0.00012029    0.00007069
     atom    3 type  2   force =     0.00011200    0.00010491   -0.00025512
     atom    4 type  2   force =     0.00000671   -0.00014485    0.00001586
     atom    5 type  3   force =     0.00005757    0.00001001   -0.00002602
     atom    6 type  3   force =     0.00025134   -0.00005951   -0.00004141
     atom    7 type  3   force =     0.00007608    0.00038710   -0.00001359
     atom    8 type  3   force =    -0.00026024    0.00002863    0.00004874
     atom    9 type  3   force =    -0.00007561   -0.00037350    0.00002810
     atom   10 type  3   force =     0.00010900    0.00009148   -0.00018383
     atom   11 type  3   force =    -0.00003819    0.00001578   -0.00001248
     atom   12 type  3   force =    -0.00012349   -0.00009957    0.00017709

     Total force =     0.035655     Total SCF correction =     0.000851

     Computing stress (Cartesian axis) and pressure

          total   stress  (Ry/bohr**3)                   (kbar)     P=     -188.12
  -0.00125671   0.00007698  -0.00000000         -184.87       11.32       -0.00
   0.00007698  -0.00132016  -0.00000000           11.32     -194.20       -0.00
  -0.00000000  -0.00000000  -0.00125956           -0.00       -0.00     -185.29

     kinetic stress (kbar)  14570.11   -151.09      0.00
                             -151.09  14655.94      0.00
                                0.00      0.00  14775.65

     local   stress (kbar) -24073.27  -1938.35     15.61
                            -1938.35 -22742.23      3.84
                               15.61      3.84 -21354.03

     nonloc. stress (kbar)   6906.95    -60.23      0.00
                              -60.23   6926.10      0.00
                                0.00      0.00   6986.54

     hartree stress (kbar)  20712.82    219.75     -6.00
                              219.75  20548.42     -2.55
                               -6.00     -2.55  20391.88

     exc-cor stress (kbar)   -592.13      3.38     -0.05
                                3.38   -594.42      0.08
                               -0.05      0.08   -596.98

     corecor stress (kbar)  -4311.21      0.02      0.83
                                0.02  -4311.82     -1.48
                                0.83     -1.48  -4310.67

     ewald   stress (kbar) -13398.15   1937.85     -0.03
                             1937.85 -14676.19     -0.02
                               -0.03     -0.02 -16077.69

     hubbard stress (kbar)      0.00      0.00      0.00
                                0.00      0.00      0.00
                                0.00      0.00      0.00

     DFT-D   stress (kbar)      0.00      0.00      0.00
                                0.00      0.00      0.00
                                0.00      0.00      0.00

     XDM     stress (kbar)      0.00      0.00      0.00
                                0.00      0.00      0.00
                                0.00      0.00      0.00

     dft-nl  stress (kbar)      0.00      0.00      0.00
                                0.00      0.00      0.00
                                0.00      0.00      0.00

     TS-vdW  stress (kbar)      0.00      0.00      0.00
                                0.00      0.00      0.00
                                0.00      0.00      0.00

[...]

                                0.00      0.00      0.00

     Writing all to output data dir calculations/myprefix.save/

     General routines

     Parallel routines

   This run was terminated on:  14:27:52   6Mar2023

   JOB DONE.