     Program PWSCF v.7.0 starts on  6Mar2023 at 13:32: 5

     R & G space division:  proc/nbgrp/npool/nimage =      32

     Reading input from espresso_4782.pwi
Warning: card &CELL ignored
Warning: card / ignored

     Current dimensions of program PWSCF are:
     Max number of different atomic species (ntypx) = 10
     Max number of k-points (npk) =  40000
     Max angular momentum in pseudopotentials (lmaxx) =  4

     gamma-point specific algorithms are used
     Message from routine setup:
     using ibrav=0 with symmetry is DISCOURAGED, use correct ibrav instead

     Using Slab Decomposition

     bravais-lattice index     =            0
     lattice parameter (alat)  =       8.9009  a.u.
     unit-cell volume          =     705.1746 (a.u.)^3
     number of atoms/cell      =            4
     number of atomic types    =            2
     number of electrons       =        62.00
     number of Kohn-Sham states=           37
     kinetic-energy cutoff     =      30.0000  Ry
     charge density cutoff     =     240.0000  Ry
     scf convergence threshold =      1.0E-06
     mixing beta               =       0.7000
     number of iterations used =            8  plain     mixing
     Exchange-correlation= SLA  PW   PBE  PBE
                           (   1   4   3   4   0   0   0)

     celldm(1)=   8.900865  celldm(2)=   0.000000  celldm(3)=   0.000000
     celldm(4)=   0.000000  celldm(5)=   0.000000  celldm(6)=   0.000000

     crystal axes: (cart. coord. in units of alat)
               a(1) = (   1.000000   0.000000   0.000000 )
               a(2) = (   0.000000   1.000000   0.000000 )
               a(3) = (   0.000000   0.000000   1.000000 )

     reciprocal axes: (cart. coord. in units 2 pi/alat)
               b(1) = (  1.000000  0.000000  0.000000 )
               b(2) = (  0.000000  1.000000  0.000000 )
               b(3) = (  0.000000  0.000000  1.000000 )

     PseudoPot. # 1 for Dy read from file:
     /home/pragov/projects/rrg-bengioy-ad/pragov/crystal_structure_design/SSSP/Dy.GGA-PBE-paw-v1.0.UPF
     MD5 check sum: 733414aae3e3693a823ce0c917a68f08
     Pseudo is Projector augmented-wave + core cor, Zval = 20.0
     Generated using ATOMPAW code
     Shape of augmentation charge: BESSEL
     Using radial grid of 1112 points,  8 beta functions with:
                l(1) =   0
                l(2) =   0
                l(3) =   1
                l(4) =   1
                l(5) =   2
                l(6) =   2
                l(7) =   3
                l(8) =   3
     Q(r) pseudized with 0 coefficients

     PseudoPot. # 2 for Sn read from file:
     /home/pragov/projects/rrg-bengioy-ad/pragov/crystal_structure_design/SSSP/Sn_pbe_v1.uspp.F.UPF
     MD5 check sum: 4cf58ce39ec5d5d420df3dd08604eb00
     Pseudo is Ultrasoft + core correction, Zval = 14.0
     Generated by new atomic code, or converted to UPF format
     Using radial grid of  891 points,  6 beta functions with:
                l(1) =   0
                l(2) =   0
                l(3) =   1
                l(4) =   1
                l(5) =   2
                l(6) =   2
     Q(r) pseudized with  6 coefficients,  rinner =    1.200   1.200   1.200
                                                       1.200   1.200

     atomic species   valence    mass     pseudopotential
        Dy            20.00   162.50000     Dy( 1.00)
        Sn            14.00   118.71000     Sn( 1.00)

     48 Sym. Ops., with inversion, found

                                    s                        frac. trans.

      isym =  1     identity

 cryst.   s( 1) = (     1          0          0      )
                  (     0          1          0      )
                  (     0          0          1      )

 cart.    s( 1) = (  1.0000000  0.0000000  0.0000000 )
                  (  0.0000000  1.0000000  0.0000000 )
                  (  0.0000000  0.0000000  1.0000000 )

      isym =  2     180 deg rotation - cart. axis [0,0,1]

[...]

 cryst.   s( 9) = (     0          0          1      )
                  (     0         -1          0      )
                  (     1          0          0      )

 cart.    s( 9) = (  0.0000000  0.0000000  1.0000000 )
                  (  0.0000000 -1.0000000  0.0000000 )
                  (  1.0000000  0.0000000  0.0000000 )

[...]

 cryst.   s(10) = (     0          0         -1      )
                  (     0         -1          0      )
                  (    -1          0          0      )

 cart.    s(10) = (  0.0000000  0.0000000 -1.0000000 )
                  (  0.0000000 -1.0000000  0.0000000 )
                  ( -1.0000000  0.0000000  0.0000000 )

[...]

      isym = 24     120 deg rotation - cart. axis [-1,-1,1]

[...]

      isym = 25     inversion

[...]

      isym = 26     inv. 180 deg rotation - cart. axis [0,0,1]

[...]

      isym = 48     inv. 120 deg rotation - cart. axis [-1,-1,1]

 cryst.   s(48) = (     0         -1          0      )
                  (     0          0          1      )
                  (     1          0          0      )

 cart.    s(48) = (  0.0000000  0.0000000  1.0000000 )
                  ( -1.0000000  0.0000000  0.0000000 )
                  (  0.0000000  1.0000000  0.0000000 )

   Cartesian axes

     site n.     atom                  positions (alat units)
         1           Dy  tau(   1) = (   0.0000000   0.0000000   0.0000000  )
         2           Sn  tau(   2) = (   0.5000000   0.5000000   0.0000000  )
         3           Sn  tau(   3) = (   0.5000000   0.0000000   0.5000000  )
         4           Sn  tau(   4) = (   0.0000000   0.5000000   0.5000000  )

   Crystallographic axes

     site n.     atom                  positions (cryst. coord.)
         1           Dy  tau(   1) = (  0.0000000  0.0000000  0.0000000  )
         2           Sn  tau(   2) = (  0.5000000  0.5000000  0.0000000  )
         3           Sn  tau(   3) = (  0.5000000  0.0000000  0.5000000  )
         4           Sn  tau(   4) = (  0.0000000  0.5000000  0.5000000  )

     number of k points=     1  Methfessel-Paxton smearing, width (Ry)=  0.0010
                       cart. coord. in units 2pi/alat
        k(    1) = (   0.0000000   0.0000000   0.0000000), wk =   2.0000000

                       cryst. coord.
        k(    1) = (   0.0000000   0.0000000   0.0000000), wk =   2.0000000

     Initial potential from superposition of free atoms

     starting charge      58.9960, renormalised to      62.0000
     Starting wfcs are   59 randomized atomic wfcs
     Checking if some PAW data can be deallocated...

     Self-consistent Calculation

     iteration #  1     ecut=    30.00 Ry     beta= 0.70
     Davidson diagonalization with overlap

     ethr =  1.00E-02,  avg # of iterations =  5.0

     total energy              =   -1200.34121047 Ry
     estimated scf accuracy    <      61.29018420 Ry

[...]

     total energy              =   -1266.52097055 Ry
     estimated scf accuracy    <       0.00000542 Ry

     iteration # 43     ecut=    30.00 Ry     beta= 0.70
     Davidson diagonalization with overlap

     ethr =  8.75E-09,  avg # of iterations =  1.0

     End of self-consistent calculation

          k = 0.0000 0.0000 0.0000 (   968 PWs)   bands (ev):

   -32.0537  -8.6732  -8.6552  -8.6552  -8.6550  -8.5698  -8.5698  -8.5697
    -8.5338  -8.5336  -8.5079  -8.5077  -8.4880  -8.4875  -8.4875  -8.3926
    -8.3926  -8.3923  -8.3758   2.0625   7.6110   7.6111   9.8543   9.8544
     9.8544  13.5152  13.5152  13.5153  13.9836  13.9864  13.9864  13.9864
    14.3535  15.0128  15.0128  15.2582  15.2582

     occupation numbers
     1.0000   1.0000   1.0000   1.0000   1.0000   1.0000   1.0000   1.0000
     1.0000   1.0000   1.0000   1.0000   1.0000   1.0000   1.0000   1.0000
     1.0000   1.0000   1.0000   1.0000   1.0000   1.0000   1.0000   1.0000
     1.0000   1.0000   1.0000   1.0000   0.8526   0.7164   0.7156   0.7155
    -0.0000  -0.0000  -0.0000  -0.0000  -0.0000

     the Fermi energy is    13.9900 ev

!    total energy              =   -1266.52097035 Ry
     estimated scf accuracy    <       0.00000047 Ry
     smearing contrib. (-TS)   =      -0.00080485 Ry
     internal energy E=F+TS    =   -1266.52016551 Ry

     The total energy is F=E-TS. E is the sum of the following terms:
     one-electron contribution =    -316.76350668 Ry
     hartree contribution      =     203.00094068 Ry
     xc contribution           =    -170.89151197 Ry
     ewald contribution        =    -501.85362026 Ry
     one-center paw contrib.   =    -480.01246727 Ry
      -> PAW hartree energy AE =     262.15898432 Ry
      -> PAW hartree energy PS =    -243.61202647 Ry
      -> PAW xc energy AE      =    -525.55468622 Ry
      -> PAW xc energy PS      =      26.99526109 Ry
      -> total E_H with PAW    =     221.54789854 Ry
      -> total E_XC with PAW   =    -669.45093710 Ry

     convergence has been achieved in  43 iterations

     Forces acting on atoms (cartesian axes, Ry/au):

     atom    1 type  1   force =     0.00000000    0.00000000    0.00000000
     atom    2 type  2   force =     0.00000000    0.00000000    0.00000000
     atom    3 type  2   force =     0.00000000    0.00000000    0.00000000
     atom    4 type  2   force =     0.00000000    0.00000000    0.00000000
     The non-local contrib.  to forces
     atom    1 type  1   force =     0.00000000    0.00000000    0.00000000
     atom    2 type  2   force =     0.00000000    0.00000000    0.00000000
     atom    3 type  2   force =     0.00000000    0.00000000    0.00000000
     atom    4 type  2   force =     0.00000000    0.00000000    0.00000000
     The ionic contribution  to forces
     atom    1 type  1   force =    -0.00000000   -0.00000000   -0.00000000
     atom    2 type  2   force =     0.00000000    0.00000000   -0.00000000
     atom    3 type  2   force =     0.00000000   -0.00000000    0.00000000
     atom    4 type  2   force =    -0.00000000    0.00000000    0.00000000
     The local contribution  to forces
     atom    1 type  1   force =     0.00114267    0.00085954    0.00207615
     atom    2 type  2   force =    -0.00010819   -0.00011560    0.00027040
     atom    3 type  2   force =    -0.00018623    0.00006207   -0.00048476
     atom    4 type  2   force =     0.00008890   -0.00015150   -0.00039644
     The core correction contribution to forces
     atom    1 type  1   force =     0.00000002    0.00000002    0.00000003
     atom    2 type  2   force =    -0.00000109   -0.00000152    0.00000267
     atom    3 type  2   force =    -0.00000256    0.00000017   -0.00000784
     atom    4 type  2   force =     0.00000068   -0.00000328   -0.00000634
     The Hubbard contrib.    to forces
     atom    1 type  1   force =     0.00000000    0.00000000    0.00000000
     atom    2 type  2   force =     0.00000000    0.00000000    0.00000000
     atom    3 type  2   force =     0.00000000    0.00000000    0.00000000
     atom    4 type  2   force =     0.00000000    0.00000000    0.00000000
     The SCF correction term to forces
     atom    1 type  1   force =    -0.00105837   -0.00092878   -0.00220932
     atom    2 type  2   force =     0.00010817    0.00009368   -0.00030088
     atom    3 type  2   force =     0.00016437   -0.00006628    0.00051066
     atom    4 type  2   force =    -0.00009156    0.00016678    0.00041747

     Total force =     0.000000     Total SCF correction =     0.002735

     Computing stress (Cartesian axis) and pressure

          total   stress  (Ry/bohr**3)                   (kbar)     P=       62.73
   0.00042642   0.00000000   0.00000000           62.73        0.00        0.00
   0.00000000   0.00042642   0.00000000            0.00       62.73        0.00
   0.00000000   0.00000000   0.00042642            0.00        0.00       62.73

     kinetic stress (kbar)  11927.90      0.00      0.00
                                0.00  11927.90      0.00
                                0.00      0.00  11927.90

     local   stress (kbar)   6698.57      0.31      2.12
                                0.31   6699.59      0.02
                                2.12      0.02   6699.37

     nonloc. stress (kbar)   9366.15      0.00      0.00
                                0.00   9366.15      0.00
                                0.00      0.00   9366.15

     hartree stress (kbar)  14116.12     -0.12     -0.81
                               -0.12  14115.70     -0.01
                               -0.81     -0.01  14115.81

     exc-cor stress (kbar)  10864.64     -0.00     -0.00
                               -0.00  10864.64     -0.00
                               -0.00     -0.00  10864.64

     corecor stress (kbar) -18014.11      0.00     -0.00
                                0.00 -18014.11      0.00
                               -0.00      0.00 -18014.11

     ewald   stress (kbar) -34896.90     -0.00      0.00
                               -0.00 -34896.90     -0.00
                                0.00     -0.00 -34896.90

     hubbard stress (kbar)      0.00      0.00      0.00
                                0.00      0.00      0.00
                                0.00      0.00      0.00

     DFT-D   stress (kbar)      0.00      0.00      0.00
                                0.00      0.00      0.00
                                0.00      0.00      0.00

     XDM     stress (kbar)      0.00      0.00      0.00
                                0.00      0.00      0.00
                                0.00      0.00      0.00

     dft-nl  stress (kbar)      0.00      0.00      0.00
                                0.00      0.00      0.00
                                0.00      0.00      0.00

     TS-vdW  stress (kbar)      0.00      0.00      0.00
                                0.00      0.00      0.00
                                0.00      0.00      0.00

[...]

                                0.00      0.00      0.00

     Writing all to output data dir calculations/myprefix.save/

     General routines

     Parallel routines

     PAW routines

   This run was terminated on:  13:32:18   6Mar2023

   JOB DONE.