     Program PWSCF v.7.0 starts on  3Mar2023 at 16: 3:20

     R & G space division:  proc/nbgrp/npool/nimage =      32

     Reading input from espresso_859.pwi
Warning: card &CELL ignored
Warning: card / ignored

     Current dimensions of program PWSCF are:
     Max number of different atomic species (ntypx) = 10
     Max number of k-points (npk) =  40000
     Max angular momentum in pseudopotentials (lmaxx) =  4
     file In.pbe-dn-rrkjus_psl.0.2.2.UPF: wavefunction(s)  5S renormalized

     gamma-point specific algorithms are used
     Message from routine setup:
     using ibrav=0 with symmetry is DISCOURAGED, use correct ibrav instead

     Using Slab Decomposition

     bravais-lattice index     =            0
     lattice parameter (alat)  =      10.7843  a.u.
     unit-cell volume          =    1264.5962 (a.u.)^3
     number of atoms/cell      =            8
     number of atomic types    =            3
     number of electrons       =       108.00
     number of Kohn-Sham states=           65
     kinetic-energy cutoff     =      30.0000  Ry
     charge density cutoff     =     240.0000  Ry
     scf convergence threshold =      1.0E-06
     mixing beta               =       0.7000
     number of iterations used =            8  plain     mixing
     Exchange-correlation= PBE
                           (   1   4   3   4   0   0   0)

     celldm(1)=  10.784332  celldm(2)=   0.000000  celldm(3)=   0.000000
     celldm(4)=   0.000000  celldm(5)=   0.000000  celldm(6)=   0.000000

     crystal axes: (cart. coord. in units of alat)
               a(1) = (   1.000000   0.000000   0.000000 )
               a(2) = (  -0.687558   0.726129   0.000000 )
               a(3) = (   0.000000   0.000000   1.388540 )

     reciprocal axes: (cart. coord. in units 2 pi/alat)
               b(1) = (  1.000000  0.946882  0.000000 )
               b(2) = (  0.000000  1.377166  0.000000 )
               b(3) = (  0.000000  0.000000  0.720181 )

     PseudoPot. # 1 for Ca read from file:
     /home/pragov/projects/rrg-bengioy-ad/pragov/crystal_structure_design/SSSP/Ca_pbe_v1.uspp.F.UPF
     MD5 check sum: 403a4c14b9e4d4dfdc3024c9a3812218
     Pseudo is Ultrasoft + core correction, Zval = 10.0
     Generated by new atomic code, or converted to UPF format
     Using radial grid of  845 points,  6 beta functions with:
                l(1) =   0
                l(2) =   0
                l(3) =   1
                l(4) =   1
                l(5) =   2
                l(6) =   2
     Q(r) pseudized with  8 coefficients,  rinner =    1.500   1.500   1.500
                                                       1.500   1.500

     PseudoPot. # 2 for In read from file:
     /home/pragov/projects/rrg-bengioy-ad/pragov/crystal_structure_design/SSSP/In.pbe-dn-rrkjus_psl.0.2.2.UPF
     MD5 check sum: 25e7c42c3b55b68f4bf926be2e7201a4
     Pseudo is Ultrasoft + core correction, Zval = 13.0
     Generated using "atomic" code by A. Dal Corso  v.5.0.99 svn rev. 10869
     Using radial grid of 1241 points,  6 beta functions with:
                l(1) =   0
                l(2) =   0
                l(3) =   1
                l(4) =   1
                l(5) =   2
                l(6) =   2
     Q(r) pseudized with 0 coefficients

     PseudoPot. # 3 for Pd read from file:
     /home/pragov/projects/rrg-bengioy-ad/pragov/crystal_structure_design/SSSP/Pd_ONCV_PBE-1.0.oncvpsp.upf
     MD5 check sum: eb77f42b51d86fb18e25f68156a31cf1
     Pseudo is Norm-conserving, Zval = 18.0
     Generated using ONCVPSP code by D. R. Hamann
     Using radial grid of 1410 points,  6 beta functions with:
                l(1) =   0
                l(2) =   0
                l(3) =   1
                l(4) =   1
                l(5) =   2
                l(6) =   2

     atomic species   valence    mass     pseudopotential
        Ca            10.00    40.07800     Ca( 1.00)
        In            13.00   114.81800     In( 1.00)
        Pd            18.00   106.42000     Pd( 1.00)

      4 Sym. Ops., with inversion, found ( 2 have fractional translation)

                                    s                        frac. trans.

      isym =  1     identity

 cryst.   s( 1) = (     1          0          0      )
                  (     0          1          0      )
                  (     0          0          1      )

 cart.    s( 1) = (  1.0000000  0.0000000  0.0000000 )
                  (  0.0000000  1.0000000  0.0000000 )
                  (  0.0000000  0.0000000  1.0000000 )

      isym =  2     180 deg rotation - cart. axis [0,0,1]

 cryst.   s( 2) = (    -1          0          0      )    f =( -0.0000000 )
                  (     0         -1          0      )       ( -0.0000000 )
                  (     0          0          1      )       (  0.5000000 )

 cart.    s( 2) = ( -1.0000000 -0.0000000  0.0000000 )    f =( -0.0000000 )
                  (  0.0000000 -1.0000000  0.0000000 )       ( -0.0000000 )
                  (  0.0000000  0.0000000  1.0000000 )       (  0.6942699 )

      isym =  3     inversion

 cryst.   s( 3) = (    -1          0          0      )
                  (     0         -1          0      )
                  (     0          0         -1      )

 cart.    s( 3) = ( -1.0000000 -0.0000000  0.0000000 )
                  (  0.0000000 -1.0000000  0.0000000 )
                  (  0.0000000  0.0000000 -1.0000000 )

      isym =  4     inv. 180 deg rotation - cart. axis [0,0,1]

 cryst.   s( 4) = (     1          0          0      )    f =(  0.0000000 )
                  (     0          1          0      )       (  0.0000000 )
                  (     0          0         -1      )       (  0.5000000 )

 cart.    s( 4) = (  1.0000000  0.0000000  0.0000000 )    f =(  0.0000000 )
                  (  0.0000000  1.0000000  0.0000000 )       (  0.0000000 )
                  (  0.0000000  0.0000000 -1.0000000 )       (  0.6942699 )

   Cartesian axes

     site n.     atom                  positions (alat units)
         1           Ca  tau(   1) = (   0.8895189   0.0475382   1.0414048  )
         2           Ca  tau(   2) = (  -0.5770773   0.6785909   0.3471349  )
         3           In  tau(   3) = (   0.4002924   0.2580445   1.3146902  )
         4           In  tau(   4) = (  -0.0878508   0.4680846   0.0738495  )
         5           In  tau(   5) = (  -0.0878508   0.4680846   0.6204204  )
         6           In  tau(   6) = (   0.4002924   0.2580445   0.7681194  )
         7           Pd  tau(   7) = (  -0.3197432   0.5678642   1.0414048  )
         8           Pd  tau(   8) = (   0.6321848   0.1582649   0.3471349  )

   Crystallographic axes

     site n.     atom                  positions (cryst. coord.)
         1           Ca  tau(   1) = (  0.9345320  0.0654680  0.7500000  )
         2           Ca  tau(   2) = (  0.0654680  0.9345320  0.2500000  )
         3           In  tau(   3) = (  0.6446300  0.3553700  0.9468150  )
         4           In  tau(   4) = (  0.3553700  0.6446300  0.0531850  )
         5           In  tau(   5) = (  0.3553700  0.6446300  0.4468150  )
         6           In  tau(   6) = (  0.6446300  0.3553700  0.5531850  )
         7           Pd  tau(   7) = (  0.2179570  0.7820430  0.7500000  )
         8           Pd  tau(   8) = (  0.7820430  0.2179570  0.2500000  )

     number of k points=     1  Methfessel-Paxton smearing, width (Ry)=  0.0010
                       cart. coord. in units 2pi/alat
        k(    1) = (   0.0000000   0.0000000   0.0000000), wk =   2.0000000

                       cryst. coord.
        k(    1) = (   0.0000000   0.0000000   0.0000000), wk =   2.0000000

     Initial potential from superposition of free atoms

     starting charge     107.9735, renormalised to     108.0000
     Starting wfcs are   76 randomized atomic wfcs

     Self-consistent Calculation

     iteration #  1     ecut=    30.00 Ry     beta= 0.70
     Davidson diagonalization with overlap

     ethr =  1.00E-02,  avg # of iterations =  2.0

     Threshold (ethr) on eigenvalues was too large:
     Diagonalizing with lowered threshold

     Davidson diagonalization with overlap

[...]

     total energy              =   -1234.62655720 Ry
     estimated scf accuracy    <       0.85672357 Ry

[...]

     c_bands:  1 eigenvalues not converged
     ethr =  4.66E-06,  avg # of iterations = 20.0

[...]

     total energy              =   -1235.11632939 Ry
     estimated scf accuracy    <       0.00000230 Ry

     iteration # 14     ecut=    30.00 Ry     beta= 0.70
     Davidson diagonalization with overlap

     ethr =  2.13E-09,  avg # of iterations =  3.0

     End of self-consistent calculation

          k = 0.0000 0.0000 0.0000 (  1759 PWs)   bands (ev):

   -74.3124 -74.3113 -39.9281 -39.9268 -39.6952 -39.6937 -39.5374 -39.5361
   -30.1072 -30.1049 -11.2274 -11.1912 -11.1455 -11.1416 -11.0548 -11.0535
    -2.8183  -2.8011  -2.7431  -2.7393  -2.6960  -2.6553  -2.6535  -2.6462
    -2.6305  -2.5849  -2.5708  -2.5432  -2.5324  -2.5099  -2.5011  -2.4853
    -2.4452  -2.4270  -2.4166  -2.4010   2.8385   5.0254   5.4636   7.5786
     7.6391   7.7395   7.8103   8.0018   8.1576   8.3139   8.3153   8.3590
     8.6269   9.6599  10.0799  10.9746  10.9988  11.7060  11.7290  12.6503
    12.9025  12.9138  13.1611  13.5205  13.9244  14.2719  14.4567  15.3105
    15.4264

     occupation numbers
     1.0000   1.0000   1.0000   1.0000   1.0000   1.0000   1.0000   1.0000
     1.0000   1.0000   1.0000   1.0000   1.0000   1.0000   1.0000   1.0000
     1.0000   1.0000   1.0000   1.0000   1.0000   1.0000   1.0000   1.0000
     1.0000   1.0000   1.0000   1.0000   1.0000   1.0000   1.0000   1.0000
     1.0000   1.0000   1.0000   1.0000   1.0000   1.0000   1.0000   1.0000
     1.0000   1.0000   1.0000   1.0000   1.0000   1.0000   1.0000   1.0000
     1.0000   1.0000   1.0000   1.0000   1.0000   1.0007  -0.0007  -0.0000
    -0.0000  -0.0000  -0.0000  -0.0000  -0.0000  -0.0000  -0.0000  -0.0000
    -0.0000

     the Fermi energy is    11.7175 ev

!    total energy              =   -1235.11632942 Ry
     estimated scf accuracy    <       0.00000045 Ry
     smearing contrib. (-TS)   =       0.00011816 Ry
     internal energy E=F+TS    =   -1235.11644758 Ry

     The total energy is F=E-TS. E is the sum of the following terms:
     one-electron contribution =    -538.36913236 Ry
     hartree contribution      =     335.76250144 Ry
     xc contribution           =    -264.37902614 Ry
     ewald contribution        =    -768.13079053 Ry

     convergence has been achieved in  14 iterations

     Forces acting on atoms (cartesian axes, Ry/au):

     atom    1 type  1   force =     0.00296587   -0.00127359   -0.00000000
     atom    2 type  1   force =    -0.00296587    0.00127359    0.00000000
     atom    3 type  2   force =    -0.00924373    0.00397768    0.03306574
     atom    4 type  2   force =     0.00924373   -0.00397768   -0.03306574
     atom    5 type  2   force =     0.00924373   -0.00397768    0.03306574
     atom    6 type  2   force =    -0.00924373    0.00397768   -0.03306574
     atom    7 type  3   force =     0.00099261   -0.00042403    0.00000000
     atom    8 type  3   force =    -0.00099261    0.00042403    0.00000000
     The non-local contrib.  to forces
     atom    1 type  1   force =     0.00717567   -0.00308644    0.00000000
     atom    2 type  1   force =    -0.00717567    0.00308644    0.00000000
     atom    3 type  2   force =     0.10782660   -0.04639222   -0.07076183
     atom    4 type  2   force =    -0.10782660    0.04639222    0.07076183
     atom    5 type  2   force =    -0.10782660    0.04639222   -0.07076183
     atom    6 type  2   force =     0.10782660   -0.04639222    0.07076183
     atom    7 type  3   force =    -0.20218346    0.08699443    0.00000000
     atom    8 type  3   force =     0.20218346   -0.08699443    0.00000000
     The ionic contribution  to forces
     atom    1 type  1   force =     2.14776846   -0.92415007    0.00000000
     atom    2 type  1   force =    -2.14776846    0.92415007   -0.00000000
     atom    3 type  2   force =    -8.67811477    3.73405257    2.18050596
     atom    4 type  2   force =     8.67811477   -3.73405257   -2.18050596
     atom    5 type  2   force =     8.67811477   -3.73405257    2.18050595
     atom    6 type  2   force =    -8.67811477    3.73405257   -2.18050596
     atom    7 type  3   force =    -0.92730602    0.39900479    0.00000000
     atom    8 type  3   force =     0.92730602   -0.39900480    0.00000000
     The local contribution  to forces
     atom    1 type  1   force =    -2.15232999    0.92611165   -0.00007439
     atom    2 type  1   force =     2.15215686   -0.92604569    0.00011448
     atom    3 type  2   force =     8.55377911   -3.68054956   -2.07825487
     atom    4 type  2   force =    -8.55370886    3.68050665    2.07632817
     atom    5 type  2   force =    -8.55374525    3.68055813   -2.07643959
     atom    6 type  2   force =     8.55384064   -3.68058202    2.07806423
     atom    7 type  3   force =     1.13063183   -0.48650699   -0.00006228
     atom    8 type  3   force =    -1.13027311    0.48635794    0.00028571
     The core correction contribution to forces
     atom    1 type  1   force =     0.00032973   -0.00014200   -0.00000101
     atom    2 type  1   force =    -0.00033260    0.00014275    0.00000106
     atom    3 type  2   force =     0.00707187   -0.00304265    0.00069250
     atom    4 type  2   force =    -0.00706999    0.00304227   -0.00072518
     atom    5 type  2   force =    -0.00707156    0.00304385    0.00072160
     atom    6 type  2   force =     0.00707328   -0.00304335   -0.00069482
     atom    7 type  3   force =     0.00000000    0.00000000    0.00000000
     atom    8 type  3   force =     0.00000000    0.00000000    0.00000000
     The Hubbard contrib.    to forces
     atom    1 type  1   force =     0.00000000    0.00000000    0.00000000
     atom    2 type  1   force =     0.00000000    0.00000000    0.00000000
     atom    3 type  2   force =     0.00000000    0.00000000    0.00000000
     atom    4 type  2   force =     0.00000000    0.00000000    0.00000000
     atom    5 type  2   force =     0.00000000    0.00000000    0.00000000
     atom    6 type  2   force =     0.00000000    0.00000000    0.00000000
     atom    7 type  3   force =     0.00000000    0.00000000    0.00000000
     atom    8 type  3   force =     0.00000000    0.00000000    0.00000000
     The SCF correction term to forces
     atom    1 type  1   force =     0.00000463   -0.00000195    0.00006762
     atom    2 type  1   force =     0.00013665   -0.00005522   -0.00010352
     atom    3 type  2   force =     0.00020858   -0.00008857    0.00084959
     atom    4 type  2   force =    -0.00028741    0.00015032    0.00101385
     atom    5 type  2   force =    -0.00019808    0.00007477   -0.00097586
     atom    6 type  2   force =     0.00012316   -0.00004854   -0.00067930
     atom    7 type  3   force =    -0.00014572    0.00008551    0.00008015
     atom    8 type  3   force =    -0.00020495    0.00006708   -0.00025637

     Total force =     0.069294     Total SCF correction =     0.001889

     Computing stress (Cartesian axis) and pressure

          total   stress  (Ry/bohr**3)                   (kbar)     P=     -206.27
  -0.00042727  -0.00080791   0.00000000          -62.85     -118.85        0.00
  -0.00080791  -0.00195723   0.00000000         -118.85     -287.92        0.00
   0.00000000   0.00000000  -0.00182215            0.00        0.00     -268.05

     kinetic stress (kbar)  25558.83   -295.46      0.00
                             -295.46  24999.30      0.00
                                0.00      0.00  25079.18

     local   stress (kbar)   1968.99  -6861.89      0.01
                            -6861.89 -11025.81     -0.00
                                0.01     -0.00 -14164.30

     nonloc. stress (kbar)   5341.33     -7.95      0.00
                               -7.95   5326.27      0.00
                                0.00      0.00   5281.66

     hartree stress (kbar)   8640.84   3119.37     -0.01
                             3119.37  14548.19      0.00
                               -0.01      0.00  15868.79

     exc-cor stress (kbar)   7780.97     -0.78     -0.00
                               -0.78   7779.50      0.00
                               -0.00      0.00   7778.16

     corecor stress (kbar) -14012.56      3.14      0.00
                                3.14 -14006.60     -0.00
                                0.00     -0.00 -14008.19

     ewald   stress (kbar) -35341.25   3924.72     -0.00
                             3924.72 -27908.76      0.00
                               -0.00      0.00 -26103.36

     hubbard stress (kbar)      0.00      0.00      0.00
                                0.00      0.00      0.00
                                0.00      0.00      0.00

     DFT-D   stress (kbar)      0.00      0.00      0.00
                                0.00      0.00      0.00
                                0.00      0.00      0.00

     XDM     stress (kbar)      0.00      0.00      0.00
                                0.00      0.00      0.00
                                0.00      0.00      0.00

     dft-nl  stress (kbar)      0.00      0.00      0.00
                                0.00      0.00      0.00
                                0.00      0.00      0.00

     TS-vdW  stress (kbar)      0.00      0.00      0.00
                                0.00      0.00      0.00
                                0.00      0.00      0.00

[...]

                                0.00      0.00      0.00

     Writing all to output data dir calculations/myprefix.save/

     General routines

     Parallel routines

   This run was terminated on:  16: 3:22   3Mar2023

   JOB DONE.