     Program PWSCF v.7.0 starts on  6Mar2023 at  9:49:11

     R & G space division:  proc/nbgrp/npool/nimage =      32

     Reading input from espresso_4188.pwi
Warning: card &CELL ignored
Warning: card / ignored

     Current dimensions of program PWSCF are:
     Max number of different atomic species (ntypx) = 10
     Max number of k-points (npk) =  40000
     Max angular momentum in pseudopotentials (lmaxx) =  4
     file Pb.pbe-dn-kjpaw_psl.0.2.2.UPF: wavefunction(s)  6S renormalized
     file O.pbe-n-kjpaw_psl.0.1.UPF: wavefunction(s)  2P renormalized

     gamma-point specific algorithms are used

     Using Slab Decomposition

     bravais-lattice index     =            0
     lattice parameter (alat)  =      13.7160  a.u.
     unit-cell volume          =    1239.5196 (a.u.)^3
     number of atoms/cell      =           13
     number of atomic types    =            4
     number of electrons       =       108.00
     number of Kohn-Sham states=           65
     kinetic-energy cutoff     =      30.0000  Ry
     charge density cutoff     =     240.0000  Ry
     scf convergence threshold =      1.0E-06
     mixing beta               =       0.7000
     number of iterations used =            8  plain     mixing
     Exchange-correlation= SLA  PW   PBX  PBC
                           (   1   4   3   4   0   0   0)

     celldm(1)=  13.716050  celldm(2)=   0.000000  celldm(3)=   0.000000
     celldm(4)=   0.000000  celldm(5)=   0.000000  celldm(6)=   0.000000

     crystal axes: (cart. coord. in units of alat)
               a(1) = (   1.000000   0.000000   0.000000 )
               a(2) = (   0.688423   0.725310   0.000000 )
               a(3) = (   0.688423   0.295731   0.662282 )

     reciprocal axes: (cart. coord. in units 2 pi/alat)
               b(1) = (  1.000000 -0.949143 -0.615646 )
               b(2) = (  0.000000  1.378721 -0.615646 )
               b(3) = (  0.000000  0.000000  1.509931 )

     PseudoPot. # 1 for Ca read from file:
     /home/pragov/projects/rrg-bengioy-ad/pragov/crystal_structure_design/SSSP/Ca_pbe_v1.uspp.F.UPF
     MD5 check sum: 403a4c14b9e4d4dfdc3024c9a3812218
     Pseudo is Ultrasoft + core correction, Zval = 10.0
     Generated by new atomic code, or converted to UPF format
     Using radial grid of  845 points,  6 beta functions with:
                l(1) =   0
                l(2) =   0
                l(3) =   1
                l(4) =   1
                l(5) =   2
                l(6) =   2
     Q(r) pseudized with  8 coefficients,  rinner =    1.500   1.500   1.500
                                                       1.500   1.500

     PseudoPot. # 2 for V  read from file:
     /home/pragov/projects/rrg-bengioy-ad/pragov/crystal_structure_design/SSSP/v_pbe_v1.4.uspp.F.UPF
     MD5 check sum: 22b79981416ebb76fdaf5b1b8640f6fb
     Pseudo is Ultrasoft + core correction, Zval = 13.0
     Generated by new atomic code, or converted to UPF format
     Using radial grid of  853 points,  6 beta functions with:
                l(1) =   0
                l(2) =   0
                l(3) =   1
                l(4) =   1
                l(5) =   2
                l(6) =   2
     Q(r) pseudized with  8 coefficients,  rinner =    1.100   1.100   1.100
                                                       1.100   1.100

     PseudoPot. # 3 for Pb read from file:
     /home/pragov/projects/rrg-bengioy-ad/pragov/crystal_structure_design/SSSP/Pb.pbe-dn-kjpaw_psl.0.2.2.UPF
     MD5 check sum: 9d431e6316058b74ade52399a6cf67da
     Pseudo is Projector augmented-wave + core cor, Zval = 14.0
     Generated using "atomic" code by A. Dal Corso  v.5.0.99 svn rev. 10869
     Shape of augmentation charge: PSQ
     Using radial grid of 1281 points,  6 beta functions with:
                l(1) =   0
                l(2) =   0
                l(3) =   1
                l(4) =   1
                l(5) =   2
                l(6) =   2
     Q(r) pseudized with 0 coefficients

     PseudoPot. # 4 for O  read from file:
     /home/pragov/projects/rrg-bengioy-ad/pragov/crystal_structure_design/SSSP/O.pbe-n-kjpaw_psl.0.1.UPF
     MD5 check sum: 0234752ac141de4415c5fc33072bef88
     Pseudo is Projector augmented-wave + core cor, Zval =  6.0
     Generated using "atomic" code by A. Dal Corso  v.5.0.99 svn rev. 10869
     Shape of augmentation charge: BESSEL
     Using radial grid of 1095 points,  4 beta functions with:
                l(1) =   0
                l(2) =   0
                l(3) =   1
                l(4) =   1
     Q(r) pseudized with 0 coefficients

     atomic species   valence    mass     pseudopotential
        Ca            10.00    40.07800     Ca( 1.00)
        V             13.00    50.94150     V ( 1.00)
        Pb            14.00   207.20000     Pb( 1.00)
        O              6.00    15.99900     O ( 1.00)

     No symmetry found

                                    s                        frac. trans.

      isym =  1     identity

 cryst.   s( 1) = (     1          0          0      )
                  (     0          1          0      )
                  (     0          0          1      )

 cart.    s( 1) = (  1.0000000  0.0000000 -0.0000000 )
                  (  0.0000000  1.0000000 -0.0000000 )
                  (  0.0000000  0.0000000  1.0000000 )

   Cartesian axes

     site n.     atom                  positions (alat units)
         1           Ca  tau(   1) = (   0.4629976   0.1988937   0.1290092  )
         2           Ca  tau(   2) = (   2.3764413   1.0208676   0.6621691  )
         3           V   tau(   3) = (   1.4171916   0.6087948   0.3948848  )
         4           V   tau(   4) = (   0.9555821   0.4104973   0.2662624  )
         5           Pb  tau(   5) = (   1.9126569   0.8216359   0.5329408  )
         6           O   tau(   6) = (   0.9749783   0.6346389   0.1753007  )
         7           O   tau(   7) = (   0.9749783   0.4188295   0.5080145  )
         8           O   tau(   8) = (   1.1315069   0.2702614   0.1753007  )
         9           O   tau(   9) = (   1.4064568   0.3866401   0.4890341  )
        10           O   tau(  10) = (   1.4064568   0.6041833   0.1536474  )
        11           O   tau(  11) = (   1.2486706   0.7539450   0.4890341  )
        12           O   tau(  12) = (   1.6251941   0.6981481   0.4528424  )
        13           O   tau(  13) = (   0.7448106   0.3199545   0.2075333  )

   Crystallographic axes

     site n.     atom                  positions (cryst. coord.)
         1           Ca  tau(   1) = (  0.1947950  0.1947950  0.1947950  )
         2           Ca  tau(   2) = (  0.9998300  0.9998300  0.9998300  )
         3           V   tau(   3) = (  0.5962490  0.5962490  0.5962490  )
         4           V   tau(   4) = (  0.4020380  0.4020380  0.4020380  )
         5           Pb  tau(   5) = (  0.8047040  0.8047040  0.8047040  )
         6           O   tau(   6) = (  0.2646920  0.7670670  0.2646920  )
         7           O   tau(   7) = (  0.2646920  0.2646920  0.7670670  )
         8           O   tau(   8) = (  0.7670670  0.2646920  0.2646920  )
         9           O   tau(   9) = (  0.7384080  0.2319970  0.7384080  )
        10           O   tau(  10) = (  0.7384080  0.7384080  0.2319970  )
        11           O   tau(  11) = (  0.2319970  0.7384080  0.7384080  )
        12           O   tau(  12) = (  0.6837610  0.6837610  0.6837610  )
        13           O   tau(  13) = (  0.3133610  0.3133610  0.3133610  )

     number of k points=     1  Methfessel-Paxton smearing, width (Ry)=  0.0010
                       cart. coord. in units 2pi/alat
        k(    1) = (   0.0000000   0.0000000   0.0000000), wk =   2.0000000

                       cryst. coord.
        k(    1) = (   0.0000000   0.0000000   0.0000000), wk =   2.0000000

     Check: negative core charge=   -0.000013

     Initial potential from superposition of free atoms

     starting charge     107.9843, renormalised to     108.0000

     negative rho (up, down):  1.364E-03 0.000E+00
     Starting wfcs are   81 randomized atomic wfcs
     Checking if some PAW data can be deallocated...

     Self-consistent Calculation

     iteration #  1     ecut=    30.00 Ry     beta= 0.70
     Davidson diagonalization with overlap

     ethr =  1.00E-02,  avg # of iterations =  2.0

     negative rho (up, down):  3.989E-03 0.000E+00

     total energy              =   -1641.46504596 Ry
     estimated scf accuracy    <       5.18817337 Ry

[...]

     total energy              =   -1644.60125568 Ry
     estimated scf accuracy    <       0.00000431 Ry

     iteration # 13     ecut=    30.00 Ry     beta= 0.70
     Davidson diagonalization with overlap

     ethr =  3.99E-09,  avg # of iterations =  2.0

[...]

     End of self-consistent calculation

          k = 0.0000 0.0000 0.0000 (  1712 PWs)   bands (ev):

   -57.2837 -57.0855 -32.3856 -32.0118 -31.2369 -31.1797 -31.1796 -31.1489
   -30.9453 -30.9452 -13.4474 -13.4474 -13.4321 -13.0807 -13.0807 -12.9980
   -10.3410  -9.7990  -9.5513  -9.5513  -9.4551  -9.4249  -9.4248  -9.2974
    -8.2496  -8.2495  -8.0656  -8.0656  -7.9645   0.2261   2.9101   3.0672
     3.0672   3.2462   3.3864   3.5703   3.5704   3.9227   3.9227   4.0505
     4.1154   4.1154   4.3758   4.3758   5.2173   5.2391   5.2391   5.8629
     5.8629   6.0866   6.0952   6.0952   6.3093   6.4261   9.7261   9.7261
    10.1380  10.1380  10.6927  11.3924  11.4166  11.4166  11.7338  11.7339
    11.9540

     occupation numbers
     1.0000   1.0000   1.0000   1.0000   1.0000   1.0000   1.0000   1.0000
     1.0000   1.0000   1.0000   1.0000   1.0000   1.0000   1.0000   1.0000
     1.0000   1.0000   1.0000   1.0000   1.0000   1.0000   1.0000   1.0000
     1.0000   1.0000   1.0000   1.0000   1.0000   1.0000   1.0000   1.0000
     1.0000   1.0000   1.0000   1.0000   1.0000   1.0000   1.0000   1.0000
     1.0000   1.0000   1.0000   1.0000   1.0000   1.0000   1.0000   1.0000
     1.0000   1.0000   1.0000   1.0000   1.0000   1.0000  -0.0000  -0.0000
    -0.0000  -0.0000  -0.0000  -0.0000  -0.0000  -0.0000  -0.0000  -0.0000
    -0.0000

     the Fermi energy is     7.7457 ev

!    total energy              =   -1644.60125647 Ry
     estimated scf accuracy    <       0.00000047 Ry
     smearing contrib. (-TS)   =       0.00000000 Ry
     internal energy E=F+TS    =   -1644.60125647 Ry

     The total energy is F=E-TS. E is the sum of the following terms:
     one-electron contribution =    -334.33941120 Ry
     hartree contribution      =     221.66008031 Ry
     xc contribution           =    -166.59970698 Ry
     ewald contribution        =    -560.60985417 Ry
     one-center paw contrib.   =    -804.71236444 Ry
      -> PAW hartree energy AE =       0.00000000 Ry
      -> PAW hartree energy PS =       0.00000000 Ry
      -> PAW xc energy AE      =       0.00000000 Ry
      -> PAW xc energy PS      =       0.00000000 Ry
      -> total E_H with PAW    =     221.66008031 Ry
      -> total E_XC with PAW   =    -166.59970698 Ry

     convergence has been achieved in  13 iterations

     negative rho (up, down):  2.107E-03 0.000E+00

     Forces acting on atoms (cartesian axes, Ry/au):

     atom    1 type  1   force =    -0.01339068   -0.00571033   -0.00371873
     atom    2 type  1   force =    -0.00303315   -0.00133341   -0.00084633
     atom    3 type  2   force =    -0.00138754   -0.00059267   -0.00039310
     atom    4 type  2   force =     0.03197232    0.01373111    0.00891040
     atom    5 type  3   force =    -0.01339268   -0.00572438   -0.00373100
     atom    6 type  4   force =    -0.00713065   -0.01582408    0.00370772
     atom    7 type  4   force =    -0.00712829   -0.00306368   -0.01596941
     atom    8 type  4   force =    -0.01638635    0.00571791    0.00371151
     atom    9 type  4   force =     0.00824058    0.03625339   -0.01231766
     atom   10 type  4   force =     0.00824262    0.00353567    0.03814484
     atom   11 type  4   force =     0.03198577   -0.01899186   -0.01231671
     atom   12 type  4   force =    -0.05943861   -0.02553619   -0.01656137
     atom   13 type  4   force =     0.04084666    0.01753853    0.01137985
     The non-local contrib.  to forces
     atom    1 type  1   force =     0.00624580    0.00270419    0.00174139
     atom    2 type  1   force =     0.00991464    0.00425298    0.00276133
     atom    3 type  2   force =    -0.06084868   -0.02615020   -0.01694253
     atom    4 type  2   force =    -0.01514735   -0.00649570   -0.00421554
     atom    5 type  3   force =     0.06113742    0.02630086    0.01703448
     atom    6 type  4   force =    -0.05818034   -0.58574619    0.23418950
     atom    7 type  4   force =    -0.05816571   -0.02498817   -0.63034784
     atom    8 type  4   force =    -0.46489651    0.36103729    0.23419514
     atom    9 type  4   force =     0.01531394    0.57533820   -0.24969249
     atom   10 type  4   force =     0.01533391    0.00659150    0.62715318
     atom   11 type  4   force =     0.42785426   -0.38496117   -0.24969298
     atom   12 type  4   force =    -0.82639112   -0.35500140   -0.23026778
     atom   13 type  4   force =     0.59663562    0.25629868    0.16625051
     The ionic contribution  to forces
     atom    1 type  1   force =     1.09281397    0.46944916    0.30450097
     atom    2 type  1   force =     0.28440237    0.12217308    0.07924546
     atom    3 type  2   force =    -0.28929970   -0.12427687   -0.08060788
     atom    4 type  2   force =    -1.48289871   -0.63702110   -0.41319561
     atom    5 type  3   force =    -0.72833511   -0.31287695   -0.20294299
     atom    6 type  4   force =     0.07459222    7.81910632   -3.45640571
     atom    7 type  4   force =     0.07459104    0.03204269    8.54892782
     atom    8 type  4   force =     5.72262491   -5.32874767   -3.45640571
     atom    9 type  4   force =     0.43717635   -6.95067538    3.30938828
     atom   10 type  4   force =     0.43717776    0.18780208   -7.69601785
     atom   11 type  4   force =    -4.74043041    5.10209084    3.30938828
     atom   12 type  4   force =     7.26541427    3.12106427    2.02442727
     atom   13 type  4   force =    -8.14782896   -3.50013047   -2.27030234
     The local contribution  to forces
     atom    1 type  1   force =    -1.11293179   -0.47800620   -0.31010737
     atom    2 type  1   force =    -0.29706972   -0.12768234   -0.08278463
     atom    3 type  2   force =     0.35310296    0.15171371    0.09841741
     atom    4 type  2   force =     1.52443900    0.65493503    0.42481350
     atom    5 type  3   force =     0.65478034    0.28119084    0.18241779
     atom    6 type  4   force =    -0.02395092   -7.25363794    3.22775122
     atom    7 type  4   force =    -0.02396462   -0.01025359   -7.93936368
     atom    8 type  4   force =    -5.27761081    4.97621439    3.22771983
     atom    9 type  4   force =    -0.44417489    6.41638519   -3.07410897
     atom   10 type  4   force =    -0.44423828   -0.19083575    7.11228012
     atom   11 type  4   force =     4.34806853   -4.73945434   -3.07415433
     atom   12 type  4   force =    -6.50607731   -2.79489133   -1.81283691
     atom   13 type  4   force =     7.59682145    3.26345144    2.11675954
     The core correction contribution to forces
     atom    1 type  1   force =     0.00008829    0.00004038    0.00002461
     atom    2 type  1   force =     0.00010581    0.00004361    0.00002947
     atom    3 type  2   force =    -0.00430497   -0.00184993   -0.00119879
     atom    4 type  2   force =     0.00681232    0.00292730    0.00189837
     atom    5 type  3   force =    -0.00137750   -0.00059461   -0.00038438
     atom    6 type  4   force =     0.00037499    0.00443629   -0.00180466
     atom    7 type  4   force =     0.00037457    0.00016082    0.00478694
     atom    8 type  4   force =     0.00347562   -0.00278195   -0.00180480
     atom    9 type  4   force =    -0.00000546   -0.00433068    0.00193109
     atom   10 type  4   force =    -0.00000595   -0.00000260   -0.00474182
     atom   11 type  4   force =    -0.00314522    0.00297691    0.00193112
     atom   12 type  4   force =     0.00741888    0.00318693    0.00206723
     atom   13 type  4   force =    -0.00444900   -0.00191111   -0.00123975
     The Hubbard contrib.    to forces
     atom    1 type  1   force =     0.00000000    0.00000000    0.00000000
     atom    2 type  1   force =     0.00000000    0.00000000    0.00000000
     atom    3 type  2   force =     0.00000000    0.00000000    0.00000000
     atom    4 type  2   force =     0.00000000    0.00000000    0.00000000
     atom    5 type  3   force =     0.00000000    0.00000000    0.00000000
     atom    6 type  4   force =     0.00000000    0.00000000    0.00000000
     atom    7 type  4   force =     0.00000000    0.00000000    0.00000000
     atom    8 type  4   force =     0.00000000    0.00000000    0.00000000
     atom    9 type  4   force =     0.00000000    0.00000000    0.00000000
     atom   10 type  4   force =     0.00000000    0.00000000    0.00000000
     atom   11 type  4   force =     0.00000000    0.00000000    0.00000000
     atom   12 type  4   force =     0.00000000    0.00000000    0.00000000
     atom   13 type  4   force =     0.00000000    0.00000000    0.00000000
     The SCF correction term to forces
     atom    1 type  1   force =     0.00041487    0.00011738    0.00012922
     atom    2 type  1   force =    -0.00036445   -0.00010551   -0.00009042
     atom    3 type  2   force =    -0.00001534   -0.00001415   -0.00005376
     atom    4 type  2   force =    -0.00121112   -0.00059918   -0.00038277
     atom    5 type  3   force =     0.00042399    0.00027072    0.00015166
     atom    6 type  4   force =     0.00005522    0.00003268   -0.00001508
     atom    7 type  4   force =     0.00005825   -0.00001020    0.00003491
     atom    8 type  4   force =     0.00004225    0.00001109    0.00001460
     atom    9 type  4   force =    -0.00004755   -0.00044870    0.00017199
     atom   10 type  4   force =    -0.00000301   -0.00000433   -0.00052123
     atom   11 type  4   force =    -0.00033958    0.00037114    0.00021876
     atom   12 type  4   force =     0.00021849    0.00012057    0.00005638
     atom   13 type  4   force =    -0.00031063   -0.00015477   -0.00008056

     Total force =     0.117775     Total SCF correction =     0.001902

     Computing stress (Cartesian axis) and pressure

     negative rho (up, down):  2.107E-03 0.000E+00
          total   stress  (Ry/bohr**3)                   (kbar)     P=     -377.86
  -0.00256092   0.00000577   0.00000375         -376.72        0.85        0.55
   0.00000577  -0.00257183   0.00000158            0.85     -378.33        0.23
   0.00000375   0.00000158  -0.00257326            0.55        0.23     -378.54

     kinetic stress (kbar)  22440.42     23.35     15.15
                               23.35  22396.08      6.51
                               15.15      6.51  22390.28

     local   stress (kbar)  -9363.89  -1876.42  -1217.11
                            -1876.42  -5801.86   -522.85
                            -1217.11   -522.85  -5334.95

     nonloc. stress (kbar)   2905.75    -16.34    -10.61
                              -16.34   2936.80     -4.56
                              -10.61     -4.56   2940.86

     hartree stress (kbar)   9643.14    648.38    420.56
                              648.38   8412.31    180.67
                              420.56    180.67   8250.98

     exc-cor stress (kbar)   -647.37      3.81      2.47
                                3.81   -654.61      1.06
                                2.47      1.06   -655.56

     corecor stress (kbar)  -4820.39     -0.46     -0.30
                               -0.46  -4819.51     -0.13
                               -0.30     -0.13  -4819.40

     ewald   stress (kbar) -20534.39   1218.54    790.39
                             1218.54 -22847.53    339.53
                              790.39    339.53 -23150.76

     hubbard stress (kbar)      0.00      0.00      0.00
                                0.00      0.00      0.00
                                0.00      0.00      0.00

     DFT-D   stress (kbar)      0.00      0.00      0.00
                                0.00      0.00      0.00
                                0.00      0.00      0.00

     XDM     stress (kbar)      0.00      0.00      0.00
                                0.00      0.00      0.00
                                0.00      0.00      0.00

     dft-nl  stress (kbar)      0.00      0.00      0.00
                                0.00      0.00      0.00
                                0.00      0.00      0.00

     TS-vdW  stress (kbar)      0.00      0.00      0.00
                                0.00      0.00      0.00
                                0.00      0.00      0.00

[...]

                                0.00      0.00      0.00

     Writing all to output data dir calculations/myprefix.save/

     General routines

     Parallel routines

     PAW routines

   This run was terminated on:   9:49:17   6Mar2023

   JOB DONE.