     Program PWSCF v.7.0 starts on  6Mar2023 at 11: 2:34

     R & G space division:  proc/nbgrp/npool/nimage =      32

     Reading input from espresso_4384.pwi
Warning: card &CELL ignored
Warning: card / ignored

     Current dimensions of program PWSCF are:
     Max number of different atomic species (ntypx) = 10
     Max number of k-points (npk) =  40000
     Max angular momentum in pseudopotentials (lmaxx) =  4
     file Ga.pbe-dn-kjpaw_psl.1.0.0.UPF: wavefunction(s)  4S renormalized

     gamma-point specific algorithms are used
     Message from routine setup:
     using ibrav=0 with symmetry is DISCOURAGED, use correct ibrav instead

     Using Slab Decomposition

     bravais-lattice index     =            0
     lattice parameter (alat)  =       7.8016  a.u.
     unit-cell volume          =     647.8866 (a.u.)^3
     number of atoms/cell      =            6
     number of atomic types    =            3
     number of electrons       =        84.00
     number of Kohn-Sham states=           50
     kinetic-energy cutoff     =      30.0000  Ry
     charge density cutoff     =     240.0000  Ry
     scf convergence threshold =      1.0E-06
     mixing beta               =       0.7000
     number of iterations used =            8  plain     mixing
     Exchange-correlation=  SLA  PW   PBX  PBC
                           (   1   4   3   4   0   0   0)

     celldm(1)=   7.801581  celldm(2)=   0.000000  celldm(3)=   0.000000
     celldm(4)=   0.000000  celldm(5)=   0.000000  celldm(6)=   0.000000

     crystal axes: (cart. coord. in units of alat)
               a(1) = (   1.000000   0.000000   0.000000 )
               a(2) = (   0.500000   1.131922   0.000000 )
               a(3) = (  -0.500000   0.187480   1.205409 )

     reciprocal axes: (cart. coord. in units 2 pi/alat)
               b(1) = (  1.000000 -0.441726  0.483500 )
               b(2) = (  0.000000  0.883453 -0.137405 )
               b(3) = (  0.000000  0.000000  0.829594 )

     PseudoPot. # 1 for Sc read from file:
     /home/pragov/projects/rrg-bengioy-ad/pragov/crystal_structure_design/SSSP/Sc_ONCV_PBE-1.0.oncvpsp.upf
     MD5 check sum: e21af8023abb52e52cb7cd3133e4a229
     Pseudo is Norm-conserving, Zval = 11.0
     Generated using ONCVPSP code by D. R. Hamann
     Using radial grid of 1662 points,  6 beta functions with:
                l(1) =   0
                l(2) =   0
                l(3) =   1
                l(4) =   1
                l(5) =   2
                l(6) =   2

     PseudoPot. # 2 for Ga read from file:
     /home/pragov/projects/rrg-bengioy-ad/pragov/crystal_structure_design/SSSP/Ga.pbe-dn-kjpaw_psl.1.0.0.UPF
     MD5 check sum: a27b4342b1af7e5f338de752e9ed7044
     Pseudo is Projector augmented-wave + core cor, Zval = 13.0
     Generated using "atomic" code by A. Dal Corso  v.5.1
     Shape of augmentation charge: PSQ
     Using radial grid of 1205 points,  6 beta functions with:
                l(1) =   0
                l(2) =   0
                l(3) =   1
                l(4) =   1
                l(5) =   2
                l(6) =   2
     Q(r) pseudized with 0 coefficients

     PseudoPot. # 3 for Ni read from file:
     /home/pragov/projects/rrg-bengioy-ad/pragov/crystal_structure_design/SSSP/ni_pbe_v1.4.uspp.F.UPF
     MD5 check sum: 1ee80287db30b12d2bc1f57a5b5d6409
     Pseudo is Ultrasoft + core correction, Zval = 18.0
     Generated by new atomic code, or converted to UPF format
     Using radial grid of  865 points,  6 beta functions with:
                l(1) =   0
                l(2) =   0
                l(3) =   1
                l(4) =   1
                l(5) =   2
                l(6) =   2
     Q(r) pseudized with 10 coefficients,  rinner =    0.980   0.980   0.980
                                                       0.980   0.980

     atomic species   valence    mass     pseudopotential
        Sc            11.00    44.95591     Sc( 1.00)
        Ga            13.00    69.72300     Ga( 1.00)
        Ni            18.00    58.69340     Ni( 1.00)

      4 Sym. Ops., with inversion, found

                                    s                        frac. trans.

      isym =  1     identity

 cryst.   s( 1) = (     1          0          0      )
                  (     0          1          0      )
                  (     0          0          1      )

 cart.    s( 1) = (  1.0000000  0.0000000 -0.0000000 )
                  (  0.0000000  1.0000000 -0.0000000 )
                  (  0.0000000  0.0000000  1.0000000 )

      isym =  2     180 deg rotation - cart. axis [1,0,0]

[...]

      isym =  3     inversion

[...]

      isym =  4     inv. 180 deg rotation - cart. axis [1,0,0]

 cryst.   s( 4) = (    -1          0          0      )
                  (    -1          1          0      )
                  (     1          0          1      )

 cart.    s( 4) = ( -1.0000000  0.0000002 -0.0000002 )
                  (  0.0000000  1.0000000 -0.0000000 )
                  (  0.0000000  0.0000000  1.0000000 )

   Cartesian axes

     site n.     atom                  positions (alat units)
         1           Sc  tau(   1) = (   1.0000006   0.8296883   0.2329055  )
         2           Sc  tau(   2) = (  -0.0000006   0.4897140   0.9725035  )
         3           Ga  tau(   3) = (   0.5000000   0.3682282   0.4733678  )
         4           Ga  tau(   4) = (   0.5000000   0.9511741   0.7320413  )
         5           Ni  tau(   5) = (  -0.0000000   0.1773031   0.2339060  )
         6           Ni  tau(   6) = (   1.0000000   1.1420992   0.9715031  )

   Crystallographic axes

     site n.     atom                  positions (cryst. coord.)
         1           Sc  tau(   1) = (  0.7461150  0.7009880  0.1932170  )
         2           Sc  tau(   2) = (  0.2538850  0.2990120  0.8067830  )
         3           Ga  tau(   3) = (  0.5662170  0.2602690  0.3927030  )
         4           Ga  tau(   4) = (  0.4337830  0.7397310  0.6072970  )
         5           Ni  tau(   5) = (  0.0347740  0.1244990  0.1940470  )
         6           Ni  tau(   6) = (  0.9652260  0.8755010  0.8059530  )

     number of k points=     1  Methfessel-Paxton smearing, width (Ry)=  0.0010
                       cart. coord. in units 2pi/alat
        k(    1) = (   0.0000000   0.0000000   0.0000000), wk =   2.0000000

                       cryst. coord.
        k(    1) = (   0.0000000   0.0000000   0.0000000), wk =   2.0000000

     Check: negative core charge=   -0.000005

     Initial potential from superposition of free atoms

     starting charge      79.9888, renormalised to      84.0000
     Starting wfcs are   64 randomized atomic wfcs
     Checking if some PAW data can be deallocated...

     Self-consistent Calculation

     iteration #  1     ecut=    30.00 Ry     beta= 0.70
     Davidson diagonalization with overlap

     ethr =  1.00E-02,  avg # of iterations =  3.0

     total energy              =   -1392.68010411 Ry
     estimated scf accuracy    <      45.45994889 Ry

[...]

     total energy              =   -1425.74046037 Ry
     estimated scf accuracy    <       0.00000132 Ry

     iteration # 20     ecut=    30.00 Ry     beta= 0.70
     Davidson diagonalization with overlap

     ethr =  1.57E-09,  avg # of iterations =  2.0

     End of self-consistent calculation

          k = 0.0000 0.0000 0.0000 (   897 PWs)   bands (ev):

   -90.6988 -90.6953 -51.2488 -51.1694 -51.1605 -51.1532 -50.7022 -50.6969
   -36.3810 -36.3508 -15.2365 -15.1754 -15.1260 -14.9254 -14.7383 -14.7360
    -1.5539  -1.5310  -1.4792  -1.4688  -1.4562  -1.4446  -1.3959  -1.3552
    -1.3407  -1.3286   3.5202   7.3428   9.8644  10.1775  10.2061  10.3711
    10.4506  10.4679  10.7874  11.0011  11.0685  11.2898  11.4739  12.3665
    12.4598  12.7553  12.7987  13.4936  13.8591  14.5854  15.7804  15.9338
    16.0403  16.2500

     occupation numbers
     1.0000   1.0000   1.0000   1.0000   1.0000   1.0000   1.0000   1.0000
     1.0000   1.0000   1.0000   1.0000   1.0000   1.0000   1.0000   1.0000
     1.0000   1.0000   1.0000   1.0000   1.0000   1.0000   1.0000   1.0000
     1.0000   1.0000   1.0000   1.0000   1.0000   1.0000   1.0000   1.0000
     1.0000   1.0000   1.0000   1.0000   1.0000   1.0000   1.0000   1.0000
     1.0000   1.0234  -0.0234  -0.0000  -0.0000  -0.0000  -0.0000  -0.0000
    -0.0000  -0.0000

     the Fermi energy is    12.7770 ev

!    total energy              =   -1425.74046047 Ry
     estimated scf accuracy    <       0.00000018 Ry
     smearing contrib. (-TS)   =       0.00018178 Ry
     internal energy E=F+TS    =   -1425.74064226 Ry

     The total energy is F=E-TS. E is the sum of the following terms:
     one-electron contribution =    -748.79368015 Ry
     hartree contribution      =     428.15836509 Ry
     xc contribution           =    -171.30485260 Ry
     ewald contribution        =    -711.98887451 Ry
     one-center paw contrib.   =    -221.81160008 Ry
      -> PAW hartree energy AE =       0.00000000 Ry
      -> PAW hartree energy PS =       0.00000000 Ry
      -> PAW xc energy AE      =       0.00000000 Ry
      -> PAW xc energy PS      =       0.00000000 Ry
      -> total E_H with PAW    =     428.15836509 Ry
      -> total E_XC with PAW   =    -171.30485260 Ry

     convergence has been achieved in  20 iterations

     Forces acting on atoms (cartesian axes, Ry/au):

     atom    1 type  1   force =     0.00000000   -0.05369010    0.03712082
     atom    2 type  1   force =     0.00000000    0.05369010   -0.03712082
     atom    3 type  2   force =     0.00000000    0.05479643    0.03921073
     atom    4 type  2   force =     0.00000000   -0.05479643   -0.03921073
     atom    5 type  3   force =     0.00000000   -0.02586345   -0.04328590
     atom    6 type  3   force =     0.00000000    0.02586345    0.04328590
     The non-local contrib.  to forces
     atom    1 type  1   force =    -0.00000000    0.01896400    0.11448017
     atom    2 type  1   force =     0.00000000   -0.01896400   -0.11448017
     atom    3 type  2   force =     0.00000000   -0.21192400   -0.49678530
     atom    4 type  2   force =     0.00000000    0.21192400    0.49678530
     atom    5 type  3   force =     0.00000000    0.48348256    0.53466686
     atom    6 type  3   force =     0.00000000   -0.48348256   -0.53466686
     The ionic contribution  to forces
     atom    1 type  1   force =    -0.00003297   -3.96293073    1.56787843
     atom    2 type  1   force =     0.00003297    3.96293073   -1.56787843
     atom    3 type  2   force =     0.00000118    9.97683832   -0.13539656
     atom    4 type  2   force =    -0.00000118   -9.97683832    0.13539655
     atom    5 type  3   force =    -0.00000353    7.32759007   -1.22443700
     atom    6 type  3   force =     0.00000353   -7.32759007    1.22443700
     The local contribution  to forces
     atom    1 type  1   force =     0.00004430    3.88999647   -1.64567586
     atom    2 type  1   force =    -0.00005000   -3.88979950    1.64548169
     atom    3 type  2   force =     0.00009047   -9.70976258    0.66657440
     atom    4 type  2   force =     0.00010670    9.70991263   -0.66616546
     atom    5 type  3   force =     0.00005111   -7.82773745    0.65216845
     atom    6 type  3   force =     0.00001668    7.82630178   -0.65231145
     The core correction contribution to forces
     atom    1 type  1   force =     0.00000000    0.00000000    0.00000000
     atom    2 type  1   force =     0.00000000    0.00000000    0.00000000
     atom    3 type  2   force =     0.00000237    0.00016162    0.00485463
     atom    4 type  2   force =     0.00000158   -0.00016016   -0.00485269
     atom    5 type  3   force =     0.00000012   -0.00947018   -0.00628858
     atom    6 type  3   force =    -0.00000004    0.00946214    0.00628597
     The Hubbard contrib.    to forces
     atom    1 type  1   force =     0.00000000    0.00000000    0.00000000
     atom    2 type  1   force =     0.00000000    0.00000000    0.00000000
     atom    3 type  2   force =     0.00000000    0.00000000    0.00000000
     atom    4 type  2   force =     0.00000000    0.00000000    0.00000000
     atom    5 type  3   force =     0.00000000    0.00000000    0.00000000
     atom    6 type  3   force =     0.00000000    0.00000000    0.00000000
     The SCF correction term to forces
     atom    1 type  1   force =    -0.00001220    0.00027179    0.00044412
     atom    2 type  1   force =     0.00001593   -0.00048550   -0.00023786
     atom    3 type  2   force =    -0.00009497   -0.00055183   -0.00008695
     atom    4 type  2   force =    -0.00009935    0.00033052   -0.00042494
     atom    5 type  3   force =    -0.00002653    0.00027005    0.00063943
     atom    6 type  3   force =    -0.00003156    0.00117065   -0.00042368

     Total force =     0.150621     Total SCF correction =     0.001794

     Computing stress (Cartesian axis) and pressure

          total   stress  (Ry/bohr**3)                   (kbar)     P=     -515.33
  -0.00434600   0.00000000  -0.00000000         -639.32        0.00       -0.00
   0.00000000  -0.00286559  -0.00125127            0.00     -421.54     -184.07
  -0.00000000  -0.00125127  -0.00329792           -0.00     -184.07     -485.14

     kinetic stress (kbar)  28655.90     -0.00      0.00
                               -0.00  28792.47   -549.18
                                0.00   -549.18  28471.07

     local   stress (kbar)  -9652.30     -0.06      0.00
                               -0.06   8025.88  -7247.09
                                0.00  -7247.09  -3337.88

     nonloc. stress (kbar)   4167.78     -0.00      0.00
                               -0.00   4511.27    -47.16
                                0.00    -47.16   4394.12

     hartree stress (kbar)  35646.35      0.03      0.00
                                0.03  27854.76   3119.10
                                0.00   3119.10  33713.84

     exc-cor stress (kbar)  -2965.80      0.00      0.00
                                0.00  -2967.13     -4.62
                                0.00     -4.62  -2972.17

     corecor stress (kbar)  -7406.43     -0.00      0.00
                               -0.00  -7411.11      2.26
                                0.00      2.26  -7406.90

     ewald   stress (kbar) -49084.81      0.02     -0.00
                                0.02 -59227.68   4542.62
                               -0.00   4542.62 -53347.23

     hubbard stress (kbar)      0.00      0.00      0.00
                                0.00      0.00      0.00
                                0.00      0.00      0.00

     DFT-D   stress (kbar)      0.00      0.00      0.00
                                0.00      0.00      0.00
                                0.00      0.00      0.00

     XDM     stress (kbar)      0.00      0.00      0.00
                                0.00      0.00      0.00
                                0.00      0.00      0.00

     dft-nl  stress (kbar)      0.00      0.00      0.00
                                0.00      0.00      0.00
                                0.00      0.00      0.00

     TS-vdW  stress (kbar)      0.00      0.00      0.00
                                0.00      0.00      0.00
                                0.00      0.00      0.00

[...]

                                0.00      0.00      0.00

     Writing all to output data dir calculations/myprefix.save/

     General routines

     Parallel routines

     PAW routines

   This run was terminated on:  11: 2:37   6Mar2023

   JOB DONE.