     Program PWSCF v.7.0 starts on  6Mar2023 at 11:56:17

     R & G space division:  proc/nbgrp/npool/nimage =      32

     Reading input from espresso_4518.pwi
Warning: card &CELL ignored
Warning: card / ignored

     Current dimensions of program PWSCF are:
     Max number of different atomic species (ntypx) = 10
     Max number of k-points (npk) =  40000
     Max angular momentum in pseudopotentials (lmaxx) =  4
     file Ba.pbe-spn-kjpaw_psl.1.0.0.UPF: wavefunction(s)  5S 6S renormalized
     file Mg.pbe-n-kjpaw_psl.0.3.0.UPF: wavefunction(s)  3S renormalized
     file Nb.pbe-spn-kjpaw_psl.0.3.0.UPF: wavefunction(s)  4S 4P renormalized
     file O.pbe-n-kjpaw_psl.0.1.UPF: wavefunction(s)  2P renormalized

     gamma-point specific algorithms are used
     Message from routine setup:
     using ibrav=0 with symmetry is DISCOURAGED, use correct ibrav instead

     Using Slab Decomposition

     bravais-lattice index     =            0
     lattice parameter (alat)  =      11.0783  a.u.
     unit-cell volume          =    1445.0358 (a.u.)^3
     number of atoms/cell      =           15
     number of atomic types    =            4
     number of electrons       =       112.00
     number of Kohn-Sham states=           67
     kinetic-energy cutoff     =      30.0000  Ry
     charge density cutoff     =     240.0000  Ry
     scf convergence threshold =      1.0E-06
     mixing beta               =       0.7000
     number of iterations used =            8  plain     mixing
     Exchange-correlation= SLA  PW   PBX  PBC
                           (   1   4   3   4   0   0   0)

     celldm(1)=  11.078327  celldm(2)=   0.000000  celldm(3)=   0.000000
     celldm(4)=   0.000000  celldm(5)=   0.000000  celldm(6)=   0.000000

     crystal axes: (cart. coord. in units of alat)
               a(1) = (   1.000000   0.000000   0.000000 )
               a(2) = (  -0.500000   0.866025   0.000000 )
               a(3) = (   0.000000   0.000000   1.227228 )

     reciprocal axes: (cart. coord. in units 2 pi/alat)
               b(1) = (  1.000000  0.577350  0.000000 )
               b(2) = (  0.000000  1.154701  0.000000 )
               b(3) = (  0.000000  0.000000  0.814844 )

     PseudoPot. # 1 for Ba read from file:
     /home/pragov/projects/rrg-bengioy-ad/pragov/crystal_structure_design/SSSP/Ba.pbe-spn-kjpaw_psl.1.0.0.UPF
     MD5 check sum: c432291d3e53af55f19d5e8866385beb
     Pseudo is Projector augmented-wave + core cor, Zval = 10.0
     Generated using "atomic" code by A. Dal Corso  v.5.1
     Shape of augmentation charge: PSQ
     Using radial grid of 1251 points,  7 beta functions with:
                l(1) =   0
                l(2) =   0
                l(3) =   0
                l(4) =   1
                l(5) =   1
                l(6) =   2
                l(7) =   2
     Q(r) pseudized with 0 coefficients

     PseudoPot. # 2 for Mg read from file:
     /home/pragov/projects/rrg-bengioy-ad/pragov/crystal_structure_design/SSSP/Mg.pbe-n-kjpaw_psl.0.3.0.UPF
     MD5 check sum: 24ecedc7f3e3cbe212e682f4413594e4
     Pseudo is Projector augmented-wave + core cor, Zval =  2.0
     Generated using "atomic" code by A. Dal Corso  v.5.0.99 svn rev. 10869
     Shape of augmentation charge: PSQ
     Using radial grid of 1129 points,  4 beta functions with:
                l(1) =   0
                l(2) =   0
                l(3) =   1
                l(4) =   1
     Q(r) pseudized with 0 coefficients

     PseudoPot. # 3 for Nb read from file:
     /home/pragov/projects/rrg-bengioy-ad/pragov/crystal_structure_design/SSSP/Nb.pbe-spn-kjpaw_psl.0.3.0.UPF
     MD5 check sum: 411d72ad547312f8017e2943ceca08cc
     Pseudo is Projector augmented-wave + core cor, Zval = 13.0
     Generated using "atomic" code by A. Dal Corso  v.5.0.99 svn rev. 10869
     Shape of augmentation charge: PSQ
     Using radial grid of 1227 points,  6 beta functions with:
                l(1) =   0
                l(2) =   0
                l(3) =   1
                l(4) =   1
                l(5) =   2
                l(6) =   2
     Q(r) pseudized with 0 coefficients

     PseudoPot. # 4 for O  read from file:
     /home/pragov/projects/rrg-bengioy-ad/pragov/crystal_structure_design/SSSP/O.pbe-n-kjpaw_psl.0.1.UPF
     MD5 check sum: 0234752ac141de4415c5fc33072bef88
     Pseudo is Projector augmented-wave + core cor, Zval =  6.0
     Generated using "atomic" code by A. Dal Corso  v.5.0.99 svn rev. 10869
     Shape of augmentation charge: BESSEL
     Using radial grid of 1095 points,  4 beta functions with:
                l(1) =   0
                l(2) =   0
                l(3) =   1
                l(4) =   1
     Q(r) pseudized with 0 coefficients

     atomic species   valence    mass     pseudopotential
        Ba            10.00   137.32700     Ba( 1.00)
        Mg             2.00    24.30500     Mg( 1.00)
        Nb            13.00    92.90637     Nb( 1.00)
        O              6.00    15.99900     O ( 1.00)

     12 Sym. Ops., with inversion, found

                                    s                        frac. trans.

      isym =  1     identity

 cryst.   s( 1) = (     1          0          0      )
                  (     0          1          0      )
                  (     0          0          1      )

 cart.    s( 1) = (  1.0000000 -0.0000000  0.0000000 )
                  (  0.0000000  1.0000000  0.0000000 )
                  (  0.0000000  0.0000000  1.0000000 )

      isym =  2     180 deg rotation - cart. axis [1,0,0]

[...]

      isym =  3     120 deg rotation - cryst. axis [0,0,1]

[...]

      isym =  6     180 deg rotation - cryst. axis [1,1,0]

[...]

      isym =  7     inversion

[...]

      isym =  8     inv. 180 deg rotation - cart. axis [1,0,0]

[...]

      isym =  9     inv. 120 deg rotation - cryst. axis [0,0,1]

 cryst.   s( 9) = (     0         -1          0      )
                  (     1          1          0      )
                  (     0          0         -1      )

 cart.    s( 9) = (  0.5000001  0.8660254  0.0000000 )
                  ( -0.8660254  0.4999999  0.0000000 )
                  (  0.0000000  0.0000000 -1.0000000 )

[...]

 cryst.   s(10) = (     1          1          0      )
                  (    -1          0          0      )
                  (     0          0         -1      )

 cart.    s(10) = (  0.4999999 -0.8660254  0.0000000 )
                  (  0.8660254  0.5000001  0.0000000 )
                  (  0.0000000  0.0000000 -1.0000000 )

[...]

      isym = 12     inv. 180 deg rotation - cryst. axis [1,1,0]

 cryst.   s(12) = (     0         -1          0      )
                  (    -1          0          0      )
                  (     0          0          1      )

 cart.    s(12) = (  0.5000001 -0.8660254  0.0000000 )
                  ( -0.8660254 -0.5000001  0.0000000 )
                  (  0.0000000  0.0000000  1.0000000 )

   Cartesian axes

     site n.     atom                  positions (alat units)
         1           Ba  tau(   1) = (   0.0000000   0.0000000   0.0000000  )
         2           Ba  tau(   2) = (  -0.0000005   0.5773505   0.8197947  )
         3           Ba  tau(   3) = (   0.5000005   0.2886748   0.4074337  )
         4           Mg  tau(   4) = (   0.0000000   0.0000000   0.6136142  )
         5           Nb  tau(   5) = (  -0.0000005   0.5773505   0.2200408  )
         6           Nb  tau(   6) = (   0.5000005   0.2886748   1.0071876  )
         7           O   tau(   7) = (   0.7430650   0.1483415   0.8268979  )
         8           O   tau(   8) = (   0.5000000   0.5693424   0.8268979  )
         9           O   tau(   9) = (   0.2569350   0.1483415   0.8268979  )
        10           O   tau(  10) = (   0.2430650   0.7176839   0.4003305  )
        11           O   tau(  11) = (  -0.0000000   0.2966830   0.4003305  )
        12           O   tau(  12) = (  -0.2430650   0.7176839   0.4003305  )
        13           O   tau(  13) = (   0.5000000   0.0000000   0.0000000  )
        14           O   tau(  14) = (  -0.2500000   0.4330127   0.0000000  )
        15           O   tau(  15) = (   0.2500000   0.4330127   0.0000000  )

   Crystallographic axes

     site n.     atom                  positions (cryst. coord.)
         1           Ba  tau(   1) = (  0.0000000  0.0000000  0.0000000  )
         2           Ba  tau(   2) = (  0.3333330  0.6666670  0.6680050  )
         3           Ba  tau(   3) = (  0.6666670  0.3333330  0.3319950  )
         4           Mg  tau(   4) = (  0.0000000  0.0000000  0.5000000  )
         5           Nb  tau(   5) = (  0.3333330  0.6666670  0.1792990  )
         6           Nb  tau(   6) = (  0.6666670  0.3333330  0.8207010  )
         7           O   tau(   7) = (  0.8287100  0.1712900  0.6737930  )
         8           O   tau(   8) = (  0.8287100  0.6574200  0.6737930  )
         9           O   tau(   9) = (  0.3425800  0.1712900  0.6737930  )
        10           O   tau(  10) = (  0.6574200  0.8287100  0.3262070  )
        11           O   tau(  11) = (  0.1712900  0.3425800  0.3262070  )
        12           O   tau(  12) = (  0.1712900  0.8287100  0.3262070  )
        13           O   tau(  13) = (  0.5000000  0.0000000  0.0000000  )
        14           O   tau(  14) = (  0.0000000  0.5000000  0.0000000  )
        15           O   tau(  15) = (  0.5000000  0.5000000  0.0000000  )

     number of k points=     1  Methfessel-Paxton smearing, width (Ry)=  0.0010
                       cart. coord. in units 2pi/alat
        k(    1) = (   0.0000000   0.0000000   0.0000000), wk =   2.0000000

                       cryst. coord.
        k(    1) = (   0.0000000   0.0000000   0.0000000), wk =   2.0000000

     Check: negative core charge=   -0.000013

     Initial potential from superposition of free atoms

     starting charge     111.9438, renormalised to     112.0000
     Starting wfcs are   75 randomized atomic wfcs
     Checking if some PAW data can be deallocated...

     Self-consistent Calculation

     iteration #  1     ecut=    30.00 Ry     beta= 0.70
     Davidson diagonalization with overlap

     ethr =  1.00E-02,  avg # of iterations =  5.0

     total energy              =   -2383.12388375 Ry
     estimated scf accuracy    <       6.43266374 Ry

[...]

     c_bands:  1 eigenvalues not converged
     ethr =  2.03E-06,  avg # of iterations = 20.0

[...]

     total energy              =   -2386.57701966 Ry
     estimated scf accuracy    <       0.00000327 Ry

     iteration # 21     ecut=    30.00 Ry     beta= 0.70
     Davidson diagonalization with overlap

     ethr =  1.95E-09,  avg # of iterations =  4.0

     End of self-consistent calculation

          k = 0.0000 0.0000 0.0000 (  2028 PWs)   bands (ev):

   -45.2612 -45.2598 -21.4369 -21.4045 -21.3892 -21.3892 -21.3625 -21.3625
   -16.2049 -16.1197 -15.9491  -7.1843  -6.8206  -6.6630  -6.6629  -6.6039
    -6.6036  -6.3967  -6.0935  -6.0934  -1.6072  -1.6071  -1.5528  -1.5528
    -1.3241  -1.3201  -1.2575  -1.2575  -1.1367   5.5265   5.5265   5.7212
     5.8085   6.3075   6.5871   6.6256   6.6256   6.9954   6.9954   7.1019
     7.1021   7.4210   7.4532   7.4532   8.5649   8.5710   8.5710   8.7987
     8.7988   9.1441   9.2185   9.2186   9.2279   9.3485   9.3485   9.5235
    12.0900  12.2465  12.2465  13.7726  13.7726  13.8524  14.0055  14.0055
    15.4000  15.9541  16.2796

     occupation numbers
     1.0000   1.0000   1.0000   1.0000   1.0000   1.0000   1.0000   1.0000
     1.0000   1.0000   1.0000   1.0000   1.0000   1.0000   1.0000   1.0000
     1.0000   1.0000   1.0000   1.0000   1.0000   1.0000   1.0000   1.0000
     1.0000   1.0000   1.0000   1.0000   1.0000   1.0000   1.0000   1.0000
     1.0000   1.0000   1.0000   1.0000   1.0000   1.0000   1.0000   1.0000
     1.0000   1.0000   1.0000   1.0000   1.0000   1.0000   1.0000   1.0000
     1.0000   1.0000   1.0000   1.0000   1.0000   1.0000   1.0000   1.0000
    -0.0000  -0.0000  -0.0000  -0.0000  -0.0000  -0.0000  -0.0000  -0.0000
    -0.0000  -0.0000  -0.0000

     the Fermi energy is    10.6207 ev

!    total energy              =   -2386.57701966 Ry

     total all-electron energy =    -65849.946568 Ry
     estimated scf accuracy    <       0.00000024 Ry
     smearing contrib. (-TS)   =       0.00000000 Ry
     internal energy E=F+TS    =   -2386.57701966 Ry

     The total energy is F=E-TS. E is the sum of the following terms:
     one-electron contribution =    -171.67784625 Ry
     hartree contribution      =     159.78434923 Ry
     xc contribution           =    -188.00912108 Ry
     ewald contribution        =    -527.88734835 Ry
     one-center paw contrib.   =   -1658.78705321 Ry
      -> PAW hartree energy AE =      28.79903370 Ry
      -> PAW hartree energy PS =     -28.67979120 Ry
      -> PAW xc energy AE      =    -394.25619006 Ry
      -> PAW xc energy PS      =      19.17388130 Ry
      -> total E_H with PAW    =     159.90359172 Ry
      -> total E_XC with PAW   =    -563.09142984 Ry

     convergence has been achieved in  21 iterations

     Forces acting on atoms (cartesian axes, Ry/au):

     atom    1 type  1   force =    -0.00000000    0.00000000    0.00000000
     atom    2 type  1   force =     0.00000000    0.00000000    0.00384708
     atom    3 type  1   force =     0.00000000    0.00000000   -0.00384708
     atom    4 type  2   force =    -0.00000000    0.00000000    0.00000000
     atom    5 type  3   force =     0.00000000    0.00000000    0.03806127
     atom    6 type  3   force =    -0.00000000   -0.00000000   -0.03806127
     atom    7 type  4   force =    -0.02882660    0.01664305    0.03858599
     atom    8 type  4   force =    -0.00000000   -0.03328610    0.03858599
     atom    9 type  4   force =     0.02882660    0.01664305    0.03858599
     atom   10 type  4   force =    -0.02882660   -0.01664305   -0.03858599
     atom   11 type  4   force =     0.00000000    0.03328610   -0.03858599
     atom   12 type  4   force =     0.02882660   -0.01664305   -0.03858599
     atom   13 type  4   force =    -0.00000000    0.00000000    0.00000000
     atom   14 type  4   force =    -0.00000000    0.00000000   -0.00000000
     atom   15 type  4   force =     0.00000000   -0.00000000   -0.00000000
     The non-local contrib.  to forces
     atom    1 type  1   force =    -0.00000000    0.00000000    0.00000000
     atom    2 type  1   force =     0.00000000    0.00000000    0.00411194
     atom    3 type  1   force =    -0.00000000   -0.00000000   -0.00411194
     atom    4 type  2   force =     0.00000000    0.00000000    0.00000000
     atom    5 type  3   force =     0.00000000    0.00000000    0.07103480
     atom    6 type  3   force =     0.00000000   -0.00000000   -0.07103480
     atom    7 type  4   force =    -0.30145329    0.17404412    0.11821920
     atom    8 type  4   force =     0.00000000   -0.34808829    0.11821920
     atom    9 type  4   force =     0.30145329    0.17404416    0.11821920
     atom   10 type  4   force =    -0.30145329   -0.17404416   -0.11821920
     atom   11 type  4   force =    -0.00000000    0.34808829   -0.11821920
     atom   12 type  4   force =     0.30145329   -0.17404412   -0.11821920
     atom   13 type  4   force =     0.00000000   -0.00000000    0.00000000
     atom   14 type  4   force =    -0.00000000   -0.00000000   -0.00000000
     atom   15 type  4   force =     0.00000000    0.00000000   -0.00000000
     The ionic contribution  to forces
     atom    1 type  1   force =     0.00000000   -0.00000000   -0.00000000
     atom    2 type  1   force =     0.00004441   -0.00002564   -3.03745245
     atom    3 type  1   force =    -0.00004441    0.00002564    3.03745245
     atom    4 type  2   force =     0.00000000    0.00000000    0.00000000
     atom    5 type  3   force =     0.00005783   -0.00003339    1.41381994
     atom    6 type  3   force =    -0.00005783    0.00003339   -1.41381994
     atom    7 type  4   force =     6.34412971   -3.66278470   -5.84940732
     atom    8 type  4   force =    -0.00003463    7.32552175   -5.84937638
     atom    9 type  4   force =    -6.34410499   -3.66273132   -5.84937638
     atom   10 type  4   force =     6.34410499    3.66273132    5.84937638
     atom   11 type  4   force =     0.00003463   -7.32552175    5.84937638
     atom   12 type  4   force =    -6.34412970    3.66278470    5.84940732
     atom   13 type  4   force =     0.00000000   -0.00000000    0.00000000
     atom   14 type  4   force =    -0.00000000   -0.00000000   -0.00000000
     atom   15 type  4   force =    -0.00000000    0.00000000    0.00000000
     The local contribution  to forces
     atom    1 type  1   force =     0.00025652    0.00004612   -0.00053204
     atom    2 type  1   force =     0.00006090    0.00047162    3.03797139
     atom    3 type  1   force =     0.00001750   -0.00005139   -3.03820259
     atom    4 type  2   force =     0.00000296    0.00000088    0.00000024
     atom    5 type  3   force =     0.00003848    0.00017491   -1.43620786
     atom    6 type  3   force =    -0.00005737   -0.00018506    1.43620592
     atom    7 type  4   force =    -6.07362914    3.50658391    5.77001773
     atom    8 type  4   force =     0.00001764   -7.01317271    5.76999758
     atom    9 type  4   force =     6.07357867    3.50653801    5.76996627
     atom   10 type  4   force =    -6.07358035   -3.50654311   -5.76997271
     atom   11 type  4   force =    -0.00001059    7.01317711   -5.76999249
     atom   12 type  4   force =     6.07362133   -3.50657729   -5.77000953
     atom   13 type  4   force =    -0.00000369    0.00000260   -0.00000355
     atom   14 type  4   force =     0.00000215    0.00000436   -0.00000768
     atom   15 type  4   force =     0.00000441   -0.00000503   -0.00000804
     The core correction contribution to forces
     atom    1 type  1   force =     0.00000500    0.00000196   -0.00000897
     atom    2 type  1   force =     0.00000236    0.00001031   -0.00083478
     atom    3 type  1   force =     0.00000716    0.00000122    0.00082876
     atom    4 type  2   force =    -0.00000011   -0.00000004    0.00000000
     atom    5 type  3   force =     0.00000109    0.00000223   -0.01077996
     atom    6 type  3   force =    -0.00000125   -0.00000233    0.01077980
     atom    7 type  4   force =     0.00205762   -0.00118782   -0.00016068
     atom    8 type  4   force =     0.00000002    0.00237587   -0.00016060
     atom    9 type  4   force =    -0.00205766   -0.00118788   -0.00016081
     atom   10 type  4   force =     0.00205770    0.00118790    0.00016084
     atom   11 type  4   force =    -0.00000003   -0.00237582    0.00016060
     atom   12 type  4   force =    -0.00205764    0.00118784    0.00016070
     atom   13 type  4   force =     0.00000000    0.00000003   -0.00000002
     atom   14 type  4   force =     0.00000005    0.00000006   -0.00000003
     atom   15 type  4   force =     0.00000003   -0.00000003   -0.00000003
     The Hubbard contrib.    to forces
     atom    1 type  1   force =     0.00000000    0.00000000    0.00000000
     atom    2 type  1   force =     0.00000000    0.00000000    0.00000000
     atom    3 type  1   force =     0.00000000    0.00000000    0.00000000
     atom    4 type  2   force =     0.00000000    0.00000000    0.00000000
     atom    5 type  3   force =     0.00000000    0.00000000    0.00000000
     atom    6 type  3   force =     0.00000000    0.00000000    0.00000000
     atom    7 type  4   force =     0.00000000    0.00000000    0.00000000
     atom    8 type  4   force =     0.00000000    0.00000000    0.00000000
     atom    9 type  4   force =     0.00000000    0.00000000    0.00000000
     atom   10 type  4   force =     0.00000000    0.00000000    0.00000000
     atom   11 type  4   force =     0.00000000    0.00000000    0.00000000
     atom   12 type  4   force =     0.00000000    0.00000000    0.00000000
     atom   13 type  4   force =     0.00000000    0.00000000    0.00000000
     atom   14 type  4   force =     0.00000000    0.00000000    0.00000000
     atom   15 type  4   force =     0.00000000    0.00000000    0.00000000
     The SCF correction term to forces
     atom    1 type  1   force =    -0.00003778   -0.00000461    0.00007202
     atom    2 type  1   force =    -0.00003456   -0.00008372   -0.00005475
     atom    3 type  1   force =     0.00003621    0.00003197    0.00008052
     atom    4 type  2   force =    -0.00000303   -0.00000074   -0.00000036
     atom    5 type  3   force =    -0.00009959   -0.00013768    0.00019322
     atom    6 type  3   force =     0.00012084    0.00014703   -0.00019337
     atom    7 type  4   force =     0.00007294   -0.00000473   -0.00008296
     atom    8 type  4   force =     0.00001896    0.00006920   -0.00008292
     atom    9 type  4   force =    -0.00005397   -0.00001810   -0.00007347
     atom   10 type  4   force =     0.00005501    0.00002388    0.00008071
     atom   11 type  4   force =    -0.00002623   -0.00007022    0.00007694
     atom   12 type  4   force =    -0.00006672   -0.00000051    0.00007415
     atom   13 type  4   force =     0.00000357   -0.00000204    0.00000419
     atom   14 type  4   force =    -0.00000076   -0.00000229    0.00000657
     atom   15 type  4   force =    -0.00000325    0.00000337    0.00000528

     Total force =     0.136044     Total SCF correction =     0.000481

     Computing stress (Cartesian axis) and pressure

          total   stress  (Ry/bohr**3)                   (kbar)     P=     -245.42
  -0.00120530  -0.00000000   0.00000000         -177.31       -0.00        0.00
  -0.00000000  -0.00120530   0.00000000           -0.00     -177.31        0.00
   0.00000000   0.00000000  -0.00259439            0.00        0.00     -381.65

     kinetic stress (kbar)  20181.72      0.00      0.00
                                0.00  20181.72      0.00
                                0.00      0.00  19832.90

     local   stress (kbar) -10215.77     -0.01      0.00
                               -0.01 -10215.80     -0.01
                                0.00     -0.01  -8075.53

     nonloc. stress (kbar)   6228.63      0.00      0.00
                                0.00   6228.63      0.00
                                0.00      0.00   6237.86

     hartree stress (kbar)   5718.59      0.01      0.00
                                0.01   5718.60      0.01
                                0.00      0.01   4828.90

     exc-cor stress (kbar)   2955.09     -0.00     -0.00
                               -0.00   2955.09     -0.00
                               -0.00     -0.00   2956.85

     corecor stress (kbar)  -7505.69      0.00      0.00
                                0.00  -7505.69      0.00
                                0.00      0.00  -7503.26

     ewald   stress (kbar) -17539.87      0.01     -0.00
                                0.01 -17539.86      0.00
                               -0.00      0.00 -18659.36

     hubbard stress (kbar)      0.00      0.00      0.00
                                0.00      0.00      0.00
                                0.00      0.00      0.00

     DFT-D   stress (kbar)      0.00      0.00      0.00
                                0.00      0.00      0.00
                                0.00      0.00      0.00

     XDM     stress (kbar)      0.00      0.00      0.00
                                0.00      0.00      0.00
                                0.00      0.00      0.00

     dft-nl  stress (kbar)      0.00      0.00      0.00
                                0.00      0.00      0.00
                                0.00      0.00      0.00

     TS-vdW  stress (kbar)      0.00      0.00      0.00
                                0.00      0.00      0.00
                                0.00      0.00      0.00

[...]

                                0.00      0.00      0.00

     Writing all to output data dir calculations/myprefix.save/

     General routines

     Parallel routines

     PAW routines

   This run was terminated on:  11:56:23   6Mar2023

   JOB DONE.