     Program PWSCF v.7.0 starts on  4Mar2023 at 19:46:59

     R & G space division:  proc/nbgrp/npool/nimage =      32

     Reading input from espresso_7442.pwi
Warning: card &CELL ignored
Warning: card / ignored

     Current dimensions of program PWSCF are:
     Max number of different atomic species (ntypx) = 10
     Max number of k-points (npk) =  40000
     Max angular momentum in pseudopotentials (lmaxx) =  4
     file K.pbe-spn-kjpaw_psl.1.0.0.UPF: wavefunction(s)  3S renormalized

     gamma-point specific algorithms are used
     Message from routine setup:
     using ibrav=0 with symmetry is DISCOURAGED, use correct ibrav instead

     Using Slab Decomposition

     bravais-lattice index     =            0
     lattice parameter (alat)  =      15.3637  a.u.
     unit-cell volume          =    2564.3121 (a.u.)^3
     number of atoms/cell      =           10
     number of atomic types    =            4
     number of electrons       =        84.00
     number of Kohn-Sham states=           50
     kinetic-energy cutoff     =      30.0000  Ry
     charge density cutoff     =     240.0000  Ry
     scf convergence threshold =      1.0E-06
     mixing beta               =       0.7000
     number of iterations used =            8  plain     mixing
     Exchange-correlation=  SLA  PW   PBX  PBC
                           (   1   4   3   4   0   0   0)

     celldm(1)=  15.363681  celldm(2)=   0.000000  celldm(3)=   0.000000
     celldm(4)=   0.000000  celldm(5)=   0.000000  celldm(6)=   0.000000

     crystal axes: (cart. coord. in units of alat)
               a(1) = (   1.000000   0.000000   0.000000 )
               a(2) = (   0.500000   0.866025   0.000000 )
               a(3) = (   0.500000   0.288675   0.816497 )

     reciprocal axes: (cart. coord. in units 2 pi/alat)
               b(1) = (  1.000000 -0.577350 -0.408248 )
               b(2) = (  0.000000  1.154701 -0.408248 )
               b(3) = (  0.000000  0.000000  1.224745 )

     PseudoPot. # 1 for K  read from file:
     /home/pragov/projects/rrg-bengioy-ad/pragov/crystal_structure_design/SSSP/K.pbe-spn-kjpaw_psl.1.0.0.UPF
     MD5 check sum: 7d58810084cac21f60fbe77ea2b688fd
     Pseudo is Projector augmented-wave + core cor, Zval =  9.0
     Generated using "atomic" code by A. Dal Corso  v.5.1
     Shape of augmentation charge: PSQ
     Using radial grid of 1165 points,  6 beta functions with:
                l(1) =   0
                l(2) =   0
                l(3) =   1
                l(4) =   1
                l(5) =   2
                l(6) =   2
     Q(r) pseudized with 0 coefficients

     PseudoPot. # 2 for Na read from file:
     /home/pragov/projects/rrg-bengioy-ad/pragov/crystal_structure_design/SSSP/na_pbe_v1.5.uspp.F.UPF
     MD5 check sum: 44600605ef58000f06b90626533354dc
     Pseudo is Ultrasoft, Zval =  9.0
     Generated by new atomic code, or converted to UPF format
     Using radial grid of  819 points,  5 beta functions with:
                l(1) =   0
                l(2) =   0
                l(3) =   1
                l(4) =   1
                l(5) =   2
     Q(r) pseudized with  8 coefficients,  rinner =    1.250   1.250   1.250
                                                       1.250   1.250

     PseudoPot. # 3 for Bi read from file:
     /home/pragov/projects/rrg-bengioy-ad/pragov/crystal_structure_design/SSSP/Bi_pbe_v1.uspp.F.UPF
     MD5 check sum: cceb9f28ec65b6d7ff33140f5b0b1758
     Pseudo is Ultrasoft + core correction, Zval = 15.0
     Generated by new atomic code, or converted to UPF format
     Using radial grid of  899 points,  6 beta functions with:
                l(1) =   0
                l(2) =   0
                l(3) =   1
                l(4) =   1
                l(5) =   2
                l(6) =   2
     Q(r) pseudized with  6 coefficients,  rinner =    1.000   1.000   1.000
                                                       1.000   1.000

     PseudoPot. # 4 for Br read from file:
     /home/pragov/projects/rrg-bengioy-ad/pragov/crystal_structure_design/SSSP/br_pbe_v1.4.uspp.F.UPF
     MD5 check sum: d3ffb7b29f6225aa16fe06858fb2a80b
     Pseudo is Ultrasoft + core correction, Zval =  7.0
     Generated by new atomic code, or converted to UPF format
     Using radial grid of  879 points,  6 beta functions with:
                l(1) =   0
                l(2) =   0
                l(3) =   1
                l(4) =   1
                l(5) =   2
                l(6) =   2
     Q(r) pseudized with  8 coefficients,  rinner =    1.100   1.100   1.100
                                                       1.100   1.100

     atomic species   valence    mass     pseudopotential
        K              9.00    39.09830     K ( 1.00)
        Na             9.00    22.98977     Na( 1.00)
        Bi            15.00   208.98040     Bi( 1.00)
        Br             7.00    79.90400     Br( 1.00)

     12 Sym. Ops., with inversion, found

                                    s                        frac. trans.

      isym =  1     identity

 cryst.   s( 1) = (     1          0          0      )
                  (     0          1          0      )
                  (     0          0          1      )

 cart.    s( 1) = (  1.0000000  0.0000000  0.0000000 )
                  (  0.0000000  1.0000000 -0.0000000 )
                  (  0.0000000  0.0000000  1.0000000 )

      isym =  2     180 deg rotation - cart. axis [1,0,0]

[...]

      isym =  3     120 deg rotation - cryst. axis [0,0,1]

[...]

      isym =  6     180 deg rotation - cryst. axis [1,1,0]

[...]

      isym =  7     inversion

[...]

      isym =  8     inv. 180 deg rotation - cart. axis [1,0,0]

[...]

      isym =  9     inv. 120 deg rotation - cryst. axis [0,0,1]

 cryst.   s( 9) = (     1         -1          0      )
                  (     1          0          0      )
                  (     1          0         -1      )

 cart.    s( 9) = (  0.5000000  0.8660254 -0.0000000 )
                  ( -0.8660254  0.5000000  0.0000000 )
                  (  0.0000000  0.0000000 -1.0000000 )

[...]

 cryst.   s(10) = (     0          1          0      )
                  (    -1          1          0      )
                  (     0          1         -1      )

 cart.    s(10) = (  0.5000000 -0.8660254 -0.0000000 )
                  (  0.8660254  0.5000000 -0.0000000 )
                  (  0.0000000  0.0000000 -1.0000000 )

[...]

      isym = 12     inv. 180 deg rotation - cryst. axis [1,1,0]

 cryst.   s(12) = (     1         -1          0      )
                  (     0         -1          0      )
                  (     0         -1          1      )

 cart.    s(12) = (  0.5000000 -0.8660254  0.0000000 )
                  ( -0.8660254 -0.5000000  0.0000000 )
                  (  0.0000000  0.0000000  1.0000000 )

   Cartesian axes

     site n.     atom                  positions (alat units)
         1           K   tau(   1) = (   1.5000000   0.8660254   0.6123724  )
         2           K   tau(   2) = (   0.5000000   0.2886751   0.2041241  )
         3           Na  tau(   3) = (   1.0000000   0.5773503   0.4082483  )
         4           Bi  tau(   4) = (   0.0000000   0.0000000   0.0000000  )
         5           Br  tau(   5) = (   1.0000000   0.2871198   0.2030243  )
         6           Br  tau(   6) = (   0.7486530   0.4322350   0.6134723  )
         7           Br  tau(   7) = (   1.0000000   0.8675808   0.6134723  )
         8           Br  tau(   8) = (   0.7486530   0.7224655   0.2030243  )
         9           Br  tau(   9) = (   1.2513470   0.4322350   0.6134723  )
        10           Br  tau(  10) = (   1.2513470   0.7224655   0.2030243  )

   Crystallographic axes

     site n.     atom                  positions (cryst. coord.)
         1           K   tau(   1) = (  0.7500000  0.7500000  0.7500000  )
         2           K   tau(   2) = (  0.2500000  0.2500000  0.2500000  )
         3           Na  tau(   3) = (  0.5000000  0.5000000  0.5000000  )
         4           Bi  tau(   4) = (  0.0000000  0.0000000  0.0000000  )
         5           Br  tau(   5) = (  0.7513470  0.2486530  0.2486530  )
         6           Br  tau(   6) = (  0.2486530  0.2486530  0.7513470  )
         7           Br  tau(   7) = (  0.2486530  0.7513470  0.7513470  )
         8           Br  tau(   8) = (  0.2486530  0.7513470  0.2486530  )
         9           Br  tau(   9) = (  0.7513470  0.2486530  0.7513470  )
        10           Br  tau(  10) = (  0.7513470  0.7513470  0.2486530  )

     number of k points=     1  Methfessel-Paxton smearing, width (Ry)=  0.0010
                       cart. coord. in units 2pi/alat
        k(    1) = (   0.0000000   0.0000000   0.0000000), wk =   2.0000000

                       cryst. coord.
        k(    1) = (   0.0000000   0.0000000   0.0000000), wk =   2.0000000

     Check: negative core charge=   -0.000003

     Initial potential from superposition of free atoms

     starting charge      82.9559, renormalised to      84.0000

     negative rho (up, down):  4.158E-02 0.000E+00
     Starting wfcs are   54 randomized atomic wfcs
     Checking if some PAW data can be deallocated...

     Self-consistent Calculation

     iteration #  1     ecut=    30.00 Ry     beta= 0.70
     Davidson diagonalization with overlap

     ethr =  1.00E-02,  avg # of iterations =  3.0

     Threshold (ethr) on eigenvalues was too large:
     Diagonalizing with lowered threshold

     Davidson diagonalization with overlap

[...]

     negative rho (up, down):  3.981E-02 0.000E+00

     total energy              =    -788.39651698 Ry
     estimated scf accuracy    <       0.40719976 Ry

[...]

     c_bands:  1 eigenvalues not converged
     ethr =  8.30E-05,  avg # of iterations = 20.0

[...]

     total energy              =    -788.51575601 Ry
     estimated scf accuracy    <       0.00000263 Ry

     iteration #  7     ecut=    30.00 Ry     beta= 0.70
     Davidson diagonalization with overlap

     ethr =  3.13E-09,  avg # of iterations =  3.0

[...]

     End of self-consistent calculation

          k = 0.0000 0.0000 0.0000 (  3560 PWs)   bands (ev):

   -48.8027 -27.9947 -27.9945 -20.8431 -20.8431 -20.8301 -20.8301 -20.8300
   -20.7146 -20.7146 -20.7145 -11.9885 -11.4466 -11.4466 -11.4466 -11.4440
   -11.4440 -11.4440 -11.3792 -11.3791 -11.3791 -11.1896 -11.1895  -7.9212
    -1.4751  -1.4751  -1.4751  -0.1152  -0.1152  -0.1152   0.3915   0.6506
     0.6506   0.8957   0.8958   0.8958   0.9669   0.9669   0.9669   1.4389
     1.4389   1.4389   4.9747   4.9747   4.9747   5.3353   6.5148   7.6060
     7.6060   8.2088

     occupation numbers
     1.0000   1.0000   1.0000   1.0000   1.0000   1.0000   1.0000   1.0000
     1.0000   1.0000   1.0000   1.0000   1.0000   1.0000   1.0000   1.0000
     1.0000   1.0000   1.0000   1.0000   1.0000   1.0000   1.0000   1.0000
     1.0000   1.0000   1.0000   1.0000   1.0000   1.0000   1.0000   1.0000
     1.0000   1.0000   1.0000   1.0000   1.0000   1.0000   1.0000   1.0000
     1.0000   1.0000  -0.0000  -0.0000  -0.0000  -0.0000  -0.0000  -0.0000
    -0.0000  -0.0000

     the Fermi energy is     4.7646 ev

!    total energy              =    -788.51575682 Ry
     estimated scf accuracy    <       0.00000016 Ry
     smearing contrib. (-TS)   =       0.00000000 Ry
     internal energy E=F+TS    =    -788.51575682 Ry

     The total energy is F=E-TS. E is the sum of the following terms:
     one-electron contribution =    -276.03929090 Ry
     hartree contribution      =     166.63786744 Ry
     xc contribution           =    -258.62594817 Ry
     ewald contribution        =    -309.65528288 Ry
     one-center paw contrib.   =    -110.83310230 Ry
      -> PAW hartree energy AE =      37.51199045 Ry
      -> PAW hartree energy PS =     -37.30203178 Ry
      -> PAW xc energy AE      =     -66.19540628 Ry
      -> PAW xc energy PS      =      10.56889646 Ry
      -> total E_H with PAW    =     166.84782611 Ry
      -> total E_XC with PAW   =    -314.25245799 Ry

     convergence has been achieved in   7 iterations

     negative rho (up, down):  4.032E-02 0.000E+00

     Forces acting on atoms (cartesian axes, Ry/au):

     atom    1 type  1   force =    -0.00000000    0.00000000    0.00001098
     atom    2 type  1   force =     0.00000000   -0.00000000   -0.00001098
     atom    3 type  2   force =    -0.00000000   -0.00000000    0.00000000
     atom    4 type  3   force =     0.00000000    0.00000000   -0.00000000
     atom    5 type  4   force =     0.00000000   -0.00878433   -0.00621054
     atom    6 type  4   force =    -0.00760746   -0.00439217    0.00621054
     atom    7 type  4   force =     0.00000000    0.00878433    0.00621054
     atom    8 type  4   force =    -0.00760746    0.00439217   -0.00621054
     atom    9 type  4   force =     0.00760746   -0.00439217    0.00621054
     atom   10 type  4   force =     0.00760746    0.00439217   -0.00621054
     The non-local contrib.  to forces
     atom    1 type  1   force =    -0.00000000   -0.00000000    0.00001271
     atom    2 type  1   force =     0.00000000   -0.00000000   -0.00001271
     atom    3 type  2   force =     0.00000000    0.00000000   -0.00000000
     atom    4 type  3   force =     0.00000000    0.00000000   -0.00000000
     atom    5 type  4   force =     0.00000000    0.01777763    0.01253345
     atom    6 type  4   force =     0.01539588    0.00888882   -0.01253345
     atom    7 type  4   force =     0.00000000   -0.01777763   -0.01253345
     atom    8 type  4   force =     0.01539588   -0.00888882    0.01253345
     atom    9 type  4   force =    -0.01539588    0.00888882   -0.01253345
     atom   10 type  4   force =    -0.01539588   -0.00888882    0.01253345
     The ionic contribution  to forces
     atom    1 type  1   force =    -0.00000000   -0.00000000   -0.00000000
     atom    2 type  1   force =    -0.00000000   -0.00000000   -0.00000000
     atom    3 type  2   force =    -0.00000000    0.00000000    0.00000000
     atom    4 type  3   force =    -0.00000000    0.00000000    0.00000000
     atom    5 type  4   force =    -0.00000000    1.98988461    1.40706090
     atom    6 type  4   force =     1.72329062    0.99494230   -1.40706090
     atom    7 type  4   force =     0.00000000   -1.98988461   -1.40706090
     atom    8 type  4   force =     1.72329062   -0.99494230    1.40706090
     atom    9 type  4   force =    -1.72329062    0.99494230   -1.40706090
     atom   10 type  4   force =    -1.72329062   -0.99494230    1.40706090
     The local contribution  to forces
     atom    1 type  1   force =    -0.00006110   -0.00008187    0.00014628
     atom    2 type  1   force =    -0.00005687    0.00010508   -0.00007125
     atom    3 type  2   force =     0.00001320   -0.00000299   -0.00004270
     atom    4 type  3   force =    -0.00015499   -0.00016395   -0.00002326
     atom    5 type  4   force =    -0.00003986   -2.02662059   -1.43316039
     atom    6 type  4   force =    -1.75523485   -1.01336049    1.43314377
     atom    7 type  4   force =     0.00001390    2.02672048    1.43322846
     atom    8 type  4   force =    -1.75518456    1.01323767   -1.43317150
     atom    9 type  4   force =     1.75518366   -1.01333386    1.43315067
     atom   10 type  4   force =     1.75522029    1.01331182   -1.43319676
     The core correction contribution to forces
     atom    1 type  1   force =    -0.00000065   -0.00000073    0.00000034
     atom    2 type  1   force =    -0.00000177    0.00000006    0.00000018
     atom    3 type  2   force =     0.00000000    0.00000000    0.00000000
     atom    4 type  3   force =    -0.00000189   -0.00000251   -0.00000003
     atom    5 type  4   force =    -0.00000238    0.01045762    0.00738854
     atom    6 type  4   force =     0.00904970    0.00522457   -0.00738911
     atom    7 type  4   force =    -0.00000033   -0.01045532   -0.00738706
     atom    8 type  4   force =     0.00905365   -0.00523090    0.00738752
     atom    9 type  4   force =    -0.00905086    0.00522864   -0.00738710
     atom   10 type  4   force =    -0.00904642   -0.00522574    0.00738286
     The Hubbard contrib.    to forces
     atom    1 type  1   force =     0.00000000    0.00000000    0.00000000
     atom    2 type  1   force =     0.00000000    0.00000000    0.00000000
     atom    3 type  2   force =     0.00000000    0.00000000    0.00000000
     atom    4 type  3   force =     0.00000000    0.00000000    0.00000000
     atom    5 type  4   force =     0.00000000    0.00000000    0.00000000
     atom    6 type  4   force =     0.00000000    0.00000000    0.00000000
     atom    7 type  4   force =     0.00000000    0.00000000    0.00000000
     atom    8 type  4   force =     0.00000000    0.00000000    0.00000000
     atom    9 type  4   force =     0.00000000    0.00000000    0.00000000
     atom   10 type  4   force =     0.00000000    0.00000000    0.00000000
     The SCF correction term to forces
     atom    1 type  1   force =     0.00005975    0.00008368   -0.00014301
     atom    2 type  1   force =     0.00003821   -0.00010640    0.00007814
     atom    3 type  2   force =     0.00002319    0.00011997    0.00008292
     atom    4 type  3   force =     0.00018494    0.00021985    0.00003108
     atom    5 type  4   force =     0.00006662   -0.00031410   -0.00004028
     atom    6 type  4   force =    -0.00009945   -0.00007806    0.00007629
     atom    7 type  4   force =    -0.00001701    0.00019349   -0.00003939
     atom    8 type  4   force =    -0.00015693    0.00024598   -0.00001662
     atom    9 type  4   force =     0.00014017   -0.00013050    0.00003877
     atom   10 type  4   force =     0.00008767    0.00013874    0.00003260

     Total force =     0.026352     Total SCF correction =     0.000687

     Computing stress (Cartesian axis) and pressure

     negative rho (up, down):  4.032E-02 0.000E+00
          total   stress  (Ry/bohr**3)                   (kbar)     P=       12.81
   0.00008708  -0.00000000  -0.00000000           12.81       -0.00       -0.00
  -0.00000000   0.00008708   0.00000000           -0.00       12.81        0.00
   0.00000000   0.00000000   0.00008708            0.00        0.00       12.81

     kinetic stress (kbar)   4960.19     -0.00     -0.00
                                0.00   4960.19      0.00
                               -0.00      0.00   4960.19

     local   stress (kbar)   1391.63      0.00      0.00
                                0.00   1391.62      0.01
                                0.00      0.01   1391.64

     nonloc. stress (kbar)  -1519.30     -0.00     -0.00
                               -0.00  -1519.30     -0.00
                               -0.00     -0.00  -1519.30

     hartree stress (kbar)   3186.47     -0.00      0.00
                               -0.00   3186.47     -0.00
                                0.00     -0.00   3186.46

     exc-cor stress (kbar)   8039.89     -0.00     -0.00
                               -0.00   8039.89     -0.00
                               -0.00     -0.00   8039.89

     corecor stress (kbar) -10124.81      0.00      0.00
                                0.00 -10124.81     -0.00
                                0.00     -0.00 -10124.81

     ewald   stress (kbar)  -5921.26      0.00      0.00
                                0.00  -5921.26      0.00
                                0.00      0.00  -5921.26

     hubbard stress (kbar)      0.00      0.00      0.00
                                0.00      0.00      0.00
                                0.00      0.00      0.00

     DFT-D   stress (kbar)      0.00      0.00      0.00
                                0.00      0.00      0.00
                                0.00      0.00      0.00

     XDM     stress (kbar)      0.00      0.00      0.00
                                0.00      0.00      0.00
                                0.00      0.00      0.00

     dft-nl  stress (kbar)      0.00      0.00      0.00
                                0.00      0.00      0.00
                                0.00      0.00      0.00

     TS-vdW  stress (kbar)      0.00      0.00      0.00
                                0.00      0.00      0.00
                                0.00      0.00      0.00

[...]

                                0.00      0.00      0.00

     Writing all to output data dir calculations/myprefix.save/

     General routines

     Parallel routines

     PAW routines

   This run was terminated on:  19:47: 2   4Mar2023

   JOB DONE.