     Program PWSCF v.7.0 starts on  4Mar2023 at 18:44:59

     R & G space division:  proc/nbgrp/npool/nimage =      32

     Reading input from espresso_7270.pwi
Warning: card &CELL ignored
Warning: card / ignored

     Current dimensions of program PWSCF are:
     Max number of different atomic species (ntypx) = 10
     Max number of k-points (npk) =  40000
     Max angular momentum in pseudopotentials (lmaxx) =  4
     file O.pbe-n-kjpaw_psl.0.1.UPF: wavefunction(s)  2P renormalized

     gamma-point specific algorithms are used
     Message from routine setup:
     using ibrav=0 with symmetry is DISCOURAGED, use correct ibrav instead

     Using Slab Decomposition

     bravais-lattice index     =            0
     lattice parameter (alat)  =       7.2307  a.u.
     unit-cell volume          =     582.5112 (a.u.)^3
     number of atoms/cell      =            5
     number of atomic types    =            3
     number of electrons       =        60.00
     number of Kohn-Sham states=           36
     kinetic-energy cutoff     =      30.0000  Ry
     charge density cutoff     =     240.0000  Ry
     scf convergence threshold =      1.0E-06
     mixing beta               =       0.7000
     number of iterations used =            8  plain     mixing
     Exchange-correlation= SLA  PW   PBX  PBC
                           (   1   4   3   4   0   0   0)

     celldm(1)=   7.230742  celldm(2)=   0.000000  celldm(3)=   0.000000
     celldm(4)=   0.000000  celldm(5)=   0.000000  celldm(6)=   0.000000

     crystal axes: (cart. coord. in units of alat)
               a(1) = (   1.000000   0.000000   0.000000 )
               a(2) = (  -0.500000   0.866025   0.000000 )
               a(3) = (   0.000000   0.000000   1.779201 )

     reciprocal axes: (cart. coord. in units 2 pi/alat)
               b(1) = (  1.000000  0.577350  0.000000 )
               b(2) = (  0.000000  1.154701  0.000000 )
               b(3) = (  0.000000  0.000000  0.562050 )

     PseudoPot. # 1 for Ho read from file:
     /home/pragov/projects/rrg-bengioy-ad/pragov/crystal_structure_design/SSSP/Ho.GGA-PBE-paw-v1.0.UPF
     MD5 check sum: 3d93cae5f38e6cc822e0e70538981326
     Pseudo is Projector augmented-wave + core cor, Zval = 21.0
     Generated using ATOMPAW code
     Shape of augmentation charge: BESSEL
     Using radial grid of 1114 points,  8 beta functions with:
                l(1) =   0
                l(2) =   0
                l(3) =   1
                l(4) =   1
                l(5) =   2
                l(6) =   2
                l(7) =   3
                l(8) =   3
     Q(r) pseudized with 0 coefficients

     PseudoPot. # 2 for Se read from file:
     /home/pragov/projects/rrg-bengioy-ad/pragov/crystal_structure_design/SSSP/Se_pbe_v1.uspp.F.UPF
     MD5 check sum: 1b3568f3a8ae88f9a2a0ad0698632c85
     Pseudo is Ultrasoft + core correction, Zval =  6.0
     Generated by new atomic code, or converted to UPF format
     Using radial grid of  877 points,  6 beta functions with:
                l(1) =   0
                l(2) =   0
                l(3) =   1
                l(4) =   1
                l(5) =   2
                l(6) =   2
     Q(r) pseudized with  8 coefficients,  rinner =    1.300   1.300   1.300
                                                       1.300   1.300

     PseudoPot. # 3 for O  read from file:
     /home/pragov/projects/rrg-bengioy-ad/pragov/crystal_structure_design/SSSP/O.pbe-n-kjpaw_psl.0.1.UPF
     MD5 check sum: 0234752ac141de4415c5fc33072bef88
     Pseudo is Projector augmented-wave + core cor, Zval =  6.0
     Generated using "atomic" code by A. Dal Corso  v.5.0.99 svn rev. 10869
     Shape of augmentation charge: BESSEL
     Using radial grid of 1095 points,  4 beta functions with:
                l(1) =   0
                l(2) =   0
                l(3) =   1
                l(4) =   1
     Q(r) pseudized with 0 coefficients

     atomic species   valence    mass     pseudopotential
        Ho            21.00   164.93033     Ho( 1.00)
        Se             6.00    78.97100     Se( 1.00)
        O              6.00    15.99900     O ( 1.00)

     12 Sym. Ops., with inversion, found

                                    s                        frac. trans.

      isym =  1     identity

 cryst.   s( 1) = (     1          0          0      )
                  (     0          1          0      )
                  (     0          0          1      )

 cart.    s( 1) = (  1.0000000  0.0000000  0.0000000 )
                  (  0.0000000  1.0000000  0.0000000 )
                  (  0.0000000  0.0000000  1.0000000 )

      isym =  2     180 deg rotation - cart. axis [1,0,0]

[...]

      isym =  3     120 deg rotation - cryst. axis [0,0,1]

[...]

      isym =  6     180 deg rotation - cryst. axis [1,1,0]

[...]

      isym =  7     inversion

[...]

      isym =  8     inv. 180 deg rotation - cart. axis [1,0,0]

[...]

      isym =  9     inv. 120 deg rotation - cryst. axis [0,0,1]

 cryst.   s( 9) = (     0         -1          0      )
                  (     1          1          0      )
                  (     0          0         -1      )

 cart.    s( 9) = (  0.5000000  0.8660254  0.0000000 )
                  ( -0.8660254  0.5000000  0.0000000 )
                  (  0.0000000  0.0000000 -1.0000000 )

[...]

 cryst.   s(10) = (     1          1          0      )
                  (    -1          0          0      )
                  (     0          0         -1      )

 cart.    s(10) = (  0.5000000 -0.8660254  0.0000000 )
                  (  0.8660254  0.5000000  0.0000000 )
                  (  0.0000000  0.0000000 -1.0000000 )

[...]

      isym = 12     inv. 180 deg rotation - cryst. axis [1,1,0]

 cryst.   s(12) = (     0         -1          0      )
                  (    -1          0          0      )
                  (     0          0          1      )

 cart.    s(12) = (  0.5000000 -0.8660254  0.0000000 )
                  ( -0.8660254 -0.5000000  0.0000000 )
                  (  0.0000000  0.0000000  1.0000000 )

   Cartesian axes

     site n.     atom                  positions (alat units)
         1           Ho  tau(   1) = (   0.5000005   0.2886749   1.2607009  )
         2           Ho  tau(   2) = (  -0.0000005   0.5773506   0.5185001  )
         3           Se  tau(   3) = (   0.0000000   0.0000000   0.0000000  )
         4           O   tau(   4) = (   0.5000005   0.2886749   0.6661364  )
         5           O   tau(   5) = (  -0.0000005   0.5773506   1.1130646  )

   Crystallographic axes

     site n.     atom                  positions (cryst. coord.)
         1           Ho  tau(   1) = (  0.6666670  0.3333330  0.7085770  )
         2           Ho  tau(   2) = (  0.3333330  0.6666670  0.2914230  )
         3           Se  tau(   3) = (  0.0000000  0.0000000  0.0000000  )
         4           O   tau(   4) = (  0.6666670  0.3333330  0.3744020  )
         5           O   tau(   5) = (  0.3333330  0.6666670  0.6255980  )

     number of k points=     1  Methfessel-Paxton smearing, width (Ry)=  0.0010
                       cart. coord. in units 2pi/alat
        k(    1) = (   0.0000000   0.0000000   0.0000000), wk =   2.0000000

                       cryst. coord.
        k(    1) = (   0.0000000   0.0000000   0.0000000), wk =   2.0000000

     Check: negative core charge=   -0.000007

     Initial potential from superposition of free atoms

     starting charge      59.9914, renormalised to      60.0000
     Starting wfcs are   76 randomized atomic wfcs
     Checking if some PAW data can be deallocated...

     Self-consistent Calculation

     iteration #  1     ecut=    30.00 Ry     beta= 0.70
     Davidson diagonalization with overlap

     ethr =  1.00E-02,  avg # of iterations =  2.0

     total energy              =   -1776.34044765 Ry
     estimated scf accuracy    <       9.58596574 Ry

[...]

     negative rho (up, down):  5.688E-05 0.000E+00

[...]

     negative rho (up, down):  1.555E-04 0.000E+00

[...]

     total energy              =   -1786.18087438 Ry
     estimated scf accuracy    <       0.00000106 Ry

     iteration # 47     ecut=    30.00 Ry     beta= 0.70
     Davidson diagonalization with overlap

     ethr =  1.76E-09,  avg # of iterations =  1.0

     End of self-consistent calculation

          k = 0.0000 0.0000 0.0000 (   810 PWs)   bands (ev):

   -33.9313 -33.9001 -10.0014  -9.1665  -9.0135  -9.0135  -8.9320  -8.9320
    -5.5883  -5.4944  -0.6440   7.8886   8.0329   8.0329   8.0380   8.4258
     8.4258  10.6422  10.8606  10.8606  12.0461  12.0888  12.0888  12.1127
    12.1173  12.1608  12.1608  12.2596  12.2596  12.3340  12.3594  12.4187
    12.4188  12.6177  15.1331  16.2263

     occupation numbers
     1.0000   1.0000   1.0000   1.0000   1.0000   1.0000   1.0000   1.0000
     1.0000   1.0000   1.0000   1.0000   1.0000   1.0000   1.0000   1.0000
     1.0000   1.0000   1.0000   1.0000   1.0000   1.0000   1.0000   1.0000
     1.0000   1.0000   1.0000   1.0000   1.0000   1.0166  -0.0166  -0.0000
    -0.0000  -0.0000  -0.0000  -0.0000

     the Fermi energy is    12.3467 ev

!    total energy              =   -1786.18087269 Ry
     estimated scf accuracy    <       0.00000050 Ry
     smearing contrib. (-TS)   =       0.00017463 Ry
     internal energy E=F+TS    =   -1786.18104732 Ry

     The total energy is F=E-TS. E is the sum of the following terms:
     one-electron contribution =    -477.24718625 Ry
     hartree contribution      =     263.63617932 Ry
     xc contribution           =    -105.49106396 Ry
     ewald contribution        =    -479.39200023 Ry
     one-center paw contrib.   =    -987.68697620 Ry
      -> PAW hartree energy AE =     297.36284326 Ry
      -> PAW hartree energy PS =    -271.32730137 Ry
      -> PAW xc energy AE      =    -539.50237156 Ry
      -> PAW xc energy PS      =      29.14474351 Ry
      -> total E_H with PAW    =     289.67172121 Ry
      -> total E_XC with PAW   =    -615.84869201 Ry

     convergence has been achieved in  47 iterations

     Forces acting on atoms (cartesian axes, Ry/au):

     atom    1 type  1   force =     0.00000000   -0.00000000   -0.02322426
     atom    2 type  1   force =     0.00000000    0.00000000    0.02322426
     atom    3 type  2   force =    -0.00000000    0.00000000    0.00000000
     atom    4 type  3   force =     0.00000000    0.00000000   -0.04862939
     atom    5 type  3   force =    -0.00000000   -0.00000000    0.04862939
     The non-local contrib.  to forces
     atom    1 type  1   force =     0.00000000   -0.00000000   -0.51263574
     atom    2 type  1   force =     0.00000000    0.00000000    0.51263574
     atom    3 type  2   force =     0.00000000    0.00000000    0.00000000
     atom    4 type  3   force =     0.00000000    0.00000000   -0.09418726
     atom    5 type  3   force =    -0.00000000   -0.00000000    0.09418726
     The ionic contribution  to forces
     atom    1 type  1   force =    -0.00005501    0.00003176   30.57849988
     atom    2 type  1   force =     0.00005501   -0.00003176  -30.57849988
     atom    3 type  2   force =    -0.00000000    0.00000000    0.00000000
     atom    4 type  3   force =    -0.00004851    0.00002801   -6.59752661
     atom    5 type  3   force =     0.00004851   -0.00002801    6.59752661
     The local contribution  to forces
     atom    1 type  1   force =     0.00004350   -0.00004452  -30.08987358
     atom    2 type  1   force =    -0.00005370    0.00001428   30.08992706
     atom    3 type  2   force =    -0.00000062    0.00000104   -0.00004754
     atom    4 type  3   force =     0.00004684   -0.00002674    6.64189142
     atom    5 type  3   force =    -0.00004419    0.00003063   -6.64180323
     The core correction contribution to forces
     atom    1 type  1   force =     0.00000000   -0.00000000    0.00001378
     atom    2 type  1   force =    -0.00000000   -0.00000000   -0.00001378
     atom    3 type  2   force =    -0.00000002    0.00000026   -0.00000042
     atom    4 type  3   force =     0.00000002    0.00000001    0.00169349
     atom    5 type  3   force =    -0.00000002    0.00000002   -0.00169350
     The Hubbard contrib.    to forces
     atom    1 type  1   force =     0.00000000    0.00000000    0.00000000
     atom    2 type  1   force =     0.00000000    0.00000000    0.00000000
     atom    3 type  2   force =     0.00000000    0.00000000    0.00000000
     atom    4 type  3   force =     0.00000000    0.00000000    0.00000000
     atom    5 type  3   force =     0.00000000    0.00000000    0.00000000
     The SCF correction term to forces
     atom    1 type  1   force =     0.00001497    0.00001711    0.00076873
     atom    2 type  1   force =    -0.00001059    0.00000860   -0.00082756
     atom    3 type  2   force =     0.00000055   -0.00000012    0.00004585
     atom    4 type  3   force =    -0.00000076    0.00000106   -0.00050072
     atom    5 type  3   force =    -0.00000314   -0.00000445    0.00041195

     Total force =     0.076213     Total SCF correction =     0.001303

     Computing stress (Cartesian axis) and pressure

          total   stress  (Ry/bohr**3)                   (kbar)     P=     -195.48
  -0.00112604   0.00000000   0.00000000         -165.65        0.00        0.00
   0.00000000  -0.00112604  -0.00000000            0.00     -165.65       -0.00
  -0.00000000  -0.00000000  -0.00173449           -0.00       -0.00     -255.15

     kinetic stress (kbar)  14851.64     -0.00      0.00
                               -0.00  14851.64      0.00
                                0.00      0.00  14610.26

     local   stress (kbar) -13591.45     -0.15      0.04
                               -0.15 -13591.64     -0.04
                                0.04     -0.04  15412.69

     nonloc. stress (kbar)  13740.70     -0.00      0.00
                               -0.00  13740.70      0.00
                                0.00      0.00  13563.27

     hartree stress (kbar)  27002.60      0.06     -0.01
                                0.06  27002.67      0.01
                               -0.01      0.01  12572.37

     exc-cor stress (kbar)     -1.54      0.00     -0.00
                                0.00     -1.54      0.00
                               -0.00      0.00     -4.58

     corecor stress (kbar)  -6563.12      0.00     -0.00
                                0.00  -6563.12      0.00
                               -0.00      0.00  -6554.25

     ewald   stress (kbar) -35604.48      0.09     -0.02
                                0.09 -35604.38      0.01
                               -0.02      0.01 -49854.91

     hubbard stress (kbar)      0.00      0.00      0.00
                                0.00      0.00      0.00
                                0.00      0.00      0.00

     DFT-D   stress (kbar)      0.00      0.00      0.00
                                0.00      0.00      0.00
                                0.00      0.00      0.00

     XDM     stress (kbar)      0.00      0.00      0.00
                                0.00      0.00      0.00
                                0.00      0.00      0.00

     dft-nl  stress (kbar)      0.00      0.00      0.00
                                0.00      0.00      0.00
                                0.00      0.00      0.00

     TS-vdW  stress (kbar)      0.00      0.00      0.00
                                0.00      0.00      0.00
                                0.00      0.00      0.00

[...]

                                0.00      0.00      0.00

     Writing all to output data dir calculations/myprefix.save/

     General routines

     Parallel routines

     PAW routines

   This run was terminated on:  18:45:13   4Mar2023

   JOB DONE.