     Program PWSCF v.7.0 starts on  3Mar2023 at 12:13:46

     R & G space division:  proc/nbgrp/npool/nimage =      32

     Reading input from espresso_229.pwi
Warning: card &CELL ignored
Warning: card / ignored

     Current dimensions of program PWSCF are:
     Max number of different atomic species (ntypx) = 10
     Max number of k-points (npk) =  40000
     Max angular momentum in pseudopotentials (lmaxx) =  4
     file O.pbe-n-kjpaw_psl.0.1.UPF: wavefunction(s)  2P renormalized

     gamma-point specific algorithms are used

     Using Slab Decomposition

     bravais-lattice index     =            0
     lattice parameter (alat)  =      19.5039  a.u.
     unit-cell volume          =     996.0984 (a.u.)^3
     number of atoms/cell      =           15
     number of atomic types    =            4
     number of electrons       =       114.00
     number of Kohn-Sham states=           68
     kinetic-energy cutoff     =      30.0000  Ry
     charge density cutoff     =     240.0000  Ry
     scf convergence threshold =      1.0E-06
     mixing beta               =       0.7000
     number of iterations used =            8  plain     mixing
     Exchange-correlation= SLA  PW   PBX  PBC
                           (   1   4   3   4   0   0   0)

     celldm(1)=  19.503878  celldm(2)=   0.000000  celldm(3)=   0.000000
     celldm(4)=   0.000000  celldm(5)=   0.000000  celldm(6)=   0.000000

     crystal axes: (cart. coord. in units of alat)
               a(1) = (   1.000000   0.000000   0.000000 )
               a(2) = (   0.835717   0.549160   0.000000 )
               a(3) = (   1.335726   0.399586   0.244479 )

     reciprocal axes: (cart. coord. in units 2 pi/alat)
               b(1) = (  1.000000 -1.521810 -2.976265 )
               b(2) = (  0.000000  1.820964 -2.976258 )
               b(3) = (  0.000000  0.000000  4.090338 )

     PseudoPot. # 1 for Li read from file:
     /home/pragov/projects/rrg-bengioy-ad/pragov/crystal_structure_design/SSSP/li_pbe_v1.4.uspp.F.UPF
     MD5 check sum: e912e257baa3777c20ea3d68f190483c
     Pseudo is Ultrasoft, Zval =  3.0
     Generated by new atomic code, or converted to UPF format
     Using radial grid of  751 points,  5 beta functions with:
                l(1) =   0
                l(2) =   0
                l(3) =   0
                l(4) =   1
                l(5) =   1
     Q(r) pseudized with 10 coefficients,  rinner =    1.150   1.150   1.150

     PseudoPot. # 2 for Mn read from file:
     /home/pragov/projects/rrg-bengioy-ad/pragov/crystal_structure_design/SSSP/mn_pbe_v1.5.uspp.F.UPF
     MD5 check sum: 82ef2b46521d7a7d9e736dc3972e4928
     Pseudo is Ultrasoft + core correction, Zval = 15.0
     Generated by new atomic code, or converted to UPF format
     Using radial grid of  859 points,  6 beta functions with:
                l(1) =   0
                l(2) =   0
                l(3) =   1
                l(4) =   1
                l(5) =   2
                l(6) =   2
     Q(r) pseudized with  8 coefficients,  rinner =    0.950   0.950   0.950
                                                       0.950   0.950

     PseudoPot. # 3 for Cr read from file:
     /home/pragov/projects/rrg-bengioy-ad/pragov/crystal_structure_design/SSSP/cr_pbe_v1.5.uspp.F.UPF
     MD5 check sum: 0d52af634a40206e4dee301ad30da4bf
     Pseudo is Ultrasoft + core correction, Zval = 14.0
     Generated by new atomic code, or converted to UPF format
     Using radial grid of  857 points,  6 beta functions with:
                l(1) =   0
                l(2) =   0
                l(3) =   1
                l(4) =   1
                l(5) =   2
                l(6) =   2
     Q(r) pseudized with  8 coefficients,  rinner =    0.950   0.950   0.950
                                                       0.950   0.950

     PseudoPot. # 4 for O  read from file:
     /home/pragov/projects/rrg-bengioy-ad/pragov/crystal_structure_design/SSSP/O.pbe-n-kjpaw_psl.0.1.UPF
     MD5 check sum: 0234752ac141de4415c5fc33072bef88
     Pseudo is Projector augmented-wave + core cor, Zval =  6.0
     Generated using "atomic" code by A. Dal Corso  v.5.0.99 svn rev. 10869
     Shape of augmentation charge: BESSEL
     Using radial grid of 1095 points,  4 beta functions with:
                l(1) =   0
                l(2) =   0
                l(3) =   1
                l(4) =   1
     Q(r) pseudized with 0 coefficients

     atomic species   valence    mass     pseudopotential
        Li             3.00     6.94000     Li( 1.00)
        Mn            15.00    54.93804     Mn( 1.00)
        Cr            14.00    51.99610     Cr( 1.00)
        O              6.00    15.99900     O ( 1.00)

     No symmetry found

                                    s                        frac. trans.

      isym =  1     identity

 cryst.   s( 1) = (     1          0          0      )
                  (     0          1          0      )
                  (     0          0          1      )

 cart.    s( 1) = (  1.0000000 -0.0000000  0.0000000 )
                  (  0.0000000  1.0000000 -0.0000000 )
                  (  0.0000000  0.0000000  1.0000000 )

   Cartesian axes

     site n.     atom                  positions (alat units)
         1           Li  tau(   1) = (   1.0857216   0.4743724   0.1222388  )
         2           Li  tau(   2) = (   1.1678642   0.1997932   0.1222388  )
         3           Li  tau(   3) = (   1.5857216   0.4743724   0.1222388  )
         4           Mn  tau(   4) = (   0.8357194   0.5491575   0.0000017  )
         5           Cr  tau(   5) = (   0.4178591   0.2745786   0.0000002  )
         6           Cr  tau(   6) = (   0.5000010   0.0000027   0.0000010  )
         7           Cr  tau(   7) = (   0.9178548   0.2745853   0.0000017  )
         8           O   tau(   8) = (   2.1818602   0.6527081   0.0633571  )
         9           O   tau(   9) = (   1.7661833   0.3855244   0.0603133  )
        10           O   tau(  10) = (   1.6877449   0.6477265   0.0603136  )
        11           O   tau(  11) = (   0.9895834   0.2960356   0.1811205  )
        12           O   tau(  12) = (   1.2661844   0.3787815   0.0713283  )
        13           O   tau(  13) = (   1.4052586   0.5632204   0.1841635  )
        14           O   tau(  14) = (   1.4836981   0.3010179   0.1841637  )
        15           O   tau(  15) = (   1.9052586   0.5699633   0.1731512  )

   Crystallographic axes

     site n.     atom                  positions (cryst. coord.)
         1           Li  tau(   1) = (  0.0000020  0.5000010  0.4999980  )
         2           Li  tau(   2) = (  0.5000020  0.0000020  0.4999980  )
         3           Li  tau(   3) = (  0.5000020  0.5000010  0.4999980  )
         4           Mn  tau(   4) = (  0.0000010  0.9999910  0.0000070  )
         5           Cr  tau(   5) = (  0.0000020  0.4999970  0.0000010  )
         6           Cr  tau(   6) = (  0.4999940  0.0000020  0.0000040  )
         7           Cr  tau(   7) = (  0.4999830  0.5000050  0.0000070  )
         8           O   tau(   8) = (  0.9999950  0.9999910  0.2591520  )
         9           O   tau(   9) = (  0.9999800  0.5225180  0.2467020  )
        10           O   tau(  10) = (  0.5225190  0.9999780  0.2467030  )
        11           O   tau(  11) = (  0.0000110  0.0000090  0.7408440  )
        12           O   tau(  12) = (  0.4774590  0.4774560  0.2917570  )
        13           O   tau(  13) = (  0.0000250  0.4774860  0.7532910  )
        14           O   tau(  14) = (  0.4774860  0.0000240  0.7532920  )
        15           O   tau(  15) = (  0.5225390  0.5225400  0.7082470  )

     number of k points=     1  Methfessel-Paxton smearing, width (Ry)=  0.0010
                       cart. coord. in units 2pi/alat
        k(    1) = (   0.0000000   0.0000000   0.0000000), wk =   2.0000000

                       cryst. coord.
        k(    1) = (   0.0000000   0.0000000   0.0000000), wk =   2.0000000

     Check: negative core charge=   -0.000022

     Initial potential from superposition of free atoms

     starting charge     109.1476, renormalised to     114.0000

     negative rho (up, down):  3.801E-03 0.000E+00
     Starting wfcs are   90 randomized atomic wfcs
     Checking if some PAW data can be deallocated...

     Self-consistent Calculation

     iteration #  1     ecut=    30.00 Ry     beta= 0.70
     Davidson diagonalization with overlap

     ethr =  1.00E-02,  avg # of iterations =  3.0

     negative rho (up, down):  6.062E-03 0.000E+00

     total energy              =   -1101.76111311 Ry
     estimated scf accuracy    <      18.34955917 Ry

[...]

     total energy              =   -1114.56093633 Ry
     estimated scf accuracy    <       0.00000244 Ry

     iteration # 46     ecut=    30.00 Ry     beta= 0.70
     Davidson diagonalization with overlap

     ethr =  1.19E-09,  avg # of iterations =  1.0

[...]

     End of self-consistent calculation

          k = 0.0000 0.0000 0.0000 (  1368 PWs)   bands (ev):

   -70.4361 -63.1424 -63.1265 -63.1264 -39.2987 -39.1095 -39.1094 -35.8884
   -35.8732 -35.8731 -34.6867 -34.5808 -34.5808 -34.4992 -34.4992 -34.4764
   -34.2544 -34.2240 -34.2239 -10.5043  -9.5003  -9.4321  -9.1586  -9.1586
    -9.0933  -9.0933  -8.9475   2.3293   2.3293   2.5377   2.9003   3.5035
     3.5514   3.5515   4.1880   4.1880   4.5172   4.5173   4.8658   4.8997
     5.4392   5.4393   5.7310   5.7310   5.7899   5.8972   5.9761   5.9762
     6.9924   7.0153   7.0154   8.5030   8.7181   8.7181   8.8478   8.8479
     9.5506   9.5507   9.5634   9.6282   9.9349   9.9425   9.9425  11.8345
    11.8346  11.8662  11.9118  11.9119

     occupation numbers
     1.0000   1.0000   1.0000   1.0000   1.0000   1.0000   1.0000   1.0000
     1.0000   1.0000   1.0000   1.0000   1.0000   1.0000   1.0000   1.0000
     1.0000   1.0000   1.0000   1.0000   1.0000   1.0000   1.0000   1.0000
     1.0000   1.0000   1.0000   1.0000   1.0000   1.0000   1.0000   1.0000
     1.0000   1.0000   1.0000   1.0000   1.0000   1.0000   1.0000   1.0000
     1.0000   1.0000   1.0000   1.0000   1.0000   1.0000   1.0000   1.0000
     1.0000   1.0000   1.0000   1.0000   1.0000   1.0000   1.0000   1.0000
     0.5087   0.5076  -0.0163  -0.0000  -0.0000  -0.0000  -0.0000  -0.0000
    -0.0000  -0.0000  -0.0000  -0.0000

     the Fermi energy is     9.5508 ev

!    total energy              =   -1114.56093587 Ry
     estimated scf accuracy    <       0.00000057 Ry
     smearing contrib. (-TS)   =      -0.00047733 Ry
     internal energy E=F+TS    =   -1114.56045854 Ry

     The total energy is F=E-TS. E is the sum of the following terms:
     one-electron contribution =    -609.67069167 Ry
     hartree contribution      =     352.58389746 Ry
     xc contribution           =    -163.07627386 Ry
     ewald contribution        =    -618.23284522 Ry
     one-center paw contrib.   =     -76.16454524 Ry
      -> PAW hartree energy AE =       0.00000000 Ry
      -> PAW hartree energy PS =       0.00000000 Ry
      -> PAW xc energy AE      =       0.00000000 Ry
      -> PAW xc energy PS      =       0.00000000 Ry
      -> total E_H with PAW    =     352.58389746 Ry
      -> total E_XC with PAW   =    -163.07627386 Ry

     convergence has been achieved in  46 iterations

     negative rho (up, down):  3.987E-03 0.000E+00

     Forces acting on atoms (cartesian axes, Ry/au):

     atom    1 type  1   force =     0.00000363   -0.00000017    0.00000219
     atom    2 type  1   force =    -0.00000318    0.00000127   -0.00000164
     atom    3 type  1   force =    -0.00000037    0.00000352    0.00000024
     atom    4 type  2   force =    -0.00003533    0.00002218   -0.00004002
     atom    5 type  3   force =    -0.00003042   -0.00000357   -0.00001789
     atom    6 type  3   force =     0.00000432   -0.00003261    0.00000636
     atom    7 type  3   force =     0.00001291   -0.00003962   -0.00001097
     atom    8 type  4   force =     0.01427865    0.00430829    0.00263134
     atom    9 type  4   force =     0.01163071   -0.01245959    0.01026787
     atom   10 type  4   force =     0.00289992    0.01681856    0.01028741
     atom   11 type  4   force =    -0.01428617   -0.00427953   -0.00262239
     atom   12 type  4   force =     0.01164309    0.00346985   -0.01576613
     atom   13 type  4   force =    -0.01163596    0.01246976   -0.01025116
     atom   14 type  4   force =    -0.00287504   -0.01681117   -0.01026514
     atom   15 type  4   force =    -0.01160674   -0.00346718    0.01577991
     The non-local contrib.  to forces
     atom    1 type  1   force =    -0.00001277    0.00000283   -0.00000595
     atom    2 type  1   force =     0.00000003   -0.00000889    0.00000594
     atom    3 type  1   force =     0.00000018   -0.00000806    0.00000269
     atom    4 type  2   force =     0.00002013   -0.00003268    0.00002983
     atom    5 type  3   force =     0.00000998   -0.00000476    0.00001449
     atom    6 type  3   force =    -0.00000518    0.00001238   -0.00002289
     atom    7 type  3   force =    -0.00000682    0.00002909    0.00000533
     atom    8 type  4   force =     0.65843345    0.19703669    0.12050299
     atom    9 type  4   force =     0.73974292    0.29927907    0.09539979
     atom   10 type  4   force =     0.78252389    0.15608310    0.09550464
     atom   11 type  4   force =    -0.65845225   -0.19696603   -0.12051436
     atom   12 type  4   force =     0.73967797    0.22122114    0.22295127
     atom   13 type  4   force =    -0.73963128   -0.29929912   -0.09545556
     atom   14 type  4   force =    -0.78257594   -0.15609541   -0.09541262
     atom   15 type  4   force =    -0.73965594   -0.22127637   -0.22296045
     The ionic contribution  to forces
     atom    1 type  1   force =     0.00022990   -0.00001068    0.00006298
     atom    2 type  1   force =    -0.00019925    0.00001581   -0.00015355
     atom    3 type  1   force =    -0.00001863    0.00005955   -0.00000918
     atom    4 type  2   force =    -0.00025576    0.00214360   -0.00061045
     atom    5 type  3   force =    -0.00039433    0.00083230   -0.00063686
     atom    6 type  3   force =     0.00029702   -0.00103500    0.00086995
     atom    7 type  3   force =     0.00054677   -0.00299892   -0.00017525
     atom    8 type  4   force =   -12.87845415   -3.85290512   -2.35594829
     atom    9 type  4   force =   -14.32735246   -7.34074873   -1.05957403
     atom   10 type  4   force =   -16.00367933   -1.73247997   -1.06049752
     atom   11 type  4   force =    12.87829496    3.85231824    2.35627157
     atom   12 type  4   force =   -14.32670875   -4.28542090   -6.05193294
     atom   13 type  4   force =    14.32573824    7.34097122    1.06061912
     atom   14 type  4   force =    16.00483673    1.73291582    1.05973764
     atom   15 type  4   force =    14.32711903    4.28634276    6.05197680
     The local contribution  to forces
     atom    1 type  1   force =    -0.00022023    0.00001044   -0.00005628
     atom    2 type  1   force =     0.00019427   -0.00001037    0.00014891
     atom    3 type  1   force =     0.00001855   -0.00005108    0.00000758
     atom    4 type  2   force =     0.00023720   -0.00211447    0.00058147
     atom    5 type  3   force =     0.00039075   -0.00085343    0.00060949
     atom    6 type  3   force =    -0.00028059    0.00102597   -0.00086853
     atom    7 type  3   force =    -0.00053091    0.00296081    0.00015873
     atom    8 type  4   force =    12.24132916    3.66174884    2.23927829
     atom    9 type  4   force =    13.60696127    7.03163147    0.97606244
     atom   10 type  4   force =    15.23166385    1.59517970    0.97619949
     atom   11 type  4   force =   -12.24115699   -3.66119978   -2.23958533
     atom   12 type  4   force =    13.60610743    4.07047247    5.81489421
     atom   13 type  4   force =   -13.60545764   -7.03182158   -0.97703027
     atom   14 type  4   force =   -15.23274491   -1.59559880   -0.97550168
     atom   15 type  4   force =   -13.60650280   -4.07134020   -5.81491337
     The core correction contribution to forces
     atom    1 type  1   force =     0.00000000    0.00000000    0.00000000
     atom    2 type  1   force =     0.00000000    0.00000000    0.00000000
     atom    3 type  1   force =     0.00000000    0.00000000    0.00000000
     atom    4 type  2   force =    -0.00000057    0.00000011   -0.00000089
     atom    5 type  3   force =    -0.00000006   -0.00000032   -0.00000029
     atom    6 type  3   force =     0.00000008   -0.00000119   -0.00000117
     atom    7 type  3   force =     0.00000086   -0.00000202   -0.00000136
     atom    8 type  4   force =    -0.00678817   -0.00203113   -0.00124275
     atom    9 type  4   force =    -0.00759679   -0.00276454   -0.00113817
     atom   10 type  4   force =    -0.00786644   -0.00186107   -0.00113871
     atom   11 type  4   force =     0.00678846    0.00203034    0.00124277
     atom   12 type  4   force =    -0.00759719   -0.00227252   -0.00194316
     atom   13 type  4   force =     0.00759583    0.00276468    0.00113851
     atom   14 type  4   force =     0.00786671    0.00186112    0.00113777
     atom   15 type  4   force =     0.00759671    0.00227296    0.00194322
     The Hubbard contrib.    to forces
     atom    1 type  1   force =     0.00000000    0.00000000    0.00000000
     atom    2 type  1   force =     0.00000000    0.00000000    0.00000000
     atom    3 type  1   force =     0.00000000    0.00000000    0.00000000
     atom    4 type  2   force =     0.00000000    0.00000000    0.00000000
     atom    5 type  3   force =     0.00000000    0.00000000    0.00000000
     atom    6 type  3   force =     0.00000000    0.00000000    0.00000000
     atom    7 type  3   force =     0.00000000    0.00000000    0.00000000
     atom    8 type  4   force =     0.00000000    0.00000000    0.00000000
     atom    9 type  4   force =     0.00000000    0.00000000    0.00000000
     atom   10 type  4   force =     0.00000000    0.00000000    0.00000000
     atom   11 type  4   force =     0.00000000    0.00000000    0.00000000
     atom   12 type  4   force =     0.00000000    0.00000000    0.00000000
     atom   13 type  4   force =     0.00000000    0.00000000    0.00000000
     atom   14 type  4   force =     0.00000000    0.00000000    0.00000000
     atom   15 type  4   force =     0.00000000    0.00000000    0.00000000
     The SCF correction term to forces
     atom    1 type  1   force =     0.00000631   -0.00000269    0.00000142
     atom    2 type  1   force =     0.00000135    0.00000480   -0.00000297
     atom    3 type  1   force =    -0.00000089    0.00000320   -0.00000088
     atom    4 type  2   force =    -0.00003674    0.00002569   -0.00004001
     atom    5 type  3   force =    -0.00003718    0.00002273   -0.00000475
     atom    6 type  3   force =    -0.00000743   -0.00003470    0.00002896
     atom    7 type  3   force =     0.00000258   -0.00002851    0.00000156
     atom    8 type  4   force =    -0.00024207    0.00045909    0.00004106
     atom    9 type  4   force =    -0.00012465    0.00014323   -0.00048219
     atom   10 type  4   force =     0.00025753   -0.00010313    0.00021949
     atom   11 type  4   force =     0.00023923   -0.00046222   -0.00003707
     atom   12 type  4   force =     0.00016322   -0.00053026    0.00026447
     atom   13 type  4   force =     0.00011847   -0.00014536    0.00047700
     atom   14 type  4   force =    -0.00025805    0.00010618   -0.00022628
     atom   15 type  4   force =    -0.00016417    0.00053376   -0.00026632

     Total force =     0.053253     Total SCF correction =     0.001448

     Computing stress (Cartesian axis) and pressure

     negative rho (up, down):  3.987E-03 0.000E+00
          total   stress  (Ry/bohr**3)                   (kbar)     P=     -651.10
  -0.00363892   0.00037610   0.00022976         -535.30       55.33       33.80
   0.00037610  -0.00478449   0.00006874           55.33     -703.82       10.11
   0.00022976   0.00006874  -0.00485489           33.80       10.11     -714.18

     kinetic stress (kbar)  30438.50    208.90    127.75
                              208.90  29803.22     38.13
                              127.75     38.13  29763.96

     local   stress (kbar)  26435.09  21115.39  12916.55
                            21115.39 -37832.90   3864.31
                            12916.55   3864.31 -41785.64

     nonloc. stress (kbar)   7658.02    -18.98    -11.68
                              -18.98   7716.29     -3.52
                              -11.68     -3.52   7719.69

     hartree stress (kbar)  -2132.59  -9318.39  -5700.08
                            -9318.39  26229.04  -1705.39
                            -5700.08  -1705.39  27973.59

     exc-cor stress (kbar)  -5385.32     -2.86     -1.75
                               -2.86  -5376.61     -0.52
                               -1.75     -0.52  -5376.08

     corecor stress (kbar)  -2166.89     -0.08     -0.05
                               -0.08  -2166.66     -0.01
                               -0.05     -0.01  -2166.64

     ewald   stress (kbar) -55382.13 -11928.66  -7296.94
                           -11928.66 -19076.21  -2182.87
                            -7296.94  -2182.87 -16843.07

     hubbard stress (kbar)      0.00      0.00      0.00
                                0.00      0.00      0.00
                                0.00      0.00      0.00

     DFT-D   stress (kbar)      0.00      0.00      0.00
                                0.00      0.00      0.00
                                0.00      0.00      0.00

     XDM     stress (kbar)      0.00      0.00      0.00
                                0.00      0.00      0.00
                                0.00      0.00      0.00

     dft-nl  stress (kbar)      0.00      0.00      0.00
                                0.00      0.00      0.00
                                0.00      0.00      0.00

     TS-vdW  stress (kbar)      0.00      0.00      0.00
                                0.00      0.00      0.00
                                0.00      0.00      0.00

[...]

                                0.00      0.00      0.00

     Writing all to output data dir calculations/myprefix.save/

     General routines

     Parallel routines

     PAW routines

   This run was terminated on:  12:13:54   3Mar2023

   JOB DONE.