     Program PWSCF v.7.0 starts on  6Mar2023 at 12:34:57

     R & G space division:  proc/nbgrp/npool/nimage =      32

     Reading input from espresso_4623.pwi
Warning: card &CELL ignored
Warning: card / ignored

     Current dimensions of program PWSCF are:
     Max number of different atomic species (ntypx) = 10
     Max number of k-points (npk) =  40000
     Max angular momentum in pseudopotentials (lmaxx) =  4

     gamma-point specific algorithms are used
     Message from routine setup:
     using ibrav=0 with symmetry is DISCOURAGED, use correct ibrav instead

     Using Slab Decomposition

     bravais-lattice index     =            0
     lattice parameter (alat)  =      19.3848  a.u.
     unit-cell volume          =    4143.1972 (a.u.)^3
     number of atoms/cell      =           16
     number of atomic types    =            2
     number of electrons       =       184.00
     number of Kohn-Sham states=          110
     kinetic-energy cutoff     =      30.0000  Ry
     charge density cutoff     =     240.0000  Ry
     scf convergence threshold =      1.0E-06
     mixing beta               =       0.7000
     number of iterations used =            8  plain     mixing
     Exchange-correlation= SLA  PW   PBE  PBE
                           (   1   4   3   4   0   0   0)

     celldm(1)=  19.384782  celldm(2)=   0.000000  celldm(3)=   0.000000
     celldm(4)=   0.000000  celldm(5)=   0.000000  celldm(6)=   0.000000

     crystal axes: (cart. coord. in units of alat)
               a(1) = (   1.000000   0.000000   0.000000 )
               a(2) = (   0.292441   0.956283   0.000000 )
               a(3) = (  -0.646221  -0.478142   0.594793 )

     reciprocal axes: (cart. coord. in units 2 pi/alat)
               b(1) = (  1.000000 -0.305810  0.840628 )
               b(2) = (  0.000000  1.045715  0.840628 )
               b(3) = (  0.000000  0.000000  1.681256 )

     PseudoPot. # 1 for Sr read from file:
     /home/pragov/projects/rrg-bengioy-ad/pragov/crystal_structure_design/SSSP/Sr_pbe_v1.uspp.F.UPF
     MD5 check sum: 6b418c05fbe9db5448babca5e47b7a5b
     Pseudo is Ultrasoft + core correction, Zval = 10.0
     Generated by new atomic code, or converted to UPF format
     Using radial grid of  883 points,  6 beta functions with:
                l(1) =   0
                l(2) =   0
                l(3) =   1
                l(4) =   1
                l(5) =   2
                l(6) =   2
     Q(r) pseudized with  6 coefficients,  rinner =    1.400   1.400   1.400
                                                       1.400   1.400

     PseudoPot. # 2 for Sn read from file:
     /home/pragov/projects/rrg-bengioy-ad/pragov/crystal_structure_design/SSSP/Sn_pbe_v1.uspp.F.UPF
     MD5 check sum: 4cf58ce39ec5d5d420df3dd08604eb00
     Pseudo is Ultrasoft + core correction, Zval = 14.0
     Generated by new atomic code, or converted to UPF format
     Using radial grid of  891 points,  6 beta functions with:
                l(1) =   0
                l(2) =   0
                l(3) =   1
                l(4) =   1
                l(5) =   2
                l(6) =   2
     Q(r) pseudized with  6 coefficients,  rinner =    1.200   1.200   1.200
                                                       1.200   1.200

     atomic species   valence    mass     pseudopotential
        Sr            10.00    87.62000     Sr( 1.00)
        Sn            14.00   118.71000     Sn( 1.00)

      4 Sym. Ops., with inversion, found ( 2 have fractional translation)

                                    s                        frac. trans.

      isym =  1     identity

 cryst.   s( 1) = (     1          0          0      )
                  (     0          1          0      )
                  (     0          0          1      )

 cart.    s( 1) = (  1.0000000  0.0000000  0.0000000 )
                  (  0.0000000  1.0000000  0.0000000 )
                  (  0.0000000  0.0000000  1.0000000 )

      isym =  2     180 deg rotation - cart. axis [0,0,1]

 cryst.   s( 2) = (    -1          0          0      )    f =(  0.5000000 )
                  (     0         -1          0      )       ( -0.5000000 )
                  (     1          1          1      )       (  0.0000000 )

 cart.    s( 2) = ( -1.0000000 -0.0000000  0.0000000 )    f =(  0.3537793 )
                  (  0.0000000 -1.0000000  0.0000000 )       ( -0.4781417 )
                  (  0.0000000  0.0000000  1.0000000 )       (  0.0000000 )

      isym =  3     inversion

 cryst.   s( 3) = (    -1          0          0      )
                  (     0         -1          0      )
                  (     0          0         -1      )

 cart.    s( 3) = ( -1.0000000 -0.0000000 -0.0000000 )
                  (  0.0000000 -1.0000000 -0.0000000 )
                  (  0.0000000  0.0000000 -1.0000000 )

      isym =  4     inv. 180 deg rotation - cart. axis [0,0,1]

 cryst.   s( 4) = (     1          0          0      )    f =(  0.5000000 )
                  (     0          1          0      )       ( -0.5000000 )
                  (    -1         -1         -1      )       (  0.0000000 )

 cart.    s( 4) = (  1.0000000  0.0000000 -0.0000000 )    f =(  0.3537793 )
                  (  0.0000000  1.0000000 -0.0000000 )       ( -0.4781417 )
                  (  0.0000000  0.0000000 -1.0000000 )       (  0.0000000 )

   Cartesian axes

     site n.     atom                  positions (alat units)
         1           Sr  tau(   1) = (   0.6462207   0.4781417   0.0000000  )
         2           Sr  tau(   2) = (   0.0000000   0.0000000   0.0000000  )
         3           Sr  tau(   3) = (  -0.0055559  -0.3740632   0.5066159  )
         4           Sr  tau(   4) = (   0.2868855   0.5822203   0.0881775  )
         5           Sr  tau(   5) = (  -0.2348930  -0.0641083   0.2973967  )
         6           Sr  tau(   6) = (   0.5162226   0.2722654   0.2973967  )
         7           Sr  tau(   7) = (   0.6517766   0.8522049   0.0881775  )
         8           Sr  tau(   8) = (   0.3593352  -0.1040785   0.5066159  )
         9           Sr  tau(   9) = (   0.8811137   0.5422500   0.2973967  )
        10           Sr  tau(  10) = (   0.1299981   0.2058763   0.2973967  )
        11           Sn  tau(  11) = (   0.3231104   0.2390709   0.0000000  )
        12           Sn  tau(  12) = (   0.9693311   0.7172126   0.0000000  )
        13           Sn  tau(  13) = (   0.8231104   0.2390709   0.1531879  )
        14           Sn  tau(  14) = (  -0.1768896   0.2390709   0.4416056  )
        15           Sn  tau(  15) = (   0.0911151  -0.1231444   0.2973967  )
        16           Sn  tau(  16) = (   0.5551056   0.6012862   0.2973967  )

   Crystallographic axes

     site n.     atom                  positions (cryst. coord.)
         1           Sr  tau(   1) = (  0.5000000  0.5000000  0.0000000  )
         2           Sr  tau(   2) = (  0.0000000  0.0000000  0.0000000  )
         3           Sr  tau(   3) = (  0.5347120  0.0347120  0.8517510  )
         4           Sr  tau(   4) = (  0.1829610  0.6829610  0.1482490  )
         5           Sr  tau(   5) = (  0.0347120  0.1829610  0.5000000  )
         6           Sr  tau(   6) = (  0.6829610  0.5347120  0.5000000  )
         7           Sr  tau(   7) = (  0.4652880  0.9652880  0.1482490  )
         8           Sr  tau(   8) = (  0.8170390  0.3170390  0.8517510  )
         9           Sr  tau(   9) = (  0.9652880  0.8170390  0.5000000  )
        10           Sr  tau(  10) = (  0.3170390  0.4652880  0.5000000  )
        11           Sn  tau(  11) = (  0.2500000  0.2500000  0.0000000  )
        12           Sn  tau(  12) = (  0.7500000  0.7500000  0.0000000  )
        13           Sn  tau(  13) = (  0.8787740  0.3787740  0.2575480  )
        14           Sn  tau(  14) = (  0.1212260  0.6212260  0.7424520  )
        15           Sn  tau(  15) = (  0.3787740  0.1212260  0.5000000  )
        16           Sn  tau(  16) = (  0.6212260  0.8787740  0.5000000  )

     number of k points=     1  Methfessel-Paxton smearing, width (Ry)=  0.0010
                       cart. coord. in units 2pi/alat
        k(    1) = (   0.0000000   0.0000000   0.0000000), wk =   2.0000000

                       cryst. coord.
        k(    1) = (   0.0000000   0.0000000   0.0000000), wk =   2.0000000

     Check: negative core charge=   -0.000003

     Initial potential from superposition of free atoms

     starting charge     177.6632, renormalised to     184.0000

     negative rho (up, down):  6.651E-01 0.000E+00
     Starting wfcs are  184 randomized atomic wfcs

     Self-consistent Calculation

     iteration #  1     ecut=    30.00 Ry     beta= 0.70
     Davidson diagonalization with overlap

     ethr =  1.00E-02,  avg # of iterations =  3.0

     negative rho (up, down):  6.421E-01 0.000E+00

     total energy              =   -1680.76312698 Ry
     estimated scf accuracy    <       3.40508078 Ry

[...]

     ethr =  5.87E-05,  avg # of iterations =  1.0
     Minimization algorithm failed to find Fermi energy: reverting to bisection
     Possible cause: smearing is larger than the electronic band-gap.

[...]

     total energy              =   -1681.72312846 Ry
     estimated scf accuracy    <       0.00000118 Ry

     iteration # 18     ecut=    30.00 Ry     beta= 0.70
     Davidson diagonalization with overlap

     ethr =  6.40E-10,  avg # of iterations =  2.0

[...]

     End of self-consistent calculation

          k = 0.0000 0.0000 0.0000 (  5740 PWs)   bands (ev):

   -28.6763 -28.6247 -28.6009 -28.5954 -28.5939 -28.5914 -28.5904 -28.5874
   -28.2937 -28.2931 -13.6994 -13.6824 -13.6320 -13.6289 -13.5591 -13.5579
   -13.5356 -13.5337 -13.4993 -13.4980 -13.4789 -13.4784 -13.4713 -13.4687
   -13.4647 -13.4635 -13.4590 -13.4516 -13.4098 -13.3961 -12.9255 -12.9154
   -12.9124 -12.8929 -12.8690 -12.8690 -12.8512 -12.8434 -12.8429 -12.8312
   -10.7910 -10.7837 -10.7638 -10.7249 -10.7220 -10.7050 -10.6855 -10.6814
   -10.6769 -10.6608 -10.6497 -10.6492 -10.6316 -10.6307 -10.6285 -10.6213
   -10.6119 -10.5722 -10.5627 -10.5624 -10.5605 -10.5583 -10.5484 -10.5446
   -10.4181 -10.3568 -10.3389 -10.3234 -10.3033 -10.3028  -0.6766  -0.2689
     1.0979   1.2887   1.3398   1.3404   4.6566   4.8558   5.2108   5.2619
     5.4097   5.4100   5.6180   5.6188   5.7890   6.6715   6.6735   6.8205
     6.8389   6.8834   6.9322   6.9441   6.9441   7.2916   8.2835   8.2839
     8.4851   8.6238   8.7360   8.7377   8.9854   9.0144   9.0458   9.4186
     9.5516   9.5517   9.5959   9.6156   9.7146   9.7153

     occupation numbers
     1.0000   1.0000   1.0000   1.0000   1.0000   1.0000   1.0000   1.0000
     1.0000   1.0000   1.0000   1.0000   1.0000   1.0000   1.0000   1.0000
     1.0000   1.0000   1.0000   1.0000   1.0000   1.0000   1.0000   1.0000
     1.0000   1.0000   1.0000   1.0000   1.0000   1.0000   1.0000   1.0000
     1.0000   1.0000   1.0000   1.0000   1.0000   1.0000   1.0000   1.0000
     1.0000   1.0000   1.0000   1.0000   1.0000   1.0000   1.0000   1.0000
     1.0000   1.0000   1.0000   1.0000   1.0000   1.0000   1.0000   1.0000
     1.0000   1.0000   1.0000   1.0000   1.0000   1.0000   1.0000   1.0000
     1.0000   1.0000   1.0000   1.0000   1.0000   1.0000   1.0000   1.0000
     1.0000   1.0000   1.0000   1.0000   1.0000   1.0000   1.0000   1.0000
     1.0000   1.0000   1.0000   1.0000   1.0000   1.0000   1.0000   1.0000
     1.0000   1.0000   1.0057   0.4988   0.4956  -0.0000  -0.0000  -0.0000
    -0.0000  -0.0000  -0.0000  -0.0000  -0.0000  -0.0000  -0.0000  -0.0000
    -0.0000  -0.0000  -0.0000  -0.0000  -0.0000  -0.0000

     the Fermi energy is     6.9440 ev

!    total energy              =   -1681.72312852 Ry
     estimated scf accuracy    <       0.00000005 Ry
     smearing contrib. (-TS)   =      -0.00049648 Ry
     internal energy E=F+TS    =   -1681.72263203 Ry

     The total energy is F=E-TS. E is the sum of the following terms:
     one-electron contribution =    -708.79983197 Ry
     hartree contribution      =     428.82140585 Ry
     xc contribution           =    -467.78520565 Ry
     ewald contribution        =    -933.95900026 Ry

     convergence has been achieved in  18 iterations

     negative rho (up, down):  6.659E-01 0.000E+00

     Forces acting on atoms (cartesian axes, Ry/au):

     atom    1 type  1   force =     0.00000000   -0.00000000    0.00000000
     atom    2 type  1   force =     0.00000000    0.00000000    0.00000000
     atom    3 type  1   force =    -0.01134656   -0.00830801    0.00511925
     atom    4 type  1   force =    -0.01134656   -0.00830801   -0.00511925
     atom    5 type  1   force =    -0.00747866   -0.01371964    0.00000000
     atom    6 type  1   force =    -0.01330563   -0.00558513    0.00000000
     atom    7 type  1   force =     0.01134656    0.00830801   -0.00511925
     atom    8 type  1   force =     0.01134656    0.00830801    0.00511925
     atom    9 type  1   force =     0.00747866    0.01371964   -0.00000000
     atom   10 type  1   force =     0.01330563    0.00558513   -0.00000000
     atom   11 type  2   force =     0.00000000    0.00000000    0.00012951
     atom   12 type  2   force =     0.00000000    0.00000000   -0.00012951
     atom   13 type  2   force =     0.00000000    0.00000000    0.01545921
     atom   14 type  2   force =     0.00000000    0.00000000   -0.01545921
     atom   15 type  2   force =     0.01427886   -0.00878035   -0.00000000
     atom   16 type  2   force =    -0.01427886    0.00878035    0.00000000
     The non-local contrib.  to forces
     atom    1 type  1   force =    -0.00000000   -0.00000000   -0.00000000
     atom    2 type  1   force =     0.00000000    0.00000000    0.00000000
     atom    3 type  1   force =     0.00206037    0.00177535    0.00307617
     atom    4 type  1   force =     0.00206037    0.00177535   -0.00307617
     atom    5 type  1   force =     0.00486183   -0.00101299   -0.00000000
     atom    6 type  1   force =    -0.00034135    0.00492609   -0.00000000
     atom    7 type  1   force =    -0.00206037   -0.00177535   -0.00307617
     atom    8 type  1   force =    -0.00206037   -0.00177535    0.00307617
     atom    9 type  1   force =    -0.00486183    0.00101299    0.00000000
     atom   10 type  1   force =     0.00034135   -0.00492609    0.00000000
     atom   11 type  2   force =     0.00000000    0.00000000   -0.00105505
     atom   12 type  2   force =     0.00000000    0.00000000    0.00105505
     atom   13 type  2   force =     0.00000000    0.00000000    0.09818534
     atom   14 type  2   force =     0.00000000    0.00000000   -0.09818534
     atom   15 type  2   force =     0.06478756   -0.07463156   -0.00000000
     atom   16 type  2   force =    -0.06478756    0.07463156    0.00000000
     The ionic contribution  to forces
     atom    1 type  1   force =    -0.00000000    0.00000000    0.00000000
     atom    2 type  1   force =    -0.00000000    0.00000000   -0.00000000
     atom    3 type  1   force =    -5.18173123   -3.83398710   -0.40616026
     atom    4 type  1   force =    -5.18173123   -3.83398710    0.40616026
     atom    5 type  1   force =    -5.42331271   -3.50748358    0.00000000
     atom    6 type  1   force =    -4.94014976   -4.16049062    0.00000000
     atom    7 type  1   force =     5.18173123    3.83398710    0.40616026
     atom    8 type  1   force =     5.18173123    3.83398710   -0.40616026
     atom    9 type  1   force =     5.42331271    3.50748358   -0.00000000
     atom   10 type  1   force =     4.94014976    4.16049062    0.00000000
     atom   11 type  2   force =    -0.00000000    0.00000000    0.00000000
     atom   12 type  2   force =    -0.00000000    0.00000000   -0.00000000
     atom   13 type  2   force =     0.00000000   -0.00000000   -4.14310061
     atom   14 type  2   force =     0.00000000    0.00000000    4.14310061
     atom   15 type  2   force =    -2.46428924    3.33054968    0.00000000
     atom   16 type  2   force =     2.46428924   -3.33054968    0.00000000
     The local contribution  to forces
     atom    1 type  1   force =    -0.00003491   -0.00004898    0.00002494
     atom    2 type  1   force =     0.00004586    0.00006102   -0.00001548
     atom    3 type  1   force =     5.16907903    3.82451579    0.40768938
     atom    4 type  1   force =     5.16833513    3.82382998   -0.40806525
     atom    5 type  1   force =     5.41153304    3.49547360    0.00000975
     atom    6 type  1   force =     4.92728621    4.15028496    0.00040820
     atom    7 type  1   force =    -5.16916252   -3.82441487   -0.40770836
     atom    8 type  1   force =    -5.16824574   -3.82400620    0.40811402
     atom    9 type  1   force =    -5.41152295   -3.49550873    0.00012749
     atom   10 type  1   force =    -4.92727629   -4.15023056   -0.00057613
     atom   11 type  2   force =     0.00015913    0.00032065    0.00106270
     atom   12 type  2   force =    -0.00020786   -0.00030429   -0.00107463
     atom   13 type  2   force =    -0.00020998    0.00034641    4.06167775
     atom   14 type  2   force =     0.00020427   -0.00030219   -4.06171515
     atom   15 type  2   force =     2.41495305   -3.26567508   -0.00009764
     atom   16 type  2   force =    -2.41490439    3.26566414    0.00011948
     The core correction contribution to forces
     atom    1 type  1   force =    -0.00000023   -0.00000034    0.00000006
     atom    2 type  1   force =     0.00000027    0.00000011   -0.00000002
     atom    3 type  1   force =    -0.00023733   -0.00013946    0.00017782
     atom    4 type  1   force =    -0.00039556   -0.00030850   -0.00054517
     atom    5 type  1   force =    -0.00050744   -0.00070259   -0.00008041
     atom    6 type  1   force =    -0.00005996   -0.00023522    0.00010918
     atom    7 type  1   force =     0.00023681    0.00013893   -0.00017899
     atom    8 type  1   force =     0.00039524    0.00030837    0.00054644
     atom    9 type  1   force =     0.00050943    0.00070097    0.00007977
     atom   10 type  1   force =     0.00006052    0.00023599   -0.00010908
     atom   11 type  2   force =     0.00000444   -0.00000395    0.00014886
     atom   12 type  2   force =    -0.00000504    0.00000429   -0.00014916
     atom   13 type  2   force =     0.00001152    0.00002127   -0.00139617
     atom   14 type  2   force =    -0.00001191   -0.00002095    0.00139620
     atom   15 type  2   force =    -0.00111923    0.00096676   -0.00000235
     atom   16 type  2   force =     0.00112005   -0.00096583    0.00000254
     The Hubbard contrib.    to forces
     atom    1 type  1   force =     0.00000000    0.00000000    0.00000000
     atom    2 type  1   force =     0.00000000    0.00000000    0.00000000
     atom    3 type  1   force =     0.00000000    0.00000000    0.00000000
     atom    4 type  1   force =     0.00000000    0.00000000    0.00000000
     atom    5 type  1   force =     0.00000000    0.00000000    0.00000000
     atom    6 type  1   force =     0.00000000    0.00000000    0.00000000
     atom    7 type  1   force =     0.00000000    0.00000000    0.00000000
     atom    8 type  1   force =     0.00000000    0.00000000    0.00000000
     atom    9 type  1   force =     0.00000000    0.00000000    0.00000000
     atom   10 type  1   force =     0.00000000    0.00000000    0.00000000
     atom   11 type  2   force =     0.00000000    0.00000000    0.00000000
     atom   12 type  2   force =     0.00000000    0.00000000    0.00000000
     atom   13 type  2   force =     0.00000000    0.00000000    0.00000000
     atom   14 type  2   force =     0.00000000    0.00000000    0.00000000
     atom   15 type  2   force =     0.00000000    0.00000000    0.00000000
     atom   16 type  2   force =     0.00000000    0.00000000    0.00000000
     The SCF correction term to forces
     atom    1 type  1   force =     0.00003833    0.00004329   -0.00003051
     atom    2 type  1   force =    -0.00004455   -0.00006252    0.00002386
     atom    3 type  1   force =     0.00001387   -0.00016581   -0.00005617
     atom    4 type  1   force =    -0.00015833    0.00007598    0.00003221
     atom    5 type  1   force =    -0.00003509   -0.00000668   -0.00013189
     atom    6 type  1   force =    -0.00003856   -0.00007085    0.00016213
     atom    7 type  1   force =     0.00006064    0.00006144    0.00006354
     atom    8 type  1   force =     0.00005516    0.00010534   -0.00006013
     atom    9 type  1   force =     0.00005960    0.00001823   -0.00001877
     atom   10 type  1   force =     0.00003251    0.00001469    0.00001121
     atom   11 type  2   force =    -0.00008740   -0.00007544   -0.00002806
     atom   12 type  2   force =     0.00014625    0.00005525    0.00003816
     atom   13 type  2   force =     0.00009214   -0.00011840    0.00009190
     atom   14 type  2   force =    -0.00007819    0.00008299   -0.00005652
     atom   15 type  2   force =    -0.00006399    0.00001107   -0.00012587
     atom   16 type  2   force =    -0.00000690    0.00000141    0.00010435

     Total force =     0.053298     Total SCF correction =     0.000527

     Computing stress (Cartesian axis) and pressure

     negative rho (up, down):  6.659E-01 0.000E+00
          total   stress  (Ry/bohr**3)                   (kbar)     P=        5.10
  -0.00000256  -0.00002125   0.00000000           -0.38       -3.13        0.00
  -0.00002125   0.00005365  -0.00000000           -3.13        7.89       -0.00
   0.00000000  -0.00000000   0.00005295            0.00       -0.00        7.79

     kinetic stress (kbar)   7870.00    -14.78     -0.00
                              -14.78   7883.14     -0.00
                               -0.00     -0.00   7893.14

     local   stress (kbar)  -2817.84   2960.96      0.08
                             2960.96  -4620.91     -0.58
                                0.08     -0.58  -6814.88

     nonloc. stress (kbar)   6108.12      2.37     -0.00
                                2.37   6103.95     -0.00
                               -0.00     -0.00   6102.96

     hartree stress (kbar)   4197.81  -1343.12      0.02
                            -1343.12   5016.41      0.06
                                0.02      0.06   6011.16

     exc-cor stress (kbar)   6433.71     -0.61     -0.00
                               -0.61   6434.04      0.00
                               -0.00      0.00   6434.51

     corecor stress (kbar)  -9686.55     -0.07      0.01
                               -0.07  -9686.52     -0.02
                                0.01     -0.02  -9686.56

     ewald   stress (kbar) -12105.63  -1607.87     -0.00
                            -1607.87 -11122.22     -0.00
                               -0.00     -0.00  -9932.55

     hubbard stress (kbar)      0.00      0.00      0.00
                                0.00      0.00      0.00
                                0.00      0.00      0.00

     DFT-D   stress (kbar)      0.00      0.00      0.00
                                0.00      0.00      0.00
                                0.00      0.00      0.00

     XDM     stress (kbar)      0.00      0.00      0.00
                                0.00      0.00      0.00
                                0.00      0.00      0.00

     dft-nl  stress (kbar)      0.00      0.00      0.00
                                0.00      0.00      0.00
                                0.00      0.00      0.00

     TS-vdW  stress (kbar)      0.00      0.00      0.00
                                0.00      0.00      0.00
                                0.00      0.00      0.00

[...]

                                0.00      0.00      0.00

     Writing all to output data dir calculations/myprefix.save/

     General routines

     Parallel routines

   This run was terminated on:  12:35: 4   6Mar2023

   JOB DONE.