     Program PWSCF v.7.0 starts on  6Mar2023 at 10:15: 3

     R & G space division:  proc/nbgrp/npool/nimage =      32

     Reading input from espresso_4248.pwi
Warning: card &CELL ignored
Warning: card / ignored

     Current dimensions of program PWSCF are:
     Max number of different atomic species (ntypx) = 10
     Max number of k-points (npk) =  40000
     Max angular momentum in pseudopotentials (lmaxx) =  4
     file O.pbe-n-kjpaw_psl.0.1.UPF: wavefunction(s)  2P renormalized

     gamma-point specific algorithms are used
     Message from routine setup:
     using ibrav=0 with symmetry is DISCOURAGED, use correct ibrav instead

     Using Slab Decomposition

     bravais-lattice index     =            0
     lattice parameter (alat)  =      11.1807  a.u.
     unit-cell volume          =    1729.9886 (a.u.)^3
     number of atoms/cell      =           20
     number of atomic types    =            4
     number of electrons       =       184.00
     number of Kohn-Sham states=          110
     kinetic-energy cutoff     =      30.0000  Ry
     charge density cutoff     =     240.0000  Ry
     scf convergence threshold =      1.0E-06
     mixing beta               =       0.7000
     number of iterations used =            8  plain     mixing
     Exchange-correlation= SLA  PW   PBX  PBC
                           (   1   4   3   4   0   0   0)

     celldm(1)=  11.180674  celldm(2)=   0.000000  celldm(3)=   0.000000
     celldm(4)=   0.000000  celldm(5)=   0.000000  celldm(6)=   0.000000

     crystal axes: (cart. coord. in units of alat)
               a(1) = (   1.000000   0.000000   0.000000 )
               a(2) = (   0.000000   0.940886   0.000000 )
               a(3) = (   0.000000   0.932444   1.315534 )

     reciprocal axes: (cart. coord. in units 2 pi/alat)
               b(1) = (  1.000000  0.000000  0.000000 )
               b(2) = (  0.000000  1.062828 -0.753327 )
               b(3) = (  0.000000  0.000000  0.760148 )

     PseudoPot. # 1 for La read from file:
     /home/pragov/projects/rrg-bengioy-ad/pragov/crystal_structure_design/SSSP/La.GGA-PBE-paw-v1.0.UPF
     MD5 check sum: 436541e95c1ad8901025bd0b0ed42ae2
     Pseudo is Projector augmented-wave + core cor, Zval = 11.0
     Generated using ATOMPAW code
     Shape of augmentation charge: BESSEL
     Using radial grid of 1101 points,  8 beta functions with:
                l(1) =   0
                l(2) =   0
                l(3) =   1
                l(4) =   1
                l(5) =   2
                l(6) =   2
                l(7) =   3
                l(8) =   3
     Q(r) pseudized with 0 coefficients

     PseudoPot. # 2 for Cu read from file:
     /home/pragov/projects/rrg-bengioy-ad/pragov/crystal_structure_design/SSSP/Cu_pbe_v1.2.uspp.F.UPF
     MD5 check sum: 6e991ff952a84172a2a52a1c1e996048
     Pseudo is Ultrasoft + core correction, Zval = 19.0
     Generated by new atomic code, or converted to UPF format
     Using radial grid of  867 points,  6 beta functions with:
                l(1) =   0
                l(2) =   0
                l(3) =   1
                l(4) =   1
                l(5) =   2
                l(6) =   2
     Q(r) pseudized with  8 coefficients,  rinner =    1.150   1.150   1.150
                                                       1.150   1.150

     PseudoPot. # 3 for Ir read from file:
     /home/pragov/projects/rrg-bengioy-ad/pragov/crystal_structure_design/SSSP/Ir_pbe_v1.2.uspp.F.UPF
     MD5 check sum: 8836f839c3459d2b385c504ce6d91f2c
     Pseudo is Ultrasoft + core correction, Zval = 15.0
     Generated by new atomic code, or converted to UPF format
     Using radial grid of  983 points,  7 beta functions with:
                l(1) =   0
                l(2) =   0
                l(3) =   1
                l(4) =   1
                l(5) =   1
                l(6) =   2
                l(7) =   2
     Q(r) pseudized with  8 coefficients,  rinner =    1.400   1.400   1.400
                                                       1.400   1.400

     PseudoPot. # 4 for O  read from file:
     /home/pragov/projects/rrg-bengioy-ad/pragov/crystal_structure_design/SSSP/O.pbe-n-kjpaw_psl.0.1.UPF
     MD5 check sum: 0234752ac141de4415c5fc33072bef88
     Pseudo is Projector augmented-wave + core cor, Zval =  6.0
     Generated using "atomic" code by A. Dal Corso  v.5.0.99 svn rev. 10869
     Shape of augmentation charge: BESSEL
     Using radial grid of 1095 points,  4 beta functions with:
                l(1) =   0
                l(2) =   0
                l(3) =   1
                l(4) =   1
     Q(r) pseudized with 0 coefficients

     atomic species   valence    mass     pseudopotential
        La            11.00   138.90547     La( 1.00)
        Cu            19.00    63.54600     Cu( 1.00)
        Ir            15.00   192.21700     Ir( 1.00)
        O              6.00    15.99900     O ( 1.00)

      4 Sym. Ops., with inversion, found ( 2 have fractional translation)

                                    s                        frac. trans.

      isym =  1     identity

 cryst.   s( 1) = (     1          0          0      )
                  (     0          1          0      )
                  (     0          0          1      )

 cart.    s( 1) = (  1.0000000  0.0000000  0.0000000 )
                  (  0.0000000  1.0000000 -0.0000000 )
                  (  0.0000000  0.0000000  1.0000000 )

      isym =  2     180 deg rotation - cart. axis [1,0,0]

 cryst.   s( 2) = (     1          0          0      )    f =( -0.5000000 )
                  (     0         -1          0      )       ( -0.0000000 )
                  (     0          0         -1      )       ( -0.5000000 )

 cart.    s( 2) = (  1.0000000  0.0000000  0.0000000 )    f =( -0.5000000 )
                  (  0.0000000 -1.0000000  0.0000000 )       ( -0.4662220 )
                  (  0.0000000  0.0000000 -1.0000000 )       ( -0.6577670 )

      isym =  3     inversion

 cryst.   s( 3) = (    -1          0          0      )
                  (     0         -1          0      )
                  (     0          0         -1      )

 cart.    s( 3) = ( -1.0000000  0.0000000  0.0000000 )
                  (  0.0000000 -1.0000000  0.0000000 )
                  (  0.0000000  0.0000000 -1.0000000 )

      isym =  4     inv. 180 deg rotation - cart. axis [1,0,0]

 cryst.   s( 4) = (    -1          0          0      )    f =(  0.5000000 )
                  (     0          1          0      )       ( -0.0000000 )
                  (     0          0          1      )       ( -0.5000000 )

 cart.    s( 4) = ( -1.0000000  0.0000000  0.0000000 )    f =(  0.5000000 )
                  (  0.0000000  1.0000000 -0.0000000 )       ( -0.4662220 )
                  (  0.0000000  0.0000000  1.0000000 )       ( -0.6577670 )

   Cartesian axes

     site n.     atom                  positions (alat units)
         1           La  tau(   1) = (   0.0668750   1.3889305   0.9869162  )
         2           La  tau(   2) = (   0.9331250   0.4843999   0.3286178  )
         3           La  tau(   3) = (   0.5668750   0.9506219   0.9863847  )
         4           La  tau(   4) = (   0.4331250   0.9227085   0.3291492  )
         5           Cu  tau(   5) = (   0.5000000   0.4704432   0.0000000  )
         6           Cu  tau(   6) = (   0.0000000   0.9366652   0.6577670  )
         7           Ir  tau(   7) = (   0.5000000   0.4662220   0.6577670  )
         8           Ir  tau(   8) = (   0.0000000   0.0000000   0.0000000  )
         9           O   tau(   9) = (   0.4699030   1.4980717   0.9879042  )
        10           O   tau(  10) = (   0.5300970   0.3752588   0.3276298  )
        11           O   tau(  11) = (   0.9699030   0.8414808   0.9853968  )
        12           O   tau(  12) = (   0.0300970   1.0318497   0.3301372  )
        13           O   tau(  13) = (   0.7870170   1.2359350   0.7306055  )
        14           O   tau(  14) = (   0.2129830   0.6373954   0.5849285  )
        15           O   tau(  15) = (   0.2870170   1.1036174   1.2426955  )
        16           O   tau(  16) = (   0.7129830   0.7697130   0.0728385  )
        17           O   tau(  17) = (   0.3108630   1.1260987   0.7215178  )
        18           O   tau(  18) = (   0.6891370   0.7472317   0.5940162  )
        19           O   tau(  19) = (   0.8108630   1.2134537   1.2517832  )
        20           O   tau(  20) = (   0.1891370   0.6598767   0.0637508  )

   Crystallographic axes

     site n.     atom                  positions (cryst. coord.)
         1           La  tau(   1) = (  0.0668750  0.7327230  0.7502020  )
         2           La  tau(   2) = (  0.9331250  0.2672770  0.2497980  )
         3           La  tau(   3) = (  0.5668750  0.2672770  0.7497980  )
         4           La  tau(   4) = (  0.4331250  0.7327230  0.2502020  )
         5           Cu  tau(   5) = (  0.5000000  0.5000000  0.0000000  )
         6           Cu  tau(   6) = (  0.0000000  0.5000000  0.5000000  )
         7           Ir  tau(   7) = (  0.5000000 -0.0000000  0.5000000  )
         8           Ir  tau(   8) = (  0.0000000  0.0000000  0.0000000  )
         9           O   tau(   9) = (  0.4699030  0.8479770  0.7509530  )
        10           O   tau(  10) = (  0.5300970  0.1520230  0.2490470  )
        11           O   tau(  11) = (  0.9699030  0.1520230  0.7490470  )
        12           O   tau(  12) = (  0.0300970  0.8479770  0.2509530  )
        13           O   tau(  13) = (  0.7870170  0.7632010  0.5553680  )
        14           O   tau(  14) = (  0.2129830  0.2367990  0.4446320  )
        15           O   tau(  15) = (  0.2870170  0.2367990  0.9446320  )
        16           O   tau(  16) = (  0.7129830  0.7632010  0.0553680  )
        17           O   tau(  17) = (  0.3108630  0.6533100  0.5484600  )
        18           O   tau(  18) = (  0.6891370  0.3466900  0.4515400  )
        19           O   tau(  19) = (  0.8108630  0.3466900  0.9515400  )
        20           O   tau(  20) = (  0.1891370  0.6533100  0.0484600  )

     number of k points=     1  Methfessel-Paxton smearing, width (Ry)=  0.0010
                       cart. coord. in units 2pi/alat
        k(    1) = (   0.0000000   0.0000000   0.0000000), wk =   2.0000000

                       cryst. coord.
        k(    1) = (   0.0000000   0.0000000   0.0000000), wk =   2.0000000

     Check: negative core charge=   -0.000011

     Initial potential from superposition of free atoms

     starting charge     180.9658, renormalised to     184.0000

     negative rho (up, down):  7.466E-01 0.000E+00
     Starting wfcs are  226 randomized atomic wfcs
     Checking if some PAW data can be deallocated...

     Self-consistent Calculation

     iteration #  1     ecut=    30.00 Ry     beta= 0.70
     Davidson diagonalization with overlap

     ethr =  1.00E-02,  avg # of iterations =  2.0

     negative rho (up, down):  4.915E-01 0.000E+00

     total energy              =   -3488.46655813 Ry
     estimated scf accuracy    <      22.52177013 Ry

[...]

     c_bands:  2 eigenvalues not converged
     ethr =  3.68E-06,  avg # of iterations = 20.0

[...]

[...]
   -37.3414 -37.3411 -37.1665 -37.1663 -36.9246 -36.9245 -18.6213 -18.5583
   -18.5120 -18.4679  -6.6374  -6.2488  -6.1545  -6.1455  -6.1439  -5.9403
    -5.6055  -5.5623  -5.4866  -5.3542  -5.2999  -5.1858  -2.4917  -2.4585
    -2.4260  -2.3855  -2.2406  -2.1589  -2.0133  -1.8448  -1.6622  -1.3292
    -1.3043  -1.1940   5.6659   5.6739   6.4308   6.5261   6.6685   6.7443
     6.8987   7.4692   7.4720   7.6376   7.6430   7.8781   7.9537   8.0481
     8.0625   8.3529   8.3935   8.8137   8.9659   9.0228   9.0925   9.1208
     9.3956   9.5373   9.5614   9.5672   9.8230   9.8350   9.8513   9.9086
    10.1815  10.3093  10.4542  10.5298  10.5551  10.6453  10.6577  10.6690
    10.6812  10.8211  10.9718  11.0515  11.1537  11.3106  11.5224  11.9722
    12.2536  12.5617  12.6623  12.7082  12.7215  12.8793  14.8842  15.8512
    16.0585  16.1163  16.2679  16.3083  16.3479  16.3619  16.3903  16.3958
    16.4134  16.4203  16.4599  16.4882  16.5047  16.5077

     occupation numbers
     1.0000   1.0000   1.0000   1.0000   1.0000   1.0000   1.0000   1.0000
     1.0000   1.0000   1.0000   1.0000   1.0000   1.0000   1.0000   1.0000
     1.0000   1.0000   1.0000   1.0000   1.0000   1.0000   1.0000   1.0000
     1.0000   1.0000   1.0000   1.0000   1.0000   1.0000   1.0000   1.0000
     1.0000   1.0000   1.0000   1.0000   1.0000   1.0000   1.0000   1.0000
     1.0000   1.0000   1.0000   1.0000   1.0000   1.0000   1.0000   1.0000
     1.0000   1.0000   1.0000   1.0000   1.0000   1.0000   1.0000   1.0000
     1.0000   1.0000   1.0000   1.0000   1.0000   1.0000   1.0000   1.0000
     1.0000   1.0000   1.0000   1.0000   1.0000   1.0000   1.0000   1.0000
     1.0000   1.0000   1.0000   1.0000   1.0000   1.0000   1.0000   1.0000
     1.0000   1.0000   1.0000   1.0000   1.0000   1.0000   1.0000   1.0000
     1.0000   1.0000   1.0000   0.8643   0.1357  -0.0000  -0.0000  -0.0000
    -0.0000  -0.0000  -0.0000  -0.0000  -0.0000  -0.0000  -0.0000  -0.0000
    -0.0000  -0.0000  -0.0000  -0.0000  -0.0000  -0.0000

     the Fermi energy is    12.7148 ev

!    total energy              =   -3504.36358626 Ry
     estimated scf accuracy    <       0.00000097 Ry
     smearing contrib. (-TS)   =      -0.00023113 Ry
     internal energy E=F+TS    =   -3504.36335513 Ry

     The total energy is F=E-TS. E is the sum of the following terms:
     one-electron contribution =    -891.21160981 Ry
     hartree contribution      =     574.14168494 Ry
     xc contribution           =    -302.97708663 Ry
     ewald contribution        =   -1177.57653084 Ry
     one-center paw contrib.   =   -1706.73981279 Ry
      -> PAW hartree energy AE =      35.18586280 Ry
      -> PAW hartree energy PS =     -35.23561960 Ry
      -> PAW xc energy AE      =    -405.40002364 Ry
      -> PAW xc energy PS      =       7.33940992 Ry
      -> total E_H with PAW    =     574.09192814 Ry
      -> total E_XC with PAW   =    -701.03770035 Ry

     convergence has been achieved in  25 iterations

     negative rho (up, down):  6.402E-01 0.000E+00

     Forces acting on atoms (cartesian axes, Ry/au):

     atom    1 type  1   force =     0.01869636    0.00108427   -0.00032808
     atom    2 type  1   force =    -0.01869636   -0.00108427    0.00032808
     atom    3 type  1   force =     0.01869636   -0.00108427    0.00032808
     atom    4 type  1   force =    -0.01869636    0.00108427   -0.00032808
     atom    5 type  2   force =     0.00000000   -0.00000000    0.00000000
     atom    6 type  2   force =     0.00000000    0.00000000   -0.00000000
     atom    7 type  3   force =     0.00000000    0.00000000    0.00000000
     atom    8 type  3   force =     0.00000000    0.00000000   -0.00000000
     atom    9 type  4   force =    -0.02963293    0.00801988   -0.02290615
     atom   10 type  4   force =     0.02963293   -0.00801988    0.02290615
     atom   11 type  4   force =    -0.02963293   -0.00801988    0.02290615
     atom   12 type  4   force =     0.02963293    0.00801988   -0.02290615
     atom   13 type  4   force =    -0.00106988    0.00501901    0.00680782
     atom   14 type  4   force =     0.00106988   -0.00501901   -0.00680782
     atom   15 type  4   force =    -0.00106988   -0.00501901   -0.00680782
     atom   16 type  4   force =     0.00106988    0.00501901    0.00680782
     atom   17 type  4   force =    -0.00018193   -0.00843523    0.01142065
     atom   18 type  4   force =     0.00018193    0.00843523   -0.01142065
     atom   19 type  4   force =    -0.00018193    0.00843523   -0.01142065
     atom   20 type  4   force =     0.00018193   -0.00843523    0.01142065
     The non-local contrib.  to forces
     atom    1 type  1   force =    -0.00836377   -0.01747057   -0.00686024
     atom    2 type  1   force =     0.00836377    0.01747057    0.00686024
     atom    3 type  1   force =    -0.00836377    0.01747057    0.00686024
     atom    4 type  1   force =     0.00836377   -0.01747057   -0.00686024
     atom    5 type  2   force =     0.00000000   -0.00000000    0.00000000
     atom    6 type  2   force =     0.00000000    0.00000000    0.00000000
     atom    7 type  3   force =     0.00000000    0.00000000    0.00000000
     atom    8 type  3   force =     0.00000000    0.00000000   -0.00000000
     atom    9 type  4   force =     0.11172329   -0.34692224   -0.42975320
     atom   10 type  4   force =    -0.11172329    0.34692224    0.42975320
     atom   11 type  4   force =     0.11172329    0.34692224    0.42975320
     atom   12 type  4   force =    -0.11172329   -0.34692224   -0.42975320
     atom   13 type  4   force =    -0.47082016    0.19705790   -0.21992729
     atom   14 type  4   force =     0.47082016   -0.19705790    0.21992729
     atom   15 type  4   force =    -0.47082016   -0.19705790    0.21992729
     atom   16 type  4   force =     0.47082016    0.19705790   -0.21992729
     atom   17 type  4   force =     0.23258865    0.47536158   -0.15704372
     atom   18 type  4   force =    -0.23258865   -0.47536158    0.15704372
     atom   19 type  4   force =     0.23258865   -0.47536158    0.15704372
     atom   20 type  4   force =    -0.23258865    0.47536158   -0.15704372
     The ionic contribution  to forces
     atom    1 type  1   force =    -2.80680037    1.19700443   -0.22541349
     atom    2 type  1   force =     2.80680037   -1.19700443    0.22541349
     atom    3 type  1   force =    -2.80680037   -1.19700443    0.22541349
     atom    4 type  1   force =     2.80680037    1.19700443   -0.22541349
     atom    5 type  2   force =     0.00000000   -0.00000000   -0.00000000
     atom    6 type  2   force =    -0.00000000    0.00000000   -0.00000000
     atom    7 type  3   force =     0.00000000   -0.00000000   -0.00000000
     atom    8 type  3   force =     0.00000000    0.00000000   -0.00000000
     atom    9 type  4   force =    -0.02059842    3.95459874   -1.85899687
     atom   10 type  4   force =     0.02059842   -3.95459875    1.85899687
     atom   11 type  4   force =    -0.02059842   -3.95459874    1.85899687
     atom   12 type  4   force =     0.02059842    3.95459875   -1.85899687
     atom   13 type  4   force =     1.77630706    1.70188276    1.61670863
     atom   14 type  4   force =    -1.77630706   -1.70188276   -1.61670863
     atom   15 type  4   force =     1.77630706   -1.70188276   -1.61670863
     atom   16 type  4   force =    -1.77630706    1.70188276    1.61670863
     atom   17 type  4   force =     1.22869914   -2.10630483    1.40315015
     atom   18 type  4   force =    -1.22869914    2.10630483   -1.40315015
     atom   19 type  4   force =     1.22869914    2.10630483   -1.40315015
     atom   20 type  4   force =    -1.22869914   -2.10630483    1.40315015
     The local contribution  to forces
     atom    1 type  1   force =     2.83423226   -1.17820274    0.23197530
     atom    2 type  1   force =    -2.83412998    1.17826539   -0.23198851
     atom    3 type  1   force =     2.83362042    1.17816347   -0.23195061
     atom    4 type  1   force =    -2.83373600   -1.17823350    0.23198881
     atom    5 type  2   force =    -0.00009982    0.00012683   -0.00011295
     atom    6 type  2   force =    -0.00000794   -0.00001358   -0.00032959
     atom    7 type  3   force =    -0.00007472    0.00001425   -0.00003250
     atom    8 type  3   force =     0.00009318   -0.00002198    0.00011827
     atom    9 type  4   force =    -0.11867394   -3.60451134    2.26165106
     atom   10 type  4   force =     0.11860077    3.60447870   -2.26169419
     atom   11 type  4   force =    -0.11890629    3.60418779   -2.26163960
     atom   12 type  4   force =     0.11891937   -3.60414451    2.26169884
     atom   13 type  4   force =    -1.31200842   -1.89206478   -1.39322736
     atom   14 type  4   force =     1.31198641    1.89210280    1.39318460
     atom   15 type  4   force =    -1.31145212    1.89263814    1.39320464
     atom   16 type  4   force =     1.31142009   -1.89262903   -1.39320890
     atom   17 type  4   force =    -1.45942167    1.62777139   -1.23728775
     atom   18 type  4   force =     1.45939427   -1.62777834    1.23722441
     atom   19 type  4   force =    -1.46022272   -1.62760689    1.23689945
     atom   20 type  4   force =     1.46024934    1.62763014   -1.23697560
     The core correction contribution to forces
     atom    1 type  1   force =    -0.00004541   -0.00000172   -0.00001537
     atom    2 type  1   force =     0.00004542    0.00000175    0.00001536
     atom    3 type  1   force =    -0.00004546    0.00000175    0.00001537
     atom    4 type  1   force =     0.00004542   -0.00000176   -0.00001535
     atom    5 type  2   force =     0.00000009   -0.00000002   -0.00000005
     atom    6 type  2   force =    -0.00000005   -0.00000002    0.00000008
     atom    7 type  3   force =     0.00000634    0.00000067   -0.00000416
     atom    8 type  3   force =     0.00000404    0.00000562    0.00000980
     atom    9 type  4   force =    -0.00195054    0.00473659    0.00464021
     atom   10 type  4   force =     0.00194973   -0.00473694   -0.00464081
     atom   11 type  4   force =    -0.00195123   -0.00473713   -0.00464150
     atom   12 type  4   force =     0.00195148    0.00473930    0.00464083
     atom   13 type  4   force =     0.00539695   -0.00173689    0.00322806
     atom   14 type  4   force =    -0.00539748    0.00173683   -0.00322838
     atom   15 type  4   force =     0.00539583    0.00173851   -0.00322934
     atom   16 type  4   force =    -0.00539530   -0.00173862    0.00322875
     atom   17 type  4   force =    -0.00188927   -0.00543185    0.00242006
     atom   18 type  4   force =     0.00188875    0.00543145   -0.00242016
     atom   19 type  4   force =    -0.00189085    0.00542915   -0.00242472
     atom   20 type  4   force =     0.00189077   -0.00542929    0.00242339
     The Hubbard contrib.    to forces
     atom    1 type  1   force =     0.00000000    0.00000000    0.00000000
     atom    2 type  1   force =     0.00000000    0.00000000    0.00000000
     atom    3 type  1   force =     0.00000000    0.00000000    0.00000000
     atom    4 type  1   force =     0.00000000    0.00000000    0.00000000
     atom    5 type  2   force =     0.00000000    0.00000000    0.00000000
     atom    6 type  2   force =     0.00000000    0.00000000    0.00000000
     atom    7 type  3   force =     0.00000000    0.00000000    0.00000000
     atom    8 type  3   force =     0.00000000    0.00000000    0.00000000
     atom    9 type  4   force =     0.00000000    0.00000000    0.00000000
     atom   10 type  4   force =     0.00000000    0.00000000    0.00000000
     atom   11 type  4   force =     0.00000000    0.00000000    0.00000000
     atom   12 type  4   force =     0.00000000    0.00000000    0.00000000
     atom   13 type  4   force =     0.00000000    0.00000000    0.00000000
     atom   14 type  4   force =     0.00000000    0.00000000    0.00000000
     atom   15 type  4   force =     0.00000000    0.00000000    0.00000000
     atom   16 type  4   force =     0.00000000    0.00000000    0.00000000
     atom   17 type  4   force =     0.00000000    0.00000000    0.00000000
     atom   18 type  4   force =     0.00000000    0.00000000    0.00000000
     atom   19 type  4   force =     0.00000000    0.00000000    0.00000000
     atom   20 type  4   force =     0.00000000    0.00000000    0.00000000
     The SCF correction term to forces
     atom    1 type  1   force =    -0.00028267   -0.00025261   -0.00001107
     atom    2 type  1   force =     0.00021848    0.00021159    0.00001639
     atom    3 type  1   force =     0.00024318    0.00024138    0.00000988
     atom    4 type  1   force =    -0.00016305   -0.00022065   -0.00002183
     atom    5 type  2   force =     0.00007547   -0.00002949   -0.00013623
     atom    6 type  2   force =     0.00004588    0.00000371    0.00064795
     atom    7 type  3   force =     0.00003948    0.00001117    0.00017711
     atom    8 type  3   force =    -0.00009274   -0.00002747   -0.00028288
     atom    9 type  4   force =    -0.00010557    0.00009767   -0.00046349
     atom   10 type  4   force =     0.00015287   -0.00005118    0.00045500
     atom   11 type  4   force =     0.00005889    0.00022528    0.00044923
     atom   12 type  4   force =    -0.00007170   -0.00017770   -0.00050364
     atom   13 type  4   force =     0.00009384   -0.00006403    0.00004274
     atom   14 type  4   force =    -0.00010210    0.00003462    0.00006292
     atom   15 type  4   force =    -0.00055465   -0.00040598   -0.00008985
     atom   16 type  4   force =     0.00058696    0.00039165   -0.00005277
     atom   17 type  4   force =    -0.00010987    0.00006079    0.00011865
     atom   18 type  4   force =     0.00010515   -0.00010309    0.00003488
     atom   19 type  4   force =     0.00057177   -0.00041896    0.00003901
     atom   20 type  4   force =    -0.00061199    0.00038419   -0.00008900

     Total force =     0.091482     Total SCF correction =     0.002028

     Computing stress (Cartesian axis) and pressure

     negative rho (up, down):  6.402E-01 0.000E+00
          total   stress  (Ry/bohr**3)                   (kbar)     P=     -408.13
  -0.00274940   0.00000000   0.00000000         -404.45        0.00        0.00
   0.00000000  -0.00249919  -0.00006723            0.00     -367.64       -9.89
   0.00000000  -0.00006723  -0.00307467            0.00       -9.89     -452.30

     kinetic stress (kbar)  25782.94      0.00      0.00
                                0.00  25878.98    -47.75
                                0.00    -47.75  25616.77

     local   stress (kbar) -10738.74     -0.29      0.17
                               -0.29  -9453.53   1091.89
                                0.17   1091.89 -15235.51

     nonloc. stress (kbar)   9776.30      0.00      0.00
                                0.00   9790.00     -3.66
                                0.00     -3.66   9811.49

     hartree stress (kbar)  15805.78      0.11     -0.05
                                0.11  15229.94   -362.66
                               -0.05   -362.66  17784.92

     exc-cor stress (kbar)   -730.59      0.00     -0.00
                                0.00   -732.34     -2.11
                               -0.00     -2.11   -730.18

     corecor stress (kbar)  -6316.56     -0.01      0.00
                               -0.01  -6318.94      2.27
                                0.00      2.27  -6312.97

     ewald   stress (kbar) -33983.58      0.00      0.00
                                0.00 -34761.75   -687.86
                                0.00   -687.86 -31386.82

     hubbard stress (kbar)      0.00      0.00      0.00
                                0.00      0.00      0.00
                                0.00      0.00      0.00

     DFT-D   stress (kbar)      0.00      0.00      0.00
                                0.00      0.00      0.00
                                0.00      0.00      0.00

     XDM     stress (kbar)      0.00      0.00      0.00
                                0.00      0.00      0.00
                                0.00      0.00      0.00

     dft-nl  stress (kbar)      0.00      0.00      0.00
                                0.00      0.00      0.00
                                0.00      0.00      0.00

     TS-vdW  stress (kbar)      0.00      0.00      0.00
                                0.00      0.00      0.00
                                0.00      0.00      0.00

[...]

                                0.00      0.00      0.00

     Writing all to output data dir calculations/myprefix.save/

     General routines

     Parallel routines

     PAW routines

   This run was terminated on:  10:15:19   6Mar2023

   JOB DONE.