     Program PWSCF v.7.0 starts on  3Mar2023 at 11:58: 4

     R & G space division:  proc/nbgrp/npool/nimage =      32

     Reading input from espresso_179.pwi
Warning: card &CELL ignored
Warning: card / ignored

     Current dimensions of program PWSCF are:
     Max number of different atomic species (ntypx) = 10
     Max number of k-points (npk) =  40000
     Max angular momentum in pseudopotentials (lmaxx) =  4

     gamma-point specific algorithms are used
     Message from routine setup:
     using ibrav=0 with symmetry is DISCOURAGED, use correct ibrav instead

     Using Slab Decomposition

     bravais-lattice index     =            0
     lattice parameter (alat)  =      10.9896  a.u.
     unit-cell volume          =    1021.7025 (a.u.)^3
     number of atoms/cell      =           14
     number of atomic types    =            2
     number of electrons       =       112.00
     number of Kohn-Sham states=           67
     kinetic-energy cutoff     =      30.0000  Ry
     charge density cutoff     =     240.0000  Ry
     scf convergence threshold =      1.0E-06
     mixing beta               =       0.7000
     number of iterations used =            8  plain     mixing
     Exchange-correlation= PBE
                           (   1   4   3   4   0   0   0)

     celldm(1)=  10.989606  celldm(2)=   0.000000  celldm(3)=   0.000000
     celldm(4)=   0.000000  celldm(5)=   0.000000  celldm(6)=   0.000000

     crystal axes: (cart. coord. in units of alat)
               a(1) = (   1.000000   0.000000   0.000000 )
               a(2) = (  -0.333333   0.942809   0.000000 )
               a(3) = (  -0.333333  -0.471405   0.816497 )

     reciprocal axes: (cart. coord. in units 2 pi/alat)
               b(1) = (  1.000000  0.353553  0.612372 )
               b(2) = (  0.000000  1.060660  0.612372 )
               b(3) = (  0.000000  0.000000  1.224745 )

     PseudoPot. # 1 for Hf read from file:
     /home/pragov/projects/rrg-bengioy-ad/pragov/crystal_structure_design/SSSP/Hf-sp.oncvpsp.upf
     MD5 check sum: 417ed15784afe83d2e06dacf143de3f8
     Pseudo is Norm-conserving + core correction, Zval = 12.0
     Generated using ONCVPSP code by D. R. Hamann
     Using radial grid of 1656 points,  8 beta functions with:
                l(1) =   0
                l(2) =   0
                l(3) =   1
                l(4) =   1
                l(5) =   2
                l(6) =   2
                l(7) =   3
                l(8) =   3

     PseudoPot. # 2 for N  read from file:
     /home/pragov/projects/rrg-bengioy-ad/pragov/crystal_structure_design/SSSP/N.pbe-n-radius_5.UPF
     MD5 check sum: 16739722b17309cd8fe442a2ace49922
     Pseudo is Ultrasoft + core correction, Zval =  5.0
     Generated using "atomic" code by A. Dal Corso  v.5.1
     Using radial grid of 1085 points,  4 beta functions with:
                l(1) =   0
                l(2) =   0
                l(3) =   1
                l(4) =   1
     Q(r) pseudized with 0 coefficients

     atomic species   valence    mass     pseudopotential
        Hf            12.00   178.49000     Hf( 1.00)
        N              5.00    14.00700     N ( 1.00)

      2 Sym. Ops. (no inversion) found ( 1 have fractional translation)

                                    s                        frac. trans.

      isym =  1     identity

 cryst.   s( 1) = (     1          0          0      )
                  (     0          1          0      )
                  (     0          0          1      )

 cart.    s( 1) = (  1.0000000 -0.0000000 -0.0000000 )
                  (  0.0000000  1.0000000  0.0000000 )
                  (  0.0000000  0.0000000  1.0000000 )

      isym =  2     inv. 180 deg rotation - cart. axis [0,0,1]

 cryst.   s( 2) = (     1          0          0      )    f =( -0.5000000 )
                  (     0          1          0      )       (  0.0000000 )
                  (    -1         -1         -1      )       (  0.0000000 )

 cart.    s( 2) = (  1.0000000 -0.0000000 -0.0000000 )    f =( -0.5000000 )
                  (  0.0000000  1.0000000 -0.0000000 )       (  0.0000000 )
                  (  0.0000000  0.0000000 -1.0000000 )       (  0.0000000 )

   Cartesian axes

     site n.     atom                  positions (alat units)
         1           Hf  tau(   1) = (   0.7500000   0.1767767   0.1020621  )
         2           Hf  tau(   2) = (  -0.2500000   0.7071068   0.2041241  )
         3           Hf  tau(   3) = (  -0.0833333   0.2357023   0.6123724  )
         4           Hf  tau(   4) = (  -0.0833333  -0.2946278   0.7144345  )
         5           Hf  tau(   5) = (   0.4166667   0.0589256   0.5103104  )
         6           Hf  tau(   6) = (   0.2500000   0.5303301   0.3061862  )
         7           N   tau(   7) = (  -0.0445553   0.6440960   0.5173861  )
         8           N   tau(   8) = (  -0.0330007   0.4714045   0.0000000  )
         9           N   tau(   9) = (   0.1221113   0.1726915   0.2991105  )
        10           N   tau(  10) = (  -0.2112220  -0.1096807   0.4082483  )
        11           N   tau(  11) = (   0.2887780   0.4083938   0.7073587  )
        12           N   tau(  12) = (  -0.3778887   0.3617238   0.4082483  )
        13           N   tau(  13) = (   0.4554447  -0.0630108   0.1091378  )
        14           N   tau(  14) = (   0.4669993   0.4714045   0.0000000  )

   Crystallographic axes

     site n.     atom                  positions (cryst. coord.)
         1           Hf  tau(   1) = (  0.8750000  0.2500000  0.1250000  )
         2           Hf  tau(   2) = (  0.1250000  0.8750000  0.2500000  )
         3           Hf  tau(   3) = (  0.3750000  0.6250000  0.7500000  )
         4           Hf  tau(   4) = (  0.2500000  0.1250000  0.8750000  )
         5           Hf  tau(   5) = (  0.7500000  0.3750000  0.6250000  )
         6           Hf  tau(   6) = (  0.6250000  0.7500000  0.3750000  )
         7           N   tau(   7) = (  0.5000000  1.0000000  0.6336660  )
         8           N   tau(   8) = (  0.1336660  0.5000000  0.0000000  )
         9           N   tau(   9) = (  0.3663340  0.3663340  0.3663340  )
        10           N   tau(  10) = (  0.0000000  0.1336660  0.5000000  )
        11           N   tau(  11) = (  0.8663340  0.8663340  0.8663340  )
        12           N   tau(  12) = ( -0.0000000  0.6336660  0.5000000  )
        13           N   tau(  13) = (  0.5000000  0.0000000  0.1336660  )
        14           N   tau(  14) = (  0.6336660  0.5000000  0.0000000  )

     number of k points=     1  Methfessel-Paxton smearing, width (Ry)=  0.0010
                       cart. coord. in units 2pi/alat
        k(    1) = (   0.0000000   0.0000000   0.0000000), wk =   2.0000000

                       cryst. coord.
        k(    1) = (   0.0000000   0.0000000   0.0000000), wk =   2.0000000

     Check: negative core charge=   -0.000002

     Initial potential from superposition of free atoms

     starting charge     111.9888, renormalised to     112.0000
     Starting wfcs are   92 randomized atomic wfcs

     Self-consistent Calculation

     iteration #  1     ecut=    30.00 Ry     beta= 0.70
     Davidson diagonalization with overlap

     ethr =  1.00E-02,  avg # of iterations =  2.0

     total energy              =    -836.07867851 Ry
     estimated scf accuracy    <       6.05163574 Ry

[...]

     total energy              =    -839.12280844 Ry
     estimated scf accuracy    <       0.00000533 Ry

     iteration # 13     ecut=    30.00 Ry     beta= 0.70
     Davidson diagonalization with overlap

     ethr =  4.76E-09,  avg # of iterations =  3.0

     End of self-consistent calculation

          k = 0.0000 0.0000 0.0000 (  1450 PWs)   bands (ev):

   -45.2462 -45.2075 -45.1973 -45.1805 -45.1473 -45.1403 -14.4764 -14.4408
   -14.3905 -14.3564 -14.3320 -14.3141 -14.3033 -14.0355 -13.9882 -13.9321
   -13.9227 -13.9061 -13.7933 -13.7528 -13.7346 -13.7215 -13.7042 -13.7003
     0.5948   2.1831   3.5525   3.6200   3.6485   3.7186   3.7379   3.7667
    10.2922  10.3039  10.3087  10.3534  10.3588  11.6883  11.6918  11.9119
    13.2377  13.2413  13.2440  13.8648  13.8813  13.8862  14.0486  14.9259
    14.9344  14.9360  15.3370  15.3439  15.3533  16.7539  16.7733  16.7777
    17.4146  17.4298  18.1157  18.1235  18.1331  20.2540  20.2656  20.2762
    21.4573  21.4909  21.4949

     occupation numbers
     1.0000   1.0000   1.0000   1.0000   1.0000   1.0000   1.0000   1.0000
     1.0000   1.0000   1.0000   1.0000   1.0000   1.0000   1.0000   1.0000
     1.0000   1.0000   1.0000   1.0000   1.0000   1.0000   1.0000   1.0000
     1.0000   1.0000   1.0000   1.0000   1.0000   1.0000   1.0000   1.0000
     1.0000   1.0000   1.0000   1.0000   1.0000   1.0000   1.0000   1.0000
     1.0000   1.0000   1.0000   1.0000   1.0000   1.0000   1.0000   1.0000
     1.0000   1.0000   1.0000   1.0000   1.0000   1.0000   1.0000   1.0000
    -0.0000  -0.0000  -0.0000  -0.0000  -0.0000  -0.0000  -0.0000  -0.0000
    -0.0000  -0.0000  -0.0000

     the Fermi energy is    16.9191 ev

!    total energy              =    -839.12280936 Ry
     estimated scf accuracy    <       0.00000018 Ry
     smearing contrib. (-TS)   =       0.00000000 Ry
     internal energy E=F+TS    =    -839.12280936 Ry

     The total energy is F=E-TS. E is the sum of the following terms:
     one-electron contribution =     -30.30846259 Ry
     hartree contribution      =      84.60385306 Ry
     xc contribution           =    -215.89105937 Ry
     ewald contribution        =    -677.52714045 Ry

     convergence has been achieved in  13 iterations

     Forces acting on atoms (cartesian axes, Ry/au):

     atom    1 type  1   force =    -0.00264955    0.00234589   -0.00653282
     atom    2 type  1   force =     0.00216323    0.00900714    0.00351739
     atom    3 type  1   force =     0.00216323    0.00900714   -0.00351739
     atom    4 type  1   force =    -0.00264955    0.00234589    0.00653282
     atom    5 type  1   force =     0.00088751   -0.00943568   -0.02242066
     atom    6 type  1   force =     0.00088751   -0.00943568    0.02242066
     atom    7 type  2   force =    -0.00370494   -0.00944565    0.02896693
     atom    8 type  2   force =     0.02584772    0.00022069   -0.00550989
     atom    9 type  2   force =    -0.00370494   -0.00944565   -0.02896693
     atom   10 type  2   force =    -0.00533953    0.02350281   -0.00601423
     atom   11 type  2   force =    -0.01720444   -0.01619521   -0.03328374
     atom   12 type  2   force =    -0.00533953    0.02350281    0.00601423
     atom   13 type  2   force =    -0.01720444   -0.01619521    0.03328374
     atom   14 type  2   force =     0.02584772    0.00022069    0.00550989
     The non-local contrib.  to forces
     atom    1 type  1   force =    -0.00417285    0.00274334   -0.00926986
     atom    2 type  1   force =     0.00370023    0.00308755    0.00055777
     atom    3 type  1   force =     0.00370023    0.00308755   -0.00055777
     atom    4 type  1   force =    -0.00417285    0.00274334    0.00926986
     atom    5 type  1   force =     0.00425363   -0.00212340   -0.01651346
     atom    6 type  1   force =     0.00425363   -0.00212340    0.01651346
     atom    7 type  2   force =     0.04156346    0.06105634   -0.10090241
     atom    8 type  2   force =    -0.13315622    0.00302747   -0.00594244
     atom    9 type  2   force =     0.04156346    0.06105634    0.10090241
     atom   10 type  2   force =     0.03949447   -0.11091658    0.00610643
     atom   11 type  2   force =     0.03013514    0.06836438    0.09556923
     atom   12 type  2   force =     0.03949447   -0.11091658   -0.00610643
     atom   13 type  2   force =     0.03013514    0.06836438   -0.09556923
     atom   14 type  2   force =    -0.13315622    0.00302747    0.00594244
     The ionic contribution  to forces
     atom    1 type  1   force =    -0.00000000   -0.00000000    0.00000000
     atom    2 type  1   force =     0.00000000   -0.00000000   -0.00000000
     atom    3 type  1   force =    -0.00000000    0.00000000   -0.00000000
     atom    4 type  1   force =    -0.00000000    0.00000000   -0.00000000
     atom    5 type  1   force =     0.00000000   -0.00000000    0.00000000
     atom    6 type  1   force =     0.00000000   -0.00000000   -0.00000000
     atom    7 type  2   force =    -0.37378706   -0.52861474    0.91558758
     atom    8 type  2   force =     1.12136119    0.00000000   -0.00000000
     atom    9 type  2   force =    -0.37378707   -0.52861474   -0.91558758
     atom   10 type  2   force =    -0.37378706    1.05722947    0.00000000
     atom   11 type  2   force =    -0.37378706   -0.52861474   -0.91558758
     atom   12 type  2   force =    -0.37378706    1.05722947    0.00000000
     atom   13 type  2   force =    -0.37378706   -0.52861474    0.91558758
     atom   14 type  2   force =     1.12136119   -0.00000000    0.00000000
     The local contribution  to forces
     atom    1 type  1   force =     0.01081530   -0.00017208    0.00925787
     atom    2 type  1   force =    -0.00542779    0.00906798    0.00935283
     atom    3 type  1   force =     0.00202721    0.00345696    0.00336136
     atom    4 type  1   force =    -0.00931326    0.00001954    0.00566671
     atom    5 type  1   force =    -0.00025659   -0.00761055   -0.01170453
     atom    6 type  1   force =    -0.00509252   -0.00361618    0.00110420
     atom    7 type  2   force =     0.32557042    0.45061179   -0.78662226
     atom    8 type  2   force =    -0.96753108   -0.00396974    0.01033176
     atom    9 type  2   force =     0.33152221    0.46743609    0.78653292
     atom   10 type  2   force =     0.32664993   -0.92501865   -0.01196882
     atom   11 type  2   force =     0.32857890    0.44496369    0.78346519
     atom   12 type  2   force =     0.33178211   -0.92089551    0.01169537
     atom   13 type  2   force =     0.32474895    0.44594701   -0.79196482
     atom   14 type  2   force =    -0.95954876   -0.00043036    0.00949440
     The core correction contribution to forces
     atom    1 type  1   force =     0.00180878    0.00062077    0.00260554
     atom    2 type  1   force =    -0.00021570    0.00069694    0.00084147
     atom    3 type  1   force =     0.00019912   -0.00021212    0.00095374
     atom    4 type  1   force =    -0.00028242   -0.00003541    0.00061037
     atom    5 type  1   force =    -0.00015893   -0.00144447   -0.00078138
     atom    6 type  1   force =    -0.00128611   -0.00066174   -0.00201461
     atom    7 type  2   force =    -0.00029374   -0.00057845    0.00100803
     atom    8 type  2   force =     0.00110873   -0.00007695    0.00023943
     atom    9 type  2   force =    -0.00015773   -0.00013168   -0.00084952
     atom   10 type  2   force =    -0.00030938    0.00077736   -0.00033816
     atom   11 type  2   force =    -0.00018600   -0.00084672   -0.00107771
     atom   12 type  2   force =    -0.00020674    0.00082051    0.00022899
     atom   13 type  2   force =    -0.00041891   -0.00074525    0.00071628
     atom   14 type  2   force =     0.00112727    0.00005861    0.00016470
     The Hubbard contrib.    to forces
     atom    1 type  1   force =     0.00000000    0.00000000    0.00000000
     atom    2 type  1   force =     0.00000000    0.00000000    0.00000000
     atom    3 type  1   force =     0.00000000    0.00000000    0.00000000
     atom    4 type  1   force =     0.00000000    0.00000000    0.00000000
     atom    5 type  1   force =     0.00000000    0.00000000    0.00000000
     atom    6 type  1   force =     0.00000000    0.00000000    0.00000000
     atom    7 type  2   force =     0.00000000    0.00000000    0.00000000
     atom    8 type  2   force =     0.00000000    0.00000000    0.00000000
     atom    9 type  2   force =     0.00000000    0.00000000    0.00000000
     atom   10 type  2   force =     0.00000000    0.00000000    0.00000000
     atom   11 type  2   force =     0.00000000    0.00000000    0.00000000
     atom   12 type  2   force =     0.00000000    0.00000000    0.00000000
     atom   13 type  2   force =     0.00000000    0.00000000    0.00000000
     atom   14 type  2   force =     0.00000000    0.00000000    0.00000000
     The SCF correction term to forces
     atom    1 type  1   force =    -0.00019387   -0.00003431   -0.00009221
     atom    2 type  1   force =     0.00023463    0.00029067    0.00004664
     atom    3 type  1   force =    -0.00005053   -0.00025214    0.00000661
     atom    4 type  1   force =     0.00005301    0.00001568    0.00002006
     atom    5 type  1   force =    -0.00012231    0.00003549   -0.00009740
     atom    6 type  1   force =     0.00002516   -0.00011804    0.00014148
     atom    7 type  2   force =     0.00000245    0.00018620   -0.00000502
     atom    8 type  2   force =     0.00007856    0.00007459   -0.00024200
     atom    9 type  2   force =     0.00023467   -0.00008939    0.00013382
     atom   10 type  2   force =    -0.00002726    0.00002528    0.00021076
     atom   11 type  2   force =     0.00014849   -0.00006914   -0.00015245
     atom   12 type  2   force =    -0.00014161   -0.00012009    0.00022073
     atom   13 type  2   force =    -0.00013552    0.00006978    0.00001435
     atom   14 type  2   force =    -0.00010829   -0.00006062   -0.00019500

     Total force =     0.096639     Total SCF correction =     0.000872

     Computing stress (Cartesian axis) and pressure

          total   stress  (Ry/bohr**3)                   (kbar)     P=     -125.69
  -0.00102584  -0.00010001   0.00000000         -150.91      -14.71        0.00
  -0.00010001  -0.00101264   0.00000000          -14.71     -148.96        0.00
   0.00000000   0.00000000  -0.00052482            0.00        0.00      -77.20

     kinetic stress (kbar)  25546.93     -6.46     -0.00
                               -6.46  25547.77     -0.00
                               -0.00     -0.00  25582.42

     local   stress (kbar)  -1278.83     -8.14     17.00
                               -8.14  -1278.72    -15.59
                               17.00    -15.59  -1237.15

     nonloc. stress (kbar)  11266.82     -0.07     -0.00
                               -0.07  11267.77     -0.00
                               -0.00     -0.00  11264.27

     hartree stress (kbar)   4061.71      0.63     -1.50
                                0.63   4062.04      1.56
                               -1.50      1.56   4057.54

     exc-cor stress (kbar)   7056.38     -0.03      0.02
                               -0.03   7056.33      0.00
                                0.02      0.00   7056.31

     corecor stress (kbar) -14287.04     -0.64      1.28
                               -0.64 -14287.29     -1.20
                                1.28     -1.20 -14283.73

     ewald   stress (kbar) -32516.86     -0.00     -0.00
                               -0.00 -32516.86     -0.00
                               -0.00     -0.00 -32516.86

     hubbard stress (kbar)      0.00      0.00      0.00
                                0.00      0.00      0.00
                                0.00      0.00      0.00

     DFT-D   stress (kbar)      0.00      0.00      0.00
                                0.00      0.00      0.00
                                0.00      0.00      0.00

     XDM     stress (kbar)      0.00      0.00      0.00
                                0.00      0.00      0.00
                                0.00      0.00      0.00

     dft-nl  stress (kbar)      0.00      0.00      0.00
                                0.00      0.00      0.00
                                0.00      0.00      0.00

     TS-vdW  stress (kbar)      0.00      0.00      0.00
                                0.00      0.00      0.00
                                0.00      0.00      0.00

[...]

                                0.00      0.00      0.00

     Writing all to output data dir calculations/myprefix.save/

     General routines

     Parallel routines

   This run was terminated on:  11:58: 7   3Mar2023

   JOB DONE.