     Program PWSCF v.7.0 starts on  3Mar2023 at 11:35:35

     R & G space division:  proc/nbgrp/npool/nimage =      32

     Reading input from espresso_113.pwi
Warning: card &CELL ignored
Warning: card / ignored

     Current dimensions of program PWSCF are:
     Max number of different atomic species (ntypx) = 10
     Max number of k-points (npk) =  40000
     Max angular momentum in pseudopotentials (lmaxx) =  4

     gamma-point specific algorithms are used
     Message from routine setup:
     using ibrav=0 with symmetry is DISCOURAGED, use correct ibrav instead

     Using Slab Decomposition

     bravais-lattice index     =            0
     lattice parameter (alat)  =      13.8674  a.u.
     unit-cell volume          =     686.4199 (a.u.)^3
     number of atoms/cell      =            5
     number of atomic types    =            3
     number of electrons       =        59.00
     number of Kohn-Sham states=           36
     kinetic-energy cutoff     =      30.0000  Ry
     charge density cutoff     =     240.0000  Ry
     scf convergence threshold =      1.0E-06
     mixing beta               =       0.7000
     number of iterations used =            8  plain     mixing
     Exchange-correlation= SLA  PW   PBE  PBE
                           (   1   4   3   4   0   0   0)

     celldm(1)=  13.867385  celldm(2)=   0.000000  celldm(3)=   0.000000
     celldm(4)=   0.000000  celldm(5)=   0.000000  celldm(6)=   0.000000

     crystal axes: (cart. coord. in units of alat)
               a(1) = (   1.000000   0.000000   0.000000 )
               a(2) = (   0.722654   0.691210   0.000000 )
               a(3) = (  -0.861327  -0.345605   0.372388 )

     reciprocal axes: (cart. coord. in units 2 pi/alat)
               b(1) = (  1.000000 -1.045491  1.342684 )
               b(2) = (  0.000000  1.446738  1.342684 )
               b(3) = (  0.000000  0.000000  2.685369 )

     PseudoPot. # 1 for Tl read from file:
     /home/pragov/projects/rrg-bengioy-ad/pragov/crystal_structure_design/SSSP/Tl_pbe_v1.2.uspp.F.UPF
     MD5 check sum: b76cf1f7e72655a2b2c53cf6385d7059
     Pseudo is Ultrasoft + core correction, Zval = 13.0
     Generated by new atomic code, or converted to UPF format
     Using radial grid of  899 points,  6 beta functions with:
                l(1) =   0
                l(2) =   0
                l(3) =   1
                l(4) =   1
                l(5) =   2
                l(6) =   2
     Q(r) pseudized with  6 coefficients,  rinner =    1.100   1.100   1.100
                                                       1.100   1.100

     PseudoPot. # 2 for Co read from file:
     /home/pragov/projects/rrg-bengioy-ad/pragov/crystal_structure_design/SSSP/Co_pbe_v1.2.uspp.F.UPF
     MD5 check sum: 5f91765df6ddd3222702df6e7b74a16d
     Pseudo is Ultrasoft + core correction, Zval = 17.0
     Generated by new atomic code, or converted to UPF format
     Using radial grid of  863 points,  6 beta functions with:
                l(1) =   0
                l(2) =   0
                l(3) =   1
                l(4) =   1
                l(5) =   2
                l(6) =   2
     Q(r) pseudized with  8 coefficients,  rinner =    1.200   1.200   1.200
                                                       1.200   1.200

     PseudoPot. # 3 for Se read from file:
     /home/pragov/projects/rrg-bengioy-ad/pragov/crystal_structure_design/SSSP/Se_pbe_v1.uspp.F.UPF
     MD5 check sum: 1b3568f3a8ae88f9a2a0ad0698632c85
     Pseudo is Ultrasoft + core correction, Zval =  6.0
     Generated by new atomic code, or converted to UPF format
     Using radial grid of  877 points,  6 beta functions with:
                l(1) =   0
                l(2) =   0
                l(3) =   1
                l(4) =   1
                l(5) =   2
                l(6) =   2
     Q(r) pseudized with  8 coefficients,  rinner =    1.300   1.300   1.300
                                                       1.300   1.300

     atomic species   valence    mass     pseudopotential
        Tl            13.00   204.38000     Tl( 1.00)
        Co            17.00    58.93319     Co( 1.00)
        Se             6.00    78.97100     Se( 1.00)

      4 Sym. Ops., with inversion, found

                                    s                        frac. trans.

      isym =  1     identity

 cryst.   s( 1) = (     1          0          0      )
                  (     0          1          0      )
                  (     0          0          1      )

 cart.    s( 1) = (  1.0000000  0.0000000  0.0000000 )
                  (  0.0000000  1.0000000 -0.0000000 )
                  (  0.0000000  0.0000000  1.0000000 )

      isym =  2     180 deg rotation - cart. axis [0,0,1]

[...]

      isym =  3     inversion

[...]

      isym =  4     inv. 180 deg rotation - cart. axis [0,0,1]

 cryst.   s( 4) = (     1          0          0      )
                  (     0          1          0      )
                  (    -1         -1         -1      )

 cart.    s( 4) = (  1.0000000  0.0000000 -0.0000000 )
                  (  0.0000000  1.0000000 -0.0000000 )
                  (  0.0000000  0.0000000 -1.0000000 )

   Cartesian axes

     site n.     atom                  positions (alat units)
         1           Tl  tau(   1) = (   0.0000000   0.0000000   0.0000000  )
         2           Co  tau(   2) = (   0.5000000   0.0000000   0.1861942  )
         3           Co  tau(   3) = (   0.3613269   0.3456051   0.1861942  )
         4           Se  tau(   4) = (   1.1247345   0.4512966   0.0000000  )
         5           Se  tau(   5) = (   0.5979194   0.2399135   0.0000000  )

   Crystallographic axes

     site n.     atom                  positions (cryst. coord.)
         1           Tl  tau(   1) = (  0.0000000  0.0000000  0.0000000  )
         2           Co  tau(   2) = (  0.7500000  0.2500000  0.5000000  )
         3           Co  tau(   3) = (  0.2500000  0.7500000  0.5000000  )
         4           Se  tau(   4) = (  0.6529080  0.6529080  0.0000000  )
         5           Se  tau(   5) = (  0.3470920  0.3470920  0.0000000  )

     number of k points=     1  Methfessel-Paxton smearing, width (Ry)=  0.0010
                       cart. coord. in units 2pi/alat
        k(    1) = (   0.0000000   0.0000000   0.0000000), wk =   2.0000000

                       cryst. coord.
        k(    1) = (   0.0000000   0.0000000   0.0000000), wk =   2.0000000

     Check: negative core charge=   -0.000009

     Initial potential from superposition of free atoms

     starting charge      56.9950, renormalised to      59.0000

     negative rho (up, down):  5.203E-02 0.000E+00
     Starting wfcs are   43 randomized atomic wfcs

     Self-consistent Calculation

     iteration #  1     ecut=    30.00 Ry     beta= 0.70
     Davidson diagonalization with overlap

     ethr =  1.00E-02,  avg # of iterations =  3.0

     negative rho (up, down):  5.208E-02 0.000E+00

     total energy              =    -824.92170874 Ry
     estimated scf accuracy    <       6.19430188 Ry

[...]

     total energy              =    -828.60353886 Ry
     estimated scf accuracy    <       0.00000120 Ry

     iteration # 37     ecut=    30.00 Ry     beta= 0.70
     Davidson diagonalization with overlap

     ethr =  2.03E-09,  avg # of iterations =  3.0

[...]

     End of self-consistent calculation

          k = 0.0000 0.0000 0.0000 (   950 PWs)   bands (ev):

   -83.2716 -83.2606 -46.8029 -46.8017 -46.4986 -46.4986 -46.4418 -46.4418
    -4.0003  -2.9980  -2.9620  -2.7659  -2.7462  -2.6902  -2.6902   2.1118
     5.9383   6.2526   6.6786   6.6786   7.2160   7.2160   8.7844  10.0300
    10.0641  10.8363  10.8363  10.9560  11.6803  11.6814  11.8548  11.8548
    12.1202  14.9641  14.9641  15.2231

     occupation numbers
     1.0000   1.0000   1.0000   1.0000   1.0000   1.0000   1.0000   1.0000
     1.0000   1.0000   1.0000   1.0000   1.0000   1.0000   1.0000   1.0000
     1.0000   1.0000   1.0000   1.0000   1.0000   1.0000   1.0000   1.0000
     1.0000   1.0000   1.0000   1.0000   0.7772   0.7228  -0.0000  -0.0000
    -0.0000  -0.0000  -0.0000  -0.0000

     the Fermi energy is    11.6851 ev

!    total energy              =    -828.60353894 Ry
     estimated scf accuracy    <          6.9E-09 Ry
     smearing contrib. (-TS)   =      -0.00041055 Ry
     internal energy E=F+TS    =    -828.60312839 Ry

     The total energy is F=E-TS. E is the sum of the following terms:
     one-electron contribution =    -631.01968115 Ry
     hartree contribution      =     347.59005725 Ry
     xc contribution           =    -187.15456927 Ry
     ewald contribution        =    -358.01893522 Ry

     convergence has been achieved in  37 iterations

     negative rho (up, down):  5.130E-02 0.000E+00

     Forces acting on atoms (cartesian axes, Ry/au):

     atom    1 type  1   force =     0.00000000    0.00000000    0.00000000
     atom    2 type  2   force =     0.00000000    0.00000000   -0.00000596
     atom    3 type  2   force =     0.00000000    0.00000000    0.00000596
     atom    4 type  3   force =     0.01670070    0.00670350   -0.00000000
     atom    5 type  3   force =    -0.01670070   -0.00670350    0.00000000
     The non-local contrib.  to forces
     atom    1 type  1   force =     0.00000000    0.00000000    0.00000000
     atom    2 type  2   force =     0.00000000    0.00000000    0.00000288
     atom    3 type  2   force =     0.00000000    0.00000000   -0.00000288
     atom    4 type  3   force =     0.15020306    0.06026837   -0.00000000
     atom    5 type  3   force =    -0.15020306   -0.06026837    0.00000000
     The ionic contribution  to forces
     atom    1 type  1   force =     0.00000000    0.00000000    0.00000000
     atom    2 type  2   force =     0.00000000   -0.00000000    0.00000000
     atom    3 type  2   force =    -0.00000000    0.00000000   -0.00000000
     atom    4 type  3   force =   -17.71991041   -7.11006584    0.00000000
     atom    5 type  3   force =    17.71991041    7.11006584   -0.00000000
     The local contribution  to forces
     atom    1 type  1   force =    -0.00000885    0.00000803   -0.00000035
     atom    2 type  2   force =    -0.00000974   -0.00003218   -0.00001596
     atom    3 type  2   force =     0.00001244    0.00000635    0.00001870
     atom    4 type  3   force =    17.60285400    7.06310259   -0.00000608
     atom    5 type  3   force =   -17.60285050   -7.06309802    0.00000160
     The core correction contribution to forces
     atom    1 type  1   force =    -0.00000144   -0.00000086   -0.00000011
     atom    2 type  2   force =     0.00000029   -0.00000023   -0.00000011
     atom    3 type  2   force =     0.00000004   -0.00000007    0.00000009
     atom    4 type  3   force =    -0.01652369   -0.00662933   -0.00000259
     atom    5 type  3   force =     0.01652290    0.00662942    0.00000177
     The Hubbard contrib.    to forces
     atom    1 type  1   force =     0.00000000    0.00000000    0.00000000
     atom    2 type  2   force =     0.00000000    0.00000000    0.00000000
     atom    3 type  2   force =     0.00000000    0.00000000    0.00000000
     atom    4 type  3   force =     0.00000000    0.00000000    0.00000000
     atom    5 type  3   force =     0.00000000    0.00000000    0.00000000
     The SCF correction term to forces
     atom    1 type  1   force =     0.00001727   -0.00000238    0.00000047
     atom    2 type  2   force =     0.00003510    0.00003198    0.00000011
     atom    3 type  2   force =    -0.00000282   -0.00000511   -0.00001706
     atom    4 type  3   force =     0.00007714    0.00002910    0.00000056
     atom    5 type  3   force =    -0.00008105   -0.00003098    0.00000232

     Total force =     0.025450     Total SCF correction =     0.000131

     Computing stress (Cartesian axis) and pressure

     negative rho (up, down):  5.130E-02 0.000E+00
          total   stress  (Ry/bohr**3)                   (kbar)     P=      -59.07
  -0.00034172   0.00003920   0.00000000          -50.27        5.77        0.00
   0.00003920  -0.00042361   0.00000000            5.77      -62.32        0.00
   0.00000000   0.00000000  -0.00043933            0.00        0.00      -64.63

     kinetic stress (kbar)  16129.47     54.70     -0.00
                               54.70  16015.08     -0.00
                               -0.00     -0.00  15993.11

     local   stress (kbar)  30196.42  32967.97      0.02
                            32967.97 -38738.91      0.00
                                0.02      0.00 -51967.22

     nonloc. stress (kbar)  11756.33    -98.83     -0.00
                              -98.83  11962.96     -0.00
                               -0.00     -0.00  12002.63

     hartree stress (kbar)    959.81 -15624.82     -0.01
                           -15624.82  33631.00     -0.00
                               -0.01     -0.00  39900.42

     exc-cor stress (kbar)  15001.32     -0.65     -0.00
                               -0.65  15002.68      0.00
                               -0.00      0.00  15002.94

     corecor stress (kbar) -22098.20      0.97      0.00
                                0.97 -22100.22      0.00
                                0.00      0.00 -22100.61

     ewald   stress (kbar) -51995.42 -17293.56      0.00
                           -17293.56 -15834.90      0.00
                                0.00      0.00  -8895.90

     hubbard stress (kbar)      0.00      0.00      0.00
                                0.00      0.00      0.00
                                0.00      0.00      0.00

     DFT-D   stress (kbar)      0.00      0.00      0.00
                                0.00      0.00      0.00
                                0.00      0.00      0.00

     XDM     stress (kbar)      0.00      0.00      0.00
                                0.00      0.00      0.00
                                0.00      0.00      0.00

     dft-nl  stress (kbar)      0.00      0.00      0.00
                                0.00      0.00      0.00
                                0.00      0.00      0.00

     TS-vdW  stress (kbar)      0.00      0.00      0.00
                                0.00      0.00      0.00
                                0.00      0.00      0.00

[...]

                                0.00      0.00      0.00

     Writing all to output data dir calculations/myprefix.save/

     General routines

     Parallel routines

   This run was terminated on:  11:35:38   3Mar2023

   JOB DONE.