     Program PWSCF v.7.0 starts on  4Mar2023 at 22:54:24

     R & G space division:  proc/nbgrp/npool/nimage =      32

     Reading input from espresso_7994.pwi
Warning: card &CELL ignored
Warning: card / ignored

     Current dimensions of program PWSCF are:
     Max number of different atomic species (ntypx) = 10
     Max number of k-points (npk) =  40000
     Max angular momentum in pseudopotentials (lmaxx) =  4
     file Al.pbe-n-kjpaw_psl.1.0.0.UPF: wavefunction(s)  3S 3P renormalized
     file C.pbe-n-kjpaw_psl.1.0.0.UPF: wavefunction(s)  2S 2P renormalized

     gamma-point specific algorithms are used
     Message from routine setup:
     using ibrav=0 with symmetry is DISCOURAGED, use correct ibrav instead

     Using Slab Decomposition

     bravais-lattice index     =            0
     lattice parameter (alat)  =       6.7826  a.u.
     unit-cell volume          =    1709.0738 (a.u.)^3
     number of atoms/cell      =           14
     number of atomic types    =            3
     number of electrons       =        96.00
     number of Kohn-Sham states=           58
     kinetic-energy cutoff     =      30.0000  Ry
     charge density cutoff     =     240.0000  Ry
     scf convergence threshold =      1.0E-06
     mixing beta               =       0.7000
     number of iterations used =            8  plain     mixing
     Exchange-correlation= SLA  PW   PBX  PBC
                           (   1   4   3   4   0   0   0)

     celldm(1)=   6.782565  celldm(2)=   0.000000  celldm(3)=   0.000000
     celldm(4)=   0.000000  celldm(5)=   0.000000  celldm(6)=   0.000000

     crystal axes: (cart. coord. in units of alat)
               a(1) = (   1.000000   0.000000   0.000000 )
               a(2) = (   0.000000   1.966487   0.000000 )
               a(3) = (   0.000000   0.000000   2.785402 )

     reciprocal axes: (cart. coord. in units 2 pi/alat)
               b(1) = (  1.000000  0.000000  0.000000 )
               b(2) = (  0.000000  0.508521  0.000000 )
               b(3) = (  0.000000  0.000000  0.359015 )

     PseudoPot. # 1 for Y  read from file:
     /home/pragov/projects/rrg-bengioy-ad/pragov/crystal_structure_design/SSSP/Y_pbe_v1.uspp.F.UPF
     MD5 check sum: 2cf71db95cafeb975fc457bd7f14888e
     Pseudo is Ultrasoft + core correction, Zval = 11.0
     Generated by new atomic code, or converted to UPF format
     Using radial grid of  885 points,  6 beta functions with:
                l(1) =   0
                l(2) =   0
                l(3) =   1
                l(4) =   1
                l(5) =   2
                l(6) =   2
     Q(r) pseudized with  6 coefficients,  rinner =    1.200   1.200   1.200
                                                       1.200   1.200

     PseudoPot. # 2 for Al read from file:
     /home/pragov/projects/rrg-bengioy-ad/pragov/crystal_structure_design/SSSP/Al.pbe-n-kjpaw_psl.1.0.0.UPF
     MD5 check sum: cfc449ca30b5f3223ec38ddd88ac046d
     Pseudo is Projector augmented-wave + core cor, Zval =  3.0
     Generated using "atomic" code by A. Dal Corso  v.5.1
     Shape of augmentation charge: PSQ
     Using radial grid of 1135 points,  6 beta functions with:
                l(1) =   0
                l(2) =   0
                l(3) =   1
                l(4) =   1
                l(5) =   2
                l(6) =   2
     Q(r) pseudized with 0 coefficients

     PseudoPot. # 3 for C  read from file:
     /home/pragov/projects/rrg-bengioy-ad/pragov/crystal_structure_design/SSSP/C.pbe-n-kjpaw_psl.1.0.0.UPF
     MD5 check sum: 5d2aebdfa2cae82b50a7e79e9516da0f
     Pseudo is Projector augmented-wave + core cor, Zval =  4.0
     Generated using "atomic" code by A. Dal Corso  v.5.1
     Shape of augmentation charge: PSQ
     Using radial grid of 1073 points,  4 beta functions with:
                l(1) =   0
                l(2) =   0
                l(3) =   1
                l(4) =   1
     Q(r) pseudized with 0 coefficients

     atomic species   valence    mass     pseudopotential
        Y             11.00    88.90584     Y ( 1.00)
        Al             3.00    26.98154     Al( 1.00)
        C              4.00    12.01100     C ( 1.00)

      8 Sym. Ops., with inversion, found ( 4 have fractional translation)

                                    s                        frac. trans.

      isym =  1     identity

 cryst.   s( 1) = (     1          0          0      )
                  (     0          1          0      )
                  (     0          0          1      )

 cart.    s( 1) = (  1.0000000  0.0000000  0.0000000 )
                  (  0.0000000  1.0000000  0.0000000 )
                  (  0.0000000  0.0000000  1.0000000 )

      isym =  2     180 deg rotation - cart. axis [0,0,1]

 cryst.   s( 2) = (    -1          0          0      )    f =( -0.0000000 )
                  (     0         -1          0      )       ( -0.5000000 )
                  (     0          0          1      )       (  0.0000000 )

 cart.    s( 2) = ( -1.0000000  0.0000000  0.0000000 )    f =( -0.0000000 )
                  (  0.0000000 -1.0000000  0.0000000 )       ( -0.9832434 )
                  (  0.0000000  0.0000000  1.0000000 )       (  0.0000000 )

[...]

      isym =  4     180 deg rotation - cart. axis [1,0,0]

[...]

      isym =  5     inversion

[...]

      isym =  6     inv. 180 deg rotation - cart. axis [0,0,1]

[...]

 cryst.   s( 7) = (     1          0          0      )    f =(  0.0000000 )
                  (     0         -1          0      )       ( -0.5000000 )
                  (     0          0          1      )       (  0.0000000 )

 cart.    s( 7) = (  1.0000000  0.0000000  0.0000000 )    f =(  0.0000000 )
                  (  0.0000000 -1.0000000  0.0000000 )       ( -0.9832434 )
                  (  0.0000000  0.0000000  1.0000000 )       (  0.0000000 )

      isym =  8     inv. 180 deg rotation - cart. axis [1,0,0]

 cryst.   s( 8) = (    -1          0          0      )
                  (     0          1          0      )
                  (     0          0          1      )

 cart.    s( 8) = ( -1.0000000  0.0000000  0.0000000 )
                  (  0.0000000  1.0000000  0.0000000 )
                  (  0.0000000  0.0000000  1.0000000 )

   Cartesian axes

     site n.     atom                  positions (alat units)
         1           Y   tau(   1) = (   0.5000000   1.0020627   0.5541779  )
         2           Y   tau(   2) = (   0.5000000   0.9644241   2.2312237  )
         3           Y   tau(   3) = (   0.5000000   1.9476675   0.5541779  )
         4           Y   tau(   4) = (   0.5000000   0.0188193   2.2312237  )
         5           Y   tau(   5) = (   0.0000000   1.4748651   1.2738979  )
         6           Y   tau(   6) = (   0.0000000   0.4916217   1.5115038  )
         7           Al  tau(   7) = (   0.0000000   1.4748651   0.0178349  )
         8           Al  tau(   8) = (   0.0000000   0.4916217   2.7675667  )
         9           C   tau(   9) = (   0.5000000   1.0017933   1.5762755  )
        10           C   tau(  10) = (   0.5000000   0.9646935   1.2091261  )
        11           C   tau(  11) = (   0.5000000   1.9479369   1.5762755  )
        12           C   tau(  12) = (   0.5000000   0.0185499   1.2091261  )
        13           C   tau(  13) = (   0.0000000   1.4748651   0.5807897  )
        14           C   tau(  14) = (   0.0000000   0.4916217   2.2046120  )

   Crystallographic axes

     site n.     atom                  positions (cryst. coord.)
         1           Y   tau(   1) = (  0.5000000  0.5095700  0.1989580  )
         2           Y   tau(   2) = (  0.5000000  0.4904300  0.8010420  )
         3           Y   tau(   3) = (  0.5000000  0.9904300  0.1989580  )
         4           Y   tau(   4) = (  0.5000000  0.0095700  0.8010420  )
         5           Y   tau(   5) = (  0.0000000  0.7500000  0.4573480  )
         6           Y   tau(   6) = (  0.0000000  0.2500000  0.5426520  )
         7           Al  tau(   7) = (  0.0000000  0.7500000  0.0064030  )
         8           Al  tau(   8) = (  0.0000000  0.2500000  0.9935970  )
         9           C   tau(   9) = (  0.5000000  0.5094330  0.5659060  )
        10           C   tau(  10) = (  0.5000000  0.4905670  0.4340940  )
        11           C   tau(  11) = (  0.5000000  0.9905670  0.5659060  )
        12           C   tau(  12) = (  0.5000000  0.0094330  0.4340940  )
        13           C   tau(  13) = (  0.0000000  0.7500000  0.2085120  )
        14           C   tau(  14) = (  0.0000000  0.2500000  0.7914880  )

     number of k points=     1  Methfessel-Paxton smearing, width (Ry)=  0.0010
                       cart. coord. in units 2pi/alat
        k(    1) = (   0.0000000   0.0000000   0.0000000), wk =   2.0000000

                       cryst. coord.
        k(    1) = (   0.0000000   0.0000000   0.0000000), wk =   2.0000000

     Check: negative core charge=   -0.000014

     Initial potential from superposition of free atoms

     starting charge      95.9684, renormalised to      96.0000

     negative rho (up, down):  2.557E-01 0.000E+00
     Starting wfcs are  110 randomized atomic wfcs
     Checking if some PAW data can be deallocated...

     Self-consistent Calculation

     iteration #  1     ecut=    30.00 Ry     beta= 0.70
     Davidson diagonalization with overlap

     ethr =  1.00E-02,  avg # of iterations =  2.0

     negative rho (up, down):  2.574E-01 0.000E+00

     total energy              =    -711.56254601 Ry
     estimated scf accuracy    <       5.39764884 Ry

[...]

     total energy              =    -714.80387975 Ry
     estimated scf accuracy    <       0.00000990 Ry

     iteration # 48     ecut=    30.00 Ry     beta= 0.70
     Davidson diagonalization with overlap

     ethr =  4.63E-09,  avg # of iterations =  1.0

[...]

     End of self-consistent calculation

          k = 0.0000 0.0000 0.0000 (  2355 PWs)   bands (ev):

   -32.3023 -32.2788 -31.4912 -31.4877 -31.4593 -31.4558 -12.7902 -12.5237
   -12.4948 -12.3438 -12.1080 -12.0489 -11.8982 -11.8154 -11.7986 -11.7582
   -11.7508 -11.7366 -11.3585 -11.3534 -11.3125 -11.3076 -11.3045 -11.2986
    -5.1615  -4.3680  -0.0168   0.2773   2.8137   3.0009   3.9746   4.0704
     4.8439   5.2430   5.5096   5.5379   6.4041   6.7186   6.9182   7.5100
     7.5489   7.7025   8.5340   8.6333   8.9705   9.0122   9.7989  10.7930
    10.8043  10.8081  10.8636  10.9761  11.0334  11.5539  11.7307  11.9138
    12.8037  13.3703

     occupation numbers
     1.0000   1.0000   1.0000   1.0000   1.0000   1.0000   1.0000   1.0000
     1.0000   1.0000   1.0000   1.0000   1.0000   1.0000   1.0000   1.0000
     1.0000   1.0000   1.0000   1.0000   1.0000   1.0000   1.0000   1.0000
     1.0000   1.0000   1.0000   1.0000   1.0000   1.0000   1.0000   1.0000
     1.0000   1.0000   1.0000   1.0000   1.0000   1.0000   1.0000   1.0000
     1.0000   1.0000   1.0000   1.0000   1.0000   1.0000   1.0000   0.8014
     0.1644   0.0342  -0.0000  -0.0000  -0.0000  -0.0000  -0.0000  -0.0000
    -0.0000  -0.0000

     the Fermi energy is    10.7983 ev

!    total energy              =    -714.80387909 Ry
     estimated scf accuracy    <       0.00000083 Ry
     smearing contrib. (-TS)   =      -0.00030784 Ry
     internal energy E=F+TS    =    -714.80357124 Ry

     The total energy is F=E-TS. E is the sum of the following terms:
     one-electron contribution =    -171.41941233 Ry
     hartree contribution      =     124.54035239 Ry
     xc contribution           =    -164.72865362 Ry
     ewald contribution        =    -396.80224265 Ry
     one-center paw contrib.   =    -106.39361504 Ry
      -> PAW hartree energy AE =       0.00000000 Ry
      -> PAW hartree energy PS =       0.00000000 Ry
      -> PAW xc energy AE      =       0.00000000 Ry
      -> PAW xc energy PS      =       0.00000000 Ry
      -> total E_H with PAW    =     124.54035239 Ry
      -> total E_XC with PAW   =    -164.72865362 Ry

     convergence has been achieved in  48 iterations

     negative rho (up, down):  2.549E-01 0.000E+00

     Forces acting on atoms (cartesian axes, Ry/au):

     atom    1 type  1   force =     0.00000000    0.11461513    0.01473310
     atom    2 type  1   force =     0.00000000   -0.11461513   -0.01473310
     atom    3 type  1   force =     0.00000000   -0.11461513    0.01473310
     atom    4 type  1   force =     0.00000000    0.11461513   -0.01473310
     atom    5 type  1   force =     0.00000000    0.00000000   -0.00359770
     atom    6 type  1   force =     0.00000000    0.00000000    0.00359770
     atom    7 type  2   force =     0.00000000    0.00000000    0.01953855
     atom    8 type  2   force =     0.00000000    0.00000000   -0.01953855
     atom    9 type  3   force =     0.00000000   -0.02900926   -0.16376741
     atom   10 type  3   force =    -0.00000000    0.02900926    0.16376741
     atom   11 type  3   force =     0.00000000    0.02900926   -0.16376741
     atom   12 type  3   force =     0.00000000   -0.02900926    0.16376741
     atom   13 type  3   force =     0.00000000    0.00000000   -0.00407412
     atom   14 type  3   force =     0.00000000    0.00000000    0.00407412
     The non-local contrib.  to forces
     atom    1 type  1   force =     0.00000000    0.01006304    0.02174791
     atom    2 type  1   force =    -0.00000000   -0.01006304   -0.02174791
     atom    3 type  1   force =    -0.00000000   -0.01006304    0.02174791
     atom    4 type  1   force =     0.00000000    0.01006304   -0.02174791
     atom    5 type  1   force =     0.00000000    0.00000000    0.07586716
     atom    6 type  1   force =     0.00000000    0.00000000   -0.07586716
     atom    7 type  2   force =     0.00000000    0.00000000   -0.04247881
     atom    8 type  2   force =     0.00000000    0.00000000    0.04247881
     atom    9 type  3   force =     0.00000000    0.00307245   -0.37324813
     atom   10 type  3   force =     0.00000000   -0.00307245    0.37324813
     atom   11 type  3   force =     0.00000000   -0.00307245   -0.37324813
     atom   12 type  3   force =     0.00000000    0.00307245    0.37324813
     atom   13 type  3   force =     0.00000000    0.00000000   -0.20782827
     atom   14 type  3   force =     0.00000000    0.00000000    0.20782827
     The ionic contribution  to forces
     atom    1 type  1   force =    -0.00000000   -6.74955894  -11.01053396
     atom    2 type  1   force =    -0.00000000    6.74955894   11.01053396
     atom    3 type  1   force =     0.00000000    6.74955894  -11.01053396
     atom    4 type  1   force =    -0.00000000   -6.74955894   11.01053396
     atom    5 type  1   force =     0.00000000   -0.00000000    2.02664950
     atom    6 type  1   force =     0.00000000    0.00000000   -2.02664950
     atom    7 type  2   force =    -0.00000000    0.00000000   -2.08280673
     atom    8 type  2   force =     0.00000000    0.00000000    2.08280673
     atom    9 type  3   force =    -0.00000000    1.82248835    4.73421063
     atom   10 type  3   force =     0.00000000   -1.82248835   -4.73421063
     atom   11 type  3   force =    -0.00000000   -1.82248835    4.73421063
     atom   12 type  3   force =    -0.00000000    1.82248835   -4.73421063
     atom   13 type  3   force =     0.00000000   -0.00000000   -4.18957147
     atom   14 type  3   force =     0.00000000   -0.00000000    4.18957147
     The local contribution  to forces
     atom    1 type  1   force =    -0.00000163    6.85782893   11.00747057
     atom    2 type  1   force =     0.00000119   -6.85724569  -11.00701812
     atom    3 type  1   force =     0.00000046   -6.85783040   11.00749002
     atom    4 type  1   force =    -0.00000042    6.85724864  -11.00696456
     atom    5 type  1   force =    -0.00000203   -0.00002875   -2.10422115
     atom    6 type  1   force =    -0.00000118    0.00006068    2.10130631
     atom    7 type  2   force =     0.00000006   -0.00000524    2.13664302
     atom    8 type  2   force =    -0.00000010    0.00000525   -2.13540826
     atom    9 type  3   force =     0.00000264   -1.85333958   -4.52364883
     atom   10 type  3   force =    -0.00000136    1.85338603    4.52257483
     atom   11 type  3   force =     0.00000027    1.85333606   -4.52367879
     atom   12 type  3   force =     0.00000193   -1.85338426    4.52253688
     atom   13 type  3   force =     0.00000043   -0.00000032    4.39035863
     atom   14 type  3   force =    -0.00000007    0.00002041   -4.39032919
     The core correction contribution to forces
     atom    1 type  1   force =     0.00000002   -0.00342162   -0.00362552
     atom    2 type  1   force =     0.00000006    0.00341545    0.00362460
     atom    3 type  1   force =     0.00000005    0.00342140   -0.00362492
     atom    4 type  1   force =    -0.00000015   -0.00341548    0.00362525
     atom    5 type  1   force =    -0.00000010   -0.00000004   -0.00334106
     atom    6 type  1   force =    -0.00000006    0.00000011    0.00334121
     atom    7 type  2   force =    -0.00000001   -0.00000004    0.00880098
     atom    8 type  2   force =    -0.00000001    0.00000001   -0.00879983
     atom    9 type  3   force =     0.00000011   -0.00120785   -0.00162976
     atom   10 type  3   force =    -0.00000002    0.00120808    0.00162975
     atom   11 type  3   force =    -0.00000002    0.00120790   -0.00162990
     atom   12 type  3   force =     0.00000004   -0.00120810    0.00162991
     atom   13 type  3   force =     0.00000001   -0.00000001    0.00300824
     atom   14 type  3   force =     0.00000001   -0.00000007   -0.00300854
     The Hubbard contrib.    to forces
     atom    1 type  1   force =     0.00000000    0.00000000    0.00000000
     atom    2 type  1   force =     0.00000000    0.00000000    0.00000000
     atom    3 type  1   force =     0.00000000    0.00000000    0.00000000
     atom    4 type  1   force =     0.00000000    0.00000000    0.00000000
     atom    5 type  1   force =     0.00000000    0.00000000    0.00000000
     atom    6 type  1   force =     0.00000000    0.00000000    0.00000000
     atom    7 type  2   force =     0.00000000    0.00000000    0.00000000
     atom    8 type  2   force =     0.00000000    0.00000000    0.00000000
     atom    9 type  3   force =     0.00000000    0.00000000    0.00000000
     atom   10 type  3   force =     0.00000000    0.00000000    0.00000000
     atom   11 type  3   force =     0.00000000    0.00000000    0.00000000
     atom   12 type  3   force =     0.00000000    0.00000000    0.00000000
     atom   13 type  3   force =     0.00000000    0.00000000    0.00000000
     atom   14 type  3   force =     0.00000000    0.00000000    0.00000000
     The SCF correction term to forces
     atom    1 type  1   force =     0.00000128   -0.00029486   -0.00038744
     atom    2 type  1   force =    -0.00000073   -0.00027857   -0.00018820
     atom    3 type  1   force =    -0.00000018    0.00029419   -0.00040555
     atom    4 type  1   force =    -0.00000017    0.00027487   -0.00023843
     atom    5 type  1   force =     0.00000016    0.00002412    0.00145190
     atom    6 type  1   force =     0.00000025   -0.00005826    0.00147090
     atom    7 type  2   force =     0.00000001    0.00000442   -0.00054424
     atom    8 type  2   force =     0.00000001   -0.00000479   -0.00054034
     atom    9 type  3   force =    -0.00000004   -0.00002337    0.00055028
     atom   10 type  3   force =    -0.00000052   -0.00002498    0.00052221
     atom   11 type  3   force =     0.00000014    0.00002848    0.00057609
     atom   12 type  3   force =    -0.00000027    0.00002450    0.00056513
     atom   13 type  3   force =    -0.00000010   -0.00000191   -0.00005943
     atom   14 type  3   force =     0.00000015   -0.00002336   -0.00000607

     Total force =     0.406057     Total SCF correction =     0.002614

     Computing stress (Cartesian axis) and pressure

     negative rho (up, down):  2.549E-01 0.000E+00
          total   stress  (Ry/bohr**3)                   (kbar)     P=      -16.41
   0.00034909   0.00000000   0.00000000           51.35        0.00        0.00
   0.00000000  -0.00083368   0.00000000            0.00     -122.64        0.00
   0.00000000   0.00000000   0.00015000            0.00        0.00       22.07

     kinetic stress (kbar)  10513.94      0.00      0.00
                                0.00  10248.79      0.00
                                0.00      0.00  10002.21

     local   stress (kbar) -12166.08      0.00     -0.00
                                0.00  -8547.36      0.00
                               -0.00      0.00   -926.23

     nonloc. stress (kbar)   7867.79      0.00      0.00
                                0.00   7937.46      0.00
                                0.00      0.00   7964.63

     hartree stress (kbar)   6037.09      0.00      0.00
                                0.00   4445.37     -0.00
                                0.00     -0.00    237.10

     exc-cor stress (kbar)   3914.36      0.00      0.00
                                0.00   3914.12     -0.00
                                0.00     -0.00   3920.02

     corecor stress (kbar)  -7079.64      0.00     -0.00
                                0.00  -7082.41     -0.00
                               -0.00     -0.00  -7096.43

     ewald   stress (kbar)  -9036.12     -0.00     -0.00
                               -0.00 -11038.59      0.00
                               -0.00      0.00 -14079.24

     hubbard stress (kbar)      0.00      0.00      0.00
                                0.00      0.00      0.00
                                0.00      0.00      0.00

     DFT-D   stress (kbar)      0.00      0.00      0.00
                                0.00      0.00      0.00
                                0.00      0.00      0.00

     XDM     stress (kbar)      0.00      0.00      0.00
                                0.00      0.00      0.00
                                0.00      0.00      0.00

     dft-nl  stress (kbar)      0.00      0.00      0.00
                                0.00      0.00      0.00
                                0.00      0.00      0.00

     TS-vdW  stress (kbar)      0.00      0.00      0.00
                                0.00      0.00      0.00
                                0.00      0.00      0.00

[...]

                                0.00      0.00      0.00

     Writing all to output data dir calculations/myprefix.save/

     General routines

     Parallel routines

     PAW routines

   This run was terminated on:  22:54:34   4Mar2023

   JOB DONE.