     Program PWSCF v.7.0 starts on  6Mar2023 at 10: 9:54

     R & G space division:  proc/nbgrp/npool/nimage =      32

     Reading input from espresso_4234.pwi
Warning: card &CELL ignored
Warning: card / ignored

     Current dimensions of program PWSCF are:
     Max number of different atomic species (ntypx) = 10
     Max number of k-points (npk) =  40000
     Max angular momentum in pseudopotentials (lmaxx) =  4

     gamma-point specific algorithms are used
     Message from routine setup:
     using ibrav=0 with symmetry is DISCOURAGED, use correct ibrav instead

     Using Slab Decomposition

     bravais-lattice index     =            0
     lattice parameter (alat)  =       9.9344  a.u.
     unit-cell volume          =     431.8732 (a.u.)^3
     number of atoms/cell      =            3
     number of atomic types    =            2
     number of electrons       =        58.00
     number of Kohn-Sham states=           35
     kinetic-energy cutoff     =      30.0000  Ry
     charge density cutoff     =     240.0000  Ry
     scf convergence threshold =      1.0E-06
     mixing beta               =       0.7000
     number of iterations used =            8  plain     mixing
     Exchange-correlation= PBE
                           (   1   4   3   4   0   0   0)

     celldm(1)=   9.934429  celldm(2)=   0.000000  celldm(3)=   0.000000
     celldm(4)=   0.000000  celldm(5)=   0.000000  celldm(6)=   0.000000

     crystal axes: (cart. coord. in units of alat)
               a(1) = (   1.000000   0.000000   0.000000 )
               a(2) = (   0.489604   0.871945   0.000000 )
               a(3) = (  -0.744802  -0.435972   0.505171 )

     reciprocal axes: (cart. coord. in units 2 pi/alat)
               b(1) = (  1.000000 -0.561508  0.989764 )
               b(2) = (  0.000000  1.146862  0.989764 )
               b(3) = (  0.000000  0.000000  1.979527 )

     PseudoPot. # 1 for Dy read from file:
     /home/pragov/projects/rrg-bengioy-ad/pragov/crystal_structure_design/SSSP/Dy.GGA-PBE-paw-v1.0.UPF
     MD5 check sum: 733414aae3e3693a823ce0c917a68f08
     Pseudo is Projector augmented-wave + core cor, Zval = 20.0
     Generated using ATOMPAW code
     Shape of augmentation charge: BESSEL
     Using radial grid of 1112 points,  8 beta functions with:
                l(1) =   0
                l(2) =   0
                l(3) =   1
                l(4) =   1
                l(5) =   2
                l(6) =   2
                l(7) =   3
                l(8) =   3
     Q(r) pseudized with 0 coefficients

     PseudoPot. # 2 for Au read from file:
     /home/pragov/projects/rrg-bengioy-ad/pragov/crystal_structure_design/SSSP/Au_ONCV_PBE-1.0.oncvpsp.upf
     MD5 check sum: d14007822ba0e19f0206237467fc06c2
     Pseudo is Norm-conserving, Zval = 19.0
     Generated using ONCVPSP code by D. R. Hamann
     Using radial grid of 1278 points,  8 beta functions with:
                l(1) =   0
                l(2) =   0
                l(3) =   1
                l(4) =   1
                l(5) =   2
                l(6) =   2
                l(7) =   3
                l(8) =   3

     atomic species   valence    mass     pseudopotential
        Dy            20.00   162.50000     Dy( 1.00)
        Au            19.00   196.96657     Au( 1.00)

      4 Sym. Ops., with inversion, found

                                    s                        frac. trans.

      isym =  1     identity

 cryst.   s( 1) = (     1          0          0      )
                  (     0          1          0      )
                  (     0          0          1      )

 cart.    s( 1) = (  1.0000000 -0.0000000  0.0000000 )
                  (  0.0000000  1.0000000 -0.0000000 )
                  (  0.0000000  0.0000000  1.0000000 )

      isym =  2     180 deg rotation - cart. axis [0,0,1]

[...]

      isym =  3     inversion

[...]

      isym =  4     inv. 180 deg rotation - cart. axis [0,0,1]

 cryst.   s( 4) = (     1          0          0      )
                  (     0          1          0      )
                  (    -1         -1         -1      )

 cart.    s( 4) = (  1.0000000 -0.0000000 -0.0000000 )
                  (  0.0000000  1.0000000 -0.0000000 )
                  (  0.0000000  0.0000000 -1.0000000 )

   Cartesian axes

     site n.     atom                  positions (alat units)
         1           Dy  tau(   1) = (   0.0000000   0.0000000   0.0000000  )
         2           Au  tau(   2) = (   0.9899730   0.5794841   0.0000000  )
         3           Au  tau(   3) = (   0.4996311   0.2924608   0.0000000  )

   Crystallographic axes

     site n.     atom                  positions (cryst. coord.)
         1           Dy  tau(   1) = (  0.0000000  0.0000000  0.0000000  )
         2           Au  tau(   2) = (  0.6645880  0.6645880  0.0000000  )
         3           Au  tau(   3) = (  0.3354120  0.3354120  0.0000000  )

     number of k points=     1  Methfessel-Paxton smearing, width (Ry)=  0.0010
                       cart. coord. in units 2pi/alat
        k(    1) = (   0.0000000   0.0000000   0.0000000), wk =   2.0000000

                       cryst. coord.
        k(    1) = (   0.0000000   0.0000000   0.0000000), wk =   2.0000000

     Initial potential from superposition of free atoms

     starting charge      57.9960, renormalised to      58.0000
     Starting wfcs are   52 randomized atomic wfcs
     Checking if some PAW data can be deallocated...

     Self-consistent Calculation

     iteration #  1     ecut=    30.00 Ry     beta= 0.70
     Davidson diagonalization with overlap

     ethr =  1.00E-02,  avg # of iterations =  2.0

     total energy              =   -1316.89146571 Ry
     estimated scf accuracy    <       8.03643062 Ry

[...]

     negative rho (up, down):  4.789E-04 0.000E+00

[...]

     total energy              =   -1326.38612397 Ry
     estimated scf accuracy    <       0.00001787 Ry

     iteration # 95     ecut=    30.00 Ry     beta= 0.70
     Davidson diagonalization with overlap

     ethr =  3.08E-08,  avg # of iterations =  1.0

     End of self-consistent calculation

          k = 0.0000 0.0000 0.0000 (   606 PWs)   bands (ev):

   -89.6861 -89.6826 -40.7714 -40.7712 -40.7293 -40.7291 -40.6070 -40.5388
   -27.4226  -3.6449  -3.6324  -3.6295   9.1947  11.5056  12.0906  12.3829
    12.4684  12.5957  12.8335  12.8336  12.8738  12.8738  13.5176  16.7843
    17.2747  17.3027  17.5382  17.5429  17.6817  17.6818  17.6844  19.4265
    19.5054  19.7996  19.8004

     occupation numbers
     1.0000   1.0000   1.0000   1.0000   1.0000   1.0000   1.0000   1.0000
     1.0000   1.0000   1.0000   1.0000   1.0000   1.0000   1.0000   1.0000
     1.0000   1.0000   1.0000   1.0000   1.0000   1.0000   1.0000   1.0000
     1.0000   1.0000   1.0000   1.0000   0.3848   0.3818   0.2334  -0.0000
    -0.0000  -0.0000  -0.0000

     the Fermi energy is    17.6798 ev

!    total energy              =   -1326.38612475 Ry
     estimated scf accuracy    <       0.00000012 Ry
     smearing contrib. (-TS)   =      -0.00072742 Ry
     internal energy E=F+TS    =   -1326.38539733 Ry

     The total energy is F=E-TS. E is the sum of the following terms:
     one-electron contribution =    -352.44352374 Ry
     hartree contribution      =     201.67336021 Ry
     xc contribution           =     -78.47103709 Ry
     ewald contribution        =    -616.84527428 Ry
     one-center paw contrib.   =    -480.29892242 Ry
      -> PAW hartree energy AE =     258.97084271 Ry
      -> PAW hartree energy PS =    -240.78503336 Ry
      -> PAW xc energy AE      =    -525.24235468 Ry
      -> PAW xc energy PS      =      26.75762292 Ry
      -> total E_H with PAW    =     219.85916955 Ry
      -> total E_XC with PAW   =    -576.95576886 Ry

     convergence has been achieved in  95 iterations

     Forces acting on atoms (cartesian axes, Ry/au):

     atom    1 type  1   force =     0.00000000    0.00000000    0.00000000
     atom    2 type  2   force =    -0.08499229   -0.04975091    0.00000000
     atom    3 type  2   force =     0.08499229    0.04975091   -0.00000000
     The non-local contrib.  to forces
     atom    1 type  1   force =     0.00000000    0.00000000    0.00000000
     atom    2 type  2   force =     0.04402448    0.02576739   -0.00000000
     atom    3 type  2   force =    -0.04402448   -0.02576739    0.00000000
     The ionic contribution  to forces
     atom    1 type  1   force =    -0.00000000   -0.00000000    0.00000000
     atom    2 type  2   force =     1.39244805    0.81507417   -0.00000000
     atom    3 type  2   force =    -1.39244805   -0.81507417    0.00000000
     The local contribution  to forces
     atom    1 type  1   force =    -0.00000195   -0.00000141   -0.00000077
     atom    2 type  2   force =    -1.52155404   -0.89056943    0.00002892
     atom    3 type  2   force =     1.52155507    0.89057019   -0.00002868
     The core correction contribution to forces
     atom    1 type  1   force =    -0.00000000   -0.00000000   -0.00000000
     atom    2 type  2   force =     0.00000000    0.00000000    0.00000000
     atom    3 type  2   force =     0.00000000    0.00000000    0.00000000
     The Hubbard contrib.    to forces
     atom    1 type  1   force =     0.00000000    0.00000000    0.00000000
     atom    2 type  2   force =     0.00000000    0.00000000    0.00000000
     atom    3 type  2   force =     0.00000000    0.00000000    0.00000000
     The SCF correction term to forces
     atom    1 type  1   force =     0.00000196    0.00000126    0.00000072
     atom    2 type  2   force =     0.00008900   -0.00002316   -0.00002387
     atom    3 type  2   force =    -0.00009047    0.00002217    0.00002365

     Total force =     0.139276     Total SCF correction =     0.000135

     Computing stress (Cartesian axis) and pressure

          total   stress  (Ry/bohr**3)                   (kbar)     P=     -622.82
  -0.00337618   0.00090669   0.00000000         -496.65      133.38        0.00
   0.00090669  -0.00439997   0.00000000          133.38     -647.26        0.00
   0.00000000   0.00000000  -0.00492532            0.00        0.00     -724.54

     kinetic stress (kbar)  43116.16    259.47     -0.00
                              259.47  42824.52     -0.00
                               -0.00     -0.00  42672.86

     local   stress (kbar)  -4461.39  -5999.35      0.31
                            -5999.35   2278.11      0.07
                                0.31      0.07   5789.81

     nonloc. stress (kbar)  11014.35    145.08     -0.00
                              145.08  10849.47     -0.00
                               -0.00     -0.00  10765.15

     hartree stress (kbar)  25066.51   2297.06     -0.11
                             2297.06  22486.12     -0.03
                               -0.11     -0.03  21141.54

     exc-cor stress (kbar)  -8427.91      4.44     -0.00
                                4.44  -8432.90     -0.00
                               -0.00     -0.00  -8435.49

     corecor stress (kbar)     -1.64     -0.00      0.00
                               -0.00     -1.64      0.00
                                0.00      0.00     -1.64

     ewald   stress (kbar) -66802.73   3426.68     -0.00
                             3426.68 -70650.95     -0.00
                               -0.00     -0.00 -72656.76

     hubbard stress (kbar)      0.00      0.00      0.00
                                0.00      0.00      0.00
                                0.00      0.00      0.00

     DFT-D   stress (kbar)      0.00      0.00      0.00
                                0.00      0.00      0.00
                                0.00      0.00      0.00

     XDM     stress (kbar)      0.00      0.00      0.00
                                0.00      0.00      0.00
                                0.00      0.00      0.00

     dft-nl  stress (kbar)      0.00      0.00      0.00
                                0.00      0.00      0.00
                                0.00      0.00      0.00

     TS-vdW  stress (kbar)      0.00      0.00      0.00
                                0.00      0.00      0.00
                                0.00      0.00      0.00

[...]

                                0.00      0.00      0.00

     Writing all to output data dir calculations/myprefix.save/

     General routines

     Parallel routines

     PAW routines

   This run was terminated on:  10:10:18   6Mar2023

   JOB DONE.