     Program PWSCF v.7.0 starts on  6Mar2023 at  9:57:48

     R & G space division:  proc/nbgrp/npool/nimage =      32

     Reading input from espresso_4209.pwi
Warning: card &CELL ignored
Warning: card / ignored

     Current dimensions of program PWSCF are:
     Max number of different atomic species (ntypx) = 10
     Max number of k-points (npk) =  40000
     Max angular momentum in pseudopotentials (lmaxx) =  4
     file O.pbe-n-kjpaw_psl.0.1.UPF: wavefunction(s)  2P renormalized

     gamma-point specific algorithms are used
     Message from routine setup:
     using ibrav=0 with symmetry is DISCOURAGED, use correct ibrav instead

     Using Slab Decomposition

     bravais-lattice index     =            0
     lattice parameter (alat)  =      11.1694  a.u.
     unit-cell volume          =     990.9957 (a.u.)^3
     number of atoms/cell      =           15
     number of atomic types    =            4
     number of electrons       =       114.00
     number of Kohn-Sham states=           68
     kinetic-energy cutoff     =      30.0000  Ry
     charge density cutoff     =     240.0000  Ry
     scf convergence threshold =      1.0E-06
     mixing beta               =       0.7000
     number of iterations used =            8  plain     mixing
     Exchange-correlation= SLA  PW   PBX  PBC
                           (   1   4   3   4   0   0   0)

     celldm(1)=  11.169354  celldm(2)=   0.000000  celldm(3)=   0.000000
     celldm(4)=   0.000000  celldm(5)=   0.000000  celldm(6)=   0.000000

     crystal axes: (cart. coord. in units of alat)
               a(1) = (   1.000000   0.000000   0.000000 )
               a(2) = (   0.504855   0.863204   0.000000 )
               a(3) = (   0.496859   0.285005   0.823899 )

     reciprocal axes: (cart. coord. in units 2 pi/alat)
               b(1) = (  1.000000 -0.584861 -0.400742 )
               b(2) = (  0.000000  1.158474 -0.400742 )
               b(3) = (  0.000000  0.000000  1.213741 )

     PseudoPot. # 1 for Li read from file:
     /home/pragov/projects/rrg-bengioy-ad/pragov/crystal_structure_design/SSSP/li_pbe_v1.4.uspp.F.UPF
     MD5 check sum: e912e257baa3777c20ea3d68f190483c
     Pseudo is Ultrasoft, Zval =  3.0
     Generated by new atomic code, or converted to UPF format
     Using radial grid of  751 points,  5 beta functions with:
                l(1) =   0
                l(2) =   0
                l(3) =   0
                l(4) =   1
                l(5) =   1
     Q(r) pseudized with 10 coefficients,  rinner =    1.150   1.150   1.150

     PseudoPot. # 2 for Mn read from file:
     /home/pragov/projects/rrg-bengioy-ad/pragov/crystal_structure_design/SSSP/mn_pbe_v1.5.uspp.F.UPF
     MD5 check sum: 82ef2b46521d7a7d9e736dc3972e4928
     Pseudo is Ultrasoft + core correction, Zval = 15.0
     Generated by new atomic code, or converted to UPF format
     Using radial grid of  859 points,  6 beta functions with:
                l(1) =   0
                l(2) =   0
                l(3) =   1
                l(4) =   1
                l(5) =   2
                l(6) =   2
     Q(r) pseudized with  8 coefficients,  rinner =    0.950   0.950   0.950
                                                       0.950   0.950

     PseudoPot. # 3 for Cr read from file:
     /home/pragov/projects/rrg-bengioy-ad/pragov/crystal_structure_design/SSSP/cr_pbe_v1.5.uspp.F.UPF
     MD5 check sum: 0d52af634a40206e4dee301ad30da4bf
     Pseudo is Ultrasoft + core correction, Zval = 14.0
     Generated by new atomic code, or converted to UPF format
     Using radial grid of  857 points,  6 beta functions with:
                l(1) =   0
                l(2) =   0
                l(3) =   1
                l(4) =   1
                l(5) =   2
                l(6) =   2
     Q(r) pseudized with  8 coefficients,  rinner =    0.950   0.950   0.950
                                                       0.950   0.950

     PseudoPot. # 4 for O  read from file:
     /home/pragov/projects/rrg-bengioy-ad/pragov/crystal_structure_design/SSSP/O.pbe-n-kjpaw_psl.0.1.UPF
     MD5 check sum: 0234752ac141de4415c5fc33072bef88
     Pseudo is Projector augmented-wave + core cor, Zval =  6.0
     Generated using "atomic" code by A. Dal Corso  v.5.0.99 svn rev. 10869
     Shape of augmentation charge: BESSEL
     Using radial grid of 1095 points,  4 beta functions with:
                l(1) =   0
                l(2) =   0
                l(3) =   1
                l(4) =   1
     Q(r) pseudized with 0 coefficients

     atomic species   valence    mass     pseudopotential
        Li             3.00     6.94000     Li( 1.00)
        Mn            15.00    54.93804     Mn( 1.00)
        Cr            14.00    51.99610     Cr( 1.00)
        O              6.00    15.99900     O ( 1.00)

      2 Sym. Ops., with inversion, found

                                    s                        frac. trans.

      isym =  1     identity

 cryst.   s( 1) = (     1          0          0      )
                  (     0          1          0      )
                  (     0          0          1      )

 cart.    s( 1) = (  1.0000000 -0.0000000  0.0000000 )
                  (  0.0000000  1.0000000  0.0000000 )
                  (  0.0000000  0.0000000  1.0000000 )

      isym =  2     inversion

 cryst.   s( 2) = (    -1          0          0      )
                  (     0         -1          0      )
                  (     0          0         -1      )

 cart.    s( 2) = ( -1.0000000  0.0000000 -0.0000000 )
                  (  0.0000000 -1.0000000 -0.0000000 )
                  (  0.0000000  0.0000000 -1.0000000 )

   Cartesian axes

     site n.     atom                  positions (alat units)
         1           Li  tau(   1) = (   0.7524273   0.4316022   0.0000000  )
         2           Li  tau(   2) = (   0.5000000   0.0000000   0.0000000  )
         3           Li  tau(   3) = (   0.2524273   0.4316022   0.0000000  )
         4           Mn  tau(   4) = (   0.2484295   0.1425024   0.4119495  )
         5           Cr  tau(   5) = (   1.0008568   0.5741046   0.4119495  )
         6           Cr  tau(   6) = (   0.5008568   0.5741046   0.4119495  )
         7           Cr  tau(   7) = (   0.7484295   0.1425024   0.4119495  )
         8           O   tau(   8) = (   1.2476158   0.7156488   0.2348936  )
         9           O   tau(   9) = (   1.0061825   0.2867644   0.2364145  )
        10           O   tau(  10) = (   0.7555122   0.7237668   0.2364145  )
        11           O   tau(  11) = (   1.5081634   0.8651023   0.5950158  )
        12           O   tau(  12) = (   0.4935503   0.2831070   0.2288833  )
        13           O   tau(  13) = (   1.2462015   0.4244425   0.5874845  )
        14           O   tau(  14) = (   0.9955311   0.8614449   0.5874845  )
        15           O   tau(  15) = (   0.7540979   0.4325605   0.5890054  )

   Crystallographic axes

     site n.     atom                  positions (cryst. coord.)
         1           Li  tau(   1) = (  0.5000000  0.5000000  0.0000000  )
         2           Li  tau(   2) = (  0.5000000  0.0000000  0.0000000  )
         3           Li  tau(   3) = ( -0.0000000  0.5000000  0.0000000  )
         4           Mn  tau(   4) = (  0.0000000  0.0000000  0.5000000  )
         5           Cr  tau(   5) = (  0.5000000  0.5000000  0.5000000  )
         6           Cr  tau(   6) = (  0.0000000  0.5000000  0.5000000  )
         7           Cr  tau(   7) = (  0.5000000  0.0000000  0.5000000  )
         8           O   tau(   8) = (  0.7349290  0.7349290  0.2851000  )
         9           O   tau(   9) = (  0.7437240  0.2374680  0.2869460  )
        10           O   tau(  10) = (  0.2374680  0.7437240  0.2869460  )
        11           O   tau(  11) = (  0.7637510  0.7637510  0.7221950  )
        12           O   tau(  12) = (  0.2362490  0.2362490  0.2778050  )
        13           O   tau(  13) = (  0.7625320  0.2562760  0.7130540  )
        14           O   tau(  14) = (  0.2562760  0.7625320  0.7130540  )
        15           O   tau(  15) = (  0.2650710  0.2650710  0.7149000  )

     number of k points=     1  Methfessel-Paxton smearing, width (Ry)=  0.0010
                       cart. coord. in units 2pi/alat
        k(    1) = (   0.0000000   0.0000000   0.0000000), wk =   2.0000000

                       cryst. coord.
        k(    1) = (   0.0000000   0.0000000   0.0000000), wk =   2.0000000

     Check: negative core charge=   -0.000022

     Initial potential from superposition of free atoms

     starting charge     109.1476, renormalised to     114.0000

     negative rho (up, down):  4.596E-03 0.000E+00
     Starting wfcs are   90 randomized atomic wfcs
     Checking if some PAW data can be deallocated...

     Self-consistent Calculation

     iteration #  1     ecut=    30.00 Ry     beta= 0.70
     Davidson diagonalization with overlap

     ethr =  1.00E-02,  avg # of iterations =  3.0

     negative rho (up, down):  5.382E-03 0.000E+00

     total energy              =   -1101.24018846 Ry
     estimated scf accuracy    <      19.09829759 Ry

[...]

     total energy              =   -1114.57871622 Ry
     estimated scf accuracy    <       0.00005212 Ry

     iteration # 35     ecut=    30.00 Ry     beta= 0.70
     Davidson diagonalization with overlap

     ethr =  4.57E-08,  avg # of iterations =  1.0

[...]

     End of self-consistent calculation

          k = 0.0000 0.0000 0.0000 (  1368 PWs)   bands (ev):

   -70.2711 -63.0833 -63.0330 -63.0227 -39.0160 -39.0037 -38.9987 -36.1450
   -35.8218 -35.8110 -34.6114 -34.4931 -34.4923 -34.4130 -34.4027 -34.3767
   -34.2634 -34.1394 -34.1186 -10.4361  -9.3314  -9.2843  -9.2099  -9.1015
    -9.0668  -9.0217  -8.8817   2.3836   2.3992   2.5834   2.9274   3.5697
     3.6061   3.6328   4.2171   4.2319   4.5928   4.6777   4.8183   5.1147
     5.3408   5.5221   5.7541   5.7906   5.8862   6.0358   6.0648   6.0762
     7.0293   7.0895   7.0952   8.6583   8.7596   8.8317   8.9173   8.9601
     9.6412   9.6419   9.7324   9.7934   9.9426  10.0581  10.0663  11.8499
    11.9780  12.0194  12.0341  12.0727

     occupation numbers
     1.0000   1.0000   1.0000   1.0000   1.0000   1.0000   1.0000   1.0000
     1.0000   1.0000   1.0000   1.0000   1.0000   1.0000   1.0000   1.0000
     1.0000   1.0000   1.0000   1.0000   1.0000   1.0000   1.0000   1.0000
     1.0000   1.0000   1.0000   1.0000   1.0000   1.0000   1.0000   1.0000
     1.0000   1.0000   1.0000   1.0000   1.0000   1.0000   1.0000   1.0000
     1.0000   1.0000   1.0000   1.0000   1.0000   1.0000   1.0000   1.0000
     1.0000   1.0000   1.0000   1.0000   1.0000   1.0000   1.0000   1.0000
     0.5203   0.4797  -0.0000  -0.0000  -0.0000  -0.0000  -0.0000  -0.0000
    -0.0000  -0.0000  -0.0000  -0.0000

     the Fermi energy is     9.6415 ev

!    total energy              =   -1114.57871662 Ry
     estimated scf accuracy    <       0.00000029 Ry
     smearing contrib. (-TS)   =      -0.00056322 Ry
     internal energy E=F+TS    =   -1114.57815340 Ry

     The total energy is F=E-TS. E is the sum of the following terms:
     one-electron contribution =    -607.77249751 Ry
     hartree contribution      =     351.97308321 Ry
     xc contribution           =    -163.11995822 Ry
     ewald contribution        =    -619.49622989 Ry
     one-center paw contrib.   =     -76.16255099 Ry
      -> PAW hartree energy AE =       0.00000000 Ry
      -> PAW hartree energy PS =       0.00000000 Ry
      -> PAW xc energy AE      =       0.00000000 Ry
      -> PAW xc energy PS      =       0.00000000 Ry
      -> total E_H with PAW    =     351.97308321 Ry
      -> total E_XC with PAW   =    -163.11995822 Ry

     convergence has been achieved in  35 iterations

     negative rho (up, down):  4.602E-03 0.000E+00

     Forces acting on atoms (cartesian axes, Ry/au):

     atom    1 type  1   force =     0.00000000    0.00000000    0.00000000
     atom    2 type  1   force =     0.00000000    0.00000000    0.00000000
     atom    3 type  1   force =     0.00000000    0.00000000    0.00000000
     atom    4 type  2   force =     0.00000000    0.00000000    0.00000000
     atom    5 type  3   force =     0.00000000    0.00000000    0.00000000
     atom    6 type  3   force =     0.00000000    0.00000000    0.00000000
     atom    7 type  3   force =     0.00000000    0.00000000    0.00000000
     atom    8 type  4   force =    -0.00338899   -0.00196342    0.01271493
     atom    9 type  4   force =    -0.01769772    0.01558631    0.00378341
     atom   10 type  4   force =     0.00452022   -0.02316505    0.00378366
     atom   11 type  4   force =    -0.01623782   -0.00931223   -0.00304135
     atom   12 type  4   force =     0.01623782    0.00931223    0.00304135
     atom   13 type  4   force =    -0.00452022    0.02316505   -0.00378366
     atom   14 type  4   force =     0.01769772   -0.01558631   -0.00378341
     atom   15 type  4   force =     0.00338899    0.00196342   -0.01271493
     The non-local contrib.  to forces
     atom    1 type  1   force =     0.00000000    0.00000000    0.00000000
     atom    2 type  1   force =     0.00000000    0.00000000    0.00000000
     atom    3 type  1   force =     0.00000000    0.00000000    0.00000000
     atom    4 type  2   force =     0.00000000    0.00000000    0.00000000
     atom    5 type  3   force =     0.00000000    0.00000000    0.00000000
     atom    6 type  3   force =     0.00000000    0.00000000    0.00000000
     atom    7 type  3   force =     0.00000000    0.00000000    0.00000000
     atom    8 type  4   force =    -0.13214967   -0.07584686    0.82627677
     atom    9 type  4   force =    -0.04875039    0.19409202    0.80634510
     atom   10 type  4   force =     0.14288656   -0.14010570    0.80636107
     atom   11 type  4   force =    -0.06167097   -0.03537293   -0.65264899
     atom   12 type  4   force =     0.06167097    0.03537293    0.65264899
     atom   13 type  4   force =    -0.14288656    0.14010570   -0.80636107
     atom   14 type  4   force =     0.04875039   -0.19409202   -0.80634510
     atom   15 type  4   force =     0.13214967    0.07584686   -0.82627677
     The ionic contribution  to forces
     atom    1 type  1   force =     0.00000000    0.00000000   -0.00000000
     atom    2 type  1   force =    -0.00000000   -0.00000000   -0.00000000
     atom    3 type  1   force =     0.00000000    0.00000000    0.00000000
     atom    4 type  2   force =    -0.00000000   -0.00000000    0.00000000
     atom    5 type  3   force =     0.00000000    0.00000000   -0.00000000
     atom    6 type  3   force =    -0.00000000    0.00000000   -0.00000000
     atom    7 type  3   force =    -0.00000000   -0.00000000    0.00000000
     atom    8 type  4   force =     1.49697763    0.85868605  -15.18410656
     atom    9 type  4   force =    -1.37844004   -1.04698537  -16.02602702
     atom   10 type  4   force =    -1.59967417   -0.66130011  -16.02602702
     atom   11 type  4   force =    -1.16526471   -0.66841116   14.56087930
     atom   12 type  4   force =     1.16526471    0.66841116  -14.56087930
     atom   13 type  4   force =     1.59967417    0.66130011   16.02602702
     atom   14 type  4   force =     1.37844004    1.04698537   16.02602702
     atom   15 type  4   force =    -1.49697763   -0.85868606   15.18410656
     The local contribution  to forces
     atom    1 type  1   force =    -0.00001615   -0.00001983    0.00002896
     atom    2 type  1   force =     0.00002479    0.00001803    0.00004542
     atom    3 type  1   force =     0.00001656    0.00000889    0.00006016
     atom    4 type  2   force =     0.00016733    0.00018128   -0.00021514
     atom    5 type  3   force =     0.00022168    0.00002066   -0.00020352
     atom    6 type  3   force =    -0.00022809   -0.00010332   -0.00031096
     atom    7 type  3   force =    -0.00015350   -0.00010776   -0.00029634
     atom    8 type  4   force =    -1.36934774   -0.78546331   14.37901870
     atom    9 type  4   force =     1.40881505    0.87032268   15.23170421
     atom   10 type  4   force =     1.46251137    0.77672943   15.23168635
     atom   11 type  4   force =     1.20988969    0.69400549  -13.91827997
     atom   12 type  4   force =    -1.20990648   -0.69400683   13.91828649
     atom   13 type  4   force =    -1.46250281   -0.77671357  -15.23173399
     atom   14 type  4   force =    -1.40880039   -0.87028766  -15.23172102
     atom   15 type  4   force =     1.36934914    0.78544196  -14.37903386
     The core correction contribution to forces
     atom    1 type  1   force =     0.00000000    0.00000000    0.00000000
     atom    2 type  1   force =     0.00000000    0.00000000    0.00000000
     atom    3 type  1   force =     0.00000000    0.00000000    0.00000000
     atom    4 type  2   force =     0.00000049    0.00000103   -0.00000252
     atom    5 type  3   force =     0.00000220   -0.00000092   -0.00000190
     atom    6 type  3   force =    -0.00000144   -0.00000034   -0.00000270
     atom    7 type  3   force =    -0.00000078   -0.00000113   -0.00000266
     atom    8 type  4   force =     0.00124650    0.00071562   -0.00832207
     atom    9 type  4   force =     0.00066057   -0.00196006   -0.00815163
     atom   10 type  4   force =    -0.00135809    0.00156045   -0.00815204
     atom   11 type  4   force =     0.00076711    0.00043986    0.00673397
     atom   12 type  4   force =    -0.00076701   -0.00043999   -0.00673317
     atom   13 type  4   force =     0.00135768   -0.00156001    0.00815193
     atom   14 type  4   force =    -0.00066082    0.00196011    0.00815198
     atom   15 type  4   force =    -0.00124634   -0.00071525    0.00832242
     The Hubbard contrib.    to forces
     atom    1 type  1   force =     0.00000000    0.00000000    0.00000000
     atom    2 type  1   force =     0.00000000    0.00000000    0.00000000
     atom    3 type  1   force =     0.00000000    0.00000000    0.00000000
     atom    4 type  2   force =     0.00000000    0.00000000    0.00000000
     atom    5 type  3   force =     0.00000000    0.00000000    0.00000000
     atom    6 type  3   force =     0.00000000    0.00000000    0.00000000
     atom    7 type  3   force =     0.00000000    0.00000000    0.00000000
     atom    8 type  4   force =     0.00000000    0.00000000    0.00000000
     atom    9 type  4   force =     0.00000000    0.00000000    0.00000000
     atom   10 type  4   force =     0.00000000    0.00000000    0.00000000
     atom   11 type  4   force =     0.00000000    0.00000000    0.00000000
     atom   12 type  4   force =     0.00000000    0.00000000    0.00000000
     atom   13 type  4   force =     0.00000000    0.00000000    0.00000000
     atom   14 type  4   force =     0.00000000    0.00000000    0.00000000
     atom   15 type  4   force =     0.00000000    0.00000000    0.00000000
     The SCF correction term to forces
     atom    1 type  1   force =     0.00002067    0.00001325   -0.00002549
     atom    2 type  1   force =    -0.00001883   -0.00001420   -0.00004325
     atom    3 type  1   force =    -0.00002287   -0.00001218   -0.00004939
     atom    4 type  2   force =    -0.00018476   -0.00016768    0.00021215
     atom    5 type  3   force =    -0.00019396   -0.00003413    0.00017967
     atom    6 type  3   force =     0.00022175    0.00010050    0.00029984
     atom    7 type  3   force =     0.00016780    0.00009200    0.00027789
     atom    8 type  4   force =    -0.00012698   -0.00004946   -0.00013584
     atom    9 type  4   force =     0.00001490    0.00010799   -0.00008234
     atom   10 type  4   force =     0.00014882   -0.00004724   -0.00007926
     atom   11 type  4   force =     0.00004323    0.00002298    0.00028938
     atom   12 type  4   force =    -0.00002223   -0.00002857   -0.00026662
     atom   13 type  4   force =    -0.00016844    0.00003471    0.00013791
     atom   14 type  4   force =    -0.00003367   -0.00016116    0.00010861
     atom   15 type  4   force =     0.00010290    0.00008138    0.00018278

     Total force =     0.057939     Total SCF correction =     0.000912

     Computing stress (Cartesian axis) and pressure

     negative rho (up, down):  4.602E-03 0.000E+00
          total   stress  (Ry/bohr**3)                   (kbar)     P=     -632.01
  -0.00480060  -0.00006160   0.00007624         -706.19       -9.06       11.22
  -0.00006160  -0.00472832   0.00004365           -9.06     -695.56        6.42
   0.00007624   0.00004365  -0.00336007           11.22        6.42     -494.28

     kinetic stress (kbar)  29884.05     -8.05      8.67
                               -8.05  29893.54      5.03
                                8.67      5.03  30706.23

     local   stress (kbar) -44707.61    552.18     -1.37
                              552.18 -45353.62     -0.94
                               -1.37     -0.94  36890.00

     nonloc. stress (kbar)   7771.04     -5.01      4.17
                               -5.01   7776.93      2.43
                                4.17      2.43   7715.62

     hartree stress (kbar)  29336.85   -225.28    -32.37
                             -225.28  29600.41    -18.52
                              -32.37    -18.52  -6689.78

     exc-cor stress (kbar)  -5405.40     -0.50      0.61
                               -0.50  -5404.82      0.35
                                0.61      0.35  -5416.13

     corecor stress (kbar)  -2177.80      0.11     -0.07
                                0.11  -2177.93     -0.04
                               -0.07     -0.04  -2178.55

     ewald   stress (kbar) -15407.33   -322.53     31.58
                             -322.53 -15030.06     18.11
                               31.58     18.11 -61521.68

     hubbard stress (kbar)      0.00      0.00      0.00
                                0.00      0.00      0.00
                                0.00      0.00      0.00

     DFT-D   stress (kbar)      0.00      0.00      0.00
                                0.00      0.00      0.00
                                0.00      0.00      0.00

     XDM     stress (kbar)      0.00      0.00      0.00
                                0.00      0.00      0.00
                                0.00      0.00      0.00

     dft-nl  stress (kbar)      0.00      0.00      0.00
                                0.00      0.00      0.00
                                0.00      0.00      0.00

     TS-vdW  stress (kbar)      0.00      0.00      0.00
                                0.00      0.00      0.00
                                0.00      0.00      0.00

[...]

                                0.00      0.00      0.00

     Writing all to output data dir calculations/myprefix.save/

     General routines

     Parallel routines

     PAW routines

   This run was terminated on:   9:57:53   6Mar2023

   JOB DONE.