     Program PWSCF v.7.0 starts on  6Mar2023 at  9:51: 7

     R & G space division:  proc/nbgrp/npool/nimage =      32

     Reading input from espresso_4196.pwi
Warning: card &CELL ignored
Warning: card / ignored

     Current dimensions of program PWSCF are:
     Max number of different atomic species (ntypx) = 10
     Max number of k-points (npk) =  40000
     Max angular momentum in pseudopotentials (lmaxx) =  4
     file K.pbe-spn-kjpaw_psl.1.0.0.UPF: wavefunction(s)  3S renormalized

     gamma-point specific algorithms are used

     Using Slab Decomposition

     bravais-lattice index     =            0
     lattice parameter (alat)  =      12.2377  a.u.
     unit-cell volume          =    2030.1290 (a.u.)^3
     number of atoms/cell      =            9
     number of atomic types    =            2
     number of electrons       =        65.00
     number of Kohn-Sham states=           40
     kinetic-energy cutoff     =      30.0000  Ry
     charge density cutoff     =     240.0000  Ry
     scf convergence threshold =      1.0E-06
     mixing beta               =       0.7000
     number of iterations used =            8  plain     mixing
     Exchange-correlation= PBE
                           (   1   4   3   4   0   0   0)

     celldm(1)=  12.237695  celldm(2)=   0.000000  celldm(3)=   0.000000
     celldm(4)=   0.000000  celldm(5)=   0.000000  celldm(6)=   0.000000

     crystal axes: (cart. coord. in units of alat)
               a(1) = (   1.000000   0.000000   0.000000 )
               a(2) = (   0.673927   0.738798   0.000000 )
               a(3) = (   0.570420   0.251758   1.499336 )

     reciprocal axes: (cart. coord. in units 2 pi/alat)
               b(1) = (  1.000000 -0.912193 -0.227279 )
               b(2) = (  0.000000  1.353550 -0.227279 )
               b(3) = (  0.000000  0.000000  0.666962 )

     PseudoPot. # 1 for K  read from file:
     /home/pragov/projects/rrg-bengioy-ad/pragov/crystal_structure_design/SSSP/K.pbe-spn-kjpaw_psl.1.0.0.UPF
     MD5 check sum: 7d58810084cac21f60fbe77ea2b688fd
     Pseudo is Projector augmented-wave + core cor, Zval =  9.0
     Generated using "atomic" code by A. Dal Corso  v.5.1
     Shape of augmentation charge: PSQ
     Using radial grid of 1165 points,  6 beta functions with:
                l(1) =   0
                l(2) =   0
                l(3) =   1
                l(4) =   1
                l(5) =   2
                l(6) =   2
     Q(r) pseudized with 0 coefficients

     PseudoPot. # 2 for As read from file:
     /home/pragov/projects/rrg-bengioy-ad/pragov/crystal_structure_design/SSSP/As.pbe-n-rrkjus_psl.0.2.UPF
     MD5 check sum: 767315de957beeeb34f87d97bf945c8f
     Pseudo is Ultrasoft + core correction, Zval =  5.0
     Generated using "atomic" code by A. Dal Corso  v.5.0.99 svn rev. 10869
     Using radial grid of 1209 points,  4 beta functions with:
                l(1) =   0
                l(2) =   0
                l(3) =   1
                l(4) =   1
     Q(r) pseudized with 0 coefficients

     atomic species   valence    mass     pseudopotential
        K              9.00    39.09830     K ( 1.00)
        As             5.00    74.92159     As( 1.00)

     No symmetry found

                                    s                        frac. trans.

      isym =  1     identity

 cryst.   s( 1) = (     1          0          0      )
                  (     0          1          0      )
                  (     0          0          1      )

 cart.    s( 1) = (  1.0000000 -0.0000000  0.0000000 )
                  (  0.0000000  1.0000000  0.0000000 )
                  (  0.0000000  0.0000000  1.0000000 )

   Cartesian axes

     site n.     atom                  positions (alat units)
         1           K   tau(   1) = (   1.1692211   0.5160431   1.3450695  )
         2           K   tau(   2) = (   1.0727267   0.4734547   0.1473892  )
         3           K   tau(   3) = (   1.6345196   0.7214055   1.0009778  )
         4           K   tau(   4) = (   0.6222569   0.2746370   0.4956281  )
         5           K   tau(   5) = (   1.1450260   0.5053644   0.7331514  )
         6           As  tau(   6) = (   0.6683862   0.2949965   1.3378907  )
         7           As  tau(   7) = (   1.5741026   0.6947401   0.1603195  )
         8           As  tau(   8) = (   0.4640592   0.2048155   1.0335269  )
         9           As  tau(   9) = (   1.7786682   0.7850264   0.4660717  )

   Crystallographic axes

     site n.     atom                  positions (cryst. coord.)
         1           K   tau(   1) = (  0.3927840  0.3927840  0.8971100  )
         2           K   tau(   2) = (  0.6073460  0.6073460  0.0983030  )
         3           K   tau(   3) = (  0.7489570  0.7489570  0.6676140  )
         4           K   tau(   4) = (  0.2590890  0.2590890  0.3305650  )
         5           K   tau(   5) = (  0.5174060  0.5174060  0.4889840  )
         6           As  tau(   6) = (  0.0952180  0.0952180  0.8923220  )
         7           As  tau(   7) = (  0.9039280  0.9039280  0.1069270  )
         8           As  tau(   8) = (  0.0423290  0.0423290  0.6893230  )
         9           As  tau(   9) = (  0.9566440  0.9566440  0.3108520  )

     number of k points=     1  Methfessel-Paxton smearing, width (Ry)=  0.0010
                       cart. coord. in units 2pi/alat
        k(    1) = (   0.0000000   0.0000000   0.0000000), wk =   2.0000000

                       cryst. coord.
        k(    1) = (   0.0000000   0.0000000   0.0000000), wk =   2.0000000

     Check: negative core charge=   -0.000003

     Initial potential from superposition of free atoms

     starting charge      64.9049, renormalised to      65.0000
     Starting wfcs are   56 randomized atomic wfcs
     Checking if some PAW data can be deallocated...

     Self-consistent Calculation

     iteration #  1     ecut=    30.00 Ry     beta= 0.70
     Davidson diagonalization with overlap

     ethr =  1.00E-02,  avg # of iterations =  8.0

     Threshold (ethr) on eigenvalues was too large:
     Diagonalizing with lowered threshold

     Davidson diagonalization with overlap

[...]

     total energy              =    -637.81956707 Ry
     estimated scf accuracy    <       0.49988346 Ry

[...]

     total energy              =    -638.01197505 Ry
     estimated scf accuracy    <       0.00000150 Ry

     iteration # 10     ecut=    30.00 Ry     beta= 0.70
     Davidson diagonalization with overlap

     ethr =  2.30E-09,  avg # of iterations =  2.0

     End of self-consistent calculation

          k = 0.0000 0.0000 0.0000 (  2826 PWs)   bands (ev):

   -26.9822 -26.5239 -26.5109 -26.3053 -26.2716 -10.6167 -10.4832 -10.4166
   -10.0829 -10.0601 -10.0433 -10.0251 -10.0016  -9.9943  -9.9137  -9.8715
    -9.8197  -9.7849  -9.7339  -9.6985  -7.2842  -6.0064  -4.3663  -3.2470
     1.2729   1.7892   2.2450   2.2920   3.1185   3.6756   3.7136   4.3228
     5.0002   5.6124   5.8263   6.1793   7.3025   7.4580   8.0424   8.2277

     occupation numbers
     1.0000   1.0000   1.0000   1.0000   1.0000   1.0000   1.0000   1.0000
     1.0000   1.0000   1.0000   1.0000   1.0000   1.0000   1.0000   1.0000
     1.0000   1.0000   1.0000   1.0000   1.0000   1.0000   1.0000   1.0000
     1.0000   1.0000   1.0000   1.0000   1.0000   1.0000   1.0000   1.0000
     0.5000  -0.0000  -0.0000  -0.0000  -0.0000  -0.0000  -0.0000  -0.0000

     the Fermi energy is     5.0002 ev

!    total energy              =    -638.01197534 Ry
     estimated scf accuracy    <       0.00000015 Ry
     smearing contrib. (-TS)   =      -0.00028209 Ry
     internal energy E=F+TS    =    -638.01169325 Ry

     The total energy is F=E-TS. E is the sum of the following terms:
     one-electron contribution =    -117.93724611 Ry
     hartree contribution      =      79.78854153 Ry
     xc contribution           =     -93.15314318 Ry
     ewald contribution        =    -229.63400692 Ry
     one-center paw contrib.   =    -277.07583857 Ry
      -> PAW hartree energy AE =      37.73611639 Ry
      -> PAW hartree energy PS =     -37.52658415 Ry
      -> PAW xc energy AE      =     -66.21688479 Ry
      -> PAW xc energy PS      =      10.59226842 Ry
      -> total E_H with PAW    =      79.99807377 Ry
      -> total E_XC with PAW   =    -148.77775955 Ry

     convergence has been achieved in  10 iterations

     Forces acting on atoms (cartesian axes, Ry/au):

     atom    1 type  1   force =     0.01439744    0.00635602   -0.00281326
     atom    2 type  1   force =    -0.01417979   -0.00626130    0.00227287
     atom    3 type  1   force =    -0.01360401   -0.00600436    0.00697389
     atom    4 type  1   force =     0.01539913    0.00679686   -0.00821248
     atom    5 type  1   force =    -0.00110983   -0.00048752    0.00086491
     atom    6 type  2   force =    -0.01450202   -0.00640056    0.00570679
     atom    7 type  2   force =     0.01423730    0.00628341   -0.00621349
     atom    8 type  2   force =    -0.00426950   -0.00188473    0.02556813
     atom    9 type  2   force =     0.00363128    0.00160218   -0.02414736
     The non-local contrib.  to forces
     atom    1 type  1   force =     0.04837823    0.02135004    0.01599892
     atom    2 type  1   force =    -0.04938750   -0.02179656   -0.01468731
     atom    3 type  1   force =     0.00507753    0.00224138    0.04203367
     atom    4 type  1   force =    -0.01261245   -0.00556771   -0.04154328
     atom    5 type  1   force =     0.00190230    0.00083802   -0.00725445
     atom    6 type  2   force =    -0.16806681   -0.07417788   -0.02263294
     atom    7 type  2   force =     0.16424524    0.07249046    0.02296417
     atom    8 type  2   force =     0.09324061    0.04115175    0.09369467
     atom    9 type  2   force =    -0.08987141   -0.03966489   -0.09213032
     The ionic contribution  to forces
     atom    1 type  1   force =    -1.38761879   -0.61243428   -0.09186660
     atom    2 type  1   force =     1.37105546    0.60512394   -0.22158528
     atom    3 type  1   force =     0.71221175    0.31433913   -0.36303078
     atom    4 type  1   force =    -0.51137271   -0.22569756    0.46137728
     atom    5 type  1   force =    -0.25232299   -0.11136434    0.30608299
     atom    6 type  2   force =     1.22100280    0.53889726   -0.31206922
     atom    7 type  2   force =    -1.20158063   -0.53032517    0.14363262
     atom    8 type  2   force =    -0.45446515   -0.20058105   -0.93871281
     atom    9 type  2   force =     0.50309027    0.22204205    1.01617180
     The local contribution  to forces
     atom    1 type  1   force =     1.35534958    0.59819939    0.07376604
     atom    2 type  1   force =    -1.33743143   -0.59029119    0.23755820
     atom    3 type  1   force =    -0.73085755   -0.32256459    0.32978190
     atom    4 type  1   force =     0.53883528    0.23781849   -0.42908804
     atom    5 type  1   force =     0.24943916    0.11010882   -0.29834953
     atom    6 type  2   force =    -1.08078248   -0.47700818    0.33831527
     atom    7 type  2   force =     1.06464191    0.46988720   -0.17053666
     atom    8 type  2   force =     0.36408411    0.16069191    0.87389212
     atom    9 type  2   force =    -0.41606528   -0.18363370   -0.95138118
     The core correction contribution to forces
     atom    1 type  1   force =    -0.00153017   -0.00067517   -0.00060900
     atom    2 type  1   force =     0.00158101    0.00069758    0.00053080
     atom    3 type  1   force =    -0.00020226   -0.00008923   -0.00133765
     atom    4 type  1   force =     0.00063529    0.00028042    0.00127028
     atom    5 type  1   force =    -0.00019599   -0.00008615    0.00035045
     atom    6 type  2   force =     0.01345216    0.00593737    0.00215691
     atom    7 type  2   force =    -0.01300141   -0.00573817   -0.00241417
     atom    8 type  2   force =    -0.00695094   -0.00306768   -0.00314234
     atom    9 type  2   force =     0.00648304    0.00286124    0.00319053
     The Hubbard contrib.    to forces
     atom    1 type  1   force =     0.00000000    0.00000000    0.00000000
     atom    2 type  1   force =     0.00000000    0.00000000    0.00000000
     atom    3 type  1   force =     0.00000000    0.00000000    0.00000000
     atom    4 type  1   force =     0.00000000    0.00000000    0.00000000
     atom    5 type  1   force =     0.00000000    0.00000000    0.00000000
     atom    6 type  2   force =     0.00000000    0.00000000    0.00000000
     atom    7 type  2   force =     0.00000000    0.00000000    0.00000000
     atom    8 type  2   force =     0.00000000    0.00000000    0.00000000
     atom    9 type  2   force =     0.00000000    0.00000000    0.00000000
     The SCF correction term to forces
     atom    1 type  1   force =    -0.00016537   -0.00007650   -0.00008975
     atom    2 type  1   force =     0.00001870    0.00001239    0.00046934
     atom    3 type  1   force =     0.00018255    0.00007640   -0.00046038
     atom    4 type  1   force =    -0.00007023   -0.00002933   -0.00021583
     atom    5 type  1   force =     0.00008373    0.00002358    0.00004833
     atom    6 type  2   force =    -0.00009166   -0.00004168   -0.00005035
     atom    7 type  2   force =    -0.00005178   -0.00002346    0.00015342
     atom    8 type  2   force =    -0.00016210   -0.00007221   -0.00015064
     atom    9 type  2   force =     0.00001070    0.00000493    0.00001469

     Total force =     0.054431     Total SCF correction =     0.000818

     Computing stress (Cartesian axis) and pressure

          total   stress  (Ry/bohr**3)                   (kbar)     P=      -11.14
  -0.00011299  -0.00013934   0.00005098          -16.62      -20.50        7.50
  -0.00013934   0.00014122   0.00002250          -20.50       20.77        3.31
   0.00005098   0.00002250  -0.00025543            7.50        3.31      -37.58

     kinetic stress (kbar)   6383.39    -70.89    -15.17
                              -70.89   6512.71     -6.70
                              -15.17     -6.70   6284.83

     local   stress (kbar)  -2985.72    209.55   -132.06
                              209.55  -3368.01    -58.29
                             -132.06    -58.29  -3240.40

     nonloc. stress (kbar)   2049.47      5.07     -0.83
                                5.07   2040.21     -0.37
                               -0.83     -0.37   2048.81

     hartree stress (kbar)   1853.52    -91.58     31.34
                              -91.58   2020.59     13.83
                               31.34     13.83   1907.44

     exc-cor stress (kbar)   1098.74     -0.33      0.69
                               -0.33   1099.35      0.31
                                0.69      0.31   1099.83

     corecor stress (kbar)  -2732.66      2.31      0.57
                                2.31  -2736.87      0.25
                                0.57      0.25  -2729.16

     ewald   stress (kbar)  -5683.36    -74.63    122.96
                              -74.63  -5547.21     54.27
                              122.96     54.27  -5408.92

     hubbard stress (kbar)      0.00      0.00      0.00
                                0.00      0.00      0.00
                                0.00      0.00      0.00

     DFT-D   stress (kbar)      0.00      0.00      0.00
                                0.00      0.00      0.00
                                0.00      0.00      0.00

     XDM     stress (kbar)      0.00      0.00      0.00
                                0.00      0.00      0.00
                                0.00      0.00      0.00

     dft-nl  stress (kbar)      0.00      0.00      0.00
                                0.00      0.00      0.00
                                0.00      0.00      0.00

     TS-vdW  stress (kbar)      0.00      0.00      0.00
                                0.00      0.00      0.00
                                0.00      0.00      0.00

[...]

                                0.00      0.00      0.00

     Writing all to output data dir calculations/myprefix.save/

     General routines

     Parallel routines

     PAW routines

   This run was terminated on:   9:51:11   6Mar2023

   JOB DONE.