     Program PWSCF v.7.0 starts on  4Mar2023 at 19:13:44

     R & G space division:  proc/nbgrp/npool/nimage =      32

     Reading input from espresso_7353.pwi
Warning: card &CELL ignored
Warning: card / ignored

     Current dimensions of program PWSCF are:
     Max number of different atomic species (ntypx) = 10
     Max number of k-points (npk) =  40000
     Max angular momentum in pseudopotentials (lmaxx) =  4
     file Pb.pbe-dn-kjpaw_psl.0.2.2.UPF: wavefunction(s)  6S renormalized
     file O.pbe-n-kjpaw_psl.0.1.UPF: wavefunction(s)  2P renormalized

     gamma-point specific algorithms are used
     Message from routine setup:
     using ibrav=0 with symmetry is DISCOURAGED, use correct ibrav instead

     Using Slab Decomposition

     bravais-lattice index     =            0
     lattice parameter (alat)  =      14.7187  a.u.
     unit-cell volume          =    1592.1764 (a.u.)^3
     number of atoms/cell      =           20
     number of atomic types    =            4
     number of electrons       =       164.00
     number of Kohn-Sham states=           98
     kinetic-energy cutoff     =      30.0000  Ry
     charge density cutoff     =     240.0000  Ry
     scf convergence threshold =      1.0E-06
     mixing beta               =       0.7000
     number of iterations used =            8  plain     mixing
     Exchange-correlation= SLA  PW   PBX  PBC
                           (   1   4   3   4   0   0   0)

     celldm(1)=  14.718682  celldm(2)=   0.000000  celldm(3)=   0.000000
     celldm(4)=   0.000000  celldm(5)=   0.000000  celldm(6)=   0.000000

     crystal axes: (cart. coord. in units of alat)
               a(1) = (   1.000000   0.000000   0.000000 )
               a(2) = (   0.000000   0.703316   0.000000 )
               a(3) = (   0.000000   0.002639   0.709960 )

     reciprocal axes: (cart. coord. in units 2 pi/alat)
               b(1) = (  1.000000  0.000000  0.000000 )
               b(2) = (  0.000000  1.421836 -0.005285 )
               b(3) = (  0.000000  0.000000  1.408530 )

     PseudoPot. # 1 for Ca read from file:
     /home/pragov/projects/rrg-bengioy-ad/pragov/crystal_structure_design/SSSP/Ca_pbe_v1.uspp.F.UPF
     MD5 check sum: 403a4c14b9e4d4dfdc3024c9a3812218
     Pseudo is Ultrasoft + core correction, Zval = 10.0
     Generated by new atomic code, or converted to UPF format
     Using radial grid of  845 points,  6 beta functions with:
                l(1) =   0
                l(2) =   0
                l(3) =   1
                l(4) =   1
                l(5) =   2
                l(6) =   2
     Q(r) pseudized with  8 coefficients,  rinner =    1.500   1.500   1.500
                                                       1.500   1.500

     PseudoPot. # 2 for Ti read from file:
     /home/pragov/projects/rrg-bengioy-ad/pragov/crystal_structure_design/SSSP/ti_pbe_v1.4.uspp.F.UPF
     MD5 check sum: 88a00a6731bd790ddea75d31a80cb452
     Pseudo is Ultrasoft + core correction, Zval = 12.0
     Generated by new atomic code, or converted to UPF format
     Using radial grid of  851 points,  6 beta functions with:
                l(1) =   0
                l(2) =   0
                l(3) =   1
                l(4) =   1
                l(5) =   2
                l(6) =   2
     Q(r) pseudized with  6 coefficients,  rinner =    1.000   1.000   1.000
                                                       1.000   1.000

     PseudoPot. # 3 for Pb read from file:
     /home/pragov/projects/rrg-bengioy-ad/pragov/crystal_structure_design/SSSP/Pb.pbe-dn-kjpaw_psl.0.2.2.UPF
     MD5 check sum: 9d431e6316058b74ade52399a6cf67da
     Pseudo is Projector augmented-wave + core cor, Zval = 14.0
     Generated using "atomic" code by A. Dal Corso  v.5.0.99 svn rev. 10869
     Shape of augmentation charge: PSQ
     Using radial grid of 1281 points,  6 beta functions with:
                l(1) =   0
                l(2) =   0
                l(3) =   1
                l(4) =   1
                l(5) =   2
                l(6) =   2
     Q(r) pseudized with 0 coefficients

     PseudoPot. # 4 for O  read from file:
     /home/pragov/projects/rrg-bengioy-ad/pragov/crystal_structure_design/SSSP/O.pbe-n-kjpaw_psl.0.1.UPF
     MD5 check sum: 0234752ac141de4415c5fc33072bef88
     Pseudo is Projector augmented-wave + core cor, Zval =  6.0
     Generated using "atomic" code by A. Dal Corso  v.5.0.99 svn rev. 10869
     Shape of augmentation charge: BESSEL
     Using radial grid of 1095 points,  4 beta functions with:
                l(1) =   0
                l(2) =   0
                l(3) =   1
                l(4) =   1
     Q(r) pseudized with 0 coefficients

     atomic species   valence    mass     pseudopotential
        Ca            10.00    40.07800     Ca( 1.00)
        Ti            12.00    47.86700     Ti( 1.00)
        Pb            14.00   207.20000     Pb( 1.00)
        O              6.00    15.99900     O ( 1.00)

      2 Sym. Ops. (no inversion) found

                                    s                        frac. trans.

      isym =  1     identity

 cryst.   s( 1) = (     1          0          0      )
                  (     0          1          0      )
                  (     0          0          1      )

 cart.    s( 1) = (  1.0000000  0.0000000  0.0000000 )
                  (  0.0000000  1.0000000 -0.0000000 )
                  (  0.0000000  0.0000000  1.0000000 )

      isym =  2     inv. 180 deg rotation - cart. axis [1,0,0]

 cryst.   s( 2) = (    -1          0          0      )
                  (     0          1          0      )
                  (     0          0          1      )

 cart.    s( 2) = ( -1.0000000  0.0000000  0.0000000 )
                  (  0.0000000  1.0000000 -0.0000000 )
                  (  0.0000000  0.0000000  1.0000000 )

   Cartesian axes

     site n.     atom                  positions (alat units)
         1           Ca  tau(   1) = (   0.5000000   0.7022977   0.3791875  )
         2           Ca  tau(   2) = (   0.0000000   0.3512606   0.6787047  )
         3           Ca  tau(   3) = (   0.0000000   0.0023042   0.3311587  )
         4           Ti  tau(   4) = (   0.2469280   0.3538630   0.3489418  )
         5           Ti  tau(   5) = (   0.7545410   0.7055659   0.7078308  )
         6           Ti  tau(   6) = (   0.7530720   0.3538630   0.3489418  )
         7           Ti  tau(   7) = (   0.2454590   0.7055659   0.7078308  )
         8           Pb  tau(   8) = (   0.5000000   0.3546684   0.0095184  )
         9           O   tau(   9) = (   0.5000000   0.3051272   0.3562565  )
        10           O   tau(  10) = (   0.5000000   0.0352627   0.6940122  )
        11           O   tau(  11) = (   0.0000000   0.4000283   0.3630352  )
        12           O   tau(  12) = (   0.0000000   0.6530473   0.0202473  )
        13           O   tau(  13) = (   0.2686190   0.5056500   0.5590097  )
        14           O   tau(  14) = (   0.7172100   0.5608316   0.2127679  )
        15           O   tau(  15) = (   0.7897440   0.2042465   0.1521203  )
        16           O   tau(  16) = (   0.2102380   0.1505962   0.5080502  )
        17           O   tau(  17) = (   0.2102560   0.2042465   0.1521203  )
        18           O   tau(  18) = (   0.7897620   0.1505962   0.5080502  )
        19           O   tau(  19) = (   0.7313810   0.5056500   0.5590097  )
        20           O   tau(  20) = (   0.2827900   0.5608316   0.2127679  )

   Crystallographic axes

     site n.     atom                  positions (cryst. coord.)
         1           Ca  tau(   1) = (  0.5000000  0.9965480  0.5340970  )
         2           Ca  tau(   2) = (  0.0000000  0.4958480  0.9559760  )
         3           Ca  tau(   3) = (  0.0000000  0.0015260  0.4664470  )
         4           Ti  tau(   4) = (  0.2469280  0.5012910  0.4914950  )
         5           Ti  tau(   5) = (  0.7545410  0.9994580  0.9970010  )
         6           Ti  tau(   6) = (  0.7530720  0.5012910  0.4914950  )
         7           Ti  tau(   7) = (  0.2454590  0.9994580  0.9970010  )
         8           Pb  tau(   8) = (  0.5000000  0.5042300  0.0134070  )
         9           O   tau(   9) = (  0.5000000  0.4319580  0.5017980  )
        10           O   tau(  10) = (  0.5000000  0.0464700  0.9775370  )
        11           O   tau(  11) = (  0.0000000  0.5668560  0.5113460  )
        12           O   tau(  12) = (  0.0000000  0.9284190  0.0285190  )
        13           O   tau(  13) = (  0.2686190  0.7159970  0.7873820  )
        14           O   tau(  14) = (  0.7172100  0.7962860  0.2996900  )
        15           O   tau(  15) = (  0.7897440  0.2896010  0.2142660  )
        16           O   tau(  16) = (  0.2102380  0.2114380  0.7156040  )
        17           O   tau(  17) = (  0.2102560  0.2896010  0.2142660  )
        18           O   tau(  18) = (  0.7897620  0.2114380  0.7156040  )
        19           O   tau(  19) = (  0.7313810  0.7159970  0.7873820  )
        20           O   tau(  20) = (  0.2827900  0.7962860  0.2996900  )

     number of k points=     1  Methfessel-Paxton smearing, width (Ry)=  0.0010
                       cart. coord. in units 2pi/alat
        k(    1) = (   0.0000000   0.0000000   0.0000000), wk =   2.0000000

                       cryst. coord.
        k(    1) = (   0.0000000   0.0000000   0.0000000), wk =   2.0000000

     Check: negative core charge=   -0.000015

     Initial potential from superposition of free atoms

     starting charge     159.9811, renormalised to     164.0000

     negative rho (up, down):  6.032E-03 0.000E+00
     Starting wfcs are  127 randomized atomic wfcs
     Checking if some PAW data can be deallocated...

     Self-consistent Calculation

     iteration #  1     ecut=    30.00 Ry     beta= 0.70
     Davidson diagonalization with overlap

     ethr =  1.00E-02,  avg # of iterations =  2.0

     negative rho (up, down):  9.002E-03 0.000E+00

     total energy              =   -2071.91362118 Ry
     estimated scf accuracy    <       3.66601434 Ry

[...]

     total energy              =   -2073.82723945 Ry
     estimated scf accuracy    <       0.00000181 Ry

     iteration # 15     ecut=    30.00 Ry     beta= 0.70
     Davidson diagonalization with overlap

     ethr =  7.07E-10,  avg # of iterations =  2.0

[...]

     End of self-consistent calculation

          k = 0.0000 0.0000 0.0000 (  2205 PWs)   bands (ev):

   -47.6793 -47.6780 -47.6599 -47.6584 -29.1670 -28.9507 -28.8917 -23.9742
   -23.9707 -23.9453 -23.9409 -23.9179 -23.9068 -23.9034 -23.8833 -23.8829
   -23.8689 -23.8457 -23.8115 -10.3591 -10.3112 -10.2740 -10.1538 -10.1508
   -10.1123  -9.9675  -9.9542  -9.9488  -8.0967  -7.4734  -7.3012  -7.1473
    -6.9758  -6.8745  -6.8575  -6.8434  -6.7927  -6.6056  -6.5860  -6.4320
    -5.4459  -5.3928  -5.3533  -5.2403  -5.2316   2.9206   4.9579   4.9766
     5.0615   5.0708   5.2557   5.2696   5.3409   5.3817   5.4481   5.6897
     6.2398   6.4221   6.5342   6.7963   6.8272   6.9083   6.9329   7.0567
     7.1013   7.2498   7.5003   7.6417   7.7490   7.9743   8.4011   8.4084
     8.6293   8.8119   8.8440   8.8770   8.9335   8.9924   9.0788   9.1157
     9.1293   9.5030  11.0658  11.0940  11.1791  11.2404  12.3546  12.3853
    12.5872  12.6596  12.6678  12.7466  12.9101  13.1493  13.6116  13.6193
    13.7016  14.2362

     occupation numbers
     1.0000   1.0000   1.0000   1.0000   1.0000   1.0000   1.0000   1.0000
     1.0000   1.0000   1.0000   1.0000   1.0000   1.0000   1.0000   1.0000
     1.0000   1.0000   1.0000   1.0000   1.0000   1.0000   1.0000   1.0000
     1.0000   1.0000   1.0000   1.0000   1.0000   1.0000   1.0000   1.0000
     1.0000   1.0000   1.0000   1.0000   1.0000   1.0000   1.0000   1.0000
     1.0000   1.0000   1.0000   1.0000   1.0000   1.0000   1.0000   1.0000
     1.0000   1.0000   1.0000   1.0000   1.0000   1.0000   1.0000   1.0000
     1.0000   1.0000   1.0000   1.0000   1.0000   1.0000   1.0000   1.0000
     1.0000   1.0000   1.0000   1.0000   1.0000   1.0000   1.0000   1.0000
     1.0000   1.0000   1.0000   1.0000   1.0000   1.0000   1.0000   1.0000
     1.0000   1.0000  -0.0000  -0.0000  -0.0000  -0.0000  -0.0000  -0.0000
    -0.0000  -0.0000  -0.0000  -0.0000  -0.0000  -0.0000  -0.0000  -0.0000
    -0.0000  -0.0000

     the Fermi energy is    10.4855 ev

!    total energy              =   -2073.82723966 Ry
     estimated scf accuracy    <       0.00000008 Ry
     smearing contrib. (-TS)   =       0.00000000 Ry
     internal energy E=F+TS    =   -2073.82723966 Ry

     The total energy is F=E-TS. E is the sum of the following terms:
     one-electron contribution =    -332.64807868 Ry
     hartree contribution      =     259.28088057 Ry
     xc contribution           =    -241.97858733 Ry
     ewald contribution        =    -915.78145297 Ry
     one-center paw contrib.   =    -842.70000125 Ry
      -> PAW hartree energy AE =       0.00000000 Ry
      -> PAW hartree energy PS =       0.00000000 Ry
      -> PAW xc energy AE      =       0.00000000 Ry
      -> PAW xc energy PS      =       0.00000000 Ry
      -> total E_H with PAW    =     259.28088057 Ry
      -> total E_XC with PAW   =    -241.97858733 Ry

     convergence has been achieved in  15 iterations

     negative rho (up, down):  5.830E-03 0.000E+00

     Forces acting on atoms (cartesian axes, Ry/au):

     atom    1 type  1   force =     0.00000000   -0.01406485    0.00678189
     atom    2 type  1   force =     0.00000000   -0.01148510   -0.01770581
     atom    3 type  1   force =     0.00000000    0.00930161   -0.01038191
     atom    4 type  2   force =    -0.00891258    0.00616565   -0.09382771
     atom    5 type  2   force =     0.01003184   -0.02715764   -0.07972971
     atom    6 type  2   force =     0.00891258    0.00616565   -0.09382771
     atom    7 type  2   force =    -0.01003184   -0.02715764   -0.07972971
     atom    8 type  3   force =     0.00000000    0.00295227   -0.02207278
     atom    9 type  4   force =     0.00000000   -0.00530708    0.01943767
     atom   10 type  4   force =     0.00000000   -0.01246673    0.01614625
     atom   11 type  4   force =     0.00000000    0.00361737    0.01982783
     atom   12 type  4   force =     0.00000000   -0.02223389    0.02167000
     atom   13 type  4   force =    -0.00144094    0.00898211    0.04182418
     atom   14 type  4   force =    -0.02625659    0.01688050    0.05836117
     atom   15 type  4   force =     0.04149688    0.02404712    0.02380512
     atom   16 type  4   force =    -0.02650989   -0.00407452    0.03271539
     atom   17 type  4   force =    -0.04149688    0.02404712    0.02380512
     atom   18 type  4   force =     0.02650989   -0.00407452    0.03271539
     atom   19 type  4   force =     0.00144094    0.00898211    0.04182418
     atom   20 type  4   force =     0.02625659    0.01688050    0.05836117
     The non-local contrib.  to forces
     atom    1 type  1   force =     0.00000000   -0.00701107    0.00323123
     atom    2 type  1   force =     0.00000000   -0.00825313    0.00976673
     atom    3 type  1   force =     0.00000000    0.00513992    0.00979325
     atom    4 type  2   force =    -0.00448666   -0.00063805    0.00082363
     atom    5 type  2   force =     0.00357189   -0.00121933    0.00015494
     atom    6 type  2   force =     0.00448666   -0.00063805    0.00082363
     atom    7 type  2   force =    -0.00357189   -0.00121933    0.00015494
     atom    8 type  3   force =     0.00000000    0.01583652   -0.04233649
     atom    9 type  4   force =     0.00000000    0.01870501   -0.04856359
     atom   10 type  4   force =     0.00000000   -0.01187911   -0.09656461
     atom   11 type  4   force =     0.00000000   -0.11549772   -0.00886440
     atom   12 type  4   force =     0.00000000    0.12799582   -0.01882016
     atom   13 type  4   force =    -0.03709018    0.10945529    0.00875397
     atom   14 type  4   force =     0.09738624   -0.17939471   -0.04425864
     atom   15 type  4   force =    -0.06303066    0.00077486    0.09629090
     atom   16 type  4   force =     0.02588682    0.01116123    0.10506009
     atom   17 type  4   force =     0.06303066    0.00077486    0.09629090
     atom   18 type  4   force =    -0.02588682    0.01116123    0.10506009
     atom   19 type  4   force =     0.03709018    0.10945529    0.00875397
     atom   20 type  4   force =    -0.09738624   -0.17939471   -0.04425864
     The ionic contribution  to forces
     atom    1 type  1   force =     0.00000000    0.38801426   -1.82508730
     atom    2 type  1   force =     0.00000000   -0.16458044    1.91584849
     atom    3 type  1   force =    -0.00000000    0.29787382    1.50911116
     atom    4 type  2   force =     0.51576292   -0.70318205   -0.17361587
     atom    5 type  2   force =    -0.20929800    0.65927420    0.79802744
     atom    6 type  2   force =    -0.51576292   -0.70318205   -0.17361587
     atom    7 type  2   force =     0.20929800    0.65927420    0.79802744
     atom    8 type  3   force =     0.00000000   -0.90219419    0.25951641
     atom    9 type  4   force =     0.00000000   -1.62872405    0.29867840
     atom   10 type  4   force =     0.00000000    0.80208113    0.72511200
     atom   11 type  4   force =     0.00000000    1.37525704   -0.58591422
     atom   12 type  4   force =    -0.00000000   -1.61435831    0.09100595
     atom   13 type  4   force =     0.04147263   -0.83639421   -0.27849453
     atom   14 type  4   force =    -1.11187526    2.04948764    0.76802190
     atom   15 type  4   force =     1.22808531    0.22115391   -0.82297699
     atom   16 type  4   force =    -1.09416976   -0.66702413   -1.48509738
     atom   17 type  4   force =    -1.22808531    0.22115391   -0.82297699
     atom   18 type  4   force =     1.09416976   -0.66702413   -1.48509738
     atom   19 type  4   force =    -0.04147263   -0.83639421   -0.27849453
     atom   20 type  4   force =     1.11187526    2.04948764    0.76802190
     The local contribution  to forces
     atom    1 type  1   force =     0.00006071   -0.39517600    1.82873547
     atom    2 type  1   force =    -0.00004512    0.16141774   -1.94351807
     atom    3 type  1   force =    -0.00004931   -0.29394766   -1.52923029
     atom    4 type  2   force =    -0.52431520    0.71202184    0.07996309
     atom    5 type  2   force =     0.21909762   -0.68626722   -0.87916822
     atom    6 type  2   force =     0.52430438    0.71205483    0.07995560
     atom    7 type  2   force =    -0.21910980   -0.68623865   -0.87913419
     atom    8 type  3   force =     0.00004978    0.89184380   -0.24002988
     atom    9 type  4   force =     0.00015870    1.60475318   -0.23112127
     atom   10 type  4   force =     0.00003674   -0.80263871   -0.61349088
     atom   11 type  4   force =    -0.00017802   -1.25737021    0.61438287
     atom   12 type  4   force =    -0.00003931    1.46535519   -0.05077689
     atom   13 type  4   force =    -0.00637926    0.73688422    0.31146284
     atom   14 type  4   force =     0.98934669   -1.85502356   -0.66604230
     atom   15 type  4   force =    -1.12399348   -0.19786976    0.75128924
     atom   16 type  4   force =     1.04181609    0.65199052    1.41364667
     atom   17 type  4   force =     1.12396809   -0.19795580    0.75114552
     atom   18 type  4   force =    -1.04184793    0.65210487    1.41357889
     atom   19 type  4   force =     0.00638991    0.73680576    0.31135735
     atom   20 type  4   force =    -0.98932554   -1.85490412   -0.66614970
     The core correction contribution to forces
     atom    1 type  1   force =     0.00000114    0.00008616   -0.00005046
     atom    2 type  1   force =    -0.00000113   -0.00014882    0.00014083
     atom    3 type  1   force =    -0.00000095    0.00032135   -0.00001244
     atom    4 type  2   force =     0.00372617   -0.00209670   -0.00092550
     atom    5 type  2   force =    -0.00311674    0.00107914    0.00109909
     atom    6 type  2   force =    -0.00372669   -0.00209619   -0.00092673
     atom    7 type  2   force =     0.00311643    0.00107933    0.00109876
     atom    8 type  3   force =    -0.00000357   -0.00255435    0.00063878
     atom    9 type  4   force =    -0.00000077   -0.00004431    0.00048161
     atom   10 type  4   force =    -0.00000015    0.00000295    0.00106477
     atom   11 type  4   force =     0.00000048    0.00116427    0.00027242
     atom   12 type  4   force =     0.00000000   -0.00122654    0.00022926
     atom   13 type  4   force =     0.00044484   -0.00095414    0.00017637
     atom   14 type  4   force =    -0.00100168    0.00171300    0.00072262
     atom   15 type  4   force =     0.00055216    0.00007198   -0.00074358
     atom   16 type  4   force =    -0.00015473   -0.00019653   -0.00082420
     atom   17 type  4   force =    -0.00055223    0.00007236   -0.00074348
     atom   18 type  4   force =     0.00015476   -0.00019655   -0.00082385
     atom   19 type  4   force =    -0.00044497   -0.00095403    0.00017644
     atom   20 type  4   force =     0.00100158    0.00171266    0.00072276
     The Hubbard contrib.    to forces
     atom    1 type  1   force =     0.00000000    0.00000000    0.00000000
     atom    2 type  1   force =     0.00000000    0.00000000    0.00000000
     atom    3 type  1   force =     0.00000000    0.00000000    0.00000000
     atom    4 type  2   force =     0.00000000    0.00000000    0.00000000
     atom    5 type  2   force =     0.00000000    0.00000000    0.00000000
     atom    6 type  2   force =     0.00000000    0.00000000    0.00000000
     atom    7 type  2   force =     0.00000000    0.00000000    0.00000000
     atom    8 type  3   force =     0.00000000    0.00000000    0.00000000
     atom    9 type  4   force =     0.00000000    0.00000000    0.00000000
     atom   10 type  4   force =     0.00000000    0.00000000    0.00000000
     atom   11 type  4   force =     0.00000000    0.00000000    0.00000000
     atom   12 type  4   force =     0.00000000    0.00000000    0.00000000
     atom   13 type  4   force =     0.00000000    0.00000000    0.00000000
     atom   14 type  4   force =     0.00000000    0.00000000    0.00000000
     atom   15 type  4   force =     0.00000000    0.00000000    0.00000000
     atom   16 type  4   force =     0.00000000    0.00000000    0.00000000
     atom   17 type  4   force =     0.00000000    0.00000000    0.00000000
     atom   18 type  4   force =     0.00000000    0.00000000    0.00000000
     atom   19 type  4   force =     0.00000000    0.00000000    0.00000000
     atom   20 type  4   force =     0.00000000    0.00000000    0.00000000
     The SCF correction term to forces
     atom    1 type  1   force =    -0.00008526    0.00002103   -0.00004698
     atom    2 type  1   force =     0.00007530    0.00007878    0.00005628
     atom    3 type  1   force =     0.00007804   -0.00008658   -0.00004352
     atom    4 type  2   force =     0.00039928    0.00006138   -0.00006423
     atom    5 type  2   force =    -0.00022198   -0.00002435    0.00015588
     atom    6 type  2   force =    -0.00038977    0.00002480   -0.00007303
     atom    7 type  2   force =     0.00023638   -0.00005483    0.00012465
     atom    8 type  3   force =    -0.00010149    0.00001972    0.00013848
     atom    9 type  4   force =    -0.00020014    0.00000232   -0.00003741
     atom   10 type  4   force =    -0.00004979   -0.00003377    0.00002504
     atom   11 type  4   force =     0.00021368    0.00006321   -0.00004876
     atom   12 type  4   force =     0.00004514   -0.00000082    0.00003191
     atom   13 type  4   force =     0.00010574   -0.00001579   -0.00008246
     atom   14 type  4   force =    -0.00011835    0.00011226   -0.00008477
     atom   15 type  4   force =    -0.00011021   -0.00009519   -0.00005890
     atom   16 type  4   force =     0.00011726   -0.00000330   -0.00008077
     atom   17 type  4   force =     0.00014815    0.00001158    0.00009378
     atom   18 type  4   force =    -0.00007431   -0.00012381    0.00000878
     atom   19 type  4   force =    -0.00012683    0.00007449    0.00003911
     atom   20 type  4   force =     0.00008577   -0.00003666    0.00002736

     Total force =     0.239879     Total SCF correction =     0.000909

     Computing stress (Cartesian axis) and pressure

     negative rho (up, down):  5.830E-03 0.000E+00
          total   stress  (Ry/bohr**3)                   (kbar)     P=     -340.50
  -0.00244224   0.00000000   0.00000000         -359.27        0.00        0.00
   0.00000000  -0.00235750   0.00002780            0.00     -346.80        4.09
   0.00000000   0.00002780  -0.00214419            0.00        4.09     -315.42

     kinetic stress (kbar)  24565.78      0.00      0.00
                                0.00  24636.83     19.87
                                0.00     19.87  24672.26

     local   stress (kbar)  -4767.71      0.00     -0.01
                                0.00  -4652.09   -265.94
                               -0.01   -265.94  -3751.88

     nonloc. stress (kbar)   5998.90      0.00      0.00
                                0.00   5985.97     -3.43
                                0.00     -3.43   5991.27

     hartree stress (kbar)   8146.30     -0.00      0.00
                               -0.00   8053.52     79.31
                                0.00     79.31   7755.77

     exc-cor stress (kbar)  -1407.41      0.00      0.00
                                0.00  -1408.36      0.52
                                0.00      0.52  -1409.95

     corecor stress (kbar)  -4940.33      0.00     -0.00
                                0.00  -4939.54      0.19
                               -0.00      0.19  -4939.53

     ewald   stress (kbar) -27954.79      0.00      0.00
                                0.00 -28023.14    173.56
                                0.00    173.56 -28633.36

     hubbard stress (kbar)      0.00      0.00      0.00
                                0.00      0.00      0.00
                                0.00      0.00      0.00

     DFT-D   stress (kbar)      0.00      0.00      0.00
                                0.00      0.00      0.00
                                0.00      0.00      0.00

     XDM     stress (kbar)      0.00      0.00      0.00
                                0.00      0.00      0.00
                                0.00      0.00      0.00

     dft-nl  stress (kbar)      0.00      0.00      0.00
                                0.00      0.00      0.00
                                0.00      0.00      0.00

     TS-vdW  stress (kbar)      0.00      0.00      0.00
                                0.00      0.00      0.00
                                0.00      0.00      0.00

[...]

                                0.00      0.00      0.00

     Writing all to output data dir calculations/myprefix.save/

     General routines

     Parallel routines

     PAW routines

   This run was terminated on:  19:13:49   4Mar2023

   JOB DONE.