     Program PWSCF v.7.0 starts on  3Mar2023 at 12:28:56

     R & G space division:  proc/nbgrp/npool/nimage =      32

     Reading input from espresso_279.pwi
Warning: card &CELL ignored
Warning: card / ignored

     Current dimensions of program PWSCF are:
     Max number of different atomic species (ntypx) = 10
     Max number of k-points (npk) =  40000
     Max angular momentum in pseudopotentials (lmaxx) =  4

     gamma-point specific algorithms are used
     Message from routine setup:
     using ibrav=0 with symmetry is DISCOURAGED, use correct ibrav instead

     Using Slab Decomposition

     bravais-lattice index     =            0
     lattice parameter (alat)  =      10.4351  a.u.
     unit-cell volume          =    1424.5815 (a.u.)^3
     number of atoms/cell      =           12
     number of atomic types    =            3
     number of electrons       =       144.00
     number of Kohn-Sham states=           86
     kinetic-energy cutoff     =      30.0000  Ry
     charge density cutoff     =     240.0000  Ry
     scf convergence threshold =      1.0E-06
     mixing beta               =       0.7000
     number of iterations used =            8  plain     mixing
     Exchange-correlation=  SLA  PW   PBX  PBC
                           (   1   4   3   4   0   0   0)

     celldm(1)=  10.435135  celldm(2)=   0.000000  celldm(3)=   0.000000
     celldm(4)=   0.000000  celldm(5)=   0.000000  celldm(6)=   0.000000

     crystal axes: (cart. coord. in units of alat)
               a(1) = (   1.000000   0.000000   0.000000 )
               a(2) = (  -0.500000   0.866025   0.000000 )
               a(3) = (   0.000000   0.000000   1.447646 )

     reciprocal axes: (cart. coord. in units 2 pi/alat)
               b(1) = (  1.000000  0.577350  0.000000 )
               b(2) = (  0.000000  1.154700  0.000000 )
               b(3) = (  0.000000  0.000000  0.690777 )

     PseudoPot. # 1 for Pr read from file:
     /home/pragov/projects/rrg-bengioy-ad/pragov/crystal_structure_design/SSSP/Pr.GGA-PBE-paw-v1.0.UPF
     MD5 check sum: b5e1e58e76df433569641143f671cc27
     Pseudo is Projector augmented-wave + core cor, Zval = 13.0
     Generated using ATOMPAW code
     Shape of augmentation charge: BESSEL
     Using radial grid of 1103 points,  8 beta functions with:
                l(1) =   0
                l(2) =   0
                l(3) =   1
                l(4) =   1
                l(5) =   2
                l(6) =   2
                l(7) =   3
                l(8) =   3
     Q(r) pseudized with 0 coefficients

     PseudoPot. # 2 for B  read from file:
     /home/pragov/projects/rrg-bengioy-ad/pragov/crystal_structure_design/SSSP/b_pbe_v1.4.uspp.F.UPF
     MD5 check sum: cc6de2960df11db49a60e589f9ebb39b
     Pseudo is Ultrasoft + core correction, Zval =  3.0
     Generated by new atomic code, or converted to UPF format
     Using radial grid of  781 points,  4 beta functions with:
                l(1) =   0
                l(2) =   0
                l(3) =   1
                l(4) =   1
     Q(r) pseudized with  8 coefficients,  rinner =    1.100   1.100   1.100

     PseudoPot. # 3 for Pt read from file:
     /home/pragov/projects/rrg-bengioy-ad/pragov/crystal_structure_design/SSSP/pt_pbe_v1.4.uspp.F.UPF
     MD5 check sum: f09d6de1a584b5a045c4fc126da2d0c4
     Pseudo is Ultrasoft + core correction, Zval = 16.0
     Generated by new atomic code, or converted to UPF format
     Using radial grid of  985 points,  6 beta functions with:
                l(1) =   0
                l(2) =   0
                l(3) =   1
                l(4) =   1
                l(5) =   2
                l(6) =   2
     Q(r) pseudized with  8 coefficients,  rinner =    1.300   1.300   1.300
                                                       1.300   1.300

     atomic species   valence    mass     pseudopotential
        Pr            13.00   140.90766     Pr( 1.00)
        B              3.00    10.81000     B ( 1.00)
        Pt            16.00   195.08400     Pt( 1.00)

     12 Sym. Ops. (no inversion) found ( 8 have fractional translation)

                                    s                        frac. trans.

      isym =  1     identity

 cryst.   s( 1) = (     1          0          0      )
                  (     0          1          0      )
                  (     0          0          1      )

 cart.    s( 1) = (  1.0000000 -0.0000000  0.0000000 )
                  (  0.0000000  1.0000000  0.0000000 )
                  (  0.0000000  0.0000000  1.0000000 )

      isym =  2     180 deg rotation - cart. axis [0,0,1]

[...]

      isym =  4     180 deg rotation - cart. axis [1,0,0]

 cryst.   s( 4) = (     1          0          0      )
                  (    -1         -1          0      )
                  (     0          0         -1      )

 cart.    s( 4) = (  1.0000000 -0.0000002  0.0000000 )
                  (  0.0000000 -1.0000000  0.0000000 )
                  (  0.0000000  0.0000000 -1.0000000 )

      isym =  5      60 deg rotation - cryst. axis [0,0,1]

 cryst.   s( 5) = (     1          1          0      )    f =( -0.0000000 )
                  (    -1          0          0      )       ( -0.0000000 )
                  (     0          0          1      )       ( -0.3333330 )

 cart.    s( 5) = (  0.5000001 -0.8660254  0.0000000 )    f =(  0.0000000 )
                  (  0.8660254  0.4999999  0.0000000 )       ( -0.0000000 )
                  (  0.0000000  0.0000000  1.0000000 )       ( -0.4825483 )

[...]

 cryst.   s( 9) = (     0         -1          0      )    f =(  0.0000000 )
                  (    -1          0          0      )       (  0.0000000 )
                  (     0          0         -1      )       (  0.3333330 )

 cart.    s( 9) = (  0.4999999 -0.8660254  0.0000000 )    f =(  0.0000000 )
                  ( -0.8660254 -0.4999999  0.0000000 )       (  0.0000000 )
                  (  0.0000000  0.0000000 -1.0000000 )       (  0.4825483 )

[...]

 cryst.   s(10) = (     1          1          0      )    f =( -0.0000000 )
                  (     0         -1          0      )       ( -0.0000000 )
                  (     0          0         -1      )       ( -0.3333330 )

 cart.    s(10) = (  0.5000001  0.8660253  0.0000000 )    f =( -0.0000000 )
                  (  0.8660254 -0.5000001  0.0000000 )       ( -0.0000000 )
                  (  0.0000000  0.0000000 -1.0000000 )       ( -0.4825483 )

[...]

      isym = 12     180 deg rotation - cryst. axis [1,1,0]

 cryst.   s(12) = (     0          1          0      )    f =( -0.0000000 )
                  (     1          0          0      )       ( -0.0000000 )
                  (     0          0         -1      )       (  0.3333330 )

 cart.    s(12) = ( -0.4999999  0.8660254  0.0000000 )    f =( -0.0000000 )
                  (  0.8660254  0.4999999  0.0000000 )       ( -0.0000000 )
                  (  0.0000000  0.0000000 -1.0000000 )       (  0.4825483 )

   Cartesian axes

     site n.     atom                  positions (alat units)
         1           Pr  tau(   1) = (   0.5000000   0.0000000   0.7238231  )
         2           Pr  tau(   2) = (  -0.2500000   0.4330127   0.2412749  )
         3           Pr  tau(   3) = (   0.2500000   0.4330127   1.2063714  )
         4           B   tau(   4) = (   0.5000000   0.0000000   0.0000000  )
         5           B   tau(   5) = (  -0.2500000   0.4330127   0.9650980  )
         6           B   tau(   6) = (   0.2500000   0.4330127   0.4825483  )
         7           Pt  tau(   7) = (   0.0000005   0.2647656   0.7238231  )
         8           Pt  tau(   8) = (   0.2707066   0.7336422   0.2412749  )
         9           Pt  tau(   9) = (   0.4999995   0.6012598   0.7238231  )
        10           Pt  tau(  10) = (   0.2292935   0.1323832   0.2412749  )
        11           Pt  tau(  11) = (  -0.2707054   0.7336422   1.2063714  )
        12           Pt  tau(  12) = (   0.7707055   0.1323832   1.2063714  )

   Crystallographic axes

     site n.     atom                  positions (cryst. coord.)
         1           Pr  tau(   1) = (  0.5000000  0.0000000  0.5000000  )
         2           Pr  tau(   2) = ( -0.0000000  0.5000000  0.1666670  )
         3           Pr  tau(   3) = (  0.5000000  0.5000000  0.8333330  )
         4           B   tau(   4) = (  0.5000000  0.0000000  0.0000000  )
         5           B   tau(   5) = ( -0.0000000  0.5000000  0.6666670  )
         6           B   tau(   6) = (  0.5000000  0.5000000  0.3333330  )
         7           Pt  tau(   7) = (  0.1528630  0.3057250  0.5000000  )
         8           Pt  tau(   8) = (  0.6942750  0.8471370  0.1666670  )
         9           Pt  tau(   9) = (  0.8471370  0.6942750  0.5000000  )
        10           Pt  tau(  10) = (  0.3057250  0.1528630  0.1666670  )
        11           Pt  tau(  11) = (  0.1528630  0.8471370  0.8333330  )
        12           Pt  tau(  12) = (  0.8471370  0.1528630  0.8333330  )

     number of k points=     1  Methfessel-Paxton smearing, width (Ry)=  0.0010
                       cart. coord. in units 2pi/alat
        k(    1) = (   0.0000000   0.0000000   0.0000000), wk =   2.0000000

                       cryst. coord.
        k(    1) = (   0.0000000   0.0000000   0.0000000), wk =   2.0000000

     Initial potential from superposition of free atoms

     starting charge     140.9768, renormalised to     144.0000

     negative rho (up, down):  1.119E+00 0.000E+00
     Starting wfcs are  180 randomized atomic wfcs
     Checking if some PAW data can be deallocated...

     Self-consistent Calculation

     iteration #  1     ecut=    30.00 Ry     beta= 0.70
     Davidson diagonalization with overlap

     ethr =  1.00E-02,  avg # of iterations =  2.0

     negative rho (up, down):  9.753E-01 0.000E+00

     total energy              =   -2783.72788916 Ry
     estimated scf accuracy    <      32.44853888 Ry

[...]

     total energy              =   -2808.61633663 Ry
     estimated scf accuracy    <       0.00000504 Ry

     iteration # 87     ecut=    30.00 Ry     beta= 0.70
     Davidson diagonalization with overlap

     ethr =  9.45E-10,  avg # of iterations =  1.0

[...]

     End of self-consistent calculation

          k = 0.0000 0.0000 0.0000 (  1973 PWs)   bands (ev):

   -36.8952 -36.8880 -36.8879 -36.8359 -36.8358 -36.8278 -36.6816 -36.6726
   -36.6725 -36.6025 -36.6023 -36.5984 -36.5447 -36.5446 -36.5390 -36.5326
   -36.5325 -36.5309 -19.5740 -19.5257 -19.5256  -1.7574  -1.7228  -1.7227
    -1.6190  -1.6190  -1.4598  -1.4598  -1.4468  -1.4028   6.3925   8.1298
     8.1298  10.2043  10.2044  10.4712  10.4713  11.1075  11.6972  11.6973
    11.7152  11.8344  11.9416  11.9417  12.4003  12.4548  12.4548  12.4892
    12.7176  12.7683  12.9420  12.9421  13.0837  13.0837  13.4019  13.4020
    13.4995  13.6472  13.6472  13.6870  13.8155  13.8155  14.5896  14.7358
    15.1969  15.4161  15.4161  15.7724  15.7724  15.8301  16.0962  16.0962
    16.1032  16.1423  16.1423  16.1664  16.1723  16.2716  16.2717  16.2749
    16.2810  16.3482  16.3483  16.3870  16.3871  16.4277

     occupation numbers
     1.0000   1.0000   1.0000   1.0000   1.0000   1.0000   1.0000   1.0000
     1.0000   1.0000   1.0000   1.0000   1.0000   1.0000   1.0000   1.0000
     1.0000   1.0000   1.0000   1.0000   1.0000   1.0000   1.0000   1.0000
     1.0000   1.0000   1.0000   1.0000   1.0000   1.0000   1.0000   1.0000
     1.0000   1.0000   1.0000   1.0000   1.0000   1.0000   1.0000   1.0000
     1.0000   1.0000   1.0000   1.0000   1.0000   1.0000   1.0000   1.0000
     1.0000   1.0000   1.0000   1.0000   1.0000   1.0000   1.0000   1.0000
     1.0000   1.0000   1.0000   1.0000   1.0000   1.0000   1.0000   1.0000
     1.0000   1.0000   1.0000   1.0000   1.0000   1.0000   0.8040   0.8023
     0.3938  -0.0001  -0.0001  -0.0000  -0.0000  -0.0000  -0.0000  -0.0000
    -0.0000  -0.0000  -0.0000  -0.0000  -0.0000  -0.0000

     the Fermi energy is    16.1015 ev

!    total energy              =   -2808.61633594 Ry
     estimated scf accuracy    <       0.00000073 Ry
     smearing contrib. (-TS)   =      -0.00060577 Ry
     internal energy E=F+TS    =   -2808.61573017 Ry

     The total energy is F=E-TS. E is the sum of the following terms:
     one-electron contribution =    -296.74143000 Ry
     hartree contribution      =     255.88047516 Ry
     xc contribution           =    -385.85987127 Ry
     ewald contribution        =   -1123.39082913 Ry
     one-center paw contrib.   =   -1258.50407494 Ry
      -> PAW hartree energy AE =      62.24731218 Ry
      -> PAW hartree energy PS =     -62.31805241 Ry
      -> PAW xc energy AE      =    -429.96296616 Ry
      -> PAW xc energy PS      =      10.53234801 Ry
      -> total E_H with PAW    =     255.80973493 Ry
      -> total E_XC with PAW   =    -805.29048942 Ry

     convergence has been achieved in  87 iterations

     negative rho (up, down):  1.041E+00 0.000E+00

     Forces acting on atoms (cartesian axes, Ry/au):

     atom    1 type  1   force =    -0.00000000   -0.00000000   -0.00000000
     atom    2 type  1   force =    -0.00000000   -0.00000000    0.00000000
     atom    3 type  1   force =     0.00000000    0.00000000    0.00000000
     atom    4 type  2   force =     0.00000000    0.00000000    0.00000000
     atom    5 type  2   force =     0.00000000    0.00000000   -0.00000000
     atom    6 type  2   force =     0.00000000    0.00000000    0.00000000
     atom    7 type  3   force =    -0.00000000   -0.01189304    0.00000000
     atom    8 type  3   force =     0.01029967    0.00594652   -0.00000000
     atom    9 type  3   force =     0.00000000    0.01189304   -0.00000000
     atom   10 type  3   force =    -0.01029967   -0.00594652   -0.00000000
     atom   11 type  3   force =    -0.01029967    0.00594652    0.00000000
     atom   12 type  3   force =     0.01029967   -0.00594652    0.00000000
     The non-local contrib.  to forces
     atom    1 type  1   force =     0.00000000    0.00000000    0.00000000
     atom    2 type  1   force =     0.00000000   -0.00000000    0.00000000
     atom    3 type  1   force =     0.00000000    0.00000000    0.00000000
     atom    4 type  2   force =     0.00000000    0.00000000    0.00000000
     atom    5 type  2   force =    -0.00000000   -0.00000000    0.00000000
     atom    6 type  2   force =    -0.00000000    0.00000000    0.00000000
     atom    7 type  3   force =    -0.00000000   -0.12113423    0.00000000
     atom    8 type  3   force =     0.10490532    0.06056711    0.00000000
     atom    9 type  3   force =    -0.00000000    0.12113423    0.00000000
     atom   10 type  3   force =    -0.10490532   -0.06056711   -0.00000000
     atom   11 type  3   force =    -0.10490532    0.06056712    0.00000000
     atom   12 type  3   force =     0.10490532   -0.06056712    0.00000000
     The ionic contribution  to forces
     atom    1 type  1   force =     0.00000000   -0.00000000   -0.00003403
     atom    2 type  1   force =     0.00000000   -0.00000000   -0.00010908
     atom    3 type  1   force =     0.00000000    0.00000000    0.00014311
     atom    4 type  2   force =    -0.00000000    0.00000000    0.00003627
     atom    5 type  2   force =     0.00000000   -0.00000000   -0.00004182
     atom    6 type  2   force =     0.00000000    0.00000000    0.00000555
     atom    7 type  3   force =    -0.00006914    2.48473972    0.00004633
     atom    8 type  3   force =    -2.15187448   -1.24226999   -0.00023715
     atom    9 type  3   force =     0.00006914   -2.48473972    0.00004633
     atom   10 type  3   force =     2.15187448    1.24226999   -0.00023715
     atom   11 type  3   force =     2.15173375   -1.24226894    0.00019082
     atom   12 type  3   force =    -2.15173375    1.24226894    0.00019082
     The local contribution  to forces
     atom    1 type  1   force =    -0.00000999    0.00002442    0.00098737
     atom    2 type  1   force =     0.00001665   -0.00001146   -0.00002369
     atom    3 type  1   force =    -0.00001146   -0.00001863   -0.00088862
     atom    4 type  2   force =    -0.00000090    0.00000179   -0.00020407
     atom    5 type  2   force =     0.00000422   -0.00000457    0.00016913
     atom    6 type  2   force =    -0.00000341   -0.00000793    0.00002501
     atom    7 type  3   force =     0.00005146   -2.36120824    0.00043612
     atom    8 type  3   force =     2.04504581    1.18053764   -0.00043310
     atom    9 type  3   force =    -0.00004517    2.36120155    0.00044554
     atom   10 type  3   force =    -2.04505354   -1.18051922   -0.00042530
     atom   11 type  3   force =    -2.04488139    1.18058305   -0.00002035
     atom   12 type  3   force =     2.04489493   -1.18055420   -0.00001551
     The core correction contribution to forces
     atom    1 type  1   force =    -0.00000000    0.00000000    0.00000012
     atom    2 type  1   force =     0.00000000   -0.00000000    0.00000006
     atom    3 type  1   force =     0.00000000   -0.00000000   -0.00000016
     atom    4 type  2   force =     0.00000006   -0.00000003   -0.00000087
     atom    5 type  2   force =    -0.00000002    0.00000004   -0.00000020
     atom    6 type  2   force =     0.00000006    0.00000004    0.00000101
     atom    7 type  3   force =     0.00001125   -0.01434792    0.00000156
     atom    8 type  3   force =     0.01244006    0.00719132    0.00000158
     atom    9 type  3   force =    -0.00001105    0.01434882    0.00000255
     atom   10 type  3   force =    -0.01243951   -0.00719113    0.00000171
     atom   11 type  3   force =    -0.01241758    0.00719023   -0.00000418
     atom   12 type  3   force =     0.01241733   -0.00718985   -0.00000389
     The Hubbard contrib.    to forces
     atom    1 type  1   force =     0.00000000    0.00000000    0.00000000
     atom    2 type  1   force =     0.00000000    0.00000000    0.00000000
     atom    3 type  1   force =     0.00000000    0.00000000    0.00000000
     atom    4 type  2   force =     0.00000000    0.00000000    0.00000000
     atom    5 type  2   force =     0.00000000    0.00000000    0.00000000
     atom    6 type  2   force =     0.00000000    0.00000000    0.00000000
     atom    7 type  3   force =     0.00000000    0.00000000    0.00000000
     atom    8 type  3   force =     0.00000000    0.00000000    0.00000000
     atom    9 type  3   force =     0.00000000    0.00000000    0.00000000
     atom   10 type  3   force =     0.00000000    0.00000000    0.00000000
     atom   11 type  3   force =     0.00000000    0.00000000    0.00000000
     atom   12 type  3   force =     0.00000000    0.00000000    0.00000000
     The SCF correction term to forces
     atom    1 type  1   force =     0.00000408   -0.00001949   -0.00066945
     atom    2 type  1   force =    -0.00001807    0.00000920    0.00025824
     atom    3 type  1   force =     0.00001556    0.00001688    0.00035763
     atom    4 type  2   force =     0.00000283   -0.00000221    0.00013159
     atom    5 type  2   force =    -0.00000526    0.00000517   -0.00013736
     atom    6 type  2   force =     0.00000550    0.00000885    0.00001375
     atom    7 type  3   force =     0.00000645    0.00006045   -0.00048695
     atom    8 type  3   force =    -0.00020965   -0.00007876    0.00065753
     atom    9 type  3   force =    -0.00001555   -0.00005441   -0.00049400
     atom   10 type  3   force =     0.00021588    0.00006058    0.00065045
     atom   11 type  3   force =     0.00017891   -0.00011838   -0.00015445
     atom   12 type  3   force =    -0.00019397    0.00008902   -0.00015138

     Total force =     0.029132     Total SCF correction =     0.001504

     Computing stress (Cartesian axis) and pressure

     negative rho (up, down):  1.041E+00 0.000E+00
          total   stress  (Ry/bohr**3)                   (kbar)     P=      -74.71
  -0.00049258   0.00000000   0.00000000          -72.46        0.00        0.00
   0.00000000  -0.00049258   0.00000000            0.00      -72.46        0.00
   0.00000000   0.00000000  -0.00053854            0.00        0.00      -79.22

     kinetic stress (kbar)  28465.51     -0.00      0.00
                               -0.00  28465.51      0.00
                                0.00      0.00  28257.70

     local   stress (kbar)   6251.17     -0.22      0.00
                               -0.22   6251.25     -0.00
                                0.00     -0.00   3571.29

     nonloc. stress (kbar)   3963.44     -0.00      0.00
                               -0.00   3963.44      0.00
                                0.00      0.00   3974.22

     hartree stress (kbar)   8404.81      0.08     -0.00
                                0.08   8404.87      0.00
                               -0.00      0.00   9613.04

     exc-cor stress (kbar)  16180.81      0.00     -0.00
                                0.00  16180.81     -0.00
                               -0.00     -0.00  16180.16

     corecor stress (kbar) -24117.38     -0.00      0.00
                               -0.00 -24117.37      0.00
                                0.00      0.00 -24113.89

     ewald   stress (kbar) -39220.92      0.03      0.00
                                0.03 -39220.88     -0.00
                                0.00     -0.00 -37561.74

     hubbard stress (kbar)      0.00      0.00      0.00
                                0.00      0.00      0.00
                                0.00      0.00      0.00

     DFT-D   stress (kbar)      0.00      0.00      0.00
                                0.00      0.00      0.00
                                0.00      0.00      0.00

     XDM     stress (kbar)      0.00      0.00      0.00
                                0.00      0.00      0.00
                                0.00      0.00      0.00

     dft-nl  stress (kbar)      0.00      0.00      0.00
                                0.00      0.00      0.00
                                0.00      0.00      0.00

     TS-vdW  stress (kbar)      0.00      0.00      0.00
                                0.00      0.00      0.00
                                0.00      0.00      0.00

[...]

                                0.00      0.00      0.00

     Writing all to output data dir calculations/myprefix.save/

     General routines

     Parallel routines

     PAW routines

   This run was terminated on:  12:29:33   3Mar2023

   JOB DONE.