     Program PWSCF v.7.0 starts on  4Mar2023 at 17:16:58

     R & G space division:  proc/nbgrp/npool/nimage =      32

     Reading input from espresso_7029.pwi
Warning: card &CELL ignored
Warning: card / ignored

     Current dimensions of program PWSCF are:
     Max number of different atomic species (ntypx) = 10
     Max number of k-points (npk) =  40000
     Max angular momentum in pseudopotentials (lmaxx) =  4

     gamma-point specific algorithms are used
     Message from routine setup:
     using ibrav=0 with symmetry is DISCOURAGED, use correct ibrav instead

     Using Slab Decomposition

     bravais-lattice index     =            0
     lattice parameter (alat)  =      13.1690  a.u.
     unit-cell volume          =    1241.9991 (a.u.)^3
     number of atoms/cell      =            8
     number of atomic types    =            3
     number of electrons       =        88.00
     number of Kohn-Sham states=           53
     kinetic-energy cutoff     =      30.0000  Ry
     charge density cutoff     =     240.0000  Ry
     scf convergence threshold =      1.0E-06
     mixing beta               =       0.7000
     number of iterations used =            8  plain     mixing
     Exchange-correlation=  SLA  PW   PBX  PBC
                           (   1   4   3   4   0   0   0)

     celldm(1)=  13.169034  celldm(2)=   0.000000  celldm(3)=   0.000000
     celldm(4)=   0.000000  celldm(5)=   0.000000  celldm(6)=   0.000000

     crystal axes: (cart. coord. in units of alat)
               a(1) = (   1.000000   0.000000   0.000000 )
               a(2) = (   0.334159   0.942517   0.000000 )
               a(3) = (  -0.667079  -0.471258   0.576993 )

     reciprocal axes: (cart. coord. in units 2 pi/alat)
               b(1) = (  1.000000 -0.354538  0.866562 )
               b(2) = (  0.000000  1.060989  0.866562 )
               b(3) = (  0.000000  0.000000  1.733124 )

     PseudoPot. # 1 for Tl read from file:
     /home/pragov/projects/rrg-bengioy-ad/pragov/crystal_structure_design/SSSP/Tl_pbe_v1.2.uspp.F.UPF
     MD5 check sum: b76cf1f7e72655a2b2c53cf6385d7059
     Pseudo is Ultrasoft + core correction, Zval = 13.0
     Generated by new atomic code, or converted to UPF format
     Using radial grid of  899 points,  6 beta functions with:
                l(1) =   0
                l(2) =   0
                l(3) =   1
                l(4) =   1
                l(5) =   2
                l(6) =   2
     Q(r) pseudized with  6 coefficients,  rinner =    1.100   1.100   1.100
                                                       1.100   1.100

     PseudoPot. # 2 for Cu read from file:
     /home/pragov/projects/rrg-bengioy-ad/pragov/crystal_structure_design/SSSP/Cu_pbe_v1.2.uspp.F.UPF
     MD5 check sum: 6e991ff952a84172a2a52a1c1e996048
     Pseudo is Ultrasoft + core correction, Zval = 19.0
     Generated by new atomic code, or converted to UPF format
     Using radial grid of  867 points,  6 beta functions with:
                l(1) =   0
                l(2) =   0
                l(3) =   1
                l(4) =   1
                l(5) =   2
                l(6) =   2
     Q(r) pseudized with  8 coefficients,  rinner =    1.150   1.150   1.150
                                                       1.150   1.150

     PseudoPot. # 3 for S  read from file:
     /home/pragov/projects/rrg-bengioy-ad/pragov/crystal_structure_design/SSSP/s_pbe_v1.4.uspp.F.UPF
     MD5 check sum: 88d86576ff6df21479756cfb9bdac1df
     Pseudo is Ultrasoft + core correction, Zval =  6.0
     Generated by new atomic code, or converted to UPF format
     Using radial grid of  907 points,  6 beta functions with:
                l(1) =   0
                l(2) =   0
                l(3) =   1
                l(4) =   1
                l(5) =   2
                l(6) =   2
     Q(r) pseudized with  8 coefficients,  rinner =    1.300   1.300   1.300
                                                       1.300   1.300

     atomic species   valence    mass     pseudopotential
        Tl            13.00   204.38000     Tl( 1.00)
        Cu            19.00    63.54600     Cu( 1.00)
        S              6.00    32.06000     S ( 1.00)

      2 Sym. Ops. (no inversion) found ( 1 have fractional translation)

                                    s                        frac. trans.

      isym =  1     identity

 cryst.   s( 1) = (     1          0          0      )
                  (     0          1          0      )
                  (     0          0          1      )

 cart.    s( 1) = (  1.0000000 -0.0000000  0.0000000 )
                  (  0.0000000  1.0000000  0.0000000 )
                  (  0.0000000  0.0000000  1.0000000 )

      isym =  2     inv. 180 deg rotation - cart. axis [0,0,1]

 cryst.   s( 2) = (     1          0          0      )    f =(  0.2500000 )
                  (     0          1          0      )       ( -0.2500000 )
                  (    -1         -1         -1      )       (  0.5000000 )

 cart.    s( 2) = (  1.0000000 -0.0000000 -0.0000000 )    f =( -0.1670793 )
                  (  0.0000000  1.0000000 -0.0000000 )       ( -0.4712584 )
                  (  0.0000000  0.0000000 -1.0000000 )       (  0.2884964 )

   Cartesian axes

     site n.     atom                  positions (alat units)
         1           Tl  tau(   1) = (   0.6670793   0.4712584   0.0000000  )
         2           Tl  tau(   2) = (   0.1670793   0.4712584   0.2884964  )
         3           Cu  tau(   3) = (   0.0000000   0.0000000   0.0000000  )
         4           Cu  tau(   4) = (   0.5000000   0.0000000   0.2884964  )
         5           S   tau(   5) = (   0.6509311   0.8479985   0.0285231  )
         6           S   tau(   6) = (   0.3496878  -0.1411108   0.5484698  )
         7           S   tau(   7) = (   0.5167670   0.3301476   0.3170195  )
         8           S   tau(   8) = (  -0.1832274  -0.0945184   0.2599734  )

   Crystallographic axes

     site n.     atom                  positions (cryst. coord.)
         1           Tl  tau(   1) = (  0.5000000  0.5000000  0.0000000  )
         2           Tl  tau(   2) = (  0.2500000  0.7500000  0.5000000  )
         3           Cu  tau(   3) = (  0.0000000  0.0000000  0.0000000  )
         4           Cu  tau(   4) = (  0.7500000  0.2500000  0.5000000  )
         5           S   tau(   5) = (  0.3750000  0.9244340  0.0494340  )
         6           S   tau(   6) = (  0.8750000  0.3255660  0.9505660  )
         7           S   tau(   7) = (  0.6744340  0.6250000  0.5494340  )
         8           S   tau(   8) = (  0.0755660  0.1250000  0.4505660  )

     number of k points=     1  Methfessel-Paxton smearing, width (Ry)=  0.0010
                       cart. coord. in units 2pi/alat
        k(    1) = (   0.0000000   0.0000000   0.0000000), wk =   2.0000000

                       cryst. coord.
        k(    1) = (   0.0000000   0.0000000   0.0000000), wk =   2.0000000

     Check: negative core charge=   -0.000005

     Initial potential from superposition of free atoms

     starting charge      85.9901, renormalised to      88.0000

     negative rho (up, down):  1.048E-01 0.000E+00
     Starting wfcs are   60 randomized atomic wfcs

     Self-consistent Calculation

     iteration #  1     ecut=    30.00 Ry     beta= 0.70
     Davidson diagonalization with overlap

     ethr =  1.00E-02,  avg # of iterations =  3.0

     negative rho (up, down):  1.140E-01 0.000E+00

     total energy              =   -1192.44122181 Ry
     estimated scf accuracy    <       2.19239870 Ry

[...]

     total energy              =   -1193.79577449 Ry
     estimated scf accuracy    <       0.00000998 Ry

     iteration # 23     ecut=    30.00 Ry     beta= 0.70
     Davidson diagonalization with overlap

     ethr =  4.80E-09,  avg # of iterations =  1.0

[...]

     End of self-consistent calculation

          k = 0.0000 0.0000 0.0000 (  1734 PWs)   bands (ev):

  -105.6687-105.6673 -63.2369 -63.2336 -62.9265 -62.9265 -62.9244 -62.9244
    -6.4468  -5.7709  -5.6870  -5.6868  -3.9588  -3.9524  -3.9524  -3.8894
    -3.8251  -3.7963  -3.7767  -3.3823  -3.3822  -3.3534   0.6412   1.0285
     2.0566   3.0033   3.1277   3.1279   3.1391   3.6728   3.6729   3.7303
     4.1137   4.1139   4.1751   4.2888   4.4976   4.9207   4.9207   4.9760
     5.1861   6.6096   7.0419   7.0497   7.0497   8.2626   9.6019  11.3853
    11.3853  11.9420  12.3044  12.9512  13.1650

     occupation numbers
     1.0000   1.0000   1.0000   1.0000   1.0000   1.0000   1.0000   1.0000
     1.0000   1.0000   1.0000   1.0000   1.0000   1.0000   1.0000   1.0000
     1.0000   1.0000   1.0000   1.0000   1.0000   1.0000   1.0000   1.0000
     1.0000   1.0000   1.0000   1.0000   1.0000   1.0000   1.0000   1.0000
     1.0000   1.0000   1.0000   1.0000   1.0000   1.0000   1.0000   1.0000
     1.0000   1.0000   0.9284   0.5360   0.5355  -0.0000  -0.0000  -0.0000
    -0.0000  -0.0000  -0.0000  -0.0000  -0.0000

     the Fermi energy is     7.0503 ev

!    total energy              =   -1193.79577502 Ry
     estimated scf accuracy    <       0.00000007 Ry
     smearing contrib. (-TS)   =      -0.00060599 Ry
     internal energy E=F+TS    =   -1193.79516903 Ry

     The total energy is F=E-TS. E is the sum of the following terms:
     one-electron contribution =    -891.28413113 Ry
     hartree contribution      =     488.52063202 Ry
     xc contribution           =    -235.39197439 Ry
     ewald contribution        =    -555.63969554 Ry

     convergence has been achieved in  23 iterations

     negative rho (up, down):  1.092E-01 0.000E+00

     Forces acting on atoms (cartesian axes, Ry/au):

     atom    1 type  1   force =    -0.00001500    0.00001060   -0.00001904
     atom    2 type  1   force =    -0.00001500    0.00001060    0.00001904
     atom    3 type  2   force =     0.00002160   -0.00006569    0.00006124
     atom    4 type  2   force =     0.00002160   -0.00006569   -0.00006124
     atom    5 type  3   force =    -0.00769646    0.01091615    0.01332577
     atom    6 type  3   force =     0.00768986   -0.01086106   -0.01332096
     atom    7 type  3   force =     0.00768986   -0.01086106    0.01332096
     atom    8 type  3   force =    -0.00769646    0.01091615   -0.01332577
     The non-local contrib.  to forces
     atom    1 type  1   force =    -0.00001541   -0.00002435   -0.00001495
     atom    2 type  1   force =    -0.00001541   -0.00002435    0.00001495
     atom    3 type  2   force =     0.00001595   -0.00018266    0.00007020
     atom    4 type  2   force =     0.00001595   -0.00018266   -0.00007020
     atom    5 type  3   force =    -0.08428930    0.11931607    0.14612148
     atom    6 type  3   force =     0.08432119   -0.11929581   -0.14611599
     atom    7 type  3   force =     0.08432119   -0.11929581    0.14611599
     atom    8 type  3   force =    -0.08428930    0.11931607   -0.14612148
     The ionic contribution  to forces
     atom    1 type  1   force =    -0.00000000   -0.00000000    0.00000000
     atom    2 type  1   force =    -0.00000000   -0.00000000   -0.00000000
     atom    3 type  2   force =    -0.00000000   -0.00000000    0.00000000
     atom    4 type  2   force =    -0.00000000    0.00000000   -0.00000000
     atom    5 type  3   force =     1.80300999   -2.55221012   -3.12483944
     atom    6 type  3   force =    -1.80300999    2.55221012    3.12483944
     atom    7 type  3   force =    -1.80300999    2.55221012   -3.12483944
     atom    8 type  3   force =     1.80300999   -2.55221012    3.12483944
     The local contribution  to forces
     atom    1 type  1   force =    -0.00015785   -0.00011057    0.00004876
     atom    2 type  1   force =     0.00022543    0.00015490   -0.00001663
     atom    3 type  2   force =    -0.00039305   -0.00008168   -0.00017456
     atom    4 type  2   force =     0.00039505    0.00058733    0.00005689
     atom    5 type  3   force =    -1.73126391    2.45066540    3.00037999
     atom    6 type  3   force =     1.73123921   -2.45066150   -3.00039440
     atom    7 type  3   force =     1.73114525   -2.45062985    3.00042465
     atom    8 type  3   force =    -1.73125720    2.45055095   -3.00044424
     The core correction contribution to forces
     atom    1 type  1   force =    -0.00000027    0.00000189   -0.00000115
     atom    2 type  1   force =     0.00000088    0.00000341   -0.00000011
     atom    3 type  2   force =    -0.00000013    0.00000030   -0.00000015
     atom    4 type  2   force =     0.00000005    0.00000041    0.00000002
     atom    5 type  3   force =     0.00482975   -0.00683535   -0.00837345
     atom    6 type  3   force =    -0.00483045    0.00683491    0.00837308
     atom    7 type  3   force =    -0.00483426    0.00683725   -0.00837348
     atom    8 type  3   force =     0.00483074   -0.00684013    0.00837395
     The Hubbard contrib.    to forces
     atom    1 type  1   force =     0.00000000    0.00000000    0.00000000
     atom    2 type  1   force =     0.00000000    0.00000000    0.00000000
     atom    3 type  2   force =     0.00000000    0.00000000    0.00000000
     atom    4 type  2   force =     0.00000000    0.00000000    0.00000000
     atom    5 type  3   force =     0.00000000    0.00000000    0.00000000
     atom    6 type  3   force =     0.00000000    0.00000000    0.00000000
     atom    7 type  3   force =     0.00000000    0.00000000    0.00000000
     atom    8 type  3   force =     0.00000000    0.00000000    0.00000000
     The SCF correction term to forces
     atom    1 type  1   force =     0.00015636    0.00011953   -0.00006232
     atom    2 type  1   force =    -0.00022508   -0.00015692    0.00001022
     atom    3 type  2   force =     0.00040999    0.00018829    0.00015920
     atom    4 type  2   force =    -0.00040194   -0.00051838   -0.00005450
     atom    5 type  3   force =     0.00000302   -0.00001764    0.00003536
     atom    6 type  3   force =    -0.00000963   -0.00000159   -0.00002917
     atom    7 type  3   force =     0.00004586    0.00001237   -0.00001286
     atom    8 type  3   force =     0.00002198    0.00003950    0.00002473

     Total force =     0.037697     Total SCF correction =     0.000888

     Computing stress (Cartesian axis) and pressure

     negative rho (up, down):  1.092E-01 0.000E+00
          total   stress  (Ry/bohr**3)                   (kbar)     P=     -108.73
  -0.00092007  -0.00025547   0.00000000         -135.35      -37.58        0.00
  -0.00025547  -0.00073897   0.00000000          -37.58     -108.71        0.00
   0.00000000   0.00000000  -0.00055832            0.00        0.00      -82.13

     kinetic stress (kbar)  10956.89    -69.25     -0.00
                              -69.25  11006.10     -0.00
                               -0.00     -0.00  11054.91

     local   stress (kbar) -13872.59  -1261.80     -0.06
                            -1261.80 -12978.30     -0.00
                               -0.06     -0.00 -12086.44

     nonloc. stress (kbar)  10218.47    -58.10     -0.00
                              -58.10  10259.79     -0.00
                               -0.00     -0.00  10300.70

     hartree stress (kbar)  19694.88    575.82      0.03
                              575.82  19286.77     -0.01
                                0.03     -0.01  18879.79

     exc-cor stress (kbar)   7648.02     -0.66      0.00
                               -0.66   7648.49      0.00
                                0.00      0.00   7648.95

     corecor stress (kbar) -13393.20      0.86      0.00
                                0.86 -13393.82     -0.00
                                0.00     -0.00 -13394.42

     ewald   stress (kbar) -21387.82    775.55     -0.00
                              775.55 -21937.74     -0.00
                               -0.00     -0.00 -22485.62

     hubbard stress (kbar)      0.00      0.00      0.00
                                0.00      0.00      0.00
                                0.00      0.00      0.00

     DFT-D   stress (kbar)      0.00      0.00      0.00
                                0.00      0.00      0.00
                                0.00      0.00      0.00

     XDM     stress (kbar)      0.00      0.00      0.00
                                0.00      0.00      0.00
                                0.00      0.00      0.00

     dft-nl  stress (kbar)      0.00      0.00      0.00
                                0.00      0.00      0.00
                                0.00      0.00      0.00

     TS-vdW  stress (kbar)      0.00      0.00      0.00
                                0.00      0.00      0.00
                                0.00      0.00      0.00

[...]

                                0.00      0.00      0.00

     Writing all to output data dir calculations/myprefix.save/

     General routines

     Parallel routines

   This run was terminated on:  17:17: 2   4Mar2023

   JOB DONE.