     Program PWSCF v.7.0 starts on  3Mar2023 at 12: 0: 4

     R & G space division:  proc/nbgrp/npool/nimage =      32

     Reading input from espresso_186.pwi
Warning: card &CELL ignored
Warning: card / ignored

     Current dimensions of program PWSCF are:
     Max number of different atomic species (ntypx) = 10
     Max number of k-points (npk) =  40000
     Max angular momentum in pseudopotentials (lmaxx) =  4
     file Ga.pbe-dn-kjpaw_psl.1.0.0.UPF: wavefunction(s)  4S renormalized

     gamma-point specific algorithms are used
     Message from routine find_sym:
     Not a group! Trying with lower acceptance parameter...
     Message from routine find_sym:
     Still not a group! symmetry disabled

     Using Slab Decomposition

     bravais-lattice index     =            0
     lattice parameter (alat)  =       8.8011  a.u.
     unit-cell volume          =     490.9821 (a.u.)^3
     number of atoms/cell      =            6
     number of atomic types    =            3
     number of electrons       =        49.00
     number of Kohn-Sham states=           30
     kinetic-energy cutoff     =      30.0000  Ry
     charge density cutoff     =     240.0000  Ry
     scf convergence threshold =      1.0E-06
     mixing beta               =       0.7000
     number of iterations used =            8  plain     mixing
     Exchange-correlation= SLA  PW   PBX  PBC
                           (   1   4   3   4   0   0   0)

     celldm(1)=   8.801138  celldm(2)=   0.000000  celldm(3)=   0.000000
     celldm(4)=   0.000000  celldm(5)=   0.000000  celldm(6)=   0.000000

     crystal axes: (cart. coord. in units of alat)
               a(1) = (   1.000000   0.000000   0.000000 )
               a(2) = (  -0.500000   0.866025   0.000000 )
               a(3) = (   0.500000   0.288675   0.831608 )

     reciprocal axes: (cart. coord. in units 2 pi/alat)
               b(1) = (  1.000000  0.577350 -0.801660 )
               b(2) = (  0.000000  1.154701 -0.400830 )
               b(3) = (  0.000000  0.000000  1.202490 )

     PseudoPot. # 1 for Ti read from file:
     /home/pragov/projects/rrg-bengioy-ad/pragov/crystal_structure_design/SSSP/ti_pbe_v1.4.uspp.F.UPF
     MD5 check sum: 88a00a6731bd790ddea75d31a80cb452
     Pseudo is Ultrasoft + core correction, Zval = 12.0
     Generated by new atomic code, or converted to UPF format
     Using radial grid of  851 points,  6 beta functions with:
                l(1) =   0
                l(2) =   0
                l(3) =   1
                l(4) =   1
                l(5) =   2
                l(6) =   2
     Q(r) pseudized with  6 coefficients,  rinner =    1.000   1.000   1.000
                                                       1.000   1.000

     PseudoPot. # 2 for Be read from file:
     /home/pragov/projects/rrg-bengioy-ad/pragov/crystal_structure_design/SSSP/be_pbe_v1.4.uspp.F.UPF
     MD5 check sum: 5ecff1440924c7c98ad504bef30f5264
     Pseudo is Ultrasoft, Zval =  4.0
     Generated by new atomic code, or converted to UPF format
     Using radial grid of  769 points,  6 beta functions with:
                l(1) =   0
                l(2) =   0
                l(3) =   0
                l(4) =   1
                l(5) =   1
                l(6) =   2
     Q(r) pseudized with 10 coefficients,  rinner =    1.000   1.000   1.000
                                                       1.000   1.000

     PseudoPot. # 3 for Ga read from file:
     /home/pragov/projects/rrg-bengioy-ad/pragov/crystal_structure_design/SSSP/Ga.pbe-dn-kjpaw_psl.1.0.0.UPF
     MD5 check sum: a27b4342b1af7e5f338de752e9ed7044
     Pseudo is Projector augmented-wave + core cor, Zval = 13.0
     Generated using "atomic" code by A. Dal Corso  v.5.1
     Shape of augmentation charge: PSQ
     Using radial grid of 1205 points,  6 beta functions with:
                l(1) =   0
                l(2) =   0
                l(3) =   1
                l(4) =   1
                l(5) =   2
                l(6) =   2
     Q(r) pseudized with 0 coefficients

     atomic species   valence    mass     pseudopotential
        Ti            12.00    47.86700     Ti( 1.00)
        Be             4.00     9.01218     Be( 1.00)
        Ga            13.00    69.72300     Ga( 1.00)

     No symmetry found

                                    s                        frac. trans.

      isym =  1     identity

 cryst.   s( 1) = (     1          0          0      )
                  (     0          1          0      )
                  (     0          0          1      )

 cart.    s( 1) = (  1.0000000  0.0000000 -0.0000000 )
                  (  0.0000000  1.0000000  0.0000000 )
                  (  0.0000000  0.0000000  1.0000000 )

   Cartesian axes

     site n.     atom                  positions (alat units)
         1           Ti  tau(   1) = (   0.5000005   0.8660251   0.6231287  )
         2           Ti  tau(   2) = (   0.4999995   0.8660257   0.0005771  )
         3           Be  tau(   3) = (   0.2500000   0.4330127   0.3118529  )
         4           Be  tau(   4) = (   0.0000000   0.8660254   0.3118529  )
         5           Be  tau(   5) = (   0.7500000   0.4330127   0.3118529  )
         6           Ga  tau(   6) = (   1.0000000   0.5773503   0.7276568  )

   Crystallographic axes

     site n.     atom                  positions (cryst. coord.)
         1           Ti  tau(   1) = (  0.5004630  0.7502310  0.7493060  )
         2           Ti  tau(   2) = (  0.9995370  0.9997690  0.0006940  )
         3           Be  tau(   3) = (  0.2500000  0.3750000  0.3750000  )
         4           Be  tau(   4) = (  0.2500000  0.8750000  0.3750000  )
         5           Be  tau(   5) = (  0.7500000  0.3750000  0.3750000  )
         6           Ga  tau(   6) = (  0.7500000  0.3750000  0.8750000  )

     number of k points=     1  Methfessel-Paxton smearing, width (Ry)=  0.0010
                       cart. coord. in units 2pi/alat
        k(    1) = (   0.0000000   0.0000000   0.0000000), wk =   2.0000000

                       cryst. coord.
        k(    1) = (   0.0000000   0.0000000   0.0000000), wk =   2.0000000

     Check: negative core charge=   -0.000006

     Initial potential from superposition of free atoms

     starting charge      46.9965, renormalised to      49.0000

     negative rho (up, down):  2.070E-03 0.000E+00
     Starting wfcs are   44 randomized atomic wfcs
     Checking if some PAW data can be deallocated...

     Self-consistent Calculation

     iteration #  1     ecut=    30.00 Ry     beta= 0.70
     Davidson diagonalization with overlap

     ethr =  1.00E-02,  avg # of iterations =  2.0

     negative rho (up, down):  1.591E-03 0.000E+00

     total energy              =    -600.06904141 Ry
     estimated scf accuracy    <       1.96842664 Ry

[...]

     total energy              =    -601.17771758 Ry
     estimated scf accuracy    <       0.00000331 Ry

     iteration # 15     ecut=    30.00 Ry     beta= 0.70
     Davidson diagonalization with overlap

     ethr =  5.20E-09,  avg # of iterations =  1.0

[...]

     End of self-consistent calculation

          k = 0.0000 0.0000 0.0000 (   688 PWs)   bands (ev):

   -87.5272 -87.5182 -87.5181 -45.2146 -45.1189 -21.6648 -21.6647 -21.4506
   -21.4506 -21.3428 -21.1605  -2.6317  -2.6317  -2.6228  -2.6085  -2.6085
     1.9639   8.5938   8.9085   8.9085   9.4527   9.7107   9.7107   9.9249
    10.6241  10.6242  13.9580  13.9580  14.8068  15.9720

     occupation numbers
     1.0000   1.0000   1.0000   1.0000   1.0000   1.0000   1.0000   1.0000
     1.0000   1.0000   1.0000   1.0000   1.0000   1.0000   1.0000   1.0000
     1.0000   1.0000   1.0000   1.0000   1.0000   1.0000   1.0000   1.0000
     0.2508   0.2492  -0.0000  -0.0000  -0.0000  -0.0000

     the Fermi energy is    10.6199 ev

!    total energy              =    -601.17771765 Ry
     estimated scf accuracy    <       0.00000016 Ry
     smearing contrib. (-TS)   =      -0.00041261 Ry
     internal energy E=F+TS    =    -601.17730504 Ry

     The total energy is F=E-TS. E is the sum of the following terms:
     one-electron contribution =    -224.65382765 Ry
     hartree contribution      =     125.87718869 Ry
     xc contribution           =     -89.54744831 Ry
     ewald contribution        =    -301.97515534 Ry
     one-center paw contrib.   =    -110.87806241 Ry
      -> PAW hartree energy AE =       0.00000000 Ry
      -> PAW hartree energy PS =       0.00000000 Ry
      -> PAW xc energy AE      =       0.00000000 Ry
      -> PAW xc energy PS      =       0.00000000 Ry
      -> total E_H with PAW    =     125.87718869 Ry
      -> total E_XC with PAW   =     -89.54744831 Ry

     convergence has been achieved in  15 iterations

     negative rho (up, down):  1.473E-03 0.000E+00

     Forces acting on atoms (cartesian axes, Ry/au):

     atom    1 type  1   force =    -0.00000624    0.00009527    0.05034932
     atom    2 type  1   force =     0.00005333   -0.00009615   -0.05032502
     atom    3 type  2   force =     0.00001739   -0.00000952    0.00002632
     atom    4 type  2   force =    -0.00000141   -0.00000537    0.00002160
     atom    5 type  2   force =     0.00002967    0.00001572    0.00001525
     atom    6 type  3   force =    -0.00009275    0.00000005   -0.00008747
     The non-local contrib.  to forces
     atom    1 type  1   force =     0.00003446   -0.00013970    0.06441754
     atom    2 type  1   force =    -0.00002643    0.00013914   -0.06442628
     atom    3 type  2   force =     0.00000662   -0.00001038    0.00002164
     atom    4 type  2   force =    -0.00002023    0.00000473    0.00000491
     atom    5 type  2   force =    -0.00000031    0.00000445    0.00000820
     atom    6 type  3   force =    -0.00002363   -0.00000803   -0.00002992
     The ionic contribution  to forces
     atom    1 type  1   force =    -0.00005131    0.00002962   -2.02376575
     atom    2 type  1   force =     0.00005131   -0.00002963    2.02376575
     atom    3 type  2   force =     0.00000000    0.00000000   -0.00000000
     atom    4 type  2   force =     0.00000000    0.00000000   -0.00000000
     atom    5 type  2   force =    -0.00000000   -0.00000000   -0.00000000
     atom    6 type  3   force =     0.00000000    0.00000000    0.00000000
     The local contribution  to forces
     atom    1 type  1   force =    -0.00002947   -0.00010171    2.00122586
     atom    2 type  1   force =    -0.00008090    0.00009891   -2.00113282
     atom    3 type  2   force =    -0.00000821    0.00004391   -0.00004112
     atom    4 type  2   force =     0.00005805   -0.00000950   -0.00001742
     atom    5 type  2   force =     0.00000128   -0.00002140   -0.00002272
     atom    6 type  3   force =     0.00004357    0.00000802    0.00006524
     The core correction contribution to forces
     atom    1 type  1   force =    -0.00000790    0.00003818    0.00852327
     atom    2 type  1   force =     0.00000808   -0.00003763   -0.00852289
     atom    3 type  2   force =     0.00000000    0.00000000    0.00000000
     atom    4 type  2   force =     0.00000000    0.00000000    0.00000000
     atom    5 type  2   force =     0.00000000    0.00000000    0.00000000
     atom    6 type  3   force =     0.00000066   -0.00000006    0.00000054
     The Hubbard contrib.    to forces
     atom    1 type  1   force =     0.00000000    0.00000000    0.00000000
     atom    2 type  1   force =     0.00000000    0.00000000    0.00000000
     atom    3 type  2   force =     0.00000000    0.00000000    0.00000000
     atom    4 type  2   force =     0.00000000    0.00000000    0.00000000
     atom    5 type  2   force =     0.00000000    0.00000000    0.00000000
     atom    6 type  3   force =     0.00000000    0.00000000    0.00000000
     The SCF correction term to forces
     atom    1 type  1   force =     0.00002873    0.00026715   -0.00006604
     atom    2 type  1   force =     0.00008203   -0.00026865   -0.00002321
     atom    3 type  2   force =    -0.00000026   -0.00004476    0.00003137
     atom    4 type  2   force =    -0.00005848   -0.00000231    0.00001968
     atom    5 type  2   force =     0.00000945    0.00003096    0.00001534
     atom    6 type  3   force =    -0.00013260   -0.00000159   -0.00013775

     Total force =     0.071188     Total SCF correction =     0.000448

     Computing stress (Cartesian axis) and pressure

     negative rho (up, down):  1.473E-03 0.000E+00
          total   stress  (Ry/bohr**3)                   (kbar)     P=     -212.53
  -0.00176922   0.00000006  -0.00000010         -260.26        0.01       -0.02
   0.00000006  -0.00176921   0.00000083            0.01     -260.26        0.12
  -0.00000010   0.00000083  -0.00079581           -0.02        0.12     -117.07

     kinetic stress (kbar)  15161.46      0.05      0.08
                                0.05  15161.95     -0.45
                                0.08     -0.45  15627.02

     local   stress (kbar)   1738.88     -0.06     -0.23
                               -0.06   1738.03      1.15
                               -0.23      1.15  12576.14

     nonloc. stress (kbar)   3746.95      0.01      0.02
                                0.01   3747.06     -0.12
                                0.02     -0.12   3800.37

     hartree stress (kbar)  14076.60      0.02      0.09
                                0.02  14076.87     -0.45
                                0.09     -0.45   9561.09

     exc-cor stress (kbar)   -514.90      0.00      0.00
                                0.00   -514.89     -0.01
                                0.00     -0.01   -508.85

     corecor stress (kbar)  -6543.33     -0.00     -0.00
                               -0.00  -6543.34      0.01
                               -0.00      0.01  -6548.72

     ewald   stress (kbar) -27925.91     -0.02      0.02
                               -0.02 -27925.93     -0.01
                                0.02     -0.01 -34624.11

     hubbard stress (kbar)      0.00      0.00      0.00
                                0.00      0.00      0.00
                                0.00      0.00      0.00

     DFT-D   stress (kbar)      0.00      0.00      0.00
                                0.00      0.00      0.00
                                0.00      0.00      0.00

     XDM     stress (kbar)      0.00      0.00      0.00
                                0.00      0.00      0.00
                                0.00      0.00      0.00

     dft-nl  stress (kbar)      0.00      0.00      0.00
                                0.00      0.00      0.00
                                0.00      0.00      0.00

     TS-vdW  stress (kbar)      0.00      0.00      0.00
                                0.00      0.00      0.00
                                0.00      0.00      0.00

[...]

                                0.00      0.00      0.00

     Writing all to output data dir calculations/myprefix.save/

     General routines

     Parallel routines

     PAW routines

   This run was terminated on:  12: 0: 7   3Mar2023

   JOB DONE.