     Program PWSCF v.7.0 starts on  6Mar2023 at 13:38:35

     R & G space division:  proc/nbgrp/npool/nimage =      32

     Reading input from espresso_4800.pwi
Warning: card &CELL ignored
Warning: card / ignored

     Current dimensions of program PWSCF are:
     Max number of different atomic species (ntypx) = 10
     Max number of k-points (npk) =  40000
     Max angular momentum in pseudopotentials (lmaxx) =  4

     gamma-point specific algorithms are used
     Message from routine setup:
     using ibrav=0 with symmetry is DISCOURAGED, use correct ibrav instead

     Using Slab Decomposition

     bravais-lattice index     =            0
     lattice parameter (alat)  =       6.0296  a.u.
     unit-cell volume          =     845.0244 (a.u.)^3
     number of atoms/cell      =            6
     number of atomic types    =            2
     number of electrons       =        52.00
     number of Kohn-Sham states=           31
     kinetic-energy cutoff     =      30.0000  Ry
     charge density cutoff     =     240.0000  Ry
     scf convergence threshold =      1.0E-06
     mixing beta               =       0.7000
     number of iterations used =            8  plain     mixing
     Exchange-correlation=  SLA  PW   PBX  PBC
                           (   1   4   3   4   0   0   0)

     celldm(1)=   6.029607  celldm(2)=   0.000000  celldm(3)=   0.000000
     celldm(4)=   0.000000  celldm(5)=   0.000000  celldm(6)=   0.000000

     crystal axes: (cart. coord. in units of alat)
               a(1) = (   1.000000   0.000000   0.000000 )
               a(2) = (  -0.500000   0.866025   0.000000 )
               a(3) = (   0.000000   0.000000   4.451144 )

     reciprocal axes: (cart. coord. in units 2 pi/alat)
               b(1) = (  1.000000  0.577351  0.000000 )
               b(2) = (  0.000000  1.154701  0.000000 )
               b(3) = (  0.000000  0.000000  0.224661 )

     PseudoPot. # 1 for W  read from file:
     /home/pragov/projects/rrg-bengioy-ad/pragov/crystal_structure_design/SSSP/W_pbe_v1.2.uspp.F.UPF
     MD5 check sum: 9c083fa34c2a2ea0f02f1f893e16e1c8
     Pseudo is Ultrasoft + core correction, Zval = 14.0
     Generated by new atomic code, or converted to UPF format
     Using radial grid of  923 points,  8 beta functions with:
                l(1) =   0
                l(2) =   0
                l(3) =   0
                l(4) =   1
                l(5) =   1
                l(6) =   2
                l(7) =   2
                l(8) =   3
     Q(r) pseudized with  6 coefficients,  rinner =    1.350   1.350   1.350
                                                       1.350   1.350   1.350
                                                       1.350

     PseudoPot. # 2 for S  read from file:
     /home/pragov/projects/rrg-bengioy-ad/pragov/crystal_structure_design/SSSP/s_pbe_v1.4.uspp.F.UPF
     MD5 check sum: 88d86576ff6df21479756cfb9bdac1df
     Pseudo is Ultrasoft + core correction, Zval =  6.0
     Generated by new atomic code, or converted to UPF format
     Using radial grid of  907 points,  6 beta functions with:
                l(1) =   0
                l(2) =   0
                l(3) =   1
                l(4) =   1
                l(5) =   2
                l(6) =   2
     Q(r) pseudized with  8 coefficients,  rinner =    1.300   1.300   1.300
                                                       1.300   1.300

     atomic species   valence    mass     pseudopotential
        W             14.00   183.84000     W ( 1.00)
        S              6.00    32.06000     S ( 1.00)

     24 Sym. Ops., with inversion, found (12 have fractional translation)

                                    s                        frac. trans.

      isym =  1     identity

 cryst.   s( 1) = (     1          0          0      )
                  (     0          1          0      )
                  (     0          0          1      )

 cart.    s( 1) = (  1.0000000 -0.0000000  0.0000000 )
                  (  0.0000000  1.0000000  0.0000000 )
                  (  0.0000000  0.0000000  1.0000000 )

      isym =  2     180 deg rotation - cart. axis [0,0,1]

 cryst.   s( 2) = (    -1          0          0      )    f =(  0.0000000 )
                  (     0         -1          0      )       (  0.0000000 )
                  (     0          0          1      )       (  0.5000000 )

 cart.    s( 2) = ( -1.0000000  0.0000000  0.0000000 )    f =( -0.0000000 )
                  (  0.0000000 -1.0000000  0.0000000 )       (  0.0000000 )
                  (  0.0000000  0.0000000  1.0000000 )       (  2.2255721 )

[...]

      isym =  4     180 deg rotation - cart. axis [1,0,0]

[...]

      isym =  5      60 deg rotation - cryst. axis [0,0,1]

[...]

 cryst.   s( 8) = (    -1         -1          0      )
                  (     1          0          0      )
                  (     0          0          1      )

 cart.    s( 8) = ( -0.4999998  0.8660255  0.0000000 )
                  ( -0.8660253 -0.5000002  0.0000000 )
                  (  0.0000000  0.0000000  1.0000000 )

[...]

 cryst.   s( 9) = (     0         -1          0      )    f =(  0.0000000 )
                  (    -1          0          0      )       (  0.0000000 )
                  (     0          0         -1      )       (  0.5000000 )

 cart.    s( 9) = (  0.5000002 -0.8660253  0.0000000 )    f =(  0.0000000 )
                  ( -0.8660253 -0.5000002  0.0000000 )       (  0.0000000 )
                  (  0.0000000  0.0000000 -1.0000000 )       (  2.2255721 )

[...]

 cryst.   s(10) = (     1          1          0      )    f =(  0.0000000 )
                  (     0         -1          0      )       ( -0.0000010 )
                  (     0          0         -1      )       (  0.5000000 )

 cart.    s(10) = (  0.4999998  0.8660258  0.0000000 )    f =(  0.0000005 )
                  (  0.8660253 -0.4999998  0.0000000 )       ( -0.0000009 )
                  (  0.0000000  0.0000000 -1.0000000 )       (  2.2255721 )

[...]

 cryst.   s(11) = (    -1         -1          0      )
                  (     0          1          0      )
                  (     0          0         -1      )

 cart.    s(11) = ( -0.4999998 -0.8660258  0.0000000 )
                  ( -0.8660253  0.4999998  0.0000000 )
                  (  0.0000000  0.0000000 -1.0000000 )

      isym = 12     180 deg rotation - cryst. axis [1,1,0]

[...]

      isym = 13     inversion

[...]

      isym = 14     inv. 180 deg rotation - cart. axis [0,0,1]

[...]

      isym = 16     inv. 180 deg rotation - cart. axis [1,0,0]

[...]

      isym = 17     inv.  60 deg rotation - cryst. axis [0,0,1]

[...]

 cryst.   s(22) = (    -1         -1          0      )    f =(  0.0000000 )
                  (     0          1          0      )       ( -0.0000010 )
                  (     0          0          1      )       (  0.5000000 )

 cart.    s(22) = ( -0.4999998 -0.8660258  0.0000000 )    f =(  0.0000005 )
                  ( -0.8660253  0.4999998  0.0000000 )       ( -0.0000009 )
                  (  0.0000000  0.0000000  1.0000000 )       (  2.2255721 )

[...]

      isym = 24     inv. 180 deg rotation - cryst. axis [1,1,0]

 cryst.   s(24) = (     0         -1          0      )
                  (    -1          0          0      )
                  (     0          0          1      )

 cart.    s(24) = (  0.5000002 -0.8660253  0.0000000 )
                  ( -0.8660253 -0.5000002  0.0000000 )
                  (  0.0000000  0.0000000  1.0000000 )

   Cartesian axes

     site n.     atom                  positions (alat units)
         1           W   tau(   1) = (  -0.0000006   0.5773505   1.1127860  )
         2           W   tau(   2) = (   0.5000004   0.2886748   3.3383581  )
         3           S   tau(   3) = (  -0.0000006   0.5773505   2.8453538  )
         4           S   tau(   4) = (   0.5000004   0.2886748   0.6197818  )
         5           S   tau(   5) = (  -0.0000006   0.5773505   3.8313624  )
         6           S   tau(   6) = (   0.5000004   0.2886748   1.6057903  )

   Crystallographic axes

     site n.     atom                  positions (cryst. coord.)
         1           W   tau(   1) = (  0.3333330  0.6666670  0.2500000  )
         2           W   tau(   2) = (  0.6666670  0.3333330  0.7500000  )
         3           S   tau(   3) = (  0.3333330  0.6666670  0.6392410  )
         4           S   tau(   4) = (  0.6666670  0.3333330  0.1392410  )
         5           S   tau(   5) = (  0.3333330  0.6666670  0.8607590  )
         6           S   tau(   6) = (  0.6666670  0.3333330  0.3607590  )

     number of k points=     1  Methfessel-Paxton smearing, width (Ry)=  0.0010
                       cart. coord. in units 2pi/alat
        k(    1) = (   0.0000000   0.0000000   0.0000000), wk =   2.0000000

                       cryst. coord.
        k(    1) = (   0.0000000   0.0000000   0.0000000), wk =   2.0000000

     Check: negative core charge=   -0.000002

     Initial potential from superposition of free atoms

     starting charge      51.7992, renormalised to      52.0000

     negative rho (up, down):  1.227E-01 0.000E+00
     Starting wfcs are   42 randomized atomic wfcs

     Self-consistent Calculation

     iteration #  1     ecut=    30.00 Ry     beta= 0.70
     Davidson diagonalization with overlap

     ethr =  1.00E-02,  avg # of iterations =  2.0

     negative rho (up, down):  1.230E-01 0.000E+00

     total energy              =    -413.20528888 Ry
     estimated scf accuracy    <       1.10786638 Ry

[...]

     total energy              =    -413.80228699 Ry
     estimated scf accuracy    <       0.00000859 Ry

     iteration # 12     ecut=    30.00 Ry     beta= 0.70
     Davidson diagonalization with overlap

     ethr =  1.65E-08,  avg # of iterations =  4.0

[...]

     End of self-consistent calculation

          k = 0.0000 0.0000 0.0000 (  1170 PWs)   bands (ev):

   -63.5679 -63.5636 -27.8471 -27.8467 -27.8432 -27.8428 -27.8392 -27.8349
    -6.1934  -6.1542  -4.8197  -4.7481   2.4470   2.7448   6.1197   6.2209
     6.2211   6.2248   6.2249   6.9650   7.1947   7.1948   7.2030   7.2031
     8.8885   9.4608  11.7446  11.7455  11.7653  11.7653  11.7699

     occupation numbers
     1.0000   1.0000   1.0000   1.0000   1.0000   1.0000   1.0000   1.0000
     1.0000   1.0000   1.0000   1.0000   1.0000   1.0000   1.0000   1.0000
     1.0000   1.0000   1.0000   1.0000   1.0000   1.0000   1.0000   1.0000
     1.0000   1.0000  -0.0000  -0.0000  -0.0000  -0.0000  -0.0000

     the Fermi energy is     9.5431 ev

!    total energy              =    -413.80228846 Ry
     estimated scf accuracy    <       0.00000030 Ry
     smearing contrib. (-TS)   =       0.00000000 Ry
     internal energy E=F+TS    =    -413.80228846 Ry

     The total energy is F=E-TS. E is the sum of the following terms:
     one-electron contribution =    -261.66261614 Ry
     hartree contribution      =     149.81444007 Ry
     xc contribution           =    -116.74366240 Ry
     ewald contribution        =    -185.21044998 Ry

     convergence has been achieved in  12 iterations

     negative rho (up, down):  1.191E-01 0.000E+00

     Forces acting on atoms (cartesian axes, Ry/au):

     atom    1 type  1   force =    -0.00000000    0.00000000   -0.00000000
     atom    2 type  1   force =     0.00000000    0.00000000    0.00000000
     atom    3 type  2   force =     0.00000000   -0.00000000    0.09097723
     atom    4 type  2   force =     0.00000000    0.00000000    0.09097723
     atom    5 type  2   force =    -0.00000000    0.00000000   -0.09097723
     atom    6 type  2   force =    -0.00000000   -0.00000000   -0.09097723
     The non-local contrib.  to forces
     atom    1 type  1   force =     0.00000000    0.00000000    0.00000000
     atom    2 type  1   force =     0.00000000   -0.00000000    0.00000000
     atom    3 type  2   force =     0.00000000   -0.00000000   -0.09881235
     atom    4 type  2   force =    -0.00000000    0.00000000   -0.09881235
     atom    5 type  2   force =     0.00000000   -0.00000000    0.09881235
     atom    6 type  2   force =     0.00000000    0.00000000    0.09881235
     The ionic contribution  to forces
     atom    1 type  1   force =     0.00001914   -0.00001105   -0.00000000
     atom    2 type  1   force =    -0.00001914    0.00001105   -0.00000000
     atom    3 type  2   force =     0.00000960   -0.00000554  -17.89016245
     atom    4 type  2   force =    -0.00000960    0.00000554  -17.89016245
     atom    5 type  2   force =     0.00000960   -0.00000554   17.89016245
     atom    6 type  2   force =    -0.00000960    0.00000554   17.89016245
     The local contribution  to forces
     atom    1 type  1   force =    -0.00009895    0.00000054    0.00091589
     atom    2 type  1   force =     0.00000174    0.00003955   -0.00061588
     atom    3 type  2   force =    -0.00016660    0.00024353   18.07102286
     atom    4 type  2   force =    -0.00008586   -0.00000592   18.07231724
     atom    5 type  2   force =    -0.00006770    0.00016112  -18.07118449
     atom    6 type  2   force =    -0.00006725   -0.00001841  -18.07200007
     The core correction contribution to forces
     atom    1 type  1   force =    -0.00000479   -0.00000278   -0.00000446
     atom    2 type  1   force =     0.00000213    0.00000280    0.00000048
     atom    3 type  2   force =    -0.00000444    0.00000916    0.00828486
     atom    4 type  2   force =    -0.00000092    0.00000013    0.00828550
     atom    5 type  2   force =    -0.00000206    0.00000509   -0.00828018
     atom    6 type  2   force =    -0.00000350   -0.00000115   -0.00828484
     The Hubbard contrib.    to forces
     atom    1 type  1   force =     0.00000000    0.00000000    0.00000000
     atom    2 type  1   force =     0.00000000    0.00000000    0.00000000
     atom    3 type  2   force =     0.00000000    0.00000000    0.00000000
     atom    4 type  2   force =     0.00000000    0.00000000    0.00000000
     atom    5 type  2   force =     0.00000000    0.00000000    0.00000000
     atom    6 type  2   force =     0.00000000    0.00000000    0.00000000
     The SCF correction term to forces
     atom    1 type  1   force =     0.00007738    0.00001707   -0.00090725
     atom    2 type  1   force =    -0.00001199   -0.00004773    0.00062916
     atom    3 type  2   force =     0.00007103   -0.00010745    0.00072765
     atom    4 type  2   force =     0.00006775    0.00001191   -0.00066175
     atom    5 type  2   force =     0.00004367   -0.00008150   -0.00044516
     atom    6 type  2   force =     0.00003635    0.00000952    0.00036300

     Total force =     0.181954     Total SCF correction =     0.001599

     Computing stress (Cartesian axis) and pressure

     negative rho (up, down):  1.191E-01 0.000E+00
          total   stress  (Ry/bohr**3)                   (kbar)     P=      120.39
   0.00176249   0.00000000   0.00000000          259.27        0.00        0.00
   0.00000000   0.00176249   0.00000000            0.00      259.27        0.00
   0.00000000   0.00000000  -0.00106974            0.00        0.00     -157.36

     kinetic stress (kbar)  14704.78      0.00      0.00
                                0.00  14704.78      0.00
                                0.00      0.00  14912.48

     local   stress (kbar) -32413.16     -0.05      0.05
                               -0.05 -32413.28     -0.01
                                0.05     -0.01  45705.82

     nonloc. stress (kbar)  -2081.08     -0.00      0.00
                               -0.00  -2081.08      0.00
                                0.00      0.00  -2222.45

     hartree stress (kbar)  20520.66      0.01     -0.01
                                0.01  20520.73      0.00
                               -0.01      0.00 -14961.12

     exc-cor stress (kbar)   7721.39      0.00     -0.00
                                0.00   7721.39      0.00
                               -0.00      0.00   7735.14

     corecor stress (kbar) -11814.90     -0.00      0.00
                               -0.00 -11814.90     -0.00
                                0.00     -0.00 -11841.87

     ewald   stress (kbar)   3621.59      0.02     -0.00
                                0.02   3621.62      0.00
                               -0.00      0.00 -39485.35

     hubbard stress (kbar)      0.00      0.00      0.00
                                0.00      0.00      0.00
                                0.00      0.00      0.00

     DFT-D   stress (kbar)      0.00      0.00      0.00
                                0.00      0.00      0.00
                                0.00      0.00      0.00

     XDM     stress (kbar)      0.00      0.00      0.00
                                0.00      0.00      0.00
                                0.00      0.00      0.00

     dft-nl  stress (kbar)      0.00      0.00      0.00
                                0.00      0.00      0.00
                                0.00      0.00      0.00

     TS-vdW  stress (kbar)      0.00      0.00      0.00
                                0.00      0.00      0.00
                                0.00      0.00      0.00

[...]

                                0.00      0.00      0.00

     Writing all to output data dir calculations/myprefix.save/

     General routines

     Parallel routines

   This run was terminated on:  13:38:38   6Mar2023

   JOB DONE.