     Program PWSCF v.7.0 starts on  6Mar2023 at 12:53:42

     R & G space division:  proc/nbgrp/npool/nimage =      32

     Reading input from espresso_4681.pwi
Warning: card &CELL ignored
Warning: card / ignored

     Current dimensions of program PWSCF are:
     Max number of different atomic species (ntypx) = 10
     Max number of k-points (npk) =  40000
     Max angular momentum in pseudopotentials (lmaxx) =  4

     gamma-point specific algorithms are used
     Message from routine setup:
     using ibrav=0 with symmetry is DISCOURAGED, use correct ibrav instead

     Using Slab Decomposition

     bravais-lattice index     =            0
     lattice parameter (alat)  =       6.7692  a.u.
     unit-cell volume          =    2435.8149 (a.u.)^3
     number of atoms/cell      =           20
     number of atomic types    =            2
     number of electrons       =       184.00
     number of Kohn-Sham states=          110
     kinetic-energy cutoff     =      30.0000  Ry
     charge density cutoff     =     240.0000  Ry
     scf convergence threshold =      1.0E-06
     mixing beta               =       0.7000
     number of iterations used =            8  plain     mixing
     Exchange-correlation= PBE
                           (   1   4   3   4   0   0   0)

     celldm(1)=   6.769245  celldm(2)=   0.000000  celldm(3)=   0.000000
     celldm(4)=   0.000000  celldm(5)=   0.000000  celldm(6)=   0.000000

     crystal axes: (cart. coord. in units of alat)
               a(1) = (   1.000000   0.000000   0.000000 )
               a(2) = (   0.000000   2.756775   0.000000 )
               a(3) = (   0.000000   0.000000   2.848540 )

     reciprocal axes: (cart. coord. in units 2 pi/alat)
               b(1) = (  1.000000  0.000000  0.000000 )
               b(2) = (  0.000000  0.362743  0.000000 )
               b(3) = (  0.000000  0.000000  0.351057 )

     PseudoPot. # 1 for Hf read from file:
     /home/pragov/projects/rrg-bengioy-ad/pragov/crystal_structure_design/SSSP/Hf-sp.oncvpsp.upf
     MD5 check sum: 417ed15784afe83d2e06dacf143de3f8
     Pseudo is Norm-conserving + core correction, Zval = 12.0
     Generated using ONCVPSP code by D. R. Hamann
     Using radial grid of 1656 points,  8 beta functions with:
                l(1) =   0
                l(2) =   0
                l(3) =   1
                l(4) =   1
                l(5) =   2
                l(6) =   2
                l(7) =   3
                l(8) =   3

     PseudoPot. # 2 for P  read from file:
     /home/pragov/projects/rrg-bengioy-ad/pragov/crystal_structure_design/SSSP/P.pbe-n-rrkjus_psl.1.0.0.UPF
     MD5 check sum: 8b930f418f0a4573dca56cd030ffe088
     Pseudo is Ultrasoft + core correction, Zval =  5.0
     Generated using "atomic" code by A. Dal Corso  v.5.1
     Using radial grid of 1147 points,  6 beta functions with:
                l(1) =   0
                l(2) =   0
                l(3) =   1
                l(4) =   1
                l(5) =   2
                l(6) =   2
     Q(r) pseudized with 0 coefficients

     atomic species   valence    mass     pseudopotential
        Hf            12.00   178.49000     Hf( 1.00)
        P              5.00    30.97376     P ( 1.00)

      8 Sym. Ops., with inversion, found ( 6 have fractional translation)

                                    s                        frac. trans.

      isym =  1     identity

 cryst.   s( 1) = (     1          0          0      )
                  (     0          1          0      )
                  (     0          0          1      )

 cart.    s( 1) = (  1.0000000  0.0000000  0.0000000 )
                  (  0.0000000  1.0000000  0.0000000 )
                  (  0.0000000  0.0000000  1.0000000 )

      isym =  2     180 deg rotation - cart. axis [0,0,1]

 cryst.   s( 2) = (    -1          0          0      )    f =(  0.5000000 )
                  (     0         -1          0      )       (  0.5000000 )
                  (     0          0          1      )       ( -0.5000000 )

 cart.    s( 2) = ( -1.0000000  0.0000000  0.0000000 )    f =(  0.5000000 )
                  (  0.0000000 -1.0000000  0.0000000 )       (  1.3783877 )
                  (  0.0000000  0.0000000  1.0000000 )       ( -1.4242698 )

[...]

      isym =  4     180 deg rotation - cart. axis [1,0,0]

[...]

      isym =  5     inversion

 cryst.   s( 5) = (    -1          0          0      )
                  (     0         -1          0      )
                  (     0          0         -1      )

 cart.    s( 5) = ( -1.0000000  0.0000000  0.0000000 )
                  (  0.0000000 -1.0000000  0.0000000 )
                  (  0.0000000  0.0000000 -1.0000000 )

      isym =  6     inv. 180 deg rotation - cart. axis [0,0,1]

[...]

      isym =  8     inv. 180 deg rotation - cart. axis [1,0,0]

 cryst.   s( 8) = (    -1          0          0      )    f =(  0.5000000 )
                  (     0          1          0      )       (  0.0000000 )
                  (     0          0          1      )       (  0.0000000 )

 cart.    s( 8) = ( -1.0000000  0.0000000  0.0000000 )    f =(  0.5000000 )
                  (  0.0000000  1.0000000  0.0000000 )       (  0.0000000 )
                  (  0.0000000  0.0000000  1.0000000 )       (  0.0000000 )

   Cartesian axes

     site n.     atom                  positions (alat units)
         1           Hf  tau(   1) = (   0.2500000   2.1965987   0.6156492  )
         2           Hf  tau(   2) = (   0.7500000   0.5601768   2.2328904  )
         3           Hf  tau(   3) = (   0.7500000   0.8182110   0.8086206  )
         4           Hf  tau(   4) = (   0.2500000   1.9385645   2.0399189  )
         5           Hf  tau(   5) = (   0.2500000   1.1997569   2.4932868  )
         6           Hf  tau(   6) = (   0.7500000   1.5570185   0.3552528  )
         7           Hf  tau(   7) = (   0.7500000   2.5781447   1.7795225  )
         8           Hf  tau(   8) = (   0.2500000   0.1786308   1.0690170  )
         9           Hf  tau(   9) = (   0.2500000   1.0305598   1.5552171  )
        10           Hf  tau(  10) = (   0.7500000   1.7262156   1.2933224  )
        11           Hf  tau(  11) = (   0.7500000   2.4089476   2.7175922  )
        12           Hf  tau(  12) = (   0.2500000   0.3478279   0.1309474  )
        13           P   tau(  13) = (   0.2500000   1.8721565   2.7705010  )
        14           P   tau(  14) = (   0.7500000   0.8846189   0.0780386  )
        15           P   tau(  15) = (   0.7500000   0.4937688   1.5023084  )
        16           P   tau(  16) = (   0.2500000   2.2630066   1.3462312  )
        17           P   tau(  17) = (   0.2500000   0.0007002   2.2981248  )
        18           P   tau(  18) = (   0.7500000   2.7560752   0.5504148  )
        19           P   tau(  19) = (   0.7500000   1.3790879   1.9746845  )
        20           P   tau(  20) = (   0.2500000   1.3776875   0.8738550  )

   Crystallographic axes

     site n.     atom                  positions (cryst. coord.)
         1           Hf  tau(   1) = (  0.2500000  0.7968000  0.2161280  )
         2           Hf  tau(   2) = (  0.7500000  0.2032000  0.7838720  )
         3           Hf  tau(   3) = (  0.7500000  0.2968000  0.2838720  )
         4           Hf  tau(   4) = (  0.2500000  0.7032000  0.7161280  )
         5           Hf  tau(   5) = (  0.2500000  0.4352030  0.8752860  )
         6           Hf  tau(   6) = (  0.7500000  0.5647970  0.1247140  )
         7           Hf  tau(   7) = (  0.7500000  0.9352030  0.6247140  )
         8           Hf  tau(   8) = (  0.2500000  0.0647970  0.3752860  )
         9           Hf  tau(   9) = (  0.2500000  0.3738280  0.5459700  )
        10           Hf  tau(  10) = (  0.7500000  0.6261720  0.4540300  )
        11           Hf  tau(  11) = (  0.7500000  0.8738280  0.9540300  )
        12           Hf  tau(  12) = (  0.2500000  0.1261720  0.0459700  )
        13           P   tau(  13) = (  0.2500000  0.6791110  0.9726040  )
        14           P   tau(  14) = (  0.7500000  0.3208890  0.0273960  )
        15           P   tau(  15) = (  0.7500000  0.1791110  0.5273960  )
        16           P   tau(  16) = (  0.2500000  0.8208890  0.4726040  )
        17           P   tau(  17) = (  0.2500000  0.0002540  0.8067730  )
        18           P   tau(  18) = (  0.7500000  0.9997460  0.1932270  )
        19           P   tau(  19) = (  0.7500000  0.5002540  0.6932270  )
        20           P   tau(  20) = (  0.2500000  0.4997460  0.3067730  )

     number of k points=     1  Methfessel-Paxton smearing, width (Ry)=  0.0010
                       cart. coord. in units 2pi/alat
        k(    1) = (   0.0000000   0.0000000   0.0000000), wk =   2.0000000

                       cryst. coord.
        k(    1) = (   0.0000000   0.0000000   0.0000000), wk =   2.0000000

     Initial potential from superposition of free atoms

     starting charge     183.9765, renormalised to     184.0000
     Starting wfcs are  152 randomized atomic wfcs

     Self-consistent Calculation

     iteration #  1     ecut=    30.00 Ry     beta= 0.70
     Davidson diagonalization with overlap

     ethr =  1.00E-02,  avg # of iterations =  3.0

     Threshold (ethr) on eigenvalues was too large:
     Diagonalizing with lowered threshold

     Davidson diagonalization with overlap

[...]

     total energy              =   -1465.76806036 Ry
     estimated scf accuracy    <       0.97430937 Ry

[...]

     total energy              =   -1466.15860968 Ry
     estimated scf accuracy    <       0.00000140 Ry

     iteration # 21     ecut=    30.00 Ry     beta= 0.70
     Davidson diagonalization with overlap

     ethr =  7.59E-10,  avg # of iterations =  5.0

     End of self-consistent calculation

          k = 0.0000 0.0000 0.0000 (  3364 PWs)   bands (ev):

   -47.4873 -47.4791 -47.4683 -47.4630 -47.3664 -47.3479 -47.3439 -47.3336
   -46.7571 -46.7449 -46.7428 -46.7357 -16.4760 -16.4743 -16.4512 -16.4500
   -16.4152 -16.3750 -16.3726 -16.3696 -16.3214 -16.2991 -16.1984 -16.1490
   -16.1427 -16.1097 -16.0759 -16.0735 -16.0650 -16.0343 -16.0242 -16.0239
   -15.9767 -15.9432 -15.8880 -15.8670 -15.7755 -15.7409 -15.7203 -15.6042
   -15.6010 -15.5395 -15.5347 -15.5078 -15.3999 -15.3895 -15.3460 -15.3348
     1.9373   3.0355   3.0626   3.0847   3.1287   3.5799   3.6063   3.8793
     8.0024   8.1698   8.2416   8.5429   9.3469   9.3675   9.6139  10.0658
    10.3853  10.5023  10.9628  11.0305  11.2437  11.3576  11.4797  11.5746
    11.6514  11.7011  11.7224  11.8381  11.9416  12.0019  12.0835  12.5689
    12.5883  12.6065  12.9597  13.0812  13.1043  13.7335  13.7523  14.0391
    14.1435  14.2840  14.3710  14.7882  14.9156  15.0805  15.3049  15.3082
    15.3282  15.3465  15.4557  15.5335  15.6171  15.8822  15.8888  15.9643
    16.0754  16.4975  16.5008  16.5329  16.7311  16.9122

     occupation numbers
     1.0000   1.0000   1.0000   1.0000   1.0000   1.0000   1.0000   1.0000
     1.0000   1.0000   1.0000   1.0000   1.0000   1.0000   1.0000   1.0000
     1.0000   1.0000   1.0000   1.0000   1.0000   1.0000   1.0000   1.0000
     1.0000   1.0000   1.0000   1.0000   1.0000   1.0000   1.0000   1.0000
     1.0000   1.0000   1.0000   1.0000   1.0000   1.0000   1.0000   1.0000
     1.0000   1.0000   1.0000   1.0000   1.0000   1.0000   1.0000   1.0000
     1.0000   1.0000   1.0000   1.0000   1.0000   1.0000   1.0000   1.0000
     1.0000   1.0000   1.0000   1.0000   1.0000   1.0000   1.0000   1.0000
     1.0000   1.0000   1.0000   1.0000   1.0000   1.0000   1.0000   1.0000
     1.0000   1.0000   1.0000   1.0000   1.0000   1.0000   1.0000   1.0000
     1.0000   1.0000   1.0000   1.0000   1.0000   1.0000   1.0000   1.0000
     1.0000   1.0000   1.0000   1.0000  -0.0000  -0.0000  -0.0000  -0.0000
    -0.0000  -0.0000  -0.0000  -0.0000  -0.0000  -0.0000  -0.0000  -0.0000
    -0.0000  -0.0000  -0.0000  -0.0000  -0.0000  -0.0000

     the Fermi energy is    14.8519 ev

!    total energy              =   -1466.15860942 Ry
     estimated scf accuracy    <       0.00000058 Ry
     smearing contrib. (-TS)   =       0.00000000 Ry
     internal energy E=F+TS    =   -1466.15860942 Ry

     The total energy is F=E-TS. E is the sum of the following terms:
     one-electron contribution =    -216.61752332 Ry
     hartree contribution      =     185.96961660 Ry
     xc contribution           =    -378.96352564 Ry
     ewald contribution        =   -1056.54717707 Ry

     convergence has been achieved in  21 iterations

     Forces acting on atoms (cartesian axes, Ry/au):

     atom    1 type  1   force =    -0.00000000   -0.02983016   -0.03314266
     atom    2 type  1   force =     0.00000000    0.02983016    0.03314266
     atom    3 type  1   force =    -0.00000000   -0.02983016    0.03314266
     atom    4 type  1   force =     0.00000000    0.02983016   -0.03314266
     atom    5 type  1   force =     0.00000000   -0.04280993   -0.01402129
     atom    6 type  1   force =     0.00000000    0.04280993    0.01402129
     atom    7 type  1   force =     0.00000000   -0.04280993    0.01402129
     atom    8 type  1   force =     0.00000000    0.04280993   -0.01402129
     atom    9 type  1   force =     0.00000000    0.01392768    0.03677261
     atom   10 type  1   force =     0.00000000   -0.01392768   -0.03677261
     atom   11 type  1   force =     0.00000000    0.01392768   -0.03677261
     atom   12 type  1   force =     0.00000000   -0.01392768    0.03677261
     atom   13 type  2   force =     0.00000000    0.01100682    0.01819566
     atom   14 type  2   force =     0.00000000   -0.01100682   -0.01819566
     atom   15 type  2   force =     0.00000000    0.01100682   -0.01819566
     atom   16 type  2   force =     0.00000000   -0.01100682    0.01819566
     atom   17 type  2   force =     0.00000000   -0.02159807   -0.02222965
     atom   18 type  2   force =     0.00000000    0.02159807    0.02222965
     atom   19 type  2   force =     0.00000000   -0.02159807    0.02222965
     atom   20 type  2   force =     0.00000000    0.02159807   -0.02222965
     The non-local contrib.  to forces
     atom    1 type  1   force =     0.00000000    0.11730792   -0.01712340
     atom    2 type  1   force =     0.00000000   -0.11730792    0.01712340
     atom    3 type  1   force =     0.00000000    0.11730792    0.01712340
     atom    4 type  1   force =     0.00000000   -0.11730792   -0.01712340
     atom    5 type  1   force =     0.00000000   -0.03319092   -0.01772891
     atom    6 type  1   force =     0.00000000    0.03319092    0.01772891
     atom    7 type  1   force =     0.00000000   -0.03319092    0.01772891
     atom    8 type  1   force =    -0.00000000    0.03319092   -0.01772891
     atom    9 type  1   force =     0.00000000   -0.02678289    0.05846894
     atom   10 type  1   force =     0.00000000    0.02678289   -0.05846894
     atom   11 type  1   force =     0.00000000   -0.02678289   -0.05846894
     atom   12 type  1   force =     0.00000000    0.02678289    0.05846894
     atom   13 type  2   force =     0.00000000    0.02155650    0.04556542
     atom   14 type  2   force =     0.00000000   -0.02155650   -0.04556542
     atom   15 type  2   force =    -0.00000000    0.02155650   -0.04556542
     atom   16 type  2   force =    -0.00000000   -0.02155650    0.04556542
     atom   17 type  2   force =     0.00000000    0.00006344    0.01941497
     atom   18 type  2   force =     0.00000000   -0.00006344   -0.01941497
     atom   19 type  2   force =     0.00000000    0.00006344   -0.01941497
     atom   20 type  2   force =    -0.00000000   -0.00006344    0.01941497
     The ionic contribution  to forces
     atom    1 type  1   force =    -0.00000000    0.42906524    1.69721647
     atom    2 type  1   force =    -0.00000000   -0.42906524   -1.69721647
     atom    3 type  1   force =    -0.00000000    0.42906524   -1.69721647
     atom    4 type  1   force =    -0.00000000   -0.42906524    1.69721647
     atom    5 type  1   force =    -0.00000000    1.25733394    1.23863541
     atom    6 type  1   force =    -0.00000000   -1.25733394   -1.23863541
     atom    7 type  1   force =    -0.00000000    1.25733394   -1.23863541
     atom    8 type  1   force =     0.00000000   -1.25733394    1.23863541
     atom    9 type  1   force =     0.00000000   -1.27218096    0.79165811
     atom   10 type  1   force =    -0.00000000    1.27218096   -0.79165811
     atom   11 type  1   force =    -0.00000000   -1.27218096   -0.79165811
     atom   12 type  1   force =     0.00000000    1.27218096    0.79165811
     atom   13 type  2   force =    -0.00000000   -0.36272258   -0.95258448
     atom   14 type  2   force =     0.00000000    0.36272258    0.95258448
     atom   15 type  2   force =    -0.00000000   -0.36272258    0.95258448
     atom   16 type  2   force =     0.00000000    0.36272258   -0.95258448
     atom   17 type  2   force =    -0.00000000    0.26516311   -0.65755586
     atom   18 type  2   force =    -0.00000000   -0.26516311    0.65755586
     atom   19 type  2   force =    -0.00000000    0.26516311    0.65755586
     atom   20 type  2   force =     0.00000000   -0.26516311   -0.65755586
     The local contribution  to forces
     atom    1 type  1   force =     0.00000054   -0.55799387   -1.70626933
     atom    2 type  1   force =     0.00000296    0.55927532    1.70644730
     atom    3 type  1   force =    -0.00000097   -0.56059167    1.70600994
     atom    4 type  1   force =     0.00000082    0.55901847   -1.70591295
     atom    5 type  1   force =    -0.00000120   -1.26683224   -1.24025626
     atom    6 type  1   force =     0.00000066    1.26766681    1.24002309
     atom    7 type  1   force =     0.00000232   -1.26591365    1.23931278
     atom    8 type  1   force =    -0.00000355    1.26552674   -1.24111526
     atom    9 type  1   force =     0.00000214    1.31004148   -0.80468888
     atom   10 type  1   force =    -0.00000020   -1.30979782    0.80460607
     atom   11 type  1   force =     0.00000226    1.31105039    0.80653062
     atom   12 type  1   force =     0.00000003   -1.31153479   -0.80442969
     atom   13 type  2   force =     0.00000058    0.35358062    0.92777046
     atom   14 type  2   force =     0.00000110   -0.35363776   -0.92750558
     atom   15 type  2   force =     0.00000022    0.35306182   -0.92751839
     atom   16 type  2   force =    -0.00000008   -0.35290939    0.92671894
     atom   17 type  2   force =    -0.00000267   -0.28655883    0.61687292
     atom   18 type  2   force =     0.00000253    0.28652287   -0.61641571
     atom   19 type  2   force =     0.00000090   -0.28699323   -0.61635576
     atom   20 type  2   force =    -0.00000202    0.28700048    0.61639806
     The core correction contribution to forces
     atom    1 type  1   force =     0.00000011   -0.01690163   -0.00709846
     atom    2 type  1   force =     0.00000024    0.01691140    0.00710147
     atom    3 type  1   force =    -0.00000015   -0.01691538    0.00710746
     atom    4 type  1   force =     0.00000013    0.01690340   -0.00710517
     atom    5 type  1   force =    -0.00000018   -0.00037392    0.00523255
     atom    6 type  1   force =    -0.00000006    0.00037957   -0.00523342
     atom    7 type  1   force =     0.00000005   -0.00037462   -0.00523549
     atom    8 type  1   force =    -0.00000009    0.00037026    0.00522713
     atom    9 type  1   force =     0.00000012    0.00259731   -0.00835801
     atom   10 type  1   force =    -0.00000007   -0.00259719    0.00835843
     atom   11 type  1   force =     0.00000004    0.00259701    0.00835792
     atom   12 type  1   force =     0.00000001   -0.00260030   -0.00834708
     atom   13 type  2   force =     0.00000010   -0.00113757   -0.00216124
     atom   14 type  2   force =     0.00000007    0.00113709    0.00216156
     atom   15 type  2   force =    -0.00000002   -0.00113769    0.00216214
     atom   16 type  2   force =    -0.00000002    0.00113829   -0.00216297
     atom   17 type  2   force =    -0.00000008   -0.00007568   -0.00052060
     atom   18 type  2   force =     0.00000012    0.00007747    0.00052186
     atom   19 type  2   force =     0.00000008   -0.00007719    0.00052190
     atom   20 type  2   force =    -0.00000010    0.00007665   -0.00052157
     The Hubbard contrib.    to forces
     atom    1 type  1   force =     0.00000000    0.00000000    0.00000000
     atom    2 type  1   force =     0.00000000    0.00000000    0.00000000
     atom    3 type  1   force =     0.00000000    0.00000000    0.00000000
     atom    4 type  1   force =     0.00000000    0.00000000    0.00000000
     atom    5 type  1   force =     0.00000000    0.00000000    0.00000000
     atom    6 type  1   force =     0.00000000    0.00000000    0.00000000
     atom    7 type  1   force =     0.00000000    0.00000000    0.00000000
     atom    8 type  1   force =     0.00000000    0.00000000    0.00000000
     atom    9 type  1   force =     0.00000000    0.00000000    0.00000000
     atom   10 type  1   force =     0.00000000    0.00000000    0.00000000
     atom   11 type  1   force =     0.00000000    0.00000000    0.00000000
     atom   12 type  1   force =     0.00000000    0.00000000    0.00000000
     atom   13 type  2   force =     0.00000000    0.00000000    0.00000000
     atom   14 type  2   force =     0.00000000    0.00000000    0.00000000
     atom   15 type  2   force =     0.00000000    0.00000000    0.00000000
     atom   16 type  2   force =     0.00000000    0.00000000    0.00000000
     atom   17 type  2   force =     0.00000000    0.00000000    0.00000000
     atom   18 type  2   force =     0.00000000    0.00000000    0.00000000
     atom   19 type  2   force =     0.00000000    0.00000000    0.00000000
     atom   20 type  2   force =     0.00000000    0.00000000    0.00000000
     The SCF correction term to forces
     atom    1 type  1   force =    -0.00000004   -0.00131411    0.00016277
     atom    2 type  1   force =    -0.00000210    0.00001210   -0.00031955
     atom    3 type  1   force =    -0.00000032    0.00128862    0.00013990
     atom    4 type  1   force =    -0.00000025    0.00026452   -0.00023327
     atom    5 type  1   force =     0.00000059    0.00025063    0.00012088
     atom    6 type  1   force =    -0.00000080   -0.00105947    0.00015158
     atom    7 type  1   force =    -0.00000257   -0.00065417    0.00083050
     atom    8 type  1   force =     0.00000287    0.00102992    0.00092883
     atom    9 type  1   force =    -0.00000095    0.00025854   -0.00034446
     atom   10 type  1   force =     0.00000056   -0.00050103    0.00038784
     atom   11 type  1   force =    -0.00000206   -0.00076716   -0.00152963
     atom   12 type  1   force =    -0.00000035    0.00124260   -0.00053836
     atom   13 type  2   force =     0.00000027   -0.00025791   -0.00035453
     atom   14 type  2   force =    -0.00000007    0.00030997    0.00011588
     atom   15 type  2   force =    -0.00000054    0.00023837    0.00015379
     atom   16 type  2   force =     0.00000034   -0.00038212    0.00061764
     atom   17 type  2   force =     0.00000128   -0.00016285   -0.00041107
     atom   18 type  2   force =    -0.00000037    0.00022997   -0.00000551
     atom   19 type  2   force =    -0.00000016    0.00023640   -0.00006852
     atom   20 type  2   force =     0.00000066   -0.00024035    0.00002547

     Total force =     0.167052     Total SCF correction =     0.003815

     Computing stress (Cartesian axis) and pressure

          total   stress  (Ry/bohr**3)                   (kbar)     P=     -166.03
   0.00022991   0.00000000   0.00000000           33.82        0.00        0.00
   0.00000000  -0.00201853   0.00000000            0.00     -296.94        0.00
   0.00000000   0.00000000  -0.00159727            0.00        0.00     -234.97

     kinetic stress (kbar)  16399.67      0.00      0.00
                                0.00  15511.28      0.00
                                0.00      0.00  15626.55

     local   stress (kbar)   -884.28     -0.00     -0.00
                               -0.00  -1833.49     -0.03
                               -0.00     -0.03   -791.67

     nonloc. stress (kbar)   7718.18      0.00      0.00
                                0.00   7696.43      0.00
                                0.00      0.00   7716.93

     hartree stress (kbar)   3706.96     -0.00      0.00
                               -0.00   3957.11     -0.00
                                0.00     -0.00   3567.11

     exc-cor stress (kbar)   7103.85      0.00      0.00
                                0.00   7096.19      0.00
                                0.00      0.00   7096.05

     corecor stress (kbar) -12124.91     -0.00     -0.00
                               -0.00 -12125.12     -0.00
                               -0.00     -0.00 -12127.33

     ewald   stress (kbar) -21885.65     -0.00      0.00
                               -0.00 -20599.33     -0.00
                                0.00     -0.00 -21322.60

     hubbard stress (kbar)      0.00      0.00      0.00
                                0.00      0.00      0.00
                                0.00      0.00      0.00

     DFT-D   stress (kbar)      0.00      0.00      0.00
                                0.00      0.00      0.00
                                0.00      0.00      0.00

     XDM     stress (kbar)      0.00      0.00      0.00
                                0.00      0.00      0.00
                                0.00      0.00      0.00

     dft-nl  stress (kbar)      0.00      0.00      0.00
                                0.00      0.00      0.00
                                0.00      0.00      0.00

     TS-vdW  stress (kbar)      0.00      0.00      0.00
                                0.00      0.00      0.00
                                0.00      0.00      0.00

[...]

                                0.00      0.00      0.00

     Writing all to output data dir calculations/myprefix.save/

     General routines

     Parallel routines

   This run was terminated on:  12:53:47   6Mar2023

   JOB DONE.