     Program PWSCF v.7.0 starts on  3Mar2023 at  3:31: 5

     R & G space division:  proc/nbgrp/npool/nimage =      32

     Reading input from espresso_13042.pwi
Warning: card &CELL ignored
Warning: card / ignored

     Current dimensions of program PWSCF are:
     Max number of different atomic species (ntypx) = 10
     Max number of k-points (npk) =  40000
     Max angular momentum in pseudopotentials (lmaxx) =  4
     file Mg.pbe-n-kjpaw_psl.0.3.0.UPF: wavefunction(s)  3S renormalized
     file Cd.pbe-dn-rrkjus_psl.0.3.1.UPF: wavefunction(s)  4D renormalized

     gamma-point specific algorithms are used
     Message from routine setup:
     using ibrav=0 with symmetry is DISCOURAGED, use correct ibrav instead

     Using Slab Decomposition

     bravais-lattice index     =            0
     lattice parameter (alat)  =       5.8750  a.u.
     unit-cell volume          =     919.4200 (a.u.)^3
     number of atoms/cell      =            6
     number of atomic types    =            2
     number of electrons       =        62.00
     number of Kohn-Sham states=           37
     kinetic-energy cutoff     =      30.0000  Ry
     charge density cutoff     =     240.0000  Ry
     scf convergence threshold =      1.0E-06
     mixing beta               =       0.7000
     number of iterations used =            8  plain     mixing
     Exchange-correlation= PBE
                           (   1   4   3   4   0   0   0)

     celldm(1)=   5.874971  celldm(2)=   0.000000  celldm(3)=   0.000000
     celldm(4)=   0.000000  celldm(5)=   0.000000  celldm(6)=   0.000000

     crystal axes: (cart. coord. in units of alat)
               a(1) = (   1.000000   0.000000   0.000000 )
               a(2) = (  -0.500000   0.866025   0.000000 )
               a(3) = (   0.000000   0.000000   5.235598 )

     reciprocal axes: (cart. coord. in units 2 pi/alat)
               b(1) = (  1.000000  0.577351  0.000000 )
               b(2) = (  0.000000  1.154701  0.000000 )
               b(3) = (  0.000000  0.000000  0.191000 )

     PseudoPot. # 1 for Mg read from file:
     /home/pragov/projects/rrg-bengioy-ad/pragov/crystal_structure_design/SSSP/Mg.pbe-n-kjpaw_psl.0.3.0.UPF
     MD5 check sum: 24ecedc7f3e3cbe212e682f4413594e4
     Pseudo is Projector augmented-wave + core cor, Zval =  2.0
     Generated using "atomic" code by A. Dal Corso  v.5.0.99 svn rev. 10869
     Shape of augmentation charge: PSQ
     Using radial grid of 1129 points,  4 beta functions with:
                l(1) =   0
                l(2) =   0
                l(3) =   1
                l(4) =   1
     Q(r) pseudized with 0 coefficients

     PseudoPot. # 2 for Cd read from file:
     /home/pragov/projects/rrg-bengioy-ad/pragov/crystal_structure_design/SSSP/Cd.pbe-dn-rrkjus_psl.0.3.1.UPF
     MD5 check sum: 558e9f355611b531a870a69ef6ace9e2
     Pseudo is Ultrasoft + core correction, Zval = 12.0
     Generated using "atomic" code by A. Dal Corso  v.5.0.99 svn rev. 10869
     Using radial grid of 1239 points,  6 beta functions with:
                l(1) =   0
                l(2) =   0
                l(3) =   1
                l(4) =   1
                l(5) =   2
                l(6) =   2
     Q(r) pseudized with 0 coefficients

     atomic species   valence    mass     pseudopotential
        Mg             2.00    24.30500     Mg( 1.00)
        Cd            12.00   112.41400     Cd( 1.00)

     12 Sym. Ops. (no inversion) found

                                    s                        frac. trans.

      isym =  1     identity

 cryst.   s( 1) = (     1          0          0      )
                  (     0          1          0      )
                  (     0          0          1      )

 cart.    s( 1) = (  1.0000000  0.0000000  0.0000000 )
                  (  0.0000000  1.0000000  0.0000000 )
                  (  0.0000000  0.0000000  1.0000000 )

      isym =  2     180 deg rotation - cart. axis [0,1,0]

[...]

      isym =  3     120 deg rotation - cryst. axis [0,0,1]

[...]

      isym =  6     180 deg rotation - cryst. axis [2,1,0]

[...]

      isym =  7     inv. 180 deg rotation - cart. axis [0,0,1]

[...]

      isym =  8     inv. 180 deg rotation - cart. axis [1,0,0]

[...]

      isym =  9     inv.  60 deg rotation - cryst. axis [0,0,1]

 cryst.   s( 9) = (    -1         -1          0      )
                  (     1          0          0      )
                  (     0          0         -1      )

 cart.    s( 9) = ( -0.4999998  0.8660255  0.0000000 )
                  ( -0.8660253 -0.5000002  0.0000000 )
                  (  0.0000000  0.0000000 -1.0000000 )

[...]

 cryst.   s(10) = (     0          1          0      )
                  (    -1         -1          0      )
                  (     0          0         -1      )

 cart.    s(10) = ( -0.5000002 -0.8660255  0.0000000 )
                  (  0.8660253 -0.4999998  0.0000000 )
                  (  0.0000000  0.0000000 -1.0000000 )

[...]

      isym = 12     inv. 180 deg rotation - cryst. axis [1,1,0]

 cryst.   s(12) = (     0         -1          0      )
                  (    -1          0          0      )
                  (     0          0          1      )

 cart.    s(12) = (  0.5000002 -0.8660253  0.0000000 )
                  ( -0.8660253 -0.5000002  0.0000000 )
                  (  0.0000000  0.0000000  1.0000000 )

   Cartesian axes

     site n.     atom                  positions (alat units)
         1           Mg  tau(   1) = (   0.0000000   0.0000000   0.0000000  )
         2           Cd  tau(   2) = (   0.5000004   0.2886748   4.3734310  )
         3           Cd  tau(   3) = (   0.0000000   0.0000000   3.4923218  )
         4           Cd  tau(   4) = (   0.5000004   0.2886748   2.6177989  )
         5           Cd  tau(   5) = (   0.0000000   0.0000000   1.7432761  )
         6           Cd  tau(   6) = (   0.5000004   0.2886748   0.8621668  )

   Crystallographic axes

     site n.     atom                  positions (cryst. coord.)
         1           Mg  tau(   1) = (  0.0000000  0.0000000  0.0000000  )
         2           Cd  tau(   2) = (  0.6666670  0.3333330  0.8353260  )
         3           Cd  tau(   3) = (  0.0000000  0.0000000  0.6670340  )
         4           Cd  tau(   4) = (  0.6666670  0.3333330  0.5000000  )
         5           Cd  tau(   5) = (  0.0000000  0.0000000  0.3329660  )
         6           Cd  tau(   6) = (  0.6666670  0.3333330  0.1646740  )

     number of k points=     1  Methfessel-Paxton smearing, width (Ry)=  0.0010
                       cart. coord. in units 2pi/alat
        k(    1) = (   0.0000000   0.0000000   0.0000000), wk =   2.0000000

                       cryst. coord.
        k(    1) = (   0.0000000   0.0000000   0.0000000), wk =   2.0000000

     Initial potential from superposition of free atoms

     starting charge      61.9747, renormalised to      62.0000
     Starting wfcs are   49 randomized atomic wfcs
     Checking if some PAW data can be deallocated...

     Self-consistent Calculation

     iteration #  1     ecut=    30.00 Ry     beta= 0.70
     Davidson diagonalization with overlap

     ethr =  1.00E-02,  avg # of iterations =  4.0

     Threshold (ethr) on eigenvalues was too large:
     Diagonalizing with lowered threshold

     Davidson diagonalization with overlap

[...]

     total energy              =    -647.12952254 Ry
     estimated scf accuracy    <       0.29361971 Ry

[...]

     total energy              =    -647.33256755 Ry
     estimated scf accuracy    <       0.00000422 Ry

     iteration # 10     ecut=    30.00 Ry     beta= 0.70
     Davidson diagonalization with overlap

     ethr =  6.81E-09,  avg # of iterations =  7.0

     End of self-consistent calculation

          k = 0.0000 0.0000 0.0000 (  1257 PWs)   bands (ev):

    -0.1588  -0.1458  -0.0669   0.0473   0.1257   0.2380   0.2380   0.2397
     0.2397   0.3140   0.3140   0.3338   0.3338   0.3563   0.3563   0.6998
     0.6998   0.7494   0.7495   0.8397   0.8397   0.9440   0.9440   0.9890
     1.0135   1.0135   1.5891   1.7726   3.5923   3.8417   6.8787   7.1194
    11.2570  11.5472  16.4225  17.0519  21.0423

     occupation numbers
     1.0000   1.0000   1.0000   1.0000   1.0000   1.0000   1.0000   1.0000
     1.0000   1.0000   1.0000   1.0000   1.0000   1.0000   1.0000   1.0000
     1.0000   1.0000   1.0000   1.0000   1.0000   1.0000   1.0000   1.0000
     1.0000   1.0000   1.0000   1.0000   1.0000   1.0000   1.0000  -0.0000
    -0.0000  -0.0000  -0.0000  -0.0000  -0.0000

     the Fermi energy is     7.0027 ev

!    total energy              =    -647.33256889 Ry
     estimated scf accuracy    <       0.00000028 Ry
     smearing contrib. (-TS)   =       0.00000000 Ry
     internal energy E=F+TS    =    -647.33256889 Ry

     The total energy is F=E-TS. E is the sum of the following terms:
     one-electron contribution =    -312.60540367 Ry
     hartree contribution      =     217.24784907 Ry
     xc contribution           =    -215.77094580 Ry
     ewald contribution        =    -304.92036224 Ry
     one-center paw contrib.   =     -31.28370625 Ry
      -> PAW hartree energy AE =       0.74314167 Ry
      -> PAW hartree energy PS =      -0.74155562 Ry
      -> PAW xc energy AE      =     -32.57726018 Ry
      -> PAW xc energy PS      =       1.29196788 Ry
      -> total E_H with PAW    =     217.24943512 Ry
      -> total E_XC with PAW   =    -247.05623811 Ry

     convergence has been achieved in  10 iterations

     Forces acting on atoms (cartesian axes, Ry/au):

     atom    1 type  1   force =    -0.00000000   -0.00000000    0.00000000
     atom    2 type  2   force =     0.00000000    0.00000000   -0.01228541
     atom    3 type  2   force =     0.00000000    0.00000000    0.00104164
     atom    4 type  2   force =     0.00000000    0.00000000    0.00000000
     atom    5 type  2   force =     0.00000000    0.00000000   -0.00104164
     atom    6 type  2   force =     0.00000000    0.00000000    0.01228541
     The non-local contrib.  to forces
     atom    1 type  1   force =     0.00000000    0.00000000    0.00000000
     atom    2 type  2   force =     0.00000000    0.00000000   -0.00951358
     atom    3 type  2   force =    -0.00000000   -0.00000000    0.00153662
     atom    4 type  2   force =     0.00000000   -0.00000000    0.00000000
     atom    5 type  2   force =     0.00000000    0.00000000   -0.00153662
     atom    6 type  2   force =     0.00000000    0.00000000    0.00951358
     The ionic contribution  to forces
     atom    1 type  1   force =     0.00000013   -0.00000008    0.00000000
     atom    2 type  2   force =    -0.00000041    0.00000024   32.14376543
     atom    3 type  2   force =     0.00000070   -0.00000040   16.57289073
     atom    4 type  2   force =    -0.00000072    0.00000041    0.00000000
     atom    5 type  2   force =     0.00000070   -0.00000040  -16.57289073
     atom    6 type  2   force =    -0.00000041    0.00000024  -32.14376543
     The local contribution  to forces
     atom    1 type  1   force =     0.00000014    0.00000133   -0.00009699
     atom    2 type  2   force =     0.00004980    0.00001024  -32.14850837
     atom    3 type  2   force =     0.00005104    0.00000766  -16.57224609
     atom    4 type  2   force =    -0.00001166   -0.00000452   -0.00026265
     atom    5 type  2   force =    -0.00003220   -0.00003454   16.57297459
     atom    6 type  2   force =     0.00003329    0.00002172   32.14858057
     The core correction contribution to forces
     atom    1 type  1   force =     0.00000005    0.00000013   -0.00000084
     atom    2 type  2   force =     0.00000368    0.00000009    0.00155541
     atom    3 type  2   force =     0.00000340    0.00000042    0.00001465
     atom    4 type  2   force =    -0.00000128    0.00000016   -0.00000546
     atom    5 type  2   force =    -0.00000114   -0.00000201   -0.00000739
     atom    6 type  2   force =     0.00000341    0.00000040   -0.00155387
     The Hubbard contrib.    to forces
     atom    1 type  1   force =     0.00000000    0.00000000    0.00000000
     atom    2 type  2   force =     0.00000000    0.00000000    0.00000000
     atom    3 type  2   force =     0.00000000    0.00000000    0.00000000
     atom    4 type  2   force =     0.00000000    0.00000000    0.00000000
     atom    5 type  2   force =     0.00000000    0.00000000    0.00000000
     atom    6 type  2   force =     0.00000000    0.00000000    0.00000000
     The SCF correction term to forces
     atom    1 type  1   force =    -0.00000007   -0.00000035    0.00010117
     atom    2 type  2   force =    -0.00002207   -0.00002023    0.00043429
     atom    3 type  2   force =    -0.00005061   -0.00000700   -0.00126619
     atom    4 type  2   force =     0.00001896   -0.00000358    0.00039412
     atom    5 type  2   force =     0.00005121    0.00003836    0.00030662
     atom    6 type  2   force =     0.00000471   -0.00005211   -0.00047087

     Total force =     0.017437     Total SCF correction =     0.001511

     Computing stress (Cartesian axis) and pressure

          total   stress  (Ry/bohr**3)                   (kbar)     P=     -656.04
  -0.00561402  -0.00000000   0.00000000         -825.85       -0.00        0.00
  -0.00000000  -0.00561403  -0.00000000           -0.00     -825.85       -0.00
  -0.00000000   0.00000000  -0.00215097           -0.00        0.00     -316.42

     kinetic stress (kbar)  20776.59      0.00      0.00
                                0.00  20776.59      0.00
                                0.00      0.00  21254.34

     local   stress (kbar) -24710.90     -0.00     -0.00
                               -0.00 -24710.90     -0.00
                               -0.00     -0.00  31072.20

     nonloc. stress (kbar)  -5531.90     -0.00     -0.00
                               -0.00  -5531.90      0.00
                               -0.00      0.00  -5416.76

     hartree stress (kbar)  20560.37      0.00     -0.00
                                0.00  20560.37      0.00
                               -0.00      0.00  -6361.59

     exc-cor stress (kbar)  15396.95     -0.00     -0.00
                               -0.00  15396.95     -0.00
                               -0.00     -0.00  15394.05

     corecor stress (kbar) -20703.27     -0.00     -0.00
                               -0.00 -20703.27     -0.00
                               -0.00     -0.00 -20699.51

     ewald   stress (kbar)  -6613.70     -0.00      0.00
                               -0.00  -6613.70      0.00
                                0.00      0.00 -35559.15

     hubbard stress (kbar)      0.00      0.00      0.00
                                0.00      0.00      0.00
                                0.00      0.00      0.00

     DFT-D   stress (kbar)      0.00      0.00      0.00
                                0.00      0.00      0.00
                                0.00      0.00      0.00

     XDM     stress (kbar)      0.00      0.00      0.00
                                0.00      0.00      0.00
                                0.00      0.00      0.00

     dft-nl  stress (kbar)      0.00      0.00      0.00
                                0.00      0.00      0.00
                                0.00      0.00      0.00

     TS-vdW  stress (kbar)      0.00      0.00      0.00
                                0.00      0.00      0.00
                                0.00      0.00      0.00

[...]

                                0.00      0.00      0.00

     Writing all to output data dir calculations/myprefix.save/

     General routines

     Parallel routines

     PAW routines

   This run was terminated on:   3:31: 9   3Mar2023

   JOB DONE.