     Program PWSCF v.7.0 starts on  3Mar2023 at 16:50:34

     R & G space division:  proc/nbgrp/npool/nimage =      32

     Reading input from espresso_989.pwi
Warning: card &CELL ignored
Warning: card / ignored

     Current dimensions of program PWSCF are:
     Max number of different atomic species (ntypx) = 10
     Max number of k-points (npk) =  40000
     Max angular momentum in pseudopotentials (lmaxx) =  4
     file O.pbe-n-kjpaw_psl.0.1.UPF: wavefunction(s)  2P renormalized

     gamma-point specific algorithms are used

     Using Slab Decomposition

     bravais-lattice index     =            0
     lattice parameter (alat)  =      13.3399  a.u.
     unit-cell volume          =    1457.0963 (a.u.)^3
     number of atoms/cell      =           12
     number of atomic types    =            2
     number of electrons       =        64.00
     number of Kohn-Sham states=           38
     kinetic-energy cutoff     =      30.0000  Ry
     charge density cutoff     =     240.0000  Ry
     scf convergence threshold =      1.0E-06
     mixing beta               =       0.7000
     number of iterations used =            8  plain     mixing
     Exchange-correlation= SLA  PW   PBX  PBC
                           (   1   4   3   4   0   0   0)

     celldm(1)=  13.339947  celldm(2)=   0.000000  celldm(3)=   0.000000
     celldm(4)=   0.000000  celldm(5)=   0.000000  celldm(6)=   0.000000

     crystal axes: (cart. coord. in units of alat)
               a(1) = (   1.000000   0.000000   0.000000 )
               a(2) = (   0.047904   0.998852   0.000000 )
               a(3) = (  -0.307483  -0.726525   0.614504 )

     reciprocal axes: (cart. coord. in units 2 pi/alat)
               b(1) = (  1.000000 -0.047959  0.443674 )
               b(2) = (  0.000000  1.001149  1.183654 )
               b(3) = (  0.000000  0.000000  1.627328 )

     PseudoPot. # 1 for Si read from file:
     /home/pragov/projects/rrg-bengioy-ad/pragov/crystal_structure_design/SSSP/Si.pbe-n-rrkjus_psl.1.0.0.UPF
     MD5 check sum: 0b0bb1205258b0d07b9f9672cf965d36
     Pseudo is Ultrasoft + core correction, Zval =  4.0
     Generated using "atomic" code by A. Dal Corso  v.5.1
     Using radial grid of 1141 points,  6 beta functions with:
                l(1) =   0
                l(2) =   0
                l(3) =   1
                l(4) =   1
                l(5) =   2
                l(6) =   2
     Q(r) pseudized with 0 coefficients

     PseudoPot. # 2 for O  read from file:
     /home/pragov/projects/rrg-bengioy-ad/pragov/crystal_structure_design/SSSP/O.pbe-n-kjpaw_psl.0.1.UPF
     MD5 check sum: 0234752ac141de4415c5fc33072bef88
     Pseudo is Projector augmented-wave + core cor, Zval =  6.0
     Generated using "atomic" code by A. Dal Corso  v.5.0.99 svn rev. 10869
     Shape of augmentation charge: BESSEL
     Using radial grid of 1095 points,  4 beta functions with:
                l(1) =   0
                l(2) =   0
                l(3) =   1
                l(4) =   1
     Q(r) pseudized with 0 coefficients

     atomic species   valence    mass     pseudopotential
        Si             4.00    28.08500     Si( 1.00)
        O              6.00    15.99900     O ( 1.00)

     No symmetry found

                                    s                        frac. trans.

      isym =  1     identity

 cryst.   s( 1) = (     1          0          0      )
                  (     0          1          0      )
                  (     0          0          1      )

 cart.    s( 1) = (  1.0000000  0.0000000  0.0000000 )
                  (  0.0000000  1.0000000 -0.0000000 )
                  (  0.0000000  0.0000000  1.0000000 )

   Cartesian axes

     site n.     atom                  positions (alat units)
         1           Si  tau(   1) = (   0.7292233   0.4949468   0.0881992  )
         2           Si  tau(   2) = (   0.0115030  -0.2229397   0.5255817  )
         3           Si  tau(   3) = (   0.0425444   0.7936016   0.0881992  )
         4           Si  tau(   4) = (   0.6981819  -0.5215944   0.5255817  )
         5           O   tau(   5) = (   0.8599557   0.3069599   0.0578052  )
         6           O   tau(   6) = (  -0.2416797   0.2535481   0.5721303  )
         7           O   tau(   7) = (   0.6683832   0.5079401   0.3102342  )
         8           O   tau(   8) = (  -0.0154232  -0.1438577   0.3102342  )
         9           O   tau(   9) = (  -0.0901000  -0.4300294   0.5460342  )
        10           O   tau(  10) = (   0.8482804   0.6837253   0.0264274  )
        11           O   tau(  11) = (   0.2343685  -0.2458779   0.5721303  )
        12           O   tau(  12) = (   0.2240530   0.6540140   0.0578052  )

   Crystallographic axes

     site n.     atom                  positions (cryst. coord.)
         1           Si  tau(   1) = (  0.7446180  0.5999130  0.1435290  )
         2           Si  tau(   2) = (  0.2553820  0.3989110  0.8552940  )
         3           Si  tau(   3) = (  0.0436160  0.8989110  0.1435290  )
         4           Si  tau(   4) = (  0.9563840  0.0999130  0.8552940  )
         5           O   tau(   5) = (  0.8708810  0.3757340  0.0940680  )
         6           O   tau(   6) = ( -0.0000000  0.9310440  0.9310440  )
         7           O   tau(   7) = (  0.7816660  0.8757340  0.5048530  )
         8           O   tau(   8) = (  0.1291190  0.2231870  0.5048530  )
         9           O   tau(   9) = (  0.1727850  0.2157920  0.8885770  )
        10           O   tau(  10) = (  0.8272150  0.7157920  0.0430060  )
        11           O   tau(  11) = (  0.5000000  0.4310440  0.9310440  )
        12           O   tau(  12) = (  0.2183340  0.7231870  0.0940680  )

     number of k points=     1  Methfessel-Paxton smearing, width (Ry)=  0.0010
                       cart. coord. in units 2pi/alat
        k(    1) = (   0.0000000   0.0000000   0.0000000), wk =   2.0000000

                       cryst. coord.
        k(    1) = (   0.0000000   0.0000000   0.0000000), wk =   2.0000000

     Check: negative core charge=   -0.000009

     Initial potential from superposition of free atoms

     starting charge      63.9978, renormalised to      64.0000
     Starting wfcs are   48 randomized atomic wfcs
     Checking if some PAW data can be deallocated...

     Self-consistent Calculation

     iteration #  1     ecut=    30.00 Ry     beta= 0.70
     Davidson diagonalization with overlap

     ethr =  1.00E-02,  avg # of iterations =  3.0

     negative rho (up, down):  2.674E-08 0.000E+00

     total energy              =    -378.58313076 Ry
     estimated scf accuracy    <       2.80420175 Ry

[...]

     total energy              =    -379.76582219 Ry
     estimated scf accuracy    <       0.00000202 Ry

     iteration # 10     ecut=    30.00 Ry     beta= 0.70
     Davidson diagonalization with overlap

     ethr =  3.16E-09,  avg # of iterations =  2.0

[...]

     End of self-consistent calculation

          k = 0.0000 0.0000 0.0000 (  2037 PWs)   bands (ev):

   -19.8554 -18.9063 -18.5962 -18.4287 -17.9895 -17.8191 -17.8137 -17.7905
    -8.8898  -8.4721  -8.0200  -6.0373  -5.9448  -5.6884  -5.6355  -5.2744
    -3.9197  -3.2170  -2.8707  -2.7659  -2.5238  -2.3361  -2.3208  -2.1988
    -1.7964  -1.7648  -1.6916  -1.4311  -1.3181  -0.9094  -0.8774  -0.7428
     5.0603   8.3017   8.4905   8.5899   8.8570   8.9690

     occupation numbers
     1.0000   1.0000   1.0000   1.0000   1.0000   1.0000   1.0000   1.0000
     1.0000   1.0000   1.0000   1.0000   1.0000   1.0000   1.0000   1.0000
     1.0000   1.0000   1.0000   1.0000   1.0000   1.0000   1.0000   1.0000
     1.0000   1.0000   1.0000   1.0000   1.0000   1.0000   1.0000   1.0000
    -0.0000  -0.0000  -0.0000  -0.0000  -0.0000  -0.0000

     the Fermi energy is     1.8309 ev

!    total energy              =    -379.76582271 Ry
     estimated scf accuracy    <       0.00000016 Ry
     smearing contrib. (-TS)   =       0.00000000 Ry
     internal energy E=F+TS    =    -379.76582271 Ry

     The total energy is F=E-TS. E is the sum of the following terms:
     one-electron contribution =    -282.26115195 Ry
     hartree contribution      =     169.19163274 Ry
     xc contribution           =     -85.65716991 Ry
     ewald contribution        =    -105.01582190 Ry
     one-center paw contrib.   =     -76.02331170 Ry
      -> PAW hartree energy AE =       0.00000000 Ry
      -> PAW hartree energy PS =       0.00000000 Ry
      -> PAW xc energy AE      =       0.00000000 Ry
      -> PAW xc energy PS      =       0.00000000 Ry
      -> total E_H with PAW    =     169.19163274 Ry
      -> total E_XC with PAW   =     -85.65716991 Ry

     convergence has been achieved in  10 iterations

     negative rho (up, down):  8.377E-06 0.000E+00

     Forces acting on atoms (cartesian axes, Ry/au):

     atom    1 type  1   force =    -0.00292865    0.00573230    0.00859975
     atom    2 type  1   force =    -0.00467710    0.00224831    0.00941136
     atom    3 type  1   force =    -0.00558344    0.00321316    0.00859680
     atom    4 type  1   force =    -0.00202985    0.00476255    0.00941589
     atom    5 type  2   force =     0.02254466   -0.02822613    0.00794108
     atom    6 type  2   force =     0.00009272   -0.00008779   -0.00023530
     atom    7 type  2   force =    -0.01845304    0.01478843   -0.02844746
     atom    8 type  2   force =    -0.01388610    0.01914229   -0.02844995
     atom    9 type  2   force =    -0.00168025    0.00176421    0.00225122
     atom   10 type  2   force =    -0.00061679    0.00063407    0.00320393
     atom   11 type  2   force =     0.00010182   -0.00010004   -0.00022008
     atom   12 type  2   force =     0.02711602   -0.02387136    0.00793277
     The non-local contrib.  to forces
     atom    1 type  1   force =    -0.01624714   -0.00984252   -0.00372964
     atom    2 type  1   force =     0.01700462    0.00902769    0.00196811
     atom    3 type  1   force =     0.01060663    0.01577874   -0.00373228
     atom    4 type  1   force =    -0.00985073   -0.01654977    0.00197651
     atom    5 type  2   force =     0.10436163    0.62213110   -0.88272943
     atom    6 type  2   force =    -0.26995271    0.28323161    0.63907075
     atom    7 type  2   force =     1.02653759   -0.34531428   -0.06446395
     atom    8 type  2   force =     0.29574894   -1.04190085   -0.06444406
     atom    9 type  2   force =    -0.74738555    0.78408936   -0.29592320
     atom   10 type  2   force =     0.52170728   -0.54734079    0.83022718
     atom   11 type  2   force =    -0.26994234    0.28320538    0.63911323
     atom   12 type  2   force =    -0.62640619   -0.07446488   -0.88275513
     The ionic contribution  to forces
     atom    1 type  1   force =    -1.54353869   -0.14623628   -0.53747916
     atom    2 type  1   force =     1.51299520    0.17832997    0.60983603
     atom    3 type  1   force =     0.22005884    1.53478566   -0.53745845
     atom    4 type  1   force =    -0.25060940   -1.50273346    0.60984223
     atom    5 type  2   force =    -2.12811251   -4.80002929    3.72249448
     atom    6 type  2   force =     1.08320588   -1.13634479   -2.56428404
     atom    7 type  2   force =    -6.42919482   -0.28774161   -0.09408370
     atom    8 type  2   force =     0.59537858    6.40802197   -0.09408679
     atom    9 type  2   force =     5.67578948   -5.95443987    3.47386642
     atom   10 type  2   force =    -4.71564126    4.94708660   -5.74689122
     atom   11 type  2   force =     1.08321430   -1.13641499   -2.56426308
     atom   12 type  2   force =     4.89645439    1.89571609    3.72250729
     The local contribution  to forces
     atom    1 type  1   force =     1.55521503    0.16087964    0.54925025
     atom    2 type  1   force =    -1.53288009   -0.18442269   -0.60218428
     atom    3 type  1   force =    -0.23526554   -1.54573634    0.54920550
     atom    4 type  1   force =     0.25763490    1.52226878   -0.60219261
     atom    5 type  2   force =     2.04693832    4.15530783   -2.83994635
     atom    6 type  2   force =    -0.81559643    0.85557746    1.93069955
     atom    7 type  2   force =     5.39351076    0.64435429    0.12953605
     atom    8 type  2   force =    -0.90205007   -5.35645824    0.12960930
     atom    9 type  2   force =    -4.93663216    5.17907577   -3.17824454
     atom   10 type  2   force =     4.19791061   -4.40397508    4.92723863
     atom   11 type  2   force =    -0.81559314    0.85564962    1.93073653
     atom   12 type  2   force =    -4.24857579   -1.84557072   -2.84002537
     The core correction contribution to forces
     atom    1 type  1   force =     0.00155473    0.00083866    0.00053429
     atom    2 type  1   force =    -0.00170847   -0.00067540   -0.00017473
     atom    3 type  1   force =    -0.00091237   -0.00151557    0.00053440
     atom    4 type  1   force =     0.00075904    0.00167372   -0.00017586
     atom    5 type  2   force =    -0.00080034   -0.00576806    0.00827023
     atom    6 type  2   force =     0.00248380   -0.00260622   -0.00588022
     atom    7 type  2   force =    -0.00951891    0.00337837    0.00053387
     atom    8 type  2   force =    -0.00291872    0.00966975    0.00053382
     atom    9 type  2   force =     0.00670253   -0.00703169    0.00264343
     atom   10 type  2   force =    -0.00467217    0.00490189   -0.00745026
     atom   11 type  2   force =     0.00248371   -0.00260567   -0.00588065
     atom   12 type  2   force =     0.00579970    0.00052334    0.00827032
     The Hubbard contrib.    to forces
     atom    1 type  1   force =     0.00000000    0.00000000    0.00000000
     atom    2 type  1   force =     0.00000000    0.00000000    0.00000000
     atom    3 type  1   force =     0.00000000    0.00000000    0.00000000
     atom    4 type  1   force =     0.00000000    0.00000000    0.00000000
     atom    5 type  2   force =     0.00000000    0.00000000    0.00000000
     atom    6 type  2   force =     0.00000000    0.00000000    0.00000000
     atom    7 type  2   force =     0.00000000    0.00000000    0.00000000
     atom    8 type  2   force =     0.00000000    0.00000000    0.00000000
     atom    9 type  2   force =     0.00000000    0.00000000    0.00000000
     atom   10 type  2   force =     0.00000000    0.00000000    0.00000000
     atom   11 type  2   force =     0.00000000    0.00000000    0.00000000
     atom   12 type  2   force =     0.00000000    0.00000000    0.00000000
     The SCF correction term to forces
     atom    1 type  1   force =     0.00008949    0.00009154    0.00002574
     atom    2 type  1   force =    -0.00008629   -0.00001252   -0.00003204
     atom    3 type  1   force =    -0.00006892   -0.00010059    0.00004937
     atom    4 type  1   force =     0.00003841    0.00010202   -0.00003264
     atom    5 type  2   force =     0.00015962    0.00013104   -0.00014610
     atom    6 type  2   force =    -0.00004575    0.00005289    0.00016040
     atom    7 type  2   force =     0.00021440    0.00011039    0.00003200
     atom    8 type  2   force =    -0.00004276   -0.00019160   -0.00006048
     atom    9 type  2   force =    -0.00015248    0.00006938   -0.00008915
     atom   10 type  2   force =     0.00008082   -0.00003981    0.00008134
     atom   11 type  2   force =    -0.00005864    0.00006436    0.00007562
     atom   12 type  2   force =    -0.00015403   -0.00007644   -0.00006260

     Total force =     0.077183     Total SCF correction =     0.000591

     Computing stress (Cartesian axis) and pressure

     negative rho (up, down):  8.377E-06 0.000E+00
          total   stress  (Ry/bohr**3)                   (kbar)     P=     -254.20
  -0.00175177  -0.00005968  -0.00000197         -257.69       -8.78       -0.29
  -0.00005968  -0.00174616   0.00000211           -8.78     -256.87        0.31
  -0.00000197   0.00000211  -0.00168609           -0.29        0.31     -248.03

     kinetic stress (kbar)  10298.46      2.61    -20.70
                                2.61  10298.21     21.72
                              -20.70     21.72  10326.36

     local   stress (kbar) -10963.24   -165.15   3045.84
                             -165.15 -10947.39  -3195.42
                             3045.84  -3195.42 -15297.71

     nonloc. stress (kbar)   1978.85      3.86     -3.80
                                3.86   1978.48      3.99
                               -3.80      3.99   1980.43

     hartree stress (kbar)   5023.30     50.02  -1397.72
                               50.02   5018.52   1466.35
                            -1397.72   1466.35   7039.38

     exc-cor stress (kbar)   -491.89      0.14      0.10
                                0.14   -491.90     -0.11
                                0.10     -0.11   -492.19

     corecor stress (kbar)  -1806.02     -0.45      0.40
                               -0.45  -1805.97     -0.42
                                0.40     -0.42  -1806.14

     ewald   stress (kbar)  -4297.17    100.19  -1624.41
                              100.19  -4306.81   1704.20
                            -1624.41   1704.20  -1998.17

     hubbard stress (kbar)      0.00      0.00      0.00
                                0.00      0.00      0.00
                                0.00      0.00      0.00

     DFT-D   stress (kbar)      0.00      0.00      0.00
                                0.00      0.00      0.00
                                0.00      0.00      0.00

     XDM     stress (kbar)      0.00      0.00      0.00
                                0.00      0.00      0.00
                                0.00      0.00      0.00

     dft-nl  stress (kbar)      0.00      0.00      0.00
                                0.00      0.00      0.00
                                0.00      0.00      0.00

     TS-vdW  stress (kbar)      0.00      0.00      0.00
                                0.00      0.00      0.00
                                0.00      0.00      0.00

[...]

                                0.00      0.00      0.00

     Writing all to output data dir calculations/myprefix.save/

     General routines

     Parallel routines

     PAW routines

   This run was terminated on:  16:50:36   3Mar2023

   JOB DONE.