     Program PWSCF v.7.0 starts on  6Mar2023 at  2:34:49

     R & G space division:  proc/nbgrp/npool/nimage =      32

     Reading input from espresso_2004.pwi
Warning: card &CELL ignored
Warning: card / ignored

     Current dimensions of program PWSCF are:
     Max number of different atomic species (ntypx) = 10
     Max number of k-points (npk) =  40000
     Max angular momentum in pseudopotentials (lmaxx) =  4
     file Ba.pbe-spn-kjpaw_psl.1.0.0.UPF: wavefunction(s)  5S 6S renormalized
     file In.pbe-dn-rrkjus_psl.0.2.2.UPF: wavefunction(s)  5S renormalized
     file Ga.pbe-dn-kjpaw_psl.1.0.0.UPF: wavefunction(s)  4S renormalized
     file O.pbe-n-kjpaw_psl.0.1.UPF: wavefunction(s)  2P renormalized

     gamma-point specific algorithms are used

     Using Slab Decomposition

     bravais-lattice index     =            0
     lattice parameter (alat)  =      17.0052  a.u.
     unit-cell volume          =    1988.9220 (a.u.)^3
     number of atoms/cell      =           18
     number of atomic types    =            4
     number of electrons       =       152.00
     number of Kohn-Sham states=           91
     kinetic-energy cutoff     =      30.0000  Ry
     charge density cutoff     =     240.0000  Ry
     scf convergence threshold =      1.0E-06
     mixing beta               =       0.7000
     number of iterations used =            8  plain     mixing
     Exchange-correlation= SLA  PW   PBX  PBC
                           (   1   4   3   4   0   0   0)

     celldm(1)=  17.005239  celldm(2)=   0.000000  celldm(3)=   0.000000
     celldm(4)=   0.000000  celldm(5)=   0.000000  celldm(6)=   0.000000

     crystal axes: (cart. coord. in units of alat)
               a(1) = (   1.000000   0.000000   0.000000 )
               a(2) = (   0.538638   0.842538   0.000000 )
               a(3) = (  -0.761881  -0.434851   0.480043 )

     reciprocal axes: (cart. coord. in units 2 pi/alat)
               b(1) = (  1.000000 -0.639304  1.007990 )
               b(2) = (  0.000000  1.186891  1.075156 )
               b(3) = (  0.000000  0.000000  2.083146 )

     PseudoPot. # 1 for Ba read from file:
     /home/pragov/projects/rrg-bengioy-ad/pragov/crystal_structure_design/SSSP/Ba.pbe-spn-kjpaw_psl.1.0.0.UPF
     MD5 check sum: c432291d3e53af55f19d5e8866385beb
     Pseudo is Projector augmented-wave + core cor, Zval = 10.0
     Generated using "atomic" code by A. Dal Corso  v.5.1
     Shape of augmentation charge: PSQ
     Using radial grid of 1251 points,  7 beta functions with:
                l(1) =   0
                l(2) =   0
                l(3) =   0
                l(4) =   1
                l(5) =   1
                l(6) =   2
                l(7) =   2
     Q(r) pseudized with 0 coefficients

     PseudoPot. # 2 for In read from file:
     /home/pragov/projects/rrg-bengioy-ad/pragov/crystal_structure_design/SSSP/In.pbe-dn-rrkjus_psl.0.2.2.UPF
     MD5 check sum: 25e7c42c3b55b68f4bf926be2e7201a4
     Pseudo is Ultrasoft + core correction, Zval = 13.0
     Generated using "atomic" code by A. Dal Corso  v.5.0.99 svn rev. 10869
     Using radial grid of 1241 points,  6 beta functions with:
                l(1) =   0
                l(2) =   0
                l(3) =   1
                l(4) =   1
                l(5) =   2
                l(6) =   2
     Q(r) pseudized with 0 coefficients

     PseudoPot. # 3 for Ga read from file:
     /home/pragov/projects/rrg-bengioy-ad/pragov/crystal_structure_design/SSSP/Ga.pbe-dn-kjpaw_psl.1.0.0.UPF
     MD5 check sum: a27b4342b1af7e5f338de752e9ed7044
     Pseudo is Projector augmented-wave + core cor, Zval = 13.0
     Generated using "atomic" code by A. Dal Corso  v.5.1
     Shape of augmentation charge: PSQ
     Using radial grid of 1205 points,  6 beta functions with:
                l(1) =   0
                l(2) =   0
                l(3) =   1
                l(4) =   1
                l(5) =   2
                l(6) =   2
     Q(r) pseudized with 0 coefficients

     PseudoPot. # 4 for O  read from file:
     /home/pragov/projects/rrg-bengioy-ad/pragov/crystal_structure_design/SSSP/O.pbe-n-kjpaw_psl.0.1.UPF
     MD5 check sum: 0234752ac141de4415c5fc33072bef88
     Pseudo is Projector augmented-wave + core cor, Zval =  6.0
     Generated using "atomic" code by A. Dal Corso  v.5.0.99 svn rev. 10869
     Shape of augmentation charge: BESSEL
     Using radial grid of 1095 points,  4 beta functions with:
                l(1) =   0
                l(2) =   0
                l(3) =   1
                l(4) =   1
     Q(r) pseudized with 0 coefficients

     atomic species   valence    mass     pseudopotential
        Ba            10.00   137.32700     Ba( 1.00)
        In            13.00   114.81800     In( 1.00)
        Ga            13.00    69.72300     Ga( 1.00)
        O              6.00    15.99900     O ( 1.00)

     No symmetry found

                                    s                        frac. trans.

      isym =  1     identity

 cryst.   s( 1) = (     1          0          0      )
                  (     0          1          0      )
                  (     0          0          1      )

 cart.    s( 1) = (  1.0000000 -0.0000000 -0.0000000 )
                  (  0.0000000  1.0000000 -0.0000000 )
                  (  0.0000000  0.0000000  1.0000000 )

   Cartesian axes

     site n.     atom                  positions (alat units)
         1           Ba  tau(   1) = (   0.4722620   0.5298156   0.2519679  )
         2           Ba  tau(   2) = (   0.2962127  -0.1070072   0.2458824  )
         3           Ba  tau(   3) = (   0.0685512   0.3087489   0.2519679  )
         4           Ba  tau(   4) = (   0.6999235   0.1140595   0.2458824  )
         5           In  tau(   5) = (   0.7656480   0.4279724   0.0078933  )
         6           In  tau(   6) = (   0.9963292   0.0067036   0.0078933  )
         7           Ga  tau(   7) = (  -0.3953999  -0.1910202   0.4544179  )
         8           Ga  tau(   8) = (   1.1668655   0.6083685   0.0370022  )
         9           O   tau(   9) = (   0.8974954   0.2261095   0.0075261  )
        10           O   tau(  10) = (  -0.0161740  -0.0093811   0.2476687  )
        11           O   tau(  11) = (   0.6340243   0.6294230   0.0075261  )
        12           O   tau(  12) = (   0.7859347   0.4298430   0.2476687  )
        13           O   tau(  13) = (   0.5584932   0.2721409   0.0390217  )
        14           O   tau(  14) = (   0.2132633   0.1446761   0.4517729  )
        15           O   tau(  15) = (   0.2392038   0.0973018   0.0390217  )
        16           O   tau(  16) = (   0.5325526   0.3195153   0.4517729  )
        17           O   tau(  17) = (   0.5043870  -0.0080115   0.4768758  )
        18           O   tau(  18) = (  -0.3793217  -0.2203820   0.2462679  )

   Crystallographic axes

     site n.     atom                  positions (cryst. coord.)
         1           Ba  tau(   1) = (  0.3875300  0.8997380  0.5248860  )
         2           Ba  tau(   2) = (  0.6124700  0.1373560  0.5122090  )
         3           Ba  tau(   3) = (  0.1251480  0.6373560  0.5248860  )
         4           Ba  tau(   4) = (  0.8748520  0.3997380  0.5122090  )
         5           In  tau(   5) = (  0.5000000  0.5164430  0.0164430  )
         6           In  tau(   6) = (  1.0000000  0.0164430  0.0164430  )
         7           Ga  tau(   7) = (  0.1847690  0.2618500  0.9466190  )
         8           Ga  tau(   8) = (  0.8152310  0.7618500  0.0770810  )
         9           O   tau(   9) = (  0.7605290  0.2764590  0.0156780  )
        10           O   tau(  10) = (  0.2394710  0.2551480  0.5159300  )
        11           O   tau(  11) = (  0.2392180  0.7551480  0.0156780  )
        12           O   tau(  12) = (  0.7607820  0.7764590  0.5159300  )
        13           O   tau(  13) = (  0.4238460  0.3649560  0.0812880  )
        14           O   tau(  14) = (  0.5761540  0.6574410  0.9411090  )
        15           O   tau(  15) = (  0.2163320  0.1574410  0.0812880  )
        16           O   tau(  16) = (  0.7836680  0.8649560  0.9411090  )
        17           O   tau(  17) = (  0.9901950  0.5032070  0.9934020  )
        18           O   tau(  18) = (  0.0098050  0.0032070  0.5130120  )

     number of k points=     1  Methfessel-Paxton smearing, width (Ry)=  0.0010
                       cart. coord. in units 2pi/alat
        k(    1) = (   0.0000000   0.0000000   0.0000000), wk =   2.0000000

                       cryst. coord.
        k(    1) = (   0.0000000   0.0000000   0.0000000), wk =   2.0000000

     Check: negative core charge=   -0.000008

     Initial potential from superposition of free atoms

     starting charge     151.9186, renormalised to     152.0000
     Starting wfcs are   96 randomized atomic wfcs
     Checking if some PAW data can be deallocated...

     Self-consistent Calculation

     iteration #  1     ecut=    30.00 Ry     beta= 0.70
     Davidson diagonalization with overlap

     ethr =  1.00E-02,  avg # of iterations =  6.0

     negative rho (up, down):  1.665E-01 0.000E+00

     total energy              =   -3004.46972005 Ry
     estimated scf accuracy    <       5.44996079 Ry

[...]

     negative rho (up, down):  3.000E-02 0.000E+00

[...]

     total energy              =   -3007.06589220 Ry
     estimated scf accuracy    <       0.00000139 Ry

     iteration # 17     ecut=    30.00 Ry     beta= 0.70
     Davidson diagonalization with overlap

     ethr =  9.17E-10,  avg # of iterations =  2.0

     End of self-consistent calculation

          k = 0.0000 0.0000 0.0000 (  2755 PWs)   bands (ev):

   -17.3037 -17.2085 -17.2072 -17.1723  -9.3640  -8.9375  -8.4525  -8.3955
    -8.2946  -8.2648  -8.2024  -7.9742  -7.6579  -7.6000  -5.3760  -5.2048
    -5.1419  -5.0961  -5.0604  -5.0065  -4.9656  -4.8731  -4.7962  -4.7252
    -4.6289  -4.5244  -4.5213  -4.4802  -4.4800  -4.4511  -4.3963  -4.3473
    -4.0136  -3.1979  -2.7307  -2.5458  -2.4937  -2.4690  -2.4606  -2.4491
    -2.4268  -2.3930  -2.3544  -2.2529  -2.2303  -2.2103   1.6705   2.4375
     4.1269   4.6374   4.7477   5.2417   5.2500   5.2580   6.0174   6.4400
     6.5754   6.5858   6.9289   6.9669   6.9715   7.0219   7.2227   7.4112
     7.4405   7.5608   7.6408   7.6860   7.6934   7.8519   7.8715   7.9150
     8.0620   8.1558   8.3197   8.7624   9.7943  12.0709  12.7026  12.8559
    13.2726  13.5235  13.7939  13.9161  14.1139  14.2796  14.2848  15.0109
    15.1534  15.4069  15.5432

     occupation numbers
     1.0000   1.0000   1.0000   1.0000   1.0000   1.0000   1.0000   1.0000
     1.0000   1.0000   1.0000   1.0000   1.0000   1.0000   1.0000   1.0000
     1.0000   1.0000   1.0000   1.0000   1.0000   1.0000   1.0000   1.0000
     1.0000   1.0000   1.0000   1.0000   1.0000   1.0000   1.0000   1.0000
     1.0000   1.0000   1.0000   1.0000   1.0000   1.0000   1.0000   1.0000
     1.0000   1.0000   1.0000   1.0000   1.0000   1.0000   1.0000   1.0000
     1.0000   1.0000   1.0000   1.0000   1.0000   1.0000   1.0000   1.0000
     1.0000   1.0000   1.0000   1.0000   1.0000   1.0000   1.0000   1.0000
     1.0000   1.0000   1.0000   1.0000   1.0000   1.0000   1.0000   1.0000
     1.0000   1.0000   1.0000   1.0000  -0.0000  -0.0000  -0.0000  -0.0000
    -0.0000  -0.0000  -0.0000  -0.0000  -0.0000  -0.0000  -0.0000  -0.0000
    -0.0000  -0.0000  -0.0000

     the Fermi energy is     9.4695 ev

!    total energy              =   -3007.06589221 Ry
     estimated scf accuracy    <       0.00000049 Ry
     smearing contrib. (-TS)   =       0.00000000 Ry
     internal energy E=F+TS    =   -3007.06589221 Ry

     The total energy is F=E-TS. E is the sum of the following terms:
     one-electron contribution =    -472.21620306 Ry
     hartree contribution      =     359.23937022 Ry
     xc contribution           =    -328.36028346 Ry
     ewald contribution        =    -748.62059536 Ry
     one-center paw contrib.   =   -1817.10818054 Ry
      -> PAW hartree energy AE =      28.85981982 Ry
      -> PAW hartree energy PS =     -28.74565158 Ry
      -> PAW xc energy AE      =    -394.25750414 Ry
      -> PAW xc energy PS      =      19.18325519 Ry
      -> total E_H with PAW    =     359.35353846 Ry
      -> total E_XC with PAW   =    -703.43453242 Ry

     convergence has been achieved in  17 iterations

     Forces acting on atoms (cartesian axes, Ry/au):

     atom    1 type  1   force =     0.02607405    0.02288158   -0.00551302
     atom    2 type  1   force =    -0.02691115   -0.02131865    0.00735164
     atom    3 type  1   force =    -0.03331263   -0.00966877   -0.00553983
     atom    4 type  1   force =     0.03246032    0.01122476    0.00737734
     atom    5 type  2   force =     0.00007725   -0.00000207   -0.00009322
     atom    6 type  2   force =     0.00009722   -0.00006833   -0.00007158
     atom    7 type  3   force =     0.00836965   -0.01562129    0.01821732
     atom    8 type  3   force =    -0.00914556    0.01654192   -0.01703468
     atom    9 type  4   force =     0.01898527    0.01100144   -0.00100258
     atom   10 type  4   force =    -0.01871076   -0.01141966    0.00033312
     atom   11 type  4   force =    -0.01937575   -0.01019750   -0.00101621
     atom   12 type  4   force =     0.01973593    0.00964254    0.00050020
     atom   13 type  4   force =     0.05222355   -0.00664914    0.03007178
     atom   14 type  4   force =    -0.05223975    0.00679348   -0.02991422
     atom   15 type  4   force =    -0.02247997   -0.04753826    0.03007481
     atom   16 type  4   force =     0.02245091    0.04769237   -0.02992882
     atom   17 type  4   force =    -0.00363531    0.00654540   -0.01095756
     atom   18 type  4   force =     0.00533674   -0.00983982    0.00714550
     The non-local contrib.  to forces
     atom    1 type  1   force =    -0.04149743   -0.03560566    0.00353328
     atom    2 type  1   force =     0.04542482    0.02930217   -0.01138181
     atom    3 type  1   force =     0.05268317    0.01533364    0.00361895
     atom    4 type  1   force =    -0.04864589   -0.02220852   -0.01115296
     atom    5 type  2   force =     0.00153423   -0.00278600   -0.00325801
     atom    6 type  2   force =     0.00153724   -0.00276615   -0.00329488
     atom    7 type  3   force =    -0.03553894    0.06476034   -0.05954857
     atom    8 type  3   force =     0.02968818   -0.05427040    0.07196195
     atom    9 type  4   force =    -0.08583242   -0.05554396   -0.00079032
     atom   10 type  4   force =     0.08969165    0.04833353   -0.00772101
     atom   11 type  4   force =     0.09309637    0.04217105   -0.00092236
     atom   12 type  4   force =    -0.08920007   -0.04944988   -0.00752202
     atom   13 type  4   force =    -0.62968491    0.19520020   -0.41482847
     atom   14 type  4   force =     0.60875528   -0.15702500    0.46015018
     atom   15 type  4   force =     0.17460282    0.63579578   -0.41502589
     atom   16 type  4   force =    -0.19567756   -0.59734670    0.46006830
     atom   17 type  4   force =     0.02109701   -0.03839922    0.07530662
     atom   18 type  4   force =    -0.03677086    0.06728485   -0.04133398
     The ionic contribution  to forces
     atom    1 type  1   force =    -2.96385336   -3.72099655    1.20619133
     atom    2 type  1   force =     3.24020745    3.21635677   -1.80039227
     atom    3 type  1   force =     4.73149014    0.49285328    1.20618986
     atom    4 type  1   force =    -4.45512808   -0.99745776   -1.80043369
     atom    5 type  2   force =    -0.06854607    0.12530368    0.14748361
     atom    6 type  2   force =    -0.06853285    0.12527972    0.14748257
     atom    7 type  3   force =     2.12159107   -3.87475638    5.05673358
     atom    8 type  3   force =    -2.49582733    4.55799131   -4.25216851
     atom    9 type  4   force =     0.46506094    0.21378793    0.07414715
     atom   10 type  4   force =    -0.48401006   -0.17923723   -0.03343982
     atom   11 type  4   force =    -0.43063329   -0.27670452    0.07408363
     atom   12 type  4   force =     0.41176296    0.31120510   -0.03346122
     atom   13 type  4   force =     3.55341785   -2.70148354    4.11697731
     atom   14 type  4   force =    -3.63511834    2.85066136   -3.94130867
     atom   15 type  4   force =     0.36222423   -4.44889743    4.11691900
     atom   16 type  4   force =    -0.44391910    4.59806560   -3.94125127
     atom   17 type  4   force =    -0.09418196    0.17192494   -0.52282365
     atom   18 type  4   force =     0.25399582   -0.46389627    0.17907105
     The local contribution  to forces
     atom    1 type  1   force =     3.03010011    3.77648062   -1.21374840
     atom    2 type  1   force =    -3.31101365   -3.26439084    1.81725590
     atom    3 type  1   force =    -4.81428725   -0.51838095   -1.21390592
     atom    4 type  1   force =     4.53318219    1.03103911    1.81702438
     atom    5 type  2   force =     0.06704108   -0.12287905   -0.14450395
     atom    6 type  2   force =     0.06703370   -0.12277816   -0.14449510
     atom    7 type  3   force =    -2.07886353    3.79723221   -4.98221407
     atom    8 type  3   force =     2.45889032   -4.49020763    4.16598595
     atom    9 type  4   force =    -0.36149713   -0.14801487   -0.07435099
     atom   10 type  4   force =     0.37681268    0.12015885    0.04140898
     atom   11 type  4   force =     0.31940037    0.22490210   -0.07415463
     atom   12 type  4   force =    -0.30413847   -0.25280525    0.04139187
     atom   13 type  4   force =    -2.87793941    2.50258102   -3.67695316
     atom   14 type  4   force =     2.98028963   -2.68925148    3.45672448
     atom   15 type  4   force =    -0.55827530    3.77255831   -3.67666105
     atom   16 type  4   force =     0.66075251   -3.95951033    3.45673304
     atom   17 type  4   force =     0.06972111   -0.12743569    0.43756207
     atom   18 type  4   force =    -0.21236007    0.38766265   -0.13110328
     The core correction contribution to forces
     atom    1 type  1   force =     0.00181127    0.00332793   -0.00154563
     atom    2 type  1   force =    -0.00202792   -0.00294933    0.00199686
     atom    3 type  1   force =    -0.00378569    0.00027016   -0.00155092
     atom    4 type  1   force =     0.00356738    0.00011853    0.00199980
     atom    5 type  2   force =    -0.00010157    0.00019212    0.00021743
     atom    6 type  2   force =    -0.00010068    0.00018509    0.00022270
     atom    7 type  3   force =     0.00127597   -0.00233742    0.00300254
     atom    8 type  3   force =    -0.00148644    0.00270738   -0.00256441
     atom    9 type  4   force =     0.00116754    0.00073780   -0.00000677
     atom   10 type  4   force =    -0.00120095   -0.00067411    0.00009168
     atom   11 type  4   force =    -0.00125265   -0.00058052   -0.00001163
     atom   12 type  4   force =     0.00121408    0.00065370    0.00008622
     atom   13 type  4   force =     0.00673335   -0.00274428    0.00486429
     atom   14 type  4   force =    -0.00644596    0.00222105   -0.00548519
     atom   15 type  4   force =    -0.00131177   -0.00715469    0.00486433
     atom   16 type  4   force =     0.00160088    0.00662806   -0.00548196
     atom   17 type  4   force =    -0.00025555    0.00047216   -0.00098490
     atom   18 type  4   force =     0.00048328   -0.00087743    0.00050433
     The Hubbard contrib.    to forces
     atom    1 type  1   force =     0.00000000    0.00000000    0.00000000
     atom    2 type  1   force =     0.00000000    0.00000000    0.00000000
     atom    3 type  1   force =     0.00000000    0.00000000    0.00000000
     atom    4 type  1   force =     0.00000000    0.00000000    0.00000000
     atom    5 type  2   force =     0.00000000    0.00000000    0.00000000
     atom    6 type  2   force =     0.00000000    0.00000000    0.00000000
     atom    7 type  3   force =     0.00000000    0.00000000    0.00000000
     atom    8 type  3   force =     0.00000000    0.00000000    0.00000000
     atom    9 type  4   force =     0.00000000    0.00000000    0.00000000
     atom   10 type  4   force =     0.00000000    0.00000000    0.00000000
     atom   11 type  4   force =     0.00000000    0.00000000    0.00000000
     atom   12 type  4   force =     0.00000000    0.00000000    0.00000000
     atom   13 type  4   force =     0.00000000    0.00000000    0.00000000
     atom   14 type  4   force =     0.00000000    0.00000000    0.00000000
     atom   15 type  4   force =     0.00000000    0.00000000    0.00000000
     atom   16 type  4   force =     0.00000000    0.00000000    0.00000000
     atom   17 type  4   force =     0.00000000    0.00000000    0.00000000
     atom   18 type  4   force =     0.00000000    0.00000000    0.00000000
     The SCF correction term to forces
     atom    1 type  1   force =    -0.00049826   -0.00032738    0.00005849
     atom    2 type  1   force =     0.00048645    0.00035996   -0.00012496
     atom    3 type  1   force =     0.00057529    0.00025247    0.00011028
     atom    4 type  1   force =    -0.00052699   -0.00026922   -0.00005811
     atom    5 type  2   force =     0.00013787    0.00016455   -0.00003021
     atom    6 type  2   force =     0.00014810    0.00000855    0.00001522
     atom    7 type  3   force =    -0.00010663   -0.00052267    0.00024591
     atom    8 type  3   force =    -0.00042201    0.00031865   -0.00024757
     atom    9 type  4   force =     0.00007464    0.00003192    0.00000043
     atom   10 type  4   force =    -0.00001579   -0.00000332   -0.00000462
     atom   11 type  4   force =     0.00000174    0.00001177   -0.00000914
     atom   12 type  4   force =     0.00008573    0.00003626    0.00000743
     atom   13 type  4   force =    -0.00031503   -0.00020516    0.00001390
     atom   14 type  4   force =     0.00026793    0.00018492    0.00000707
     atom   15 type  4   force =     0.00026835    0.00015714   -0.00001950
     atom   16 type  4   force =    -0.00031753   -0.00014689    0.00000516
     atom   17 type  4   force =    -0.00002763   -0.00001942   -0.00001563
     atom   18 type  4   force =    -0.00002315   -0.00001625    0.00000946

     Total force =     0.152304     Total SCF correction =     0.001656

     Computing stress (Cartesian axis) and pressure

          total   stress  (Ry/bohr**3)                   (kbar)     P=     -197.14
  -0.00147666  -0.00013168  -0.00002357         -217.22      -19.37       -3.47
  -0.00013168  -0.00130968   0.00004174          -19.37     -192.66        6.14
  -0.00002357   0.00004174  -0.00123404           -3.47        6.14     -181.53

     kinetic stress (kbar)  16331.48   -103.40    -17.78
                             -103.40  16463.19     32.00
                              -17.78     32.00  16522.28

     local   stress (kbar)  -6577.58   -253.77    728.05
                             -253.77  -6253.06  -1329.64
                              728.05  -1329.64  -6211.85

     nonloc. stress (kbar)   4451.52      9.77     -3.78
                                9.77   4439.31      7.16
                               -3.78      7.16   4434.42

     hartree stress (kbar)   9106.14    257.05   -371.57
                              257.05   8777.45    678.61
                             -371.57    678.61   8686.55

     exc-cor stress (kbar)   5477.77     -0.66      0.51
                               -0.66   5478.61     -0.93
                                0.51     -0.93   5478.91

     corecor stress (kbar) -10608.00      0.92      0.42
                                0.92 -10609.17     -0.75
                                0.42     -0.75 -10609.73

     ewald   stress (kbar) -18398.55     70.71   -339.32
                               70.71 -18488.98    619.69
                             -339.32    619.69 -18482.11

     hubbard stress (kbar)      0.00      0.00      0.00
                                0.00      0.00      0.00
                                0.00      0.00      0.00

     DFT-D   stress (kbar)      0.00      0.00      0.00
                                0.00      0.00      0.00
                                0.00      0.00      0.00

     XDM     stress (kbar)      0.00      0.00      0.00
                                0.00      0.00      0.00
                                0.00      0.00      0.00

     dft-nl  stress (kbar)      0.00      0.00      0.00
                                0.00      0.00      0.00
                                0.00      0.00      0.00

     TS-vdW  stress (kbar)      0.00      0.00      0.00
                                0.00      0.00      0.00
                                0.00      0.00      0.00

[...]

                                0.00      0.00      0.00

     Writing all to output data dir calculations/myprefix.save/

     General routines

     Parallel routines

     PAW routines

   This run was terminated on:   2:35:11   6Mar2023

   JOB DONE.