     Program PWSCF v.7.0 starts on  3Mar2023 at 12:16:18

     R & G space division:  proc/nbgrp/npool/nimage =      32

     Reading input from espresso_236.pwi
Warning: card &CELL ignored
Warning: card / ignored

     Current dimensions of program PWSCF are:
     Max number of different atomic species (ntypx) = 10
     Max number of k-points (npk) =  40000
     Max angular momentum in pseudopotentials (lmaxx) =  4
     file Mg.pbe-n-kjpaw_psl.0.3.0.UPF: wavefunction(s)  3S renormalized

     gamma-point specific algorithms are used
     Message from routine setup:
     using ibrav=0 with symmetry is DISCOURAGED, use correct ibrav instead

     Using Slab Decomposition

     bravais-lattice index     =            0
     lattice parameter (alat)  =      14.2658  a.u.
     unit-cell volume          =     685.1560 (a.u.)^3
     number of atoms/cell      =            6
     number of atomic types    =            2
     number of electrons       =        84.00
     number of Kohn-Sham states=           50
     kinetic-energy cutoff     =      30.0000  Ry
     charge density cutoff     =     240.0000  Ry
     scf convergence threshold =      1.0E-06
     mixing beta               =       0.7000
     number of iterations used =            8  plain     mixing
     Exchange-correlation= SLA  PW   PBE  PBE
                           (   1   4   3   4   0   0   0)

     celldm(1)=  14.265805  celldm(2)=   0.000000  celldm(3)=   0.000000
     celldm(4)=   0.000000  celldm(5)=   0.000000  celldm(6)=   0.000000

     crystal axes: (cart. coord. in units of alat)
               a(1) = (   1.000000   0.000000   0.000000 )
               a(2) = (  -0.923435   0.383755   0.000000 )
               a(3) = (   0.000000   0.000000   0.614960 )

     reciprocal axes: (cart. coord. in units 2 pi/alat)
               b(1) = (  1.000000  2.406315  0.000000 )
               b(2) = (  0.000000  2.605830  0.000000 )
               b(3) = (  0.000000  0.000000  1.626123 )

     PseudoPot. # 1 for Mg read from file:
     /home/pragov/projects/rrg-bengioy-ad/pragov/crystal_structure_design/SSSP/Mg.pbe-n-kjpaw_psl.0.3.0.UPF
     MD5 check sum: 24ecedc7f3e3cbe212e682f4413594e4
     Pseudo is Projector augmented-wave + core cor, Zval =  2.0
     Generated using "atomic" code by A. Dal Corso  v.5.0.99 svn rev. 10869
     Shape of augmentation charge: PSQ
     Using radial grid of 1129 points,  4 beta functions with:
                l(1) =   0
                l(2) =   0
                l(3) =   1
                l(4) =   1
     Q(r) pseudized with 0 coefficients

     PseudoPot. # 2 for Zn read from file:
     /home/pragov/projects/rrg-bengioy-ad/pragov/crystal_structure_design/SSSP/Zn_pbe_v1.uspp.F.UPF
     MD5 check sum: df62231357ef9e81f77b2b3087fa5675
     Pseudo is Ultrasoft, Zval = 20.0
     Generated by new atomic code, or converted to UPF format
     Using radial grid of  943 points,  6 beta functions with:
                l(1) =   0
                l(2) =   0
                l(3) =   1
                l(4) =   1
                l(5) =   2
                l(6) =   2
     Q(r) pseudized with  8 coefficients,  rinner =    1.100   1.100   1.100
                                                       1.100   1.100

     atomic species   valence    mass     pseudopotential
        Mg             2.00    24.30500     Mg( 1.00)
        Zn            20.00    65.38000     Zn( 1.00)

      4 Sym. Ops., with inversion, found ( 2 have fractional translation)

                                    s                        frac. trans.

      isym =  1     identity

 cryst.   s( 1) = (     1          0          0      )
                  (     0          1          0      )
                  (     0          0          1      )

 cart.    s( 1) = (  1.0000000  0.0000000  0.0000000 )
                  (  0.0000000  1.0000000  0.0000000 )
                  (  0.0000000  0.0000000  1.0000000 )

      isym =  2     180 deg rotation - cart. axis [0,0,1]

 cryst.   s( 2) = (    -1          0          0      )    f =(  0.0000000 )
                  (     0         -1          0      )       (  0.0000000 )
                  (     0          0          1      )       ( -0.5000000 )

 cart.    s( 2) = ( -1.0000000 -0.0000000  0.0000000 )    f =(  0.0000000 )
                  (  0.0000000 -1.0000000  0.0000000 )       (  0.0000000 )
                  (  0.0000000  0.0000000  1.0000000 )       ( -0.3074799 )

      isym =  3     inversion

 cryst.   s( 3) = (    -1          0          0      )
                  (     0         -1          0      )
                  (     0          0         -1      )

 cart.    s( 3) = ( -1.0000000 -0.0000000  0.0000000 )
                  (  0.0000000 -1.0000000  0.0000000 )
                  (  0.0000000  0.0000000 -1.0000000 )

      isym =  4     inv. 180 deg rotation - cart. axis [0,0,1]

 cryst.   s( 4) = (     1          0          0      )    f =(  0.0000000 )
                  (     0          1          0      )       (  0.0000000 )
                  (     0          0         -1      )       (  0.5000000 )

 cart.    s( 4) = (  1.0000000  0.0000000  0.0000000 )    f =(  0.0000000 )
                  (  0.0000000  1.0000000  0.0000000 )       (  0.0000000 )
                  (  0.0000000  0.0000000 -1.0000000 )       (  0.3074799 )

   Cartesian axes

     site n.     atom                  positions (alat units)
         1           Mg  tau(   1) = (  -0.0802376   0.2155240   0.1537399  )
         2           Mg  tau(   2) = (   0.1568026   0.1682308   0.4612198  )
         3           Zn  tau(   3) = (  -0.6978719   0.3387515   0.1537399  )
         4           Zn  tau(   4) = (   0.5622050   0.0873468   0.1537399  )
         5           Zn  tau(   5) = (  -0.4856400   0.2964080   0.4612198  )
         6           Zn  tau(   6) = (   0.7744369   0.0450033   0.4612198  )

   Crystallographic axes

     site n.     atom                  positions (cryst. coord.)
         1           Mg  tau(   1) = (  0.4383810  0.5616190  0.2500000  )
         2           Mg  tau(   2) = (  0.5616190  0.4383810  0.7500000  )
         3           Zn  tau(   3) = (  0.1172710  0.8827290  0.2500000  )
         4           Zn  tau(   4) = (  0.7723890  0.2276110  0.2500000  )
         5           Zn  tau(   5) = (  0.2276110  0.7723890  0.7500000  )
         6           Zn  tau(   6) = (  0.8827290  0.1172710  0.7500000  )

     number of k points=     1  Methfessel-Paxton smearing, width (Ry)=  0.0010
                       cart. coord. in units 2pi/alat
        k(    1) = (   0.0000000   0.0000000   0.0000000), wk =   2.0000000

                       cryst. coord.
        k(    1) = (   0.0000000   0.0000000   0.0000000), wk =   2.0000000

     Initial potential from superposition of free atoms

     starting charge      83.9976, renormalised to      84.0000
     Starting wfcs are   60 randomized atomic wfcs
     Checking if some PAW data can be deallocated...

     Self-consistent Calculation

     iteration #  1     ecut=    30.00 Ry     beta= 0.70
     Davidson diagonalization with overlap

     ethr =  1.00E-02,  avg # of iterations =  2.0

     Threshold (ethr) on eigenvalues was too large:
     Diagonalizing with lowered threshold

     Davidson diagonalization with overlap

[...]

     total energy              =   -1913.46405653 Ry
     estimated scf accuracy    <       0.31023570 Ry

[...]

     total energy              =   -1913.63643866 Ry
     estimated scf accuracy    <       0.00000884 Ry

     iteration # 15     ecut=    30.00 Ry     beta= 0.70
     Davidson diagonalization with overlap

     ethr =  1.05E-08,  avg # of iterations = 11.0

     End of self-consistent calculation

          k = 0.0000 0.0000 0.0000 (   948 PWs)   bands (ev):

  -116.7727-116.7720-116.4971-116.4929 -70.8669 -70.8659 -70.8621 -70.8605
   -70.8252 -70.8224 -70.6238 -70.6150 -70.5931 -70.5843 -70.5611 -70.5418
     0.4512   1.9662   2.0436   2.0670   2.1436   2.2574   2.3198   2.3506
     2.4298   2.4656   2.4774   2.4819   2.6063   2.6883   2.6927   2.7091
     2.7654   2.8115   2.9038   2.9133   3.1359   3.5929   3.8747   7.4649
     8.5224  10.4661  10.4665  10.8536  10.8587  12.3971  12.5598  17.2756
    17.8678  17.8745

     occupation numbers
     1.0000   1.0000   1.0000   1.0000   1.0000   1.0000   1.0000   1.0000
     1.0000   1.0000   1.0000   1.0000   1.0000   1.0000   1.0000   1.0000
     1.0000   1.0000   1.0000   1.0000   1.0000   1.0000   1.0000   1.0000
     1.0000   1.0000   1.0000   1.0000   1.0000   1.0000   1.0000   1.0000
     1.0000   1.0000   1.0000   1.0000   1.0000   1.0000   1.0000   1.0000
     1.0000   0.5110   0.4890  -0.0000  -0.0000  -0.0000  -0.0000  -0.0000
    -0.0000  -0.0000

     the Fermi energy is    10.4663 ev

!    total energy              =   -1913.63643856 Ry
     estimated scf accuracy    <       0.00000032 Ry
     smearing contrib. (-TS)   =      -0.00056390 Ry
     internal energy E=F+TS    =   -1913.63587465 Ry

     The total energy is F=E-TS. E is the sum of the following terms:
     one-electron contribution =   -1953.18675926 Ry
     hartree contribution      =     997.70171829 Ry
     xc contribution           =    -171.86959207 Ry
     ewald contribution        =    -723.69318502 Ry
     one-center paw contrib.   =     -62.58805660 Ry
      -> PAW hartree energy AE =       0.83438316 Ry
      -> PAW hartree energy PS =      -0.83246786 Ry
      -> PAW xc energy AE      =     -32.63340767 Ry
      -> PAW xc energy PS      =       1.33746407 Ry
      -> total E_H with PAW    =     997.70363359 Ry
      -> total E_XC with PAW   =    -203.16553566 Ry

     convergence has been achieved in  15 iterations

     Forces acting on atoms (cartesian axes, Ry/au):

     atom    1 type  1   force =    -0.00856806    0.00170953    0.00000000
     atom    2 type  1   force =     0.00856806   -0.00170953    0.00000000
     atom    3 type  2   force =     0.00218946   -0.00043999    0.00000000
     atom    4 type  2   force =     0.00883271   -0.00176174    0.00000000
     atom    5 type  2   force =    -0.00883271    0.00176174    0.00000000
     atom    6 type  2   force =    -0.00218946    0.00043999    0.00000000
     The non-local contrib.  to forces
     atom    1 type  1   force =     0.02021373   -0.00403307    0.00000000
     atom    2 type  1   force =    -0.02021373    0.00403307    0.00000000
     atom    3 type  2   force =     0.32940648   -0.06572642    0.00000000
     atom    4 type  2   force =     0.02995471   -0.00597547    0.00000000
     atom    5 type  2   force =    -0.02995471    0.00597547    0.00000000
     atom    6 type  2   force =    -0.32940648    0.06572642    0.00000000
     The ionic contribution  to forces
     atom    1 type  1   force =     4.35927676   -0.86974273    0.00000000
     atom    2 type  1   force =    -4.35927676    0.86974273    0.00000000
     atom    3 type  2   force =   -70.41336746   14.04854932   -0.00000000
     atom    4 type  2   force =    27.74951660   -5.53645517   -0.00000000
     atom    5 type  2   force =   -27.74951660    5.53645517    0.00000000
     atom    6 type  2   force =    70.41336746  -14.04854932    0.00000000
     The local contribution  to forces
     atom    1 type  1   force =    -4.38556137    0.87498677   -0.00000293
     atom    2 type  1   force =     4.38556907   -0.87498897    0.00000322
     atom    3 type  2   force =    70.08630992  -13.98329044   -0.00000677
     atom    4 type  2   force =   -27.76785619    5.54011065    0.00001482
     atom    5 type  2   force =    27.76765888   -5.54007537   -0.00001731
     atom    6 type  2   force =   -70.08608544   13.98323957    0.00002049
     The core correction contribution to forces
     atom    1 type  1   force =    -0.00253238    0.00050518    0.00000008
     atom    2 type  1   force =     0.00253344   -0.00050555    0.00000006
     atom    3 type  2   force =     0.00000000    0.00000000    0.00000000
     atom    4 type  2   force =     0.00000000    0.00000000    0.00000000
     atom    5 type  2   force =     0.00000000    0.00000000    0.00000000
     atom    6 type  2   force =     0.00000000    0.00000000    0.00000000
     The Hubbard contrib.    to forces
     atom    1 type  1   force =     0.00000000    0.00000000    0.00000000
     atom    2 type  1   force =     0.00000000    0.00000000    0.00000000
     atom    3 type  2   force =     0.00000000    0.00000000    0.00000000
     atom    4 type  2   force =     0.00000000    0.00000000    0.00000000
     atom    5 type  2   force =     0.00000000    0.00000000    0.00000000
     atom    6 type  2   force =     0.00000000    0.00000000    0.00000000
     The SCF correction term to forces
     atom    1 type  1   force =     0.00003914   -0.00000781    0.00000110
     atom    2 type  1   force =    -0.00004003    0.00000800   -0.00000094
     atom    3 type  2   force =    -0.00017956    0.00003154    0.00000644
     atom    4 type  2   force =    -0.00273553    0.00054847   -0.00001154
     atom    5 type  2   force =     0.00302661   -0.00060331    0.00001456
     atom    6 type  2   force =    -0.00008509    0.00002728   -0.00002466

     Total force =     0.018025     Total SCF correction =     0.004166
     SCF correction compared to forces is large: reduce conv_thr to get better values

     Computing stress (Cartesian axis) and pressure

          total   stress  (Ry/bohr**3)                   (kbar)     P=     -480.70
  -0.00316216  -0.00087448   0.00000000         -465.17     -128.64        0.00
  -0.00087448  -0.00737076   0.00000000         -128.64    -1084.28        0.00
   0.00000000   0.00000000   0.00072972            0.00        0.00      107.35

     kinetic stress (kbar)  23295.36   -102.52      0.00
                             -102.52  22801.99      0.00
                                0.00      0.00  23999.41

     local   stress (kbar)  58467.12 -28228.99     -0.03
                           -28228.99 -77388.57      0.01
                               -0.03      0.01 -68392.90

     nonloc. stress (kbar)  -2543.85    -30.85      0.00
                              -30.85  -2692.30      0.00
                                0.00      0.00  -2590.70

     hartree stress (kbar)  28310.33  13907.17      0.02
                            13907.17  95240.38     -0.01
                                0.02     -0.01  90658.88

     exc-cor stress (kbar) -11426.32     -0.39      0.00
                               -0.39 -11428.19     -0.00
                                0.00     -0.00 -11424.76

     corecor stress (kbar)   -317.31      0.38     -0.00
                                0.38   -315.45      0.00
                               -0.00      0.00   -316.09

     ewald   stress (kbar) -96250.50  14326.55     -0.00
                            14326.55 -27302.13      0.00
                               -0.00      0.00 -31826.50

     hubbard stress (kbar)      0.00      0.00      0.00
                                0.00      0.00      0.00
                                0.00      0.00      0.00

     DFT-D   stress (kbar)      0.00      0.00      0.00
                                0.00      0.00      0.00
                                0.00      0.00      0.00

     XDM     stress (kbar)      0.00      0.00      0.00
                                0.00      0.00      0.00
                                0.00      0.00      0.00

     dft-nl  stress (kbar)      0.00      0.00      0.00
                                0.00      0.00      0.00
                                0.00      0.00      0.00

     TS-vdW  stress (kbar)      0.00      0.00      0.00
                                0.00      0.00      0.00
                                0.00      0.00      0.00

[...]

                                0.00      0.00      0.00

     Writing all to output data dir calculations/myprefix.save/

     General routines

     Parallel routines

     PAW routines

   This run was terminated on:  12:16:20   3Mar2023

   JOB DONE.