     Program PWSCF v.7.0 starts on  4Mar2023 at 22:53:56

     R & G space division:  proc/nbgrp/npool/nimage =      32

     Reading input from espresso_7991.pwi
Warning: card &CELL ignored
Warning: card / ignored

     Current dimensions of program PWSCF are:
     Max number of different atomic species (ntypx) = 10
     Max number of k-points (npk) =  40000
     Max angular momentum in pseudopotentials (lmaxx) =  4
     file Ga.pbe-dn-kjpaw_psl.1.0.0.UPF: wavefunction(s)  4S renormalized
     file C.pbe-n-kjpaw_psl.1.0.0.UPF: wavefunction(s)  2S 2P renormalized

     gamma-point specific algorithms are used
     Message from routine setup:
     using ibrav=0 with symmetry is DISCOURAGED, use correct ibrav instead

     Using Slab Decomposition

     bravais-lattice index     =            0
     lattice parameter (alat)  =       9.2043  a.u.
     unit-cell volume          =     779.7905 (a.u.)^3
     number of atoms/cell      =            5
     number of atomic types    =            3
     number of electrons       =        50.00
     number of Kohn-Sham states=           30
     kinetic-energy cutoff     =      30.0000  Ry
     charge density cutoff     =     240.0000  Ry
     scf convergence threshold =      1.0E-06
     mixing beta               =       0.7000
     number of iterations used =            8  plain     mixing
     Exchange-correlation= SLA  PW   PBX  PBC
                           (   1   4   3   4   0   0   0)

     celldm(1)=   9.204340  celldm(2)=   0.000000  celldm(3)=   0.000000
     celldm(4)=   0.000000  celldm(5)=   0.000000  celldm(6)=   0.000000

     crystal axes: (cart. coord. in units of alat)
               a(1) = (   1.000000   0.000000   0.000000 )
               a(2) = (   0.000000   1.000000   0.000000 )
               a(3) = (   0.000000   0.000000   1.000000 )

     reciprocal axes: (cart. coord. in units 2 pi/alat)
               b(1) = (  1.000000  0.000000  0.000000 )
               b(2) = (  0.000000  1.000000  0.000000 )
               b(3) = (  0.000000  0.000000  1.000000 )

     PseudoPot. # 1 for Y  read from file:
     /home/pragov/projects/rrg-bengioy-ad/pragov/crystal_structure_design/SSSP/Y_pbe_v1.uspp.F.UPF
     MD5 check sum: 2cf71db95cafeb975fc457bd7f14888e
     Pseudo is Ultrasoft + core correction, Zval = 11.0
     Generated by new atomic code, or converted to UPF format
     Using radial grid of  885 points,  6 beta functions with:
                l(1) =   0
                l(2) =   0
                l(3) =   1
                l(4) =   1
                l(5) =   2
                l(6) =   2
     Q(r) pseudized with  6 coefficients,  rinner =    1.200   1.200   1.200
                                                       1.200   1.200

     PseudoPot. # 2 for Ga read from file:
     /home/pragov/projects/rrg-bengioy-ad/pragov/crystal_structure_design/SSSP/Ga.pbe-dn-kjpaw_psl.1.0.0.UPF
     MD5 check sum: a27b4342b1af7e5f338de752e9ed7044
     Pseudo is Projector augmented-wave + core cor, Zval = 13.0
     Generated using "atomic" code by A. Dal Corso  v.5.1
     Shape of augmentation charge: PSQ
     Using radial grid of 1205 points,  6 beta functions with:
                l(1) =   0
                l(2) =   0
                l(3) =   1
                l(4) =   1
                l(5) =   2
                l(6) =   2
     Q(r) pseudized with 0 coefficients

     PseudoPot. # 3 for C  read from file:
     /home/pragov/projects/rrg-bengioy-ad/pragov/crystal_structure_design/SSSP/C.pbe-n-kjpaw_psl.1.0.0.UPF
     MD5 check sum: 5d2aebdfa2cae82b50a7e79e9516da0f
     Pseudo is Projector augmented-wave + core cor, Zval =  4.0
     Generated using "atomic" code by A. Dal Corso  v.5.1
     Shape of augmentation charge: PSQ
     Using radial grid of 1073 points,  4 beta functions with:
                l(1) =   0
                l(2) =   0
                l(3) =   1
                l(4) =   1
     Q(r) pseudized with 0 coefficients

     atomic species   valence    mass     pseudopotential
        Y             11.00    88.90584     Y ( 1.00)
        Ga            13.00    69.72300     Ga( 1.00)
        C              4.00    12.01100     C ( 1.00)

     48 Sym. Ops., with inversion, found

                                    s                        frac. trans.

      isym =  1     identity

 cryst.   s( 1) = (     1          0          0      )
                  (     0          1          0      )
                  (     0          0          1      )

 cart.    s( 1) = (  1.0000000  0.0000000  0.0000000 )
                  (  0.0000000  1.0000000  0.0000000 )
                  (  0.0000000  0.0000000  1.0000000 )

      isym =  2     180 deg rotation - cart. axis [0,0,1]

[...]

 cryst.   s( 9) = (     0          0          1      )
                  (     0         -1          0      )
                  (     1          0          0      )

 cart.    s( 9) = (  0.0000000  0.0000000  1.0000000 )
                  (  0.0000000 -1.0000000  0.0000000 )
                  (  1.0000000  0.0000000  0.0000000 )

[...]

 cryst.   s(10) = (     0          0         -1      )
                  (     0         -1          0      )
                  (    -1          0          0      )

 cart.    s(10) = (  0.0000000  0.0000000 -1.0000000 )
                  (  0.0000000 -1.0000000  0.0000000 )
                  ( -1.0000000  0.0000000  0.0000000 )

[...]

      isym = 24     120 deg rotation - cart. axis [-1,-1,1]

[...]

      isym = 25     inversion

[...]

      isym = 26     inv. 180 deg rotation - cart. axis [0,0,1]

[...]

      isym = 48     inv. 120 deg rotation - cart. axis [-1,-1,1]

 cryst.   s(48) = (     0         -1          0      )
                  (     0          0          1      )
                  (     1          0          0      )

 cart.    s(48) = (  0.0000000  0.0000000  1.0000000 )
                  ( -1.0000000  0.0000000  0.0000000 )
                  (  0.0000000  1.0000000  0.0000000 )

   Cartesian axes

     site n.     atom                  positions (alat units)
         1           Y   tau(   1) = (   0.5000000   0.0000000   0.5000000  )
         2           Y   tau(   2) = (   0.5000000   0.5000000   0.0000000  )
         3           Y   tau(   3) = (   0.0000000   0.5000000   0.5000000  )
         4           Ga  tau(   4) = (   0.0000000   0.0000000   0.0000000  )
         5           C   tau(   5) = (   0.5000000   0.5000000   0.5000000  )

   Crystallographic axes

     site n.     atom                  positions (cryst. coord.)
         1           Y   tau(   1) = (  0.5000000  0.0000000  0.5000000  )
         2           Y   tau(   2) = (  0.5000000  0.5000000  0.0000000  )
         3           Y   tau(   3) = (  0.0000000  0.5000000  0.5000000  )
         4           Ga  tau(   4) = (  0.0000000  0.0000000  0.0000000  )
         5           C   tau(   5) = (  0.5000000  0.5000000  0.5000000  )

     number of k points=     1  Methfessel-Paxton smearing, width (Ry)=  0.0010
                       cart. coord. in units 2pi/alat
        k(    1) = (   0.0000000   0.0000000   0.0000000), wk =   2.0000000

                       cryst. coord.
        k(    1) = (   0.0000000   0.0000000   0.0000000), wk =   2.0000000

     Check: negative core charge=   -0.000010

     Initial potential from superposition of free atoms

     starting charge      49.9836, renormalised to      50.0000

     negative rho (up, down):  1.297E-01 0.000E+00
     Starting wfcs are   52 randomized atomic wfcs
     Checking if some PAW data can be deallocated...

     Self-consistent Calculation

     iteration #  1     ecut=    30.00 Ry     beta= 0.70
     Davidson diagonalization with overlap

     ethr =  1.00E-02,  avg # of iterations =  2.0

     negative rho (up, down):  1.244E-01 0.000E+00

     total energy              =    -555.03888660 Ry
     estimated scf accuracy    <       4.70858406 Ry

[...]

     total energy              =    -558.19342175 Ry
     estimated scf accuracy    <       0.00000436 Ry

     iteration # 30     ecut=    30.00 Ry     beta= 0.70
     Davidson diagonalization with overlap

     ethr =  3.84E-09,  avg # of iterations =  1.0

[...]

     End of self-consistent calculation

          k = 0.0000 0.0000 0.0000 (  1055 PWs)   bands (ev):

   -31.4120 -31.2934 -31.2933 -11.8158 -11.8158 -11.8157 -11.3262 -11.3262
   -11.3262 -11.1970 -11.1970 -11.1969  -6.3837  -6.3837  -6.3837  -6.3698
    -6.3698  -0.2161   2.8759   9.2989   9.2989   9.2990   9.9339   9.9340
    10.2473  10.2473  10.2473  10.9304  10.9304  10.9305

     occupation numbers
     1.0000   1.0000   1.0000   1.0000   1.0000   1.0000   1.0000   1.0000
     1.0000   1.0000   1.0000   1.0000   1.0000   1.0000   1.0000   1.0000
     1.0000   1.0000   1.0000   1.0000   1.0000   1.0000   1.0000   1.0000
     0.3344   0.3333   0.3324  -0.0000  -0.0000  -0.0000

     the Fermi energy is    10.2446 ev

!    total energy              =    -558.19342169 Ry
     estimated scf accuracy    <       0.00000020 Ry
     smearing contrib. (-TS)   =      -0.00074672 Ry
     internal energy E=F+TS    =    -558.19267497 Ry

     The total energy is F=E-TS. E is the sum of the following terms:
     one-electron contribution =    -155.85163373 Ry
     hartree contribution      =     104.36281714 Ry
     xc contribution           =    -108.64111443 Ry
     ewald contribution        =    -280.98490255 Ry
     one-center paw contrib.   =    -117.07784140 Ry
      -> PAW hartree energy AE =       0.00000000 Ry
      -> PAW hartree energy PS =       0.00000000 Ry
      -> PAW xc energy AE      =       0.00000000 Ry
      -> PAW xc energy PS      =       0.00000000 Ry
      -> total E_H with PAW    =     104.36281714 Ry
      -> total E_XC with PAW   =    -108.64111443 Ry

     convergence has been achieved in  30 iterations

     negative rho (up, down):  1.297E-01 0.000E+00

     Forces acting on atoms (cartesian axes, Ry/au):

     atom    1 type  1   force =     0.00000000    0.00000000    0.00000000
     atom    2 type  1   force =     0.00000000    0.00000000    0.00000000
     atom    3 type  1   force =     0.00000000    0.00000000    0.00000000
     atom    4 type  2   force =     0.00000000    0.00000000    0.00000000
     atom    5 type  3   force =     0.00000000    0.00000000    0.00000000
     The non-local contrib.  to forces
     atom    1 type  1   force =     0.00000000    0.00000000    0.00000000
     atom    2 type  1   force =     0.00000000    0.00000000    0.00000000
     atom    3 type  1   force =     0.00000000    0.00000000    0.00000000
     atom    4 type  2   force =     0.00000000    0.00000000    0.00000000
     atom    5 type  3   force =     0.00000000    0.00000000    0.00000000
     The ionic contribution  to forces
     atom    1 type  1   force =     0.00000000   -0.00000000    0.00000000
     atom    2 type  1   force =     0.00000000    0.00000000   -0.00000000
     atom    3 type  1   force =    -0.00000000    0.00000000    0.00000000
     atom    4 type  2   force =    -0.00000000   -0.00000000   -0.00000000
     atom    5 type  3   force =     0.00000000    0.00000000    0.00000000
     The local contribution  to forces
     atom    1 type  1   force =    -0.00000850   -0.00010904    0.00012805
     atom    2 type  1   force =     0.00001558    0.00007176   -0.00017061
     atom    3 type  1   force =    -0.00002383    0.00009416    0.00013594
     atom    4 type  2   force =    -0.00001719   -0.00012320   -0.00018577
     atom    5 type  3   force =     0.00002535    0.00006259    0.00010589
     The core correction contribution to forces
     atom    1 type  1   force =    -0.00000185   -0.00000021    0.00000008
     atom    2 type  1   force =    -0.00000122   -0.00000040   -0.00000063
     atom    3 type  1   force =     0.00000087    0.00000025    0.00000016
     atom    4 type  2   force =    -0.00000031   -0.00000085   -0.00000126
     atom    5 type  3   force =     0.00000018    0.00000020    0.00000035
     The Hubbard contrib.    to forces
     atom    1 type  1   force =     0.00000000    0.00000000    0.00000000
     atom    2 type  1   force =     0.00000000    0.00000000    0.00000000
     atom    3 type  1   force =     0.00000000    0.00000000    0.00000000
     atom    4 type  2   force =     0.00000000    0.00000000    0.00000000
     atom    5 type  3   force =     0.00000000    0.00000000    0.00000000
     The SCF correction term to forces
     atom    1 type  1   force =     0.00000221    0.00009932   -0.00013341
     atom    2 type  1   force =    -0.00000864   -0.00007590    0.00016122
     atom    3 type  1   force =     0.00002251   -0.00008995   -0.00013442
     atom    4 type  2   force =     0.00003172    0.00014702    0.00021679
     atom    5 type  3   force =    -0.00001413   -0.00004587   -0.00007641

     Total force =     0.000000     Total SCF correction =     0.000405

     Computing stress (Cartesian axis) and pressure

     negative rho (up, down):  1.297E-01 0.000E+00
          total   stress  (Ry/bohr**3)                   (kbar)     P=       91.29
   0.00062059   0.00000000   0.00000000           91.29        0.00        0.00
   0.00000000   0.00062059   0.00000000            0.00       91.29        0.00
   0.00000000   0.00000000   0.00062059            0.00        0.00       91.29

     kinetic stress (kbar)  11197.81      0.00      0.00
                                0.00  11197.81      0.00
                                0.00      0.00  11197.81

     local   stress (kbar)  -4236.26     -0.01     -0.03
                               -0.01  -4237.07      0.02
                               -0.03      0.02  -4237.88

     nonloc. stress (kbar)   8618.64      0.00      0.00
                                0.00   8618.64      0.00
                                0.00      0.00   8618.64

     hartree stress (kbar)   6562.29     -0.01      0.05
                               -0.01   6562.57     -0.03
                                0.05     -0.03   6562.86

     exc-cor stress (kbar)   5520.40      0.00     -0.00
                                0.00   5520.41      0.00
                               -0.00      0.00   5520.42

     corecor stress (kbar)  -9902.09     -0.00      0.00
                               -0.00  -9902.10     -0.00
                                0.00     -0.00  -9902.10

     ewald   stress (kbar) -17668.98      0.00     -0.00
                                0.00 -17668.98     -0.00
                               -0.00     -0.00 -17668.98

     hubbard stress (kbar)      0.00      0.00      0.00
                                0.00      0.00      0.00
                                0.00      0.00      0.00

     DFT-D   stress (kbar)      0.00      0.00      0.00
                                0.00      0.00      0.00
                                0.00      0.00      0.00

     XDM     stress (kbar)      0.00      0.00      0.00
                                0.00      0.00      0.00
                                0.00      0.00      0.00

     dft-nl  stress (kbar)      0.00      0.00      0.00
                                0.00      0.00      0.00
                                0.00      0.00      0.00

     TS-vdW  stress (kbar)      0.00      0.00      0.00
                                0.00      0.00      0.00
                                0.00      0.00      0.00

[...]

                                0.00      0.00      0.00

     Writing all to output data dir calculations/myprefix.save/

     General routines

     Parallel routines

     PAW routines

   This run was terminated on:  22:54: 1   4Mar2023

   JOB DONE.