     Program PWSCF v.7.0 starts on  3Mar2023 at 14:16:20

     R & G space division:  proc/nbgrp/npool/nimage =      32

     Reading input from espresso_570.pwi
Warning: card &CELL ignored
Warning: card / ignored

     Current dimensions of program PWSCF are:
     Max number of different atomic species (ntypx) = 10
     Max number of k-points (npk) =  40000
     Max angular momentum in pseudopotentials (lmaxx) =  4
     file Ba.pbe-spn-kjpaw_psl.1.0.0.UPF: wavefunction(s)  5S 6S renormalized
     file Nb.pbe-spn-kjpaw_psl.0.3.0.UPF: wavefunction(s)  4S 4P renormalized
     file In.pbe-dn-rrkjus_psl.0.2.2.UPF: wavefunction(s)  5S renormalized
     file O.pbe-n-kjpaw_psl.0.1.UPF: wavefunction(s)  2P renormalized

     gamma-point specific algorithms are used
     Message from routine setup:
     using ibrav=0 with symmetry is DISCOURAGED, use correct ibrav instead

     Using Slab Decomposition

     bravais-lattice index     =            0
     lattice parameter (alat)  =      11.0930  a.u.
     unit-cell volume          =     965.2419 (a.u.)^3
     number of atoms/cell      =           10
     number of atomic types    =            5
     number of electrons       =        89.00
     number of Kohn-Sham states=           54
     kinetic-energy cutoff     =      30.0000  Ry
     charge density cutoff     =     240.0000  Ry
     scf convergence threshold =      1.0E-06
     mixing beta               =       0.7000
     number of iterations used =            8  plain     mixing
     Exchange-correlation= SLA  PW   PBX  PBC
                           (   1   4   3   4   0   0   0)

     celldm(1)=  11.093035  celldm(2)=   0.000000  celldm(3)=   0.000000
     celldm(4)=   0.000000  celldm(5)=   0.000000  celldm(6)=   0.000000

     crystal axes: (cart. coord. in units of alat)
               a(1) = (   1.000000   0.000000   0.000000 )
               a(2) = (   0.500000   0.866025   0.000000 )
               a(3) = (   0.500000   0.288675   0.816497 )

     reciprocal axes: (cart. coord. in units 2 pi/alat)
               b(1) = (  1.000000 -0.577350 -0.408248 )
               b(2) = (  0.000000  1.154701 -0.408248 )
               b(3) = (  0.000000  0.000000  1.224745 )

     PseudoPot. # 1 for Ba read from file:
     /home/pragov/projects/rrg-bengioy-ad/pragov/crystal_structure_design/SSSP/Ba.pbe-spn-kjpaw_psl.1.0.0.UPF
     MD5 check sum: c432291d3e53af55f19d5e8866385beb
     Pseudo is Projector augmented-wave + core cor, Zval = 10.0
     Generated using "atomic" code by A. Dal Corso  v.5.1
     Shape of augmentation charge: PSQ
     Using radial grid of 1251 points,  7 beta functions with:
                l(1) =   0
                l(2) =   0
                l(3) =   0
                l(4) =   1
                l(5) =   1
                l(6) =   2
                l(7) =   2
     Q(r) pseudized with 0 coefficients

     PseudoPot. # 2 for Eu read from file:
     /home/pragov/projects/rrg-bengioy-ad/pragov/crystal_structure_design/SSSP/Eu.GGA-PBE-paw-v1.0.UPF
     MD5 check sum: acec5fd9176fb57ec8e299eae1ecaf48
     Pseudo is Projector augmented-wave + core cor, Zval = 17.0
     Generated using ATOMPAW code
     Shape of augmentation charge: BESSEL
     Using radial grid of 1109 points,  8 beta functions with:
                l(1) =   0
                l(2) =   0
                l(3) =   1
                l(4) =   1
                l(5) =   2
                l(6) =   2
                l(7) =   3
                l(8) =   3
     Q(r) pseudized with 0 coefficients

     PseudoPot. # 3 for Nb read from file:
     /home/pragov/projects/rrg-bengioy-ad/pragov/crystal_structure_design/SSSP/Nb.pbe-spn-kjpaw_psl.0.3.0.UPF
     MD5 check sum: 411d72ad547312f8017e2943ceca08cc
     Pseudo is Projector augmented-wave + core cor, Zval = 13.0
     Generated using "atomic" code by A. Dal Corso  v.5.0.99 svn rev. 10869
     Shape of augmentation charge: PSQ
     Using radial grid of 1227 points,  6 beta functions with:
                l(1) =   0
                l(2) =   0
                l(3) =   1
                l(4) =   1
                l(5) =   2
                l(6) =   2
     Q(r) pseudized with 0 coefficients

     PseudoPot. # 4 for In read from file:
     /home/pragov/projects/rrg-bengioy-ad/pragov/crystal_structure_design/SSSP/In.pbe-dn-rrkjus_psl.0.2.2.UPF
     MD5 check sum: 25e7c42c3b55b68f4bf926be2e7201a4
     Pseudo is Ultrasoft + core correction, Zval = 13.0
     Generated using "atomic" code by A. Dal Corso  v.5.0.99 svn rev. 10869
     Using radial grid of 1241 points,  6 beta functions with:
                l(1) =   0
                l(2) =   0
                l(3) =   1
                l(4) =   1
                l(5) =   2
                l(6) =   2
     Q(r) pseudized with 0 coefficients

     PseudoPot. # 5 for O  read from file:
     /home/pragov/projects/rrg-bengioy-ad/pragov/crystal_structure_design/SSSP/O.pbe-n-kjpaw_psl.0.1.UPF
     MD5 check sum: 0234752ac141de4415c5fc33072bef88
     Pseudo is Projector augmented-wave + core cor, Zval =  6.0
     Generated using "atomic" code by A. Dal Corso  v.5.0.99 svn rev. 10869
     Shape of augmentation charge: BESSEL
     Using radial grid of 1095 points,  4 beta functions with:
                l(1) =   0
                l(2) =   0
                l(3) =   1
                l(4) =   1
     Q(r) pseudized with 0 coefficients

     atomic species   valence    mass     pseudopotential
        Ba            10.00   137.32700     Ba( 1.00)
        Eu            17.00   151.96400     Eu( 1.00)
        Nb            13.00    92.90637     Nb( 1.00)
        In            13.00   114.81800     In( 1.00)
        O              6.00    15.99900     O ( 1.00)

      6 Sym. Ops. (no inversion) found

                                    s                        frac. trans.

      isym =  1     identity

 cryst.   s( 1) = (     1          0          0      )
                  (     0          1          0      )
                  (     0          0          1      )

 cart.    s( 1) = (  1.0000000  0.0000000 -0.0000000 )
                  (  0.0000000  1.0000000 -0.0000000 )
                  (  0.0000000  0.0000000  1.0000000 )

      isym =  2     120 deg rotation - cryst. axis [0,0,1]

[...]

      isym =  3     120 deg rotation - cryst. axis [0,0,-1]

[...]

      isym =  4     inv. 180 deg rotation - cart. axis [1,0,0]

[...]

      isym =  5     inv. 180 deg rotation - cryst. axis [0,1,0]

[...]

      isym =  6     inv. 180 deg rotation - cryst. axis [1,1,0]

 cryst.   s( 6) = (     1         -1          0      )
                  (     0         -1          0      )
                  (     0         -1          1      )

 cart.    s( 6) = (  0.5000000 -0.8660254 -0.0000000 )
                  ( -0.8660254 -0.5000000 -0.0000000 )
                  (  0.0000000  0.0000000  1.0000000 )

   Cartesian axes

     site n.     atom                  positions (alat units)
         1           Ba  tau(   1) = (   1.5000000   0.8660254   0.6123724  )
         2           Eu  tau(   2) = (   0.5000000   0.2886751   0.2041241  )
         3           Nb  tau(   3) = (   1.0000000   0.5773503   0.4082483  )
         4           In  tau(   4) = (   0.0000000   0.0000000   0.0000000  )
         5           O   tau(   5) = (   1.0000000   0.2993451   0.2116690  )
         6           O   tau(   6) = (   1.0000000   0.8553554   0.6048276  )
         7           O   tau(   7) = (   1.2407595   0.4383477   0.6048276  )
         8           O   tau(   8) = (   0.7592405   0.7163528   0.2116690  )
         9           O   tau(   9) = (   1.2407595   0.7163528   0.2116690  )
        10           O   tau(  10) = (   0.7592405   0.4383477   0.6048276  )

   Crystallographic axes

     site n.     atom                  positions (cryst. coord.)
         1           Ba  tau(   1) = (  0.7500000  0.7500000  0.7500000  )
         2           Eu  tau(   2) = (  0.2500000  0.2500000  0.2500000  )
         3           Nb  tau(   3) = (  0.5000000  0.5000000  0.5000000  )
         4           In  tau(   4) = (  0.0000000  0.0000000  0.0000000  )
         5           O   tau(   5) = (  0.7407595  0.2592405  0.2592405  )
         6           O   tau(   6) = (  0.2592405  0.7407595  0.7407595  )
         7           O   tau(   7) = (  0.7407595  0.2592405  0.7407595  )
         8           O   tau(   8) = (  0.2592405  0.7407595  0.2592405  )
         9           O   tau(   9) = (  0.7407595  0.7407595  0.2592405  )
        10           O   tau(  10) = (  0.2592405  0.2592405  0.7407595  )

     number of k points=     1  Methfessel-Paxton smearing, width (Ry)=  0.0010
                       cart. coord. in units 2pi/alat
        k(    1) = (   0.0000000   0.0000000   0.0000000), wk =   2.0000000

                       cryst. coord.
        k(    1) = (   0.0000000   0.0000000   0.0000000), wk =   2.0000000

     Check: negative core charge=   -0.000012

     Initial potential from superposition of free atoms

     starting charge      88.9724, renormalised to      89.0000
     Starting wfcs are   80 randomized atomic wfcs
     Checking if some PAW data can be deallocated...

     Self-consistent Calculation

     iteration #  1     ecut=    30.00 Ry     beta= 0.70
     Davidson diagonalization with overlap

     ethr =  1.00E-02,  avg # of iterations =  3.0
     Minimization algorithm failed to find Fermi energy: reverting to bisection
     Possible cause: smearing is larger than the electronic band-gap.

     total energy              =   -1804.84213355 Ry
     estimated scf accuracy    <       4.22444420 Ry

[...]

     ethr =  4.75E-03,  avg # of iterations =  7.0

[...]

     ethr =  2.78E-07,  avg # of iterations =  2.0

[...]

     total energy              =   -1807.36336397 Ry
     estimated scf accuracy    <       0.00000118 Ry

     iteration # 65     ecut=    30.00 Ry     beta= 0.70
     Davidson diagonalization with overlap

     ethr =  1.32E-09,  avg # of iterations =  1.0
     Minimization algorithm failed to find Fermi energy: reverting to bisection
     Possible cause: smearing is larger than the electronic band-gap.

     End of self-consistent calculation

          k = 0.0000 0.0000 0.0000 (  1367 PWs)   bands (ev):

   -43.5044 -28.3907 -19.7140 -19.7139 -19.7137 -15.4737  -7.4921  -7.4911
    -7.4910  -6.3324  -5.8708  -5.8706  -5.1741  -5.1741  -5.1738  -2.0968
    -2.0968  -2.0968  -1.6978  -1.6978  -0.8072  -0.8072  -0.8071   4.8854
     7.5126   7.5127   7.5129   7.9877   7.9879   8.0125   8.0127   8.0127
     9.6830   9.6831   9.6831  10.2367  10.2368  10.2368  10.7455  10.7456
    10.7457  13.5253  13.7634  13.7636  13.7636  14.1172  14.1173  14.1203
    14.3060  14.3060  14.3061  14.4257  14.4257  14.5199

     occupation numbers
     1.0000   1.0000   1.0000   1.0000   1.0000   1.0000   1.0000   1.0000
     1.0000   1.0000   1.0000   1.0000   1.0000   1.0000   1.0000   1.0000
     1.0000   1.0000   1.0000   1.0000   1.0000   1.0000   1.0000   1.0000
     1.0000   1.0000   1.0000   1.0000   1.0000   1.0000   1.0000   1.0000
     1.0000   1.0000   1.0000   1.0000   1.0000   1.0000   1.0000   1.0000
     1.0000   1.0000   0.8388   0.8309   0.8303  -0.0000  -0.0000  -0.0000
    -0.0000  -0.0000  -0.0000  -0.0000  -0.0000  -0.0000

     the Fermi energy is    13.7695 ev

!    total energy              =   -1807.36336346 Ry
     estimated scf accuracy    <       0.00000038 Ry
     smearing contrib. (-TS)   =      -0.00043265 Ry
     internal energy E=F+TS    =   -1807.36293081 Ry

     The total energy is F=E-TS. E is the sum of the following terms:
     one-electron contribution =    -186.20257864 Ry
     hartree contribution      =     162.90499748 Ry
     xc contribution           =    -162.60003315 Ry
     ewald contribution        =    -524.10213841 Ry
     one-center paw contrib.   =   -1097.36317810 Ry
      -> PAW hartree energy AE =      28.75443980 Ry
      -> PAW hartree energy PS =     -28.62723754 Ry
      -> PAW xc energy AE      =    -394.26405995 Ry
      -> PAW xc energy PS      =      19.16711444 Ry
      -> total E_H with PAW    =     163.03219974 Ry
      -> total E_XC with PAW   =    -537.69697865 Ry

     convergence has been achieved in  65 iterations

     Forces acting on atoms (cartesian axes, Ry/au):

     atom    1 type  1   force =     0.00000000    0.00000000   -0.00000471
     atom    2 type  2   force =     0.00000000    0.00000000    0.00030190
     atom    3 type  3   force =     0.00000000    0.00000000   -0.00003038
     atom    4 type  4   force =     0.00000000    0.00000000   -0.00011963
     atom    5 type  5   force =     0.00000000    0.03267019    0.02305141
     atom    6 type  5   force =     0.00000000   -0.03261753   -0.02310047
     atom    7 type  5   force =    -0.02824761    0.01630876   -0.02310047
     atom    8 type  5   force =     0.02829322   -0.01633510    0.02305141
     atom    9 type  5   force =    -0.02829322   -0.01633510    0.02305141
     atom   10 type  5   force =     0.02824761    0.01630876   -0.02310047
     The non-local contrib.  to forces
     atom    1 type  1   force =    -0.00000000   -0.00000000   -0.00001028
     atom    2 type  2   force =     0.00000000    0.00000000    0.00038630
     atom    3 type  3   force =     0.00000000    0.00000000   -0.00007670
     atom    4 type  4   force =     0.00000000    0.00000000    0.00001812
     atom    5 type  5   force =     0.00000000   -0.15460107   -0.10930380
     atom    6 type  5   force =     0.00000000    0.15464089    0.10937673
     atom    7 type  5   force =     0.13392294   -0.07732044    0.10937673
     atom    8 type  5   force =    -0.13388845    0.07730053   -0.10930380
     atom    9 type  5   force =     0.13388845    0.07730053   -0.10930380
     atom   10 type  5   force =    -0.13392294   -0.07732044    0.10937673
     The ionic contribution  to forces
     atom    1 type  1   force =     0.00000000    0.00000000    0.00000000
     atom    2 type  2   force =     0.00000000   -0.00000000   -0.00000000
     atom    3 type  3   force =    -0.00000000    0.00000000    0.00000000
     atom    4 type  4   force =     0.00000000    0.00000000    0.00000000
     atom    5 type  5   force =    -0.00000000   -2.02552452   -1.43226212
     atom    6 type  5   force =    -0.00000000    2.02552451    1.43226212
     atom    7 type  5   force =     1.75415569   -1.01276226    1.43226212
     atom    8 type  5   force =    -1.75415569    1.01276226   -1.43226212
     atom    9 type  5   force =     1.75415569    1.01276226   -1.43226212
     atom   10 type  5   force =    -1.75415569   -1.01276226    1.43226212
     The local contribution  to forces
     atom    1 type  1   force =     0.00033943   -0.00061315    0.00005879
     atom    2 type  2   force =     0.00002171    0.00043313   -0.00074682
     atom    3 type  3   force =     0.00003026    0.00001338   -0.00010219
     atom    4 type  4   force =    -0.00004271   -0.00004762    0.00012989
     atom    5 type  5   force =     0.00001519    2.20950575    1.56228816
     atom    6 type  5   force =    -0.00001776   -2.20952381   -1.56232776
     atom    7 type  5   force =    -1.91350598    1.10476683   -1.56236183
     atom    8 type  5   force =     1.91347212   -1.10475114    1.56230265
     atom    9 type  5   force =    -1.91349084   -1.10477360    1.56230568
     atom   10 type  5   force =     1.91356436    1.10481546   -1.56240669
     The core correction contribution to forces
     atom    1 type  1   force =     0.00001537   -0.00002117    0.00000137
     atom    2 type  2   force =     0.00000000    0.00000001   -0.00000002
     atom    3 type  3   force =     0.00000042   -0.00000015    0.00000492
     atom    4 type  4   force =     0.00000011    0.00000017   -0.00000274
     atom    5 type  5   force =    -0.00000001    0.00320450    0.00226570
     atom    6 type  5   force =     0.00000006   -0.00320491   -0.00226674
     atom    7 type  5   force =    -0.00277561    0.00160268   -0.00226678
     atom    8 type  5   force =     0.00277517   -0.00160215    0.00226575
     atom    9 type  5   force =    -0.00277542   -0.00160220    0.00226606
     atom   10 type  5   force =     0.00277610    0.00160281   -0.00226723
     The Hubbard contrib.    to forces
     atom    1 type  1   force =     0.00000000    0.00000000    0.00000000
     atom    2 type  2   force =     0.00000000    0.00000000    0.00000000
     atom    3 type  3   force =     0.00000000    0.00000000    0.00000000
     atom    4 type  4   force =     0.00000000    0.00000000    0.00000000
     atom    5 type  5   force =     0.00000000    0.00000000    0.00000000
     atom    6 type  5   force =     0.00000000    0.00000000    0.00000000
     atom    7 type  5   force =     0.00000000    0.00000000    0.00000000
     atom    8 type  5   force =     0.00000000    0.00000000    0.00000000
     atom    9 type  5   force =     0.00000000    0.00000000    0.00000000
     atom   10 type  5   force =     0.00000000    0.00000000    0.00000000
     The SCF correction term to forces
     atom    1 type  1   force =    -0.00006114    0.00008697   -0.00001847
     atom    2 type  2   force =     0.00001472   -0.00035188    0.00069856
     atom    3 type  3   force =    -0.00003961   -0.00002901    0.00017971
     atom    4 type  4   force =     0.00005392    0.00006120   -0.00022879
     atom    5 type  5   force =    -0.00001998    0.00008278    0.00008961
     atom    6 type  5   force =     0.00002353   -0.00003670   -0.00009724
     atom    7 type  5   force =    -0.00003131    0.00002854   -0.00006277
     atom    8 type  5   force =     0.00008811   -0.00004259    0.00008108
     atom    9 type  5   force =    -0.00008006   -0.00001743    0.00009565
     atom   10 type  5   force =     0.00000750   -0.00001294   -0.00005257

     Total force =     0.097923     Total SCF correction =     0.000886

     Computing stress (Cartesian axis) and pressure

          total   stress  (Ry/bohr**3)                   (kbar)     P=     -171.08
  -0.00116269   0.00000000   0.00000000         -171.04        0.00        0.00
   0.00000000  -0.00116269  -0.00000000            0.00     -171.04       -0.00
   0.00000000  -0.00000000  -0.00116365            0.00       -0.00     -171.18

     kinetic stress (kbar)  21618.53     -0.00     -0.00
                                0.00  21618.53      0.00
                               -0.00      0.00  21618.46

     local   stress (kbar)  -5025.01      0.09     -0.12
                                0.09  -5025.10      0.00
                               -0.12      0.00  -5024.49

     nonloc. stress (kbar)   7367.92      0.00     -0.00
                                0.00   7367.92      0.00
                                0.00      0.00   7367.58

     hartree stress (kbar)   8275.77     -0.04      0.05
                               -0.04   8275.83      0.01
                                0.05      0.01   8275.50

     exc-cor stress (kbar)   3354.38     -0.00      0.00
                               -0.00   3354.38      0.00
                                0.00      0.00   3354.38

     corecor stress (kbar)  -9137.82      0.00      0.00
                                0.00  -9137.82      0.00
                                0.00      0.00  -9137.82

     ewald   stress (kbar) -26624.79      0.00     -0.00
                                0.00 -26624.79      0.00
                               -0.00      0.00 -26624.79

     hubbard stress (kbar)      0.00      0.00      0.00
                                0.00      0.00      0.00
                                0.00      0.00      0.00

     DFT-D   stress (kbar)      0.00      0.00      0.00
                                0.00      0.00      0.00
                                0.00      0.00      0.00

     XDM     stress (kbar)      0.00      0.00      0.00
                                0.00      0.00      0.00
                                0.00      0.00      0.00

     dft-nl  stress (kbar)      0.00      0.00      0.00
                                0.00      0.00      0.00
                                0.00      0.00      0.00

     TS-vdW  stress (kbar)      0.00      0.00      0.00
                                0.00      0.00      0.00
                                0.00      0.00      0.00

[...]

                                0.00      0.00      0.00

     Writing all to output data dir calculations/myprefix.save/

     General routines

     Parallel routines

     PAW routines

   This run was terminated on:  14:16:45   3Mar2023

   JOB DONE.