     Program PWSCF v.7.0 starts on  3Mar2023 at 14:25: 8

     R & G space division:  proc/nbgrp/npool/nimage =      32

     Reading input from espresso_595.pwi
Warning: card &CELL ignored
Warning: card / ignored

     Current dimensions of program PWSCF are:
     Max number of different atomic species (ntypx) = 10
     Max number of k-points (npk) =  40000
     Max angular momentum in pseudopotentials (lmaxx) =  4
     file O.pbe-n-kjpaw_psl.0.1.UPF: wavefunction(s)  2P renormalized

     gamma-point specific algorithms are used
     Message from routine setup:
     using ibrav=0 with symmetry is DISCOURAGED, use correct ibrav instead

     Using Slab Decomposition

     bravais-lattice index     =            0
     lattice parameter (alat)  =      10.3496  a.u.
     unit-cell volume          =    1661.2345 (a.u.)^3
     number of atoms/cell      =           20
     number of atomic types    =            3
     number of electrons       =       172.00
     number of Kohn-Sham states=          103
     kinetic-energy cutoff     =      30.0000  Ry
     charge density cutoff     =     240.0000  Ry
     scf convergence threshold =      1.0E-06
     mixing beta               =       0.7000
     number of iterations used =            8  plain     mixing
     Exchange-correlation= SLA  PW   PBX  PBC
                           (   1   4   3   4   0   0   0)

     celldm(1)=  10.349607  celldm(2)=   0.000000  celldm(3)=   0.000000
     celldm(4)=   0.000000  celldm(5)=   0.000000  celldm(6)=   0.000000

     crystal axes: (cart. coord. in units of alat)
               a(1) = (   1.000000   0.000000   0.000000 )
               a(2) = (   0.000000   1.123207   0.000000 )
               a(3) = (   0.000000   0.000000   1.334135 )

     reciprocal axes: (cart. coord. in units 2 pi/alat)
               b(1) = (  1.000000  0.000000  0.000000 )
               b(2) = (  0.000000  0.890308  0.000000 )
               b(3) = (  0.000000  0.000000  0.749549 )

     PseudoPot. # 1 for Cu read from file:
     /home/pragov/projects/rrg-bengioy-ad/pragov/crystal_structure_design/SSSP/Cu_pbe_v1.2.uspp.F.UPF
     MD5 check sum: 6e991ff952a84172a2a52a1c1e996048
     Pseudo is Ultrasoft + core correction, Zval = 19.0
     Generated by new atomic code, or converted to UPF format
     Using radial grid of  867 points,  6 beta functions with:
                l(1) =   0
                l(2) =   0
                l(3) =   1
                l(4) =   1
                l(5) =   2
                l(6) =   2
     Q(r) pseudized with  8 coefficients,  rinner =    1.150   1.150   1.150
                                                       1.150   1.150

     PseudoPot. # 2 for Se read from file:
     /home/pragov/projects/rrg-bengioy-ad/pragov/crystal_structure_design/SSSP/Se_pbe_v1.uspp.F.UPF
     MD5 check sum: 1b3568f3a8ae88f9a2a0ad0698632c85
     Pseudo is Ultrasoft + core correction, Zval =  6.0
     Generated by new atomic code, or converted to UPF format
     Using radial grid of  877 points,  6 beta functions with:
                l(1) =   0
                l(2) =   0
                l(3) =   1
                l(4) =   1
                l(5) =   2
                l(6) =   2
     Q(r) pseudized with  8 coefficients,  rinner =    1.300   1.300   1.300
                                                       1.300   1.300

     PseudoPot. # 3 for O  read from file:
     /home/pragov/projects/rrg-bengioy-ad/pragov/crystal_structure_design/SSSP/O.pbe-n-kjpaw_psl.0.1.UPF
     MD5 check sum: 0234752ac141de4415c5fc33072bef88
     Pseudo is Projector augmented-wave + core cor, Zval =  6.0
     Generated using "atomic" code by A. Dal Corso  v.5.0.99 svn rev. 10869
     Shape of augmentation charge: BESSEL
     Using radial grid of 1095 points,  4 beta functions with:
                l(1) =   0
                l(2) =   0
                l(3) =   1
                l(4) =   1
     Q(r) pseudized with 0 coefficients

     atomic species   valence    mass     pseudopotential
        Cu            19.00    63.54600     Cu( 1.00)
        Se             6.00    78.97100     Se( 1.00)
        O              6.00    15.99900     O ( 1.00)

      8 Sym. Ops., with inversion, found ( 6 have fractional translation)

                                    s                        frac. trans.

      isym =  1     identity

 cryst.   s( 1) = (     1          0          0      )
                  (     0          1          0      )
                  (     0          0          1      )

 cart.    s( 1) = (  1.0000000  0.0000000  0.0000000 )
                  (  0.0000000  1.0000000  0.0000000 )
                  (  0.0000000  0.0000000  1.0000000 )

      isym =  2     180 deg rotation - cart. axis [0,0,1]

 cryst.   s( 2) = (    -1          0          0      )    f =(  0.0000000 )
                  (     0         -1          0      )       (  0.0000000 )
                  (     0          0          1      )       (  0.5000000 )

 cart.    s( 2) = ( -1.0000000  0.0000000  0.0000000 )    f =(  0.0000000 )
                  (  0.0000000 -1.0000000  0.0000000 )       (  0.0000000 )
                  (  0.0000000  0.0000000  1.0000000 )       (  0.6670674 )

[...]

      isym =  4     180 deg rotation - cart. axis [1,0,0]

[...]

      isym =  5     inversion

 cryst.   s( 5) = (    -1          0          0      )
                  (     0         -1          0      )
                  (     0          0         -1      )

 cart.    s( 5) = ( -1.0000000  0.0000000  0.0000000 )
                  (  0.0000000 -1.0000000  0.0000000 )
                  (  0.0000000  0.0000000 -1.0000000 )

      isym =  6     inv. 180 deg rotation - cart. axis [0,0,1]

[...]

      isym =  8     inv. 180 deg rotation - cart. axis [1,0,0]

 cryst.   s( 8) = (    -1          0          0      )    f =(  0.5000000 )
                  (     0          1          0      )       ( -0.5000000 )
                  (     0          0          1      )       (  0.0000000 )

 cart.    s( 8) = ( -1.0000000  0.0000000  0.0000000 )    f =(  0.5000000 )
                  (  0.0000000  1.0000000  0.0000000 )       ( -0.5616033 )
                  (  0.0000000  0.0000000  1.0000000 )       (  0.0000000 )

   Cartesian axes

     site n.     atom                  positions (alat units)
         1           Cu  tau(   1) = (   0.5000000   0.0000000   0.0000000  )
         2           Cu  tau(   2) = (   0.0000000   0.5616033   0.0000000  )
         3           Cu  tau(   3) = (   0.0000000   0.5616033   0.6670674  )
         4           Cu  tau(   4) = (   0.5000000   0.0000000   0.6670674  )
         5           Se  tau(   5) = (   0.0086730   0.0512463   0.3335337  )
         6           Se  tau(   6) = (   0.5086730   0.5103570   1.0006012  )
         7           Se  tau(   7) = (   0.4913270   0.6128496   0.3335337  )
         8           Se  tau(   8) = (   0.9913270   1.0719603   1.0006012  )
         9           O   tau(   9) = (   0.9152130   0.2313064   0.5769346  )
        10           O   tau(  10) = (   0.4152130   0.3302969   0.7572003  )
        11           O   tau(  11) = (   0.5847870   0.7929097   0.0901328  )
        12           O   tau(  12) = (   0.0847870   0.8919002   1.2440021  )
        13           O   tau(  13) = (   0.0847870   0.8919002   0.7572003  )
        14           O   tau(  14) = (   0.5847870   0.7929097   0.5769346  )
        15           O   tau(  15) = (   0.4152130   0.3302969   1.2440021  )
        16           O   tau(  16) = (   0.9152130   0.2313064   0.0901328  )
        17           O   tau(  17) = (   0.3346970   0.0801341   0.3335337  )
        18           O   tau(  18) = (   0.8346970   0.4814693   1.0006012  )
        19           O   tau(  19) = (   0.1653030   0.6417374   0.3335337  )
        20           O   tau(  20) = (   0.6653030   1.0430726   1.0006012  )

   Crystallographic axes

     site n.     atom                  positions (cryst. coord.)
         1           Cu  tau(   1) = (  0.5000000  0.0000000  0.0000000  )
         2           Cu  tau(   2) = (  0.0000000  0.5000000  0.0000000  )
         3           Cu  tau(   3) = (  0.0000000  0.5000000  0.5000000  )
         4           Cu  tau(   4) = (  0.5000000  0.0000000  0.5000000  )
         5           Se  tau(   5) = (  0.0086730  0.0456250  0.2500000  )
         6           Se  tau(   6) = (  0.5086730  0.4543750  0.7500000  )
         7           Se  tau(   7) = (  0.4913270  0.5456250  0.2500000  )
         8           Se  tau(   8) = (  0.9913270  0.9543750  0.7500000  )
         9           O   tau(   9) = (  0.9152130  0.2059340  0.4324410  )
        10           O   tau(  10) = (  0.4152130  0.2940660  0.5675590  )
        11           O   tau(  11) = (  0.5847870  0.7059340  0.0675590  )
        12           O   tau(  12) = (  0.0847870  0.7940660  0.9324410  )
        13           O   tau(  13) = (  0.0847870  0.7940660  0.5675590  )
        14           O   tau(  14) = (  0.5847870  0.7059340  0.4324410  )
        15           O   tau(  15) = (  0.4152130  0.2940660  0.9324410  )
        16           O   tau(  16) = (  0.9152130  0.2059340  0.0675590  )
        17           O   tau(  17) = (  0.3346970  0.0713440  0.2500000  )
        18           O   tau(  18) = (  0.8346970  0.4286560  0.7500000  )
        19           O   tau(  19) = (  0.1653030  0.5713440  0.2500000  )
        20           O   tau(  20) = (  0.6653030  0.9286560  0.7500000  )

     number of k points=     1  Methfessel-Paxton smearing, width (Ry)=  0.0010
                       cart. coord. in units 2pi/alat
        k(    1) = (   0.0000000   0.0000000   0.0000000), wk =   2.0000000

                       cryst. coord.
        k(    1) = (   0.0000000   0.0000000   0.0000000), wk =   2.0000000

     Check: negative core charge=   -0.000011

     Initial potential from superposition of free atoms

     starting charge     167.9997, renormalised to     172.0000
     Starting wfcs are  116 randomized atomic wfcs
     Checking if some PAW data can be deallocated...

     Self-consistent Calculation

     iteration #  1     ecut=    30.00 Ry     beta= 0.70
     Davidson diagonalization with overlap

     ethr =  1.00E-02,  avg # of iterations =  2.0

     total energy              =   -2286.17597657 Ry
     estimated scf accuracy    <       3.22676993 Ry

[...]

     total energy              =   -2287.70688373 Ry
     estimated scf accuracy    <       0.00000180 Ry

     iteration # 18     ecut=    30.00 Ry     beta= 0.70
     Davidson diagonalization with overlap

     ethr =  1.02E-09,  avg # of iterations =  1.0

     End of self-consistent calculation

          k = 0.0000 0.0000 0.0000 (  2294 PWs)   bands (ev):

  -104.8819-104.8814-104.8809-104.8802 -62.4859 -62.4849 -62.4844 -62.4825
   -62.3252 -62.3233 -62.3230 -62.3205 -61.9371 -61.9360 -61.9358 -61.9345
   -13.9891 -13.4706 -13.3859 -13.3341 -11.6693 -11.4566 -11.4263 -11.3318
   -11.2661 -11.2351 -11.1874 -11.0009  -4.8390  -4.2385  -4.1356  -4.0782
    -0.1580   0.0591   0.4287   0.5438   0.6228   0.6244   0.6360   0.8083
     1.0780   1.6877   1.9823   2.4225   2.5929   2.7081   3.1436   3.1878
     3.2079   3.3511   3.4877   3.8631   3.8700   3.9633   4.0891   4.1745
     4.3192   4.4542   4.5103   4.5491   4.8421   4.9077   4.9733   5.2506
     5.2878   5.3500   5.3696   5.4245   5.4576   5.5912   5.6043   5.6367
     5.6743   5.7225   5.7528   5.9050   5.9383   5.9439   5.9725   6.0381
     6.1210   6.3041   6.4761   6.5538   6.9347   7.2530   7.4059   7.6629
    11.2701  11.4468  11.4643  11.7857  11.8308  11.9536  12.0151  12.0957
    12.1031  12.2278  12.3432  13.4665  14.2351  14.3300  15.0841

     occupation numbers
     1.0000   1.0000   1.0000   1.0000   1.0000   1.0000   1.0000   1.0000
     1.0000   1.0000   1.0000   1.0000   1.0000   1.0000   1.0000   1.0000
     1.0000   1.0000   1.0000   1.0000   1.0000   1.0000   1.0000   1.0000
     1.0000   1.0000   1.0000   1.0000   1.0000   1.0000   1.0000   1.0000
     1.0000   1.0000   1.0000   1.0000   1.0000   1.0000   1.0000   1.0000
     1.0000   1.0000   1.0000   1.0000   1.0000   1.0000   1.0000   1.0000
     1.0000   1.0000   1.0000   1.0000   1.0000   1.0000   1.0000   1.0000
     1.0000   1.0000   1.0000   1.0000   1.0000   1.0000   1.0000   1.0000
     1.0000   1.0000   1.0000   1.0000   1.0000   1.0000   1.0000   1.0000
     1.0000   1.0000   1.0000   1.0000   1.0000   1.0000   1.0000   1.0000
     1.0000   1.0000   1.0000   1.0000   1.0000   1.0000  -0.0000  -0.0000
    -0.0000  -0.0000  -0.0000  -0.0000  -0.0000  -0.0000  -0.0000  -0.0000
    -0.0000  -0.0000  -0.0000  -0.0000  -0.0000  -0.0000  -0.0000

     the Fermi energy is     7.3237 ev

!    total energy              =   -2287.70688364 Ry
     estimated scf accuracy    <       0.00000019 Ry
     smearing contrib. (-TS)   =       0.00000000 Ry
     internal energy E=F+TS    =   -2287.70688364 Ry

     The total energy is F=E-TS. E is the sum of the following terms:
     one-electron contribution =   -1652.29462211 Ry
     hartree contribution      =     913.91561984 Ry
     xc contribution           =    -362.29061027 Ry
     ewald contribution        =   -1072.62850859 Ry
     one-center paw contrib.   =    -114.40876251 Ry
      -> PAW hartree energy AE =       0.00000000 Ry
      -> PAW hartree energy PS =       0.00000000 Ry
      -> PAW xc energy AE      =       0.00000000 Ry
      -> PAW xc energy PS      =       0.00000000 Ry
      -> total E_H with PAW    =     913.91561984 Ry
      -> total E_XC with PAW   =    -362.29061027 Ry

     convergence has been achieved in  18 iterations

     Forces acting on atoms (cartesian axes, Ry/au):

     atom    1 type  1   force =     0.00000000    0.00000000    0.00000000
     atom    2 type  1   force =     0.00000000    0.00000000    0.00000000
     atom    3 type  1   force =     0.00000000   -0.00000000    0.00000000
     atom    4 type  1   force =     0.00000000    0.00000000   -0.00000000
     atom    5 type  2   force =     0.00264432   -0.00487434    0.00000000
     atom    6 type  2   force =     0.00264432    0.00487434    0.00000000
     atom    7 type  2   force =    -0.00264432   -0.00487434    0.00000000
     atom    8 type  2   force =    -0.00264432    0.00487434   -0.00000000
     atom    9 type  3   force =    -0.00499256    0.00673763    0.00599243
     atom   10 type  3   force =    -0.00499256   -0.00673763   -0.00599243
     atom   11 type  3   force =     0.00499256    0.00673763   -0.00599243
     atom   12 type  3   force =     0.00499256   -0.00673763    0.00599243
     atom   13 type  3   force =     0.00499256   -0.00673763   -0.00599243
     atom   14 type  3   force =     0.00499256    0.00673763    0.00599243
     atom   15 type  3   force =    -0.00499256   -0.00673763    0.00599243
     atom   16 type  3   force =    -0.00499256    0.00673763   -0.00599243
     atom   17 type  3   force =     0.02061225   -0.01653693   -0.00000000
     atom   18 type  3   force =     0.02061225    0.01653693    0.00000000
     atom   19 type  3   force =    -0.02061225   -0.01653693    0.00000000
     atom   20 type  3   force =    -0.02061225    0.01653693   -0.00000000
     The non-local contrib.  to forces
     atom    1 type  1   force =    -0.00000000   -0.00000000    0.00000000
     atom    2 type  1   force =    -0.00000000    0.00000000    0.00000000
     atom    3 type  1   force =     0.00000000    0.00000000    0.00000000
     atom    4 type  1   force =     0.00000000    0.00000000    0.00000000
     atom    5 type  2   force =     0.31700307    0.74567802    0.00000000
     atom    6 type  2   force =     0.31700307   -0.74567802   -0.00000000
     atom    7 type  2   force =    -0.31700307    0.74567802   -0.00000000
     atom    8 type  2   force =    -0.31700307   -0.74567802    0.00000000
     atom    9 type  3   force =     0.81200098   -0.16278722   -1.03304534
     atom   10 type  3   force =     0.81200098    0.16278722    1.03304534
     atom   11 type  3   force =    -0.81200098   -0.16278722    1.03304534
     atom   12 type  3   force =    -0.81200098    0.16278722   -1.03304534
     atom   13 type  3   force =    -0.81200098    0.16278722    1.03304534
     atom   14 type  3   force =    -0.81200098   -0.16278722   -1.03304534
     atom   15 type  3   force =     0.81200098    0.16278722   -1.03304534
     atom   16 type  3   force =     0.81200098   -0.16278722    1.03304534
     atom   17 type  3   force =    -1.12317865   -0.20090505   -0.00000000
     atom   18 type  3   force =    -1.12317865    0.20090505    0.00000000
     atom   19 type  3   force =     1.12317865   -0.20090505    0.00000000
     atom   20 type  3   force =     1.12317865    0.20090505   -0.00000000
     The ionic contribution  to forces
     atom    1 type  1   force =     0.00000000   -0.00000000   -0.00000000
     atom    2 type  1   force =    -0.00000000    0.00000000   -0.00000000
     atom    3 type  1   force =     0.00000000    0.00000000    0.00000000
     atom    4 type  1   force =     0.00000000   -0.00000000    0.00000000
     atom    5 type  2   force =    -2.42296208   -5.67652167    0.00000000
     atom    6 type  2   force =    -2.42296208    5.67652167    0.00000000
     atom    7 type  2   force =     2.42296208   -5.67652167    0.00000000
     atom    8 type  2   force =     2.42296208    5.67652167    0.00000000
     atom    9 type  3   force =    -2.36757842   -6.64282220   -0.22346223
     atom   10 type  3   force =    -2.36757842    6.64282220    0.22346223
     atom   11 type  3   force =     2.36757842   -6.64282220    0.22346223
     atom   12 type  3   force =     2.36757842    6.64282220   -0.22346223
     atom   13 type  3   force =     2.36757842    6.64282220    0.22346223
     atom   14 type  3   force =     2.36757842   -6.64282220   -0.22346223
     atom   15 type  3   force =    -2.36757842    6.64282220   -0.22346223
     atom   16 type  3   force =    -2.36757842   -6.64282220    0.22346223
     atom   17 type  3   force =    -2.83201236    3.46691481    0.00000000
     atom   18 type  3   force =    -2.83201236   -3.46691481    0.00000000
     atom   19 type  3   force =     2.83201236    3.46691481    0.00000000
     atom   20 type  3   force =     2.83201236   -3.46691481    0.00000000
     The local contribution  to forces
     atom    1 type  1   force =    -0.00000083    0.00000386   -0.00000602
     atom    2 type  1   force =     0.00000080    0.00000220   -0.00000675
     atom    3 type  1   force =     0.00000050    0.00000206    0.00000347
     atom    4 type  1   force =    -0.00000265    0.00000552    0.00000476
     atom    5 type  2   force =     2.15015647    5.01847189   -0.00022463
     atom    6 type  2   force =     2.15017658   -5.01843508    0.00015478
     atom    7 type  2   force =    -2.15017803    5.01843030   -0.00015381
     atom    8 type  2   force =    -2.15015534   -5.01847406    0.00022462
     atom    9 type  3   force =     1.55945325    6.81180700    1.25235056
     atom   10 type  3   force =     1.55936685   -6.81155356   -1.25230967
     atom   11 type  3   force =    -1.55949235    6.81200640   -1.25253776
     atom   12 type  3   force =    -1.55941828   -6.81178362    1.25247971
     atom   13 type  3   force =    -1.55945594   -6.81180528   -1.25234726
     atom   14 type  3   force =    -1.55936689    6.81155246    1.25231201
     atom   15 type  3   force =     1.55949311   -6.81200563    1.25253496
     atom   16 type  3   force =     1.55941638    6.81178408   -1.25248319
     atom   17 type  3   force =     3.96439958   -3.28428518   -0.00057831
     atom   18 type  3   force =     3.96437375    3.28429902    0.00024743
     atom   19 type  3   force =    -3.96437518   -3.28429970   -0.00024613
     atom   20 type  3   force =    -3.96439845    3.28428653    0.00057873
     The core correction contribution to forces
     atom    1 type  1   force =     0.00000001    0.00000001   -0.00000000
     atom    2 type  1   force =    -0.00000000   -0.00000000   -0.00000001
     atom    3 type  1   force =     0.00000000   -0.00000000    0.00000000
     atom    4 type  1   force =     0.00000000    0.00000000    0.00000001
     atom    5 type  2   force =    -0.04155717   -0.09248252   -0.00000156
     atom    6 type  2   force =    -0.04155645    0.09248159   -0.00000072
     atom    7 type  2   force =     0.04155604   -0.09248207    0.00000083
     atom    8 type  2   force =     0.04155717    0.09248257    0.00000141
     atom    9 type  3   force =    -0.00886158    0.00057990    0.01010426
     atom   10 type  3   force =    -0.00886190   -0.00057910   -0.01010393
     atom   11 type  3   force =     0.00886139    0.00058080   -0.01010417
     atom   12 type  3   force =     0.00886140   -0.00057998    0.01010375
     atom   13 type  3   force =     0.00886155   -0.00057988   -0.01010426
     atom   14 type  3   force =     0.00886191    0.00057912    0.01010396
     atom   15 type  3   force =    -0.00886137   -0.00058079    0.01010419
     atom   16 type  3   force =    -0.00886142    0.00057998   -0.01010375
     atom   17 type  3   force =     0.01145886    0.00175036   -0.00000223
     atom   18 type  3   force =     0.01145871   -0.00175042    0.00000066
     atom   19 type  3   force =    -0.01145872    0.00175041   -0.00000066
     atom   20 type  3   force =    -0.01145886   -0.00175035    0.00000223
     The Hubbard contrib.    to forces
     atom    1 type  1   force =     0.00000000    0.00000000    0.00000000
     atom    2 type  1   force =     0.00000000    0.00000000    0.00000000
     atom    3 type  1   force =     0.00000000    0.00000000    0.00000000
     atom    4 type  1   force =     0.00000000    0.00000000    0.00000000
     atom    5 type  2   force =     0.00000000    0.00000000    0.00000000
     atom    6 type  2   force =     0.00000000    0.00000000    0.00000000
     atom    7 type  2   force =     0.00000000    0.00000000    0.00000000
     atom    8 type  2   force =     0.00000000    0.00000000    0.00000000
     atom    9 type  3   force =     0.00000000    0.00000000    0.00000000
     atom   10 type  3   force =     0.00000000    0.00000000    0.00000000
     atom   11 type  3   force =     0.00000000    0.00000000    0.00000000
     atom   12 type  3   force =     0.00000000    0.00000000    0.00000000
     atom   13 type  3   force =     0.00000000    0.00000000    0.00000000
     atom   14 type  3   force =     0.00000000    0.00000000    0.00000000
     atom   15 type  3   force =     0.00000000    0.00000000    0.00000000
     atom   16 type  3   force =     0.00000000    0.00000000    0.00000000
     atom   17 type  3   force =     0.00000000    0.00000000    0.00000000
     atom   18 type  3   force =     0.00000000    0.00000000    0.00000000
     atom   19 type  3   force =     0.00000000    0.00000000    0.00000000
     atom   20 type  3   force =     0.00000000    0.00000000    0.00000000
     The SCF correction term to forces
     atom    1 type  1   force =     0.00000215   -0.00000424    0.00000762
     atom    2 type  1   force =     0.00000234   -0.00000253    0.00000660
     atom    3 type  1   force =    -0.00000308   -0.00000328   -0.00000218
     atom    4 type  1   force =     0.00000700   -0.00000609   -0.00000484
     atom    5 type  2   force =     0.00000070   -0.00002234    0.00021970
     atom    6 type  2   force =    -0.00001413   -0.00001934   -0.00015290
     atom    7 type  2   force =     0.00001440    0.00002244    0.00015263
     atom    8 type  2   force =    -0.00000159    0.00002477   -0.00022016
     atom    9 type  3   force =    -0.00000953   -0.00003949    0.00006317
     atom   10 type  3   force =     0.00005619   -0.00017065   -0.00008313
     atom   11 type  3   force =     0.00003239   -0.00019655    0.00013905
     atom   12 type  3   force =    -0.00004102    0.00001664   -0.00010139
     atom   13 type  3   force =     0.00001120    0.00003852   -0.00006709
     atom   14 type  3   force =    -0.00005547    0.00017207    0.00008058
     atom   15 type  3   force =    -0.00003262    0.00019597   -0.00013543
     atom   16 type  3   force =     0.00004161   -0.00001677    0.00010543
     atom   17 type  3   force =    -0.00005047   -0.00001328    0.00045184
     atom   18 type  3   force =    -0.00003437   -0.00000397   -0.00021316
     atom   19 type  3   force =     0.00003484    0.00000371    0.00021194
     atom   20 type  3   force =     0.00004936    0.00001228   -0.00045204

     Total force =     0.061369     Total SCF correction =     0.000941

     Computing stress (Cartesian axis) and pressure

          total   stress  (Ry/bohr**3)                   (kbar)     P=     -568.13
  -0.00397607   0.00000000   0.00000000         -584.90        0.00        0.00
   0.00000000  -0.00386792   0.00000000            0.00     -568.99        0.00
   0.00000000   0.00000000  -0.00374217            0.00        0.00     -550.49

     kinetic stress (kbar)  23368.59      0.00      0.00
                                0.00  23471.50      0.00
                                0.00      0.00  23106.79

     local   stress (kbar) -10854.44     -0.03      0.11
                               -0.03 -29821.17      0.10
                                0.11      0.10 -28158.96

     nonloc. stress (kbar)  11307.05      0.00      0.00
                                0.00  11293.98      0.00
                                0.00      0.00  11302.63

     hartree stress (kbar)  21884.85      0.03     -0.07
                                0.03  29924.45     -0.05
                               -0.07     -0.05  29119.45

     exc-cor stress (kbar)   1899.32      0.00     -0.00
                                0.00   1908.92     -0.00
                               -0.00     -0.00   1911.70

     corecor stress (kbar)  -9457.86     -0.00     -0.00
                               -0.00  -9468.75      0.00
                               -0.00      0.00  -9459.40

     ewald   stress (kbar) -38732.42      0.00     -0.00
                                0.00 -27877.92      0.00
                               -0.00      0.00 -28372.70

     hubbard stress (kbar)      0.00      0.00      0.00
                                0.00      0.00      0.00
                                0.00      0.00      0.00

     DFT-D   stress (kbar)      0.00      0.00      0.00
                                0.00      0.00      0.00
                                0.00      0.00      0.00

     XDM     stress (kbar)      0.00      0.00      0.00
                                0.00      0.00      0.00
                                0.00      0.00      0.00

     dft-nl  stress (kbar)      0.00      0.00      0.00
                                0.00      0.00      0.00
                                0.00      0.00      0.00

     TS-vdW  stress (kbar)      0.00      0.00      0.00
                                0.00      0.00      0.00
                                0.00      0.00      0.00

[...]

                                0.00      0.00      0.00

     Writing all to output data dir calculations/myprefix.save/

     General routines

     Parallel routines

     PAW routines

   This run was terminated on:  14:25:12   3Mar2023

   JOB DONE.