     Program PWSCF v.7.0 starts on  3Mar2023 at 13:43:32

     R & G space division:  proc/nbgrp/npool/nimage =      32

     Reading input from espresso_477.pwi
Warning: card &CELL ignored
Warning: card / ignored

     Current dimensions of program PWSCF are:
     Max number of different atomic species (ntypx) = 10
     Max number of k-points (npk) =  40000
     Max angular momentum in pseudopotentials (lmaxx) =  4
     file Ga.pbe-dn-kjpaw_psl.1.0.0.UPF: wavefunction(s)  4S renormalized

     gamma-point specific algorithms are used
     Message from routine setup:
     using ibrav=0 with symmetry is DISCOURAGED, use correct ibrav instead

     Using Slab Decomposition

     bravais-lattice index     =            0
     lattice parameter (alat)  =      12.4315  a.u.
     unit-cell volume          =    1007.3499 (a.u.)^3
     number of atoms/cell      =            7
     number of atomic types    =            3
     number of electrons       =        70.00
     number of Kohn-Sham states=           42
     kinetic-energy cutoff     =      30.0000  Ry
     charge density cutoff     =     240.0000  Ry
     scf convergence threshold =      1.0E-06
     mixing beta               =       0.7000
     number of iterations used =            8  plain     mixing
     Exchange-correlation=  SLA  PW   PBX  PBC
                           (   1   4   3   4   0   0   0)

     celldm(1)=  12.431466  celldm(2)=   0.000000  celldm(3)=   0.000000
     celldm(4)=   0.000000  celldm(5)=   0.000000  celldm(6)=   0.000000

     crystal axes: (cart. coord. in units of alat)
               a(1) = (   1.000000   0.000000   0.000000 )
               a(2) = (   0.365403   0.930849   0.000000 )
               a(3) = (  -0.682702  -0.465425   0.563292 )

     reciprocal axes: (cart. coord. in units 2 pi/alat)
               b(1) = (  1.000000 -0.392548  0.887638 )
               b(2) = (  0.000000  1.074288  0.887638 )
               b(3) = (  0.000000  0.000000  1.775277 )

     PseudoPot. # 1 for Zn read from file:
     /home/pragov/projects/rrg-bengioy-ad/pragov/crystal_structure_design/SSSP/Zn_pbe_v1.uspp.F.UPF
     MD5 check sum: df62231357ef9e81f77b2b3087fa5675
     Pseudo is Ultrasoft, Zval = 20.0
     Generated by new atomic code, or converted to UPF format
     Using radial grid of  943 points,  6 beta functions with:
                l(1) =   0
                l(2) =   0
                l(3) =   1
                l(4) =   1
                l(5) =   2
                l(6) =   2
     Q(r) pseudized with  8 coefficients,  rinner =    1.100   1.100   1.100
                                                       1.100   1.100

     PseudoPot. # 2 for Ga read from file:
     /home/pragov/projects/rrg-bengioy-ad/pragov/crystal_structure_design/SSSP/Ga.pbe-dn-kjpaw_psl.1.0.0.UPF
     MD5 check sum: a27b4342b1af7e5f338de752e9ed7044
     Pseudo is Projector augmented-wave + core cor, Zval = 13.0
     Generated using "atomic" code by A. Dal Corso  v.5.1
     Shape of augmentation charge: PSQ
     Using radial grid of 1205 points,  6 beta functions with:
                l(1) =   0
                l(2) =   0
                l(3) =   1
                l(4) =   1
                l(5) =   2
                l(6) =   2
     Q(r) pseudized with 0 coefficients

     PseudoPot. # 3 for S  read from file:
     /home/pragov/projects/rrg-bengioy-ad/pragov/crystal_structure_design/SSSP/s_pbe_v1.4.uspp.F.UPF
     MD5 check sum: 88d86576ff6df21479756cfb9bdac1df
     Pseudo is Ultrasoft + core correction, Zval =  6.0
     Generated by new atomic code, or converted to UPF format
     Using radial grid of  907 points,  6 beta functions with:
                l(1) =   0
                l(2) =   0
                l(3) =   1
                l(4) =   1
                l(5) =   2
                l(6) =   2
     Q(r) pseudized with  8 coefficients,  rinner =    1.300   1.300   1.300
                                                       1.300   1.300

     atomic species   valence    mass     pseudopotential
        Zn            20.00    65.38000     Zn( 1.00)
        Ga            13.00    69.72300     Ga( 1.00)
        S              6.00    32.06000     S ( 1.00)

      2 Sym. Ops. (no inversion) found

                                    s                        frac. trans.

      isym =  1     identity

 cryst.   s( 1) = (     1          0          0      )
                  (     0          1          0      )
                  (     0          0          1      )

 cart.    s( 1) = (  1.0000000  0.0000000  0.0000000 )
                  (  0.0000000  1.0000000  0.0000000 )
                  (  0.0000000  0.0000000  1.0000000 )

      isym =  2     inv. 180 deg rotation - cart. axis [0,0,1]

 cryst.   s( 2) = (     1          0          0      )
                  (     0          1          0      )
                  (    -1         -1         -1      )

 cart.    s( 2) = (  1.0000000  0.0000000  0.0000000 )
                  (  0.0000000  1.0000000  0.0000000 )
                  (  0.0000000  0.0000000 -1.0000000 )

   Cartesian axes

     site n.     atom                  positions (alat units)
         1           Zn  tau(   1) = (   0.6827016   0.4654247   0.0000000  )
         2           Ga  tau(   2) = (   0.5000000  -0.0000000   0.2816462  )
         3           Ga  tau(   3) = (   0.1827016   0.4654247   0.2816462  )
         4           S   tau(   4) = (   0.5161156   0.3518564   0.2960620  )
         5           S   tau(   5) = (   1.0160571   0.3343695   0.0000000  )
         6           S   tau(   6) = (  -0.1665860  -0.1135683   0.2672304  )
         7           S   tau(   7) = (   0.6825182   0.8236164   0.0000000  )

   Crystallographic axes

     site n.     atom                  positions (cryst. coord.)
         1           Zn  tau(   1) = (  0.5000000  0.5000000  0.0000000  )
         2           Ga  tau(   2) = (  0.7500000  0.2500000  0.5000000  )
         3           Ga  tau(   3) = (  0.2500000  0.7500000  0.5000000  )
         4           S   tau(   4) = (  0.6407910  0.6407910  0.5255920  )
         5           S   tau(   5) = (  0.8848010  0.3592090  0.0000000  )
         6           S   tau(   6) = (  0.1151990  0.1151990  0.4744080  )
         7           S   tau(   7) = (  0.3592090  0.8848010  0.0000000  )

     number of k points=     1  Methfessel-Paxton smearing, width (Ry)=  0.0010
                       cart. coord. in units 2pi/alat
        k(    1) = (   0.0000000   0.0000000   0.0000000), wk =   2.0000000

                       cryst. coord.
        k(    1) = (   0.0000000   0.0000000   0.0000000), wk =   2.0000000

     Check: negative core charge=   -0.000002

     Initial potential from superposition of free atoms

     starting charge      69.9938, renormalised to      70.0000
     Starting wfcs are   47 randomized atomic wfcs
     Checking if some PAW data can be deallocated...

     Self-consistent Calculation

     iteration #  1     ecut=    30.00 Ry     beta= 0.70
     Davidson diagonalization with overlap

     ethr =  1.00E-02,  avg # of iterations =  4.0

     Threshold (ethr) on eigenvalues was too large:
     Diagonalizing with lowered threshold

     Davidson diagonalization with overlap

[...]

     total energy              =   -1113.64709104 Ry
     estimated scf accuracy    <       0.44976155 Ry

[...]

     total energy              =   -1113.83277969 Ry
     estimated scf accuracy    <       0.00000258 Ry

     iteration #  8     ecut=    30.00 Ry     beta= 0.70
     Davidson diagonalization with overlap

     ethr =  3.69E-09,  avg # of iterations =  4.0

     End of self-consistent calculation

          k = 0.0000 0.0000 0.0000 (  1397 PWs)   bands (ev):

  -119.4674 -73.5792 -73.5698 -73.5632  -9.1939  -9.1914  -9.1789  -9.0503
    -9.0502  -9.0114  -8.9834  -8.9612  -8.9517  -8.9139  -7.7304  -5.8328
    -5.6949  -5.6942  -0.9254  -0.5260  -0.4758  -0.4681  -0.4064  -0.4003
     0.1373   1.9337   2.7358   2.7759   2.7763   3.2612   3.4027   3.4033
     5.5317   5.7724   5.7732   7.4337   8.7723   9.8292  10.2066  11.0796
    11.0829  11.7239

     occupation numbers
     1.0000   1.0000   1.0000   1.0000   1.0000   1.0000   1.0000   1.0000
     1.0000   1.0000   1.0000   1.0000   1.0000   1.0000   1.0000   1.0000
     1.0000   1.0000   1.0000   1.0000   1.0000   1.0000   1.0000   1.0000
     1.0000   1.0000   1.0000   1.0000   1.0000   1.0000   1.0000   1.0000
     1.0000   1.0000   1.0000  -0.0000  -0.0000  -0.0000  -0.0000  -0.0000
    -0.0000  -0.0000

     the Fermi energy is     6.7247 ev

!    total energy              =   -1113.83278062 Ry
     estimated scf accuracy    <       0.00000030 Ry
     smearing contrib. (-TS)   =       0.00000000 Ry
     internal energy E=F+TS    =   -1113.83278062 Ry

     The total energy is F=E-TS. E is the sum of the following terms:
     one-electron contribution =    -745.88599723 Ry
     hartree contribution      =     412.33969993 Ry
     xc contribution           =    -152.33874345 Ry
     ewald contribution        =    -406.04114426 Ry
     one-center paw contrib.   =    -221.90659562 Ry
      -> PAW hartree energy AE =       0.00000000 Ry
      -> PAW hartree energy PS =       0.00000000 Ry
      -> PAW xc energy AE      =       0.00000000 Ry
      -> PAW xc energy PS      =       0.00000000 Ry
      -> total E_H with PAW    =     412.33969993 Ry
      -> total E_XC with PAW   =    -152.33874345 Ry

     convergence has been achieved in   8 iterations

     Forces acting on atoms (cartesian axes, Ry/au):

     atom    1 type  1   force =     0.00014799    0.00014489    0.00000000
     atom    2 type  2   force =    -0.00016694    0.00004805   -0.00014057
     atom    3 type  2   force =    -0.00016694    0.00004805    0.00014057
     atom    4 type  3   force =     0.01346350    0.00906897   -0.00099550
     atom    5 type  3   force =    -0.01395619   -0.00837935   -0.00000000
     atom    6 type  3   force =     0.01346350    0.00906897    0.00099550
     atom    7 type  3   force =    -0.01278491   -0.00999958   -0.00000000
     The non-local contrib.  to forces
     atom    1 type  1   force =     0.00002291    0.00007327    0.00000000
     atom    2 type  2   force =    -0.00009025    0.00007985   -0.00000862
     atom    3 type  2   force =    -0.00009025    0.00007985    0.00000862
     atom    4 type  3   force =    -0.22732712   -0.15508198   -0.28134077
     atom    5 type  3   force =     0.06895203    0.38743258    0.00000000
     atom    6 type  3   force =    -0.22732712   -0.15508198    0.28134077
     atom    7 type  3   force =     0.38608071   -0.07757204    0.00000000
     The ionic contribution  to forces
     atom    1 type  1   force =     0.00000000    0.00000000    0.00000000
     atom    2 type  2   force =     0.00000000    0.00000000    0.00000000
     atom    3 type  2   force =     0.00000000    0.00000000    0.00000000
     atom    4 type  3   force =     1.75736323    1.19806393    6.74476454
     atom    5 type  3   force =     2.04191165   -6.77097690   -0.00000000
     atom    6 type  3   force =     1.75736323    1.19806393   -6.74476454
     atom    7 type  3   force =    -5.55663812    4.37484905   -0.00000000
     The local contribution  to forces
     atom    1 type  1   force =    -0.00001586   -0.00041633   -0.00022777
     atom    2 type  2   force =     0.00013619    0.00002210    0.00000959
     atom    3 type  2   force =     0.00019647   -0.00001684    0.00008391
     atom    4 type  3   force =    -1.52945890   -1.04218636   -6.48011505
     atom    5 type  3   force =    -2.12128784    6.39700610   -0.00000917
     atom    6 type  3   force =    -1.52912867   -1.04251904    6.48051886
     atom    7 type  3   force =     5.17922972   -4.31159811    0.00027198
     The core correction contribution to forces
     atom    1 type  1   force =     0.00000000    0.00000000    0.00000000
     atom    2 type  2   force =     0.00000266   -0.00001170   -0.00001818
     atom    3 type  2   force =     0.00001003   -0.00001416   -0.00000376
     atom    4 type  3   force =     0.01227761    0.00854712    0.01569755
     atom    5 type  3   force =    -0.00353797   -0.02133967   -0.00007333
     atom    6 type  3   force =     0.01238656    0.00835611   -0.01563853
     atom    7 type  3   force =    -0.02121288    0.00454902    0.00014243
     The Hubbard contrib.    to forces
     atom    1 type  1   force =     0.00000000    0.00000000    0.00000000
     atom    2 type  2   force =     0.00000000    0.00000000    0.00000000
     atom    3 type  2   force =     0.00000000    0.00000000    0.00000000
     atom    4 type  3   force =     0.00000000    0.00000000    0.00000000
     atom    5 type  3   force =     0.00000000    0.00000000    0.00000000
     atom    6 type  3   force =     0.00000000    0.00000000    0.00000000
     atom    7 type  3   force =     0.00000000    0.00000000    0.00000000
     The SCF correction term to forces
     atom    1 type  1   force =     0.00003302    0.00064220    0.00037735
     atom    2 type  2   force =    -0.00024001    0.00032969   -0.00014605
     atom    3 type  2   force =    -0.00047457   -0.00006422    0.00002911
     atom    4 type  3   force =     0.00033466    0.00012246    0.00019679
     atom    5 type  3   force =    -0.00010197   -0.00034721   -0.00003448
     atom    6 type  3   force =     0.00022769    0.00016226   -0.00026249
     atom    7 type  3   force =    -0.00035224   -0.00007325    0.00000343

     Total force =     0.032521     Total SCF correction =     0.001244

     Computing stress (Cartesian axis) and pressure

          total   stress  (Ry/bohr**3)                   (kbar)     P=      -33.13
  -0.00063729  -0.00054537  -0.00000000          -93.75      -80.23       -0.00
  -0.00054537  -0.00020437  -0.00000000          -80.23      -30.06       -0.00
  -0.00000000  -0.00000000   0.00016604           -0.00       -0.00       24.43

     kinetic stress (kbar)   9802.88   -125.64      0.00
                             -125.64   9902.88      0.00
                                0.00      0.00   9988.10

     local   stress (kbar)  -9216.14  -1950.50      0.76
                            -1950.50  -7684.14     -1.51
                                0.76     -1.51  -6354.59

     nonloc. stress (kbar)   2776.18    -18.89      0.00
                              -18.89   2790.24      0.00
                                0.00      0.00   2803.37

     hartree stress (kbar)  20763.31    921.12     -0.37
                              921.12  20039.60      0.83
                               -0.37      0.83  19411.79

     exc-cor stress (kbar)   1238.27     -0.28     -0.01
                               -0.28   1238.48      0.03
                               -0.01      0.03   1238.68

     corecor stress (kbar)  -6512.98      1.97      0.03
                                1.97  -6514.54     -0.03
                                0.03     -0.03  -6515.87

     ewald   stress (kbar) -18945.27   1092.00      0.00
                             1092.00 -19802.59      0.00
                                0.00      0.00 -20547.05

     hubbard stress (kbar)      0.00      0.00      0.00
                                0.00      0.00      0.00
                                0.00      0.00      0.00

     DFT-D   stress (kbar)      0.00      0.00      0.00
                                0.00      0.00      0.00
                                0.00      0.00      0.00

     XDM     stress (kbar)      0.00      0.00      0.00
                                0.00      0.00      0.00
                                0.00      0.00      0.00

     dft-nl  stress (kbar)      0.00      0.00      0.00
                                0.00      0.00      0.00
                                0.00      0.00      0.00

     TS-vdW  stress (kbar)      0.00      0.00      0.00
                                0.00      0.00      0.00
                                0.00      0.00      0.00

[...]

                                0.00      0.00      0.00

     Writing all to output data dir calculations/myprefix.save/

     General routines

     Parallel routines

     PAW routines

   This run was terminated on:  13:43:35   3Mar2023

   JOB DONE.