     Program PWSCF v.7.0 starts on  6Mar2023 at  9:32: 5

     R & G space division:  proc/nbgrp/npool/nimage =      32

     Reading input from espresso_4146.pwi
Warning: card &CELL ignored
Warning: card / ignored

     Current dimensions of program PWSCF are:
     Max number of different atomic species (ntypx) = 10
     Max number of k-points (npk) =  40000
     Max angular momentum in pseudopotentials (lmaxx) =  4
     file Nb.pbe-spn-kjpaw_psl.0.3.0.UPF: wavefunction(s)  4S 4P renormalized

     gamma-point specific algorithms are used
     Message from routine setup:
     using ibrav=0 with symmetry is DISCOURAGED, use correct ibrav instead

     Using Slab Decomposition

     bravais-lattice index     =            0
     lattice parameter (alat)  =      13.1609  a.u.
     unit-cell volume          =    2970.6648 (a.u.)^3
     number of atoms/cell      =           12
     number of atomic types    =            2
     number of electrons       =        96.00
     number of Kohn-Sham states=           58
     kinetic-energy cutoff     =      30.0000  Ry
     charge density cutoff     =     240.0000  Ry
     scf convergence threshold =      1.0E-06
     mixing beta               =       0.7000
     number of iterations used =            8  plain     mixing
     Exchange-correlation=  SLA  PW   PBX  PBC
                           (   1   4   3   4   0   0   0)

     celldm(1)=  13.160880  celldm(2)=   0.000000  celldm(3)=   0.000000
     celldm(4)=   0.000000  celldm(5)=   0.000000  celldm(6)=   0.000000

     crystal axes: (cart. coord. in units of alat)
               a(1) = (   1.000000   0.000000   0.000000 )
               a(2) = (  -0.474342   0.973651   0.000000 )
               a(3) = (  -0.028539  -0.564871   1.338429 )

     reciprocal axes: (cart. coord. in units 2 pi/alat)
               b(1) = (  1.000000  0.487178  0.226931 )
               b(2) = (  0.000000  1.027062  0.433461 )
               b(3) = (  0.000000  0.000000  0.747145 )

     PseudoPot. # 1 for Nb read from file:
     /home/pragov/projects/rrg-bengioy-ad/pragov/crystal_structure_design/SSSP/Nb.pbe-spn-kjpaw_psl.0.3.0.UPF
     MD5 check sum: 411d72ad547312f8017e2943ceca08cc
     Pseudo is Projector augmented-wave + core cor, Zval = 13.0
     Generated using "atomic" code by A. Dal Corso  v.5.0.99 svn rev. 10869
     Shape of augmentation charge: PSQ
     Using radial grid of 1227 points,  6 beta functions with:
                l(1) =   0
                l(2) =   0
                l(3) =   1
                l(4) =   1
                l(5) =   2
                l(6) =   2
     Q(r) pseudized with 0 coefficients

     PseudoPot. # 2 for Br read from file:
     /home/pragov/projects/rrg-bengioy-ad/pragov/crystal_structure_design/SSSP/br_pbe_v1.4.uspp.F.UPF
     MD5 check sum: d3ffb7b29f6225aa16fe06858fb2a80b
     Pseudo is Ultrasoft + core correction, Zval =  7.0
     Generated by new atomic code, or converted to UPF format
     Using radial grid of  879 points,  6 beta functions with:
                l(1) =   0
                l(2) =   0
                l(3) =   1
                l(4) =   1
                l(5) =   2
                l(6) =   2
     Q(r) pseudized with  8 coefficients,  rinner =    1.100   1.100   1.100
                                                       1.100   1.100

     atomic species   valence    mass     pseudopotential
        Nb            13.00    92.90637     Nb( 1.00)
        Br             7.00    79.90400     Br( 1.00)

      2 Sym. Ops., with inversion, found

                                    s                        frac. trans.

      isym =  1     identity

 cryst.   s( 1) = (     1          0          0      )
                  (     0          1          0      )
                  (     0          0          1      )

 cart.    s( 1) = (  1.0000000 -0.0000000  0.0000000 )
                  (  0.0000000  1.0000000 -0.0000000 )
                  (  0.0000000  0.0000000  1.0000000 )

      isym =  2     inversion

 cryst.   s( 2) = (    -1          0          0      )
                  (     0         -1          0      )
                  (     0          0         -1      )

 cart.    s( 2) = ( -1.0000000  0.0000000 -0.0000000 )
                  (  0.0000000 -1.0000000  0.0000000 )
                  (  0.0000000  0.0000000 -1.0000000 )

   Cartesian axes

     site n.     atom                  positions (alat units)
         1           Nb  tau(   1) = (  -0.0190504  -0.1941525   0.9632887  )
         2           Nb  tau(   2) = (   0.5161704   0.6029329   0.3751402  )
         3           Br  tau(   3) = (   0.6925331  -0.0045728   0.8690727  )
         4           Br  tau(   4) = (   0.1331473  -0.0900642   0.6132829  )
         5           Br  tau(   5) = (  -0.1954131   0.4133532   0.4693563  )
         6           Br  tau(   6) = (   0.3529098   0.3256215   0.2338356  )
         7           Br  tau(   7) = (   0.1442101   0.0831589   1.1045934  )
         8           Br  tau(   8) = (   0.2287770   0.8158941   0.3407306  )
         9           Br  tau(   9) = (   0.3639726   0.4988446   0.7251461  )
        10           Br  tau(  10) = (  -0.3193208   0.7515823   0.1022091  )
        11           Br  tau(  11) = (   0.8164407  -0.3428019   1.2362198  )
        12           Br  tau(  12) = (   0.2683429  -0.4071137   0.9976984  )

   Crystallographic axes

     site n.     atom                  positions (cryst. coord.)
         1           Nb  tau(   1) = (  0.1049630  0.2181420  0.7197160  )
         2           Nb  tau(   2) = (  0.8950370  0.7818580  0.2802840  )
         3           Br  tau(   3) = (  0.8875250  0.3720130  0.6493230  )
         4           Br  tau(   4) = (  0.2284430  0.1733330  0.4582110  )
         5           Br  tau(   5) = (  0.1124750  0.6279870  0.3506770  )
         6           Br  tau(   6) = (  0.5646100  0.4357920  0.1747090  )
         7           Br  tau(   7) = (  0.4353900  0.5642080  0.8252910  )
         8           Br  tau(   8) = (  0.7035850  0.9856670  0.2545750  )
         9           Br  tau(   9) = (  0.7715570  0.8266670  0.5417890  )
        10           Br  tau(  10) = (  0.0700280  0.8162250  0.0763650  )
        11           Br  tau(  11) = (  0.9299720  0.1837750  0.9236350  )
        12           Br  tau(  12) = (  0.2964150  0.0143330  0.7454250  )

     number of k points=     1  Methfessel-Paxton smearing, width (Ry)=  0.0010
                       cart. coord. in units 2pi/alat
        k(    1) = (   0.0000000   0.0000000   0.0000000), wk =   2.0000000

                       cryst. coord.
        k(    1) = (   0.0000000   0.0000000   0.0000000), wk =   2.0000000

     Check: negative core charge=   -0.000004

     Initial potential from superposition of free atoms

     starting charge      95.9956, renormalised to      96.0000
     Starting wfcs are   60 randomized atomic wfcs
     Checking if some PAW data can be deallocated...

     Self-consistent Calculation

     iteration #  1     ecut=    30.00 Ry     beta= 0.70
     Davidson diagonalization with overlap

     ethr =  1.00E-02,  avg # of iterations =  2.0

     total energy              =   -1136.20046218 Ry
     estimated scf accuracy    <       2.42241596 Ry

[...]

     total energy              =   -1137.71903436 Ry
     estimated scf accuracy    <       0.00000222 Ry

     iteration # 12     ecut=    30.00 Ry     beta= 0.70
     Davidson diagonalization with overlap

     ethr =  2.31E-09,  avg # of iterations =  2.0

     End of self-consistent calculation

          k = 0.0000 0.0000 0.0000 (  4124 PWs)   bands (ev):

   -54.3399 -54.3395 -30.3872 -30.3854 -30.3210 -30.3125 -30.2870 -30.2866
   -12.6261 -12.3544 -12.2444 -12.2349 -12.1181 -11.9369 -11.8089 -11.7936
   -11.6216 -11.5587  -2.1976  -2.1009  -1.8322  -1.6238  -1.5217  -1.4929
    -1.4800  -1.4029  -1.2996  -1.2060  -1.0846  -0.9256  -0.9157  -0.6848
    -0.6772  -0.2094  -0.1451   0.0695   0.3550   0.3927   0.4825   0.5267
     0.8612   0.9980   1.0475   1.1510   1.1852   1.2644   1.3015   1.3427
     3.0147   3.1371   3.1473   3.2027   3.3802   3.3926   4.8377   5.4964
     5.7297   5.7655

     occupation numbers
     1.0000   1.0000   1.0000   1.0000   1.0000   1.0000   1.0000   1.0000
     1.0000   1.0000   1.0000   1.0000   1.0000   1.0000   1.0000   1.0000
     1.0000   1.0000   1.0000   1.0000   1.0000   1.0000   1.0000   1.0000
     1.0000   1.0000   1.0000   1.0000   1.0000   1.0000   1.0000   1.0000
     1.0000   1.0000   1.0000   1.0000   1.0000   1.0000   1.0000   1.0000
     1.0000   1.0000   1.0000   1.0000   1.0000   1.0000   1.0000   1.0000
    -0.0000  -0.0000  -0.0000  -0.0000  -0.0000  -0.0000  -0.0000  -0.0000
    -0.0000  -0.0000

     the Fermi energy is     2.1280 ev

!    total energy              =   -1137.71903473 Ry
     estimated scf accuracy    <       0.00000005 Ry
     smearing contrib. (-TS)   =       0.00000000 Ry
     internal energy E=F+TS    =   -1137.71903473 Ry

     The total energy is F=E-TS. E is the sum of the following terms:
     one-electron contribution =    -269.34631011 Ry
     hartree contribution      =     163.62514411 Ry
     xc contribution           =    -318.59523537 Ry
     ewald contribution        =    -296.44114712 Ry
     one-center paw contrib.   =    -416.96148624 Ry
      -> PAW hartree energy AE =      65.78168412 Ry
      -> PAW hartree energy PS =     -65.41627618 Ry
      -> PAW xc energy AE      =    -235.57719609 Ry
      -> PAW xc energy PS      =      26.73104503 Ry
      -> total E_H with PAW    =     163.99055205 Ry
      -> total E_XC with PAW   =    -527.44138643 Ry

     convergence has been achieved in  12 iterations

     Forces acting on atoms (cartesian axes, Ry/au):

     atom    1 type  1   force =     0.00369249    0.00765269    0.01430338
     atom    2 type  1   force =    -0.00369249   -0.00765269   -0.01430338
     atom    3 type  2   force =     0.00483252   -0.00478675   -0.00078366
     atom    4 type  2   force =    -0.00050750   -0.00657005    0.00475999
     atom    5 type  2   force =    -0.00483252    0.00478675    0.00078366
     atom    6 type  2   force =     0.00008077    0.00539253    0.00527765
     atom    7 type  2   force =    -0.00008077   -0.00539253   -0.00527765
     atom    8 type  2   force =     0.00938813    0.00133975    0.00441765
     atom    9 type  2   force =     0.00050750    0.00657005   -0.00475999
     atom   10 type  2   force =    -0.00250950   -0.00224533    0.00508603
     atom   11 type  2   force =     0.00250950    0.00224533   -0.00508603
     atom   12 type  2   force =    -0.00938813   -0.00133975   -0.00441765
     The non-local contrib.  to forces
     atom    1 type  1   force =    -0.00519933   -0.02396501   -0.05481470
     atom    2 type  1   force =     0.00519933    0.02396501    0.05481470
     atom    3 type  2   force =     0.01543954   -0.01379066    0.00861764
     atom    4 type  2   force =     0.01595460    0.01757371    0.00068026
     atom    5 type  2   force =    -0.01543954    0.01379066   -0.00861764
     atom    6 type  2   force =     0.01353123    0.02506770    0.02178741
     atom    7 type  2   force =    -0.01353123   -0.02506770   -0.02178741
     atom    8 type  2   force =     0.02011170   -0.01000282    0.01185238
     atom    9 type  2   force =    -0.01595460   -0.01757371   -0.00068026
     atom   10 type  2   force =    -0.01475962   -0.01681732    0.02452518
     atom   11 type  2   force =     0.01475962    0.01681732   -0.02452518
     atom   12 type  2   force =    -0.02011170    0.01000282   -0.01185238
     The ionic contribution  to forces
     atom    1 type  1   force =     0.03100991    0.87917532    3.73913600
     atom    2 type  1   force =    -0.03100991   -0.87917532   -3.73913600
     atom    3 type  2   force =    -6.41537668    4.78954415   -0.66469177
     atom    4 type  2   force =     4.97494196    6.72494821   -2.03780257
     atom    5 type  2   force =     6.41537668   -4.78954415    0.66469177
     atom    6 type  2   force =    -3.35467116   -6.72341595   -3.57910448
     atom    7 type  2   force =     3.35467116    6.72341595    3.57910448
     atom    8 type  2   force =    -6.43987226    4.83421607   -2.66673049
     atom    9 type  2   force =    -4.97494196   -6.72494821    2.03780257
     atom   10 type  2   force =     3.67510517    3.72948513   -6.35259107
     atom   11 type  2   force =    -3.67510517   -3.72948513    6.35259107
     atom   12 type  2   force =     6.43987226   -4.83421607    2.66673049
     The local contribution  to forces
     atom    1 type  1   force =    -0.02283951   -0.84879899   -3.67260517
     atom    2 type  1   force =     0.02275049    0.84889882    3.67257762
     atom    3 type  2   force =     6.41941186   -4.78894286    0.65955248
     atom    4 type  2   force =    -5.00662108   -6.76760423    2.04526613
     atom    5 type  2   force =    -6.41944850    4.78895050   -0.65961808
     atom    6 type  2   force =     3.34943366    6.71687356    3.56667375
     atom    7 type  2   force =    -3.34940785   -6.71682474   -3.56663173
     atom    8 type  2   force =     6.44166475   -4.83362132    2.65695453
     atom    9 type  2   force =     5.00659832    6.76761887   -2.04535524
     atom   10 type  2   force =    -3.67071904   -3.72075708    6.34637104
     atom   11 type  2   force =     3.67067618    3.72073494   -6.34627809
     atom   12 type  2   force =    -6.44166790    4.83363829   -2.65694670
     The core correction contribution to forces
     atom    1 type  1   force =     0.00068457    0.00146945    0.00276585
     atom    2 type  1   force =    -0.00068721   -0.00146750   -0.00276624
     atom    3 type  2   force =    -0.01460251    0.00839831   -0.00423269
     atom    4 type  2   force =     0.01522691    0.01856275   -0.00342331
     atom    5 type  2   force =     0.01460087   -0.00839764    0.00423086
     atom    6 type  2   force =    -0.00815916   -0.01306156   -0.00401788
     atom    7 type  2   force =     0.00816074    0.01306297    0.00401888
     atom    8 type  2   force =    -0.01251105    0.01072455    0.00228030
     atom    9 type  2   force =    -0.01522789   -0.01856379    0.00341976
     atom   10 type  2   force =     0.00779103    0.00579272   -0.01306722
     atom   11 type  2   force =    -0.00779204   -0.00579365    0.01306877
     atom   12 type  2   force =     0.01251075   -0.01072445   -0.00228176
     The Hubbard contrib.    to forces
     atom    1 type  1   force =     0.00000000    0.00000000    0.00000000
     atom    2 type  1   force =     0.00000000    0.00000000    0.00000000
     atom    3 type  2   force =     0.00000000    0.00000000    0.00000000
     atom    4 type  2   force =     0.00000000    0.00000000    0.00000000
     atom    5 type  2   force =     0.00000000    0.00000000    0.00000000
     atom    6 type  2   force =     0.00000000    0.00000000    0.00000000
     atom    7 type  2   force =     0.00000000    0.00000000    0.00000000
     atom    8 type  2   force =     0.00000000    0.00000000    0.00000000
     atom    9 type  2   force =     0.00000000    0.00000000    0.00000000
     atom   10 type  2   force =     0.00000000    0.00000000    0.00000000
     atom   11 type  2   force =     0.00000000    0.00000000    0.00000000
     atom   12 type  2   force =     0.00000000    0.00000000    0.00000000
     The SCF correction term to forces
     atom    1 type  1   force =     0.00003384   -0.00023011   -0.00017798
     atom    2 type  1   force =     0.00005179    0.00012428    0.00020717
     atom    3 type  2   force =    -0.00004026    0.00000541   -0.00002370
     atom    4 type  2   force =    -0.00000547   -0.00005008    0.00004759
     atom    5 type  2   force =     0.00007739   -0.00001151    0.00010237
     atom    6 type  2   force =    -0.00005581   -0.00007143   -0.00006359
     atom    7 type  2   force =     0.00002441    0.00002076    0.00001570
     atom    8 type  2   force =    -0.00001074    0.00002557    0.00006199
     atom    9 type  2   force =     0.00003806    0.00003731    0.00006128
     atom   10 type  2   force =     0.00007224    0.00005145   -0.00015596
     atom   11 type  2   force =    -0.00002982   -0.00002794    0.00005335
     atom   12 type  2   force =     0.00000272   -0.00003804   -0.00006623

     Total force =     0.034448     Total SCF correction =     0.000488

     Computing stress (Cartesian axis) and pressure

          total   stress  (Ry/bohr**3)                   (kbar)     P=       -3.11
  -0.00004765  -0.00001403   0.00000779           -7.01       -2.06        1.15
  -0.00001403   0.00001954   0.00000549           -2.06        2.87        0.81
   0.00000779   0.00000549  -0.00003526            1.15        0.81       -5.19

     kinetic stress (kbar)   5732.59    -21.63      3.92
                              -21.63   5731.77     -5.95
                                3.92     -5.95   5698.84

     local   stress (kbar)   -559.66    536.04    -47.87
                              536.04    283.44  -1000.72
                              -47.87  -1000.72  -2667.74

     nonloc. stress (kbar)   -713.29      4.76     -0.89
                                4.76   -711.40      7.61
                               -0.89      7.61   -684.62

     hartree stress (kbar)   2502.82   -224.12     15.51
                             -224.12   2116.56    467.76
                               15.51    467.76   3483.22

     exc-cor stress (kbar)   9835.52     -0.68      0.18
                               -0.68   9835.04     -0.42
                                0.18     -0.42   9833.87

     corecor stress (kbar) -11683.42      0.55     -0.17
                                0.55 -11683.37      0.81
                               -0.17      0.81 -11679.94

     ewald   stress (kbar)  -5121.56   -296.98     30.48
                             -296.98  -5569.17    531.72
                               30.48    531.72  -3988.82

     hubbard stress (kbar)      0.00      0.00      0.00
                                0.00      0.00      0.00
                                0.00      0.00      0.00

     DFT-D   stress (kbar)      0.00      0.00      0.00
                                0.00      0.00      0.00
                                0.00      0.00      0.00

     XDM     stress (kbar)      0.00      0.00      0.00
                                0.00      0.00      0.00
                                0.00      0.00      0.00

     dft-nl  stress (kbar)      0.00      0.00      0.00
                                0.00      0.00      0.00
                                0.00      0.00      0.00

     TS-vdW  stress (kbar)      0.00      0.00      0.00
                                0.00      0.00      0.00
                                0.00      0.00      0.00

[...]

                                0.00      0.00      0.00

     Writing all to output data dir calculations/myprefix.save/

     General routines

     Parallel routines

     PAW routines

   This run was terminated on:   9:32:10   6Mar2023

   JOB DONE.