     Program PWSCF v.7.0 starts on  6Mar2023 at 14:12:17

     R & G space division:  proc/nbgrp/npool/nimage =      32

     Reading input from espresso_4881.pwi
Warning: card &CELL ignored
Warning: card / ignored

     Current dimensions of program PWSCF are:
     Max number of different atomic species (ntypx) = 10
     Max number of k-points (npk) =  40000
     Max angular momentum in pseudopotentials (lmaxx) =  4
     file Cd.pbe-dn-rrkjus_psl.0.3.1.UPF: wavefunction(s)  4D renormalized

     gamma-point specific algorithms are used
     Message from routine setup:
     using ibrav=0 with symmetry is DISCOURAGED, use correct ibrav instead

     Using Slab Decomposition

     bravais-lattice index     =            0
     lattice parameter (alat)  =      10.6424  a.u.
     unit-cell volume          =    2506.7293 (a.u.)^3
     number of atoms/cell      =           16
     number of atomic types    =            3
     number of electrons       =       208.00
     number of Kohn-Sham states=          125
     kinetic-energy cutoff     =      30.0000  Ry
     charge density cutoff     =     240.0000  Ry
     scf convergence threshold =      1.0E-06
     mixing beta               =       0.7000
     number of iterations used =            8  plain     mixing
     Exchange-correlation= PBE
                           (   1   4   3   4   0   0   0)

     celldm(1)=  10.642369  celldm(2)=   0.000000  celldm(3)=   0.000000
     celldm(4)=   0.000000  celldm(5)=   0.000000  celldm(6)=   0.000000

     crystal axes: (cart. coord. in units of alat)
               a(1) = (   1.000000   0.000000   0.000000 )
               a(2) = (   0.000000   1.430246   0.000000 )
               a(3) = (   0.000000   0.000000   1.454058 )

     reciprocal axes: (cart. coord. in units 2 pi/alat)
               b(1) = (  1.000000  0.000000  0.000000 )
               b(2) = (  0.000000  0.699180  0.000000 )
               b(3) = (  0.000000  0.000000  0.687731 )

     PseudoPot. # 1 for Ca read from file:
     /home/pragov/projects/rrg-bengioy-ad/pragov/crystal_structure_design/SSSP/Ca_pbe_v1.uspp.F.UPF
     MD5 check sum: 403a4c14b9e4d4dfdc3024c9a3812218
     Pseudo is Ultrasoft + core correction, Zval = 10.0
     Generated by new atomic code, or converted to UPF format
     Using radial grid of  845 points,  6 beta functions with:
                l(1) =   0
                l(2) =   0
                l(3) =   1
                l(4) =   1
                l(5) =   2
                l(6) =   2
     Q(r) pseudized with  8 coefficients,  rinner =    1.500   1.500   1.500
                                                       1.500   1.500

     PseudoPot. # 2 for Cd read from file:
     /home/pragov/projects/rrg-bengioy-ad/pragov/crystal_structure_design/SSSP/Cd.pbe-dn-rrkjus_psl.0.3.1.UPF
     MD5 check sum: 558e9f355611b531a870a69ef6ace9e2
     Pseudo is Ultrasoft + core correction, Zval = 12.0
     Generated using "atomic" code by A. Dal Corso  v.5.0.99 svn rev. 10869
     Using radial grid of 1239 points,  6 beta functions with:
                l(1) =   0
                l(2) =   0
                l(3) =   1
                l(4) =   1
                l(5) =   2
                l(6) =   2
     Q(r) pseudized with 0 coefficients

     PseudoPot. # 3 for Pd read from file:
     /home/pragov/projects/rrg-bengioy-ad/pragov/crystal_structure_design/SSSP/Pd_ONCV_PBE-1.0.oncvpsp.upf
     MD5 check sum: eb77f42b51d86fb18e25f68156a31cf1
     Pseudo is Norm-conserving, Zval = 18.0
     Generated using ONCVPSP code by D. R. Hamann
     Using radial grid of 1410 points,  6 beta functions with:
                l(1) =   0
                l(2) =   0
                l(3) =   1
                l(4) =   1
                l(5) =   2
                l(6) =   2

     atomic species   valence    mass     pseudopotential
        Ca            10.00    40.07800     Ca( 1.00)
        Cd            12.00   112.41400     Cd( 1.00)
        Pd            18.00   106.42000     Pd( 1.00)

      8 Sym. Ops., with inversion, found ( 6 have fractional translation)

                                    s                        frac. trans.

      isym =  1     identity

 cryst.   s( 1) = (     1          0          0      )
                  (     0          1          0      )
                  (     0          0          1      )

 cart.    s( 1) = (  1.0000000  0.0000000  0.0000000 )
                  (  0.0000000  1.0000000  0.0000000 )
                  (  0.0000000  0.0000000  1.0000000 )

      isym =  2     180 deg rotation - cart. axis [0,0,1]

 cryst.   s( 2) = (    -1          0          0      )    f =(  0.0000000 )
                  (     0         -1          0      )       (  0.0000000 )
                  (     0          0          1      )       ( -0.5000000 )

 cart.    s( 2) = ( -1.0000000  0.0000000  0.0000000 )    f =(  0.0000000 )
                  (  0.0000000 -1.0000000  0.0000000 )       (  0.0000000 )
                  (  0.0000000  0.0000000  1.0000000 )       ( -0.7270289 )

[...]

      isym =  4     180 deg rotation - cart. axis [1,0,0]

[...]

      isym =  5     inversion

 cryst.   s( 5) = (    -1          0          0      )
                  (     0         -1          0      )
                  (     0          0         -1      )

 cart.    s( 5) = ( -1.0000000  0.0000000  0.0000000 )
                  (  0.0000000 -1.0000000  0.0000000 )
                  (  0.0000000  0.0000000 -1.0000000 )

      isym =  6     inv. 180 deg rotation - cart. axis [0,0,1]

[...]

      isym =  8     inv. 180 deg rotation - cart. axis [1,0,0]

 cryst.   s( 8) = (    -1          0          0      )    f =(  0.5000000 )
                  (     0          1          0      )       ( -0.5000000 )
                  (     0          0          1      )       (  0.0000000 )

 cart.    s( 8) = ( -1.0000000  0.0000000  0.0000000 )    f =(  0.5000000 )
                  (  0.0000000  1.0000000  0.0000000 )       ( -0.7151232 )
                  (  0.0000000  0.0000000  1.0000000 )       (  0.0000000 )

   Cartesian axes

     site n.     atom                  positions (alat units)
         1           Ca  tau(   1) = (   0.3988060   0.7631194   0.3635145  )
         2           Ca  tau(   2) = (   0.1011940   0.0479962   0.3635145  )
         3           Ca  tau(   3) = (   0.6011940   0.6671270   1.0905434  )
         4           Ca  tau(   4) = (   0.8988060   1.3822502   1.0905434  )
         5           Cd  tau(   5) = (   0.9049540   0.9608738   0.0806464  )
         6           Cd  tau(   6) = (   0.5950460   0.2457507   0.6463825  )
         7           Cd  tau(   7) = (   0.0950460   0.4693725   0.8076753  )
         8           Cd  tau(   8) = (   0.4049540   1.1844957   1.3734114  )
         9           Cd  tau(   9) = (   0.0950460   0.4693725   1.3734114  )
        10           Cd  tau(  10) = (   0.4049540   1.1844957   0.8076753  )
        11           Cd  tau(  11) = (   0.9049540   0.9608738   0.6463825  )
        12           Cd  tau(  12) = (   0.5950460   0.2457507   0.0806464  )
        13           Pd  tau(  13) = (   0.6175230   1.2558693   0.3635145  )
        14           Pd  tau(  14) = (   0.8824770   0.5407461   0.3635145  )
        15           Pd  tau(  15) = (   0.3824770   0.1743771   1.0905434  )
        16           Pd  tau(  16) = (   0.1175230   0.8895002   1.0905434  )

   Crystallographic axes

     site n.     atom                  positions (cryst. coord.)
         1           Ca  tau(   1) = (  0.3988060  0.5335580  0.2500000  )
         2           Ca  tau(   2) = (  0.1011940  0.0335580  0.2500000  )
         3           Ca  tau(   3) = (  0.6011940  0.4664420  0.7500000  )
         4           Ca  tau(   4) = (  0.8988060  0.9664420  0.7500000  )
         5           Cd  tau(   5) = (  0.9049540  0.6718240  0.0554630  )
         6           Cd  tau(   6) = (  0.5950460  0.1718240  0.4445370  )
         7           Cd  tau(   7) = (  0.0950460  0.3281760  0.5554630  )
         8           Cd  tau(   8) = (  0.4049540  0.8281760  0.9445370  )
         9           Cd  tau(   9) = (  0.0950460  0.3281760  0.9445370  )
        10           Cd  tau(  10) = (  0.4049540  0.8281760  0.5554630  )
        11           Cd  tau(  11) = (  0.9049540  0.6718240  0.4445370  )
        12           Cd  tau(  12) = (  0.5950460  0.1718240  0.0554630  )
        13           Pd  tau(  13) = (  0.6175230  0.8780790  0.2500000  )
        14           Pd  tau(  14) = (  0.8824770  0.3780790  0.2500000  )
        15           Pd  tau(  15) = (  0.3824770  0.1219210  0.7500000  )
        16           Pd  tau(  16) = (  0.1175230  0.6219210  0.7500000  )

     number of k points=     1  Methfessel-Paxton smearing, width (Ry)=  0.0010
                       cart. coord. in units 2pi/alat
        k(    1) = (   0.0000000   0.0000000   0.0000000), wk =   2.0000000

                       cryst. coord.
        k(    1) = (   0.0000000   0.0000000   0.0000000), wk =   2.0000000

     Check: negative core charge=   -0.000002

     Initial potential from superposition of free atoms

     starting charge     207.9377, renormalised to     208.0000
     Starting wfcs are  152 randomized atomic wfcs

     Self-consistent Calculation

     iteration #  1     ecut=    30.00 Ry     beta= 0.70
     Davidson diagonalization with overlap

     ethr =  1.00E-02,  avg # of iterations =  3.0

     Threshold (ethr) on eigenvalues was too large:
     Diagonalizing with lowered threshold

     Davidson diagonalization with overlap

[...]

     total energy              =   -2288.92741686 Ry
     estimated scf accuracy    <       1.68413313 Ry

[...]

     total energy              =   -2289.84060943 Ry
     estimated scf accuracy    <       0.00000274 Ry

     iteration # 15     ecut=    30.00 Ry     beta= 0.70
     Davidson diagonalization with overlap

     ethr =  1.32E-09,  avg # of iterations =  3.0

     End of self-consistent calculation

          k = 0.0000 0.0000 0.0000 (  3486 PWs)   bands (ev):

   -74.5671 -74.5657 -74.5656 -74.5649 -40.0415 -40.0405 -40.0399 -40.0392
   -39.9745 -39.9736 -39.9728 -39.9721 -39.9155 -39.9134 -39.9121 -39.9112
   -30.7516 -30.7503 -30.7501 -30.7488 -11.8450 -11.8426 -11.8242 -11.8230
   -11.7928 -11.7891 -11.7642 -11.7623 -11.7047 -11.7040 -11.7030 -11.7022
     1.7478   1.7517   1.8255   1.8276   1.8456   1.8922   1.9067   1.9079
     1.9220   1.9481   1.9494   1.9653   1.9658   1.9820   1.9865   2.0197
     2.0312   2.0656   2.0946   2.1016   2.1100   2.1408   2.1427   2.1751
     2.2067   2.2308   2.2464   2.2812   2.2826   2.3043   2.3204   2.3381
     2.3383   2.3387   2.3413   2.3768   2.3956   2.4172   2.4462   2.4586
     3.4834   5.6368   5.7543   5.9721   6.0604   6.5625   7.0855   7.4366
     7.5629   7.5912   7.6994   7.7144   7.7879   7.8538   7.8593   7.9006
     8.0026   8.0331   8.0452   8.1989   8.2088   8.3260   8.3611   8.4048
     8.4435   9.1149   9.2405   9.3779   9.4023   9.8476  10.0954  10.9250
    11.0594  11.0755  11.2605  11.4686  11.7497  11.7512  12.3320  12.8124
    12.9923  13.0352  13.1130  13.2227  13.3027  13.3554  13.4651  13.6537
    14.1891  14.3046  14.3221  14.4204  14.7060

     occupation numbers
     1.0000   1.0000   1.0000   1.0000   1.0000   1.0000   1.0000   1.0000
     1.0000   1.0000   1.0000   1.0000   1.0000   1.0000   1.0000   1.0000
     1.0000   1.0000   1.0000   1.0000   1.0000   1.0000   1.0000   1.0000
     1.0000   1.0000   1.0000   1.0000   1.0000   1.0000   1.0000   1.0000
     1.0000   1.0000   1.0000   1.0000   1.0000   1.0000   1.0000   1.0000
     1.0000   1.0000   1.0000   1.0000   1.0000   1.0000   1.0000   1.0000
     1.0000   1.0000   1.0000   1.0000   1.0000   1.0000   1.0000   1.0000
     1.0000   1.0000   1.0000   1.0000   1.0000   1.0000   1.0000   1.0000
     1.0000   1.0000   1.0000   1.0000   1.0000   1.0000   1.0000   1.0000
     1.0000   1.0000   1.0000   1.0000   1.0000   1.0000   1.0000   1.0000
     1.0000   1.0000   1.0000   1.0000   1.0000   1.0000   1.0000   1.0000
     1.0000   1.0000   1.0000   1.0000   1.0000   1.0000   1.0000   1.0000
     1.0000   1.0000   1.0000   1.0000   1.0000   1.0000   1.0000   1.0000
    -0.0000  -0.0000  -0.0000  -0.0000  -0.0000  -0.0000  -0.0000  -0.0000
    -0.0000  -0.0000  -0.0000  -0.0000  -0.0000  -0.0000  -0.0000  -0.0000
    -0.0000  -0.0000  -0.0000  -0.0000  -0.0000

     the Fermi energy is    10.9944 ev

!    total energy              =   -2289.84060918 Ry
     estimated scf accuracy    <       0.00000099 Ry
     smearing contrib. (-TS)   =       0.00000000 Ry
     internal energy E=F+TS    =   -2289.84060918 Ry

     The total energy is F=E-TS. E is the sum of the following terms:
     one-electron contribution =    -994.80238187 Ry
     hartree contribution      =     630.77817355 Ry
     xc contribution           =    -489.79888947 Ry
     ewald contribution        =   -1436.01751138 Ry

     convergence has been achieved in  15 iterations

     Forces acting on atoms (cartesian axes, Ry/au):

     atom    1 type  1   force =     0.02096116    0.00913638    0.00000000
     atom    2 type  1   force =    -0.02096116    0.00913638   -0.00000000
     atom    3 type  1   force =    -0.02096116   -0.00913638    0.00000000
     atom    4 type  1   force =     0.02096116   -0.00913638   -0.00000000
     atom    5 type  2   force =    -0.00628299   -0.01181925   -0.00257227
     atom    6 type  2   force =     0.00628299   -0.01181925    0.00257227
     atom    7 type  2   force =     0.00628299    0.01181925   -0.00257227
     atom    8 type  2   force =    -0.00628299    0.01181925    0.00257227
     atom    9 type  2   force =     0.00628299    0.01181925    0.00257227
     atom   10 type  2   force =    -0.00628299    0.01181925   -0.00257227
     atom   11 type  2   force =    -0.00628299   -0.01181925    0.00257227
     atom   12 type  2   force =     0.00628299   -0.01181925   -0.00257227
     atom   13 type  3   force =     0.01701336    0.00094704    0.00000000
     atom   14 type  3   force =    -0.01701336    0.00094704    0.00000000
     atom   15 type  3   force =    -0.01701336   -0.00094704    0.00000000
     atom   16 type  3   force =     0.01701336   -0.00094704    0.00000000
     The non-local contrib.  to forces
     atom    1 type  1   force =    -0.00773224    0.00793124    0.00000000
     atom    2 type  1   force =     0.00773224    0.00793124    0.00000000
     atom    3 type  1   force =     0.00773224   -0.00793124    0.00000000
     atom    4 type  1   force =    -0.00773224   -0.00793124    0.00000000
     atom    5 type  2   force =     0.07288133    0.08091392    0.01233758
     atom    6 type  2   force =    -0.07288133    0.08091392   -0.01233758
     atom    7 type  2   force =    -0.07288133   -0.08091392    0.01233758
     atom    8 type  2   force =     0.07288133   -0.08091392   -0.01233758
     atom    9 type  2   force =    -0.07288133   -0.08091392   -0.01233758
     atom   10 type  2   force =     0.07288133   -0.08091392    0.01233758
     atom   11 type  2   force =     0.07288133    0.08091392   -0.01233758
     atom   12 type  2   force =    -0.07288133    0.08091392    0.01233758
     atom   13 type  3   force =     0.03075977   -0.01103309    0.00000000
     atom   14 type  3   force =    -0.03075977   -0.01103309   -0.00000000
     atom   15 type  3   force =    -0.03075977    0.01103309   -0.00000000
     atom   16 type  3   force =     0.03075977    0.01103309    0.00000000
     The ionic contribution  to forces
     atom    1 type  1   force =    -1.86183924   -1.16171698   -0.00000000
     atom    2 type  1   force =     1.86183924   -1.16171698   -0.00000000
     atom    3 type  1   force =     1.86183924    1.16171698   -0.00000000
     atom    4 type  1   force =    -1.86183924    1.16171698   -0.00000000
     atom    5 type  2   force =     0.49739506    3.04460855   -1.88686439
     atom    6 type  2   force =    -0.49739506    3.04460855    1.88686439
     atom    7 type  2   force =    -0.49739506   -3.04460855   -1.88686439
     atom    8 type  2   force =     0.49739506   -3.04460855    1.88686439
     atom    9 type  2   force =    -0.49739506   -3.04460855    1.88686439
     atom   10 type  2   force =     0.49739506   -3.04460855   -1.88686439
     atom   11 type  2   force =     0.49739506    3.04460855    1.88686439
     atom   12 type  2   force =    -0.49739506    3.04460855   -1.88686439
     atom   13 type  3   force =    -1.20824823   -0.55425475   -0.00000000
     atom   14 type  3   force =     1.20824823   -0.55425475   -0.00000000
     atom   15 type  3   force =     1.20824823    0.55425475   -0.00000000
     atom   16 type  3   force =    -1.20824823    0.55425475   -0.00000000
     The local contribution  to forces
     atom    1 type  1   force =     1.89060115    1.16412976    0.00063940
     atom    2 type  1   force =    -1.89069753    1.16415161    0.00024424
     atom    3 type  1   force =    -1.89102676   -1.16455972   -0.00019662
     atom    4 type  1   force =     1.89100283   -1.16349711   -0.00060367
     atom    5 type  2   force =    -0.57582644   -3.13295293    1.87252550
     atom    6 type  2   force =     0.57575405   -3.13375734   -1.87184986
     atom    7 type  2   force =     0.57611066    3.13249269    1.87220955
     atom    8 type  2   force =    -0.57638013    3.13421495   -1.87241037
     atom    9 type  2   force =     0.57671498    3.13189818   -1.87192982
     atom   10 type  2   force =    -0.57647169    3.13331811    1.87132084
     atom   11 type  2   force =    -0.57610369   -3.13195530   -1.87159090
     atom   12 type  2   force =     0.57621459   -3.13316350    1.87151313
     atom   13 type  3   force =     1.19404545    0.56634078    0.00211437
     atom   14 type  3   force =    -1.19406788    0.56471165   -0.00010419
     atom   15 type  3   force =    -1.19454582   -0.56617375    0.00023979
     atom   16 type  3   force =     1.19505574   -0.56565716   -0.00160006
     The core correction contribution to forces
     atom    1 type  1   force =    -0.00017099   -0.00101773    0.00000427
     atom    2 type  1   force =     0.00016854   -0.00101937   -0.00000272
     atom    3 type  1   force =     0.00016860    0.00101787    0.00000326
     atom    4 type  1   force =    -0.00016668    0.00102255   -0.00000383
     atom    5 type  2   force =    -0.00048176   -0.00429102    0.00001888
     atom    6 type  2   force =     0.00047913   -0.00429160   -0.00001218
     atom    7 type  2   force =     0.00047852    0.00428335    0.00001051
     atom    8 type  2   force =    -0.00048911    0.00429962   -0.00001246
     atom    9 type  2   force =     0.00049389    0.00427931   -0.00000399
     atom   10 type  2   force =    -0.00048957    0.00428521   -0.00000271
     atom   11 type  2   force =    -0.00048478   -0.00427331   -0.00000751
     atom   12 type  2   force =     0.00049190   -0.00428930    0.00000523
     atom   13 type  3   force =     0.00000000    0.00000000    0.00000000
     atom   14 type  3   force =     0.00000000    0.00000000    0.00000000
     atom   15 type  3   force =     0.00000000    0.00000000    0.00000000
     atom   16 type  3   force =     0.00000000    0.00000000    0.00000000
     The Hubbard contrib.    to forces
     atom    1 type  1   force =     0.00000000    0.00000000    0.00000000
     atom    2 type  1   force =     0.00000000    0.00000000    0.00000000
     atom    3 type  1   force =     0.00000000    0.00000000    0.00000000
     atom    4 type  1   force =     0.00000000    0.00000000    0.00000000
     atom    5 type  2   force =     0.00000000    0.00000000    0.00000000
     atom    6 type  2   force =     0.00000000    0.00000000    0.00000000
     atom    7 type  2   force =     0.00000000    0.00000000    0.00000000
     atom    8 type  2   force =     0.00000000    0.00000000    0.00000000
     atom    9 type  2   force =     0.00000000    0.00000000    0.00000000
     atom   10 type  2   force =     0.00000000    0.00000000    0.00000000
     atom   11 type  2   force =     0.00000000    0.00000000    0.00000000
     atom   12 type  2   force =     0.00000000    0.00000000    0.00000000
     atom   13 type  3   force =     0.00000000    0.00000000    0.00000000
     atom   14 type  3   force =     0.00000000    0.00000000    0.00000000
     atom   15 type  3   force =     0.00000000    0.00000000    0.00000000
     atom   16 type  3   force =     0.00000000    0.00000000    0.00000000
     The SCF correction term to forces
     atom    1 type  1   force =     0.00008393   -0.00018886   -0.00057396
     atom    2 type  1   force =    -0.00000898   -0.00019785   -0.00028905
     atom    3 type  1   force =     0.00033515    0.00061520    0.00023566
     atom    4 type  1   force =    -0.00028065   -0.00042972    0.00053887
     atom    5 type  2   force =    -0.00026693   -0.00015819   -0.00057863
     atom    6 type  2   force =     0.00026878    0.00079503   -0.00008450
     atom    7 type  2   force =    -0.00014294    0.00057439   -0.00024220
     atom    8 type  2   force =     0.00037386   -0.00122962    0.00047376
     atom    9 type  2   force =    -0.00061281    0.00123293    0.00002634
     atom   10 type  2   force =     0.00038869   -0.00031088    0.00065835
     atom   11 type  2   force =     0.00000349   -0.00116379   -0.00033868
     atom   12 type  2   force =    -0.00000374    0.00010584    0.00045769
     atom   13 type  3   force =     0.00049238   -0.00006782   -0.00215181
     atom   14 type  3   force =    -0.00053969    0.00169594   -0.00008009
     atom   15 type  3   force =     0.00010188    0.00017058   -0.00031221
     atom   16 type  3   force =    -0.00063777   -0.00059864    0.00151963

     Total force =     0.068841     Total SCF correction =     0.004534

     Computing stress (Cartesian axis) and pressure

          total   stress  (Ry/bohr**3)                   (kbar)     P=     -416.39
  -0.00255417   0.00000000   0.00000000         -375.73        0.00        0.00
   0.00000000  -0.00314272   0.00000000            0.00     -462.31        0.00
   0.00000000   0.00000000  -0.00279480            0.00        0.00     -411.13

     kinetic stress (kbar)  28897.05      0.00      0.00
                                0.00  28888.15      0.00
                                0.00      0.00  28862.67

     local   stress (kbar)    205.02      0.04      0.00
                                0.04 -11148.66     -0.01
                                0.00     -0.01 -12238.40

     nonloc. stress (kbar)    -32.15      0.00      0.00
                                0.00    -63.85      0.00
                                0.00      0.00    -12.35

     hartree stress (kbar)   8801.55     -0.02     -0.00
                               -0.02  13887.36     -0.01
                               -0.00     -0.01  14327.73

     exc-cor stress (kbar)   6694.31     -0.00     -0.00
                               -0.00   6696.05      0.00
                               -0.00      0.00   6697.67

     corecor stress (kbar) -12479.85      0.00      0.00
                                0.00 -12479.65     -0.00
                                0.00     -0.00 -12480.47

     ewald   stress (kbar) -32461.66      0.00     -0.00
                                0.00 -26241.71      0.00
                               -0.00      0.00 -25567.98

     hubbard stress (kbar)      0.00      0.00      0.00
                                0.00      0.00      0.00
                                0.00      0.00      0.00

     DFT-D   stress (kbar)      0.00      0.00      0.00
                                0.00      0.00      0.00
                                0.00      0.00      0.00

     XDM     stress (kbar)      0.00      0.00      0.00
                                0.00      0.00      0.00
                                0.00      0.00      0.00

     dft-nl  stress (kbar)      0.00      0.00      0.00
                                0.00      0.00      0.00
                                0.00      0.00      0.00

     TS-vdW  stress (kbar)      0.00      0.00      0.00
                                0.00      0.00      0.00
                                0.00      0.00      0.00

[...]

                                0.00      0.00      0.00

     Writing all to output data dir calculations/myprefix.save/

     General routines

     Parallel routines

   This run was terminated on:  14:12:21   6Mar2023

   JOB DONE.