     Program PWSCF v.7.0 starts on  6Mar2023 at 14:14: 9

     R & G space division:  proc/nbgrp/npool/nimage =      32

     Reading input from espresso_4889.pwi
Warning: card &CELL ignored
Warning: card / ignored

     Current dimensions of program PWSCF are:
     Max number of different atomic species (ntypx) = 10
     Max number of k-points (npk) =  40000
     Max angular momentum in pseudopotentials (lmaxx) =  4
     file O.pbe-n-kjpaw_psl.0.1.UPF: wavefunction(s)  2P renormalized

     gamma-point specific algorithms are used
     Message from routine setup:
     using ibrav=0 with symmetry is DISCOURAGED, use correct ibrav instead

     Using Slab Decomposition

     bravais-lattice index     =            0
     lattice parameter (alat)  =      10.8539  a.u.
     unit-cell volume          =    1948.6677 (a.u.)^3
     number of atoms/cell      =           16
     number of atomic types    =            5
     number of electrons       =       168.00
     number of Kohn-Sham states=          101
     kinetic-energy cutoff     =      30.0000  Ry
     charge density cutoff     =     240.0000  Ry
     scf convergence threshold =      1.0E-06
     mixing beta               =       0.7000
     number of iterations used =            8  plain     mixing
     Exchange-correlation= SLA  PW   PBX  PBC
                           (   1   4   3   4   0   0   0)

     celldm(1)=  10.853914  celldm(2)=   0.000000  celldm(3)=   0.000000
     celldm(4)=   0.000000  celldm(5)=   0.000000  celldm(6)=   0.000000

     crystal axes: (cart. coord. in units of alat)
               a(1) = (   1.000000   0.000000   0.000000 )
               a(2) = (   0.000000   1.000000   0.000000 )
               a(3) = (   0.000000   0.000000   1.523978 )

     reciprocal axes: (cart. coord. in units 2 pi/alat)
               b(1) = (  1.000000  0.000000  0.000000 )
               b(2) = (  0.000000  1.000000  0.000000 )
               b(3) = (  0.000000  0.000000  0.656178 )

     PseudoPot. # 1 for La read from file:
     /home/pragov/projects/rrg-bengioy-ad/pragov/crystal_structure_design/SSSP/La.GGA-PBE-paw-v1.0.UPF
     MD5 check sum: 436541e95c1ad8901025bd0b0ed42ae2
     Pseudo is Projector augmented-wave + core cor, Zval = 11.0
     Generated using ATOMPAW code
     Shape of augmentation charge: BESSEL
     Using radial grid of 1101 points,  8 beta functions with:
                l(1) =   0
                l(2) =   0
                l(3) =   1
                l(4) =   1
                l(5) =   2
                l(6) =   2
                l(7) =   3
                l(8) =   3
     Q(r) pseudized with 0 coefficients

     PseudoPot. # 2 for Cu read from file:
     /home/pragov/projects/rrg-bengioy-ad/pragov/crystal_structure_design/SSSP/Cu_pbe_v1.2.uspp.F.UPF
     MD5 check sum: 6e991ff952a84172a2a52a1c1e996048
     Pseudo is Ultrasoft + core correction, Zval = 19.0
     Generated by new atomic code, or converted to UPF format
     Using radial grid of  867 points,  6 beta functions with:
                l(1) =   0
                l(2) =   0
                l(3) =   1
                l(4) =   1
                l(5) =   2
                l(6) =   2
     Q(r) pseudized with  8 coefficients,  rinner =    1.150   1.150   1.150
                                                       1.150   1.150

     PseudoPot. # 3 for Se read from file:
     /home/pragov/projects/rrg-bengioy-ad/pragov/crystal_structure_design/SSSP/Se_pbe_v1.uspp.F.UPF
     MD5 check sum: 1b3568f3a8ae88f9a2a0ad0698632c85
     Pseudo is Ultrasoft + core correction, Zval =  6.0
     Generated by new atomic code, or converted to UPF format
     Using radial grid of  877 points,  6 beta functions with:
                l(1) =   0
                l(2) =   0
                l(3) =   1
                l(4) =   1
                l(5) =   2
                l(6) =   2
     Q(r) pseudized with  8 coefficients,  rinner =    1.300   1.300   1.300
                                                       1.300   1.300

     PseudoPot. # 4 for S  read from file:
     /home/pragov/projects/rrg-bengioy-ad/pragov/crystal_structure_design/SSSP/s_pbe_v1.4.uspp.F.UPF
     MD5 check sum: 88d86576ff6df21479756cfb9bdac1df
     Pseudo is Ultrasoft + core correction, Zval =  6.0
     Generated by new atomic code, or converted to UPF format
     Using radial grid of  907 points,  6 beta functions with:
                l(1) =   0
                l(2) =   0
                l(3) =   1
                l(4) =   1
                l(5) =   2
                l(6) =   2
     Q(r) pseudized with  8 coefficients,  rinner =    1.300   1.300   1.300
                                                       1.300   1.300

     PseudoPot. # 5 for O  read from file:
     /home/pragov/projects/rrg-bengioy-ad/pragov/crystal_structure_design/SSSP/O.pbe-n-kjpaw_psl.0.1.UPF
     MD5 check sum: 0234752ac141de4415c5fc33072bef88
     Pseudo is Projector augmented-wave + core cor, Zval =  6.0
     Generated using "atomic" code by A. Dal Corso  v.5.0.99 svn rev. 10869
     Shape of augmentation charge: BESSEL
     Using radial grid of 1095 points,  4 beta functions with:
                l(1) =   0
                l(2) =   0
                l(3) =   1
                l(4) =   1
     Q(r) pseudized with 0 coefficients

     atomic species   valence    mass     pseudopotential
        La            11.00   138.90547     La( 1.00)
        Cu            19.00    63.54600     Cu( 1.00)
        Se             6.00    78.97100     Se( 1.00)
        S              6.00    32.06000     S ( 1.00)
        O              6.00    15.99900     O ( 1.00)

      8 Sym. Ops. (no inversion) found

                                    s                        frac. trans.

      isym =  1     identity

 cryst.   s( 1) = (     1          0          0      )
                  (     0          1          0      )
                  (     0          0          1      )

 cart.    s( 1) = (  1.0000000  0.0000000  0.0000000 )
                  (  0.0000000  1.0000000  0.0000000 )
                  (  0.0000000  0.0000000  1.0000000 )

      isym =  2     180 deg rotation - cart. axis [0,0,1]

[...]

      isym =  4      90 deg rotation - cart. axis [0,0,1]

[...]

      isym =  5     inv. 180 deg rotation - cart. axis [0,1,0]

[...]

      isym =  8     inv. 180 deg rotation - cart. axis [1,-1,0]

 cryst.   s( 8) = (     0          1          0      )
                  (     1          0          0      )
                  (     0          0          1      )

 cart.    s( 8) = (  0.0000000  1.0000000  0.0000000 )
                  (  1.0000000  0.0000000  0.0000000 )
                  (  0.0000000  0.0000000  1.0000000 )

   Cartesian axes

     site n.     atom                  positions (alat units)
         1           La  tau(   1) = (   0.0000000   0.5000000   1.3062471  )
         2           La  tau(   2) = (   0.5000000   0.0000000   1.3062471  )
         3           La  tau(   3) = (   0.5000000   0.5000000   0.2154630  )
         4           La  tau(   4) = (   0.0000000   0.0000000   0.2158547  )
         5           Cu  tau(   5) = (   0.7522290   0.7522290   0.7643678  )
         6           Cu  tau(   6) = (   0.2477710   0.2477710   0.7643678  )
         7           Cu  tau(   7) = (   0.7522290   0.2477710   0.7643678  )
         8           Cu  tau(   8) = (   0.2477710   0.7522290   0.7643678  )
         9           Se  tau(   9) = (   0.0000000   0.5000000   0.5016310  )
        10           Se  tau(  10) = (   0.5000000   0.0000000   0.5016310  )
        11           Se  tau(  11) = (   0.5000000   0.5000000   1.0205348  )
        12           S   tau(  12) = (   0.0000000   0.0000000   0.9969192  )
        13           O   tau(  13) = (   0.7503730   0.7503730   1.5218244  )
        14           O   tau(  14) = (   0.2496270   0.2496270   1.5218244  )
        15           O   tau(  15) = (   0.7503730   0.2496270   1.5218244  )
        16           O   tau(  16) = (   0.2496270   0.7503730   1.5218244  )

   Crystallographic axes

     site n.     atom                  positions (cryst. coord.)
         1           La  tau(   1) = (  0.0000000  0.5000000  0.8571300  )
         2           La  tau(   2) = (  0.5000000  0.0000000  0.8571300  )
         3           La  tau(   3) = (  0.5000000  0.5000000  0.1413820  )
         4           La  tau(   4) = (  0.0000000  0.0000000  0.1416390  )
         5           Cu  tau(   5) = (  0.7522290  0.7522290  0.5015610  )
         6           Cu  tau(   6) = (  0.2477710  0.2477710  0.5015610  )
         7           Cu  tau(   7) = (  0.7522290  0.2477710  0.5015610  )
         8           Cu  tau(   8) = (  0.2477710  0.7522290  0.5015610  )
         9           Se  tau(   9) = (  0.0000000  0.5000000  0.3291590  )
        10           Se  tau(  10) = (  0.5000000  0.0000000  0.3291590  )
        11           Se  tau(  11) = (  0.5000000  0.5000000  0.6696520  )
        12           S   tau(  12) = (  0.0000000  0.0000000  0.6541560  )
        13           O   tau(  13) = (  0.7503730  0.7503730  0.9985870  )
        14           O   tau(  14) = (  0.2496270  0.2496270  0.9985870  )
        15           O   tau(  15) = (  0.7503730  0.2496270  0.9985870  )
        16           O   tau(  16) = (  0.2496270  0.7503730  0.9985870  )

     number of k points=     1  Methfessel-Paxton smearing, width (Ry)=  0.0010
                       cart. coord. in units 2pi/alat
        k(    1) = (   0.0000000   0.0000000   0.0000000), wk =   2.0000000

                       cryst. coord.
        k(    1) = (   0.0000000   0.0000000   0.0000000), wk =   2.0000000

     Check: negative core charge=   -0.000004

     Initial potential from superposition of free atoms

     starting charge     163.9656, renormalised to     168.0000
     Starting wfcs are  212 randomized atomic wfcs
     Checking if some PAW data can be deallocated...

     Self-consistent Calculation

     iteration #  1     ecut=    30.00 Ry     beta= 0.70
     Davidson diagonalization with overlap

     ethr =  1.00E-02,  avg # of iterations =  2.0

     total energy              =   -3762.31697054 Ry
     estimated scf accuracy    <      11.70271898 Ry

[...]

     c_bands:  2 eigenvalues not converged
     ethr =  6.23E-06,  avg # of iterations = 20.0

[...]

     c_bands:  2 eigenvalues not converged
     ethr =  2.23E-06,  avg # of iterations = 20.0

[...]

     total energy              =   -3770.80998363 Ry
     estimated scf accuracy    <       0.00000127 Ry

     iteration # 27     ecut=    30.00 Ry     beta= 0.70
     Davidson diagonalization with overlap

     ethr =  7.56E-10,  avg # of iterations =  2.0

     End of self-consistent calculation

          k = 0.0000 0.0000 0.0000 (  2741 PWs)   bands (ev):

  -100.8666-100.8651-100.8641-100.8618 -58.2836 -58.2827 -58.2817 -58.2799
   -58.2592 -58.2538 -58.2533 -58.2527 -58.2460 -58.2443 -58.2439 -58.2396
   -20.9633 -20.7816 -20.7743 -20.7477  -8.3362  -8.3360  -8.0129  -6.6465
    -4.7939  -4.7939  -4.7791  -4.7595  -4.7386  -4.7385  -4.5431  -4.3547
    -4.3547  -3.4203  -2.7280  -2.7279  -2.0704  -1.7814  -1.7262  -1.5650
     5.6246   5.6246   5.8801   6.1122   6.6166   6.6602   6.8212   6.9472
     6.9472   7.1614   7.1614   7.2609   7.2610   7.5711   7.8757   7.8758
     7.9964   8.0445   8.2572   8.2586   8.3010   8.5040   8.5041   8.5118
     8.5120   8.5887   8.5889   8.7161   8.7448   9.0011   9.0786   9.2035
     9.2154   9.2363   9.2369   9.3975   9.5964   9.5964   9.7909   9.8841
     9.8843  10.6461  11.1180  11.1180  12.6612  12.6953  13.2064  13.2921
    13.4857  13.5689  13.8100  13.8100  13.9078  14.0794  14.0798  14.0974
    14.0977  14.1246  14.1336  14.1371  14.1657

     occupation numbers
     1.0000   1.0000   1.0000   1.0000   1.0000   1.0000   1.0000   1.0000
     1.0000   1.0000   1.0000   1.0000   1.0000   1.0000   1.0000   1.0000
     1.0000   1.0000   1.0000   1.0000   1.0000   1.0000   1.0000   1.0000
     1.0000   1.0000   1.0000   1.0000   1.0000   1.0000   1.0000   1.0000
     1.0000   1.0000   1.0000   1.0000   1.0000   1.0000   1.0000   1.0000
     1.0000   1.0000   1.0000   1.0000   1.0000   1.0000   1.0000   1.0000
     1.0000   1.0000   1.0000   1.0000   1.0000   1.0000   1.0000   1.0000
     1.0000   1.0000   1.0000   1.0000   1.0000   1.0000   1.0000   1.0000
     1.0000   1.0000   1.0000   1.0000   1.0000   1.0000   1.0000   1.0000
     1.0000   1.0000   1.0000   1.0000   1.0000   1.0000   1.0000   1.0000
     1.0000   1.0000   1.0000   1.0000  -0.0000  -0.0000  -0.0000  -0.0000
    -0.0000  -0.0000  -0.0000  -0.0000  -0.0000  -0.0000  -0.0000  -0.0000
    -0.0000  -0.0000  -0.0000  -0.0000  -0.0000

     the Fermi energy is    12.5002 ev

!    total energy              =   -3770.80998319 Ry
     estimated scf accuracy    <       0.00000063 Ry
     smearing contrib. (-TS)   =       0.00000000 Ry
     internal energy E=F+TS    =   -3770.80998319 Ry

     The total energy is F=E-TS. E is the sum of the following terms:
     one-electron contribution =   -1753.30397740 Ry
     hartree contribution      =     972.04853033 Ry
     xc contribution           =    -318.55575692 Ry
     ewald contribution        =   -1040.50195694 Ry
     one-center paw contrib.   =   -1630.49682227 Ry
      -> PAW hartree energy AE =      35.21685658 Ry
      -> PAW hartree energy PS =     -35.26286959 Ry
      -> PAW xc energy AE      =    -405.39529871 Ry
      -> PAW xc energy PS      =       7.33873012 Ry
      -> total E_H with PAW    =     972.00251732 Ry
      -> total E_XC with PAW   =    -716.61232551 Ry

     convergence has been achieved in  27 iterations

     Forces acting on atoms (cartesian axes, Ry/au):

     atom    1 type  1   force =     0.00000000    0.00000000   -0.01015779
     atom    2 type  1   force =     0.00000000    0.00000000   -0.01015779
     atom    3 type  1   force =     0.00000000    0.00000000    0.00292011
     atom    4 type  1   force =     0.00000000    0.00000000    0.00118399
     atom    5 type  2   force =     0.00330323    0.00330323    0.00225861
     atom    6 type  2   force =    -0.00330323   -0.00330323    0.00225861
     atom    7 type  2   force =     0.00330323   -0.00330323    0.00225861
     atom    8 type  2   force =    -0.00330323    0.00330323    0.00225861
     atom    9 type  3   force =     0.00000000    0.00000000    0.01978840
     atom   10 type  3   force =     0.00000000    0.00000000    0.01978840
     atom   11 type  3   force =     0.00000000    0.00000000   -0.01900514
     atom   12 type  4   force =     0.00000000    0.00000000   -0.00818867
     atom   13 type  5   force =     0.00070981    0.00070981   -0.00130149
     atom   14 type  5   force =    -0.00070981   -0.00070981   -0.00130149
     atom   15 type  5   force =     0.00070981   -0.00070981   -0.00130149
     atom   16 type  5   force =    -0.00070981    0.00070981   -0.00130149
     The non-local contrib.  to forces
     atom    1 type  1   force =     0.00000000    0.00000000   -0.12553741
     atom    2 type  1   force =     0.00000000    0.00000000   -0.12553741
     atom    3 type  1   force =     0.00000000    0.00000000    0.12886983
     atom    4 type  1   force =     0.00000000    0.00000000    0.13152122
     atom    5 type  2   force =    -0.06339491   -0.06339491   -0.03459963
     atom    6 type  2   force =     0.06339491    0.06339491   -0.03459963
     atom    7 type  2   force =    -0.06339491    0.06339491   -0.03459963
     atom    8 type  2   force =     0.06339491   -0.06339491   -0.03459963
     atom    9 type  3   force =     0.00000000    0.00000000    0.29483594
     atom   10 type  3   force =     0.00000000    0.00000000    0.29483594
     atom   11 type  3   force =     0.00000000    0.00000000   -0.30478493
     atom   12 type  4   force =     0.00000000    0.00000000   -0.28460094
     atom   13 type  5   force =    -0.00393370   -0.00393370   -0.00391657
     atom   14 type  5   force =     0.00393370    0.00393370   -0.00391657
     atom   15 type  5   force =    -0.00393370    0.00393370   -0.00391657
     atom   16 type  5   force =     0.00393370   -0.00393370   -0.00391657
     The ionic contribution  to forces
     atom    1 type  1   force =     0.00000000   -0.00000000    5.91258003
     atom    2 type  1   force =    -0.00000000    0.00000000    5.91258003
     atom    3 type  1   force =     0.00000000    0.00000000   -5.14157248
     atom    4 type  1   force =    -0.00000000   -0.00000000   -5.53045540
     atom    5 type  2   force =    -1.77090987   -1.77090987   -0.67420134
     atom    6 type  2   force =     1.77090987    1.77090987   -0.67420134
     atom    7 type  2   force =    -1.77090987    1.77090987   -0.67420134
     atom    8 type  2   force =     1.77090987   -1.77090987   -0.67420134
     atom    9 type  3   force =     0.00000000   -0.00000000  -16.99116294
     atom   10 type  3   force =    -0.00000000    0.00000000  -16.99116294
     atom   11 type  3   force =     0.00000000    0.00000000   16.62797995
     atom   12 type  4   force =     0.00000000    0.00000000   18.15289592
     atom   13 type  5   force =    -0.00449107   -0.00449107    0.18628080
     atom   14 type  5   force =     0.00449107    0.00449107    0.18628080
     atom   15 type  5   force =    -0.00449107    0.00449107    0.18628080
     atom   16 type  5   force =     0.00449107   -0.00449107    0.18628080
     The local contribution  to forces
     atom    1 type  1   force =    -0.00020636    0.00016659   -5.79668220
     atom    2 type  1   force =     0.00023439   -0.00016433   -5.79672199
     atom    3 type  1   force =     0.00013967    0.00019356    5.01509069
     atom    4 type  1   force =    -0.00020240   -0.00021997    5.39962514
     atom    5 type  2   force =     1.83751780    1.83750080    0.71122708
     atom    6 type  2   force =    -1.83739790   -1.83748466    0.71107306
     atom    7 type  2   force =     1.83739511   -1.83753181    0.71115429
     atom    8 type  2   force =    -1.83750948    1.83744553    0.71109999
     atom    9 type  3   force =     0.00015195    0.00029147   16.75339387
     atom   10 type  3   force =    -0.00013570   -0.00027471   16.75341686
     atom   11 type  3   force =    -0.00008135    0.00025723  -16.38075523
     atom   12 type  4   force =     0.00009075   -0.00038536  -17.89247456
     atom   13 type  5   force =     0.00906074    0.00902345   -0.18356412
     atom   14 type  5   force =    -0.00909893   -0.00905535   -0.18360840
     atom   15 type  5   force =     0.00907713   -0.00908381   -0.18361996
     atom   16 type  5   force =    -0.00913108    0.00905438   -0.18353782
     The core correction contribution to forces
     atom    1 type  1   force =     0.00000001    0.00000004   -0.00013098
     atom    2 type  1   force =     0.00000001   -0.00000004   -0.00013100
     atom    3 type  1   force =    -0.00000004    0.00000005    0.00012994
     atom    4 type  1   force =     0.00000001   -0.00000006    0.00012850
     atom    5 type  2   force =     0.00010599    0.00010599    0.00003542
     atom    6 type  2   force =    -0.00010603   -0.00010606    0.00003546
     atom    7 type  2   force =     0.00010598   -0.00010599    0.00003544
     atom    8 type  2   force =    -0.00010597    0.00010595    0.00003554
     atom    9 type  3   force =     0.00000723    0.00000729   -0.03756656
     atom   10 type  3   force =    -0.00000710   -0.00000653   -0.03756562
     atom   11 type  3   force =    -0.00000294    0.00000453    0.03877729
     atom   12 type  4   force =     0.00000141   -0.00000453    0.01623490
     atom   13 type  5   force =     0.00005562    0.00005610    0.00001570
     atom   14 type  5   force =    -0.00005632   -0.00005660    0.00001570
     atom   15 type  5   force =     0.00005613   -0.00005669    0.00001537
     atom   16 type  5   force =    -0.00005643    0.00005643    0.00001569
     The Hubbard contrib.    to forces
     atom    1 type  1   force =     0.00000000    0.00000000    0.00000000
     atom    2 type  1   force =     0.00000000    0.00000000    0.00000000
     atom    3 type  1   force =     0.00000000    0.00000000    0.00000000
     atom    4 type  1   force =     0.00000000    0.00000000    0.00000000
     atom    5 type  2   force =     0.00000000    0.00000000    0.00000000
     atom    6 type  2   force =     0.00000000    0.00000000    0.00000000
     atom    7 type  2   force =     0.00000000    0.00000000    0.00000000
     atom    8 type  2   force =     0.00000000    0.00000000    0.00000000
     atom    9 type  3   force =     0.00000000    0.00000000    0.00000000
     atom   10 type  3   force =     0.00000000    0.00000000    0.00000000
     atom   11 type  3   force =     0.00000000    0.00000000    0.00000000
     atom   12 type  4   force =     0.00000000    0.00000000    0.00000000
     atom   13 type  5   force =     0.00000000    0.00000000    0.00000000
     atom   14 type  5   force =     0.00000000    0.00000000    0.00000000
     atom   15 type  5   force =     0.00000000    0.00000000    0.00000000
     atom   16 type  5   force =     0.00000000    0.00000000    0.00000000
     The SCF correction term to forces
     atom    1 type  1   force =     0.00020403   -0.00015613   -0.00038358
     atom    2 type  1   force =    -0.00022027    0.00014546   -0.00035778
     atom    3 type  1   force =    -0.00016066   -0.00017136    0.00039879
     atom    4 type  1   force =     0.00019683    0.00018873    0.00036118
     atom    5 type  2   force =    -0.00001879   -0.00000643   -0.00022432
     atom    6 type  2   force =    -0.00011360   -0.00000317   -0.00001044
     atom    7 type  2   force =     0.00015328    0.00006875   -0.00014546
     atom    8 type  2   force =    -0.00000928    0.00004762   -0.00009109
     atom    9 type  3   force =    -0.00010179   -0.00025436    0.00028295
     atom   10 type  3   force =     0.00009061    0.00023985    0.00026263
     atom   11 type  3   force =     0.00006387   -0.00024015   -0.00022558
     atom   12 type  4   force =    -0.00007088    0.00031889   -0.00024732
     atom   13 type  5   force =    -0.00002480    0.00004832   -0.00010485
     atom   14 type  5   force =     0.00002009   -0.00004451   -0.00008073
     atom   15 type  5   force =    -0.00001069   -0.00001670   -0.00007874
     atom   16 type  5   force =     0.00004990    0.00003746   -0.00014409

     Total force =     0.039322     Total SCF correction =     0.001256

     Computing stress (Cartesian axis) and pressure

          total   stress  (Ry/bohr**3)                   (kbar)     P=     -253.79
  -0.00168404   0.00000000   0.00000000         -247.73        0.00        0.00
   0.00000000  -0.00168404   0.00000000            0.00     -247.73        0.00
   0.00000000   0.00000000  -0.00180753            0.00        0.00     -265.90

     kinetic stress (kbar)  16924.50      0.00      0.00
                                0.00  16924.50      0.00
                                0.00      0.00  16887.90

     local   stress (kbar) -43831.05     -0.01      0.00
                               -0.01 -43831.05     -0.01
                                0.00     -0.01  24079.49

     nonloc. stress (kbar)  11649.01      0.00      0.00
                                0.00  11649.01      0.00
                                0.00      0.00  11592.08

     hartree stress (kbar)  35450.25      0.00     -0.00
                                0.00  35450.25      0.01
                               -0.00      0.01   2479.52

     exc-cor stress (kbar)    357.96      0.00     -0.00
                                0.00    357.96      0.00
                               -0.00      0.00    352.00

     corecor stress (kbar)  -6236.68      0.00      0.00
                                0.00  -6236.68     -0.00
                                0.00     -0.00  -6232.75

     ewald   stress (kbar) -14561.73     -0.00     -0.00
                               -0.00 -14561.73     -0.00
                               -0.00     -0.00 -49424.12

     hubbard stress (kbar)      0.00      0.00      0.00
                                0.00      0.00      0.00
                                0.00      0.00      0.00

     DFT-D   stress (kbar)      0.00      0.00      0.00
                                0.00      0.00      0.00
                                0.00      0.00      0.00

     XDM     stress (kbar)      0.00      0.00      0.00
                                0.00      0.00      0.00
                                0.00      0.00      0.00

     dft-nl  stress (kbar)      0.00      0.00      0.00
                                0.00      0.00      0.00
                                0.00      0.00      0.00

     TS-vdW  stress (kbar)      0.00      0.00      0.00
                                0.00      0.00      0.00
                                0.00      0.00      0.00

[...]

                                0.00      0.00      0.00

     Writing all to output data dir calculations/myprefix.save/

     General routines

     Parallel routines

     PAW routines

   This run was terminated on:  14:14:27   6Mar2023

   JOB DONE.