     Program PWSCF v.7.0 starts on  4Mar2023 at 22:21:42

     R & G space division:  proc/nbgrp/npool/nimage =      32

     Reading input from espresso_7892.pwi
Warning: card &CELL ignored
Warning: card / ignored

     Current dimensions of program PWSCF are:
     Max number of different atomic species (ntypx) = 10
     Max number of k-points (npk) =  40000
     Max angular momentum in pseudopotentials (lmaxx) =  4

     gamma-point specific algorithms are used
     Message from routine setup:
     using ibrav=0 with symmetry is DISCOURAGED, use correct ibrav instead

     Using Slab Decomposition

     bravais-lattice index     =            0
     lattice parameter (alat)  =      14.4065  a.u.
     unit-cell volume          =     779.7727 (a.u.)^3
     number of atoms/cell      =            4
     number of atomic types    =            3
     number of electrons       =        36.00
     number of Kohn-Sham states=           22
     kinetic-energy cutoff     =      30.0000  Ry
     charge density cutoff     =     240.0000  Ry
     scf convergence threshold =      1.0E-06
     mixing beta               =       0.7000
     number of iterations used =            8  plain     mixing
     Exchange-correlation= SLA  PW   PBE  PBE
                           (   1   4   3   4   0   0   0)

     celldm(1)=  14.406460  celldm(2)=   0.000000  celldm(3)=   0.000000
     celldm(4)=   0.000000  celldm(5)=   0.000000  celldm(6)=   0.000000

     crystal axes: (cart. coord. in units of alat)
               a(1) = (   1.000000   0.000000   0.000000 )
               a(2) = (   0.718671   0.695350   0.000000 )
               a(3) = (  -0.859335  -0.347675   0.375053 )

     reciprocal axes: (cart. coord. in units 2 pi/alat)
               b(1) = (  1.000000 -1.033537  1.333146 )
               b(2) = (  0.000000  1.438124  1.333146 )
               b(3) = (  0.000000  0.000000  2.666291 )

     PseudoPot. # 1 for Rb read from file:
     /home/pragov/projects/rrg-bengioy-ad/pragov/crystal_structure_design/SSSP/Rb_ONCV_PBE-1.0.oncvpsp.upf
     MD5 check sum: 55a5172d6bfbce6759a58e35d43f6aa9
     Pseudo is Norm-conserving, Zval =  9.0
     Generated using ONCVPSP code by D. R. Hamann
     Using radial grid of 2308 points,  6 beta functions with:
                l(1) =   0
                l(2) =   0
                l(3) =   1
                l(4) =   1
                l(5) =   2
                l(6) =   2

     PseudoPot. # 2 for Mn read from file:
     /home/pragov/projects/rrg-bengioy-ad/pragov/crystal_structure_design/SSSP/mn_pbe_v1.5.uspp.F.UPF
     MD5 check sum: 82ef2b46521d7a7d9e736dc3972e4928
     Pseudo is Ultrasoft + core correction, Zval = 15.0
     Generated by new atomic code, or converted to UPF format
     Using radial grid of  859 points,  6 beta functions with:
                l(1) =   0
                l(2) =   0
                l(3) =   1
                l(4) =   1
                l(5) =   2
                l(6) =   2
     Q(r) pseudized with  8 coefficients,  rinner =    0.950   0.950   0.950
                                                       0.950   0.950

     PseudoPot. # 3 for Se read from file:
     /home/pragov/projects/rrg-bengioy-ad/pragov/crystal_structure_design/SSSP/Se_pbe_v1.uspp.F.UPF
     MD5 check sum: 1b3568f3a8ae88f9a2a0ad0698632c85
     Pseudo is Ultrasoft + core correction, Zval =  6.0
     Generated by new atomic code, or converted to UPF format
     Using radial grid of  877 points,  6 beta functions with:
                l(1) =   0
                l(2) =   0
                l(3) =   1
                l(4) =   1
                l(5) =   2
                l(6) =   2
     Q(r) pseudized with  8 coefficients,  rinner =    1.300   1.300   1.300
                                                       1.300   1.300

     atomic species   valence    mass     pseudopotential
        Rb             9.00    85.46780     Rb( 1.00)
        Mn            15.00    54.93804     Mn( 1.00)
        Se             6.00    78.97100     Se( 1.00)

      2 Sym. Ops. (no inversion) found

                                    s                        frac. trans.

      isym =  1     identity

 cryst.   s( 1) = (     1          0          0      )
                  (     0          1          0      )
                  (     0          0          1      )

 cart.    s( 1) = (  1.0000000  0.0000000 -0.0000000 )
                  (  0.0000000  1.0000000  0.0000000 )
                  (  0.0000000  0.0000000  1.0000000 )

      isym =  2     180 deg rotation - cart. axis [0,0,1]

 cryst.   s( 2) = (    -1          0          0      )
                  (     0         -1          0      )
                  (     1          1          1      )

 cart.    s( 2) = ( -1.0000000 -0.0000000 -0.0000000 )
                  (  0.0000000 -1.0000000 -0.0000000 )
                  (  0.0000000  0.0000000  1.0000000 )

   Cartesian axes

     site n.     atom                  positions (alat units)
         1           Rb  tau(   1) = (   0.0000000   0.0000000   0.0000000  )
         2           Mn  tau(   2) = (   0.3593354   0.3476752   0.1875264  )
         3           Se  tau(   3) = (   1.1215685   0.4537711   0.0000000  )
         4           Se  tau(   4) = (   0.5971023   0.2415794   0.0000000  )

   Crystallographic axes

     site n.     atom                  positions (cryst. coord.)
         1           Rb  tau(   1) = (  0.0000000  0.0000000  0.0000000  )
         2           Mn  tau(   2) = (  0.2500000  0.7500000  0.5000000  )
         3           Se  tau(   3) = (  0.6525790  0.6525790  0.0000000  )
         4           Se  tau(   4) = (  0.3474210  0.3474210  0.0000000  )

     number of k points=     1  Methfessel-Paxton smearing, width (Ry)=  0.0010
                       cart. coord. in units 2pi/alat
        k(    1) = (   0.0000000   0.0000000   0.0000000), wk =   2.0000000

                       cryst. coord.
        k(    1) = (   0.0000000   0.0000000   0.0000000), wk =   2.0000000

     Check: negative core charge=   -0.000008

     Initial potential from superposition of free atoms

     starting charge      35.4750, renormalised to      36.0000
     Starting wfcs are   26 randomized atomic wfcs

     Self-consistent Calculation

     iteration #  1     ecut=    30.00 Ry     beta= 0.70
     Davidson diagonalization with overlap

     ethr =  1.00E-02,  avg # of iterations =  2.0

     total energy              =    -347.07043806 Ry
     estimated scf accuracy    <       0.38982266 Ry

[...]

     total energy              =    -347.21979128 Ry
     estimated scf accuracy    <       0.00000237 Ry

     iteration # 12     ecut=    30.00 Ry     beta= 0.70
     Davidson diagonalization with overlap

     ethr =  6.59E-09,  avg # of iterations =  3.0

     End of self-consistent calculation

          k = 0.0000 0.0000 0.0000 (  1094 PWs)   bands (ev):

   -72.4853 -41.4300 -41.1635 -41.1566 -21.4581  -7.0026  -6.6944  -5.4698
    -5.4698  -5.2986   1.8834   3.1910   3.1928   3.4546   4.5807   4.5810
     5.8973   6.1793   7.6588   7.7219   7.7258   8.1382

     occupation numbers
     1.0000   1.0000   1.0000   1.0000   1.0000   1.0000   1.0000   1.0000
     1.0000   1.0000   1.0000   1.0000   1.0000   1.0000   1.0000   1.0000
     1.0000   1.0000  -0.0000  -0.0000  -0.0000  -0.0000

     the Fermi energy is     7.0102 ev

!    total energy              =    -347.21979162 Ry
     estimated scf accuracy    <          6.3E-09 Ry
     smearing contrib. (-TS)   =       0.00000000 Ry
     internal energy E=F+TS    =    -347.21979162 Ry

     The total energy is F=E-TS. E is the sum of the following terms:
     one-electron contribution =    -209.19967310 Ry
     hartree contribution      =     115.37458931 Ry
     xc contribution           =     -93.45333128 Ry
     ewald contribution        =    -159.94137655 Ry

     convergence has been achieved in  12 iterations

     Forces acting on atoms (cartesian axes, Ry/au):

     atom    1 type  1   force =     0.00000000    0.00000000    0.00000850
     atom    2 type  2   force =     0.00000000    0.00000000    0.00010652
     atom    3 type  3   force =     0.10323809    0.04173927   -0.00005751
     atom    4 type  3   force =    -0.10323809   -0.04173927   -0.00005751
     The non-local contrib.  to forces
     atom    1 type  1   force =     0.00000000    0.00000000   -0.00000631
     atom    2 type  2   force =     0.00000000    0.00000000   -0.00016502
     atom    3 type  3   force =     0.07967189    0.03226623   -0.00000367
     atom    4 type  3   force =    -0.07967189   -0.03226623   -0.00000367
     The ionic contribution  to forces
     atom    1 type  1   force =     0.00000000    0.00000000    0.00000000
     atom    2 type  2   force =    -0.00000000   -0.00000000   -0.00000000
     atom    3 type  3   force =    -6.65344802   -2.69189325   -0.00000000
     atom    4 type  3   force =     6.65344802    2.69189325    0.00000000
     The local contribution  to forces
     atom    1 type  1   force =     0.00002205    0.00000540    0.00000834
     atom    2 type  2   force =     0.00001169   -0.00018626    0.00027278
     atom    3 type  3   force =     6.68583131    2.70498120    0.00000809
     atom    4 type  3   force =    -6.68596013   -2.70491487   -0.00014128
     The core correction contribution to forces
     atom    1 type  1   force =     0.00000000    0.00000000    0.00000000
     atom    2 type  2   force =     0.00000447   -0.00001137    0.00001511
     atom    3 type  3   force =    -0.00885501   -0.00358184    0.00000155
     atom    4 type  3   force =     0.00884634    0.00356515    0.00000921
     The Hubbard contrib.    to forces
     atom    1 type  1   force =     0.00000000    0.00000000    0.00000000
     atom    2 type  2   force =     0.00000000    0.00000000    0.00000000
     atom    3 type  3   force =     0.00000000    0.00000000    0.00000000
     atom    4 type  3   force =     0.00000000    0.00000000    0.00000000
     The SCF correction term to forces
     atom    1 type  1   force =     0.00000532   -0.00001072    0.00000037
     atom    2 type  2   force =     0.00006077   -0.00005755   -0.00002246
     atom    3 type  3   force =    -0.00002430   -0.00000172   -0.00000294
     atom    4 type  3   force =     0.00003734    0.00001478    0.00000546

     Total force =     0.157482     Total SCF correction =     0.000099

     Computing stress (Cartesian axis) and pressure

          total   stress  (Ry/bohr**3)                   (kbar)     P=      -45.49
  -0.00089863  -0.00039156  -0.00000000         -132.19      -57.60       -0.00
  -0.00039156  -0.00009412  -0.00000000          -57.60      -13.85       -0.00
  -0.00000000  -0.00000000   0.00006496           -0.00       -0.00        9.56

     kinetic stress (kbar)   8662.72    -62.20      0.00
                              -62.20   8789.56      0.00
                                0.00      0.00   8814.96

     local   stress (kbar)  -3890.66   2859.27     -0.74
                             2859.27  -9798.83     -0.20
                               -0.74     -0.20 -10955.96

     nonloc. stress (kbar)   4883.79    -77.46      0.00
                              -77.46   5043.37      0.00
                                0.00      0.00   5074.78

     hartree stress (kbar)   5139.11  -1398.92      0.20
                            -1398.92   8030.19      0.08
                                0.20      0.08   8596.26

     exc-cor stress (kbar)   7366.20      0.17      0.00
                                0.17   7365.84     -0.00
                                0.00     -0.00   7365.77

     corecor stress (kbar) -10141.13      5.96     -0.00
                                5.96 -10153.45      0.01
                               -0.00      0.01 -10155.86

     ewald   stress (kbar) -12152.22  -1384.42      0.00
                            -1384.42  -9290.52      0.00
                                0.00      0.00  -8730.40

     hubbard stress (kbar)      0.00      0.00      0.00
                                0.00      0.00      0.00
                                0.00      0.00      0.00

     DFT-D   stress (kbar)      0.00      0.00      0.00
                                0.00      0.00      0.00
                                0.00      0.00      0.00

     XDM     stress (kbar)      0.00      0.00      0.00
                                0.00      0.00      0.00
                                0.00      0.00      0.00

     dft-nl  stress (kbar)      0.00      0.00      0.00
                                0.00      0.00      0.00
                                0.00      0.00      0.00

     TS-vdW  stress (kbar)      0.00      0.00      0.00
                                0.00      0.00      0.00
                                0.00      0.00      0.00

[...]

                                0.00      0.00      0.00

     Writing all to output data dir calculations/myprefix.save/

     General routines

     Parallel routines

   This run was terminated on:  22:21:44   4Mar2023

   JOB DONE.