     Program PWSCF v.7.0 starts on  4Mar2023 at 19:58:51

     R & G space division:  proc/nbgrp/npool/nimage =      32

     Reading input from espresso_7478.pwi
Warning: card &CELL ignored
Warning: card / ignored

     Current dimensions of program PWSCF are:
     Max number of different atomic species (ntypx) = 10
     Max number of k-points (npk) =  40000
     Max angular momentum in pseudopotentials (lmaxx) =  4

     gamma-point specific algorithms are used
     Message from routine setup:
     using ibrav=0 with symmetry is DISCOURAGED, use correct ibrav instead

     Using Slab Decomposition

     bravais-lattice index     =            0
     lattice parameter (alat)  =      12.8802  a.u.
     unit-cell volume          =     835.1720 (a.u.)^3
     number of atoms/cell      =            5
     number of atomic types    =            2
     number of electrons       =        40.00
     number of Kohn-Sham states=           24
     kinetic-energy cutoff     =      30.0000  Ry
     charge density cutoff     =     240.0000  Ry
     scf convergence threshold =      1.0E-06
     mixing beta               =       0.7000
     number of iterations used =            8  plain     mixing
     Exchange-correlation= SLA  PW   PBE  PBE
                           (   1   4   3   4   0   0   0)

     celldm(1)=  12.880168  celldm(2)=   0.000000  celldm(3)=   0.000000
     celldm(4)=   0.000000  celldm(5)=   0.000000  celldm(6)=   0.000000

     crystal axes: (cart. coord. in units of alat)
               a(1) = (   1.000000   0.000000   0.000000 )
               a(2) = (   0.525311   0.850910   0.000000 )
               a(3) = (  -0.683561  -0.567237   0.459333 )

     reciprocal axes: (cart. coord. in units 2 pi/alat)
               b(1) = (  1.000000 -0.617352  0.725784 )
               b(2) = (  0.000000  1.175212  1.451286 )
               b(3) = (  0.000000  0.000000  2.177071 )

     PseudoPot. # 1 for Sc read from file:
     /home/pragov/projects/rrg-bengioy-ad/pragov/crystal_structure_design/SSSP/Sc_ONCV_PBE-1.0.oncvpsp.upf
     MD5 check sum: e21af8023abb52e52cb7cd3133e4a229
     Pseudo is Norm-conserving, Zval = 11.0
     Generated using ONCVPSP code by D. R. Hamann
     Using radial grid of 1662 points,  6 beta functions with:
                l(1) =   0
                l(2) =   0
                l(3) =   1
                l(4) =   1
                l(5) =   2
                l(6) =   2

     PseudoPot. # 2 for Se read from file:
     /home/pragov/projects/rrg-bengioy-ad/pragov/crystal_structure_design/SSSP/Se_pbe_v1.uspp.F.UPF
     MD5 check sum: 1b3568f3a8ae88f9a2a0ad0698632c85
     Pseudo is Ultrasoft + core correction, Zval =  6.0
     Generated by new atomic code, or converted to UPF format
     Using radial grid of  877 points,  6 beta functions with:
                l(1) =   0
                l(2) =   0
                l(3) =   1
                l(4) =   1
                l(5) =   2
                l(6) =   2
     Q(r) pseudized with  8 coefficients,  rinner =    1.300   1.300   1.300
                                                       1.300   1.300

     atomic species   valence    mass     pseudopotential
        Sc            11.00    44.95591     Sc( 1.00)
        Se             6.00    78.97100     Se( 1.00)

      2 Sym. Ops., with inversion, found

                                    s                        frac. trans.

      isym =  1     identity

 cryst.   s( 1) = (     1          0          0      )
                  (     0          1          0      )
                  (     0          0          1      )

 cart.    s( 1) = (  1.0000000  0.0000000  0.0000000 )
                  (  0.0000000  1.0000000  0.0000000 )
                  (  0.0000000  0.0000000  1.0000000 )

      isym =  2     inversion

 cryst.   s( 2) = (    -1          0          0      )
                  (     0         -1          0      )
                  (     0          0         -1      )

 cart.    s( 2) = ( -1.0000000 -0.0000000 -0.0000000 )
                  (  0.0000000 -1.0000000 -0.0000000 )
                  (  0.0000000  0.0000000 -1.0000000 )

   Cartesian axes

     site n.     atom                  positions (alat units)
         1           Sc  tau(   1) = (   0.4053030  -0.1457803   0.2296664  )
         2           Sc  tau(   2) = (   0.4364467   0.4294539   0.2296664  )
         3           Se  tau(   3) = (   0.7626554   0.4254552   0.0000000  )
         4           Se  tau(   4) = (   0.2725090   0.1520219   0.0000000  )
         5           Se  tau(   5) = (   1.2528019   0.6988884   0.0000000  )

   Crystallographic axes

     site n.     atom                  positions (cryst. coord.)
         1           Sc  tau(   1) = (  0.6619890  0.1619890  0.5000000  )
         2           Sc  tau(   2) = (  0.3380110  0.8380110  0.5000000  )
         3           Se  tau(   3) = (  0.5000000  0.5000000  0.0000000  )
         4           Se  tau(   4) = (  0.1786580  0.1786580  0.0000000  )
         5           Se  tau(   5) = (  0.8213420  0.8213420  0.0000000  )

     number of k points=     1  Methfessel-Paxton smearing, width (Ry)=  0.0010
                       cart. coord. in units 2pi/alat
        k(    1) = (   0.0000000   0.0000000   0.0000000), wk =   2.0000000

                       cryst. coord.
        k(    1) = (   0.0000000   0.0000000   0.0000000), wk =   2.0000000

     Initial potential from superposition of free atoms

     starting charge      39.9945, renormalised to      40.0000
     Starting wfcs are   32 randomized atomic wfcs

     Self-consistent Calculation

     iteration #  1     ecut=    30.00 Ry     beta= 0.70
     Davidson diagonalization with overlap

     ethr =  1.00E-02,  avg # of iterations =  2.0

     total energy              =    -314.33423335 Ry
     estimated scf accuracy    <       0.53277159 Ry

[...]

     total energy              =    -314.54468121 Ry
     estimated scf accuracy    <       0.00000361 Ry

     iteration # 27     ecut=    30.00 Ry     beta= 0.70
     Davidson diagonalization with overlap

     ethr =  9.02E-09,  avg # of iterations =  2.0

     End of self-consistent calculation

          k = 0.0000 0.0000 0.0000 (  1161 PWs)   bands (ev):

   -43.8308 -43.8259 -22.5496 -22.5232 -22.3690 -22.3292 -22.2056 -22.1974
    -5.8933  -4.8111  -4.6923   2.9219   3.3066   4.1832   4.2941   4.5665
     5.2183   6.8437   6.8814   7.0057   7.7924   7.9840   8.1800   8.4028

     occupation numbers
     1.0000   1.0000   1.0000   1.0000   1.0000   1.0000   1.0000   1.0000
     1.0000   1.0000   1.0000   1.0000   1.0000   1.0000   1.0000   1.0000
     1.0000   1.0000   1.0000   1.0000  -0.0000  -0.0000  -0.0000  -0.0000

     the Fermi energy is     7.7185 ev

!    total energy              =    -314.54468079 Ry
     estimated scf accuracy    <       0.00000083 Ry
     smearing contrib. (-TS)   =       0.00000000 Ry
     internal energy E=F+TS    =    -314.54468079 Ry

     The total energy is F=E-TS. E is the sum of the following terms:
     one-electron contribution =    -101.29842491 Ry
     hartree contribution      =      61.65390179 Ry
     xc contribution           =    -113.31764589 Ry
     ewald contribution        =    -161.58251178 Ry

     convergence has been achieved in  27 iterations

     Forces acting on atoms (cartesian axes, Ry/au):

     atom    1 type  1   force =    -0.00962185   -0.00544680    0.00005327
     atom    2 type  1   force =     0.00962185    0.00544680   -0.00005327
     atom    3 type  2   force =     0.00000000    0.00000000    0.00000000
     atom    4 type  2   force =     0.08360718    0.04666262   -0.00001333
     atom    5 type  2   force =    -0.08360718   -0.04666262    0.00001333
     The non-local contrib.  to forces
     atom    1 type  1   force =    -0.02032374   -0.01134199    0.00000471
     atom    2 type  1   force =     0.02032374    0.01134199   -0.00000471
     atom    3 type  2   force =     0.00000000    0.00000000    0.00000000
     atom    4 type  2   force =    -0.04986935   -0.02782038   -0.00000107
     atom    5 type  2   force =     0.04986935    0.02782038    0.00000107
     The ionic contribution  to forces
     atom    1 type  1   force =    -2.24238020   -1.25093490    0.00000000
     atom    2 type  1   force =     2.24238020    1.25093490   -0.00000000
     atom    3 type  2   force =     0.00000000    0.00000000   -0.00000000
     atom    4 type  2   force =    -4.11439270   -2.29525636    0.00000000
     atom    5 type  2   force =     4.11439270    2.29525636   -0.00000000
     The local contribution  to forces
     atom    1 type  1   force =     2.25364982    1.25713622    0.00005025
     atom    2 type  1   force =    -2.25356898   -1.25708990   -0.00004940
     atom    3 type  2   force =    -0.00008256   -0.00004551    0.00000024
     atom    4 type  2   force =     4.23919890    2.36491527   -0.00002003
     atom    5 type  2   force =    -4.23902337   -2.36480605    0.00001498
     The core correction contribution to forces
     atom    1 type  1   force =     0.00000000    0.00000000    0.00000000
     atom    2 type  1   force =     0.00000000    0.00000000    0.00000000
     atom    3 type  2   force =    -0.00000118    0.00000006   -0.00000037
     atom    4 type  2   force =     0.00918900    0.00512699   -0.00000054
     atom    5 type  2   force =    -0.00918454   -0.00512294   -0.00000032
     The Hubbard contrib.    to forces
     atom    1 type  1   force =     0.00000000    0.00000000    0.00000000
     atom    2 type  1   force =     0.00000000    0.00000000    0.00000000
     atom    3 type  2   force =     0.00000000    0.00000000    0.00000000
     atom    4 type  2   force =     0.00000000    0.00000000    0.00000000
     atom    5 type  2   force =     0.00000000    0.00000000    0.00000000
     The SCF correction term to forces
     atom    1 type  1   force =    -0.00055479   -0.00030471   -0.00000248
     atom    2 type  1   force =     0.00049984    0.00026125    0.00000006
     atom    3 type  2   force =     0.00007018    0.00003953    0.00000083
     atom    4 type  2   force =    -0.00049731   -0.00028737    0.00000599
     atom    5 type  2   force =     0.00036004    0.00020515   -0.00000472

     Total force =     0.136307     Total SCF correction =     0.001108

     Computing stress (Cartesian axis) and pressure

          total   stress  (Ry/bohr**3)                   (kbar)     P=      111.97
   0.00000882  -0.00077685   0.00006544            1.30     -114.28        9.63
  -0.00077685   0.00096818  -0.00011742         -114.28      142.42      -17.27
   0.00006544  -0.00011742   0.00130650            9.63      -17.27      192.19

     kinetic stress (kbar)   9703.84    -39.79   -102.24
                              -39.79   9753.06    183.21
                             -102.24    183.21   9923.55

     local   stress (kbar)   -239.70   1225.85   1324.71
                             1225.85  -1753.29  -2374.61
                             1324.71  -2374.61  -4359.29

     nonloc. stress (kbar)    706.21    -56.14     34.40
                              -56.14    775.48    -61.65
                               34.40    -61.65    756.90

     hartree stress (kbar)   2777.19   -570.79   -551.38
                             -570.79   3481.95    988.39
                             -551.38    988.39   4600.43

     exc-cor stress (kbar)  10833.81      1.26     -1.31
                                1.26  10832.25      2.34
                               -1.31      2.34  10833.45

     corecor stress (kbar) -13272.07      3.25      2.17
                                3.25 -13276.08     -3.89
                                2.17     -3.89 -13281.04

     ewald   stress (kbar) -10507.98   -677.92   -696.73
                             -677.92  -9670.95   1248.93
                             -696.73   1248.93  -8281.81

     hubbard stress (kbar)      0.00      0.00      0.00
                                0.00      0.00      0.00
                                0.00      0.00      0.00

     DFT-D   stress (kbar)      0.00      0.00      0.00
                                0.00      0.00      0.00
                                0.00      0.00      0.00

     XDM     stress (kbar)      0.00      0.00      0.00
                                0.00      0.00      0.00
                                0.00      0.00      0.00

     dft-nl  stress (kbar)      0.00      0.00      0.00
                                0.00      0.00      0.00
                                0.00      0.00      0.00

     TS-vdW  stress (kbar)      0.00      0.00      0.00
                                0.00      0.00      0.00
                                0.00      0.00      0.00

[...]

                                0.00      0.00      0.00

     Writing all to output data dir calculations/myprefix.save/

     General routines

     Parallel routines

   This run was terminated on:  19:58:53   4Mar2023

   JOB DONE.