     Program PWSCF v.7.0 starts on  3Mar2023 at 15:39: 4

     R & G space division:  proc/nbgrp/npool/nimage =      32

     Reading input from espresso_789.pwi
Warning: card &CELL ignored
Warning: card / ignored

     Current dimensions of program PWSCF are:
     Max number of different atomic species (ntypx) = 10
     Max number of k-points (npk) =  40000
     Max angular momentum in pseudopotentials (lmaxx) =  4
     file Ba.pbe-spn-kjpaw_psl.1.0.0.UPF: wavefunction(s)  5S 6S renormalized
     file Mg.pbe-n-kjpaw_psl.0.3.0.UPF: wavefunction(s)  3S renormalized
     file C.pbe-n-kjpaw_psl.1.0.0.UPF: wavefunction(s)  2S 2P renormalized
     file O.pbe-n-kjpaw_psl.0.1.UPF: wavefunction(s)  2P renormalized

     gamma-point specific algorithms are used
     Message from routine setup:
     using ibrav=0 with symmetry is DISCOURAGED, use correct ibrav instead

     Using Slab Decomposition

     bravais-lattice index     =            0
     lattice parameter (alat)  =       9.5705  a.u.
     unit-cell volume          =    1720.4374 (a.u.)^3
     number of atoms/cell      =           20
     number of atomic types    =            4
     number of electrons       =       112.00
     number of Kohn-Sham states=           67
     kinetic-energy cutoff     =      30.0000  Ry
     charge density cutoff     =     240.0000  Ry
     scf convergence threshold =      1.0E-06
     mixing beta               =       0.7000
     number of iterations used =            8  plain     mixing
     Exchange-correlation= SLA  PW   PBX  PBC
                           (   1   4   3   4   0   0   0)

     celldm(1)=   9.570490  celldm(2)=   0.000000  celldm(3)=   0.000000
     celldm(4)=   0.000000  celldm(5)=   0.000000  celldm(6)=   0.000000

     crystal axes: (cart. coord. in units of alat)
               a(1) = (   1.000000   0.000000   0.000000 )
               a(2) = (  -0.500000   0.868931   0.000000 )
               a(3) = (   0.000000  -0.562548   2.258660 )

     reciprocal axes: (cart. coord. in units 2 pi/alat)
               b(1) = (  1.000000  0.575420  0.143315 )
               b(2) = (  0.000000  1.150839  0.286631 )
               b(3) = (  0.000000  0.000000  0.442740 )

     PseudoPot. # 1 for Ba read from file:
     /home/pragov/projects/rrg-bengioy-ad/pragov/crystal_structure_design/SSSP/Ba.pbe-spn-kjpaw_psl.1.0.0.UPF
     MD5 check sum: c432291d3e53af55f19d5e8866385beb
     Pseudo is Projector augmented-wave + core cor, Zval = 10.0
     Generated using "atomic" code by A. Dal Corso  v.5.1
     Shape of augmentation charge: PSQ
     Using radial grid of 1251 points,  7 beta functions with:
                l(1) =   0
                l(2) =   0
                l(3) =   0
                l(4) =   1
                l(5) =   1
                l(6) =   2
                l(7) =   2
     Q(r) pseudized with 0 coefficients

     PseudoPot. # 2 for Mg read from file:
     /home/pragov/projects/rrg-bengioy-ad/pragov/crystal_structure_design/SSSP/Mg.pbe-n-kjpaw_psl.0.3.0.UPF
     MD5 check sum: 24ecedc7f3e3cbe212e682f4413594e4
     Pseudo is Projector augmented-wave + core cor, Zval =  2.0
     Generated using "atomic" code by A. Dal Corso  v.5.0.99 svn rev. 10869
     Shape of augmentation charge: PSQ
     Using radial grid of 1129 points,  4 beta functions with:
                l(1) =   0
                l(2) =   0
                l(3) =   1
                l(4) =   1
     Q(r) pseudized with 0 coefficients

     PseudoPot. # 3 for C  read from file:
     /home/pragov/projects/rrg-bengioy-ad/pragov/crystal_structure_design/SSSP/C.pbe-n-kjpaw_psl.1.0.0.UPF
     MD5 check sum: 5d2aebdfa2cae82b50a7e79e9516da0f
     Pseudo is Projector augmented-wave + core cor, Zval =  4.0
     Generated using "atomic" code by A. Dal Corso  v.5.1
     Shape of augmentation charge: PSQ
     Using radial grid of 1073 points,  4 beta functions with:
                l(1) =   0
                l(2) =   0
                l(3) =   1
                l(4) =   1
     Q(r) pseudized with 0 coefficients

     PseudoPot. # 4 for O  read from file:
     /home/pragov/projects/rrg-bengioy-ad/pragov/crystal_structure_design/SSSP/O.pbe-n-kjpaw_psl.0.1.UPF
     MD5 check sum: 0234752ac141de4415c5fc33072bef88
     Pseudo is Projector augmented-wave + core cor, Zval =  6.0
     Generated using "atomic" code by A. Dal Corso  v.5.0.99 svn rev. 10869
     Shape of augmentation charge: BESSEL
     Using radial grid of 1095 points,  4 beta functions with:
                l(1) =   0
                l(2) =   0
                l(3) =   1
                l(4) =   1
     Q(r) pseudized with 0 coefficients

     atomic species   valence    mass     pseudopotential
        Ba            10.00   137.32700     Ba( 1.00)
        Mg             2.00    24.30500     Mg( 1.00)
        C              4.00    12.01100     C ( 1.00)
        O              6.00    15.99900     O ( 1.00)

      4 Sym. Ops., with inversion, found ( 2 have fractional translation)

                                    s                        frac. trans.

      isym =  1     identity

 cryst.   s( 1) = (     1          0          0      )
                  (     0          1          0      )
                  (     0          0          1      )

 cart.    s( 1) = (  1.0000000  0.0000000  0.0000000 )
                  (  0.0000000  1.0000000 -0.0000000 )
                  (  0.0000000  0.0000000  1.0000000 )

      isym =  2     180 deg rotation - cart. axis [1,0,0]

 cryst.   s( 2) = (     1          0          0      )    f =( -0.0000000 )
                  (    -1         -1          0      )       ( -0.0000000 )
                  (     0          0         -1      )       (  0.5000000 )

 cart.    s( 2) = (  1.0000000  0.0000002  0.0000001 )    f =(  0.0000000 )
                  (  0.0000000 -1.0000000  0.0000000 )       ( -0.2812738 )
                  (  0.0000000  0.0000000 -1.0000000 )       (  1.1293301 )

      isym =  3     inversion

 cryst.   s( 3) = (    -1          0          0      )
                  (     0         -1          0      )
                  (     0          0         -1      )

 cart.    s( 3) = ( -1.0000000 -0.0000000 -0.0000000 )
                  (  0.0000000 -1.0000000  0.0000000 )
                  (  0.0000000  0.0000000 -1.0000000 )

      isym =  4     inv. 180 deg rotation - cart. axis [1,0,0]

 cryst.   s( 4) = (    -1          0          0      )    f =( -0.0000000 )
                  (     1          1          0      )       (  0.0000000 )
                  (     0          0          1      )       ( -0.5000000 )

 cart.    s( 4) = ( -1.0000000 -0.0000002 -0.0000001 )    f =( -0.0000000 )
                  (  0.0000000  1.0000000 -0.0000000 )       (  0.2812738 )
                  (  0.0000000  0.0000000  1.0000000 )       ( -1.1293301 )

   Cartesian axes

     site n.     atom                  positions (alat units)
         1           Ba  tau(   1) = (  -0.2729171   0.4470207   1.6939952  )
         2           Ba  tau(   2) = (   0.2729169   0.7282945   0.5646651  )
         3           Mg  tau(   3) = (  -0.2500000   0.4344657   0.0000000  )
         4           Mg  tau(   4) = (   0.2500000   0.1531919   1.1293301  )
         5           C   tau(   5) = (   0.7238380  -0.1431457   1.3739611  )
         6           C   tau(   6) = (   0.2238379   0.1682556   2.0140293  )
         7           C   tau(   7) = (  -0.2238381   0.4495294   0.8846992  )
         8           C   tau(   8) = (   0.2761620   0.1381281   0.2446310  )
         9           O   tau(   9) = (   0.5540959   0.3270109   0.9082525  )
        10           O   tau(  10) = (   0.0540960   0.2606467   0.2210777  )
        11           O   tau(  11) = (  -0.0540960  -0.0206271   1.3504078  )
        12           O   tau(  12) = (   0.4459039   0.0457371   2.0375826  )
        13           O   tau(  13) = (   0.7159330  -0.4440147   2.0012340  )
        14           O   tau(  14) = (   0.2159329   0.4691246   1.3867564  )
        15           O   tau(  15) = (  -0.2159331   0.7503985   0.2574263  )
        16           O   tau(  16) = (   0.2840670  -0.1627409   0.8719038  )
        17           O   tau(  17) = (   0.5052065  -0.0107096   1.4074412  )
        18           O   tau(  18) = (   0.0052064   0.0358196   1.9805492  )
        19           O   tau(  19) = (  -0.0052066   0.3170934   0.8512190  )
        20           O   tau(  20) = (   0.4947935   0.2705642   0.2781111  )

   Crystallographic axes

     site n.     atom                  positions (cryst. coord.)
         1           Ba  tau(   1) = (  0.2270830  1.0000000  0.7500000  )
         2           Ba  tau(   2) = (  0.7729170  1.0000000  0.2500000  )
         3           Mg  tau(   3) = (  0.0000000  0.5000000  0.0000000  )
         4           Mg  tau(   4) = (  0.5000000  0.5000000  0.5000000  )
         5           C   tau(   5) = (  0.8383790  0.2290820  0.6083080  )
         6           C   tau(   6) = (  0.6092970  0.7709180  0.8916920  )
         7           C   tau(   7) = (  0.1616210  0.7709180  0.3916920  )
         8           C   tau(   8) = (  0.3907030  0.2290820  0.1083080  )
         9           O   tau(   9) = (  0.8724310  0.6366700  0.4021200  )
        10           O   tau(  10) = (  0.2357610  0.3633300  0.0978800  )
        11           O   tau(  11) = (  0.1275690  0.3633300  0.5978800  )
        12           O   tau(  12) = (  0.7642390  0.6366700  0.9021200  )
        13           O   tau(  13) = (  0.7472460  0.0626260  0.8860270  )
        14           O   tau(  14) = (  0.6846200  0.9373740  0.6139730  )
        15           O   tau(  15) = (  0.2527540  0.9373740  0.1139730  )
        16           O   tau(  16) = (  0.3153800  0.0626260  0.3860270  )
        17           O   tau(  17) = (  0.7007520  0.3910910  0.6231310  )
        18           O   tau(  18) = (  0.3096610  0.6089090  0.8768690  )
        19           O   tau(  19) = (  0.2992480  0.6089090  0.3768690  )
        20           O   tau(  20) = (  0.6903390  0.3910910  0.1231310  )

     number of k points=     1  Methfessel-Paxton smearing, width (Ry)=  0.0010
                       cart. coord. in units 2pi/alat
        k(    1) = (   0.0000000   0.0000000   0.0000000), wk =   2.0000000

                       cryst. coord.
        k(    1) = (   0.0000000   0.0000000   0.0000000), wk =   2.0000000

     Check: negative core charge=   -0.000015

     Initial potential from superposition of free atoms

     starting charge     111.9640, renormalised to     112.0000
     Starting wfcs are   82 randomized atomic wfcs
     Checking if some PAW data can be deallocated...

     Self-consistent Calculation

     iteration #  1     ecut=    30.00 Ry     beta= 0.70
     Davidson diagonalization with overlap

     ethr =  1.00E-02,  avg # of iterations = 10.0

     negative rho (up, down):  5.793E-03 0.000E+00

     total energy              =   -1512.31648243 Ry
     estimated scf accuracy    <       3.24624192 Ry

[...]

     negative rho (up, down):  3.471E-03 0.000E+00

[...]

     total energy              =   -1513.66106174 Ry
     estimated scf accuracy    <       0.00003449 Ry

     iteration # 14     ecut=    30.00 Ry     beta= 0.70
     Davidson diagonalization with overlap

     ethr =  1.29E-08,  avg # of iterations =  4.0

     End of self-consistent calculation

          k = 0.0000 0.0000 0.0000 (  2400 PWs)   bands (ev):

   -20.6169 -20.6144 -16.7511 -16.7398 -16.5970 -16.5932 -13.5556 -13.5484
   -13.5386 -13.5346 -13.4942 -13.4653 -13.4451 -13.4180  -5.8488  -5.8255
    -5.8065  -5.8047  -5.8017  -5.7958  -3.7344  -3.7061  -3.2943  -3.1897
    -1.3525  -1.1292  -1.0971  -0.9108  -0.8982  -0.8441  -0.8285  -0.7090
    -0.6865  -0.6766  -0.5503   0.0508   2.7401   2.7801   2.9070   2.9470
     3.2489   3.2490   3.3043   3.3225   3.4081   3.4636   3.5491   3.6084
     3.8440   3.8737   3.9484   4.0754   5.2054   5.2878   5.3726   5.4644
     9.5065   9.5231   9.8284  10.1772  10.3257  11.1684  11.5671  12.0417
    12.1111  12.1647  12.2330

     occupation numbers
     1.0000   1.0000   1.0000   1.0000   1.0000   1.0000   1.0000   1.0000
     1.0000   1.0000   1.0000   1.0000   1.0000   1.0000   1.0000   1.0000
     1.0000   1.0000   1.0000   1.0000   1.0000   1.0000   1.0000   1.0000
     1.0000   1.0000   1.0000   1.0000   1.0000   1.0000   1.0000   1.0000
     1.0000   1.0000   1.0000   1.0000   1.0000   1.0000   1.0000   1.0000
     1.0000   1.0000   1.0000   1.0000   1.0000   1.0000   1.0000   1.0000
     1.0000   1.0000   1.0000   1.0000   1.0000   1.0000   1.0000   1.0000
    -0.0000  -0.0000  -0.0000  -0.0000  -0.0000  -0.0000  -0.0000  -0.0000
    -0.0000  -0.0000  -0.0000

     the Fermi energy is     8.2288 ev

!    total energy              =   -1513.66106246 Ry

     total all-electron energy =    -35455.174817 Ry
     estimated scf accuracy    <       0.00000037 Ry
     smearing contrib. (-TS)   =       0.00000000 Ry
     internal energy E=F+TS    =   -1513.66106246 Ry

     The total energy is F=E-TS. E is the sum of the following terms:
     one-electron contribution =    -205.09704599 Ry
     hartree contribution      =     168.25660191 Ry
     xc contribution           =    -152.53284449 Ry
     ewald contribution        =    -373.14693582 Ry
     one-center paw contrib.   =    -951.14083808 Ry
      -> PAW hartree energy AE =      28.46960461 Ry
      -> PAW hartree energy PS =     -28.35795057 Ry
      -> PAW xc energy AE      =    -394.18158648 Ry
      -> PAW xc energy PS      =      19.12144675 Ry
      -> total E_H with PAW    =     168.36825595 Ry
      -> total E_XC with PAW   =    -527.59298422 Ry

     convergence has been achieved in  14 iterations

     Forces acting on atoms (cartesian axes, Ry/au):

     atom    1 type  1   force =    -0.00108684   -0.00000000   -0.00000000
     atom    2 type  1   force =     0.00108684    0.00000000    0.00000000
     atom    3 type  2   force =     0.00000000    0.00000000    0.00000000
     atom    4 type  2   force =     0.00000000   -0.00000000   -0.00000000
     atom    5 type  3   force =     0.00601164   -0.00283999    0.00146092
     atom    6 type  3   force =     0.00601164    0.00283999   -0.00146092
     atom    7 type  3   force =    -0.00601164    0.00283999   -0.00146092
     atom    8 type  3   force =    -0.00601164   -0.00283999    0.00146092
     atom    9 type  4   force =     0.03806057    0.02744326    0.03292483
     atom   10 type  4   force =     0.03806057   -0.02744325   -0.03292483
     atom   11 type  4   force =    -0.03806057   -0.02744326   -0.03292483
     atom   12 type  4   force =    -0.03806057    0.02744325    0.03292483
     atom   13 type  4   force =    -0.00322871   -0.04872795   -0.00139469
     atom   14 type  4   force =    -0.00322871    0.04872795    0.00139469
     atom   15 type  4   force =     0.00322871    0.04872795    0.00139469
     atom   16 type  4   force =     0.00322871   -0.04872795   -0.00139469
     atom   17 type  4   force =     0.03995388   -0.01550321    0.02180327
     atom   18 type  4   force =     0.03995388    0.01550322   -0.02180327
     atom   19 type  4   force =    -0.03995388    0.01550321   -0.02180327
     atom   20 type  4   force =    -0.03995388   -0.01550322    0.02180327
     The non-local contrib.  to forces
     atom    1 type  1   force =    -0.01034749   -0.00000000   -0.00000000
     atom    2 type  1   force =     0.01034749    0.00000000    0.00000000
     atom    3 type  2   force =    -0.00000000   -0.00000000   -0.00000000
     atom    4 type  2   force =     0.00000000    0.00000000    0.00000000
     atom    5 type  3   force =     0.00301297   -0.00605170    0.06643550
     atom    6 type  3   force =     0.00301297    0.00605170   -0.06643550
     atom    7 type  3   force =    -0.00301297    0.00605170   -0.06643550
     atom    8 type  3   force =    -0.00301297   -0.00605170    0.06643550
     atom    9 type  4   force =     1.67277674    0.93416161   -0.18950745
     atom   10 type  4   force =     1.67277674   -0.93416123    0.18950755
     atom   11 type  4   force =    -1.67277674   -0.93416161    0.18950745
     atom   12 type  4   force =    -1.67277674    0.93416123   -0.18950755
     atom   13 type  4   force =     0.12676022   -1.92159150    0.24198125
     atom   14 type  4   force =     0.12676022    1.92159153   -0.24198125
     atom   15 type  4   force =    -0.12676022    1.92159150   -0.24198125
     atom   16 type  4   force =    -0.12676022   -1.92159153    0.24198125
     atom   17 type  4   force =     1.61300308   -0.98096725   -0.44457176
     atom   18 type  4   force =     1.61300308    0.98096762    0.44457186
     atom   19 type  4   force =    -1.61300308    0.98096725    0.44457176
     atom   20 type  4   force =    -1.61300308   -0.98096762   -0.44457186
     The ionic contribution  to forces
     atom    1 type  1   force =    -0.35519730    0.00000004    0.00000011
     atom    2 type  1   force =     0.35519730   -0.00000004   -0.00000011
     atom    3 type  2   force =    -0.00000000   -0.00000000   -0.00000000
     atom    4 type  2   force =    -0.00000000    0.00000000    0.00000000
     atom    5 type  3   force =     0.00295667    0.06409766   -0.65759541
     atom    6 type  3   force =     0.00296041   -0.06409729    0.65759592
     atom    7 type  3   force =    -0.00295667   -0.06409766    0.65759541
     atom    8 type  3   force =    -0.00296041    0.06409729   -0.65759592
     atom    9 type  4   force =    -7.29658712   -4.07145618    0.84760997
     atom   10 type  4   force =    -7.29658591    4.07145489   -0.84760978
     atom   11 type  4   force =     7.29658712    4.07145618   -0.84760997
     atom   12 type  4   force =     7.29658591   -4.07145489    0.84760978
     atom   13 type  4   force =    -0.09680134    8.33766791   -0.47099271
     atom   14 type  4   force =    -0.09679983   -8.33766811    0.47099282
     atom   15 type  4   force =     0.09680134   -8.33766791    0.47099271
     atom   16 type  4   force =     0.09679983    8.33766811   -0.47099282
     atom   17 type  4   force =    -6.96912676    4.46690253    1.32814661
     atom   18 type  4   force =    -6.96912806   -4.46690413   -1.32814721
     atom   19 type  4   force =     6.96912676   -4.46690254   -1.32814661
     atom   20 type  4   force =     6.96912806    4.46690413    1.32814721
     The local contribution  to forces
     atom    1 type  1   force =     0.36399079   -0.00034583   -0.00027325
     atom    2 type  1   force =    -0.36374289    0.00032012   -0.00008079
     atom    3 type  2   force =    -0.00000738   -0.00000223    0.00000119
     atom    4 type  2   force =    -0.00000444    0.00000280   -0.00000116
     atom    5 type  3   force =     0.00020280   -0.06134800    0.59350879
     atom    6 type  3   force =     0.00019261    0.06129270   -0.59348811
     atom    7 type  3   force =    -0.00017935    0.06132962   -0.59352243
     atom    8 type  3   force =    -0.00016124   -0.06128408    0.59350406
     atom    9 type  4   force =     5.67691650    3.17313337   -0.62731766
     atom   10 type  4   force =     5.67690799   -3.17313848    0.62730082
     atom   11 type  4   force =    -5.67690002   -3.17312798    0.62730810
     atom   12 type  4   force =    -5.67686247    3.17310604   -0.62729360
     atom   13 type  4   force =    -0.03178935   -6.48242959    0.22979602
     atom   14 type  4   force =    -0.03178036    6.48238243   -0.22976009
     atom   15 type  4   force =     0.03178335    6.48245118   -0.22978111
     atom   16 type  4   force =     0.03178257   -6.48240902    0.22975546
     atom   17 type  4   force =     5.41096212   -3.51048114   -0.86596340
     atom   18 type  4   force =     5.41093087    3.51047111    0.86598779
     atom   19 type  4   force =    -5.41093500    3.51047813    0.86594819
     atom   20 type  4   force =    -5.41091226   -3.51045192   -0.86597329
     The core correction contribution to forces
     atom    1 type  1   force =     0.00057621   -0.00000692   -0.00000154
     atom    2 type  1   force =    -0.00057452    0.00000292   -0.00000158
     atom    3 type  2   force =     0.00000025    0.00000005   -0.00000007
     atom    4 type  2   force =     0.00000016   -0.00000010    0.00000007
     atom    5 type  3   force =    -0.00007778    0.00030224   -0.00085486
     atom    6 type  3   force =    -0.00007767   -0.00030171    0.00085496
     atom    7 type  3   force =     0.00007744   -0.00030216    0.00085488
     atom    8 type  3   force =     0.00007710    0.00030146   -0.00085491
     atom    9 type  4   force =    -0.01517317   -0.00846690    0.00211103
     atom   10 type  4   force =    -0.01517352    0.00846654   -0.00211088
     atom   11 type  4   force =     0.01517322    0.00846686   -0.00211090
     atom   12 type  4   force =     0.01517357   -0.00846677    0.00211071
     atom   13 type  4   force =    -0.00138705    0.01778413   -0.00222916
     atom   14 type  4   force =    -0.00138715   -0.01778455    0.00222917
     atom   15 type  4   force =     0.00138699   -0.01778434    0.00222914
     atom   16 type  4   force =     0.00138712    0.01778445   -0.00222913
     atom   17 type  4   force =    -0.01490841    0.00905745    0.00425289
     atom   18 type  4   force =    -0.01490856   -0.00905725   -0.00425295
     atom   19 type  4   force =     0.01490853   -0.00905734   -0.00425297
     atom   20 type  4   force =     0.01490853    0.00905713    0.00425303
     The Hubbard contrib.    to forces
     atom    1 type  1   force =     0.00000000    0.00000000    0.00000000
     atom    2 type  1   force =     0.00000000    0.00000000    0.00000000
     atom    3 type  2   force =     0.00000000    0.00000000    0.00000000
     atom    4 type  2   force =     0.00000000    0.00000000    0.00000000
     atom    5 type  3   force =     0.00000000    0.00000000    0.00000000
     atom    6 type  3   force =     0.00000000    0.00000000    0.00000000
     atom    7 type  3   force =     0.00000000    0.00000000    0.00000000
     atom    8 type  3   force =     0.00000000    0.00000000    0.00000000
     atom    9 type  4   force =     0.00000000    0.00000000    0.00000000
     atom   10 type  4   force =     0.00000000    0.00000000    0.00000000
     atom   11 type  4   force =     0.00000000    0.00000000    0.00000000
     atom   12 type  4   force =     0.00000000    0.00000000    0.00000000
     atom   13 type  4   force =     0.00000000    0.00000000    0.00000000
     atom   14 type  4   force =     0.00000000    0.00000000    0.00000000
     atom   15 type  4   force =     0.00000000    0.00000000    0.00000000
     atom   16 type  4   force =     0.00000000    0.00000000    0.00000000
     atom   17 type  4   force =     0.00000000    0.00000000    0.00000000
     atom   18 type  4   force =     0.00000000    0.00000000    0.00000000
     atom   19 type  4   force =     0.00000000    0.00000000    0.00000000
     atom   20 type  4   force =     0.00000000    0.00000000    0.00000000
     The SCF correction term to forces
     atom    1 type  1   force =     0.00000018    0.00005304    0.00000290
     atom    2 type  1   force =    -0.00003131   -0.00003570    0.00004357
     atom    3 type  2   force =     0.00000829    0.00000226   -0.00000201
     atom    4 type  2   force =     0.00000518   -0.00000312    0.00000224
     atom    5 type  3   force =    -0.00010384    0.00018589   -0.00003170
     atom    6 type  3   force =    -0.00009038   -0.00009253    0.00001165
     atom    7 type  3   force =     0.00005512   -0.00015791    0.00004598
     atom    8 type  3   force =     0.00001615    0.00006743   -0.00003011
     atom    9 type  4   force =     0.00013944    0.00006489    0.00003955
     atom   10 type  4   force =     0.00012679   -0.00007519   -0.00001262
     atom   11 type  4   force =    -0.00015280   -0.00007421   -0.00002130
     atom   12 type  4   force =    -0.00016887    0.00009634   -0.00000697
     atom   13 type  4   force =    -0.00001017   -0.00016844    0.00004709
     atom   14 type  4   force =    -0.00002555    0.00019762   -0.00008387
     atom   15 type  4   force =     0.00001265    0.00014131   -0.00006687
     atom   16 type  4   force =     0.00002109   -0.00017564    0.00009342
     atom   17 type  4   force =     0.00002867   -0.00001208   -0.00006747
     atom   18 type  4   force =     0.00005627    0.00002738    0.00003434
     atom   19 type  4   force =    -0.00005173    0.00001751    0.00007853
     atom   20 type  4   force =    -0.00006996   -0.00004633   -0.00004616

     Total force =     0.179238     Total SCF correction =     0.000626

     Computing stress (Cartesian axis) and pressure

          total   stress  (Ry/bohr**3)                   (kbar)     P=     -331.88
  -0.00213007  -0.00000000  -0.00000000         -313.34       -0.00       -0.00
  -0.00000000  -0.00202711  -0.00001507           -0.00     -298.20       -2.22
  -0.00000000  -0.00001507  -0.00261096           -0.00       -2.22     -384.09

     kinetic stress (kbar)  15448.18      0.00      0.00
                                0.00  15485.79     10.33
                                0.00     10.33  15875.66

     local   stress (kbar) -15908.83     -0.01     -0.00
                               -0.01 -15793.41    567.25
                               -0.00    567.25   1180.99

     nonloc. stress (kbar)   3600.68      0.00      0.00
                                0.00   3606.71      1.50
                                0.00      1.50   3583.49

     hartree stress (kbar)   6586.95      0.00      0.00
                                0.00   6569.64   -183.09
                                0.00   -183.09   1230.10

     exc-cor stress (kbar)   -361.03      0.00     -0.00
                                0.00   -361.26     -1.24
                               -0.00     -1.24   -403.89

     corecor stress (kbar)  -3146.46      0.00     -0.00
                                0.00  -3147.39     -0.09
                               -0.00     -0.09  -3135.82

     ewald   stress (kbar)  -6532.83      0.00     -0.00
                                0.00  -6658.27   -396.87
                               -0.00   -396.87 -18714.62

     hubbard stress (kbar)      0.00      0.00      0.00
                                0.00      0.00      0.00
                                0.00      0.00      0.00

     DFT-D   stress (kbar)      0.00      0.00      0.00
                                0.00      0.00      0.00
                                0.00      0.00      0.00

     XDM     stress (kbar)      0.00      0.00      0.00
                                0.00      0.00      0.00
                                0.00      0.00      0.00

     dft-nl  stress (kbar)      0.00      0.00      0.00
                                0.00      0.00      0.00
                                0.00      0.00      0.00

     TS-vdW  stress (kbar)      0.00      0.00      0.00
                                0.00      0.00      0.00
                                0.00      0.00      0.00

[...]

                                0.00      0.00      0.00

     Writing all to output data dir calculations/myprefix.save/

     General routines

     Parallel routines

     PAW routines

   This run was terminated on:  15:39:10   3Mar2023

   JOB DONE.