     Program PWSCF v.7.0 starts on  3Mar2023 at 15: 2:50

     R & G space division:  proc/nbgrp/npool/nimage =      32

     Reading input from espresso_695.pwi
Warning: card &CELL ignored
Warning: card / ignored

     Current dimensions of program PWSCF are:
     Max number of different atomic species (ntypx) = 10
     Max number of k-points (npk) =  40000
     Max angular momentum in pseudopotentials (lmaxx) =  4

     gamma-point specific algorithms are used
     Message from routine setup:
     using ibrav=0 with symmetry is DISCOURAGED, use correct ibrav instead

     Using Slab Decomposition

     bravais-lattice index     =            0
     lattice parameter (alat)  =      14.7157  a.u.
     unit-cell volume          =    1873.3766 (a.u.)^3
     number of atoms/cell      =           10
     number of atomic types    =            3
     number of electrons       =        92.00
     number of Kohn-Sham states=           55
     kinetic-energy cutoff     =      30.0000  Ry
     charge density cutoff     =     240.0000  Ry
     scf convergence threshold =      1.0E-06
     mixing beta               =       0.7000
     number of iterations used =            8  plain     mixing
     Exchange-correlation= PBE
                           (   1   4   3   4   0   0   0)

     celldm(1)=  14.715737  celldm(2)=   0.000000  celldm(3)=   0.000000
     celldm(4)=   0.000000  celldm(5)=   0.000000  celldm(6)=   0.000000

     crystal axes: (cart. coord. in units of alat)
               a(1) = (   1.000000   0.000000   0.000000 )
               a(2) = (  -0.620928   0.783867   0.000000 )
               a(3) = (   0.000000   0.000000   0.749957 )

     reciprocal axes: (cart. coord. in units 2 pi/alat)
               b(1) = (  1.000000  0.792134  0.000000 )
               b(2) = (  0.000000  1.275726  0.000000 )
               b(3) = (  0.000000  0.000000  1.333410 )

     PseudoPot. # 1 for Rb read from file:
     /home/pragov/projects/rrg-bengioy-ad/pragov/crystal_structure_design/SSSP/Rb_ONCV_PBE-1.0.oncvpsp.upf
     MD5 check sum: 55a5172d6bfbce6759a58e35d43f6aa9
     Pseudo is Norm-conserving, Zval =  9.0
     Generated using ONCVPSP code by D. R. Hamann
     Using radial grid of 2308 points,  6 beta functions with:
                l(1) =   0
                l(2) =   0
                l(3) =   1
                l(4) =   1
                l(5) =   2
                l(6) =   2

     PseudoPot. # 2 for Ni read from file:
     /home/pragov/projects/rrg-bengioy-ad/pragov/crystal_structure_design/SSSP/ni_pbe_v1.4.uspp.F.UPF
     MD5 check sum: 1ee80287db30b12d2bc1f57a5b5d6409
     Pseudo is Ultrasoft + core correction, Zval = 18.0
     Generated by new atomic code, or converted to UPF format
     Using radial grid of  865 points,  6 beta functions with:
                l(1) =   0
                l(2) =   0
                l(3) =   1
                l(4) =   1
                l(5) =   2
                l(6) =   2
     Q(r) pseudized with 10 coefficients,  rinner =    0.980   0.980   0.980
                                                       0.980   0.980

     PseudoPot. # 3 for P  read from file:
     /home/pragov/projects/rrg-bengioy-ad/pragov/crystal_structure_design/SSSP/P.pbe-n-rrkjus_psl.1.0.0.UPF
     MD5 check sum: 8b930f418f0a4573dca56cd030ffe088
     Pseudo is Ultrasoft + core correction, Zval =  5.0
     Generated using "atomic" code by A. Dal Corso  v.5.1
     Using radial grid of 1147 points,  6 beta functions with:
                l(1) =   0
                l(2) =   0
                l(3) =   1
                l(4) =   1
                l(5) =   2
                l(6) =   2
     Q(r) pseudized with 0 coefficients

     atomic species   valence    mass     pseudopotential
        Rb             9.00    85.46780     Rb( 1.00)
        Ni            18.00    58.69340     Ni( 1.00)
        P              5.00    30.97376     P ( 1.00)

      4 Sym. Ops., with inversion, found ( 2 have fractional translation)

                                    s                        frac. trans.

      isym =  1     identity

 cryst.   s( 1) = (     1          0          0      )
                  (     0          1          0      )
                  (     0          0          1      )

 cart.    s( 1) = (  1.0000000  0.0000000  0.0000000 )
                  (  0.0000000  1.0000000  0.0000000 )
                  (  0.0000000  0.0000000  1.0000000 )

      isym =  2     180 deg rotation - cart. axis [0,0,1]

 cryst.   s( 2) = (    -1          0          0      )    f =(  0.0000000 )
                  (     0         -1          0      )       (  0.0000000 )
                  (     0          0          1      )       (  0.5000000 )

 cart.    s( 2) = ( -1.0000000 -0.0000000  0.0000000 )    f =(  0.0000000 )
                  (  0.0000000 -1.0000000  0.0000000 )       (  0.0000000 )
                  (  0.0000000  0.0000000  1.0000000 )       (  0.3749785 )

      isym =  3     inversion

 cryst.   s( 3) = (    -1          0          0      )
                  (     0         -1          0      )
                  (     0          0         -1      )

 cart.    s( 3) = ( -1.0000000 -0.0000000  0.0000000 )
                  (  0.0000000 -1.0000000  0.0000000 )
                  (  0.0000000  0.0000000 -1.0000000 )

      isym =  4     inv. 180 deg rotation - cart. axis [0,0,1]

 cryst.   s( 4) = (     1          0          0      )    f =(  0.0000000 )
                  (     0          1          0      )       (  0.0000000 )
                  (     0          0         -1      )       ( -0.5000000 )

 cart.    s( 4) = (  1.0000000  0.0000000  0.0000000 )    f =(  0.0000000 )
                  (  0.0000000  1.0000000  0.0000000 )       (  0.0000000 )
                  (  0.0000000  0.0000000 -1.0000000 )       ( -0.3749785 )

   Cartesian axes

     site n.     atom                  positions (alat units)
         1           Rb  tau(   1) = (   0.6570667   0.1658397   0.1874893  )
         2           Rb  tau(   2) = (  -0.2779949   0.6180278   0.5624678  )
         3           Rb  tau(   3) = (   0.0494569   0.4596748   0.1874893  )
         4           Rb  tau(   4) = (   0.3296149   0.3241927   0.5624678  )
         5           Ni  tau(   5) = (   0.0000000   0.0000000   0.0000000  )
         6           Ni  tau(   6) = (   0.0000000   0.0000000   0.3749785  )
         7           P   tau(   7) = (   0.4711179   0.5837774   0.1874893  )
         8           P   tau(   8) = (  -0.0920461   0.2000900   0.5624678  )
         9           P   tau(   9) = (   0.2139981   0.0520896   0.1874893  )
        10           P   tau(  10) = (   0.1650737   0.7317779   0.5624678  )

   Crystallographic axes

     site n.     atom                  positions (cryst. coord.)
         1           Rb  tau(   1) = (  0.7884340  0.2115660  0.2500000  )
         2           Rb  tau(   2) = (  0.2115660  0.7884340  0.7500000  )
         3           Rb  tau(   3) = (  0.4135810  0.5864190  0.2500000  )
         4           Rb  tau(   4) = (  0.5864190  0.4135810  0.7500000  )
         5           Ni  tau(   5) = (  0.0000000  0.0000000  0.0000000  )
         6           Ni  tau(   6) = (  0.0000000  0.0000000  0.5000000  )
         7           P   tau(   7) = (  0.9335480  0.7447400  0.2500000  )
         8           P   tau(   8) = (  0.0664520  0.2552600  0.7500000  )
         9           P   tau(   9) = (  0.2552600  0.0664520  0.2500000  )
        10           P   tau(  10) = (  0.7447400  0.9335480  0.7500000  )

     number of k points=     1  Methfessel-Paxton smearing, width (Ry)=  0.0010
                       cart. coord. in units 2pi/alat
        k(    1) = (   0.0000000   0.0000000   0.0000000), wk =   2.0000000

                       cryst. coord.
        k(    1) = (   0.0000000   0.0000000   0.0000000), wk =   2.0000000

     Check: negative core charge=   -0.000002

     Initial potential from superposition of free atoms

     starting charge      87.9003, renormalised to      92.0000
     Starting wfcs are   62 randomized atomic wfcs

     Self-consistent Calculation

     iteration #  1     ecut=    30.00 Ry     beta= 0.70
     Davidson diagonalization with overlap

     ethr =  1.00E-02,  avg # of iterations =  4.0

     total energy              =    -923.69465675 Ry
     estimated scf accuracy    <      22.95200985 Ry

[...]

     total energy              =    -938.46132501 Ry
     estimated scf accuracy    <       0.00000107 Ry

     iteration # 14     ecut=    30.00 Ry     beta= 0.70
     Davidson diagonalization with overlap

     ethr =  1.16E-09,  avg # of iterations =  2.0

     End of self-consistent calculation

          k = 0.0000 0.0000 0.0000 (  2594 PWs)   bands (ev):

   -96.2025 -96.2003 -56.8066 -56.7956 -56.6740 -56.6695 -56.1608 -56.1505
   -21.4468 -21.3910 -21.3324 -21.3310  -6.0687  -5.8222  -5.7979  -5.7617
    -5.7437  -5.6749  -5.4548  -5.4513  -5.4125  -5.3672  -5.3416  -5.3311
    -5.2687  -4.9656  -1.4350  -1.4232   1.9584   2.0547   2.4870   3.1451
     3.8399   3.9144   3.9154   4.2358   5.1963   5.2786   5.3373   5.4534
     5.5555   5.7580   5.8653   5.9420   6.0173   6.8160   7.7049   7.9023
     7.9795   8.1660   9.5274   9.6432  10.1267  10.1657  10.8595

     occupation numbers
     1.0000   1.0000   1.0000   1.0000   1.0000   1.0000   1.0000   1.0000
     1.0000   1.0000   1.0000   1.0000   1.0000   1.0000   1.0000   1.0000
     1.0000   1.0000   1.0000   1.0000   1.0000   1.0000   1.0000   1.0000
     1.0000   1.0000   1.0000   1.0000   1.0000   1.0000   1.0000   1.0000
     1.0000   1.0000   1.0000   1.0000   1.0000   1.0000   1.0000   1.0000
     1.0000   1.0000   1.0000   1.0000   1.0000   1.0000  -0.0000  -0.0000
    -0.0000  -0.0000  -0.0000  -0.0000  -0.0000  -0.0000  -0.0000

     the Fermi energy is     7.6406 ev

!    total energy              =    -938.46132502 Ry
     estimated scf accuracy    <       0.00000017 Ry
     smearing contrib. (-TS)   =       0.00000000 Ry
     internal energy E=F+TS    =    -938.46132502 Ry

     The total energy is F=E-TS. E is the sum of the following terms:
     one-electron contribution =    -926.59957983 Ry
     hartree contribution      =     491.27678009 Ry
     xc contribution           =    -118.65271405 Ry
     ewald contribution        =    -384.48581123 Ry

     convergence has been achieved in  14 iterations

     Forces acting on atoms (cartesian axes, Ry/au):

     atom    1 type  1   force =    -0.00576839    0.00277535    0.00000000
     atom    2 type  1   force =     0.00576839   -0.00277535    0.00000000
     atom    3 type  1   force =     0.00433373   -0.00209129    0.00000000
     atom    4 type  1   force =    -0.00433373    0.00209129    0.00000000
     atom    5 type  2   force =     0.00000000    0.00000000    0.00000000
     atom    6 type  2   force =     0.00000000    0.00000000    0.00000000
     atom    7 type  3   force =    -0.02767827   -0.01094310   -0.00000000
     atom    8 type  3   force =     0.02767827    0.01094310    0.00000000
     atom    9 type  3   force =    -0.00861373    0.02848665    0.00000000
     atom   10 type  3   force =     0.00861373   -0.02848665    0.00000000
     The non-local contrib.  to forces
     atom    1 type  1   force =    -0.01999108    0.00967182   -0.00000000
     atom    2 type  1   force =     0.01999108   -0.00967182   -0.00000000
     atom    3 type  1   force =    -0.06480717    0.03133835    0.00000000
     atom    4 type  1   force =     0.06480717   -0.03133835    0.00000000
     atom    5 type  2   force =     0.00000000    0.00000000    0.00000000
     atom    6 type  2   force =     0.00000000    0.00000000    0.00000000
     atom    7 type  3   force =    -0.00513157    0.11777978    0.00000000
     atom    8 type  3   force =     0.00513157   -0.11777978    0.00000000
     atom    9 type  3   force =    -0.09550722   -0.06910691    0.00000000
     atom   10 type  3   force =     0.09550722    0.06910691    0.00000000
     The ionic contribution  to forces
     atom    1 type  1   force =    -8.70521017    4.20976759    0.00000000
     atom    2 type  1   force =     8.70521017   -4.20976759    0.00000000
     atom    3 type  1   force =    -4.50920274    2.18061313   -0.00000000
     atom    4 type  1   force =     4.50920274   -2.18061313    0.00000000
     atom    5 type  2   force =    -0.00000000    0.00000000    0.00000000
     atom    6 type  2   force =    -0.00000000    0.00000000   -0.00000000
     atom    7 type  3   force =     5.54980216  -13.35085831   -0.00000000
     atom    8 type  3   force =    -5.54980216   13.35085830    0.00000000
     atom    9 type  3   force =    13.91133191    3.93961493    0.00000000
     atom   10 type  3   force =   -13.91133191   -3.93961493    0.00000000
     The local contribution  to forces
     atom    1 type  1   force =     8.71945796   -4.21659148    0.00001918
     atom    2 type  1   force =    -8.71941838    4.21657951   -0.00005071
     atom    3 type  1   force =     4.57828745   -2.21408284    0.00003958
     atom    4 type  1   force =    -4.57829004    2.21401602   -0.00003911
     atom    5 type  2   force =    -0.00014605    0.00021938    0.00061465
     atom    6 type  2   force =    -0.00014640    0.00020273   -0.00061875
     atom    7 type  3   force =    -5.57277810   13.22314921    0.00015703
     atom    8 type  3   force =     5.57273769  -13.22307740   -0.00014705
     atom    9 type  3   force =   -13.82555396   -3.84233681    0.00015755
     atom   10 type  3   force =    13.82548036    3.84238206   -0.00015326
     The core correction contribution to forces
     atom    1 type  1   force =     0.00000000    0.00000000    0.00000000
     atom    2 type  1   force =     0.00000000    0.00000000    0.00000000
     atom    3 type  1   force =     0.00000000    0.00000000    0.00000000
     atom    4 type  1   force =     0.00000000    0.00000000    0.00000000
     atom    5 type  2   force =     0.00000099   -0.00000044   -0.00000137
     atom    6 type  2   force =     0.00000111   -0.00000070    0.00000179
     atom    7 type  3   force =     0.00042369   -0.00097618    0.00000050
     atom    8 type  3   force =    -0.00042414    0.00097599   -0.00000004
     atom    9 type  3   force =     0.00102792    0.00027325    0.00000042
     atom   10 type  3   force =    -0.00102759   -0.00027324    0.00000000
     The Hubbard contrib.    to forces
     atom    1 type  1   force =     0.00000000    0.00000000    0.00000000
     atom    2 type  1   force =     0.00000000    0.00000000    0.00000000
     atom    3 type  1   force =     0.00000000    0.00000000    0.00000000
     atom    4 type  1   force =     0.00000000    0.00000000    0.00000000
     atom    5 type  2   force =     0.00000000    0.00000000    0.00000000
     atom    6 type  2   force =     0.00000000    0.00000000    0.00000000
     atom    7 type  3   force =     0.00000000    0.00000000    0.00000000
     atom    8 type  3   force =     0.00000000    0.00000000    0.00000000
     atom    9 type  3   force =     0.00000000    0.00000000    0.00000000
     atom   10 type  3   force =     0.00000000    0.00000000    0.00000000
     The SCF correction term to forces
     atom    1 type  1   force =    -0.00004482   -0.00006293   -0.00002989
     atom    2 type  1   force =    -0.00003421    0.00009421    0.00006873
     atom    3 type  1   force =     0.00005621    0.00004466   -0.00004648
     atom    4 type  1   force =    -0.00005356    0.00003132    0.00004570
     atom    5 type  2   force =     0.00023735   -0.00028511   -0.00076742
     atom    6 type  2   force =     0.00022575   -0.00025467    0.00081934
     atom    7 type  3   force =     0.00000587   -0.00004747   -0.00014811
     atom    8 type  3   force =     0.00003562   -0.00004388    0.00014277
     atom    9 type  3   force =     0.00009858    0.00004343   -0.00014832
     atom   10 type  3   force =    -0.00000339   -0.00008619    0.00014633

     Total force =     0.060591     Total SCF correction =     0.001288

     Computing stress (Cartesian axis) and pressure

          total   stress  (Ry/bohr**3)                   (kbar)     P=     -173.65
  -0.00116317  -0.00005109   0.00000000         -171.11       -7.52        0.00
  -0.00005109  -0.00124423   0.00000000           -7.52     -183.03        0.00
   0.00000000   0.00000000  -0.00113388            0.00        0.00     -166.80

     kinetic stress (kbar)   9089.05    -77.53      0.00
                              -77.53   8966.22      0.00
                                0.00      0.00   9142.55

     local   stress (kbar)   -674.33   -830.08      0.05
                             -830.08  -1989.61     -0.02
                                0.05     -0.02 -32779.06

     nonloc. stress (kbar)   2658.63     -3.27      0.00
                               -3.27   2653.46      0.00
                                0.00      0.00   2690.08

     hartree stress (kbar)   7502.17    554.69     -0.03
                              554.69   8381.13      0.01
                               -0.03      0.01  22693.74

     exc-cor stress (kbar)  -2287.81      0.32     -0.00
                                0.32  -2287.31      0.00
                               -0.00      0.00  -2284.98

     corecor stress (kbar)   -601.25      0.61     -0.00
                                0.61   -600.29      0.00
                               -0.00      0.00   -601.94

     ewald   stress (kbar) -15857.56    347.75      0.00
                              347.75 -15306.63      0.00
                                0.00      0.00    972.82

     hubbard stress (kbar)      0.00      0.00      0.00
                                0.00      0.00      0.00
                                0.00      0.00      0.00

     DFT-D   stress (kbar)      0.00      0.00      0.00
                                0.00      0.00      0.00
                                0.00      0.00      0.00

     XDM     stress (kbar)      0.00      0.00      0.00
                                0.00      0.00      0.00
                                0.00      0.00      0.00

     dft-nl  stress (kbar)      0.00      0.00      0.00
                                0.00      0.00      0.00
                                0.00      0.00      0.00

     TS-vdW  stress (kbar)      0.00      0.00      0.00
                                0.00      0.00      0.00
                                0.00      0.00      0.00

[...]

                                0.00      0.00      0.00

     Writing all to output data dir calculations/myprefix.save/

     General routines

     Parallel routines

   This run was terminated on:  15: 2:52   3Mar2023

   JOB DONE.