     Program PWSCF v.7.0 starts on  4Mar2023 at 18:43:57

     R & G space division:  proc/nbgrp/npool/nimage =      32

     Reading input from espresso_7266.pwi
Warning: card &CELL ignored
Warning: card / ignored

     Current dimensions of program PWSCF are:
     Max number of different atomic species (ntypx) = 10
     Max number of k-points (npk) =  40000
     Max angular momentum in pseudopotentials (lmaxx) =  4

     gamma-point specific algorithms are used
     Message from routine setup:
     using ibrav=0 with symmetry is DISCOURAGED, use correct ibrav instead

     Using Slab Decomposition

     bravais-lattice index     =            0
     lattice parameter (alat)  =       8.0306  a.u.
     unit-cell volume          =     859.7060 (a.u.)^3
     number of atoms/cell      =            6
     number of atomic types    =            3
     number of electrons       =        64.00
     number of Kohn-Sham states=           38
     kinetic-energy cutoff     =      30.0000  Ry
     charge density cutoff     =     240.0000  Ry
     scf convergence threshold =      1.0E-06
     mixing beta               =       0.7000
     number of iterations used =            8  plain     mixing
     Exchange-correlation=  SLA  PW   PBX  PBC
                           (   1   4   3   4   0   0   0)

     celldm(1)=   8.030628  celldm(2)=   0.000000  celldm(3)=   0.000000
     celldm(4)=   0.000000  celldm(5)=   0.000000  celldm(6)=   0.000000

     crystal axes: (cart. coord. in units of alat)
               a(1) = (   1.000000   0.000000   0.000000 )
               a(2) = (  -0.500000   0.866026   0.000000 )
               a(3) = (   0.000000   0.000000   1.916774 )

     reciprocal axes: (cart. coord. in units 2 pi/alat)
               b(1) = (  1.000000  0.577350  0.000000 )
               b(2) = (  0.000000  1.154700  0.000000 )
               b(3) = (  0.000000  0.000000  0.521710 )

     PseudoPot. # 1 for La read from file:
     /home/pragov/projects/rrg-bengioy-ad/pragov/crystal_structure_design/SSSP/La.GGA-PBE-paw-v1.0.UPF
     MD5 check sum: 436541e95c1ad8901025bd0b0ed42ae2
     Pseudo is Projector augmented-wave + core cor, Zval = 11.0
     Generated using ATOMPAW code
     Shape of augmentation charge: BESSEL
     Using radial grid of 1101 points,  8 beta functions with:
                l(1) =   0
                l(2) =   0
                l(3) =   1
                l(4) =   1
                l(5) =   2
                l(6) =   2
                l(7) =   3
                l(8) =   3
     Q(r) pseudized with 0 coefficients

     PseudoPot. # 2 for P  read from file:
     /home/pragov/projects/rrg-bengioy-ad/pragov/crystal_structure_design/SSSP/P.pbe-n-rrkjus_psl.1.0.0.UPF
     MD5 check sum: 8b930f418f0a4573dca56cd030ffe088
     Pseudo is Ultrasoft + core correction, Zval =  5.0
     Generated using "atomic" code by A. Dal Corso  v.5.1
     Using radial grid of 1147 points,  6 beta functions with:
                l(1) =   0
                l(2) =   0
                l(3) =   1
                l(4) =   1
                l(5) =   2
                l(6) =   2
     Q(r) pseudized with 0 coefficients

     PseudoPot. # 3 for Pt read from file:
     /home/pragov/projects/rrg-bengioy-ad/pragov/crystal_structure_design/SSSP/pt_pbe_v1.4.uspp.F.UPF
     MD5 check sum: f09d6de1a584b5a045c4fc126da2d0c4
     Pseudo is Ultrasoft + core correction, Zval = 16.0
     Generated by new atomic code, or converted to UPF format
     Using radial grid of  985 points,  6 beta functions with:
                l(1) =   0
                l(2) =   0
                l(3) =   1
                l(4) =   1
                l(5) =   2
                l(6) =   2
     Q(r) pseudized with  8 coefficients,  rinner =    1.300   1.300   1.300
                                                       1.300   1.300

     atomic species   valence    mass     pseudopotential
        La            11.00   138.90547     La( 1.00)
        P              5.00    30.97376     P ( 1.00)
        Pt            16.00   195.08400     Pt( 1.00)

     24 Sym. Ops., with inversion, found (12 have fractional translation)

                                    s                        frac. trans.

      isym =  1     identity

 cryst.   s( 1) = (     1          0          0      )
                  (     0          1          0      )
                  (     0          0          1      )

 cart.    s( 1) = (  1.0000000  0.0000000  0.0000000 )
                  (  0.0000000  1.0000000  0.0000000 )
                  (  0.0000000  0.0000000  1.0000000 )

      isym =  2     180 deg rotation - cart. axis [0,0,1]

 cryst.   s( 2) = (    -1          0          0      )    f =(  0.0000000 )
                  (     0         -1          0      )       (  0.0000000 )
                  (     0          0          1      )       (  0.5000000 )

 cart.    s( 2) = ( -1.0000000 -0.0000000  0.0000000 )    f =(  0.0000000 )
                  (  0.0000000 -1.0000000  0.0000000 )       (  0.0000000 )
                  (  0.0000000  0.0000000  1.0000000 )       (  0.9583868 )

[...]

      isym =  4     180 deg rotation - cart. axis [1,0,0]

[...]

      isym =  5      60 deg rotation - cryst. axis [0,0,1]

[...]

 cryst.   s( 8) = (    -1         -1          0      )
                  (     1          0          0      )
                  (     0          0          1      )

 cart.    s( 8) = ( -0.5000002  0.8660253  0.0000000 )
                  ( -0.8660255 -0.4999998  0.0000000 )
                  (  0.0000000  0.0000000  1.0000000 )

[...]

 cryst.   s( 9) = (     0         -1          0      )    f =(  0.0000000 )
                  (    -1          0          0      )       (  0.0000000 )
                  (     0          0         -1      )       (  0.5000000 )

 cart.    s( 9) = (  0.4999998 -0.8660255  0.0000000 )    f =(  0.0000000 )
                  ( -0.8660255 -0.4999998  0.0000000 )       (  0.0000000 )
                  (  0.0000000  0.0000000 -1.0000000 )       (  0.9583868 )

[...]

 cryst.   s(10) = (     1          1          0      )    f =(  0.0000000 )
                  (     0         -1          0      )       (  0.0000000 )
                  (     0          0         -1      )       (  0.5000000 )

 cart.    s(10) = (  0.5000002  0.8660250  0.0000000 )    f =(  0.0000000 )
                  (  0.8660255 -0.5000002  0.0000000 )       (  0.0000000 )
                  (  0.0000000  0.0000000 -1.0000000 )       (  0.9583868 )

[...]

 cryst.   s(11) = (    -1         -1          0      )
                  (     0          1          0      )
                  (     0          0         -1      )

 cart.    s(11) = ( -0.5000002 -0.8660250  0.0000000 )
                  ( -0.8660255  0.5000002  0.0000000 )
                  (  0.0000000  0.0000000 -1.0000000 )

      isym = 12     180 deg rotation - cryst. axis [1,1,0]

[...]

      isym = 13     inversion

[...]

      isym = 14     inv. 180 deg rotation - cart. axis [0,0,1]

[...]

      isym = 16     inv. 180 deg rotation - cart. axis [1,0,0]

[...]

      isym = 17     inv.  60 deg rotation - cryst. axis [0,0,1]

[...]

 cryst.   s(22) = (    -1         -1          0      )    f =(  0.0000000 )
                  (     0          1          0      )       (  0.0000000 )
                  (     0          0          1      )       (  0.5000000 )

 cart.    s(22) = ( -0.5000002 -0.8660250  0.0000000 )    f =(  0.0000000 )
                  ( -0.8660255  0.5000002  0.0000000 )       (  0.0000000 )
                  (  0.0000000  0.0000000  1.0000000 )       (  0.9583868 )

[...]

      isym = 24     inv. 180 deg rotation - cryst. axis [1,1,0]

 cryst.   s(24) = (     0         -1          0      )
                  (    -1          0          0      )
                  (     0          0          1      )

 cart.    s(24) = (  0.4999998 -0.8660255  0.0000000 )
                  ( -0.8660255 -0.4999998  0.0000000 )
                  (  0.0000000  0.0000000  1.0000000 )

   Cartesian axes

     site n.     atom                  positions (alat units)
         1           La  tau(   1) = (   0.0000000   0.0000000   0.9583868  )
         2           La  tau(   2) = (   0.0000000   0.0000000   0.0000000  )
         3           P   tau(   3) = (  -0.0000004   0.5773506   0.4791934  )
         4           P   tau(   4) = (   0.5000006   0.2886749   1.4375802  )
         5           Pt  tau(   5) = (   0.5000006   0.2886749   0.4791934  )
         6           Pt  tau(   6) = (  -0.0000004   0.5773506   1.4375802  )

   Crystallographic axes

     site n.     atom                  positions (cryst. coord.)
         1           La  tau(   1) = (  0.0000000  0.0000000  0.5000000  )
         2           La  tau(   2) = (  0.0000000  0.0000000  0.0000000  )
         3           P   tau(   3) = (  0.3333330  0.6666670  0.2500000  )
         4           P   tau(   4) = (  0.6666670  0.3333330  0.7500000  )
         5           Pt  tau(   5) = (  0.6666670  0.3333330  0.2500000  )
         6           Pt  tau(   6) = (  0.3333330  0.6666670  0.7500000  )

     number of k points=     1  Methfessel-Paxton smearing, width (Ry)=  0.0010
                       cart. coord. in units 2pi/alat
        k(    1) = (   0.0000000   0.0000000   0.0000000), wk =   2.0000000

                       cryst. coord.
        k(    1) = (   0.0000000   0.0000000   0.0000000), wk =   2.0000000

     Initial potential from superposition of free atoms

     starting charge      62.9826, renormalised to      64.0000

     negative rho (up, down):  3.726E-01 0.000E+00
     Starting wfcs are   96 randomized atomic wfcs
     Checking if some PAW data can be deallocated...

     Self-consistent Calculation

     iteration #  1     ecut=    30.00 Ry     beta= 0.70
     Davidson diagonalization with overlap

     ethr =  1.00E-02,  avg # of iterations =  2.0

     negative rho (up, down):  3.240E-01 0.000E+00

     total energy              =   -1358.05861435 Ry
     estimated scf accuracy    <      10.72657448 Ry

[...]

     total energy              =   -1365.76931668 Ry
     estimated scf accuracy    <       0.00000161 Ry

     iteration # 32     ecut=    30.00 Ry     beta= 0.70
     Davidson diagonalization with overlap

     ethr =  2.52E-09,  avg # of iterations =  6.0

[...]

     End of self-consistent calculation

          k = 0.0000 0.0000 0.0000 (  1175 PWs)   bands (ev):

   -40.3364 -40.3363 -40.3361 -40.3360 -39.6195 -39.6191 -17.5489 -17.5102
    -2.2417  -1.3694  -1.2079  -1.2079  -1.1405  -1.1405   2.1534   3.3228
     7.4638   7.4639   7.8609   7.8610   9.6786   9.6786   9.7500  10.1381
    10.1942  10.1942  10.7827  12.6785  13.6059  13.6059  14.1108  14.6532
    14.6612  14.6612  16.0366  16.2563  16.2564  16.5586

     occupation numbers
     1.0000   1.0000   1.0000   1.0000   1.0000   1.0000   1.0000   1.0000
     1.0000   1.0000   1.0000   1.0000   1.0000   1.0000   1.0000   1.0000
     1.0000   1.0000   1.0000   1.0000   1.0000   1.0000   1.0000   1.0000
     1.0000   1.0000   1.0000   1.0000   1.0000   1.0000   1.0000   0.6407
     0.1803   0.1790  -0.0000  -0.0000  -0.0000  -0.0000

     the Fermi energy is    14.6555 ev

!    total energy              =   -1365.76931670 Ry
     estimated scf accuracy    <       0.00000047 Ry
     smearing contrib. (-TS)   =      -0.00056911 Ry
     internal energy E=F+TS    =   -1365.76874759 Ry

     The total energy is F=E-TS. E is the sum of the following terms:
     one-electron contribution =    -124.41773343 Ry
     hartree contribution      =     102.17988628 Ry
     xc contribution           =    -140.13530375 Ry
     ewald contribution        =    -407.14265366 Ry
     one-center paw contrib.   =    -796.25294303 Ry
      -> PAW hartree energy AE =      35.58120873 Ry
      -> PAW hartree energy PS =     -35.62557289 Ry
      -> PAW xc energy AE      =    -405.45524929 Ry
      -> PAW xc energy PS      =       7.37314192 Ry
      -> total E_H with PAW    =     102.13552212 Ry
      -> total E_XC with PAW   =    -538.21741112 Ry

     convergence has been achieved in  32 iterations

     negative rho (up, down):  3.467E-01 0.000E+00

     Forces acting on atoms (cartesian axes, Ry/au):

     atom    1 type  1   force =     0.00000000    0.00000000    0.00000000
     atom    2 type  1   force =     0.00000000    0.00000000    0.00000000
     atom    3 type  2   force =     0.00000000    0.00000000   -0.00000000
     atom    4 type  2   force =    -0.00000000   -0.00000000    0.00000000
     atom    5 type  3   force =     0.00000000    0.00000000   -0.00000000
     atom    6 type  3   force =    -0.00000000   -0.00000000   -0.00000000
     The non-local contrib.  to forces
     atom    1 type  1   force =    -0.00000000   -0.00000000    0.00000000
     atom    2 type  1   force =     0.00000000   -0.00000000   -0.00000000
     atom    3 type  2   force =     0.00000000   -0.00000000   -0.00000000
     atom    4 type  2   force =    -0.00000000    0.00000000    0.00000000
     atom    5 type  3   force =     0.00000000   -0.00000000    0.00000000
     atom    6 type  3   force =    -0.00000000   -0.00000000    0.00000000
     The ionic contribution  to forces
     atom    1 type  1   force =    -0.00000000   -0.00000000   -0.00000000
     atom    2 type  1   force =    -0.00000000   -0.00000000   -0.00000000
     atom    3 type  2   force =     0.00002959   -0.00001708    0.00000000
     atom    4 type  2   force =    -0.00002959    0.00001708   -0.00000000
     atom    5 type  3   force =    -0.00004010    0.00002315   -0.00000000
     atom    6 type  3   force =     0.00004010   -0.00002315   -0.00000000
     The local contribution  to forces
     atom    1 type  1   force =     0.00004422   -0.00000832   -0.00001384
     atom    2 type  1   force =    -0.00000495    0.00010053    0.00000593
     atom    3 type  2   force =    -0.00074772   -0.00039474    0.00006719
     atom    4 type  2   force =     0.00066864    0.00031255   -0.00004831
     atom    5 type  3   force =    -0.00279664   -0.00020746    0.00034787
     atom    6 type  3   force =     0.00266260    0.00002392   -0.00026889
     The core correction contribution to forces
     atom    1 type  1   force =     0.00000001   -0.00000002    0.00000002
     atom    2 type  1   force =    -0.00000001    0.00000005    0.00000001
     atom    3 type  2   force =    -0.00004578   -0.00001495   -0.00000046
     atom    4 type  2   force =     0.00004199    0.00001031    0.00000053
     atom    5 type  3   force =    -0.00013835    0.00007028    0.00000236
     atom    6 type  3   force =     0.00015055   -0.00008975    0.00000238
     The Hubbard contrib.    to forces
     atom    1 type  1   force =     0.00000000    0.00000000    0.00000000
     atom    2 type  1   force =     0.00000000    0.00000000    0.00000000
     atom    3 type  2   force =     0.00000000    0.00000000    0.00000000
     atom    4 type  2   force =     0.00000000    0.00000000    0.00000000
     atom    5 type  3   force =     0.00000000    0.00000000    0.00000000
     atom    6 type  3   force =     0.00000000    0.00000000    0.00000000
     The SCF correction term to forces
     atom    1 type  1   force =    -0.00004867   -0.00001989    0.00003084
     atom    2 type  1   force =     0.00002418   -0.00008041   -0.00001921
     atom    3 type  2   force =     0.00008614    0.00011698   -0.00006493
     atom    4 type  2   force =    -0.00005956   -0.00009207    0.00006259
     atom    5 type  3   force =     0.00213863    0.00016892   -0.00031168
     atom    6 type  3   force =    -0.00196806    0.00010428    0.00030026

     Total force =     0.000000     Total SCF correction =     0.002954

     Computing stress (Cartesian axis) and pressure

     negative rho (up, down):  3.467E-01 0.000E+00
          total   stress  (Ry/bohr**3)                   (kbar)     P=       88.51
   0.00156037  -0.00000000   0.00000000          229.54       -0.00        0.00
  -0.00000000   0.00156037   0.00000000           -0.00      229.54        0.00
   0.00000000   0.00000000  -0.00131580            0.00        0.00     -193.56

     kinetic stress (kbar)  18199.95     -0.00      0.00
                               -0.00  18199.95      0.00
                                0.00      0.00  18599.96

     local   stress (kbar)  -2816.62     -0.88     -0.01
                               -0.88  -2815.57     -0.01
                               -0.01     -0.01   4351.41

     nonloc. stress (kbar)   4439.90     -0.00      0.00
                               -0.00   4439.90      0.00
                               -0.00     -0.00   4755.43

     hartree stress (kbar)   6678.72      0.45     -0.00
                                0.45   6678.28      0.00
                               -0.00      0.00   4127.09

     exc-cor stress (kbar)   8581.60      0.01     -0.00
                                0.01   8581.59     -0.00
                               -0.00     -0.00   8581.72

     corecor stress (kbar) -13542.84      0.01     -0.00
                                0.01 -13542.82      0.00
                               -0.00      0.00 -13565.58

     ewald   stress (kbar) -21311.49      0.01      0.00
                                0.01 -21311.47     -0.00
                                0.00     -0.00 -27043.60

     hubbard stress (kbar)      0.00      0.00      0.00
                                0.00      0.00      0.00
                                0.00      0.00      0.00

     DFT-D   stress (kbar)      0.00      0.00      0.00
                                0.00      0.00      0.00
                                0.00      0.00      0.00

     XDM     stress (kbar)      0.00      0.00      0.00
                                0.00      0.00      0.00
                                0.00      0.00      0.00

     dft-nl  stress (kbar)      0.00      0.00      0.00
                                0.00      0.00      0.00
                                0.00      0.00      0.00

     TS-vdW  stress (kbar)      0.00      0.00      0.00
                                0.00      0.00      0.00
                                0.00      0.00      0.00

[...]

                                0.00      0.00      0.00

     Writing all to output data dir calculations/myprefix.save/

     General routines

     Parallel routines

     PAW routines

   This run was terminated on:  18:44: 8   4Mar2023

   JOB DONE.