     Program PWSCF v.7.0 starts on  6Mar2023 at 12:55:49

     R & G space division:  proc/nbgrp/npool/nimage =      32

     Reading input from espresso_4688.pwi
Warning: card &CELL ignored
Warning: card / ignored

     Current dimensions of program PWSCF are:
     Max number of different atomic species (ntypx) = 10
     Max number of k-points (npk) =  40000
     Max angular momentum in pseudopotentials (lmaxx) =  4

     gamma-point specific algorithms are used

     Using Slab Decomposition

     bravais-lattice index     =            0
     lattice parameter (alat)  =      10.5518  a.u.
     unit-cell volume          =    1402.7434 (a.u.)^3
     number of atoms/cell      =            9
     number of atomic types    =            3
     number of electrons       =       122.00
     number of Kohn-Sham states=           73
     kinetic-energy cutoff     =      30.0000  Ry
     charge density cutoff     =     240.0000  Ry
     scf convergence threshold =      1.0E-06
     mixing beta               =       0.7000
     number of iterations used =            8  plain     mixing
     Exchange-correlation=  SLA  PW   PBX  PBC
                           (   1   4   3   4   0   0   0)

     celldm(1)=  10.551756  celldm(2)=   0.000000  celldm(3)=   0.000000
     celldm(4)=   0.000000  celldm(5)=   0.000000  celldm(6)=   0.000000

     crystal axes: (cart. coord. in units of alat)
               a(1) = (   1.000000   0.000000   0.000000 )
               a(2) = (  -0.499293   0.866433   0.000000 )
               a(3) = (   0.005950   0.010297   1.378062 )

     reciprocal axes: (cart. coord. in units 2 pi/alat)
               b(1) = (  1.000000  0.576262 -0.008624 )
               b(2) = (  0.000000  1.154157 -0.008624 )
               b(3) = (  0.000000  0.000000  0.725657 )

     PseudoPot. # 1 for Zr read from file:
     /home/pragov/projects/rrg-bengioy-ad/pragov/crystal_structure_design/SSSP/Zr_pbe_v1.uspp.F.UPF
     MD5 check sum: 5db81b1e868ab7776c4564c113de050b
     Pseudo is Ultrasoft + core correction, Zval = 12.0
     Generated by new atomic code, or converted to UPF format
     Using radial grid of  887 points,  6 beta functions with:
                l(1) =   0
                l(2) =   0
                l(3) =   1
                l(4) =   1
                l(5) =   2
                l(6) =   2
     Q(r) pseudized with  6 coefficients,  rinner =    1.200   1.200   1.200
                                                       1.200   1.200

     PseudoPot. # 2 for Sn read from file:
     /home/pragov/projects/rrg-bengioy-ad/pragov/crystal_structure_design/SSSP/Sn_pbe_v1.uspp.F.UPF
     MD5 check sum: 4cf58ce39ec5d5d420df3dd08604eb00
     Pseudo is Ultrasoft + core correction, Zval = 14.0
     Generated by new atomic code, or converted to UPF format
     Using radial grid of  891 points,  6 beta functions with:
                l(1) =   0
                l(2) =   0
                l(3) =   1
                l(4) =   1
                l(5) =   2
                l(6) =   2
     Q(r) pseudized with  6 coefficients,  rinner =    1.200   1.200   1.200
                                                       1.200   1.200

     PseudoPot. # 3 for Sb read from file:
     /home/pragov/projects/rrg-bengioy-ad/pragov/crystal_structure_design/SSSP/sb_pbe_v1.4.uspp.F.UPF
     MD5 check sum: 9bc50dfb53373b713f5709b9110fe27f
     Pseudo is Ultrasoft + core correction, Zval = 15.0
     Generated by new atomic code, or converted to UPF format
     Using radial grid of  891 points,  6 beta functions with:
                l(1) =   0
                l(2) =   0
                l(3) =   1
                l(4) =   1
                l(5) =   2
                l(6) =   2
     Q(r) pseudized with  8 coefficients,  rinner =    1.350   1.350   1.350
                                                       1.350   1.350

     atomic species   valence    mass     pseudopotential
        Zr            12.00    91.22400     Zr( 1.00)
        Sn            14.00   118.71000     Sn( 1.00)
        Sb            15.00   121.76000     Sb( 1.00)

     No symmetry found

                                    s                        frac. trans.

      isym =  1     identity

 cryst.   s( 1) = (     1          0          0      )
                  (     0          1          0      )
                  (     0          0          1      )

 cart.    s( 1) = (  1.0000000 -0.0000000 -0.0000000 )
                  (  0.0000000  1.0000000  0.0000000 )
                  (  0.0000000  0.0000000  1.0000000 )

   Cartesian axes

     site n.     atom                  positions (alat units)
         1           Zr  tau(   1) = (   0.5011313   0.0053354   0.2251863  )
         2           Zr  tau(   2) = (   0.7522461   0.4398691   1.1528756  )
         3           Zr  tau(   3) = (   0.2563829   0.4366001   0.6890310  )
         4           Sn  tau(   4) = (   0.7525123   0.1498894   0.6890310  )
         5           Sn  tau(   5) = (   0.0005112   0.2930380   0.2328222  )
         6           Sn  tau(   6) = (   0.2530151   0.7299754   1.1452397  )
         7           Sn  tau(   7) = (  -0.2413882   0.7242595   0.6890310  )
         8           Sb  tau(   8) = (   0.5007873   0.5797218   0.2307386  )
         9           Sb  tau(   9) = (   0.2544067   0.1533804   1.1473234  )

   Crystallographic axes

     site n.     atom                  positions (cryst. coord.)
         1           Zr  tau(   1) = (  0.5022640  0.0042160  0.1634080  )
         2           Zr  tau(   2) = (  0.9957840  0.4977360  0.8365920  )
         3           Zr  tau(   3) = (  0.5020370  0.4979630  0.5000000  )
         4           Sn  tau(   4) = (  0.8329460  0.1670540  0.5000000  )
         5           Sn  tau(   5) = (  0.1673700  0.3362040  0.1689490  )
         6           Sn  tau(   6) = (  0.6637960  0.8326300  0.8310510  )
         7           Sn  tau(   7) = (  0.1700330  0.8299670  0.5000000  )
         8           Sb  tau(   8) = (  0.8328690  0.6671000  0.1674370  )
         9           Sb  tau(   9) = (  0.3329000  0.1671310  0.8325630  )

     number of k points=     1  Methfessel-Paxton smearing, width (Ry)=  0.0010
                       cart. coord. in units 2pi/alat
        k(    1) = (   0.0000000   0.0000000   0.0000000), wk =   2.0000000

                       cryst. coord.
        k(    1) = (   0.0000000   0.0000000   0.0000000), wk =   2.0000000

     Check: negative core charge=   -0.000003

     Initial potential from superposition of free atoms

     starting charge     115.9933, renormalised to     122.0000

     negative rho (up, down):  1.911E-01 0.000E+00
     Starting wfcs are   93 randomized atomic wfcs

     Self-consistent Calculation

     iteration #  1     ecut=    30.00 Ry     beta= 0.70
     Davidson diagonalization with overlap

     ethr =  1.00E-02,  avg # of iterations =  2.0

     negative rho (up, down):  1.816E-01 0.000E+00

     total energy              =   -1319.41880264 Ry
     estimated scf accuracy    <       4.07502357 Ry

[...]

     total energy              =   -1320.79149765 Ry
     estimated scf accuracy    <       0.00000625 Ry

     iteration # 17     ecut=    30.00 Ry     beta= 0.70
     Davidson diagonalization with overlap

     ethr =  2.69E-09,  avg # of iterations =  2.0

[...]

     End of self-consistent calculation

          k = 0.0000 0.0000 0.0000 (  1956 PWs)   bands (ev):

   -35.8373 -35.8309 -35.7952 -15.1633 -15.1609 -15.1594 -15.1544 -15.1159
   -15.1120 -15.1004 -15.0994 -15.0884 -15.0824 -13.9146 -13.8900 -13.8751
   -13.8355 -13.8326 -13.8239 -13.8056 -13.7851 -13.7428  -7.2966  -7.2711
    -7.2459  -7.2172  -7.2017  -7.1791  -7.1713  -7.1664  -7.1635  -7.1546
    -7.1488  -7.1302  -7.1206  -7.1058  -7.0956  -7.0927  -7.0750  -7.0640
    -7.0544  -7.0085   2.2493   4.1538   5.1053   7.3602   7.6963   9.0093
     9.1321   9.4388   9.6268  10.8321  10.9033  11.0408  11.7300  11.8214
    12.1881  12.2773  12.2921  12.4596  12.5468  12.6650  14.8364  15.5259
    15.9582  16.1050  16.1874  16.4179  16.5540  16.7372  16.7834  16.8605
    16.9635

     occupation numbers
     1.0000   1.0000   1.0000   1.0000   1.0000   1.0000   1.0000   1.0000
     1.0000   1.0000   1.0000   1.0000   1.0000   1.0000   1.0000   1.0000
     1.0000   1.0000   1.0000   1.0000   1.0000   1.0000   1.0000   1.0000
     1.0000   1.0000   1.0000   1.0000   1.0000   1.0000   1.0000   1.0000
     1.0000   1.0000   1.0000   1.0000   1.0000   1.0000   1.0000   1.0000
     1.0000   1.0000   1.0000   1.0000   1.0000   1.0000   1.0000   1.0000
     1.0000   1.0000   1.0000   1.0000   1.0000   1.0000   1.0000   1.0000
     1.0000   1.0000   1.0000   1.0000   1.0000  -0.0000  -0.0000  -0.0000
    -0.0000  -0.0000  -0.0000  -0.0000  -0.0000  -0.0000  -0.0000  -0.0000
    -0.0000

     the Fermi energy is    12.6059 ev

!    total energy              =   -1320.79149761 Ry
     estimated scf accuracy    <       0.00000047 Ry
     smearing contrib. (-TS)   =       0.00000000 Ry
     internal energy E=F+TS    =   -1320.79149761 Ry

     The total energy is F=E-TS. E is the sum of the following terms:
     one-electron contribution =    -362.75534337 Ry
     hartree contribution      =     263.38338111 Ry
     xc contribution           =    -332.23064005 Ry
     ewald contribution        =    -889.18889531 Ry

     convergence has been achieved in  17 iterations

     negative rho (up, down):  1.823E-01 0.000E+00

     Forces acting on atoms (cartesian axes, Ry/au):

     atom    1 type  1   force =    -0.00537408   -0.01316816   -0.00401957
     atom    2 type  1   force =     0.00871721    0.01122397    0.00404356
     atom    3 type  1   force =    -0.01049611    0.00606569   -0.00006804
     atom    4 type  2   force =     0.02570098   -0.01494031    0.00028187
     atom    5 type  2   force =    -0.01039080   -0.01457934    0.00321608
     atom    6 type  2   force =     0.00734909    0.01631590   -0.00352193
     atom    7 type  2   force =    -0.01707193    0.00996843    0.00027507
     atom    8 type  3   force =     0.00821483    0.01250732   -0.01545986
     atom    9 type  3   force =    -0.00664919   -0.01339350    0.01525282
     The non-local contrib.  to forces
     atom    1 type  1   force =    -0.00372901    0.01490810   -0.02096454
     atom    2 type  1   force =    -0.01479979   -0.00421875    0.02111781
     atom    3 type  1   force =     0.00190316   -0.00108497   -0.00014662
     atom    4 type  2   force =     0.03941713   -0.02280306    0.00031637
     atom    5 type  2   force =     0.01535832   -0.03308246   -0.03108926
     atom    6 type  2   force =     0.03623253    0.00319129    0.03075998
     atom    7 type  2   force =    -0.00027927    0.00022052    0.00031561
     atom    8 type  3   force =    -0.01901840    0.00185318   -0.00141669
     atom    9 type  3   force =    -0.01100073    0.01558493    0.00119553
     The ionic contribution  to forces
     atom    1 type  1   force =     0.16956346   -0.26657250    0.73242637
     atom    2 type  1   force =     0.31562910   -0.01381780   -0.73242638
     atom    3 type  1   force =    -0.24873381    0.14374200    0.00000000
     atom    4 type  2   force =    -0.12498972    0.07223092    0.00000000
     atom    5 type  2   force =     0.01200229    0.42177961    0.45388676
     atom    6 type  2   force =    -0.35945132   -0.22099059   -0.45388676
     atom    7 type  2   force =     0.35039052   -0.20248889    0.00000000
     atom    8 type  3   force =    -0.09344057   -0.02964362    0.45862691
     atom    9 type  3   force =    -0.02096995    0.09576088   -0.45862691
     The local contribution  to forces
     atom    1 type  1   force =    -0.17114668    0.23983909   -0.71762922
     atom    2 type  1   force =    -0.29329326    0.02855547    0.71804300
     atom    3 type  1   force =     0.23607159   -0.13640704   -0.00044303
     atom    4 type  2   force =     0.11296146   -0.06527625   -0.00064785
     atom    5 type  2   force =    -0.03760432   -0.40408474   -0.42166536
     atom    6 type  2   force =     0.33152155    0.23440048    0.42233268
     atom    7 type  2   force =    -0.36706782    0.21207703   -0.00064787
     atom    8 type  3   force =     0.12127703    0.04088950   -0.47422576
     atom    9 type  3   force =     0.02493640   -0.12556545    0.47491272
     The core correction contribution to forces
     atom    1 type  1   force =    -0.00014078   -0.00124074    0.00158564
     atom    2 type  1   force =     0.00100636    0.00074251   -0.00159255
     atom    3 type  1   force =     0.00034092   -0.00019764    0.00000623
     atom    4 type  2   force =    -0.00158950    0.00092158   -0.00000062
     atom    5 type  2   force =    -0.00040324    0.00069657    0.00137171
     atom    6 type  2   force =    -0.00080031    0.00000022   -0.00137041
     atom    7 type  2   force =    -0.00039780    0.00022603   -0.00000012
     atom    8 type  3   force =    -0.00023284   -0.00056563    0.00071446
     atom    9 type  3   force =     0.00036889    0.00048673   -0.00071532
     The Hubbard contrib.    to forces
     atom    1 type  1   force =     0.00000000    0.00000000    0.00000000
     atom    2 type  1   force =     0.00000000    0.00000000    0.00000000
     atom    3 type  1   force =     0.00000000    0.00000000    0.00000000
     atom    4 type  2   force =     0.00000000    0.00000000    0.00000000
     atom    5 type  2   force =     0.00000000    0.00000000    0.00000000
     atom    6 type  2   force =     0.00000000    0.00000000    0.00000000
     atom    7 type  2   force =     0.00000000    0.00000000    0.00000000
     atom    8 type  3   force =     0.00000000    0.00000000    0.00000000
     atom    9 type  3   force =     0.00000000    0.00000000    0.00000000
     The SCF correction term to forces
     atom    1 type  1   force =     0.00007738   -0.00009469    0.00057075
     atom    2 type  1   force =     0.00017324   -0.00003004   -0.00108975
     atom    3 type  1   force =    -0.00007953    0.00002076    0.00052396
     atom    4 type  2   force =    -0.00009996   -0.00000609    0.00062254
     atom    5 type  2   force =     0.00025459    0.00011910    0.00072081
     atom    6 type  2   force =    -0.00015492   -0.00027808   -0.00134884
     atom    7 type  2   force =     0.00028087   -0.00005884    0.00061603
     atom    8 type  3   force =    -0.00037195   -0.00001869    0.00084979
     atom    9 type  3   force =     0.00001464    0.00034682   -0.00150463

     Total force =     0.058661     Total SCF correction =     0.002909

     Computing stress (Cartesian axis) and pressure

     negative rho (up, down):  1.823E-01 0.000E+00
          total   stress  (Ry/bohr**3)                   (kbar)     P=      -92.16
  -0.00064486   0.00003551  -0.00001689          -94.86        5.22       -2.48
   0.00003551  -0.00060401  -0.00002918            5.22      -88.85       -4.29
  -0.00001689  -0.00002918  -0.00063067           -2.48       -4.29      -92.77

     kinetic stress (kbar)  16625.63     22.01      3.04
                               22.01  16651.06      5.27
                                3.04      5.27  16804.36

     local   stress (kbar)   5162.08     -8.03     22.01
                               -8.03   5152.63     38.07
                               22.01     38.07   1254.69

     nonloc. stress (kbar)   8119.44      7.52     -1.14
                                7.52   8128.15     -1.96
                               -1.14     -1.96   8141.72

     hartree stress (kbar)   8730.53      6.49     -2.43
                                6.49   8738.09     -4.19
                               -2.43     -4.19  10152.28

     exc-cor stress (kbar)  11977.86      0.26      0.02
                                0.26  11978.16      0.03
                                0.02      0.03  11986.30

     corecor stress (kbar) -18876.57     -0.44      0.07
                               -0.44 -18877.07      0.13
                                0.07      0.13 -18876.99

     ewald   stress (kbar) -31833.83    -22.58    -24.06
                              -22.58 -31859.86    -41.64
                              -24.06    -41.64 -29555.15

     hubbard stress (kbar)      0.00      0.00      0.00
                                0.00      0.00      0.00
                                0.00      0.00      0.00

     DFT-D   stress (kbar)      0.00      0.00      0.00
                                0.00      0.00      0.00
                                0.00      0.00      0.00

     XDM     stress (kbar)      0.00      0.00      0.00
                                0.00      0.00      0.00
                                0.00      0.00      0.00

     dft-nl  stress (kbar)      0.00      0.00      0.00
                                0.00      0.00      0.00
                                0.00      0.00      0.00

     TS-vdW  stress (kbar)      0.00      0.00      0.00
                                0.00      0.00      0.00
                                0.00      0.00      0.00

[...]

                                0.00      0.00      0.00

     Writing all to output data dir calculations/myprefix.save/

     General routines

     Parallel routines

   This run was terminated on:  12:55:52   6Mar2023

   JOB DONE.