     Program PWSCF v.7.0 starts on  4Mar2023 at 21:47:36

     R & G space division:  proc/nbgrp/npool/nimage =      32

     Reading input from espresso_7802.pwi
Warning: card &CELL ignored
Warning: card / ignored

     Current dimensions of program PWSCF are:
     Max number of different atomic species (ntypx) = 10
     Max number of k-points (npk) =  40000
     Max angular momentum in pseudopotentials (lmaxx) =  4

     gamma-point specific algorithms are used
     Message from routine setup:
     using ibrav=0 with symmetry is DISCOURAGED, use correct ibrav instead

     Using Slab Decomposition

     bravais-lattice index     =            0
     lattice parameter (alat)  =      13.1971  a.u.
     unit-cell volume          =    1682.6371 (a.u.)^3
     number of atoms/cell      =           10
     number of atomic types    =            3
     number of electrons       =       104.00
     number of Kohn-Sham states=           62
     kinetic-energy cutoff     =      30.0000  Ry
     charge density cutoff     =     240.0000  Ry
     scf convergence threshold =      1.0E-06
     mixing beta               =       0.7000
     number of iterations used =            8  plain     mixing
     Exchange-correlation=  SLA  PW   PBX  PBC
                           (   1   4   3   4   0   0   0)

     celldm(1)=  13.197140  celldm(2)=   0.000000  celldm(3)=   0.000000
     celldm(4)=   0.000000  celldm(5)=   0.000000  celldm(6)=   0.000000

     crystal axes: (cart. coord. in units of alat)
               a(1) = (   1.000000   0.000000   0.000000 )
               a(2) = (  -0.500000   0.866025   0.000000 )
               a(3) = (   0.000000   0.000000   0.845319 )

     reciprocal axes: (cart. coord. in units 2 pi/alat)
               b(1) = (  1.000000  0.577350  0.000000 )
               b(2) = (  0.000000  1.154700  0.000000 )
               b(3) = (  0.000000  0.000000  1.182986 )

     PseudoPot. # 1 for Tl read from file:
     /home/pragov/projects/rrg-bengioy-ad/pragov/crystal_structure_design/SSSP/Tl_pbe_v1.2.uspp.F.UPF
     MD5 check sum: b76cf1f7e72655a2b2c53cf6385d7059
     Pseudo is Ultrasoft + core correction, Zval = 13.0
     Generated by new atomic code, or converted to UPF format
     Using radial grid of  899 points,  6 beta functions with:
                l(1) =   0
                l(2) =   0
                l(3) =   1
                l(4) =   1
                l(5) =   2
                l(6) =   2
     Q(r) pseudized with  6 coefficients,  rinner =    1.100   1.100   1.100
                                                       1.100   1.100

     PseudoPot. # 2 for Ni read from file:
     /home/pragov/projects/rrg-bengioy-ad/pragov/crystal_structure_design/SSSP/ni_pbe_v1.4.uspp.F.UPF
     MD5 check sum: 1ee80287db30b12d2bc1f57a5b5d6409
     Pseudo is Ultrasoft + core correction, Zval = 18.0
     Generated by new atomic code, or converted to UPF format
     Using radial grid of  865 points,  6 beta functions with:
                l(1) =   0
                l(2) =   0
                l(3) =   1
                l(4) =   1
                l(5) =   2
                l(6) =   2
     Q(r) pseudized with 10 coefficients,  rinner =    0.980   0.980   0.980
                                                       0.980   0.980

     PseudoPot. # 3 for Cl read from file:
     /home/pragov/projects/rrg-bengioy-ad/pragov/crystal_structure_design/SSSP/cl_pbe_v1.4.uspp.F.UPF
     MD5 check sum: fc6f6913ecf08c9257cb748ef0700058
     Pseudo is Ultrasoft + core correction, Zval =  7.0
     Generated by new atomic code, or converted to UPF format
     Using radial grid of  909 points,  6 beta functions with:
                l(1) =   0
                l(2) =   0
                l(3) =   1
                l(4) =   1
                l(5) =   2
                l(6) =   2
     Q(r) pseudized with  8 coefficients,  rinner =    1.300   1.300   1.300
                                                       1.300   1.300

     atomic species   valence    mass     pseudopotential
        Tl            13.00   204.38000     Tl( 1.00)
        Ni            18.00    58.69340     Ni( 1.00)
        Cl             7.00    35.45000     Cl( 1.00)

     24 Sym. Ops., with inversion, found (12 have fractional translation)

                                    s                        frac. trans.

      isym =  1     identity

 cryst.   s( 1) = (     1          0          0      )
                  (     0          1          0      )
                  (     0          0          1      )

 cart.    s( 1) = (  1.0000000  0.0000000  0.0000000 )
                  (  0.0000000  1.0000000  0.0000000 )
                  (  0.0000000  0.0000000  1.0000000 )

      isym =  2     180 deg rotation - cart. axis [0,0,1]

 cryst.   s( 2) = (    -1          0          0      )    f =( -0.0000000 )
                  (     0         -1          0      )       ( -0.0000000 )
                  (     0          0          1      )       ( -0.5000000 )

 cart.    s( 2) = ( -1.0000000 -0.0000000  0.0000000 )    f =(  0.0000000 )
                  (  0.0000000 -1.0000000  0.0000000 )       ( -0.0000000 )
                  (  0.0000000  0.0000000  1.0000000 )       ( -0.4226593 )

[...]

      isym =  4     180 deg rotation - cart. axis [1,0,0]

[...]

      isym =  5      60 deg rotation - cryst. axis [0,0,1]

[...]

 cryst.   s( 8) = (    -1         -1          0      )
                  (     1          0          0      )
                  (     0          0          1      )

 cart.    s( 8) = ( -0.5000001  0.8660254  0.0000000 )
                  ( -0.8660254 -0.4999999  0.0000000 )
                  (  0.0000000  0.0000000  1.0000000 )

[...]

 cryst.   s( 9) = (     0         -1          0      )    f =( -0.0000000 )
                  (    -1          0          0      )       ( -0.0000000 )
                  (     0          0         -1      )       ( -0.5000000 )

 cart.    s( 9) = (  0.4999999 -0.8660254  0.0000000 )    f =( -0.0000000 )
                  ( -0.8660254 -0.4999999  0.0000000 )       ( -0.0000000 )
                  (  0.0000000  0.0000000 -1.0000000 )       ( -0.4226593 )

[...]

 cryst.   s(10) = (     1          1          0      )    f =(  0.0000000 )
                  (     0         -1          0      )       ( -0.0000010 )
                  (     0          0         -1      )       ( -0.5000000 )

 cart.    s(10) = (  0.5000001  0.8660253  0.0000000 )    f =(  0.0000005 )
                  (  0.8660254 -0.5000001  0.0000000 )       ( -0.0000009 )
                  (  0.0000000  0.0000000 -1.0000000 )       ( -0.4226593 )

[...]

 cryst.   s(11) = (    -1         -1          0      )
                  (     0          1          0      )
                  (     0          0         -1      )

 cart.    s(11) = ( -0.5000001 -0.8660253  0.0000000 )
                  ( -0.8660254  0.5000001  0.0000000 )
                  (  0.0000000  0.0000000 -1.0000000 )

      isym = 12     180 deg rotation - cryst. axis [1,1,0]

[...]

      isym = 13     inversion

[...]

      isym = 14     inv. 180 deg rotation - cart. axis [0,0,1]

[...]

      isym = 16     inv. 180 deg rotation - cart. axis [1,0,0]

[...]

      isym = 17     inv.  60 deg rotation - cryst. axis [0,0,1]

[...]

 cryst.   s(22) = (    -1         -1          0      )    f =( -0.0000000 )
                  (     0          1          0      )       ( -0.0000010 )
                  (     0          0          1      )       ( -0.5000000 )

 cart.    s(22) = ( -0.5000001 -0.8660253  0.0000000 )    f =(  0.0000005 )
                  ( -0.8660254  0.5000001  0.0000000 )       ( -0.0000009 )
                  (  0.0000000  0.0000000  1.0000000 )       ( -0.4226593 )

[...]

      isym = 24     inv. 180 deg rotation - cryst. axis [1,1,0]

 cryst.   s(24) = (     0         -1          0      )
                  (    -1          0          0      )
                  (     0          0          1      )

 cart.    s(24) = (  0.4999999 -0.8660254  0.0000000 )
                  ( -0.8660254 -0.4999999  0.0000000 )
                  (  0.0000000  0.0000000  1.0000000 )

   Cartesian axes

     site n.     atom                  positions (alat units)
         1           Tl  tau(   1) = (  -0.0000005   0.5773506   0.6339889  )
         2           Tl  tau(   2) = (   0.5000005   0.2886749   0.2113296  )
         3           Ni  tau(   3) = (   0.0000000   0.0000000   0.0000000  )
         4           Ni  tau(   4) = (   0.0000000   0.0000000   0.4226593  )
         5           Cl  tau(   5) = (   0.0000005   0.2710807   0.2113296  )
         6           Cl  tau(   6) = (   0.4999995   0.5949448   0.6339889  )
         7           Cl  tau(   7) = (   0.2652376   0.7304847   0.2113296  )
         8           Cl  tau(   8) = (   0.2347625   0.1355408   0.6339889  )
         9           Cl  tau(   9) = (  -0.2652364   0.7304847   0.2113296  )
        10           Cl  tau(  10) = (   0.7652365   0.1355408   0.6339889  )

   Crystallographic axes

     site n.     atom                  positions (cryst. coord.)
         1           Tl  tau(   1) = (  0.3333330  0.6666670  0.7500000  )
         2           Tl  tau(   2) = (  0.6666670  0.3333330  0.2500000  )
         3           Ni  tau(   3) = (  0.0000000  0.0000000  0.0000000  )
         4           Ni  tau(   4) = (  0.0000000  0.0000000  0.5000000  )
         5           Cl  tau(   5) = (  0.1565090  0.3130170  0.2500000  )
         6           Cl  tau(   6) = (  0.8434910  0.6869830  0.7500000  )
         7           Cl  tau(   7) = (  0.6869830  0.8434910  0.2500000  )
         8           Cl  tau(   8) = (  0.3130170  0.1565090  0.7500000  )
         9           Cl  tau(   9) = (  0.1565090  0.8434910  0.2500000  )
        10           Cl  tau(  10) = (  0.8434910  0.1565090  0.7500000  )

     number of k points=     1  Methfessel-Paxton smearing, width (Ry)=  0.0010
                       cart. coord. in units 2pi/alat
        k(    1) = (   0.0000000   0.0000000   0.0000000), wk =   2.0000000

                       cryst. coord.
        k(    1) = (   0.0000000   0.0000000   0.0000000), wk =   2.0000000

     Check: negative core charge=   -0.000006

     Initial potential from superposition of free atoms

     starting charge      99.9902, renormalised to     104.0000

     negative rho (up, down):  1.963E-01 0.000E+00
     Starting wfcs are   68 randomized atomic wfcs

     Self-consistent Calculation

     iteration #  1     ecut=    30.00 Ry     beta= 0.70
     Davidson diagonalization with overlap

     ethr =  1.00E-02,  avg # of iterations =  3.0

     negative rho (up, down):  1.897E-01 0.000E+00

     total energy              =   -1173.10084775 Ry
     estimated scf accuracy    <       7.08733686 Ry

[...]

     total energy              =   -1176.47542894 Ry
     estimated scf accuracy    <       0.00001336 Ry

     iteration # 15     ecut=    30.00 Ry     beta= 0.70
     Davidson diagonalization with overlap

     ethr =  1.29E-08,  avg # of iterations =  1.0

[...]

     End of self-consistent calculation

          k = 0.0000 0.0000 0.0000 (  2332 PWs)   bands (ev):

   -97.8520 -97.8468 -58.3481 -58.3411 -58.1180 -58.1180 -58.1045 -58.1045
   -10.3203  -9.6288  -9.5181  -9.5180  -9.3051  -9.3051  -5.3814  -5.3732
    -5.3715  -5.3714  -5.3575  -5.3575  -5.3040  -5.3040  -5.2914  -5.2914
    -0.7979   0.0257   0.1980   0.8294   0.8294   1.1193   1.2803   1.6279
     1.6279   1.6605   1.6605   1.9464   1.9464   2.1786   2.1786   2.9793
     3.0699   3.0699   3.1694   3.6265   3.6824   4.2018   4.2018   4.4624
     4.4624   4.6295   5.4081   5.4081   5.8370   5.8370   7.9699   9.3198
     9.8140   9.8140  10.2315  10.2315  10.6105  11.6299

     occupation numbers
     1.0000   1.0000   1.0000   1.0000   1.0000   1.0000   1.0000   1.0000
     1.0000   1.0000   1.0000   1.0000   1.0000   1.0000   1.0000   1.0000
     1.0000   1.0000   1.0000   1.0000   1.0000   1.0000   1.0000   1.0000
     1.0000   1.0000   1.0000   1.0000   1.0000   1.0000   1.0000   1.0000
     1.0000   1.0000   1.0000   1.0000   1.0000   1.0000   1.0000   1.0000
     1.0000   1.0000   1.0000   1.0000   1.0000   1.0000   1.0000   1.0000
     1.0000   1.0000   1.0000   1.0000  -0.0000  -0.0000  -0.0000  -0.0000
    -0.0000  -0.0000  -0.0000  -0.0000  -0.0000  -0.0000

     the Fermi energy is     5.7638 ev

!    total energy              =   -1176.47542911 Ry
     estimated scf accuracy    <       0.00000027 Ry
     smearing contrib. (-TS)   =       0.00000000 Ry
     internal energy E=F+TS    =   -1176.47542911 Ry

     The total energy is F=E-TS. E is the sum of the following terms:
     one-electron contribution =    -894.63131824 Ry
     hartree contribution      =     493.72542120 Ry
     xc contribution           =    -251.54590979 Ry
     ewald contribution        =    -524.02362229 Ry

     convergence has been achieved in  15 iterations

     negative rho (up, down):  1.863E-01 0.000E+00

     Forces acting on atoms (cartesian axes, Ry/au):

     atom    1 type  1   force =    -0.00000000    0.00000000    0.00000000
     atom    2 type  1   force =     0.00000000   -0.00000000    0.00000000
     atom    3 type  2   force =    -0.00000000   -0.00000000    0.00000000
     atom    4 type  2   force =     0.00000000    0.00000000   -0.00000000
     atom    5 type  3   force =     0.00000000   -0.00065101   -0.00000000
     atom    6 type  3   force =     0.00000000    0.00065101    0.00000000
     atom    7 type  3   force =     0.00056379    0.00032550    0.00000000
     atom    8 type  3   force =    -0.00056379   -0.00032550    0.00000000
     atom    9 type  3   force =    -0.00056379    0.00032550    0.00000000
     atom   10 type  3   force =     0.00056379   -0.00032550    0.00000000
     The non-local contrib.  to forces
     atom    1 type  1   force =    -0.00000000   -0.00000000    0.00000000
     atom    2 type  1   force =     0.00000000   -0.00000000    0.00000000
     atom    3 type  2   force =    -0.00000000   -0.00000000    0.00000000
     atom    4 type  2   force =     0.00000000   -0.00000000    0.00000000
     atom    5 type  3   force =    -0.00000000   -0.32435207    0.00000000
     atom    6 type  3   force =     0.00000000    0.32435207   -0.00000000
     atom    7 type  3   force =     0.28089714    0.16217601    0.00000000
     atom    8 type  3   force =    -0.28089714   -0.16217601   -0.00000000
     atom    9 type  3   force =    -0.28089714    0.16217605   -0.00000000
     atom   10 type  3   force =     0.28089714   -0.16217605   -0.00000000
     The ionic contribution  to forces
     atom    1 type  1   force =     0.00003541   -0.00002044    0.00000000
     atom    2 type  1   force =    -0.00003541    0.00002044    0.00000000
     atom    3 type  2   force =    -0.00000000    0.00000000    0.00000000
     atom    4 type  2   force =    -0.00000000    0.00000000   -0.00000000
     atom    5 type  3   force =     0.00003397   16.22274824    0.00000000
     atom    6 type  3   force =    -0.00003397  -16.22274824    0.00000000
     atom    7 type  3   force =   -14.04929572   -8.11140248    0.00000000
     atom    8 type  3   force =    14.04929572    8.11140248    0.00000000
     atom    9 type  3   force =    14.04924764   -8.11133762    0.00000000
     atom   10 type  3   force =   -14.04924764    8.11133762    0.00000000
     The local contribution  to forces
     atom    1 type  1   force =    -0.00001887    0.00001151    0.00011416
     atom    2 type  1   force =    -0.00000643   -0.00003354   -0.00010646
     atom    3 type  2   force =     0.00000962    0.00003130    0.00024377
     atom    4 type  2   force =    -0.00001692    0.00003501   -0.00031894
     atom    5 type  3   force =    -0.00000304  -15.90916579    0.00020292
     atom    6 type  3   force =     0.00000166   15.90917387   -0.00022618
     atom    7 type  3   force =    13.77772125    7.95458117    0.00022998
     atom    8 type  3   force =   -13.77773476   -7.95457313   -0.00020902
     atom    9 type  3   force =   -13.77769112    7.95455180    0.00022267
     atom   10 type  3   force =    13.77766321   -7.95457508   -0.00019359
     The core correction contribution to forces
     atom    1 type  1   force =    -0.00000148   -0.00000207    0.00000204
     atom    2 type  1   force =     0.00000236   -0.00000179   -0.00000255
     atom    3 type  2   force =    -0.00000027   -0.00000039    0.00000057
     atom    4 type  2   force =    -0.00000156    0.00000021    0.00000004
     atom    5 type  3   force =    -0.00000372    0.01018392   -0.00000281
     atom    6 type  3   force =     0.00000125   -0.01018686   -0.00000350
     atom    7 type  3   force =    -0.00882157   -0.00509066   -0.00000102
     atom    8 type  3   force =     0.00882094    0.00509379    0.00000177
     atom    9 type  3   force =     0.00882251   -0.00509537    0.00000289
     atom   10 type  3   force =    -0.00882400    0.00509517    0.00000544
     The Hubbard contrib.    to forces
     atom    1 type  1   force =     0.00000000    0.00000000    0.00000000
     atom    2 type  1   force =     0.00000000    0.00000000    0.00000000
     atom    3 type  2   force =     0.00000000    0.00000000    0.00000000
     atom    4 type  2   force =     0.00000000    0.00000000    0.00000000
     atom    5 type  3   force =     0.00000000    0.00000000    0.00000000
     atom    6 type  3   force =     0.00000000    0.00000000    0.00000000
     atom    7 type  3   force =     0.00000000    0.00000000    0.00000000
     atom    8 type  3   force =     0.00000000    0.00000000    0.00000000
     atom    9 type  3   force =     0.00000000    0.00000000    0.00000000
     atom   10 type  3   force =     0.00000000    0.00000000    0.00000000
     The SCF correction term to forces
     atom    1 type  1   force =    -0.00002201    0.00002357   -0.00013345
     atom    2 type  1   force =     0.00004196   -0.00000526    0.00013261
     atom    3 type  2   force =    -0.00003586    0.00000402   -0.00026662
     atom    4 type  2   force =    -0.00003245   -0.00002224    0.00032347
     atom    5 type  3   force =    -0.00001958   -0.00009034   -0.00014921
     atom    6 type  3   force =     0.00002169    0.00005293    0.00013833
     atom    7 type  3   force =     0.00007340    0.00006032   -0.00014344
     atom    8 type  3   force =    -0.00003206   -0.00003261    0.00014344
     atom    9 type  3   force =    -0.00007460    0.00002697   -0.00014083
     atom   10 type  3   force =     0.00004399   -0.00003013    0.00012061

     Total force =     0.001595     Total SCF correction =     0.000605
     SCF correction compared to forces is large: reduce conv_thr to get better values

     Computing stress (Cartesian axis) and pressure

     negative rho (up, down):  1.863E-01 0.000E+00
          total   stress  (Ry/bohr**3)                   (kbar)     P=     -220.53
  -0.00149633   0.00000000  -0.00000000         -220.12        0.00       -0.00
   0.00000000  -0.00149633  -0.00000000            0.00     -220.12       -0.00
  -0.00000000  -0.00000000  -0.00150474           -0.00       -0.00     -221.35

     kinetic stress (kbar)  10907.47     -0.00      0.00
                               -0.00  10907.47      0.00
                                0.00      0.00  10902.21

     local   stress (kbar)  -3720.79     -0.02     -0.03
                               -0.02  -3720.80      0.00
                               -0.03      0.00 -34598.67

     nonloc. stress (kbar)   8407.37     -0.00     -0.00
                               -0.00   8407.37      0.00
                               -0.00      0.00   8398.08

     hartree stress (kbar)   9639.92      0.01      0.01
                                0.01   9639.93     -0.00
                                0.01     -0.00  23884.25

     exc-cor stress (kbar)   6109.92      0.00      0.00
                                0.00   6109.92      0.00
                                0.00      0.00   6111.81

     corecor stress (kbar) -10743.81     -0.00      0.00
                               -0.00 -10743.81     -0.00
                                0.00     -0.00 -10746.49

     ewald   stress (kbar) -20820.20      0.00     -0.00
                                0.00 -20820.19     -0.00
                               -0.00     -0.00  -4172.54

     hubbard stress (kbar)      0.00      0.00      0.00
                                0.00      0.00      0.00
                                0.00      0.00      0.00

     DFT-D   stress (kbar)      0.00      0.00      0.00
                                0.00      0.00      0.00
                                0.00      0.00      0.00

     XDM     stress (kbar)      0.00      0.00      0.00
                                0.00      0.00      0.00
                                0.00      0.00      0.00

     dft-nl  stress (kbar)      0.00      0.00      0.00
                                0.00      0.00      0.00
                                0.00      0.00      0.00

     TS-vdW  stress (kbar)      0.00      0.00      0.00
                                0.00      0.00      0.00
                                0.00      0.00      0.00

[...]

                                0.00      0.00      0.00

     Writing all to output data dir calculations/myprefix.save/

     General routines

     Parallel routines

   This run was terminated on:  21:47:40   4Mar2023

   JOB DONE.