     Program PWSCF v.7.0 starts on  4Mar2023 at 18:54:32

     R & G space division:  proc/nbgrp/npool/nimage =      32

     Reading input from espresso_7297.pwi
Warning: card &CELL ignored
Warning: card / ignored

     Current dimensions of program PWSCF are:
     Max number of different atomic species (ntypx) = 10
     Max number of k-points (npk) =  40000
     Max angular momentum in pseudopotentials (lmaxx) =  4
     file K.pbe-spn-kjpaw_psl.1.0.0.UPF: wavefunction(s)  3S renormalized

     gamma-point specific algorithms are used
     Message from routine setup:
     using ibrav=0 with symmetry is DISCOURAGED, use correct ibrav instead

     Using Slab Decomposition

     bravais-lattice index     =            0
     lattice parameter (alat)  =      10.9527  a.u.
     unit-cell volume          =     901.6111 (a.u.)^3
     number of atoms/cell      =            6
     number of atomic types    =            2
     number of electrons       =       104.00
     number of Kohn-Sham states=           62
     kinetic-energy cutoff     =      30.0000  Ry
     charge density cutoff     =     240.0000  Ry
     scf convergence threshold =      1.0E-06
     mixing beta               =       0.7000
     number of iterations used =            8  plain     mixing
     Exchange-correlation= PBE
                           (   1   4   3   4   0   0   0)

     celldm(1)=  10.952664  celldm(2)=   0.000000  celldm(3)=   0.000000
     celldm(4)=   0.000000  celldm(5)=   0.000000  celldm(6)=   0.000000

     crystal axes: (cart. coord. in units of alat)
               a(1) = (   1.000000   0.000000   0.000000 )
               a(2) = (  -0.500000   0.866025   0.000000 )
               a(3) = (   0.000000   0.000000   0.792372 )

     reciprocal axes: (cart. coord. in units 2 pi/alat)
               b(1) = (  1.000000  0.577350  0.000000 )
               b(2) = (  0.000000  1.154701  0.000000 )
               b(3) = (  0.000000  0.000000  1.262033 )

     PseudoPot. # 1 for K  read from file:
     /home/pragov/projects/rrg-bengioy-ad/pragov/crystal_structure_design/SSSP/K.pbe-spn-kjpaw_psl.1.0.0.UPF
     MD5 check sum: 7d58810084cac21f60fbe77ea2b688fd
     Pseudo is Projector augmented-wave + core cor, Zval =  9.0
     Generated using "atomic" code by A. Dal Corso  v.5.1
     Shape of augmentation charge: PSQ
     Using radial grid of 1165 points,  6 beta functions with:
                l(1) =   0
                l(2) =   0
                l(3) =   1
                l(4) =   1
                l(5) =   2
                l(6) =   2
     Q(r) pseudized with 0 coefficients

     PseudoPot. # 2 for Au read from file:
     /home/pragov/projects/rrg-bengioy-ad/pragov/crystal_structure_design/SSSP/Au_ONCV_PBE-1.0.oncvpsp.upf
     MD5 check sum: d14007822ba0e19f0206237467fc06c2
     Pseudo is Norm-conserving, Zval = 19.0
     Generated using ONCVPSP code by D. R. Hamann
     Using radial grid of 1278 points,  8 beta functions with:
                l(1) =   0
                l(2) =   0
                l(3) =   1
                l(4) =   1
                l(5) =   2
                l(6) =   2
                l(7) =   3
                l(8) =   3

     atomic species   valence    mass     pseudopotential
        K              9.00    39.09830     K ( 1.00)
        Au            19.00   196.96657     Au( 1.00)

     24 Sym. Ops., with inversion, found

                                    s                        frac. trans.

      isym =  1     identity

 cryst.   s( 1) = (     1          0          0      )
                  (     0          1          0      )
                  (     0          0          1      )

 cart.    s( 1) = (  1.0000000  0.0000000  0.0000000 )
                  (  0.0000000  1.0000000  0.0000000 )
                  (  0.0000000  0.0000000  1.0000000 )

      isym =  2     180 deg rotation - cart. axis [0,0,1]

[...]

      isym =  4     180 deg rotation - cart. axis [1,0,0]

[...]

      isym =  5      60 deg rotation - cryst. axis [0,0,1]

[...]

 cryst.   s( 9) = (     0         -1          0      )
                  (    -1          0          0      )
                  (     0          0         -1      )

 cart.    s( 9) = (  0.5000001 -0.8660254  0.0000000 )
                  ( -0.8660254 -0.5000001  0.0000000 )
                  (  0.0000000  0.0000000 -1.0000000 )

[...]

 cryst.   s(10) = (     1          1          0      )
                  (     0         -1          0      )
                  (     0          0         -1      )

 cart.    s(10) = (  0.4999999  0.8660255  0.0000000 )
                  (  0.8660254 -0.4999999  0.0000000 )
                  (  0.0000000  0.0000000 -1.0000000 )

[...]

      isym = 12     180 deg rotation - cryst. axis [1,1,0]

[...]

      isym = 13     inversion

[...]

      isym = 14     inv. 180 deg rotation - cart. axis [0,0,1]

[...]

      isym = 16     inv. 180 deg rotation - cart. axis [1,0,0]

[...]

      isym = 17     inv.  60 deg rotation - cryst. axis [0,0,1]

[...]

      isym = 24     inv. 180 deg rotation - cryst. axis [1,1,0]

 cryst.   s(24) = (     0         -1          0      )
                  (    -1          0          0      )
                  (     0          0          1      )

 cart.    s(24) = (  0.5000001 -0.8660254  0.0000000 )
                  ( -0.8660254 -0.5000001  0.0000000 )
                  (  0.0000000  0.0000000  1.0000000 )

   Cartesian axes

     site n.     atom                  positions (alat units)
         1           K   tau(   1) = (   0.0000000   0.0000000   0.0000000  )
         2           Au  tau(   2) = (   0.5000005   0.2886748   0.0000000  )
         3           Au  tau(   3) = (   0.5000000   0.0000000   0.3961862  )
         4           Au  tau(   4) = (   0.2500000   0.4330127   0.3961862  )
         5           Au  tau(   5) = (  -0.2500000   0.4330127   0.3961862  )
         6           Au  tau(   6) = (  -0.0000005   0.5773505   0.0000000  )

   Crystallographic axes

     site n.     atom                  positions (cryst. coord.)
         1           K   tau(   1) = (  0.0000000  0.0000000  0.0000000  )
         2           Au  tau(   2) = (  0.6666670  0.3333330  0.0000000  )
         3           Au  tau(   3) = (  0.5000000  0.0000000  0.5000000  )
         4           Au  tau(   4) = (  0.5000000  0.5000000  0.5000000  )
         5           Au  tau(   5) = (  0.0000000  0.5000000  0.5000000  )
         6           Au  tau(   6) = (  0.3333330  0.6666670  0.0000000  )

     number of k points=     1  Methfessel-Paxton smearing, width (Ry)=  0.0010
                       cart. coord. in units 2pi/alat
        k(    1) = (   0.0000000   0.0000000   0.0000000), wk =   2.0000000

                       cryst. coord.
        k(    1) = (   0.0000000   0.0000000   0.0000000), wk =   2.0000000

     Check: negative core charge=   -0.000002

     Initial potential from superposition of free atoms

     starting charge     103.9807, renormalised to     104.0000
     Starting wfcs are   58 randomized atomic wfcs +    4 random wfcs
     Checking if some PAW data can be deallocated...

     Self-consistent Calculation

     iteration #  1     ecut=    30.00 Ry     beta= 0.70
     Davidson diagonalization with overlap

     ethr =  1.00E-02,  avg # of iterations =  5.0

     Threshold (ethr) on eigenvalues was too large:
     Diagonalizing with lowered threshold

     Davidson diagonalization with overlap

[...]

     total energy              =   -1485.22299371 Ry
     estimated scf accuracy    <       0.22002866 Ry

[...]

     total energy              =   -1485.30866837 Ry
     estimated scf accuracy    <       0.00000127 Ry

     iteration # 16     ecut=    30.00 Ry     beta= 0.70
     Davidson diagonalization with overlap

     ethr =  1.22E-09,  avg # of iterations =  1.0

     End of self-consistent calculation

          k = 0.0000 0.0000 0.0000 (  1280 PWs)   bands (ev):

   -92.5516 -92.5463 -92.5462 -91.5364 -91.5360 -43.7734 -43.6811 -43.6811
   -43.6025 -43.6025 -43.5872 -43.5015 -43.4827 -43.4826 -42.6194 -42.6079
   -42.5885 -42.5885 -42.5778 -42.5778 -16.3289   0.1007   0.1488   0.1488
     5.3201   7.7599   8.1166   8.1166   8.4193   8.5202   8.5202   8.7351
     9.0932   9.0932   9.5848  10.2226  10.2226  10.3342  10.3342  10.4852
    10.4853  10.5930  10.7868  10.7868  10.8998  11.5419  11.5419  11.7319
    12.6582  12.6583  13.3372  14.8911  14.9021  14.9021  15.7091  15.7091
    17.3154  19.6846  20.7276  20.9347  20.9347  21.1119

     occupation numbers
     1.0000   1.0000   1.0000   1.0000   1.0000   1.0000   1.0000   1.0000
     1.0000   1.0000   1.0000   1.0000   1.0000   1.0000   1.0000   1.0000
     1.0000   1.0000   1.0000   1.0000   1.0000   1.0000   1.0000   1.0000
     1.0000   1.0000   1.0000   1.0000   1.0000   1.0000   1.0000   1.0000
     1.0000   1.0000   1.0000   1.0000   1.0000   1.0000   1.0000   1.0000
     1.0000   1.0000   1.0000   1.0000   1.0000   1.0000   1.0000   1.0000
     1.0000   1.0000   1.0000   0.7429   0.1286   0.1285  -0.0000  -0.0000
    -0.0000  -0.0000  -0.0000  -0.0000  -0.0000  -0.0000

     the Fermi energy is    14.8952 ev

!    total energy              =   -1485.30866832 Ry
     estimated scf accuracy    <       0.00000013 Ry
     smearing contrib. (-TS)   =      -0.00042761 Ry
     internal energy E=F+TS    =   -1485.30824071 Ry

     The total energy is F=E-TS. E is the sum of the following terms:
     one-electron contribution =    -753.66650752 Ry
     hartree contribution      =     404.20352576 Ry
     xc contribution           =    -137.91955468 Ry
     ewald contribution        =    -942.50784089 Ry
     one-center paw contrib.   =     -55.41786339 Ry
      -> PAW hartree energy AE =      37.76873858 Ry
      -> PAW hartree energy PS =     -37.55815503 Ry
      -> PAW xc energy AE      =     -66.22754527 Ry
      -> PAW xc energy PS      =      10.59909834 Ry
      -> total E_H with PAW    =     404.41410931 Ry
      -> total E_XC with PAW   =    -193.54800161 Ry

     convergence has been achieved in  16 iterations

     Forces acting on atoms (cartesian axes, Ry/au):

     atom    1 type  1   force =     0.00000000    0.00000000    0.00000000
     atom    2 type  2   force =    -0.00000000    0.00000000   -0.00000000
     atom    3 type  2   force =     0.00000000    0.00000000    0.00000000
     atom    4 type  2   force =    -0.00000000   -0.00000000   -0.00000000
     atom    5 type  2   force =     0.00000000    0.00000000   -0.00000000
     atom    6 type  2   force =     0.00000000   -0.00000000   -0.00000000
     The non-local contrib.  to forces
     atom    1 type  1   force =     0.00000000    0.00000000    0.00000000
     atom    2 type  2   force =    -0.00000000   -0.00000000    0.00000000
     atom    3 type  2   force =     0.00000000    0.00000000    0.00000000
     atom    4 type  2   force =     0.00000000    0.00000000   -0.00000000
     atom    5 type  2   force =    -0.00000000   -0.00000000    0.00000000
     atom    6 type  2   force =     0.00000000    0.00000000    0.00000000
     The ionic contribution  to forces
     atom    1 type  1   force =     0.00000000    0.00000000   -0.00000000
     atom    2 type  2   force =    -0.00008528    0.00004924   -0.00000000
     atom    3 type  2   force =    -0.00000000    0.00000000    0.00000000
     atom    4 type  2   force =     0.00000000    0.00000000    0.00000000
     atom    5 type  2   force =    -0.00000000   -0.00000000    0.00000000
     atom    6 type  2   force =     0.00008528   -0.00004924   -0.00000000
     The local contribution  to forces
     atom    1 type  1   force =     0.00000228    0.00000207   -0.00000121
     atom    2 type  2   force =     0.00003065   -0.00000297   -0.00000437
     atom    3 type  2   force =    -0.00000484   -0.00001937   -0.00024437
     atom    4 type  2   force =    -0.00002118    0.00000632    0.00105067
     atom    5 type  2   force =     0.00002349    0.00000913   -0.00081067
     atom    6 type  2   force =    -0.00005020   -0.00001683   -0.00000566
     The core correction contribution to forces
     atom    1 type  1   force =     0.00000000    0.00000000    0.00000002
     atom    2 type  2   force =     0.00000000    0.00000000    0.00000000
     atom    3 type  2   force =     0.00000000    0.00000000    0.00000000
     atom    4 type  2   force =     0.00000000    0.00000000    0.00000000
     atom    5 type  2   force =     0.00000000    0.00000000    0.00000000
     atom    6 type  2   force =     0.00000000    0.00000000    0.00000000
     The Hubbard contrib.    to forces
     atom    1 type  1   force =     0.00000000    0.00000000    0.00000000
     atom    2 type  2   force =     0.00000000    0.00000000    0.00000000
     atom    3 type  2   force =     0.00000000    0.00000000    0.00000000
     atom    4 type  2   force =     0.00000000    0.00000000    0.00000000
     atom    5 type  2   force =     0.00000000    0.00000000    0.00000000
     atom    6 type  2   force =     0.00000000    0.00000000    0.00000000
     The SCF correction term to forces
     atom    1 type  1   force =    -0.00000187   -0.00000182    0.00000135
     atom    2 type  2   force =     0.00012061    0.00001301    0.00000299
     atom    3 type  2   force =     0.00000608    0.00002715    0.00016844
     atom    4 type  2   force =     0.00002485   -0.00000646   -0.00070071
     atom    5 type  2   force =    -0.00002626   -0.00001481    0.00052845
     atom    6 type  2   force =    -0.00010783   -0.00000495    0.00000478

     Total force =     0.000000     Total SCF correction =     0.000910

     Computing stress (Cartesian axis) and pressure

          total   stress  (Ry/bohr**3)                   (kbar)     P=     -495.75
  -0.00330396  -0.00000000  -0.00000000         -486.03       -0.00       -0.00
  -0.00000000  -0.00330396   0.00000000           -0.00     -486.03        0.00
   0.00000000   0.00000000  -0.00350225            0.00        0.00     -515.20

     kinetic stress (kbar)  47949.55      0.00      0.00
                                0.00  47949.56      0.00
                                0.00      0.00  48007.36

     local   stress (kbar)  -3286.65     -0.13     -0.00
                               -0.13  -3286.73     -0.00
                               -0.00     -0.00 -47234.42

     nonloc. stress (kbar)   5766.70      0.00     -0.00
                                0.00   5766.70     -0.00
                                0.00      0.00   5857.62

     hartree stress (kbar)  15588.21      0.05      0.00
                                0.05  15588.22     -0.00
                                0.00     -0.00  34772.62

     exc-cor stress (kbar)  -6613.68     -0.00     -0.00
                               -0.00  -6613.68     -0.00
                               -0.00     -0.00  -6600.26

     corecor stress (kbar)   -440.16      0.00      0.00
                                0.00   -440.16     -0.00
                                0.00     -0.00   -440.34

     ewald   stress (kbar) -59450.02      0.10      0.00
                                0.10 -59449.91     -0.00
                                0.00     -0.00 -34877.79

     hubbard stress (kbar)      0.00      0.00      0.00
                                0.00      0.00      0.00
                                0.00      0.00      0.00

     DFT-D   stress (kbar)      0.00      0.00      0.00
                                0.00      0.00      0.00
                                0.00      0.00      0.00

     XDM     stress (kbar)      0.00      0.00      0.00
                                0.00      0.00      0.00
                                0.00      0.00      0.00

     dft-nl  stress (kbar)      0.00      0.00      0.00
                                0.00      0.00      0.00
                                0.00      0.00      0.00

     TS-vdW  stress (kbar)      0.00      0.00      0.00
                                0.00      0.00      0.00
                                0.00      0.00      0.00

[...]

                                0.00      0.00      0.00

     Writing all to output data dir calculations/myprefix.save/

     General routines

     Parallel routines

     PAW routines

   This run was terminated on:  18:54:35   4Mar2023

   JOB DONE.