     Program PWSCF v.7.0 starts on  6Mar2023 at 14:20:56

     R & G space division:  proc/nbgrp/npool/nimage =      32

     Reading input from espresso_4912.pwi
Warning: card &CELL ignored
Warning: card / ignored

     Current dimensions of program PWSCF are:
     Max number of different atomic species (ntypx) = 10
     Max number of k-points (npk) =  40000
     Max angular momentum in pseudopotentials (lmaxx) =  4
     file K.pbe-spn-kjpaw_psl.1.0.0.UPF: wavefunction(s)  3S renormalized

     gamma-point specific algorithms are used
     Message from routine setup:
     using ibrav=0 with symmetry is DISCOURAGED, use correct ibrav instead

     Using Slab Decomposition

     bravais-lattice index     =            0
     lattice parameter (alat)  =      11.9102  a.u.
     unit-cell volume          =    1572.8244 (a.u.)^3
     number of atoms/cell      =            8
     number of atomic types    =            3
     number of electrons       =        84.00
     number of Kohn-Sham states=           50
     kinetic-energy cutoff     =      30.0000  Ry
     charge density cutoff     =     240.0000  Ry
     scf convergence threshold =      1.0E-06
     mixing beta               =       0.7000
     number of iterations used =            8  plain     mixing
     Exchange-correlation= PBE
                           (   1   4   3   4   0   0   0)

     celldm(1)=  11.910189  celldm(2)=   0.000000  celldm(3)=   0.000000
     celldm(4)=   0.000000  celldm(5)=   0.000000  celldm(6)=   0.000000

     crystal axes: (cart. coord. in units of alat)
               a(1) = (   1.000000   0.000000   0.000000 )
               a(2) = (  -0.244180   0.969730   0.000000 )
               a(3) = (   0.000000   0.000000   0.960005 )

     reciprocal axes: (cart. coord. in units 2 pi/alat)
               b(1) = (  1.000000  0.251802  0.000000 )
               b(2) = (  0.000000  1.031215  0.000000 )
               b(3) = (  0.000000  0.000000  1.041661 )

     PseudoPot. # 1 for K  read from file:
     /home/pragov/projects/rrg-bengioy-ad/pragov/crystal_structure_design/SSSP/K.pbe-spn-kjpaw_psl.1.0.0.UPF
     MD5 check sum: 7d58810084cac21f60fbe77ea2b688fd
     Pseudo is Projector augmented-wave + core cor, Zval =  9.0
     Generated using "atomic" code by A. Dal Corso  v.5.1
     Shape of augmentation charge: PSQ
     Using radial grid of 1165 points,  6 beta functions with:
                l(1) =   0
                l(2) =   0
                l(3) =   1
                l(4) =   1
                l(5) =   2
                l(6) =   2
     Q(r) pseudized with 0 coefficients

     PseudoPot. # 2 for Ag read from file:
     /home/pragov/projects/rrg-bengioy-ad/pragov/crystal_structure_design/SSSP/Ag_ONCV_PBE-1.0.oncvpsp.upf
     MD5 check sum: 94f47bd0669c641108e45594df92fabc
     Pseudo is Norm-conserving, Zval = 19.0
     Generated using ONCVPSP code by D. R. Hamann
     Using radial grid of 1398 points,  6 beta functions with:
                l(1) =   0
                l(2) =   0
                l(3) =   1
                l(4) =   1
                l(5) =   2
                l(6) =   2

     PseudoPot. # 3 for P  read from file:
     /home/pragov/projects/rrg-bengioy-ad/pragov/crystal_structure_design/SSSP/P.pbe-n-rrkjus_psl.1.0.0.UPF
     MD5 check sum: 8b930f418f0a4573dca56cd030ffe088
     Pseudo is Ultrasoft + core correction, Zval =  5.0
     Generated using "atomic" code by A. Dal Corso  v.5.1
     Using radial grid of 1147 points,  6 beta functions with:
                l(1) =   0
                l(2) =   0
                l(3) =   1
                l(4) =   1
                l(5) =   2
                l(6) =   2
     Q(r) pseudized with 0 coefficients

     atomic species   valence    mass     pseudopotential
        K              9.00    39.09830     K ( 1.00)
        Ag            19.00   107.86820     Ag( 1.00)
        P              5.00    30.97376     P ( 1.00)

      4 Sym. Ops., with inversion, found ( 2 have fractional translation)

                                    s                        frac. trans.

      isym =  1     identity

 cryst.   s( 1) = (     1          0          0      )
                  (     0          1          0      )
                  (     0          0          1      )

 cart.    s( 1) = (  1.0000000  0.0000000  0.0000000 )
                  (  0.0000000  1.0000000  0.0000000 )
                  (  0.0000000  0.0000000  1.0000000 )

      isym =  2     180 deg rotation - cart. axis [0,0,1]

 cryst.   s( 2) = (    -1          0          0      )    f =(  0.0000000 )
                  (     0         -1          0      )       ( -0.0000000 )
                  (     0          0          1      )       (  0.5000000 )

 cart.    s( 2) = ( -1.0000000 -0.0000000  0.0000000 )    f =(  0.0000000 )
                  (  0.0000000 -1.0000000  0.0000000 )       ( -0.0000000 )
                  (  0.0000000  0.0000000  1.0000000 )       (  0.4800025 )

      isym =  3     inversion

 cryst.   s( 3) = (    -1          0          0      )
                  (     0         -1          0      )
                  (     0          0         -1      )

 cart.    s( 3) = ( -1.0000000 -0.0000000  0.0000000 )
                  (  0.0000000 -1.0000000  0.0000000 )
                  (  0.0000000  0.0000000 -1.0000000 )

      isym =  4     inv. 180 deg rotation - cart. axis [0,0,1]

 cryst.   s( 4) = (     1          0          0      )    f =(  0.0000000 )
                  (     0          1          0      )       (  0.0000000 )
                  (     0          0         -1      )       (  0.5000000 )

 cart.    s( 4) = (  1.0000000  0.0000000  0.0000000 )    f =(  0.0000000 )
                  (  0.0000000  1.0000000  0.0000000 )       (  0.0000000 )
                  (  0.0000000  0.0000000 -1.0000000 )       (  0.4800025 )

   Cartesian axes

     site n.     atom                  positions (alat units)
         1           K   tau(   1) = (   0.8922035   0.3027516   0.7200037  )
         2           K   tau(   2) = (   0.0757291   0.9391223   0.7200037  )
         3           K   tau(   3) = (  -0.1363835   0.6669783   0.2400012  )
         4           K   tau(   4) = (   0.6800909   0.0306076   0.2400012  )
         5           Ag  tau(   5) = (   0.3779100   0.4848650   0.4800025  )
         6           Ag  tau(   6) = (   0.3779100   0.4848650   0.0000000  )
         7           P   tau(   7) = (   0.5682089   0.7290216   0.7200037  )
         8           P   tau(   8) = (   0.1876112   0.2407083   0.2400012  )

   Crystallographic axes

     site n.     atom                  positions (cryst. coord.)
         1           K   tau(   1) = (  0.9684370  0.3122020  0.7500000  )
         2           K   tau(   2) = (  0.3122020  0.9684370  0.7500000  )
         3           K   tau(   3) = (  0.0315630  0.6877980  0.2500000  )
         4           K   tau(   4) = (  0.6877980  0.0315630  0.2500000  )
         5           Ag  tau(   5) = (  0.5000000  0.5000000  0.5000000  )
         6           Ag  tau(   6) = (  0.5000000  0.5000000  0.0000000  )
         7           P   tau(   7) = (  0.7517780  0.7517780  0.7500000  )
         8           P   tau(   8) = (  0.2482220  0.2482220  0.2500000  )

     number of k points=     1  Methfessel-Paxton smearing, width (Ry)=  0.0010
                       cart. coord. in units 2pi/alat
        k(    1) = (   0.0000000   0.0000000   0.0000000), wk =   2.0000000

                       cryst. coord.
        k(    1) = (   0.0000000   0.0000000   0.0000000), wk =   2.0000000

     Check: negative core charge=   -0.000003

     Initial potential from superposition of free atoms

     starting charge      83.9238, renormalised to      84.0000
     Starting wfcs are   60 randomized atomic wfcs
     Checking if some PAW data can be deallocated...

     Self-consistent Calculation

     iteration #  1     ecut=    30.00 Ry     beta= 0.70
     Davidson diagonalization with overlap

     ethr =  1.00E-02,  avg # of iterations =  5.0

     Threshold (ethr) on eigenvalues was too large:
     Diagonalizing with lowered threshold

     Davidson diagonalization with overlap

[...]

     total energy              =   -1054.08595225 Ry
     estimated scf accuracy    <       0.72971831 Ry

[...]

     total energy              =   -1054.36907857 Ry
     estimated scf accuracy    <       0.00000118 Ry

     iteration #  9     ecut=    30.00 Ry     beta= 0.70
     Davidson diagonalization with overlap

     ethr =  1.41E-09,  avg # of iterations =  2.0

     End of self-consistent calculation

          k = 0.0000 0.0000 0.0000 (  2198 PWs)   bands (ev):

   -86.4359 -86.4330 -49.5565 -49.5342 -49.4727 -49.4632 -49.4536 -49.4184
   -24.7332 -24.6880 -24.6749 -24.6698  -8.4188  -8.3586  -8.3210  -8.2891
    -8.2521  -8.2335  -8.2085  -8.1762  -8.1290  -8.0712  -8.0251  -8.0186
    -2.8193  -1.8986   1.4284   1.7519   1.8414   1.8453   2.2001   2.3282
     2.4945   2.6537   2.8484   2.8543   4.0400   5.4333   5.4985   5.5503
     5.7609   6.2153   7.3344   7.5593   7.9516   9.1432   9.4664  10.3933
    10.8348  11.2468

     occupation numbers
     1.0000   1.0000   1.0000   1.0000   1.0000   1.0000   1.0000   1.0000
     1.0000   1.0000   1.0000   1.0000   1.0000   1.0000   1.0000   1.0000
     1.0000   1.0000   1.0000   1.0000   1.0000   1.0000   1.0000   1.0000
     1.0000   1.0000   1.0000   1.0000   1.0000   1.0000   1.0000   1.0000
     1.0000   1.0000   1.0000   1.0000   1.0000   1.0000   1.0000   1.0000
     1.0000   1.0000  -0.0000  -0.0000  -0.0000  -0.0000  -0.0000  -0.0000
    -0.0000  -0.0000

     the Fermi energy is     6.7912 ev

!    total energy              =   -1054.36907865 Ry
     estimated scf accuracy    <       0.00000024 Ry
     smearing contrib. (-TS)   =       0.00000000 Ry
     internal energy E=F+TS    =   -1054.36907865 Ry

     The total energy is F=E-TS. E is the sum of the following terms:
     one-electron contribution =    -577.58426274 Ry
     hartree contribution      =     308.97497558 Ry
     xc contribution           =    -107.90665239 Ry
     ewald contribution        =    -456.18982613 Ry
     one-center paw contrib.   =    -221.66331297 Ry
      -> PAW hartree energy AE =      37.77622651 Ry
      -> PAW hartree energy PS =     -37.56630466 Ry
      -> PAW xc energy AE      =     -66.22466175 Ry
      -> PAW xc energy PS      =      10.59891156 Ry
      -> total E_H with PAW    =     309.18489743 Ry
      -> total E_XC with PAW   =    -163.53240258 Ry

     convergence has been achieved in   9 iterations

     Forces acting on atoms (cartesian axes, Ry/au):

     atom    1 type  1   force =     0.01071332    0.00216530    0.00000000
     atom    2 type  1   force =    -0.00051562    0.01091323    0.00000000
     atom    3 type  1   force =    -0.01071332   -0.00216530    0.00000000
     atom    4 type  1   force =     0.00051562   -0.01091323    0.00000000
     atom    5 type  2   force =     0.00000000    0.00000000    0.00000000
     atom    6 type  2   force =     0.00000000    0.00000000    0.00000000
     atom    7 type  3   force =    -0.02015923   -0.02586184    0.00000000
     atom    8 type  3   force =     0.02015923    0.02586184    0.00000000
     The non-local contrib.  to forces
     atom    1 type  1   force =    -0.02069643   -0.07369772    0.00000000
     atom    2 type  1   force =    -0.06641273   -0.03806645    0.00000000
     atom    3 type  1   force =     0.02069643    0.07369772    0.00000000
     atom    4 type  1   force =     0.06641273    0.03806645    0.00000000
     atom    5 type  2   force =     0.00000000    0.00000000    0.00000000
     atom    6 type  2   force =     0.00000000    0.00000000    0.00000000
     atom    7 type  3   force =    -0.09486933   -0.12171335    0.00000000
     atom    8 type  3   force =     0.09486933    0.12171335    0.00000000
     The ionic contribution  to forces
     atom    1 type  1   force =    -0.87335689   -3.06640440   -0.00000000
     atom    2 type  1   force =    -2.76032789   -1.59567483   -0.00000000
     atom    3 type  1   force =     0.87335689    3.06640440    0.00000000
     atom    4 type  1   force =     2.76032789    1.59567483    0.00000000
     atom    5 type  2   force =     0.00000000    0.00000000    0.00000000
     atom    6 type  2   force =     0.00000000    0.00000000   -0.00000000
     atom    7 type  3   force =     5.81849341    7.46522577   -0.00000000
     atom    8 type  3   force =    -5.81849341   -7.46522577    0.00000000
     The local contribution  to forces
     atom    1 type  1   force =     0.90412650    3.13975767   -0.00004694
     atom    2 type  1   force =     2.82400141    1.64342395   -0.00003344
     atom    3 type  1   force =    -0.90392519   -3.13977489   -0.00000206
     atom    4 type  1   force =    -2.82395849   -1.64322038    0.00002264
     atom    5 type  2   force =    -0.00065514   -0.00077737   -0.00030077
     atom    6 type  2   force =    -0.00063676   -0.00075066    0.00027896
     atom    7 type  3   force =    -5.74796333   -7.37472029   -0.00006998
     atom    8 type  3   force =     5.74800856    7.37480881    0.00007257
     The core correction contribution to forces
     atom    1 type  1   force =     0.00073695    0.00277878    0.00000046
     atom    2 type  1   force =     0.00251609    0.00139414    0.00000087
     atom    3 type  1   force =    -0.00074120   -0.00277930   -0.00000132
     atom    4 type  1   force =    -0.00251280   -0.00139647   -0.00000105
     atom    5 type  2   force =     0.00000000    0.00000000    0.00000000
     atom    6 type  2   force =     0.00000000    0.00000000    0.00000000
     atom    7 type  3   force =     0.00410341    0.00526511   -0.00000046
     atom    8 type  3   force =    -0.00410045   -0.00526000    0.00000035
     The Hubbard contrib.    to forces
     atom    1 type  1   force =     0.00000000    0.00000000    0.00000000
     atom    2 type  1   force =     0.00000000    0.00000000    0.00000000
     atom    3 type  1   force =     0.00000000    0.00000000    0.00000000
     atom    4 type  1   force =     0.00000000    0.00000000    0.00000000
     atom    5 type  2   force =     0.00000000    0.00000000    0.00000000
     atom    6 type  2   force =     0.00000000    0.00000000    0.00000000
     atom    7 type  3   force =     0.00000000    0.00000000    0.00000000
     atom    8 type  3   force =     0.00000000    0.00000000    0.00000000
     The SCF correction term to forces
     atom    1 type  1   force =    -0.00016494   -0.00027865    0.00005536
     atom    2 type  1   force =    -0.00025726   -0.00019995    0.00005691
     atom    3 type  1   force =    -0.00016840    0.00027715   -0.00003221
     atom    4 type  1   force =     0.00028155   -0.00007405   -0.00004883
     atom    5 type  2   force =     0.00078106    0.00092019    0.00039188
     atom    6 type  2   force =     0.00078833    0.00090726   -0.00037641
     atom    7 type  3   force =     0.00009884    0.00011532    0.00006571
     atom    8 type  3   force =    -0.00010256   -0.00014014   -0.00006793

     Total force =     0.051265     Total SCF correction =     0.001916

     Computing stress (Cartesian axis) and pressure

          total   stress  (Ry/bohr**3)                   (kbar)     P=     -250.96
  -0.00175453  -0.00001903   0.00000000         -258.10       -2.80        0.00
  -0.00001903  -0.00176412   0.00000000           -2.80     -259.51        0.00
   0.00000000   0.00000000  -0.00159931            0.00        0.00     -235.27

     kinetic stress (kbar)  18197.21    -97.54      0.00
                              -97.54  18148.09      0.00
                                0.00      0.00  18194.76

     local   stress (kbar)  -4828.68  -1806.16     -0.01
                            -1806.16  -5738.27     -0.01
                               -0.01     -0.01 -26103.61

     nonloc. stress (kbar)   1425.51     31.92      0.00
                               31.92   1441.59      0.00
                                0.00      0.00   1430.12

     hartree stress (kbar)   6332.48    557.83      0.00
                              557.83   6613.41      0.01
                                0.00      0.01  15952.30

     exc-cor stress (kbar)  -1853.15      2.36      0.00
                                2.36  -1851.97      0.00
                                0.00      0.00  -1850.21

     corecor stress (kbar)  -1198.46      0.11      0.00
                                0.11  -1198.41      0.00
                                0.00      0.00  -1198.51

     ewald   stress (kbar) -18333.02   1308.69     -0.00
                             1308.69 -17673.95      0.00
                               -0.00      0.00  -6660.12

     hubbard stress (kbar)      0.00      0.00      0.00
                                0.00      0.00      0.00
                                0.00      0.00      0.00

     DFT-D   stress (kbar)      0.00      0.00      0.00
                                0.00      0.00      0.00
                                0.00      0.00      0.00

     XDM     stress (kbar)      0.00      0.00      0.00
                                0.00      0.00      0.00
                                0.00      0.00      0.00

     dft-nl  stress (kbar)      0.00      0.00      0.00
                                0.00      0.00      0.00
                                0.00      0.00      0.00

     TS-vdW  stress (kbar)      0.00      0.00      0.00
                                0.00      0.00      0.00
                                0.00      0.00      0.00

[...]

                                0.00      0.00      0.00

     Writing all to output data dir calculations/myprefix.save/

     General routines

     Parallel routines

     PAW routines

   This run was terminated on:  14:20:59   6Mar2023

   JOB DONE.