     Program PWSCF v.7.0 starts on  6Mar2023 at 14: 5:25

     R & G space division:  proc/nbgrp/npool/nimage =      32

     Reading input from espresso_4863.pwi
Warning: card &CELL ignored
Warning: card / ignored

     Current dimensions of program PWSCF are:
     Max number of different atomic species (ntypx) = 10
     Max number of k-points (npk) =  40000
     Max angular momentum in pseudopotentials (lmaxx) =  4

     gamma-point specific algorithms are used
     Message from routine setup:
     using ibrav=0 with symmetry is DISCOURAGED, use correct ibrav instead

     Using Slab Decomposition

     bravais-lattice index     =            0
     lattice parameter (alat)  =      11.5231  a.u.
     unit-cell volume          =     830.3953 (a.u.)^3
     number of atoms/cell      =           12
     number of atomic types    =            3
     number of electrons       =        88.00
     number of Kohn-Sham states=           53
     kinetic-energy cutoff     =      30.0000  Ry
     charge density cutoff     =     240.0000  Ry
     scf convergence threshold =      1.0E-06
     mixing beta               =       0.7000
     number of iterations used =            8  plain     mixing
     Exchange-correlation=  SLA  PW   PBX  PBC
                           (   1   4   3   4   0   0   0)

     celldm(1)=  11.523121  celldm(2)=   0.000000  celldm(3)=   0.000000
     celldm(4)=   0.000000  celldm(5)=   0.000000  celldm(6)=   0.000000

     crystal axes: (cart. coord. in units of alat)
               a(1) = (   1.000000   0.000000   0.000000 )
               a(2) = (   0.335963   0.941875   0.000000 )
               a(3) = (  -0.667981  -0.470938   0.576211 )

     reciprocal axes: (cart. coord. in units 2 pi/alat)
               b(1) = (  1.000000 -0.356696  0.867738 )
               b(2) = (  0.000000  1.061712  0.867738 )
               b(3) = (  0.000000  0.000000  1.735477 )

     PseudoPot. # 1 for Li read from file:
     /home/pragov/projects/rrg-bengioy-ad/pragov/crystal_structure_design/SSSP/li_pbe_v1.4.uspp.F.UPF
     MD5 check sum: e912e257baa3777c20ea3d68f190483c
     Pseudo is Ultrasoft, Zval =  3.0
     Generated by new atomic code, or converted to UPF format
     Using radial grid of  751 points,  5 beta functions with:
                l(1) =   0
                l(2) =   0
                l(3) =   0
                l(4) =   1
                l(5) =   1
     Q(r) pseudized with 10 coefficients,  rinner =    1.150   1.150   1.150

     PseudoPot. # 2 for V  read from file:
     /home/pragov/projects/rrg-bengioy-ad/pragov/crystal_structure_design/SSSP/v_pbe_v1.4.uspp.F.UPF
     MD5 check sum: 22b79981416ebb76fdaf5b1b8640f6fb
     Pseudo is Ultrasoft + core correction, Zval = 13.0
     Generated by new atomic code, or converted to UPF format
     Using radial grid of  853 points,  6 beta functions with:
                l(1) =   0
                l(2) =   0
                l(3) =   1
                l(4) =   1
                l(5) =   2
                l(6) =   2
     Q(r) pseudized with  8 coefficients,  rinner =    1.100   1.100   1.100
                                                       1.100   1.100

     PseudoPot. # 3 for F  read from file:
     /home/pragov/projects/rrg-bengioy-ad/pragov/crystal_structure_design/SSSP/f_pbe_v1.4.uspp.F.UPF
     MD5 check sum: 4c38b6a325caf53ec0e86aed9459de46
     Pseudo is Ultrasoft, Zval =  7.0
     Generated by new atomic code, or converted to UPF format
     Using radial grid of  799 points,  4 beta functions with:
                l(1) =   0
                l(2) =   0
                l(3) =   1
                l(4) =   1
     Q(r) pseudized with  8 coefficients,  rinner =    0.950   0.950   0.950

     atomic species   valence    mass     pseudopotential
        Li             3.00     6.94000     Li( 1.00)
        V             13.00    50.94150     V ( 1.00)
        F              7.00    18.99840     F ( 1.00)

      2 Sym. Ops., with inversion, found ( 1 have fractional translation)

                                    s                        frac. trans.

      isym =  1     identity

 cryst.   s( 1) = (     1          0          0      )
                  (     0          1          0      )
                  (     0          0          1      )

 cart.    s( 1) = (  1.0000000 -0.0000000  0.0000000 )
                  (  0.0000000  1.0000000 -0.0000000 )
                  (  0.0000000  0.0000000  1.0000000 )

      isym =  2     inversion

 cryst.   s( 2) = (    -1          0          0      )    f =(  0.2500000 )
                  (     0         -1          0      )       ( -0.2500000 )
                  (     0          0         -1      )       ( -0.5000000 )

 cart.    s( 2) = ( -1.0000000  0.0000000 -0.0000000 )    f =(  0.5000000 )
                  (  0.0000000 -1.0000000  0.0000000 )       ( -0.0000000 )
                  (  0.0000000  0.0000000 -1.0000000 )       ( -0.2881053 )

   Cartesian axes

     site n.     atom                  positions (alat units)
         1           Li  tau(   1) = (   0.5000000   0.0000000   0.2881053  )
         2           Li  tau(   2) = (   0.0000000   0.0000000   0.0000000  )
         3           V   tau(   3) = (   0.6679815   0.4709376   0.0000000  )
         4           V   tau(   4) = (   0.1679815   0.4709376   0.2881053  )
         5           F   tau(   5) = (  -0.2109554  -0.1366091   0.3252760  )
         6           F   tau(   6) = (   0.4684395   0.3181395   0.2509345  )
         7           F   tau(   7) = (   0.3498397  -0.0603855   0.5663066  )
         8           F   tau(   8) = (   0.1073239   0.1211449   0.2782013  )
         9           F   tau(   9) = (   0.8181417   0.5313231   0.2980092  )
        10           F   tau(  10) = (   0.7286390   0.8207303   0.0099039  )
        11           F   tau(  11) = (   0.3675234   0.6237357   0.0371708  )
        12           F   tau(  12) = (   0.0429739  -0.3343285   0.5390397  )

   Crystallographic axes

     site n.     atom                  positions (cryst. coord.)
         1           Li  tau(   1) = (  0.7500000  0.2500000  0.5000000  )
         2           Li  tau(   2) = (  0.0000000  0.0000000  0.0000000  )
         3           V   tau(   3) = (  0.5000000  0.5000000  0.0000000  )
         4           V   tau(   4) = (  0.2500000  0.7500000  0.5000000  )
         5           F   tau(   5) = (  0.1200270  0.1372150  0.5645090  )
         6           F   tau(   6) = (  0.5727060  0.5555180  0.4354910  )
         7           F   tau(   7) = (  0.8627850  0.4272940  0.9828120  )
         8           F   tau(   8) = (  0.3055180  0.3700270  0.4828120  )
         9           F   tau(   9) = (  0.8872150  0.8227060  0.5171880  )
        10           F   tau(  10) = (  0.4444820  0.8799730  0.0171880  )
        11           F   tau(  11) = (  0.1772940  0.6944820  0.0645090  )
        12           F   tau(  12) = (  0.6299730  0.1127850  0.9354910  )

     number of k points=     1  Methfessel-Paxton smearing, width (Ry)=  0.0010
                       cart. coord. in units 2pi/alat
        k(    1) = (   0.0000000   0.0000000   0.0000000), wk =   2.0000000

                       cryst. coord.
        k(    1) = (   0.0000000   0.0000000   0.0000000), wk =   2.0000000

     Check: negative core charge=   -0.000004

     Initial potential from superposition of free atoms

     starting charge      87.0961, renormalised to      88.0000

     negative rho (up, down):  1.748E-03 0.000E+00
     Starting wfcs are   62 randomized atomic wfcs

     Self-consistent Calculation

     iteration #  1     ecut=    30.00 Ry     beta= 0.70
     Davidson diagonalization with overlap

     ethr =  1.00E-02,  avg # of iterations =  2.0

     negative rho (up, down):  2.322E-03 0.000E+00

     total energy              =    -707.72278264 Ry
     estimated scf accuracy    <       2.02153102 Ry

[...]

     ethr =  1.91E-04,  avg # of iterations =  1.0
     Minimization algorithm failed to find Fermi energy: reverting to bisection
     Possible cause: smearing is larger than the electronic band-gap.

[...]

     total energy              =    -708.79023083 Ry
     estimated scf accuracy    <       0.00000545 Ry

     iteration # 93     ecut=    30.00 Ry     beta= 0.70
     Davidson diagonalization with overlap

     ethr =  6.20E-09,  avg # of iterations =  1.0

[...]

     End of self-consistent calculation

          k = 0.0000 0.0000 0.0000 (  1147 PWs)   bands (ev):

   -58.7239 -58.7196 -37.9597 -37.9570 -32.7378 -32.6841 -32.4394 -32.4394
   -32.4221 -32.4221 -17.8236 -17.0827 -16.9541 -16.9540 -16.8755 -16.8753
   -16.7492 -16.3075  -0.8147  -0.2769  -0.2604  -0.0623   0.0527   0.0528
     0.0537   0.2127   0.5252   0.5253   1.1987   1.1989   1.9082   1.9083
     2.4155   2.4842   2.5141   2.5142   2.6321   2.7598   2.8495   2.8496
     2.9429   3.2469   7.1472   7.1864   7.1916   7.1934   7.8323   7.8323
     7.9435   8.4452   8.4452   8.9558  11.3789

     occupation numbers
     1.0000   1.0000   1.0000   1.0000   1.0000   1.0000   1.0000   1.0000
     1.0000   1.0000   1.0000   1.0000   1.0000   1.0000   1.0000   1.0000
     1.0000   1.0000   1.0000   1.0000   1.0000   1.0000   1.0000   1.0000
     1.0000   1.0000   1.0000   1.0000   1.0000   1.0000   1.0000   1.0000
     1.0000   1.0000   1.0000   1.0000   1.0000   1.0000   1.0000   1.0000
     1.0000   1.0000   1.0001   0.5709   0.2580   0.1710  -0.0000  -0.0000
    -0.0000  -0.0000  -0.0000  -0.0000  -0.0000

     the Fermi energy is     7.1875 ev

!    total energy              =    -708.79023043 Ry
     estimated scf accuracy    <       0.00000064 Ry
     smearing contrib. (-TS)   =      -0.00063461 Ry
     internal energy E=F+TS    =    -708.78959583 Ry

     The total energy is F=E-TS. E is the sum of the following terms:
     one-electron contribution =    -348.75502630 Ry
     hartree contribution      =     215.35187662 Ry
     xc contribution           =    -121.04921733 Ry
     ewald contribution        =    -454.33722881 Ry

     convergence has been achieved in  93 iterations

     negative rho (up, down):  1.963E-03 0.000E+00

     Forces acting on atoms (cartesian axes, Ry/au):

     atom    1 type  1   force =    -0.00000064   -0.00000061    0.00000051
     atom    2 type  1   force =     0.00000064    0.00000061   -0.00000051
     atom    3 type  2   force =    -0.00000149   -0.00000027   -0.00000077
     atom    4 type  2   force =     0.00000149    0.00000027    0.00000077
     atom    5 type  3   force =    -0.01821779   -0.01026338    0.00585649
     atom    6 type  3   force =    -0.01578712   -0.01371213   -0.00585563
     atom    7 type  3   force =     0.01363938    0.01676174   -0.00212957
     atom    8 type  3   force =    -0.02036949   -0.00721572   -0.00212928
     atom    9 type  3   force =    -0.01363938   -0.01676174    0.00212957
     atom   10 type  3   force =     0.02036949    0.00721572    0.00212928
     atom   11 type  3   force =     0.01578712    0.01371213    0.00585563
     atom   12 type  3   force =     0.01821779    0.01026338   -0.00585649
     The non-local contrib.  to forces
     atom    1 type  1   force =     0.00000093    0.00000064    0.00000050
     atom    2 type  1   force =    -0.00000093   -0.00000064   -0.00000050
     atom    3 type  2   force =    -0.00000358   -0.00000168   -0.00000019
     atom    4 type  2   force =     0.00000358    0.00000168    0.00000019
     atom    5 type  3   force =     0.26349183   -0.35185755    0.24058267
     atom    6 type  3   force =    -0.24288180    0.36638648   -0.24058245
     atom    7 type  3   force =    -0.14892262    0.18934223    0.43938654
     atom    8 type  3   force =    -0.12830366    0.20387951    0.43938746
     atom    9 type  3   force =     0.14892262   -0.18934223   -0.43938654
     atom   10 type  3   force =     0.12830366   -0.20387951   -0.43938746
     atom   11 type  3   force =     0.24288180   -0.36638648    0.24058245
     atom   12 type  3   force =    -0.26349183    0.35185755   -0.24058267
     The ionic contribution  to forces
     atom    1 type  1   force =    -0.00000000   -0.00000000   -0.00000000
     atom    2 type  1   force =     0.00000000    0.00000000    0.00000000
     atom    3 type  2   force =     0.00000000   -0.00000000    0.00000000
     atom    4 type  2   force =    -0.00000000    0.00000000   -0.00000000
     atom    5 type  3   force =    -4.94671807    5.14181599   -4.27416657
     atom    6 type  3   force =     3.18103521   -6.38665063    4.27416657
     atom    7 type  3   force =     3.34566110   -2.87086469   -7.05276392
     atom    8 type  3   force =     1.57997823   -4.11569933   -7.05276392
     atom    9 type  3   force =    -3.34566110    2.87086469    7.05276392
     atom   10 type  3   force =    -1.57997823    4.11569933    7.05276392
     atom   11 type  3   force =    -3.18103521    6.38665063   -4.27416657
     atom   12 type  3   force =     4.94671807   -5.14181599    4.27416657
     The local contribution  to forces
     atom    1 type  1   force =    -0.00001431   -0.00001048    0.00000047
     atom    2 type  1   force =     0.00000843    0.00000517   -0.00000066
     atom    3 type  2   force =     0.00007078    0.00005303    0.00000338
     atom    4 type  2   force =    -0.00009173   -0.00006538   -0.00000383
     atom    5 type  3   force =     4.66522602   -4.79976815    4.03954905
     atom    6 type  3   force =    -2.95344072    6.00660660   -4.03954980
     atom    7 type  3   force =    -3.18358694    2.69821137    6.61097073
     atom    8 type  3   force =    -1.47228368    3.90411979    6.61157464
     atom    9 type  3   force =     3.18256154   -2.69834825   -6.61157514
     atom   10 type  3   force =     1.47180962   -3.90504098   -6.61097009
     atom   11 type  3   force =     2.95452414   -6.00648074    4.03924466
     atom   12 type  3   force =    -4.66474407    4.80074797   -4.03924428
     The core correction contribution to forces
     atom    1 type  1   force =     0.00000000    0.00000000    0.00000000
     atom    2 type  1   force =     0.00000000    0.00000000    0.00000000
     atom    3 type  2   force =    -0.00000066   -0.00000043    0.00000009
     atom    4 type  2   force =    -0.00000441   -0.00000304   -0.00000015
     atom    5 type  3   force =     0.00000000    0.00000000    0.00000000
     atom    6 type  3   force =     0.00000000    0.00000000    0.00000000
     atom    7 type  3   force =     0.00000000    0.00000000    0.00000000
     atom    8 type  3   force =     0.00000000    0.00000000    0.00000000
     atom    9 type  3   force =     0.00000000    0.00000000    0.00000000
     atom   10 type  3   force =     0.00000000    0.00000000    0.00000000
     atom   11 type  3   force =     0.00000000    0.00000000    0.00000000
     atom   12 type  3   force =     0.00000000    0.00000000    0.00000000
     The Hubbard contrib.    to forces
     atom    1 type  1   force =     0.00000000    0.00000000    0.00000000
     atom    2 type  1   force =     0.00000000    0.00000000    0.00000000
     atom    3 type  2   force =     0.00000000    0.00000000    0.00000000
     atom    4 type  2   force =     0.00000000    0.00000000    0.00000000
     atom    5 type  3   force =     0.00000000    0.00000000    0.00000000
     atom    6 type  3   force =     0.00000000    0.00000000    0.00000000
     atom    7 type  3   force =     0.00000000    0.00000000    0.00000000
     atom    8 type  3   force =     0.00000000    0.00000000    0.00000000
     atom    9 type  3   force =     0.00000000    0.00000000    0.00000000
     atom   10 type  3   force =     0.00000000    0.00000000    0.00000000
     atom   11 type  3   force =     0.00000000    0.00000000    0.00000000
     atom   12 type  3   force =     0.00000000    0.00000000    0.00000000
     The SCF correction term to forces
     atom    1 type  1   force =     0.00001203    0.00000875   -0.00000041
     atom    2 type  1   force =    -0.00000758   -0.00000439    0.00000069
     atom    3 type  2   force =    -0.00008112   -0.00006097   -0.00000412
     atom    4 type  2   force =     0.00008097    0.00005722    0.00000447
     atom    5 type  3   force =    -0.00021329   -0.00045654   -0.00010867
     atom    6 type  3   force =    -0.00050193   -0.00005007    0.00010996
     atom    7 type  3   force =     0.00048829    0.00007634    0.00027623
     atom    8 type  3   force =     0.00024370    0.00048217   -0.00032728
     atom    9 type  3   force =     0.00053801    0.00006755    0.00032647
     atom   10 type  3   force =     0.00023854    0.00043472   -0.00027692
     atom   11 type  3   force =    -0.00058573   -0.00006677    0.00019500
     atom   12 type  3   force =    -0.00026009   -0.00052901   -0.00019611

     Total force =     0.061418     Total SCF correction =     0.001663

     Computing stress (Cartesian axis) and pressure

     negative rho (up, down):  1.963E-03 0.000E+00
          total   stress  (Ry/bohr**3)                   (kbar)     P=     -216.36
  -0.00149045  -0.00002758  -0.00000014         -219.25       -4.06       -0.02
  -0.00002758  -0.00147077   0.00000020           -4.06     -216.36        0.03
  -0.00000014   0.00000020  -0.00145121           -0.02        0.03     -213.48

     kinetic stress (kbar)  26242.07    -79.87      0.04
                              -79.87  26299.05     -0.06
                                0.04     -0.06  26355.32

     local   stress (kbar)  -8529.45  -2897.61     -0.10
                            -2897.61  -6462.32      0.14
                               -0.10      0.14  -4419.40

     nonloc. stress (kbar)    833.60     -7.24      0.01
                               -7.24    838.77     -0.01
                                0.01     -0.01    843.87

     hartree stress (kbar)  13651.68   1315.94      0.03
                             1315.94  12712.90     -0.04
                                0.03     -0.04  11785.14

     exc-cor stress (kbar)  -5852.66      0.03      0.00
                                0.03  -5852.68     -0.00
                                0.00     -0.00  -5852.70

     corecor stress (kbar)   -917.70      1.42     -0.00
                                1.42   -918.72      0.00
                               -0.00      0.00   -919.72

     ewald   stress (kbar) -25646.79   1663.28     -0.00
                             1663.28 -26833.36     -0.00
                               -0.00     -0.00 -28005.99

     hubbard stress (kbar)      0.00      0.00      0.00
                                0.00      0.00      0.00
                                0.00      0.00      0.00

     DFT-D   stress (kbar)      0.00      0.00      0.00
                                0.00      0.00      0.00
                                0.00      0.00      0.00

     XDM     stress (kbar)      0.00      0.00      0.00
                                0.00      0.00      0.00
                                0.00      0.00      0.00

     dft-nl  stress (kbar)      0.00      0.00      0.00
                                0.00      0.00      0.00
                                0.00      0.00      0.00

     TS-vdW  stress (kbar)      0.00      0.00      0.00
                                0.00      0.00      0.00
                                0.00      0.00      0.00

[...]

                                0.00      0.00      0.00

     Writing all to output data dir calculations/myprefix.save/

     General routines

     Parallel routines

   This run was terminated on:  14: 5:30   6Mar2023

   JOB DONE.