     Program PWSCF v.7.0 starts on  6Mar2023 at 12:48:54

     R & G space division:  proc/nbgrp/npool/nimage =      32

     Reading input from espresso_4670.pwi
Warning: card &CELL ignored
Warning: card / ignored

     Current dimensions of program PWSCF are:
     Max number of different atomic species (ntypx) = 10
     Max number of k-points (npk) =  40000
     Max angular momentum in pseudopotentials (lmaxx) =  4
     file O.pbe-n-kjpaw_psl.0.1.UPF: wavefunction(s)  2P renormalized

     gamma-point specific algorithms are used

     Using Slab Decomposition

     bravais-lattice index     =            0
     lattice parameter (alat)  =       9.2647  a.u.
     unit-cell volume          =     704.4967 (a.u.)^3
     number of atoms/cell      =           12
     number of atomic types    =            3
     number of electrons       =        82.00
     number of Kohn-Sham states=           49
     kinetic-energy cutoff     =      30.0000  Ry
     charge density cutoff     =     240.0000  Ry
     scf convergence threshold =      1.0E-06
     mixing beta               =       0.7000
     number of iterations used =            8  plain     mixing
     Exchange-correlation= SLA  PW   PBX  PBC
                           (   1   4   3   4   0   0   0)

     celldm(1)=   9.264733  celldm(2)=   0.000000  celldm(3)=   0.000000
     celldm(4)=   0.000000  celldm(5)=   0.000000  celldm(6)=   0.000000

     crystal axes: (cart. coord. in units of alat)
               a(1) = (   1.000000   0.000000   0.000000 )
               a(2) = (   0.499982   0.910956   0.000000 )
               a(3) = (  -0.290245  -0.000026   0.972484 )

     reciprocal axes: (cart. coord. in units 2 pi/alat)
               b(1) = (  1.000000 -0.548854  0.298442 )
               b(2) = (  0.000000  1.097747  0.000030 )
               b(3) = (  0.000000  0.000000  1.028294 )

     PseudoPot. # 1 for Li read from file:
     /home/pragov/projects/rrg-bengioy-ad/pragov/crystal_structure_design/SSSP/li_pbe_v1.4.uspp.F.UPF
     MD5 check sum: e912e257baa3777c20ea3d68f190483c
     Pseudo is Ultrasoft, Zval =  3.0
     Generated by new atomic code, or converted to UPF format
     Using radial grid of  751 points,  5 beta functions with:
                l(1) =   0
                l(2) =   0
                l(3) =   0
                l(4) =   1
                l(5) =   1
     Q(r) pseudized with 10 coefficients,  rinner =    1.150   1.150   1.150

     PseudoPot. # 2 for Co read from file:
     /home/pragov/projects/rrg-bengioy-ad/pragov/crystal_structure_design/SSSP/Co_pbe_v1.2.uspp.F.UPF
     MD5 check sum: 5f91765df6ddd3222702df6e7b74a16d
     Pseudo is Ultrasoft + core correction, Zval = 17.0
     Generated by new atomic code, or converted to UPF format
     Using radial grid of  863 points,  6 beta functions with:
                l(1) =   0
                l(2) =   0
                l(3) =   1
                l(4) =   1
                l(5) =   2
                l(6) =   2
     Q(r) pseudized with  8 coefficients,  rinner =    1.200   1.200   1.200
                                                       1.200   1.200

     PseudoPot. # 3 for O  read from file:
     /home/pragov/projects/rrg-bengioy-ad/pragov/crystal_structure_design/SSSP/O.pbe-n-kjpaw_psl.0.1.UPF
     MD5 check sum: 0234752ac141de4415c5fc33072bef88
     Pseudo is Projector augmented-wave + core cor, Zval =  6.0
     Generated using "atomic" code by A. Dal Corso  v.5.0.99 svn rev. 10869
     Shape of augmentation charge: BESSEL
     Using radial grid of 1095 points,  4 beta functions with:
                l(1) =   0
                l(2) =   0
                l(3) =   1
                l(4) =   1
     Q(r) pseudized with 0 coefficients

     atomic species   valence    mass     pseudopotential
        Li             3.00     6.94000     Li( 1.00)
        Co            17.00    58.93319     Co( 1.00)
        O              6.00    15.99900     O ( 1.00)

     No symmetry found

                                    s                        frac. trans.

      isym =  1     identity

 cryst.   s( 1) = (     1          0          0      )
                  (     0          1          0      )
                  (     0          0          1      )

 cart.    s( 1) = (  1.0000000  0.0000000 -0.0000000 )
                  (  0.0000000  1.0000000  0.0000000 )
                  (  0.0000000  0.0000000  1.0000000 )

   Cartesian axes

     site n.     atom                  positions (alat units)
         1           Li  tau(   1) = (   0.3548721   0.6072913   0.4862461  )
         2           Li  tau(   2) = (   0.7097407   0.6072826   0.9724805  )
         3           Li  tau(   3) = (   0.8548575   0.8963915   0.4862442  )
         4           Li  tau(   4) = (   0.8548757   0.3182066   0.4862500  )
         5           Co  tau(   5) = (   0.5000015   0.3162640   0.0000010  )
         6           Co  tau(   6) = (   0.2097399   0.8982885   0.9724825  )
         7           O   tau(   7) = (   0.6645427   0.6072938   0.2283928  )
         8           O   tau(   8) = (   1.0451840   0.6072952   0.7440828  )
         9           O   tau(   9) = (   0.7085247   0.0147853   0.2174203  )
        10           O   tau(  10) = (   0.2085537   0.2888492   0.2174339  )
        11           O   tau(  11) = (   0.0011900   0.0147816   0.7550583  )
        12           O   tau(  12) = (   0.5012212   0.2888355   0.7550564  )

   Crystallographic axes

     site n.     atom                  positions (cryst. coord.)
         1           Li  tau(   1) = (  0.1666740  0.6666670  0.5000040  )
         2           Li  tau(   2) = (  0.6666600  0.6666720  0.9999960  )
         3           Li  tau(   3) = (  0.5079850  0.9840260  0.5000020  )
         4           Li  tau(   4) = (  0.8253440  0.3493250  0.5000080  )
         5           Co  tau(   5) = (  0.3264190  0.3471780  0.0000010  )
         6           Co  tau(   6) = (  0.0069400  0.9861230  0.9999980  )
         7           O   tau(   7) = (  0.3993890  0.6666620  0.2348550  )
         8           O   tau(   8) = (  0.9339330  0.6666790  0.7651360  )
         9           O   tau(   9) = (  0.7652970  0.0162370  0.2235720  )
        10           O   tau(  10) = (  0.1149090  0.3170900  0.2235860  )
        11           O   tau(  11) = (  0.2184180  0.0162490  0.7764220  )
        12           O   tau(  12) = (  0.5680330  0.3170910  0.7764200  )

     number of k points=     1  Methfessel-Paxton smearing, width (Ry)=  0.0010
                       cart. coord. in units 2pi/alat
        k(    1) = (   0.0000000   0.0000000   0.0000000), wk =   2.0000000

                       cryst. coord.
        k(    1) = (   0.0000000   0.0000000   0.0000000), wk =   2.0000000

     Check: negative core charge=   -0.000022

     Initial potential from superposition of free atoms

     starting charge      78.1970, renormalised to      82.0000
     Starting wfcs are   70 randomized atomic wfcs
     Checking if some PAW data can be deallocated...

     Self-consistent Calculation

     iteration #  1     ecut=    30.00 Ry     beta= 0.70
     Davidson diagonalization with overlap

     ethr =  1.00E-02,  avg # of iterations =  3.0

     total energy              =    -861.62460746 Ry
     estimated scf accuracy    <      56.77536819 Ry

[...]

     total energy              =    -904.78689386 Ry
     estimated scf accuracy    <       0.00004025 Ry

     iteration # 56     ecut=    30.00 Ry     beta= 0.70
     Davidson diagonalization with overlap

     ethr =  6.78E-09,  avg # of iterations =  1.0

     End of self-consistent calculation

          k = 0.0000 0.0000 0.0000 (   978 PWs)   bands (ev):

   -88.7168 -88.7131 -52.1912 -52.1799 -52.0044 -51.9803 -51.5911 -51.5876
   -36.7459 -36.7229 -36.6602 -36.3058 -11.6430 -10.4201 -10.2691 -10.1844
   -10.1425 -10.1074   1.5009   1.8429   2.1219   2.1539   2.2324   2.4492
     2.5589   3.0060   3.2143   3.3372   3.5366   3.7599   4.2820   5.1787
     5.3703   5.6175   6.0369   6.1019   6.1395   6.1412   6.7087   6.7633
     6.7656   6.7757   8.2046   8.4753   8.9096   9.3587  13.4929  15.0660
    17.4373

     occupation numbers
     1.0000   1.0000   1.0000   1.0000   1.0000   1.0000   1.0000   1.0000
     1.0000   1.0000   1.0000   1.0000   1.0000   1.0000   1.0000   1.0000
     1.0000   1.0000   1.0000   1.0000   1.0000   1.0000   1.0000   1.0000
     1.0000   1.0000   1.0000   1.0000   1.0000   1.0000   1.0000   1.0000
     1.0000   1.0000   1.0000   1.0000   1.0000   1.0000   1.0000   0.9204
     0.8293   0.2503  -0.0000  -0.0000  -0.0000  -0.0000  -0.0000  -0.0000
    -0.0000

     the Fermi energy is     6.7715 ev

!    total energy              =    -904.78689353 Ry
     estimated scf accuracy    <       0.00000092 Ry
     smearing contrib. (-TS)   =      -0.00040896 Ry
     internal energy E=F+TS    =    -904.78648458 Ry

     The total energy is F=E-TS. E is the sum of the following terms:
     one-electron contribution =    -606.22752297 Ry
     hartree contribution      =     335.97815614 Ry
     xc contribution           =    -123.26683762 Ry
     ewald contribution        =    -454.13136440 Ry
     one-center paw contrib.   =     -57.13891574 Ry
      -> PAW hartree energy AE =       0.00000000 Ry
      -> PAW hartree energy PS =       0.00000000 Ry
      -> PAW xc energy AE      =       0.00000000 Ry
      -> PAW xc energy PS      =       0.00000000 Ry
      -> total E_H with PAW    =     335.97815614 Ry
      -> total E_XC with PAW   =    -123.26683762 Ry

     convergence has been achieved in  56 iterations

     Forces acting on atoms (cartesian axes, Ry/au):

     atom    1 type  1   force =    -0.00004688   -0.00002408   -0.00001787
     atom    2 type  1   force =     0.00002680   -0.00002951   -0.00006780
     atom    3 type  1   force =     0.00003375    0.01278797   -0.00002248
     atom    4 type  1   force =    -0.00000587   -0.01284366   -0.00003327
     atom    5 type  2   force =    -0.00009773    0.00980427    0.00039036
     atom    6 type  2   force =     0.00039040   -0.00952900    0.00030025
     atom    7 type  3   force =    -0.00590282    0.00000468   -0.07602906
     atom    8 type  3   force =     0.00579416   -0.00007124    0.07578657
     atom    9 type  3   force =    -0.04614213    0.04535019   -0.00554189
     atom   10 type  3   force =    -0.04614920   -0.04541741   -0.00563002
     atom   11 type  3   force =     0.04604839    0.04533877    0.00541702
     atom   12 type  3   force =     0.04605111   -0.04537099    0.00544821
     The non-local contrib.  to forces
     atom    1 type  1   force =     0.00002543    0.00000721   -0.00001484
     atom    2 type  1   force =    -0.00005992   -0.00000970   -0.00001726
     atom    3 type  1   force =    -0.00003049   -0.03822472    0.00001343
     atom    4 type  1   force =     0.00001401    0.03821276   -0.00001974
     atom    5 type  2   force =    -0.00027576    0.01296945    0.00032578
     atom    6 type  2   force =     0.00043054   -0.01254779    0.00013903
     atom    7 type  3   force =    -0.52266591    0.00004604   -0.51294549
     atom    8 type  3   force =     0.52237630    0.00010755    0.51290301
     atom    9 type  3   force =     0.23658173    0.24668333   -0.57070756
     atom   10 type  3   force =     0.23670723   -0.24673818   -0.57064677
     atom   11 type  3   force =    -0.23666885    0.24653682    0.57074013
     atom   12 type  3   force =    -0.23680134   -0.24669664    0.57050795
     The ionic contribution  to forces
     atom    1 type  1   force =     0.00006256   -0.00004123   -0.00015807
     atom    2 type  1   force =     0.00023591   -0.00057997   -0.00002243
     atom    3 type  1   force =    -0.00021203   -1.33718526   -0.00000175
     atom    4 type  1   force =     0.00005667    1.33697362   -0.00056385
     atom    5 type  2   force =     0.00034002   -1.13222356   -0.00260297
     atom    6 type  2   force =    -0.00215140    1.13478811    0.00388598
     atom    7 type  3   force =     7.70507702    0.00024610   12.89527128
     atom    8 type  3   force =    -7.70484377   -0.00277952  -12.89441780
     atom    9 type  3   force =    -6.58088558   -4.22994173   13.46912817
     atom   10 type  3   force =    -6.58397620    4.22879673   13.46977729
     atom   11 type  3   force =     6.58374403   -4.22783404  -13.47160764
     atom   12 type  3   force =     6.58255276    4.22978073  -13.46868822
     The local contribution  to forces
     atom    1 type  1   force =    -0.00028916    0.00006545    0.00036491
     atom    2 type  1   force =     0.00003812    0.00063387   -0.00009646
     atom    3 type  1   force =     0.00039068    1.38818100    0.00013922
     atom    4 type  1   force =    -0.00006855   -1.38800542    0.00069859
     atom    5 type  2   force =     0.00017156    1.12959943    0.00161795
     atom    6 type  2   force =     0.00129835   -1.13287475   -0.00445640
     atom    7 type  3   force =    -7.19459811   -0.00034814  -12.46421931
     atom    8 type  3   force =     7.19458519    0.00265556   12.46317412
     atom    9 type  3   force =     6.29993928    4.03166105  -12.91003414
     atom   10 type  3   force =     6.30306959   -4.03043546  -12.91088960
     atom   11 type  3   force =    -6.30293816    4.02976246   12.91231170
     atom   12 type  3   force =    -6.30176364   -4.03152760   12.90970499
     The core correction contribution to forces
     atom    1 type  1   force =     0.00000000    0.00000000    0.00000000
     atom    2 type  1   force =     0.00000000    0.00000000    0.00000000
     atom    3 type  1   force =     0.00000000    0.00000000    0.00000000
     atom    4 type  1   force =     0.00000000    0.00000000    0.00000000
     atom    5 type  2   force =     0.00000699   -0.00035117    0.00000021
     atom    6 type  2   force =    -0.00000229    0.00034240    0.00000778
     atom    7 type  3   force =     0.00611838   -0.00000032    0.00568537
     atom    8 type  3   force =    -0.00611496   -0.00000117   -0.00568618
     atom    9 type  3   force =    -0.00175969   -0.00299089    0.00588540
     atom   10 type  3   force =    -0.00175996    0.00299138    0.00588436
     atom   11 type  3   force =     0.00175896   -0.00298895   -0.00588529
     atom   12 type  3   force =     0.00176193    0.00299130   -0.00588268
     The Hubbard contrib.    to forces
     atom    1 type  1   force =     0.00000000    0.00000000    0.00000000
     atom    2 type  1   force =     0.00000000    0.00000000    0.00000000
     atom    3 type  1   force =     0.00000000    0.00000000    0.00000000
     atom    4 type  1   force =     0.00000000    0.00000000    0.00000000
     atom    5 type  2   force =     0.00000000    0.00000000    0.00000000
     atom    6 type  2   force =     0.00000000    0.00000000    0.00000000
     atom    7 type  3   force =     0.00000000    0.00000000    0.00000000
     atom    8 type  3   force =     0.00000000    0.00000000    0.00000000
     atom    9 type  3   force =     0.00000000    0.00000000    0.00000000
     atom   10 type  3   force =     0.00000000    0.00000000    0.00000000
     atom   11 type  3   force =     0.00000000    0.00000000    0.00000000
     atom   12 type  3   force =     0.00000000    0.00000000    0.00000000
     The SCF correction term to forces
     atom    1 type  1   force =     0.00015780   -0.00003226   -0.00016634
     atom    2 type  1   force =    -0.00018379   -0.00005047    0.00011188
     atom    3 type  1   force =    -0.00011090    0.00004020   -0.00012985
     atom    4 type  1   force =    -0.00000448   -0.00000137   -0.00010474
     atom    5 type  2   force =    -0.00033703   -0.00016664    0.00109292
     atom    6 type  2   force =     0.00081872    0.00078628    0.00076738
     atom    7 type  3   force =     0.00016932    0.00008424    0.00022262
     atom    8 type  3   force =    -0.00020508   -0.00003042   -0.00014306
     atom    9 type  3   force =    -0.00001435   -0.00003831    0.00022977
     atom   10 type  3   force =    -0.00018633   -0.00000862    0.00028823
     atom   11 type  3   force =     0.00015592   -0.00011427   -0.00009836
     atom   12 type  3   force =     0.00030493    0.00010447   -0.00015031

     Total force =     0.170186     Total SCF correction =     0.001963

     Computing stress (Cartesian axis) and pressure

          total   stress  (Ry/bohr**3)                   (kbar)     P=     -648.45
  -0.00431185   0.00000022  -0.00048241         -634.29        0.03      -70.96
   0.00000022  -0.00457793  -0.00000002            0.03     -673.44       -0.00
  -0.00048241  -0.00000002  -0.00433450          -70.96       -0.00     -637.63

     kinetic stress (kbar)  27648.73      0.22    139.03
                                0.22  27749.37      0.35
                              139.03      0.35  28069.09

     local   stress (kbar) -35151.90     -2.17   7183.51
                               -2.17 -31191.13     -1.29
                             7183.51     -1.29   5272.94

     nonloc. stress (kbar)   8064.74      0.07    137.88
                                0.07   8156.48      0.32
                              137.88      0.32   8283.29

     hartree stress (kbar)  29805.45      0.61  -2589.23
                                0.61  28862.94      0.31
                            -2589.23      0.31  11486.79

     exc-cor stress (kbar)  -6585.93      0.01     -9.71
                                0.01  -6598.37      0.01
                               -9.71      0.01  -6591.69

     corecor stress (kbar)  -1464.61     -0.00     -2.08
                               -0.00  -1465.92     -0.00
                               -2.08     -0.00  -1469.03

     ewald   stress (kbar) -22950.79      1.31  -4930.37
                                1.31 -26186.81      0.30
                            -4930.37      0.30 -45689.01

     hubbard stress (kbar)      0.00      0.00      0.00
                                0.00      0.00      0.00
                                0.00      0.00      0.00

     DFT-D   stress (kbar)      0.00      0.00      0.00
                                0.00      0.00      0.00
                                0.00      0.00      0.00

     XDM     stress (kbar)      0.00      0.00      0.00
                                0.00      0.00      0.00
                                0.00      0.00      0.00

     dft-nl  stress (kbar)      0.00      0.00      0.00
                                0.00      0.00      0.00
                                0.00      0.00      0.00

     TS-vdW  stress (kbar)      0.00      0.00      0.00
                                0.00      0.00      0.00
                                0.00      0.00      0.00

[...]

                                0.00      0.00      0.00

     Writing all to output data dir calculations/myprefix.save/

     General routines

     Parallel routines

     PAW routines

   This run was terminated on:  12:48:58   6Mar2023

   JOB DONE.