     Program PWSCF v.7.0 starts on  6Mar2023 at 10: 2:28

     R & G space division:  proc/nbgrp/npool/nimage =      32

     Reading input from espresso_4219.pwi
Warning: card &CELL ignored
Warning: card / ignored

     Current dimensions of program PWSCF are:
     Max number of different atomic species (ntypx) = 10
     Max number of k-points (npk) =  40000
     Max angular momentum in pseudopotentials (lmaxx) =  4
     file Cd.pbe-dn-rrkjus_psl.0.3.1.UPF: wavefunction(s)  4D renormalized

     gamma-point specific algorithms are used
     Message from routine setup:
     using ibrav=0 with symmetry is DISCOURAGED, use correct ibrav instead

     Using Slab Decomposition

     bravais-lattice index     =            0
     lattice parameter (alat)  =       8.1840  a.u.
     unit-cell volume          =    2434.5076 (a.u.)^3
     number of atoms/cell      =            9
     number of atomic types    =            2
     number of electrons       =        78.00
     number of Kohn-Sham states=           47
     kinetic-energy cutoff     =      30.0000  Ry
     charge density cutoff     =     240.0000  Ry
     scf convergence threshold =      1.0E-06
     mixing beta               =       0.7000
     number of iterations used =            8  plain     mixing
     Exchange-correlation= SLA  PW   PBX  PBC
                           (   1   4   3   4   0   0   0)

     celldm(1)=   8.184030  celldm(2)=   0.000000  celldm(3)=   0.000000
     celldm(4)=   0.000000  celldm(5)=   0.000000  celldm(6)=   0.000000

     crystal axes: (cart. coord. in units of alat)
               a(1) = (   1.000000   0.000000   0.000000 )
               a(2) = (  -0.500000   0.866025   0.000000 )
               a(3) = (   0.000000   0.000000   5.128364 )

     reciprocal axes: (cart. coord. in units 2 pi/alat)
               b(1) = (  1.000000  0.577350  0.000000 )
               b(2) = (  0.000000  1.154701  0.000000 )
               b(3) = (  0.000000  0.000000  0.194994 )

     PseudoPot. # 1 for Cd read from file:
     /home/pragov/projects/rrg-bengioy-ad/pragov/crystal_structure_design/SSSP/Cd.pbe-dn-rrkjus_psl.0.3.1.UPF
     MD5 check sum: 558e9f355611b531a870a69ef6ace9e2
     Pseudo is Ultrasoft + core correction, Zval = 12.0
     Generated using "atomic" code by A. Dal Corso  v.5.0.99 svn rev. 10869
     Using radial grid of 1239 points,  6 beta functions with:
                l(1) =   0
                l(2) =   0
                l(3) =   1
                l(4) =   1
                l(5) =   2
                l(6) =   2
     Q(r) pseudized with 0 coefficients

     PseudoPot. # 2 for I  read from file:
     /home/pragov/projects/rrg-bengioy-ad/pragov/crystal_structure_design/SSSP/I.pbe-n-kjpaw_psl.0.2.UPF
     MD5 check sum: d4ef18d9c8f18dc85e5843bca1e50dc0
     Pseudo is Projector augmented-wave + core cor, Zval =  7.0
     Generated using "atomic" code by A. Dal Corso  v.5.0.99 svn rev. 10869
     Shape of augmentation charge: PSQ
     Using radial grid of 1247 points,  4 beta functions with:
                l(1) =   0
                l(2) =   0
                l(3) =   1
                l(4) =   1
     Q(r) pseudized with 0 coefficients

     atomic species   valence    mass     pseudopotential
        Cd            12.00   112.41400     Cd( 1.00)
        I              7.00   126.90447     I ( 1.00)

      6 Sym. Ops. (no inversion) found

                                    s                        frac. trans.

      isym =  1     identity

 cryst.   s( 1) = (     1          0          0      )
                  (     0          1          0      )
                  (     0          0          1      )

 cart.    s( 1) = (  1.0000000 -0.0000000  0.0000000 )
                  (  0.0000000  1.0000000  0.0000000 )
                  (  0.0000000  0.0000000  1.0000000 )

      isym =  2     120 deg rotation - cryst. axis [0,0,1]

[...]

      isym =  3     120 deg rotation - cryst. axis [0,0,-1]

[...]

      isym =  4     inv. 180 deg rotation - cart. axis [1,0,0]

[...]

      isym =  5     inv. 180 deg rotation - cryst. axis [0,1,0]

[...]

      isym =  6     inv. 180 deg rotation - cryst. axis [1,1,0]

 cryst.   s( 6) = (     0         -1          0      )
                  (    -1          0          0      )
                  (     0          0          1      )

 cart.    s( 6) = (  0.5000001 -0.8660254  0.0000000 )
                  ( -0.8660254 -0.5000001  0.0000000 )
                  (  0.0000000  0.0000000  1.0000000 )

   Cartesian axes

     site n.     atom                  positions (alat units)
         1           Cd  tau(   1) = (   0.0000000   0.0000000   0.4274440  )
         2           Cd  tau(   2) = (  -0.0000006   0.5773505   2.1368712  )
         3           Cd  tau(   3) = (  -0.0000006   0.5773505   3.8460985  )
         4           I   tau(   4) = (   0.0000000   0.0000000   3.4469323  )
         5           I   tau(   5) = (   0.5000005   0.2886748   4.2452493  )
         6           I   tau(   6) = (   0.5000005   0.2886748   0.8264666  )
         7           I   tau(   7) = (   0.0000000   0.0000000   1.7377563  )
         8           I   tau(   8) = (  -0.0000006   0.5773505   0.0285547  )
         9           I   tau(   9) = (   0.5000005   0.2886748   2.5359861  )

   Crystallographic axes

     site n.     atom                  positions (cryst. coord.)
         1           Cd  tau(   1) = (  0.0000000  0.0000000  0.0833490  )
         2           Cd  tau(   2) = (  0.3333330  0.6666670  0.4166770  )
         3           Cd  tau(   3) = (  0.3333330  0.6666670  0.7499660  )
         4           I   tau(   4) = (  0.0000000  0.0000000  0.6721310  )
         5           I   tau(   5) = (  0.6666670  0.3333330  0.8277980  )
         6           I   tau(   6) = (  0.6666670  0.3333330  0.1611560  )
         7           I   tau(   7) = (  0.0000000  0.0000000  0.3388520  )
         8           I   tau(   8) = (  0.3333330  0.6666670  0.0055680  )
         9           I   tau(   9) = (  0.6666670  0.3333330  0.4945020  )

     number of k points=     1  Methfessel-Paxton smearing, width (Ry)=  0.0010
                       cart. coord. in units 2pi/alat
        k(    1) = (   0.0000000   0.0000000   0.0000000), wk =   2.0000000

                       cryst. coord.
        k(    1) = (   0.0000000   0.0000000   0.0000000), wk =   2.0000000

     Check: negative core charge=   -0.000001

     Initial potential from superposition of free atoms

     starting charge      77.9849, renormalised to      78.0000
     Starting wfcs are   51 randomized atomic wfcs
     Checking if some PAW data can be deallocated...

     Self-consistent Calculation

     iteration #  1     ecut=    30.00 Ry     beta= 0.70
     Davidson diagonalization with overlap

     ethr =  1.00E-02,  avg # of iterations =  4.0

     Threshold (ethr) on eigenvalues was too large:
     Diagonalizing with lowered threshold

     Davidson diagonalization with overlap

[...]

     negative rho (up, down):  1.009E-03 0.000E+00

     total energy              =   -2638.78214969 Ry
     estimated scf accuracy    <       0.49055540 Ry

[...]

     c_bands:  1 eigenvalues not converged
     ethr =  5.71E-06,  avg # of iterations = 20.0

[...]

     total energy              =   -2638.91122566 Ry
     estimated scf accuracy    <       0.00000104 Ry

     iteration # 11     ecut=    30.00 Ry     beta= 0.70
     Davidson diagonalization with overlap

     ethr =  1.33E-09,  avg # of iterations =  2.0

[...]

     End of self-consistent calculation

          k = 0.0000 0.0000 0.0000 (  3352 PWs)   bands (ev):

    -8.4285  -8.3831  -8.3779  -7.8604  -7.8557  -7.7923  -5.1841  -5.1841
    -5.1794  -5.1794  -5.1717  -5.1717  -5.1662  -5.1616  -5.1546  -5.0590
    -5.0590  -5.0540  -5.0540  -5.0467  -5.0467  -0.4289  -0.1537  -0.1488
     2.1622   2.1675   2.8696   3.0078   3.0078   3.0130   3.0130   3.0515
     3.0515   3.2468   3.2468   3.2911   3.2911   3.2957   3.2957   5.2490
     5.8858   5.8922   7.4505   7.4630   7.4729   8.9602   8.9653

     occupation numbers
     1.0000   1.0000   1.0000   1.0000   1.0000   1.0000   1.0000   1.0000
     1.0000   1.0000   1.0000   1.0000   1.0000   1.0000   1.0000   1.0000
     1.0000   1.0000   1.0000   1.0000   1.0000   1.0000   1.0000   1.0000
     1.0000   1.0000   1.0000   1.0000   1.0000   1.0000   1.0000   1.0000
     1.0000   1.0000   1.0000   1.0000   1.0000   1.0000   1.0000  -0.0000
    -0.0000  -0.0000  -0.0000  -0.0000  -0.0000  -0.0000  -0.0000

     the Fermi energy is     4.6849 ev

!    total energy              =   -2638.91122590 Ry
     estimated scf accuracy    <       0.00000009 Ry
     smearing contrib. (-TS)   =       0.00000000 Ry
     internal energy E=F+TS    =   -2638.91122590 Ry

     The total energy is F=E-TS. E is the sum of the following terms:
     one-electron contribution =    -248.05537051 Ry
     hartree contribution      =     177.00940451 Ry
     xc contribution           =    -380.12057921 Ry
     ewald contribution        =    -264.52126578 Ry
     one-center paw contrib.   =   -1923.22341491 Ry
      -> PAW hartree energy AE =       0.00000000 Ry
      -> PAW hartree energy PS =       0.00000000 Ry
      -> PAW xc energy AE      =       0.00000000 Ry
      -> PAW xc energy PS      =       0.00000000 Ry
      -> total E_H with PAW    =     177.00940451 Ry
      -> total E_XC with PAW   =    -380.12057921 Ry

     convergence has been achieved in  11 iterations

     negative rho (up, down):  2.743E-03 0.000E+00

     Forces acting on atoms (cartesian axes, Ry/au):

     atom    1 type  1   force =     0.00000000    0.00000000    0.00031830
     atom    2 type  1   force =     0.00000000   -0.00000000    0.00006470
     atom    3 type  1   force =     0.00000000    0.00000000   -0.00012466
     atom    4 type  2   force =     0.00000000    0.00000000   -0.04731497
     atom    5 type  2   force =     0.00000000   -0.00000000    0.04742254
     atom    6 type  2   force =     0.00000000   -0.00000000    0.04745206
     atom    7 type  2   force =     0.00000000    0.00000000   -0.04746389
     atom    8 type  2   force =     0.00000000    0.00000000   -0.04768565
     atom    9 type  2   force =     0.00000000    0.00000000    0.04733157
     The non-local contrib.  to forces
     atom    1 type  1   force =     0.00000000    0.00000000   -0.00045375
     atom    2 type  1   force =     0.00000000    0.00000000   -0.00014330
     atom    3 type  1   force =     0.00000000    0.00000000   -0.00065670
     atom    4 type  2   force =     0.00000000    0.00000000    0.12085266
     atom    5 type  2   force =     0.00000000    0.00000000   -0.12097012
     atom    6 type  2   force =     0.00000000    0.00000000   -0.12107602
     atom    7 type  2   force =     0.00000000    0.00000000    0.12083741
     atom    8 type  2   force =     0.00000000    0.00000000    0.12083766
     atom    9 type  2   force =    -0.00000000   -0.00000000   -0.12116008
     The ionic contribution  to forces
     atom    1 type  1   force =     0.00000000   -0.00000000   -0.02083726
     atom    2 type  1   force =     0.00001185   -0.00000684   -0.00554273
     atom    3 type  1   force =     0.00001184   -0.00000684    0.00278521
     atom    4 type  2   force =    -0.00000326    0.00000188   -7.85279956
     atom    5 type  2   force =    -0.00000868    0.00000501    7.86919105
     atom    6 type  2   force =    -0.00000390    0.00000225    7.86117868
     atom    7 type  2   force =    -0.00000325    0.00000188   -7.85324325
     atom    8 type  2   force =     0.00000399   -0.00000231   -7.86069741
     atom    9 type  2   force =    -0.00000859    0.00000496    7.85996527
     The local contribution  to forces
     atom    1 type  1   force =    -0.00000023    0.00001791    0.02155552
     atom    2 type  1   force =     0.00000210    0.00000532    0.00555270
     atom    3 type  1   force =    -0.00002074    0.00001376   -0.00200252
     atom    4 type  2   force =    -0.00000067    0.00000460    7.71045666
     atom    5 type  2   force =     0.00000902   -0.00000916   -7.72648057
     atom    6 type  2   force =     0.00000127    0.00001150   -7.71891149
     atom    7 type  2   force =    -0.00000775   -0.00000510    7.71110146
     atom    8 type  2   force =    -0.00000980    0.00001369    7.71830583
     atom    9 type  2   force =     0.00000386   -0.00000666   -7.71778564
     The core correction contribution to forces
     atom    1 type  1   force =    -0.00000086    0.00000192    0.00001215
     atom    2 type  1   force =    -0.00000019   -0.00000010   -0.00000845
     atom    3 type  1   force =    -0.00000072    0.00000015    0.00002410
     atom    4 type  2   force =     0.00000017    0.00000267   -0.02616510
     atom    5 type  2   force =    -0.00000176   -0.00000109    0.02623554
     atom    6 type  2   force =    -0.00000094    0.00000155    0.02617284
     atom    7 type  2   force =    -0.00000263    0.00000001   -0.02610847
     atom    8 type  2   force =     0.00000020    0.00000181   -0.02608593
     atom    9 type  2   force =    -0.00000118   -0.00000029    0.02623815
     The Hubbard contrib.    to forces
     atom    1 type  1   force =     0.00000000    0.00000000    0.00000000
     atom    2 type  1   force =     0.00000000    0.00000000    0.00000000
     atom    3 type  1   force =     0.00000000    0.00000000    0.00000000
     atom    4 type  2   force =     0.00000000    0.00000000    0.00000000
     atom    5 type  2   force =     0.00000000    0.00000000    0.00000000
     atom    6 type  2   force =     0.00000000    0.00000000    0.00000000
     atom    7 type  2   force =     0.00000000    0.00000000    0.00000000
     atom    8 type  2   force =     0.00000000    0.00000000    0.00000000
     atom    9 type  2   force =     0.00000000    0.00000000    0.00000000
     The SCF correction term to forces
     atom    1 type  1   force =    -0.00001039   -0.00002336    0.00005650
     atom    2 type  1   force =    -0.00002070    0.00000132    0.00022134
     atom    3 type  1   force =     0.00000931   -0.00000482   -0.00025990
     atom    4 type  2   force =    -0.00000304   -0.00000770    0.00035522
     atom    5 type  2   force =     0.00000475    0.00000483   -0.00053851
     atom    6 type  2   force =     0.00000212   -0.00000320    0.00010290
     atom    7 type  2   force =     0.00001141   -0.00000285   -0.00003617
     atom    8 type  2   force =     0.00000163   -0.00000503   -0.00003095
     atom    9 type  2   force =     0.00000485   -0.00000033    0.00008873

     Total force =     0.116217     Total SCF correction =     0.000747

     Computing stress (Cartesian axis) and pressure

     negative rho (up, down):  2.743E-03 0.000E+00
          total   stress  (Ry/bohr**3)                   (kbar)     P=       90.40
   0.00088802   0.00000000   0.00000000          130.63        0.00        0.00
   0.00000000   0.00088802   0.00000000            0.00      130.63        0.00
   0.00000000   0.00000000   0.00006763            0.00        0.00        9.95

     kinetic stress (kbar)   6574.64      0.00      0.00
                                0.00   6574.64      0.00
                                0.00      0.00   6327.36

     local   stress (kbar)  -5588.32     -0.00      0.01
                               -0.00  -5588.32     -0.00
                                0.01     -0.00   9617.86

     nonloc. stress (kbar)  -2028.72     -0.00      0.00
                               -0.00  -2028.72      0.00
                                0.00      0.00  -1953.04

     hartree stress (kbar)   5866.70      0.00     -0.00
                                0.00   5866.70      0.00
                               -0.00      0.00  -1037.61

     exc-cor stress (kbar)  15805.53      0.00     -0.00
                                0.00  15805.53      0.00
                               -0.00      0.00  15800.86

     corecor stress (kbar) -17932.98      0.00     -0.00
                                0.00 -17932.98      0.00
                               -0.00      0.00 -17894.24

     ewald   stress (kbar)  -2566.23      0.00     -0.00
                                0.00  -2566.23      0.00
                               -0.00      0.00 -10851.23

     hubbard stress (kbar)      0.00      0.00      0.00
                                0.00      0.00      0.00
                                0.00      0.00      0.00

     DFT-D   stress (kbar)      0.00      0.00      0.00
                                0.00      0.00      0.00
                                0.00      0.00      0.00

     XDM     stress (kbar)      0.00      0.00      0.00
                                0.00      0.00      0.00
                                0.00      0.00      0.00

     dft-nl  stress (kbar)      0.00      0.00      0.00
                                0.00      0.00      0.00
                                0.00      0.00      0.00

     TS-vdW  stress (kbar)      0.00      0.00      0.00
                                0.00      0.00      0.00
                                0.00      0.00      0.00

[...]

                                0.00      0.00      0.00

     Writing all to output data dir calculations/myprefix.save/

     General routines

     Parallel routines

     PAW routines

   This run was terminated on:  10: 2:31   6Mar2023

   JOB DONE.