     Program PWSCF v.7.0 starts on  4Mar2023 at 21:14:32

     R & G space division:  proc/nbgrp/npool/nimage =      32

     Reading input from espresso_7703.pwi
Warning: card &CELL ignored
Warning: card / ignored

     Current dimensions of program PWSCF are:
     Max number of different atomic species (ntypx) = 10
     Max number of k-points (npk) =  40000
     Max angular momentum in pseudopotentials (lmaxx) =  4

     gamma-point specific algorithms are used
     Message from routine setup:
     using ibrav=0 with symmetry is DISCOURAGED, use correct ibrav instead

     Using Slab Decomposition

     bravais-lattice index     =            0
     lattice parameter (alat)  =       8.9774  a.u.
     unit-cell volume          =     511.5993 (a.u.)^3
     number of atoms/cell      =            3
     number of atomic types    =            3
     number of electrons       =        54.00
     number of Kohn-Sham states=           32
     kinetic-energy cutoff     =      30.0000  Ry
     charge density cutoff     =     240.0000  Ry
     scf convergence threshold =      1.0E-06
     mixing beta               =       0.7000
     number of iterations used =            8  plain     mixing
     Exchange-correlation= PBE
                           (   1   4   3   4   0   0   0)

     celldm(1)=   8.977353  celldm(2)=   0.000000  celldm(3)=   0.000000
     celldm(4)=   0.000000  celldm(5)=   0.000000  celldm(6)=   0.000000

     crystal axes: (cart. coord. in units of alat)
               a(1) = (   1.000000   0.000000   0.000000 )
               a(2) = (   0.500000   0.866025   0.000000 )
               a(3) = (   0.500000   0.288675   0.816497 )

     reciprocal axes: (cart. coord. in units 2 pi/alat)
               b(1) = (  1.000000 -0.577350 -0.408248 )
               b(2) = (  0.000000  1.154701 -0.408248 )
               b(3) = (  0.000000  0.000000  1.224745 )

     PseudoPot. # 1 for Ho read from file:
     /home/pragov/projects/rrg-bengioy-ad/pragov/crystal_structure_design/SSSP/Ho.GGA-PBE-paw-v1.0.UPF
     MD5 check sum: 3d93cae5f38e6cc822e0e70538981326
     Pseudo is Projector augmented-wave + core cor, Zval = 21.0
     Generated using ATOMPAW code
     Shape of augmentation charge: BESSEL
     Using radial grid of 1114 points,  8 beta functions with:
                l(1) =   0
                l(2) =   0
                l(3) =   1
                l(4) =   1
                l(5) =   2
                l(6) =   2
                l(7) =   3
                l(8) =   3
     Q(r) pseudized with 0 coefficients

     PseudoPot. # 2 for Sn read from file:
     /home/pragov/projects/rrg-bengioy-ad/pragov/crystal_structure_design/SSSP/Sn_pbe_v1.uspp.F.UPF
     MD5 check sum: 4cf58ce39ec5d5d420df3dd08604eb00
     Pseudo is Ultrasoft + core correction, Zval = 14.0
     Generated by new atomic code, or converted to UPF format
     Using radial grid of  891 points,  6 beta functions with:
                l(1) =   0
                l(2) =   0
                l(3) =   1
                l(4) =   1
                l(5) =   2
                l(6) =   2
     Q(r) pseudized with  6 coefficients,  rinner =    1.200   1.200   1.200
                                                       1.200   1.200

     PseudoPot. # 3 for Au read from file:
     /home/pragov/projects/rrg-bengioy-ad/pragov/crystal_structure_design/SSSP/Au_ONCV_PBE-1.0.oncvpsp.upf
     MD5 check sum: d14007822ba0e19f0206237467fc06c2
     Pseudo is Norm-conserving, Zval = 19.0
     Generated using ONCVPSP code by D. R. Hamann
     Using radial grid of 1278 points,  8 beta functions with:
                l(1) =   0
                l(2) =   0
                l(3) =   1
                l(4) =   1
                l(5) =   2
                l(6) =   2
                l(7) =   3
                l(8) =   3

     atomic species   valence    mass     pseudopotential
        Ho            21.00   164.93033     Ho( 1.00)
        Sn            14.00   118.71000     Sn( 1.00)
        Au            19.00   196.96657     Au( 1.00)

      6 Sym. Ops. (no inversion) found

                                    s                        frac. trans.

      isym =  1     identity

 cryst.   s( 1) = (     1          0          0      )
                  (     0          1          0      )
                  (     0          0          1      )

 cart.    s( 1) = (  1.0000000  0.0000000  0.0000000 )
                  (  0.0000000  1.0000000  0.0000000 )
                  (  0.0000000  0.0000000  1.0000000 )

      isym =  2     120 deg rotation - cryst. axis [0,0,1]

[...]

      isym =  3     120 deg rotation - cryst. axis [0,0,-1]

[...]

      isym =  4     inv. 180 deg rotation - cart. axis [1,0,0]

[...]

      isym =  5     inv. 180 deg rotation - cryst. axis [0,1,0]

[...]

      isym =  6     inv. 180 deg rotation - cryst. axis [1,1,0]

 cryst.   s( 6) = (     1         -1          0      )
                  (     0         -1          0      )
                  (     0         -1          1      )

 cart.    s( 6) = (  0.5000000 -0.8660254  0.0000000 )
                  ( -0.8660254 -0.5000000 -0.0000000 )
                  (  0.0000000  0.0000000  1.0000000 )

   Cartesian axes

     site n.     atom                  positions (alat units)
         1           Ho  tau(   1) = (   1.0000000   0.5773503   0.4082483  )
         2           Sn  tau(   2) = (   0.0000000   0.0000000   0.0000000  )
         3           Au  tau(   3) = (   1.5000000   0.8660254   0.6123724  )

   Crystallographic axes

     site n.     atom                  positions (cryst. coord.)
         1           Ho  tau(   1) = (  0.5000000  0.5000000  0.5000000  )
         2           Sn  tau(   2) = (  0.0000000  0.0000000  0.0000000  )
         3           Au  tau(   3) = (  0.7500000  0.7500000  0.7500000  )

     number of k points=     1  Methfessel-Paxton smearing, width (Ry)=  0.0010
                       cart. coord. in units 2pi/alat
        k(    1) = (   0.0000000   0.0000000   0.0000000), wk =   2.0000000

                       cryst. coord.
        k(    1) = (   0.0000000   0.0000000   0.0000000), wk =   2.0000000

     Check: negative core charge=   -0.000001

     Initial potential from superposition of free atoms

     starting charge      52.9956, renormalised to      54.0000
     Starting wfcs are   51 randomized atomic wfcs
     Checking if some PAW data can be deallocated...

     Self-consistent Calculation

     iteration #  1     ecut=    30.00 Ry     beta= 0.70
     Davidson diagonalization with overlap

     ethr =  1.00E-02,  avg # of iterations =  2.0

     total energy              =   -1262.77093349 Ry
     estimated scf accuracy    <       3.48113715 Ry

[...]

     negative rho (up, down):  1.341E-02 0.000E+00

[...]

     total energy              =   -1266.59043972 Ry
     estimated scf accuracy    <       0.00000116 Ry

     iteration # 54     ecut=    30.00 Ry     beta= 0.70
     Davidson diagonalization with overlap

     ethr =  2.16E-09,  avg # of iterations =  2.0

     End of self-consistent calculation

          k = 0.0000 0.0000 0.0000 (   706 PWs)   bands (ev):

   -93.6599 -44.6388 -44.6385 -44.6381 -31.7298  -7.8433  -7.8432  -7.8341
    -7.8340  -7.8338  -7.1284  -7.1283  -7.1278   4.2789   8.5538   8.5541
     8.5546   8.8376   8.8376  14.1575  14.2093  14.2095  14.2096  14.5972
    14.5981  14.5982  14.8902  14.8902  14.8903  15.0721  16.0888  16.0889

     occupation numbers
     1.0000   1.0000   1.0000   1.0000   1.0000   1.0000   1.0000   1.0000
     1.0000   1.0000   1.0000   1.0000   1.0000   1.0000   1.0000   1.0000
     1.0000   1.0000   1.0000   1.0000   1.0000   1.0000   1.0000   1.0000
     1.0000   1.0000   0.3371   0.3326   0.3304  -0.0000  -0.0000  -0.0000

     the Fermi energy is    14.8875 ev

!    total energy              =   -1266.59043953 Ry
     estimated scf accuracy    <       0.00000039 Ry
     smearing contrib. (-TS)   =      -0.00074669 Ry
     internal energy E=F+TS    =   -1266.58969284 Ry

     The total energy is F=E-TS. E is the sum of the following terms:
     one-electron contribution =    -412.24805628 Ry
     hartree contribution      =     228.16360708 Ry
     xc contribution           =    -103.35207362 Ry
     ewald contribution        =    -494.88676584 Ry
     one-center paw contrib.   =    -484.26640419 Ry
      -> PAW hartree energy AE =     301.64252007 Ry
      -> PAW hartree energy PS =    -275.52863715 Ry
      -> PAW xc energy AE      =    -539.76986867 Ry
      -> PAW xc energy PS      =      29.38958155 Ry
      -> total E_H with PAW    =     254.27749001 Ry
      -> total E_XC with PAW   =    -613.73236073 Ry

     convergence has been achieved in  54 iterations

     Forces acting on atoms (cartesian axes, Ry/au):

     atom    1 type  1   force =     0.00000000    0.00000000    0.00122754
     atom    2 type  2   force =    -0.00000000   -0.00000000   -0.00078450
     atom    3 type  3   force =     0.00000000    0.00000000   -0.00044304
     The non-local contrib.  to forces
     atom    1 type  1   force =     0.00000000    0.00000000    0.00323327
     atom    2 type  2   force =     0.00000000    0.00000000   -0.00043661
     atom    3 type  3   force =     0.00000000    0.00000000   -0.00015294
     The ionic contribution  to forces
     atom    1 type  1   force =    -0.00000000    0.00000000    0.00000000
     atom    2 type  2   force =     0.00000000   -0.00000000   -0.00000000
     atom    3 type  3   force =    -0.00000000    0.00000000   -0.00000000
     The local contribution  to forces
     atom    1 type  1   force =    -0.00182566    0.00334283   -0.00354542
     atom    2 type  2   force =    -0.00027485   -0.00010864    0.00029995
     atom    3 type  3   force =     0.00042797   -0.00039293   -0.00007618
     The core correction contribution to forces
     atom    1 type  1   force =    -0.00000005    0.00000006   -0.00000008
     atom    2 type  2   force =    -0.00000495   -0.00000121    0.00001487
     atom    3 type  3   force =     0.00000000    0.00000000    0.00000000
     The Hubbard contrib.    to forces
     atom    1 type  1   force =     0.00000000    0.00000000    0.00000000
     atom    2 type  2   force =     0.00000000    0.00000000    0.00000000
     atom    3 type  3   force =     0.00000000    0.00000000    0.00000000
     The SCF correction term to forces
     atom    1 type  1   force =     0.00046336   -0.00303169    0.00201937
     atom    2 type  2   force =     0.00014549    0.00016887   -0.00018313
     atom    3 type  3   force =    -0.00035898    0.00043161    0.00026567

     Total force =     0.001523     Total SCF correction =     0.003735
     SCF correction compared to forces is large: reduce conv_thr to get better values

     Computing stress (Cartesian axis) and pressure

          total   stress  (Ry/bohr**3)                   (kbar)     P=      -82.80
  -0.00056100  -0.00000000  -0.00000000          -82.53       -0.00       -0.00
  -0.00000000  -0.00056100   0.00000000           -0.00      -82.53        0.00
   0.00000000  -0.00000000  -0.00056655            0.00       -0.00      -83.34

     kinetic stress (kbar)  24586.09      0.00     -0.00
                                0.00  24586.09      0.00
                               -0.00      0.00  24584.28

     local   stress (kbar)  -2292.75     -1.30     -0.94
                               -1.30  -2292.98      0.20
                               -0.94      0.20  -2288.84

     nonloc. stress (kbar)  10684.17     -0.00     -0.00
                               -0.00  10684.17     -0.00
                               -0.00     -0.00  10683.21

     hartree stress (kbar)  21869.52      0.66      0.61
                                0.66  21869.24     -0.17
                                0.61     -0.17  21867.33

     exc-cor stress (kbar)    784.38      0.01      0.01
                                0.01    784.39     -0.00
                                0.01     -0.00    784.36

     corecor stress (kbar)  -8280.50     -0.00     -0.00
                               -0.00  -8280.50      0.00
                               -0.00      0.00  -8280.49

     ewald   stress (kbar) -47433.19     -0.00      0.00
                               -0.00 -47433.19     -0.00
                                0.00     -0.00 -47433.19

     hubbard stress (kbar)      0.00      0.00      0.00
                                0.00      0.00      0.00
                                0.00      0.00      0.00

     DFT-D   stress (kbar)      0.00      0.00      0.00
                                0.00      0.00      0.00
                                0.00      0.00      0.00

     XDM     stress (kbar)      0.00      0.00      0.00
                                0.00      0.00      0.00
                                0.00      0.00      0.00

     dft-nl  stress (kbar)      0.00      0.00      0.00
                                0.00      0.00      0.00
                                0.00      0.00      0.00

     TS-vdW  stress (kbar)      0.00      0.00      0.00
                                0.00      0.00      0.00
                                0.00      0.00      0.00

[...]

                                0.00      0.00      0.00

     Writing all to output data dir calculations/myprefix.save/

     General routines

     Parallel routines

     PAW routines

   This run was terminated on:  21:14:47   4Mar2023

   JOB DONE.