     Program PWSCF v.7.0 starts on  3Mar2023 at  3:21:35

     R & G space division:  proc/nbgrp/npool/nimage =      32

     Reading input from espresso_13032.pwi
Warning: card &CELL ignored
Warning: card / ignored

     Current dimensions of program PWSCF are:
     Max number of different atomic species (ntypx) = 10
     Max number of k-points (npk) =  40000
     Max angular momentum in pseudopotentials (lmaxx) =  4
     file O.pbe-n-kjpaw_psl.0.1.UPF: wavefunction(s)  2P renormalized

     gamma-point specific algorithms are used

     Using Slab Decomposition

     bravais-lattice index     =            0
     lattice parameter (alat)  =      14.0421  a.u.
     unit-cell volume          =    1956.4886 (a.u.)^3
     number of atoms/cell      =           18
     number of atomic types    =            4
     number of electrons       =       152.00
     number of Kohn-Sham states=           91
     kinetic-energy cutoff     =      30.0000  Ry
     charge density cutoff     =     240.0000  Ry
     scf convergence threshold =      1.0E-06
     mixing beta               =       0.7000
     number of iterations used =            8  plain     mixing
     Exchange-correlation= SLA  PW   PBX  PBC
                           (   1   4   3   4   0   0   0)

     celldm(1)=  14.042069  celldm(2)=   0.000000  celldm(3)=   0.000000
     celldm(4)=   0.000000  celldm(5)=   0.000000  celldm(6)=   0.000000

     crystal axes: (cart. coord. in units of alat)
               a(1) = (   1.000000   0.000000   0.000000 )
               a(2) = (   0.001362   0.999999   0.000000 )
               a(3) = (  -0.498367  -0.502316   0.706617 )

     reciprocal axes: (cart. coord. in units 2 pi/alat)
               b(1) = (  1.000000 -0.001362  0.704318 )
               b(2) = (  0.000000  1.000001  0.710875 )
               b(3) = (  0.000000  0.000000  1.415193 )

     PseudoPot. # 1 for Ta read from file:
     /home/pragov/projects/rrg-bengioy-ad/pragov/crystal_structure_design/SSSP/Ta_pbe_v1.uspp.F.UPF
     MD5 check sum: f8bbe9446314a3b8ea5d9f3e3836c939
     Pseudo is Ultrasoft + core correction, Zval = 13.0
     Generated by new atomic code, or converted to UPF format
     Using radial grid of  921 points,  7 beta functions with:
                l(1) =   0
                l(2) =   0
                l(3) =   1
                l(4) =   1
                l(5) =   2
                l(6) =   2
                l(7) =   3
     Q(r) pseudized with  6 coefficients,  rinner =    1.300   1.300   1.300
                                                       1.300   1.300   1.300
                                                       1.300

     PseudoPot. # 2 for Tl read from file:
     /home/pragov/projects/rrg-bengioy-ad/pragov/crystal_structure_design/SSSP/Tl_pbe_v1.2.uspp.F.UPF
     MD5 check sum: b76cf1f7e72655a2b2c53cf6385d7059
     Pseudo is Ultrasoft + core correction, Zval = 13.0
     Generated by new atomic code, or converted to UPF format
     Using radial grid of  899 points,  6 beta functions with:
                l(1) =   0
                l(2) =   0
                l(3) =   1
                l(4) =   1
                l(5) =   2
                l(6) =   2
     Q(r) pseudized with  6 coefficients,  rinner =    1.100   1.100   1.100
                                                       1.100   1.100

     PseudoPot. # 3 for W  read from file:
     /home/pragov/projects/rrg-bengioy-ad/pragov/crystal_structure_design/SSSP/W_pbe_v1.2.uspp.F.UPF
     MD5 check sum: 9c083fa34c2a2ea0f02f1f893e16e1c8
     Pseudo is Ultrasoft + core correction, Zval = 14.0
     Generated by new atomic code, or converted to UPF format
     Using radial grid of  923 points,  8 beta functions with:
                l(1) =   0
                l(2) =   0
                l(3) =   0
                l(4) =   1
                l(5) =   1
                l(6) =   2
                l(7) =   2
                l(8) =   3
     Q(r) pseudized with  6 coefficients,  rinner =    1.350   1.350   1.350
                                                       1.350   1.350   1.350
                                                       1.350

     PseudoPot. # 4 for O  read from file:
     /home/pragov/projects/rrg-bengioy-ad/pragov/crystal_structure_design/SSSP/O.pbe-n-kjpaw_psl.0.1.UPF
     MD5 check sum: 0234752ac141de4415c5fc33072bef88
     Pseudo is Projector augmented-wave + core cor, Zval =  6.0
     Generated using "atomic" code by A. Dal Corso  v.5.0.99 svn rev. 10869
     Shape of augmentation charge: BESSEL
     Using radial grid of 1095 points,  4 beta functions with:
                l(1) =   0
                l(2) =   0
                l(3) =   1
                l(4) =   1
     Q(r) pseudized with 0 coefficients

     atomic species   valence    mass     pseudopotential
        Ta            13.00   180.94788     Ta( 1.00)
        Tl            13.00   204.38000     Tl( 1.00)
        W             14.00   183.84000     W ( 1.00)
        O              6.00    15.99900     O ( 1.00)

     No symmetry found

                                    s                        frac. trans.

      isym =  1     identity

 cryst.   s( 1) = (     1          0          0      )
                  (     0          1          0      )
                  (     0          0          1      )

 cart.    s( 1) = (  1.0000000 -0.0000000  0.0000000 )
                  (  0.0000000  1.0000000  0.0000000 )
                  (  0.0000000  0.0000000  1.0000000 )

   Cartesian axes

     site n.     atom                  positions (alat units)
         1           Ta  tau(   1) = (   0.2536489   0.7473683   0.3512179  )
         2           Ta  tau(   2) = (   0.5044652   0.4962102   0.7045266  )
         3           Tl  tau(   3) = (  -0.2472255  -0.0669316   0.4828805  )
         4           Tl  tau(   4) = (   0.8164520   0.4982922   0.1295717  )
         5           W   tau(   5) = (   0.2532811   0.2476199   0.3511740  )
         6           W   tau(   6) = (   0.0042136   0.4958974   0.7044828  )
         7           O   tau(   7) = (   0.4345572   0.1831681   0.1766678  )
         8           O   tau(   8) = (   0.0606162   0.8107834   0.1783799  )
         9           O   tau(   9) = (  -0.2427158   0.4991873   0.6206327  )
        10           O   tau(  10) = (   0.2505903   0.0031199   0.4407583  )
        11           O   tau(  11) = (   0.4404230   0.8164813   0.1742893  )
        12           O   tau(  12) = (   0.0658220   0.1881401   0.1804871  )
        13           O   tau(  13) = (   0.0684185   0.3145337   0.5299765  )
        14           O   tau(  14) = (   0.4399510  -0.3106699   0.5316887  )
        15           O   tau(  15) = (   0.7457225   0.0005723   0.0874496  )
        16           O   tau(  16) = (   0.2503265   0.4945536   0.2673240  )
        17           O   tau(  17) = (   0.0625867  -0.3167238   0.5337958  )
        18           O   tau(  18) = (   0.4350979   0.3095315   0.5275981  )

   Crystallographic axes

     site n.     atom                  positions (cryst. coord.)
         1           Ta  tau(   1) = (  0.5000000  0.9970410  0.4970410  )
         2           Ta  tau(   2) = (  1.0000000  0.9970410  0.9970410  )
         3           Tl  tau(   3) = (  0.0929670  0.2763360  0.6833690  )
         4           Tl  tau(   4) = (  0.9070330  0.5904020  0.1833690  )
         5           W   tau(   5) = (  0.5002820  0.4972610  0.4969790  )
         6           W   tau(   6) = (  0.4997180  0.9966970  0.9969790  )
         7           O   tau(   7) = (  0.5587380  0.3087570  0.2500190  )
         8           O   tau(   8) = (  0.1851480  0.9375900  0.2524420  )
         9           O   tau(   9) = (  0.1937270  0.9403800  0.8783150  )
        10           O   tau(  10) = (  0.5610200  0.3164440  0.6237580  )
        11           O   tau(  11) = (  0.5620660  0.9403800  0.2466530  )
        12           O   tau(  12) = (  0.1926860  0.3164440  0.2554240  )
        13           O   tau(  13) = (  0.4412620  0.6912810  0.7500190  )
        14           O   tau(  14) = (  0.8148520  0.0672940  0.7524420  )
        15           O   tau(  15) = (  0.8073140  0.0627380  0.1237580  )
        16           O   tau(  16) = (  0.4379340  0.6845880  0.3783150  )
        17           O   tau(  17) = (  0.4389800  0.0627380  0.7554240  )
        18           O   tau(  18) = (  0.8062730  0.6845880  0.7466530  )

     number of k points=     1  Methfessel-Paxton smearing, width (Ry)=  0.0010
                       cart. coord. in units 2pi/alat
        k(    1) = (   0.0000000   0.0000000   0.0000000), wk =   2.0000000

                       cryst. coord.
        k(    1) = (   0.0000000   0.0000000   0.0000000), wk =   2.0000000

     Check: negative core charge=   -0.000009

     Initial potential from superposition of free atoms

     starting charge     151.7873, renormalised to     152.0000

     negative rho (up, down):  4.187E-01 0.000E+00
     Starting wfcs are  118 randomized atomic wfcs
     Checking if some PAW data can be deallocated...

     Self-consistent Calculation

     iteration #  1     ecut=    30.00 Ry     beta= 0.70
     Davidson diagonalization with overlap

     ethr =  1.00E-02,  avg # of iterations =  4.0

     negative rho (up, down):  4.081E-01 0.000E+00

     total energy              =   -1388.72477248 Ry
     estimated scf accuracy    <       6.98198335 Ry

[...]

     total energy              =   -1392.49028946 Ry
     estimated scf accuracy    <       0.00000883 Ry

     iteration # 12     ecut=    30.00 Ry     beta= 0.70
     Davidson diagonalization with overlap

     ethr =  5.23E-09,  avg # of iterations =  2.0

[...]

     End of self-consistent calculation

          k = 0.0000 0.0000 0.0000 (  2743 PWs)   bands (ev):

   -68.6452 -68.6428 -61.6016 -61.5732 -32.8702 -32.8244 -32.8228 -32.7669
   -32.7463 -32.0196 -28.1348 -28.1127 -28.0676 -28.0199 -27.9501 -27.0704
   -12.7340 -11.7855 -11.7050 -11.2445 -11.1725 -11.1116 -10.8100 -10.2224
    -9.9515  -9.8744  -9.8655  -9.7146  -3.2017  -3.1940  -3.1751  -3.1687
    -3.1606  -3.1467  -3.1168  -3.1167  -3.0711  -3.0618  -0.0237   0.4540
     0.5344   0.5487   0.6334   0.8166   1.1006   1.3445   1.4259   1.4449
     2.8390   3.0483   3.7191   3.7614   3.8030   3.9233   3.9646   4.1022
     4.1324   4.1533   4.2022   4.3002   4.5031   4.5808   4.6383   4.6652
     4.7258   4.8164   4.8746   4.9454   5.1392   5.1595   5.2675   5.3456
     5.3836   5.4377   5.4394   5.4703   8.6818   8.8114   8.9917   9.1290
     9.5467   9.6472   9.9593  10.1986  10.3410  10.7068  11.0809  11.1663
    11.7679  11.9215  12.0161

     occupation numbers
     1.0000   1.0000   1.0000   1.0000   1.0000   1.0000   1.0000   1.0000
     1.0000   1.0000   1.0000   1.0000   1.0000   1.0000   1.0000   1.0000
     1.0000   1.0000   1.0000   1.0000   1.0000   1.0000   1.0000   1.0000
     1.0000   1.0000   1.0000   1.0000   1.0000   1.0000   1.0000   1.0000
     1.0000   1.0000   1.0000   1.0000   1.0000   1.0000   1.0000   1.0000
     1.0000   1.0000   1.0000   1.0000   1.0000   1.0000   1.0000   1.0000
     1.0000   1.0000   1.0000   1.0000   1.0000   1.0000   1.0000   1.0000
     1.0000   1.0000   1.0000   1.0000   1.0000   1.0000   1.0000   1.0000
     1.0000   1.0000   1.0000   1.0000   1.0000   1.0000   1.0000   1.0000
     1.0000   1.0000   1.0000   1.0000  -0.0000  -0.0000  -0.0000  -0.0000
    -0.0000  -0.0000  -0.0000  -0.0000  -0.0000  -0.0000  -0.0000  -0.0000
    -0.0000  -0.0000  -0.0000

     the Fermi energy is     7.0938 ev

!    total energy              =   -1392.49029022 Ry
     estimated scf accuracy    <       0.00000057 Ry
     smearing contrib. (-TS)   =       0.00000000 Ry
     internal energy E=F+TS    =   -1392.49029022 Ry

     The total energy is F=E-TS. E is the sum of the following terms:
     one-electron contribution =    -577.59075030 Ry
     hartree contribution      =     362.08422648 Ry
     xc contribution           =    -379.52397797 Ry
     ewald contribution        =    -683.21739363 Ry
     one-center paw contrib.   =    -114.24239481 Ry
      -> PAW hartree energy AE =       0.00000000 Ry
      -> PAW hartree energy PS =       0.00000000 Ry
      -> PAW xc energy AE      =       0.00000000 Ry
      -> PAW xc energy PS      =       0.00000000 Ry
      -> total E_H with PAW    =     362.08422648 Ry
      -> total E_XC with PAW   =    -379.52397797 Ry

     convergence has been achieved in  12 iterations

     negative rho (up, down):  4.063E-01 0.000E+00

     Forces acting on atoms (cartesian axes, Ry/au):

     atom    1 type  1   force =     0.01567391   -0.01562209   -0.02214855
     atom    2 type  1   force =     0.01646090   -0.01652141   -0.02352478
     atom    3 type  2   force =    -0.00452042    0.00157406    0.00099316
     atom    4 type  2   force =     0.00060927    0.00203861    0.00442192
     atom    5 type  3   force =     0.01542581   -0.01511745   -0.02354209
     atom    6 type  3   force =     0.01661467   -0.01684584   -0.02171484
     atom    7 type  4   force =     0.00641012   -0.00086083    0.02285589
     atom    8 type  4   force =    -0.00609972    0.01694361    0.02321098
     atom    9 type  4   force =    -0.01577449   -0.01057331    0.00539849
     atom   10 type  4   force =     0.01407093    0.02304703   -0.00316149
     atom   11 type  4   force =     0.00613334    0.02728686   -0.00422137
     atom   12 type  4   force =    -0.01632506   -0.00872437   -0.00017592
     atom   13 type  4   force =    -0.01900887    0.01335557   -0.00506084
     atom   14 type  4   force =    -0.02176152    0.01103000    0.01639296
     atom   15 type  4   force =     0.01264612    0.01244089    0.00534771
     atom   16 type  4   force =    -0.01365243   -0.01968893    0.01492112
     atom   17 type  4   force =    -0.01628449   -0.02076419    0.00634769
     atom   18 type  4   force =     0.00938192    0.01700180    0.00365997
     The non-local contrib.  to forces
     atom    1 type  1   force =     0.00453867   -0.00457354   -0.00636849
     atom    2 type  1   force =     0.00508779   -0.00513957   -0.00731378
     atom    3 type  2   force =     0.00183536   -0.05350826   -0.03531368
     atom    4 type  2   force =     0.05050504    0.00081564   -0.03918001
     atom    5 type  3   force =    -0.00126013    0.00590425    0.00360081
     atom    6 type  3   force =    -0.00466896   -0.00007443    0.00487900
     atom    7 type  4   force =    -0.39753413   -0.32199626    0.06560268
     atom    8 type  4   force =     0.27519551    0.23833833   -0.02416102
     atom    9 type  4   force =     0.12499917   -0.02478133    0.40500350
     atom   10 type  4   force =     0.05447140    0.20339563   -0.44667187
     atom   11 type  4   force =    -0.24187245    0.39486661   -0.11018358
     atom   12 type  4   force =     0.38117093   -0.18186978    0.09615656
     atom   13 type  4   force =     0.31397826    0.40584091    0.05329961
     atom   14 type  4   force =    -0.23995824   -0.27356295   -0.02590721
     atom   15 type  4   force =    -0.16911113   -0.03042456   -0.39745199
     atom   16 type  4   force =     0.00297461   -0.15570436    0.44991498
     atom   17 type  4   force =     0.18711551   -0.44526456    0.10330538
     atom   18 type  4   force =    -0.33670501    0.23672081   -0.10397274
     The ionic contribution  to forces
     atom    1 type  1   force =     0.94513097   -0.94633562   -1.34371076
     atom    2 type  1   force =     0.94507952   -0.94636023   -1.34365680
     atom    3 type  2   force =     0.50715859    5.45742608    3.51952174
     atom    4 type  2   force =    -5.45812000   -0.49972526    3.51950311
     atom    5 type  3   force =     1.00112433    0.86268009   -0.09742184
     atom    6 type  3   force =    -0.86408126   -0.99988140   -0.09742955
     atom    7 type  4   force =     8.07996428    7.94496163   -0.08815868
     atom    8 type  4   force =    -5.75671684   -6.43678297   -0.48900836
     atom    9 type  4   force =    -1.75567352   -1.29419314  -10.57118322
     atom   10 type  4   force =    -0.65502091   -1.65682845    9.45969725
     atom   11 type  4   force =     5.94468947   -9.00513188    0.27595986
     atom   12 type  4   force =    -7.84308140    5.54102481   -0.66565785
     atom   13 type  4   force =    -7.95595421   -8.06914685   -0.08816008
     atom   14 type  4   force =     6.44462158    5.74795558   -0.48901319
     atom   15 type  4   force =     1.65772309    0.65277422    9.45970105
     atom   16 type  4   force =     1.29652393    1.75391417  -10.57119005
     atom   17 type  4   force =    -5.53034654    7.85063123   -0.66565019
     atom   18 type  4   force =     8.99697891   -5.95698200    0.27585757
     The local contribution  to forces
     atom    1 type  1   force =    -0.93397740    0.93509719    1.32808180
     atom    2 type  1   force =    -0.93391382    0.93495890    1.32732408
     atom    3 type  2   force =    -0.51233075   -5.40372381   -3.48498075
     atom    4 type  2   force =     5.40982765    0.49998107   -3.47791207
     atom    5 type  3   force =    -0.98551916   -0.88298924    0.07101309
     atom    6 type  3   force =     0.88574342    0.98248187    0.07100219
     atom    7 type  4   force =    -7.68033376   -7.62547873    0.04731365
     atom    8 type  4   force =     5.47650973    6.21779218    0.53691740
     atom    9 type  4   force =     1.61515247    1.30888313   10.17603416
     atom   10 type  4   force =     0.61380120    1.47970211   -9.01827086
     atom   11 type  4   force =    -5.69940523    8.64138798   -0.17024153
     atom   12 type  4   force =     7.44809126   -5.36835580    0.57173115
     atom   13 type  4   force =     7.62502298    7.68063434    0.03120747
     atom   14 type  4   force =    -6.22864094   -5.46481970    0.53228093
     atom   15 type  4   force =    -1.47832023   -0.60938484   -9.05921698
     atom   16 type  4   force =    -1.31365193   -1.61894454   10.14106613
     atom   17 type  4   force =     5.32742080   -7.42874976    0.57114004
     atom   18 type  4   force =    -8.65487063    5.73998941   -0.16818637
     The core correction contribution to forces
     atom    1 type  1   force =    -0.00079191    0.00079826    0.00114025
     atom    2 type  1   force =    -0.00073946    0.00073241    0.00103694
     atom    3 type  2   force =    -0.00197773    0.00241379    0.00307110
     atom    4 type  2   force =    -0.00237738    0.00195013    0.00311283
     atom    5 type  3   force =    -0.00025762    0.00045851    0.00130373
     atom    6 type  3   force =    -0.00099829    0.00080264    0.00050892
     atom    7 type  4   force =     0.00330278    0.00269068   -0.00046955
     atom    8 type  4   force =    -0.00206108   -0.00140471    0.00039412
     atom    9 type  4   force =    -0.00150870    0.00025634   -0.00324994
     atom   10 type  4   force =    -0.00020103   -0.00202689    0.00339135
     atom   11 type  4   force =     0.00185133   -0.00311885    0.00137715
     atom   12 type  4   force =    -0.00342021    0.00125764   -0.00109740
     atom   13 type  4   force =    -0.00267029   -0.00332643   -0.00043139
     atom   14 type  4   force =     0.00145713    0.00200880    0.00046412
     atom   15 type  4   force =     0.00186905    0.00029481    0.00329914
     atom   16 type  4   force =    -0.00035185    0.00161816   -0.00351084
     atom   17 type  4   force =    -0.00128819    0.00351765   -0.00127576
     atom   18 type  4   force =     0.00292732   -0.00167620    0.00123191
     The Hubbard contrib.    to forces
     atom    1 type  1   force =     0.00000000    0.00000000    0.00000000
     atom    2 type  1   force =     0.00000000    0.00000000    0.00000000
     atom    3 type  2   force =     0.00000000    0.00000000    0.00000000
     atom    4 type  2   force =     0.00000000    0.00000000    0.00000000
     atom    5 type  3   force =     0.00000000    0.00000000    0.00000000
     atom    6 type  3   force =     0.00000000    0.00000000    0.00000000
     atom    7 type  4   force =     0.00000000    0.00000000    0.00000000
     atom    8 type  4   force =     0.00000000    0.00000000    0.00000000
     atom    9 type  4   force =     0.00000000    0.00000000    0.00000000
     atom   10 type  4   force =     0.00000000    0.00000000    0.00000000
     atom   11 type  4   force =     0.00000000    0.00000000    0.00000000
     atom   12 type  4   force =     0.00000000    0.00000000    0.00000000
     atom   13 type  4   force =     0.00000000    0.00000000    0.00000000
     atom   14 type  4   force =     0.00000000    0.00000000    0.00000000
     atom   15 type  4   force =     0.00000000    0.00000000    0.00000000
     atom   16 type  4   force =     0.00000000    0.00000000    0.00000000
     atom   17 type  4   force =     0.00000000    0.00000000    0.00000000
     atom   18 type  4   force =     0.00000000    0.00000000    0.00000000
     The SCF correction term to forces
     atom    1 type  1   force =    -0.00008449    0.00022564   -0.00006490
     atom    2 type  1   force =     0.00008880    0.00012108    0.00031124
     atom    3 type  2   force =    -0.00006397   -0.00019973   -0.00007878
     atom    4 type  2   force =    -0.00008411   -0.00014895    0.00012451
     atom    5 type  3   force =     0.00048032   -0.00033703   -0.00081143
     atom    6 type  3   force =    -0.00023831    0.00065949    0.00055106
     atom    7 type  4   force =     0.00015287   -0.00020415   -0.00020575
     atom    8 type  4   force =     0.00011490   -0.00016521    0.00029529
     atom    9 type  4   force =     0.00039801    0.00009570    0.00002044
     atom   10 type  4   force =     0.00016218   -0.00036134   -0.00008091
     atom   11 type  4   force =     0.00001216    0.00011701    0.00009318
     atom   12 type  4   force =     0.00005628    0.00005279   -0.00008193
     atom   13 type  4   force =    -0.00024367    0.00018762    0.00025000
     atom   14 type  4   force =    -0.00009912    0.00028228   -0.00020522
     atom   15 type  4   force =    -0.00037273    0.00001526    0.00024295
     atom   16 type  4   force =    -0.00000526    0.00026165   -0.00013264
     atom   17 type  4   force =    -0.00004413   -0.00006473    0.00005468
     atom   18 type  4   force =     0.00019325   -0.00021619   -0.00004393

     Total force =     0.107577     Total SCF correction =     0.001829

     Computing stress (Cartesian axis) and pressure

     negative rho (up, down):  4.063E-01 0.000E+00
          total   stress  (Ry/bohr**3)                   (kbar)     P=     -298.75
  -0.00197248  -0.00006121  -0.00002170         -290.16       -9.00       -3.19
  -0.00006121  -0.00213057   0.00013305           -9.00     -313.42       19.57
  -0.00002170   0.00013305  -0.00198946           -3.19       19.57     -292.66

     kinetic stress (kbar)  20239.91     16.58     20.01
                               16.58  20238.73    -19.27
                               20.01    -19.27  20222.49

     local   stress (kbar)  -5768.57    432.82  -1900.87
                              432.82  -5783.73   1913.04
                            -1900.87   1913.04  -6184.00

     nonloc. stress (kbar)   -846.09     -7.59     -2.70
                               -7.59   -849.89      5.40
                               -2.70      5.40   -840.35

     hartree stress (kbar)   9013.74   -198.93    803.39
                             -198.93   9010.31   -801.42
                              803.39   -801.42   9200.45

     exc-cor stress (kbar)  10197.24      0.36      1.10
                                0.36  10197.38     -1.20
                                1.10     -1.20  10196.94

     corecor stress (kbar) -15923.89     -1.56     -2.08
                               -1.56 -15924.39      2.44
                               -2.08      2.44 -15922.55

     ewald   stress (kbar) -17202.50   -250.68   1077.97
                             -250.68 -17201.83  -1079.43
                             1077.97  -1079.43 -16965.63

     hubbard stress (kbar)      0.00      0.00      0.00
                                0.00      0.00      0.00
                                0.00      0.00      0.00

     DFT-D   stress (kbar)      0.00      0.00      0.00
                                0.00      0.00      0.00
                                0.00      0.00      0.00

     XDM     stress (kbar)      0.00      0.00      0.00
                                0.00      0.00      0.00
                                0.00      0.00      0.00

     dft-nl  stress (kbar)      0.00      0.00      0.00
                                0.00      0.00      0.00
                                0.00      0.00      0.00

     TS-vdW  stress (kbar)      0.00      0.00      0.00
                                0.00      0.00      0.00
                                0.00      0.00      0.00

[...]

                                0.00      0.00      0.00

     Writing all to output data dir calculations/myprefix.save/

     General routines

     Parallel routines

     PAW routines

   This run was terminated on:   3:21:48   3Mar2023

   JOB DONE.