     Program PWSCF v.7.0 starts on  3Mar2023 at 14:24: 7

     R & G space division:  proc/nbgrp/npool/nimage =      32

     Reading input from espresso_591.pwi
Warning: card &CELL ignored
Warning: card / ignored

     Current dimensions of program PWSCF are:
     Max number of different atomic species (ntypx) = 10
     Max number of k-points (npk) =  40000
     Max angular momentum in pseudopotentials (lmaxx) =  4
     file Ba.pbe-spn-kjpaw_psl.1.0.0.UPF: wavefunction(s)  5S 6S renormalized
     file O.pbe-n-kjpaw_psl.0.1.UPF: wavefunction(s)  2P renormalized

     gamma-point specific algorithms are used
     Message from routine setup:
     using ibrav=0 with symmetry is DISCOURAGED, use correct ibrav instead

     Using Slab Decomposition

     bravais-lattice index     =            0
     lattice parameter (alat)  =      11.9355  a.u.
     unit-cell volume          =    1780.2400 (a.u.)^3
     number of atoms/cell      =           14
     number of atomic types    =            3
     number of electrons       =       112.00
     number of Kohn-Sham states=           67
     kinetic-energy cutoff     =      30.0000  Ry
     charge density cutoff     =     240.0000  Ry
     scf convergence threshold =      1.0E-06
     mixing beta               =       0.7000
     number of iterations used =            8  plain     mixing
     Exchange-correlation= SLA  PW   PBX  PBC
                           (   1   4   3   4   0   0   0)

     celldm(1)=  11.935459  celldm(2)=   0.000000  celldm(3)=   0.000000
     celldm(4)=   0.000000  celldm(5)=   0.000000  celldm(6)=   0.000000

     crystal axes: (cart. coord. in units of alat)
               a(1) = (   1.000000   0.000000   0.000000 )
               a(2) = (  -0.832258   0.554389   0.000000 )
               a(3) = (   0.000000   0.000000   1.888630 )

     reciprocal axes: (cart. coord. in units 2 pi/alat)
               b(1) = (  1.000000  1.501218  0.000000 )
               b(2) = (  0.000000  1.803789  0.000000 )
               b(3) = (  0.000000  0.000000  0.529484 )

     PseudoPot. # 1 for Ba read from file:
     /home/pragov/projects/rrg-bengioy-ad/pragov/crystal_structure_design/SSSP/Ba.pbe-spn-kjpaw_psl.1.0.0.UPF
     MD5 check sum: c432291d3e53af55f19d5e8866385beb
     Pseudo is Projector augmented-wave + core cor, Zval = 10.0
     Generated using "atomic" code by A. Dal Corso  v.5.1
     Shape of augmentation charge: PSQ
     Using radial grid of 1251 points,  7 beta functions with:
                l(1) =   0
                l(2) =   0
                l(3) =   0
                l(4) =   1
                l(5) =   1
                l(6) =   2
                l(7) =   2
     Q(r) pseudized with 0 coefficients

     PseudoPot. # 2 for La read from file:
     /home/pragov/projects/rrg-bengioy-ad/pragov/crystal_structure_design/SSSP/La.GGA-PBE-paw-v1.0.UPF
     MD5 check sum: 436541e95c1ad8901025bd0b0ed42ae2
     Pseudo is Projector augmented-wave + core cor, Zval = 11.0
     Generated using ATOMPAW code
     Shape of augmentation charge: BESSEL
     Using radial grid of 1101 points,  8 beta functions with:
                l(1) =   0
                l(2) =   0
                l(3) =   1
                l(4) =   1
                l(5) =   2
                l(6) =   2
                l(7) =   3
                l(8) =   3
     Q(r) pseudized with 0 coefficients

     PseudoPot. # 3 for O  read from file:
     /home/pragov/projects/rrg-bengioy-ad/pragov/crystal_structure_design/SSSP/O.pbe-n-kjpaw_psl.0.1.UPF
     MD5 check sum: 0234752ac141de4415c5fc33072bef88
     Pseudo is Projector augmented-wave + core cor, Zval =  6.0
     Generated using "atomic" code by A. Dal Corso  v.5.0.99 svn rev. 10869
     Shape of augmentation charge: BESSEL
     Using radial grid of 1095 points,  4 beta functions with:
                l(1) =   0
                l(2) =   0
                l(3) =   1
                l(4) =   1
     Q(r) pseudized with 0 coefficients

     atomic species   valence    mass     pseudopotential
        Ba            10.00   137.32700     Ba( 1.00)
        La            11.00   138.90547     La( 1.00)
        O              6.00    15.99900     O ( 1.00)

      4 Sym. Ops., with inversion, found ( 2 have fractional translation)

                                    s                        frac. trans.

      isym =  1     identity

 cryst.   s( 1) = (     1          0          0      )
                  (     0          1          0      )
                  (     0          0          1      )

 cart.    s( 1) = (  1.0000000  0.0000000  0.0000000 )
                  (  0.0000000  1.0000000  0.0000000 )
                  (  0.0000000  0.0000000  1.0000000 )

      isym =  2     180 deg rotation - cart. axis [0,0,1]

 cryst.   s( 2) = (    -1          0          0      )    f =( -0.0000000 )
                  (     0         -1          0      )       ( -0.0000000 )
                  (     0          0          1      )       ( -0.5000000 )

 cart.    s( 2) = ( -1.0000000 -0.0000000  0.0000000 )    f =(  0.0000000 )
                  (  0.0000000 -1.0000000  0.0000000 )       ( -0.0000000 )
                  (  0.0000000  0.0000000  1.0000000 )       ( -0.9443150 )

      isym =  3     inversion

 cryst.   s( 3) = (    -1          0          0      )
                  (     0         -1          0      )
                  (     0          0         -1      )

 cart.    s( 3) = ( -1.0000000 -0.0000000  0.0000000 )
                  (  0.0000000 -1.0000000  0.0000000 )
                  (  0.0000000  0.0000000 -1.0000000 )

      isym =  4     inv. 180 deg rotation - cart. axis [0,0,1]

 cryst.   s( 4) = (     1          0          0      )    f =(  0.0000000 )
                  (     0          1          0      )       (  0.0000000 )
                  (     0          0         -1      )       (  0.5000000 )

 cart.    s( 4) = (  1.0000000  0.0000000  0.0000000 )    f =(  0.0000000 )
                  (  0.0000000  1.0000000  0.0000000 )       (  0.0000000 )
                  (  0.0000000  0.0000000 -1.0000000 )       (  0.9443150 )

   Cartesian axes

     site n.     atom                  positions (alat units)
         1           Ba  tau(   1) = (   0.7982959   0.0610299   0.4721575  )
         2           Ba  tau(   2) = (  -0.6305538   0.4933587   1.4164725  )
         3           La  tau(   3) = (   0.3290216   0.2030188   0.8073345  )
         4           La  tau(   4) = (   0.3290216   0.2030188   0.1369804  )
         5           La  tau(   5) = (  -0.1612796   0.3513698   1.0812954  )
         6           La  tau(   6) = (  -0.1612796   0.3513698   1.7516495  )
         7           O   tau(   7) = (   0.0000000   0.0000000   0.0000000  )
         8           O   tau(   8) = (   0.0000000   0.0000000   0.9443150  )
         9           O   tau(   9) = (   0.1680358   0.2517285   0.4721575  )
        10           O   tau(  10) = (   0.5183269   0.1457404   1.1408175  )
        11           O   tau(  11) = (   0.5183269   0.1457404   1.6921275  )
        12           O   tau(  12) = (  -0.0002937   0.3026601   1.4164725  )
        13           O   tau(  13) = (  -0.3505848   0.4086481   0.7478125  )
        14           O   tau(  14) = (  -0.3505848   0.4086481   0.1965025  )

   Crystallographic axes

     site n.     atom                  positions (cryst. coord.)
         1           Ba  tau(   1) = (  0.8899150  0.1100850  0.2500000  )
         2           Ba  tau(   2) = (  0.1100850  0.8899150  0.7500000  )
         3           La  tau(   3) = (  0.6337970  0.3662030  0.4274710  )
         4           La  tau(   4) = (  0.6337970  0.3662030  0.0725290  )
         5           La  tau(   5) = (  0.3662030  0.6337970  0.5725290  )
         6           La  tau(   6) = (  0.3662030  0.6337970  0.9274710  )
         7           O   tau(   7) = (  0.0000000  0.0000000  0.0000000  )
         8           O   tau(   8) = (  0.0000000  0.0000000  0.5000000  )
         9           O   tau(   9) = (  0.5459350  0.4540650  0.2500000  )
        10           O   tau(  10) = (  0.7371150  0.2628850  0.6040450  )
        11           O   tau(  11) = (  0.7371150  0.2628850  0.8959550  )
        12           O   tau(  12) = (  0.4540650  0.5459350  0.7500000  )
        13           O   tau(  13) = (  0.2628850  0.7371150  0.3959550  )
        14           O   tau(  14) = (  0.2628850  0.7371150  0.1040450  )

     number of k points=     1  Methfessel-Paxton smearing, width (Ry)=  0.0010
                       cart. coord. in units 2pi/alat
        k(    1) = (   0.0000000   0.0000000   0.0000000), wk =   2.0000000

                       cryst. coord.
        k(    1) = (   0.0000000   0.0000000   0.0000000), wk =   2.0000000

     Check: negative core charge=   -0.000009

     Initial potential from superposition of free atoms

     starting charge     111.9319, renormalised to     112.0000
     Starting wfcs are  170 randomized atomic wfcs
     Checking if some PAW data can be deallocated...

     Self-consistent Calculation

     iteration #  1     ecut=    30.00 Ry     beta= 0.70
     Davidson diagonalization with overlap

     ethr =  1.00E-02,  avg # of iterations =  2.0

     negative rho (up, down):  2.896E-03 0.000E+00

     total energy              =   -3037.49788378 Ry
     estimated scf accuracy    <       4.52384944 Ry

[...]

     negative rho (up, down):  3.495E-05 0.000E+00

[...]

     c_bands:  1 eigenvalues not converged
     ethr =  7.17E-06,  avg # of iterations = 20.0

[...]

     total energy              =   -3039.94888455 Ry
     estimated scf accuracy    <       0.00000469 Ry

     iteration # 28     ecut=    30.00 Ry     beta= 0.70
     Davidson diagonalization with overlap

     ethr =  4.18E-09,  avg # of iterations =  2.0

     End of self-consistent calculation

          k = 0.0000 0.0000 0.0000 (  2464 PWs)   bands (ev):

   -21.1830 -21.1644 -21.0297 -21.0110 -16.9550 -16.9522  -8.4538  -8.2572
    -7.7893  -7.6741  -7.6646  -7.5106  -7.2703  -6.8485  -4.8120  -4.7880
    -4.4711  -4.4547  -4.4073  -4.3906  -4.3131  -4.2630  -4.1048  -3.6731
    -3.6401  -3.4331  -2.2287  -2.1427  -1.8609  -1.7434  -1.5402  -1.5391
     6.1527   6.5066   6.5201   6.7417   6.7801   6.8568   6.9880   7.0957
     7.1081   7.1877   7.2333   7.3347   7.3538   7.4599   7.6803   7.8417
     7.9853   7.9883   8.0518   8.0644   8.0652   8.1525   8.3141   8.6409
    12.2606  12.4744  12.7203  12.7762  13.2584  13.3867  13.4465  13.4811
    13.6065  13.7455  13.7754

     occupation numbers
     1.0000   1.0000   1.0000   1.0000   1.0000   1.0000   1.0000   1.0000
     1.0000   1.0000   1.0000   1.0000   1.0000   1.0000   1.0000   1.0000
     1.0000   1.0000   1.0000   1.0000   1.0000   1.0000   1.0000   1.0000
     1.0000   1.0000   1.0000   1.0000   1.0000   1.0000   1.0000   1.0000
     1.0000   1.0000   1.0000   1.0000   1.0000   1.0000   1.0000   1.0000
     1.0000   1.0000   1.0000   1.0000   1.0000   1.0000   1.0000   1.0000
     1.0000   1.0000   1.0000   1.0000   1.0000   1.0000   1.0000   1.0000
    -0.0000  -0.0000  -0.0000  -0.0000  -0.0000  -0.0000  -0.0000  -0.0000
    -0.0000  -0.0000  -0.0000

     the Fermi energy is     9.5077 ev

!    total energy              =   -3039.94888445 Ry

     total all-electron energy =    -35580.910261 Ry
     estimated scf accuracy    <       0.00000071 Ry
     smearing contrib. (-TS)   =       0.00000000 Ry
     internal energy E=F+TS    =   -3039.94888445 Ry

     The total energy is F=E-TS. E is the sum of the following terms:
     one-electron contribution =     -89.51015426 Ry
     hartree contribution      =     120.46545500 Ry
     xc contribution           =    -135.92863911 Ry
     ewald contribution        =    -516.35929656 Ry
     one-center paw contrib.   =   -2418.61624951 Ry
      -> PAW hartree energy AE =      29.12904398 Ry
      -> PAW hartree energy PS =     -29.01882393 Ry
      -> PAW xc energy AE      =    -394.30178836 Ry
      -> PAW xc energy PS      =      19.22853785 Ry
      -> total E_H with PAW    =     120.57567505 Ry
      -> total E_XC with PAW   =    -511.00188963 Ry

     convergence has been achieved in  28 iterations

     Forces acting on atoms (cartesian axes, Ry/au):

     atom    1 type  1   force =     0.06998475   -0.02112721    0.00000000
     atom    2 type  1   force =    -0.06998475    0.02112721    0.00000000
     atom    3 type  2   force =     0.04002486   -0.01211483    0.00472787
     atom    4 type  2   force =     0.04002486   -0.01211483   -0.00472787
     atom    5 type  2   force =    -0.04002486    0.01211483   -0.00472787
     atom    6 type  2   force =    -0.04002486    0.01211483    0.00472787
     atom    7 type  3   force =     0.00000000    0.00000000    0.00000000
     atom    8 type  3   force =     0.00000000    0.00000000    0.00000000
     atom    9 type  3   force =    -0.07690187    0.02326832    0.00000000
     atom   10 type  3   force =     0.09768864   -0.02955767   -0.00570421
     atom   11 type  3   force =     0.09768864   -0.02955767    0.00570421
     atom   12 type  3   force =     0.07690187   -0.02326832    0.00000000
     atom   13 type  3   force =    -0.09768864    0.02955767    0.00570421
     atom   14 type  3   force =    -0.09768864    0.02955767   -0.00570421
     The non-local contrib.  to forces
     atom    1 type  1   force =    -0.02201257    0.00666978    0.00000000
     atom    2 type  1   force =     0.02201257   -0.00666978    0.00000000
     atom    3 type  2   force =    -0.01923772    0.00582252    0.02362665
     atom    4 type  2   force =    -0.01923772    0.00582252   -0.02362665
     atom    5 type  2   force =     0.01923772   -0.00582252   -0.02362665
     atom    6 type  2   force =     0.01923772   -0.00582252    0.02362665
     atom    7 type  3   force =     0.00000000    0.00000000    0.00000000
     atom    8 type  3   force =     0.00000000    0.00000000    0.00000000
     atom    9 type  3   force =     0.06035793   -0.01826210    0.00000000
     atom   10 type  3   force =     0.05910754   -0.01788742   -0.12166550
     atom   11 type  3   force =     0.05910754   -0.01788742    0.12166550
     atom   12 type  3   force =    -0.06035793    0.01826210   -0.00000000
     atom   13 type  3   force =    -0.05910754    0.01788742    0.12166550
     atom   14 type  3   force =    -0.05910754    0.01788742   -0.12166550
     The ionic contribution  to forces
     atom    1 type  1   force =    -0.75372168    0.22805451   -0.00000000
     atom    2 type  1   force =     0.75372169   -0.22805451   -0.00000000
     atom    3 type  2   force =    -1.67033879    0.50539650   -1.64563199
     atom    4 type  2   force =    -1.67033879    0.50539650    1.64563199
     atom    5 type  2   force =     1.67033879   -0.50539649    1.64563199
     atom    6 type  2   force =     1.67033879   -0.50539649   -1.64563199
     atom    7 type  3   force =     0.00000000   -0.00000000    0.00000000
     atom    8 type  3   force =     0.00000000   -0.00000000   -0.00000000
     atom    9 type  3   force =    -0.67053448    0.20288446    0.00000000
     atom   10 type  3   force =    -1.61960648    0.49004636    3.99259156
     atom   11 type  3   force =    -1.61960648    0.49004636   -3.99259156
     atom   12 type  3   force =     0.67053448   -0.20288446   -0.00000000
     atom   13 type  3   force =     1.61960648   -0.49004636   -3.99259156
     atom   14 type  3   force =     1.61960648   -0.49004636    3.99259156
     The local contribution  to forces
     atom    1 type  1   force =     0.84622093   -0.25667253   -0.00068140
     atom    2 type  1   force =    -0.84662591    0.25545274    0.00073809
     atom    3 type  2   force =     1.72954601   -0.52331840    1.62642312
     atom    4 type  2   force =     1.72956359   -0.52332700   -1.62652165
     atom    5 type  2   force =    -1.72948501    0.52330018   -1.62709500
     atom    6 type  2   force =    -1.72953629    0.52331662    1.62719803
     atom    7 type  3   force =    -0.00001100    0.00002012    0.00016816
     atom    8 type  3   force =    -0.00004506    0.00000893   -0.00012437
     atom    9 type  3   force =     0.53381185   -0.16152116    0.00000406
     atom   10 type  3   force =     1.65846718   -0.50179006   -3.87731523
     atom   11 type  3   force =     1.65843233   -0.50179955    3.87736083
     atom   12 type  3   force =    -0.53382469    0.16151645    0.00003310
     atom   13 type  3   force =    -1.65837668    0.50176935    3.87707759
     atom   14 type  3   force =    -1.65837274    0.50176732   -3.87705882
     The core correction contribution to forces
     atom    1 type  1   force =    -0.00067925    0.00018776   -0.00002034
     atom    2 type  1   force =     0.00066726   -0.00021593    0.00001403
     atom    3 type  2   force =     0.00002431   -0.00000736   -0.00001424
     atom    4 type  2   force =     0.00002428   -0.00000735    0.00001421
     atom    5 type  2   force =    -0.00002431    0.00000736    0.00001411
     atom    6 type  2   force =    -0.00002429    0.00000736   -0.00001406
     atom    7 type  3   force =     0.00000005    0.00000023   -0.00000091
     atom    8 type  3   force =    -0.00000036    0.00000008    0.00000097
     atom    9 type  3   force =    -0.00055656    0.00016831    0.00000051
     atom   10 type  3   force =    -0.00022139    0.00006738    0.00055503
     atom   11 type  3   force =    -0.00022133    0.00006666   -0.00055471
     atom   12 type  3   force =     0.00055620   -0.00016836    0.00000023
     atom   13 type  3   force =     0.00022104   -0.00006692   -0.00055321
     atom   14 type  3   force =     0.00022096   -0.00006694    0.00055450
     The Hubbard contrib.    to forces
     atom    1 type  1   force =     0.00000000    0.00000000    0.00000000
     atom    2 type  1   force =     0.00000000    0.00000000    0.00000000
     atom    3 type  2   force =     0.00000000    0.00000000    0.00000000
     atom    4 type  2   force =     0.00000000    0.00000000    0.00000000
     atom    5 type  2   force =     0.00000000    0.00000000    0.00000000
     atom    6 type  2   force =     0.00000000    0.00000000    0.00000000
     atom    7 type  3   force =     0.00000000    0.00000000    0.00000000
     atom    8 type  3   force =     0.00000000    0.00000000    0.00000000
     atom    9 type  3   force =     0.00000000    0.00000000    0.00000000
     atom   10 type  3   force =     0.00000000    0.00000000    0.00000000
     atom   11 type  3   force =     0.00000000    0.00000000    0.00000000
     atom   12 type  3   force =     0.00000000    0.00000000    0.00000000
     atom   13 type  3   force =     0.00000000    0.00000000    0.00000000
     atom   14 type  3   force =     0.00000000    0.00000000    0.00000000
     The SCF correction term to forces
     atom    1 type  1   force =     0.00004165    0.00006797    0.00016632
     atom    2 type  1   force =     0.00010398    0.00004941   -0.00015056
     atom    3 type  2   force =     0.00003012   -0.00000700    0.00038039
     atom    4 type  2   force =    -0.00001790    0.00000672   -0.00027982
     atom    5 type  2   force =    -0.00012628    0.00003692    0.00040044
     atom    6 type  2   force =    -0.00003891    0.00000656   -0.00050809
     atom    7 type  3   force =     0.00002520   -0.00001196   -0.00026445
     atom    8 type  3   force =     0.00004459   -0.00001244    0.00020510
     atom    9 type  3   force =     0.00000203    0.00000023    0.00004125
     atom   10 type  3   force =    -0.00005642    0.00000876    0.00018963
     atom   11 type  3   force =    -0.00003342    0.00000401   -0.00024416
     atom   12 type  3   force =    -0.00002356    0.00000736   -0.00002037
     atom   13 type  3   force =    -0.00001542    0.00000867    0.00019694
     atom   14 type  3   force =    -0.00006048    0.00001216   -0.00016294

     Total force =     0.269222     Total SCF correction =     0.001009

     Computing stress (Cartesian axis) and pressure

          total   stress  (Ry/bohr**3)                   (kbar)     P=     -190.95
  -0.00244971   0.00081106   0.00000000         -360.36      119.31        0.00
   0.00081106  -0.00001459   0.00000000          119.31       -2.15        0.00
   0.00000000   0.00000000  -0.00142978            0.00        0.00     -210.33

     kinetic stress (kbar)  13252.77    208.71      0.00
                              208.71  13879.41      0.00
                                0.00      0.00  13432.11

     local   stress (kbar)  -6663.57   -405.05      0.00
                             -405.05  -7879.70      0.00
                                0.00      0.00  -2974.16

     nonloc. stress (kbar)   6123.84    -18.57      0.00
                              -18.57   6068.08      0.00
                                0.00      0.00   6101.29

     hartree stress (kbar)   3603.46    147.38      0.00
                              147.38   4045.97     -0.00
                                0.00     -0.00   2304.89

     exc-cor stress (kbar)   -632.24      0.49     -0.00
                                0.49   -630.79      0.00
                               -0.00      0.00   -635.80

     corecor stress (kbar)  -2432.95     -0.41      0.00
                               -0.41  -2434.16      0.00
                                0.00      0.00  -2433.41

     ewald   stress (kbar) -13611.67    186.75      0.00
                              186.75 -13050.95     -0.00
                                0.00     -0.00 -16005.26

     hubbard stress (kbar)      0.00      0.00      0.00
                                0.00      0.00      0.00
                                0.00      0.00      0.00

     DFT-D   stress (kbar)      0.00      0.00      0.00
                                0.00      0.00      0.00
                                0.00      0.00      0.00

     XDM     stress (kbar)      0.00      0.00      0.00
                                0.00      0.00      0.00
                                0.00      0.00      0.00

     dft-nl  stress (kbar)      0.00      0.00      0.00
                                0.00      0.00      0.00
                                0.00      0.00      0.00

     TS-vdW  stress (kbar)      0.00      0.00      0.00
                                0.00      0.00      0.00
                                0.00      0.00      0.00

[...]

                                0.00      0.00      0.00

     Writing all to output data dir calculations/myprefix.save/

     General routines

     Parallel routines

     PAW routines

   This run was terminated on:  14:24:23   3Mar2023

   JOB DONE.