     Program PWSCF v.7.0 starts on  4Mar2023 at 18:49: 9

     R & G space division:  proc/nbgrp/npool/nimage =      32

     Reading input from espresso_7283.pwi
Warning: card &CELL ignored
Warning: card / ignored

     Current dimensions of program PWSCF are:
     Max number of different atomic species (ntypx) = 10
     Max number of k-points (npk) =  40000
     Max angular momentum in pseudopotentials (lmaxx) =  4

     gamma-point specific algorithms are used
     Message from routine setup:
     using ibrav=0 with symmetry is DISCOURAGED, use correct ibrav instead

     Using Slab Decomposition

     bravais-lattice index     =            0
     lattice parameter (alat)  =      10.2041  a.u.
     unit-cell volume          =    2315.6777 (a.u.)^3
     number of atoms/cell      =           20
     number of atomic types    =            3
     number of electrons       =       156.00
     number of Kohn-Sham states=           94
     kinetic-energy cutoff     =      30.0000  Ry
     charge density cutoff     =     240.0000  Ry
     scf convergence threshold =      1.0E-06
     mixing beta               =       0.7000
     number of iterations used =            8  plain     mixing
     Exchange-correlation=  SLA  PW   PBX  PBC
                           (   1   4   3   4   0   0   0)

     celldm(1)=  10.204119  celldm(2)=   0.000000  celldm(3)=   0.000000
     celldm(4)=   0.000000  celldm(5)=   0.000000  celldm(6)=   0.000000

     crystal axes: (cart. coord. in units of alat)
               a(1) = (   1.000000   0.000000   0.000000 )
               a(2) = (  -0.071092   1.094087   0.000000 )
               a(3) = (  -0.125526  -0.028298   1.992047 )

     reciprocal axes: (cart. coord. in units 2 pi/alat)
               b(1) = (  1.000000  0.064978  0.063936 )
               b(2) = (  0.000000  0.914004  0.012984 )
               b(3) = (  0.000000  0.000000  0.501996 )

     PseudoPot. # 1 for Bi read from file:
     /home/pragov/projects/rrg-bengioy-ad/pragov/crystal_structure_design/SSSP/Bi_pbe_v1.uspp.F.UPF
     MD5 check sum: cceb9f28ec65b6d7ff33140f5b0b1758
     Pseudo is Ultrasoft + core correction, Zval = 15.0
     Generated by new atomic code, or converted to UPF format
     Using radial grid of  899 points,  6 beta functions with:
                l(1) =   0
                l(2) =   0
                l(3) =   1
                l(4) =   1
                l(5) =   2
                l(6) =   2
     Q(r) pseudized with  6 coefficients,  rinner =    1.000   1.000   1.000
                                                       1.000   1.000

     PseudoPot. # 2 for Cl read from file:
     /home/pragov/projects/rrg-bengioy-ad/pragov/crystal_structure_design/SSSP/cl_pbe_v1.4.uspp.F.UPF
     MD5 check sum: fc6f6913ecf08c9257cb748ef0700058
     Pseudo is Ultrasoft + core correction, Zval =  7.0
     Generated by new atomic code, or converted to UPF format
     Using radial grid of  909 points,  6 beta functions with:
                l(1) =   0
                l(2) =   0
                l(3) =   1
                l(4) =   1
                l(5) =   2
                l(6) =   2
     Q(r) pseudized with  8 coefficients,  rinner =    1.300   1.300   1.300
                                                       1.300   1.300

     PseudoPot. # 3 for F  read from file:
     /home/pragov/projects/rrg-bengioy-ad/pragov/crystal_structure_design/SSSP/f_pbe_v1.4.uspp.F.UPF
     MD5 check sum: 4c38b6a325caf53ec0e86aed9459de46
     Pseudo is Ultrasoft, Zval =  7.0
     Generated by new atomic code, or converted to UPF format
     Using radial grid of  799 points,  4 beta functions with:
                l(1) =   0
                l(2) =   0
                l(3) =   1
                l(4) =   1
     Q(r) pseudized with  8 coefficients,  rinner =    0.950   0.950   0.950

     atomic species   valence    mass     pseudopotential
        Bi            15.00   208.98040     Bi( 1.00)
        Cl             7.00    35.45000     Cl( 1.00)
        F              7.00    18.99840     F ( 1.00)

      2 Sym. Ops., with inversion, found

                                    s                        frac. trans.

      isym =  1     identity

 cryst.   s( 1) = (     1          0          0      )
                  (     0          1          0      )
                  (     0          0          1      )

 cart.    s( 1) = (  1.0000000  0.0000000 -0.0000000 )
                  (  0.0000000  1.0000000 -0.0000000 )
                  (  0.0000000  0.0000000  1.0000000 )

      isym =  2     inversion

 cryst.   s( 2) = (    -1          0          0      )
                  (     0         -1          0      )
                  (     0          0         -1      )

 cart.    s( 2) = ( -1.0000000 -0.0000000  0.0000000 )
                  (  0.0000000 -1.0000000  0.0000000 )
                  (  0.0000000  0.0000000 -1.0000000 )

   Cartesian axes

     site n.     atom                  positions (alat units)
         1           Bi  tau(   1) = (  -0.0627628  -0.0141491   0.9960235  )
         2           Bi  tau(   2) = (   0.0000000   0.0000000   0.0000000  )
         3           Cl  tau(   3) = (   0.2891335   0.3997114   1.4913261  )
         4           Cl  tau(   4) = (   0.5142493   0.6660779   0.5007210  )
         5           F   tau(   5) = (   0.7902614   0.1924808   0.7198023  )
         6           F   tau(   6) = (   0.0131214   0.8733085   1.2722448  )
         7           F   tau(   7) = (   0.6294578   0.0368235   1.2047363  )
         8           F   tau(   8) = (   0.1739250   1.0289658   0.7873108  )
         9           F   tau(   9) = (   0.3702884   0.5950295   0.2462091  )
        10           F   tau(  10) = (   0.4330944   0.4707597   1.7458380  )
        11           F   tau(  11) = (   0.3251684   0.5138771   0.6783279  )
        12           F   tau(  12) = (   0.4782144   0.5519121   1.3137192  )
        13           F   tau(  13) = (   0.8582712   0.3042656   0.1671387  )
        14           F   tau(  14) = (  -0.0548884   0.7615237   1.8249084  )
        15           F   tau(  15) = (   0.3118372   0.0374541   0.2055494  )
        16           F   tau(  16) = (   0.4915456   1.0283352   1.7864977  )
        17           F   tau(  17) = (   0.7882347   0.8630992   0.2842791  )
        18           F   tau(  18) = (   0.0151481   0.2026900   1.7077680  )
        19           F   tau(  19) = (   0.7135840   0.7536218   0.8401020  )
        20           F   tau(  20) = (   0.0897988   0.3121674   1.1519451  )

   Crystallographic axes

     site n.     atom                  positions (cryst. coord.)
         1           Bi  tau(   1) = ( -0.0000000  0.0000000  0.5000000  )
         2           Bi  tau(   2) = (  0.0000000  0.0000000  0.0000000  )
         3           Cl  tau(   3) = (  0.4104560  0.3847010  0.7486400  )
         4           Cl  tau(   4) = (  0.5895440  0.6152990  0.2513600  )
         5           F   tau(   5) = (  0.8487900  0.1852740  0.3613380  )
         6           F   tau(   6) = (  0.1512100  0.8147260  0.6386620  )
         7           F   tau(   7) = (  0.7088770  0.0492990  0.6047730  )
         8           F   tau(   8) = (  0.2911230  0.9507010  0.3952270  )
         9           F   tau(   9) = (  0.4246940  0.5470560  0.1235960  )
        10           F   tau(  10) = (  0.5753060  0.4529440  0.8764040  )
        11           F   tau(  11) = (  0.4019290  0.4784930  0.3405180  )
        12           F   tau(  12) = (  0.5980710  0.5215070  0.6594820  )
        13           F   tau(  13) = (  0.8887280  0.2802700  0.0839030  )
        14           F   tau(  14) = (  0.1112720  0.7197300  0.9160970  )
        15           F   tau(  15) = (  0.3274130  0.0369020  0.1031850  )
        16           F   tau(  16) = (  0.6725870  0.9630980  0.8968150  )
        17           F   tau(  17) = (  0.8624930  0.7925670  0.1427070  )
        18           F   tau(  18) = (  0.1375070  0.2074330  0.8572930  )
        19           F   tau(  19) = (  0.8162660  0.6997210  0.4217280  )
        20           F   tau(  20) = (  0.1837340  0.3002790  0.5782720  )

     number of k points=     1  Methfessel-Paxton smearing, width (Ry)=  0.0010
                       cart. coord. in units 2pi/alat
        k(    1) = (   0.0000000   0.0000000   0.0000000), wk =   2.0000000

                       cryst. coord.
        k(    1) = (   0.0000000   0.0000000   0.0000000), wk =   2.0000000

     Check: negative core charge=   -0.000003

     Initial potential from superposition of free atoms

     starting charge     153.9999, renormalised to     156.0000

     negative rho (up, down):  1.180E-01 0.000E+00
     Starting wfcs are   90 randomized atomic wfcs +    4 random wfcs

     Self-consistent Calculation

     iteration #  1     ecut=    30.00 Ry     beta= 0.70
     Davidson diagonalization with overlap

     ethr =  1.00E-02,  avg # of iterations =  7.0

     negative rho (up, down):  1.087E-01 0.000E+00

     total energy              =   -1209.18744721 Ry
     estimated scf accuracy    <       7.32699952 Ry

[...]

     total energy              =   -1214.13355212 Ry
     estimated scf accuracy    <       0.00000121 Ry

     iteration # 14     ecut=    30.00 Ry     beta= 0.70
     Davidson diagonalization with overlap

     ethr =  7.75E-10,  avg # of iterations =  2.0

[...]

     End of self-consistent calculation

          k = 0.0000 0.0000 0.0000 (  3207 PWs)   bands (ev):

   -25.2451 -25.2275 -23.6442 -23.6138 -22.9243 -22.8613 -22.8288 -22.7455
   -21.6376 -21.5371 -21.4931 -21.4856 -21.4231 -21.4135 -21.4045 -21.3535
   -21.3495 -21.1850 -20.7892 -20.7522 -20.7124 -20.6797 -19.5831 -19.4933
   -18.9556 -18.8942 -14.9698 -14.9427  -8.7662  -8.7410  -7.8722  -7.7191
    -7.3455  -7.0358  -5.6837  -5.6366  -4.5223  -4.2078  -4.1348  -3.8839
    -3.8055  -3.7851  -3.7356  -3.6201  -3.6190  -3.5650  -3.5274  -3.0902
    -2.6215  -2.5215  -2.3584  -2.2457  -2.1301  -2.0995  -2.0567  -2.0141
    -1.8942  -1.8829  -1.8156  -1.7669  -1.7504  -1.5719  -1.5612  -1.5444
    -1.4622  -1.4523  -1.3479  -1.3294  -1.3282  -1.2894  -1.2834  -1.2323
    -1.2040  -1.1769  -1.0435  -0.9506  -0.6073  -0.5282   1.5775   1.8038
     2.9721   3.3983   3.4257   3.6099   7.7492   8.2343   8.4740   8.7999
     8.8868   8.9648   9.2014  10.3872  10.9267  11.4891

     occupation numbers
     1.0000   1.0000   1.0000   1.0000   1.0000   1.0000   1.0000   1.0000
     1.0000   1.0000   1.0000   1.0000   1.0000   1.0000   1.0000   1.0000
     1.0000   1.0000   1.0000   1.0000   1.0000   1.0000   1.0000   1.0000
     1.0000   1.0000   1.0000   1.0000   1.0000   1.0000   1.0000   1.0000
     1.0000   1.0000   1.0000   1.0000   1.0000   1.0000   1.0000   1.0000
     1.0000   1.0000   1.0000   1.0000   1.0000   1.0000   1.0000   1.0000
     1.0000   1.0000   1.0000   1.0000   1.0000   1.0000   1.0000   1.0000
     1.0000   1.0000   1.0000   1.0000   1.0000   1.0000   1.0000   1.0000
     1.0000   1.0000   1.0000   1.0000   1.0000   1.0000   1.0000   1.0000
     1.0000   1.0000   1.0000   1.0000   1.0000   1.0000  -0.0000  -0.0000
    -0.0000  -0.0000  -0.0000  -0.0000  -0.0000  -0.0000  -0.0000  -0.0000
    -0.0000  -0.0000  -0.0000  -0.0000  -0.0000  -0.0000

     the Fermi energy is     0.0607 ev

!    total energy              =   -1214.13355221 Ry
     estimated scf accuracy    <       0.00000028 Ry
     smearing contrib. (-TS)   =       0.00000000 Ry
     internal energy E=F+TS    =   -1214.13355221 Ry

     The total energy is F=E-TS. E is the sum of the following terms:
     one-electron contribution =    -710.56568708 Ry
     hartree contribution      =     430.89270488 Ry
     xc contribution           =    -296.65223222 Ry
     ewald contribution        =    -637.80833778 Ry

     convergence has been achieved in  14 iterations

     negative rho (up, down):  1.217E-01 0.000E+00

     Forces acting on atoms (cartesian axes, Ry/au):

     atom    1 type  1   force =     0.00000000    0.00000000    0.00000000
     atom    2 type  1   force =     0.00000000    0.00000000    0.00000000
     atom    3 type  2   force =    -0.01103410   -0.00568193   -0.00069049
     atom    4 type  2   force =     0.01103410    0.00568193    0.00069049
     atom    5 type  3   force =     0.00717623   -0.00845754    0.00475117
     atom    6 type  3   force =    -0.00717623    0.00845754   -0.00475117
     atom    7 type  3   force =     0.01195290   -0.00183331   -0.01060175
     atom    8 type  3   force =    -0.01195290    0.00183331    0.01060175
     atom    9 type  3   force =    -0.00036550   -0.00098249   -0.00226054
     atom   10 type  3   force =     0.00036550    0.00098249    0.00226054
     atom   11 type  3   force =    -0.00149347   -0.00151569   -0.00030977
     atom   12 type  3   force =     0.00149347    0.00151569    0.00030977
     atom   13 type  3   force =     0.00560896   -0.01118237   -0.00955801
     atom   14 type  3   force =    -0.00560896    0.01118237    0.00955801
     atom   15 type  3   force =    -0.01165253   -0.00215763   -0.00999729
     atom   16 type  3   force =     0.01165253    0.00215763    0.00999729
     atom   17 type  3   force =    -0.00229522    0.00313582    0.00527831
     atom   18 type  3   force =     0.00229522   -0.00313582   -0.00527831
     atom   19 type  3   force =    -0.00085594    0.00731931    0.00260618
     atom   20 type  3   force =     0.00085594   -0.00731931   -0.00260618
     The non-local contrib.  to forces
     atom    1 type  1   force =     0.00000000    0.00000000    0.00000000
     atom    2 type  1   force =     0.00000000    0.00000000    0.00000000
     atom    3 type  2   force =     0.72083455    0.50489839    0.16084989
     atom    4 type  2   force =    -0.72083455   -0.50489839   -0.16084989
     atom    5 type  3   force =     0.51531348   -0.75475315    1.03295548
     atom    6 type  3   force =    -0.51531348    0.75475315   -1.03295548
     atom    7 type  3   force =     1.09765011   -0.14014821   -0.74450017
     atom    8 type  3   force =    -1.09765011    0.14014821    0.74450017
     atom    9 type  3   force =     0.97764238    0.48723442    1.76646226
     atom   10 type  3   force =    -0.97764238   -0.48723442   -1.76646226
     atom   11 type  3   force =     1.28756519    1.06172091   -1.24573516
     atom   12 type  3   force =    -1.28756519   -1.06172091    1.24573516
     atom   13 type  3   force =     0.49407287   -1.10848544   -0.60143521
     atom   14 type  3   force =    -0.49407287    1.10848544    0.60143521
     atom   15 type  3   force =    -1.10817324   -0.15438438   -0.73865716
     atom   16 type  3   force =     1.10817324    0.15438438    0.73865716
     atom   17 type  3   force =    -0.03607203    0.42227069   -0.57882709
     atom   18 type  3   force =     0.03607203   -0.42227069    0.57882709
     atom   19 type  3   force =     0.15233733    0.89438388   -0.02391534
     atom   20 type  3   force =    -0.15233733   -0.89438388    0.02391534
     The ionic contribution  to forces
     atom    1 type  1   force =     0.00000000    0.00000000   -0.00000000
     atom    2 type  1   force =     0.00000000   -0.00000000   -0.00000000
     atom    3 type  2   force =    -4.43543485   -2.22744577   -1.60312663
     atom    4 type  2   force =     4.43543485    2.22744577    1.60312663
     atom    5 type  3   force =    -4.56298199    7.30463402   -8.73669557
     atom    6 type  3   force =     4.56298199   -7.30463402    8.73669557
     atom    7 type  3   force =    -9.07129738    1.07076745    6.84468072
     atom    8 type  3   force =     9.07129738   -1.07076745   -6.84468072
     atom    9 type  3   force =    -4.25889215   -2.88345361   -6.20485564
     atom   10 type  3   force =     4.25889215    2.88345361    6.20485564
     atom   11 type  3   force =    -6.29610407   -5.21247297    5.51180050
     atom   12 type  3   force =     6.29610407    5.21247297   -5.51180050
     atom   13 type  3   force =    -3.95034184    9.57715728    6.63377836
     atom   14 type  3   force =     3.95034184   -9.57715728   -6.63377835
     atom   15 type  3   force =     9.19136781    2.13123143    8.06502735
     atom   16 type  3   force =    -9.19136781   -2.13123143   -8.06502735
     atom   17 type  3   force =    -0.71248936   -4.65448153    6.35563300
     atom   18 type  3   force =     0.71248937    4.65448153   -6.35563300
     atom   19 type  3   force =    -1.50494509   -8.51418222   -0.81825890
     atom   20 type  3   force =     1.50494510    8.51418222    0.81825890
     The local contribution  to forces
     atom    1 type  1   force =     0.00000194    0.00000623    0.00002051
     atom    2 type  1   force =     0.00000449   -0.00000301   -0.00004051
     atom    3 type  2   force =     3.72694492    1.73334577    1.44669268
     atom    4 type  2   force =    -3.72698120   -1.73335438   -1.44668038
     atom    5 type  3   force =     4.05483732   -6.55831893    7.70856584
     atom    6 type  3   force =    -4.05483578    6.55831971   -7.70854674
     atom    7 type  3   force =     7.98555992   -0.93243078   -6.11082735
     atom    8 type  3   force =    -7.98555689    0.93243043    6.11084313
     atom    9 type  3   force =     3.28083492    2.39518453    4.43608962
     atom   10 type  3   force =    -3.28085525   -2.39518478   -4.43611644
     atom   11 type  3   force =     5.00708472    4.14929555   -4.26631665
     atom   12 type  3   force =    -5.00709894   -4.14930357    4.26633625
     atom   13 type  3   force =     3.46188437   -8.47979697   -6.04192324
     atom   14 type  3   force =    -3.46187196    8.47978785    6.04189538
     atom   15 type  3   force =    -8.09486836   -1.97897999   -7.33637525
     atom   16 type  3   force =     8.09486240    1.97897978    7.33635288
     atom   17 type  3   force =     0.74632662    4.23530761   -5.77153383
     atom   18 type  3   force =    -0.74630928   -4.23529521    5.77152148
     atom   19 type  3   force =     1.35169799    7.62710060    0.84480796
     atom   20 type  3   force =    -1.35169576   -7.62710329   -0.84478301
     The core correction contribution to forces
     atom    1 type  1   force =    -0.00000030    0.00000010    0.00000009
     atom    2 type  1   force =    -0.00000027    0.00000146    0.00000209
     atom    3 type  2   force =    -0.02330059   -0.01641359   -0.00521889
     atom    4 type  2   force =     0.02330009    0.01641403    0.00521911
     atom    5 type  3   force =     0.00000000    0.00000000    0.00000000
     atom    6 type  3   force =     0.00000000    0.00000000    0.00000000
     atom    7 type  3   force =     0.00000000    0.00000000    0.00000000
     atom    8 type  3   force =     0.00000000    0.00000000    0.00000000
     atom    9 type  3   force =     0.00000000    0.00000000    0.00000000
     atom   10 type  3   force =     0.00000000    0.00000000    0.00000000
     atom   11 type  3   force =     0.00000000    0.00000000    0.00000000
     atom   12 type  3   force =     0.00000000    0.00000000    0.00000000
     atom   13 type  3   force =     0.00000000    0.00000000    0.00000000
     atom   14 type  3   force =     0.00000000    0.00000000    0.00000000
     atom   15 type  3   force =     0.00000000    0.00000000    0.00000000
     atom   16 type  3   force =     0.00000000    0.00000000    0.00000000
     atom   17 type  3   force =     0.00000000    0.00000000    0.00000000
     atom   18 type  3   force =     0.00000000    0.00000000    0.00000000
     atom   19 type  3   force =     0.00000000    0.00000000    0.00000000
     atom   20 type  3   force =     0.00000000    0.00000000    0.00000000
     The Hubbard contrib.    to forces
     atom    1 type  1   force =     0.00000000    0.00000000    0.00000000
     atom    2 type  1   force =     0.00000000    0.00000000    0.00000000
     atom    3 type  2   force =     0.00000000    0.00000000    0.00000000
     atom    4 type  2   force =     0.00000000    0.00000000    0.00000000
     atom    5 type  3   force =     0.00000000    0.00000000    0.00000000
     atom    6 type  3   force =     0.00000000    0.00000000    0.00000000
     atom    7 type  3   force =     0.00000000    0.00000000    0.00000000
     atom    8 type  3   force =     0.00000000    0.00000000    0.00000000
     atom    9 type  3   force =     0.00000000    0.00000000    0.00000000
     atom   10 type  3   force =     0.00000000    0.00000000    0.00000000
     atom   11 type  3   force =     0.00000000    0.00000000    0.00000000
     atom   12 type  3   force =     0.00000000    0.00000000    0.00000000
     atom   13 type  3   force =     0.00000000    0.00000000    0.00000000
     atom   14 type  3   force =     0.00000000    0.00000000    0.00000000
     atom   15 type  3   force =     0.00000000    0.00000000    0.00000000
     atom   16 type  3   force =     0.00000000    0.00000000    0.00000000
     atom   17 type  3   force =     0.00000000    0.00000000    0.00000000
     atom   18 type  3   force =     0.00000000    0.00000000    0.00000000
     atom   19 type  3   force =     0.00000000    0.00000000    0.00000000
     atom   20 type  3   force =     0.00000000    0.00000000    0.00000000
     The SCF correction term to forces
     atom    1 type  1   force =    -0.00000715   -0.00000665   -0.00001027
     atom    2 type  1   force =    -0.00000810    0.00001757    0.00005580
     atom    3 type  2   force =    -0.00008187   -0.00006462    0.00011158
     atom    4 type  2   force =     0.00011116    0.00007701   -0.00012585
     atom    5 type  3   force =     0.00000798   -0.00001975   -0.00007750
     atom    6 type  3   force =    -0.00000841    0.00001843    0.00005257
     atom    7 type  3   force =     0.00003957   -0.00002237    0.00004380
     atom    8 type  3   force =    -0.00004397    0.00002151   -0.00006209
     atom    9 type  3   force =     0.00005255    0.00005322    0.00004759
     atom   10 type  3   force =    -0.00002582   -0.00005089   -0.00001201
     atom   11 type  3   force =    -0.00003739   -0.00005843   -0.00006120
     atom   12 type  3   force =     0.00005544    0.00006795    0.00003610
     atom   13 type  3   force =    -0.00000780   -0.00005518    0.00002698
     atom   14 type  3   force =    -0.00000733    0.00006842    0.00001067
     atom   15 type  3   force =     0.00002190   -0.00002333    0.00001187
     atom   16 type  3   force =    -0.00001464    0.00002625    0.00001869
     atom   17 type  3   force =    -0.00005909    0.00003919    0.00001171
     atom   18 type  3   force =     0.00004445   -0.00005132    0.00001160
     atom   19 type  3   force =     0.00005443    0.00001715   -0.00002931
     atom   20 type  3   force =    -0.00005548   -0.00001425    0.00000082

     Total force =     0.048205     Total SCF correction =     0.000372

     Computing stress (Cartesian axis) and pressure

     negative rho (up, down):  1.217E-01 0.000E+00
          total   stress  (Ry/bohr**3)                   (kbar)     P=     -116.72
  -0.00083846   0.00002410   0.00000544         -123.34        3.55        0.80
   0.00002410  -0.00073424   0.00000258            3.55     -108.01        0.38
   0.00000544   0.00000258  -0.00080769            0.80        0.38     -118.82

     kinetic stress (kbar)  14202.43   -234.69    -35.19
                             -234.69  14423.93     53.62
                              -35.19     53.62  13951.50

     local   stress (kbar) -10914.80  -2745.47   -529.33
                            -2745.47  -8101.14    388.49
                             -529.33    388.49 -12645.93

     nonloc. stress (kbar)   5169.52    -85.38     -4.50
                              -85.38   5219.95     19.05
                               -4.50     19.05   5090.38

     hartree stress (kbar)   9331.66    970.09    194.26
                              970.09   8293.57   -113.09
                              194.26   -113.09   9747.54

     exc-cor stress (kbar)   2014.92      3.22      0.46
                                3.22   2011.52     -0.82
                                0.46     -0.82   2018.74

     corecor stress (kbar)  -6549.43      4.29      0.11
                                4.29  -6551.37     -0.86
                                0.11     -0.86  -6545.91

     ewald   stress (kbar) -13377.64   2091.47    374.99
                             2091.47 -15404.46   -346.00
                              374.99   -346.00 -11735.13

     hubbard stress (kbar)      0.00      0.00      0.00
                                0.00      0.00      0.00
                                0.00      0.00      0.00

     DFT-D   stress (kbar)      0.00      0.00      0.00
                                0.00      0.00      0.00
                                0.00      0.00      0.00

     XDM     stress (kbar)      0.00      0.00      0.00
                                0.00      0.00      0.00
                                0.00      0.00      0.00

     dft-nl  stress (kbar)      0.00      0.00      0.00
                                0.00      0.00      0.00
                                0.00      0.00      0.00

     TS-vdW  stress (kbar)      0.00      0.00      0.00
                                0.00      0.00      0.00
                                0.00      0.00      0.00

[...]

                                0.00      0.00      0.00

     Writing all to output data dir calculations/myprefix.save/

     General routines

     Parallel routines

   This run was terminated on:  18:49:13   4Mar2023

   JOB DONE.