     Program PWSCF v.7.0 starts on  4Mar2023 at 19:38:50

     R & G space division:  proc/nbgrp/npool/nimage =      32

     Reading input from espresso_7422.pwi
Warning: card &CELL ignored
Warning: card / ignored

     Current dimensions of program PWSCF are:
     Max number of different atomic species (ntypx) = 10
     Max number of k-points (npk) =  40000
     Max angular momentum in pseudopotentials (lmaxx) =  4
     file Ga.pbe-dn-kjpaw_psl.1.0.0.UPF: wavefunction(s)  4S renormalized

     gamma-point specific algorithms are used
     Message from routine setup:
     using ibrav=0 with symmetry is DISCOURAGED, use correct ibrav instead

     Using Slab Decomposition

     bravais-lattice index     =            0
     lattice parameter (alat)  =      11.6460  a.u.
     unit-cell volume          =     679.2159 (a.u.)^3
     number of atoms/cell      =            5
     number of atomic types    =            3
     number of electrons       =        68.00
     number of Kohn-Sham states=           41
     kinetic-energy cutoff     =      30.0000  Ry
     charge density cutoff     =     240.0000  Ry
     scf convergence threshold =      1.0E-06
     mixing beta               =       0.7000
     number of iterations used =            8  plain     mixing
     Exchange-correlation= PBE
                           (   1   4   3   4   0   0   0)

     celldm(1)=  11.646032  celldm(2)=   0.000000  celldm(3)=   0.000000
     celldm(4)=   0.000000  celldm(5)=   0.000000  celldm(6)=   0.000000

     crystal axes: (cart. coord. in units of alat)
               a(1) = (   1.000000   0.000000   0.000000 )
               a(2) = (   0.504160   0.863611   0.000000 )
               a(3) = (  -0.752080  -0.431805   0.497916 )

     reciprocal axes: (cart. coord. in units 2 pi/alat)
               b(1) = (  1.000000 -0.583781  1.004186 )
               b(2) = (  0.000000  1.157929  1.004186 )
               b(3) = (  0.000000  0.000000  2.008371 )

     PseudoPot. # 1 for La read from file:
     /home/pragov/projects/rrg-bengioy-ad/pragov/crystal_structure_design/SSSP/La.GGA-PBE-paw-v1.0.UPF
     MD5 check sum: 436541e95c1ad8901025bd0b0ed42ae2
     Pseudo is Projector augmented-wave + core cor, Zval = 11.0
     Generated using ATOMPAW code
     Shape of augmentation charge: BESSEL
     Using radial grid of 1101 points,  8 beta functions with:
                l(1) =   0
                l(2) =   0
                l(3) =   1
                l(4) =   1
                l(5) =   2
                l(6) =   2
                l(7) =   3
                l(8) =   3
     Q(r) pseudized with 0 coefficients

     PseudoPot. # 2 for Ga read from file:
     /home/pragov/projects/rrg-bengioy-ad/pragov/crystal_structure_design/SSSP/Ga.pbe-dn-kjpaw_psl.1.0.0.UPF
     MD5 check sum: a27b4342b1af7e5f338de752e9ed7044
     Pseudo is Projector augmented-wave + core cor, Zval = 13.0
     Generated using "atomic" code by A. Dal Corso  v.5.1
     Shape of augmentation charge: PSQ
     Using radial grid of 1205 points,  6 beta functions with:
                l(1) =   0
                l(2) =   0
                l(3) =   1
                l(4) =   1
                l(5) =   2
                l(6) =   2
     Q(r) pseudized with 0 coefficients

     PseudoPot. # 3 for Pd read from file:
     /home/pragov/projects/rrg-bengioy-ad/pragov/crystal_structure_design/SSSP/Pd_ONCV_PBE-1.0.oncvpsp.upf
     MD5 check sum: eb77f42b51d86fb18e25f68156a31cf1
     Pseudo is Norm-conserving, Zval = 18.0
     Generated using ONCVPSP code by D. R. Hamann
     Using radial grid of 1410 points,  6 beta functions with:
                l(1) =   0
                l(2) =   0
                l(3) =   1
                l(4) =   1
                l(5) =   2
                l(6) =   2

     atomic species   valence    mass     pseudopotential
        La            11.00   138.90547     La( 1.00)
        Ga            13.00    69.72300     Ga( 1.00)
        Pd            18.00   106.42000     Pd( 1.00)

      2 Sym. Ops. (no inversion) found

                                    s                        frac. trans.

      isym =  1     identity

 cryst.   s( 1) = (     1          0          0      )
                  (     0          1          0      )
                  (     0          0          1      )

 cart.    s( 1) = (  1.0000000  0.0000000  0.0000000 )
                  (  0.0000000  1.0000000 -0.0000000 )
                  (  0.0000000  0.0000000  1.0000000 )

      isym =  2     180 deg rotation - cart. axis [0,0,1]

 cryst.   s( 2) = (    -1          0          0      )
                  (     0         -1          0      )
                  (     1          1          1      )

 cart.    s( 2) = ( -1.0000000 -0.0000000 -0.0000000 )
                  (  0.0000000 -1.0000000 -0.0000000 )
                  (  0.0000000  0.0000000  1.0000000 )

   Cartesian axes

     site n.     atom                  positions (alat units)
         1           La  tau(   1) = (   0.0000000   0.0000000   0.0000000  )
         2           Ga  tau(   2) = (   0.9305964   0.5343003   0.0000000  )
         3           Ga  tau(   3) = (   0.5735631   0.3293102   0.0000000  )
         4           Ga  tau(   4) = (   0.5000000   0.0000000   0.2489579  )
         5           Pd  tau(   5) = (   0.2520798   0.4318053   0.2489579  )

   Crystallographic axes

     site n.     atom                  positions (cryst. coord.)
         1           La  tau(   1) = (  0.0000000  0.0000000  0.0000000  )
         2           Ga  tau(   2) = (  0.6186820  0.6186820  0.0000000  )
         3           Ga  tau(   3) = (  0.3813180  0.3813180  0.0000000  )
         4           Ga  tau(   4) = (  0.7500000  0.2500000  0.5000000  )
         5           Pd  tau(   5) = (  0.2500000  0.7500000  0.5000000  )

     number of k points=     1  Methfessel-Paxton smearing, width (Ry)=  0.0010
                       cart. coord. in units 2pi/alat
        k(    1) = (   0.0000000   0.0000000   0.0000000), wk =   2.0000000

                       cryst. coord.
        k(    1) = (   0.0000000   0.0000000   0.0000000), wk =   2.0000000

     Check: negative core charge=   -0.000002

     Initial potential from superposition of free atoms

     starting charge      67.9823, renormalised to      68.0000
     Starting wfcs are   69 randomized atomic wfcs
     Checking if some PAW data can be deallocated...

     Self-consistent Calculation

     iteration #  1     ecut=    30.00 Ry     beta= 0.70
     Davidson diagonalization with overlap

     ethr =  1.00E-02,  avg # of iterations =  2.0

     Threshold (ethr) on eigenvalues was too large:
     Diagonalizing with lowered threshold

     Davidson diagonalization with overlap

[...]

     negative rho (up, down):  5.607E-06 0.000E+00

     total energy              =   -1544.79831120 Ry
     estimated scf accuracy    <       0.34142179 Ry

[...]

     total energy              =   -1544.97084455 Ry
     estimated scf accuracy    <       0.00000382 Ry

     iteration # 13     ecut=    30.00 Ry     beta= 0.70
     Davidson diagonalization with overlap

     ethr =  5.61E-09,  avg # of iterations =  2.0

[...]

     End of self-consistent calculation

          k = 0.0000 0.0000 0.0000 (   949 PWs)   bands (ev):

   -73.2534 -38.6945 -38.6944 -38.5802 -19.3311  -3.3130  -2.9840  -2.9840
    -2.8097  -2.7245  -2.7242  -2.6269  -2.6077  -2.5680  -2.5363  -2.5358
    -2.4864  -2.4288  -2.4177  -2.3429  -2.3200  -2.3197  -2.3102   2.5891
     6.7623   7.3657   9.0801   9.0802   9.5293   9.9966  10.4275  10.9567
    10.9568  12.7609  13.1646  14.2204  14.2205  15.2135  15.2237  15.2653
    15.2653

     occupation numbers
     1.0000   1.0000   1.0000   1.0000   1.0000   1.0000   1.0000   1.0000
     1.0000   1.0000   1.0000   1.0000   1.0000   1.0000   1.0000   1.0000
     1.0000   1.0000   1.0000   1.0000   1.0000   1.0000   1.0000   1.0000
     1.0000   1.0000   1.0000   1.0000   1.0000   1.0000   1.0000   1.0000
     1.0000   1.0000  -0.0000  -0.0000  -0.0000  -0.0000  -0.0000  -0.0000
    -0.0000

     the Fermi energy is    12.9735 ev

!    total energy              =   -1544.97084513 Ry
     estimated scf accuracy    <       0.00000034 Ry
     smearing contrib. (-TS)   =       0.00000000 Ry
     internal energy E=F+TS    =   -1544.97084513 Ry

     The total energy is F=E-TS. E is the sum of the following terms:
     one-electron contribution =    -440.35648532 Ry
     hartree contribution      =     277.76885929 Ry
     xc contribution           =    -147.98412214 Ry
     ewald contribution        =    -503.65529863 Ry
     one-center paw contrib.   =    -730.74379833 Ry
      -> PAW hartree energy AE =      35.26909779 Ry
      -> PAW hartree energy PS =     -35.29412527 Ry
      -> PAW xc energy AE      =    -405.31599169 Ry
      -> PAW xc energy PS      =       7.34887717 Ry
      -> total E_H with PAW    =     277.74383182 Ry
      -> total E_XC with PAW   =    -545.95123667 Ry

     convergence has been achieved in  13 iterations

     negative rho (up, down):  2.347E-05 0.000E+00

     Forces acting on atoms (cartesian axes, Ry/au):

     atom    1 type  1   force =     0.00000000    0.00000000    0.00004370
     atom    2 type  2   force =     0.06190852    0.03549293    0.00008251
     atom    3 type  2   force =    -0.06190852   -0.03549293    0.00008251
     atom    4 type  2   force =     0.00000000    0.00000000   -0.00024775
     atom    5 type  3   force =     0.00000000    0.00000000    0.00003903
     The non-local contrib.  to forces
     atom    1 type  1   force =     0.00000000    0.00000000    0.00000885
     atom    2 type  2   force =     0.07855653    0.04515926   -0.00012252
     atom    3 type  2   force =    -0.07855653   -0.04515926   -0.00012252
     atom    4 type  2   force =     0.00000000    0.00000000   -0.00004737
     atom    5 type  3   force =     0.00000000    0.00000000   -0.00000349
     The ionic contribution  to forces
     atom    1 type  1   force =     0.00000000    0.00000000   -0.00000000
     atom    2 type  2   force =   -10.62402221   -6.09976368   -0.00000000
     atom    3 type  2   force =    10.62402221    6.09976368    0.00000000
     atom    4 type  2   force =    -0.00000000    0.00000000   -0.00000000
     atom    5 type  3   force =    -0.00000000   -0.00000000    0.00000000
     The local contribution  to forces
     atom    1 type  1   force =     0.00034019    0.00016210   -0.00018156
     atom    2 type  2   force =    10.61151540    6.09261918    0.00019123
     atom    3 type  2   force =   -10.61136723   -6.09236935    0.00015575
     atom    4 type  2   force =    -0.00138651   -0.00068854    0.00001161
     atom    5 type  3   force =    -0.00040169   -0.00004528    0.00011432
     The core correction contribution to forces
     atom    1 type  1   force =     0.00000012    0.00000006   -0.00000008
     atom    2 type  2   force =    -0.00292812   -0.00167949    0.00000081
     atom    3 type  2   force =     0.00293723    0.00169088    0.00000141
     atom    4 type  2   force =    -0.00003243   -0.00001476    0.00000192
     atom    5 type  3   force =     0.00000000    0.00000000    0.00000000
     The Hubbard contrib.    to forces
     atom    1 type  1   force =     0.00000000    0.00000000    0.00000000
     atom    2 type  2   force =     0.00000000    0.00000000    0.00000000
     atom    3 type  2   force =     0.00000000    0.00000000    0.00000000
     atom    4 type  2   force =     0.00000000    0.00000000    0.00000000
     atom    5 type  3   force =     0.00000000    0.00000000    0.00000000
     The SCF correction term to forces
     atom    1 type  1   force =    -0.00016946   -0.00009493    0.00016106
     atom    2 type  2   force =    -0.00123031   -0.00094465    0.00000097
     atom    3 type  2   force =     0.00103857    0.00047881   -0.00005100
     atom    4 type  2   force =     0.00218984    0.00101647   -0.00026935
     atom    5 type  3   force =     0.00036757    0.00002437   -0.00012724

     Total force =     0.100920     Total SCF correction =     0.003136

     Computing stress (Cartesian axis) and pressure

     negative rho (up, down):  2.347E-05 0.000E+00
          total   stress  (Ry/bohr**3)                   (kbar)     P=     -280.73
  -0.00182625   0.00008472  -0.00000000         -268.65       12.46       -0.00
   0.00008472  -0.00192506  -0.00000000           12.46     -283.19       -0.00
  -0.00000000  -0.00000000  -0.00197369           -0.00       -0.00     -290.34

     kinetic stress (kbar)  21274.92    -39.42      0.00
                              -39.42  21320.91      0.00
                                0.00      0.00  21343.57

     local   stress (kbar)   4061.54   8427.43      0.00
                             8427.43  -5777.93     -0.03
                                0.00     -0.03 -10616.49

     nonloc. stress (kbar)   6183.58    -13.15      0.00
                              -13.15   6198.96      0.00
                                0.00      0.00   6206.47

     hartree stress (kbar)  16146.40  -4028.59     -0.01
                            -4028.59  20849.99      0.03
                               -0.01      0.03  23162.99

     exc-cor stress (kbar)   2071.50     -0.96      0.00
                               -0.96   2072.62     -0.00
                                0.00     -0.00   2073.17

     corecor stress (kbar)  -9444.47     -0.37     -0.00
                               -0.37  -9444.04      0.00
                               -0.00      0.00  -9443.83

     ewald   stress (kbar) -40562.13  -4332.48      0.00
                            -4332.48 -35503.69     -0.00
                                0.00     -0.00 -33016.21

     hubbard stress (kbar)      0.00      0.00      0.00
                                0.00      0.00      0.00
                                0.00      0.00      0.00

     DFT-D   stress (kbar)      0.00      0.00      0.00
                                0.00      0.00      0.00
                                0.00      0.00      0.00

     XDM     stress (kbar)      0.00      0.00      0.00
                                0.00      0.00      0.00
                                0.00      0.00      0.00

     dft-nl  stress (kbar)      0.00      0.00      0.00
                                0.00      0.00      0.00
                                0.00      0.00      0.00

     TS-vdW  stress (kbar)      0.00      0.00      0.00
                                0.00      0.00      0.00
                                0.00      0.00      0.00

[...]

                                0.00      0.00      0.00

     Writing all to output data dir calculations/myprefix.save/

     General routines

     Parallel routines

     PAW routines

   This run was terminated on:  19:38:56   4Mar2023

   JOB DONE.