     Program PWSCF v.7.0 starts on  3Mar2023 at 15:20:33

     R & G space division:  proc/nbgrp/npool/nimage =      32

     Reading input from espresso_736.pwi
Warning: card &CELL ignored
Warning: card / ignored

     Current dimensions of program PWSCF are:
     Max number of different atomic species (ntypx) = 10
     Max number of k-points (npk) =  40000
     Max angular momentum in pseudopotentials (lmaxx) =  4

     gamma-point specific algorithms are used
     Message from routine setup:
     using ibrav=0 with symmetry is DISCOURAGED, use correct ibrav instead

     Using Slab Decomposition

     bravais-lattice index     =            0
     lattice parameter (alat)  =      12.3656  a.u.
     unit-cell volume          =    2731.2160 (a.u.)^3
     number of atoms/cell      =           20
     number of atomic types    =            3
     number of electrons       =       184.00
     number of Kohn-Sham states=          110
     kinetic-energy cutoff     =      30.0000  Ry
     charge density cutoff     =     240.0000  Ry
     scf convergence threshold =      1.0E-06
     mixing beta               =       0.7000
     number of iterations used =            8  plain     mixing
     Exchange-correlation=  SLA  PW   PBX  PBC
                           (   1   4   3   4   0   0   0)

     celldm(1)=  12.365612  celldm(2)=   0.000000  celldm(3)=   0.000000
     celldm(4)=   0.000000  celldm(5)=   0.000000  celldm(6)=   0.000000

     crystal axes: (cart. coord. in units of alat)
               a(1) = (   1.000000   0.000000   0.000000 )
               a(2) = (   0.000000   1.000000   0.000000 )
               a(3) = (   0.000000   0.000000   1.444472 )

     reciprocal axes: (cart. coord. in units 2 pi/alat)
               b(1) = (  1.000000  0.000000  0.000000 )
               b(2) = (  0.000000  1.000000  0.000000 )
               b(3) = (  0.000000  0.000000  0.692294 )

     PseudoPot. # 1 for Sc read from file:
     /home/pragov/projects/rrg-bengioy-ad/pragov/crystal_structure_design/SSSP/Sc_ONCV_PBE-1.0.oncvpsp.upf
     MD5 check sum: e21af8023abb52e52cb7cd3133e4a229
     Pseudo is Norm-conserving, Zval = 11.0
     Generated using ONCVPSP code by D. R. Hamann
     Using radial grid of 1662 points,  6 beta functions with:
                l(1) =   0
                l(2) =   0
                l(3) =   1
                l(4) =   1
                l(5) =   2
                l(6) =   2

     PseudoPot. # 2 for Tl read from file:
     /home/pragov/projects/rrg-bengioy-ad/pragov/crystal_structure_design/SSSP/Tl_pbe_v1.2.uspp.F.UPF
     MD5 check sum: b76cf1f7e72655a2b2c53cf6385d7059
     Pseudo is Ultrasoft + core correction, Zval = 13.0
     Generated by new atomic code, or converted to UPF format
     Using radial grid of  899 points,  6 beta functions with:
                l(1) =   0
                l(2) =   0
                l(3) =   1
                l(4) =   1
                l(5) =   2
                l(6) =   2
     Q(r) pseudized with  6 coefficients,  rinner =    1.100   1.100   1.100
                                                       1.100   1.100

     PseudoPot. # 3 for F  read from file:
     /home/pragov/projects/rrg-bengioy-ad/pragov/crystal_structure_design/SSSP/f_pbe_v1.4.uspp.F.UPF
     MD5 check sum: 4c38b6a325caf53ec0e86aed9459de46
     Pseudo is Ultrasoft, Zval =  7.0
     Generated by new atomic code, or converted to UPF format
     Using radial grid of  799 points,  4 beta functions with:
                l(1) =   0
                l(2) =   0
                l(3) =   1
                l(4) =   1
     Q(r) pseudized with  8 coefficients,  rinner =    0.950   0.950   0.950

     atomic species   valence    mass     pseudopotential
        Sc            11.00    44.95591     Sc( 1.00)
        Tl            13.00   204.38000     Tl( 1.00)
        F              7.00    18.99840     F ( 1.00)

     16 Sym. Ops., with inversion, found ( 8 have fractional translation)

                                    s                        frac. trans.

      isym =  1     identity

 cryst.   s( 1) = (     1          0          0      )
                  (     0          1          0      )
                  (     0          0          1      )

 cart.    s( 1) = (  1.0000000  0.0000000  0.0000000 )
                  (  0.0000000  1.0000000  0.0000000 )
                  (  0.0000000  0.0000000  1.0000000 )

      isym =  2     180 deg rotation - cart. axis [0,0,1]

[...]

 cryst.   s( 3) = (    -1          0          0      )    f =(  0.5000000 )
                  (     0          1          0      )       ( -0.5000000 )
                  (     0          0         -1      )       ( -0.5000000 )

 cart.    s( 3) = ( -1.0000000  0.0000000  0.0000000 )    f =(  0.5000000 )
                  (  0.0000000  1.0000000  0.0000000 )       ( -0.5000000 )
                  (  0.0000000  0.0000000 -1.0000000 )       ( -0.7222362 )

[...]

 cryst.   s( 6) = (     0         -1          0      )    f =(  0.5000000 )
                  (    -1          0          0      )       (  0.5000000 )
                  (     0          0         -1      )       ( -0.5000000 )

 cart.    s( 6) = (  0.0000000 -1.0000000  0.0000000 )    f =(  0.5000000 )
                  ( -1.0000000  0.0000000  0.0000000 )       (  0.5000000 )
                  (  0.0000000  0.0000000 -1.0000000 )       ( -0.7222362 )

[...]

      isym =  8      90 deg rotation - cart. axis [0,0,1]

[...]

      isym =  9     inversion

 cryst.   s( 9) = (    -1          0          0      )
                  (     0         -1          0      )
                  (     0          0         -1      )

 cart.    s( 9) = ( -1.0000000  0.0000000  0.0000000 )
                  (  0.0000000 -1.0000000  0.0000000 )
                  (  0.0000000  0.0000000 -1.0000000 )

      isym = 10     inv. 180 deg rotation - cart. axis [0,0,1]

 cryst.   s(10) = (     1          0          0      )
                  (     0          1          0      )
                  (     0          0         -1      )

 cart.    s(10) = (  1.0000000  0.0000000  0.0000000 )
                  (  0.0000000  1.0000000  0.0000000 )
                  (  0.0000000  0.0000000 -1.0000000 )

[...]

 cryst.   s(11) = (     1          0          0      )    f =( -0.5000000 )
                  (     0         -1          0      )       (  0.5000000 )
                  (     0          0          1      )       (  0.5000000 )

 cart.    s(11) = (  1.0000000  0.0000000  0.0000000 )    f =( -0.5000000 )
                  (  0.0000000 -1.0000000  0.0000000 )       (  0.5000000 )
                  (  0.0000000  0.0000000  1.0000000 )       (  0.7222362 )

[...]

 cryst.   s(14) = (     0          1          0      )    f =( -0.5000000 )
                  (     1          0          0      )       ( -0.5000000 )
                  (     0          0          1      )       (  0.5000000 )

 cart.    s(14) = (  0.0000000  1.0000000  0.0000000 )    f =( -0.5000000 )
                  (  1.0000000  0.0000000  0.0000000 )       ( -0.5000000 )
                  (  0.0000000  0.0000000  1.0000000 )       (  0.7222362 )

[...]

      isym = 16     inv.  90 deg rotation - cart. axis [0,0,1]

 cryst.   s(16) = (     0         -1          0      )
                  (     1          0          0      )
                  (     0          0         -1      )

 cart.    s(16) = (  0.0000000  1.0000000  0.0000000 )
                  ( -1.0000000  0.0000000  0.0000000 )
                  (  0.0000000  0.0000000 -1.0000000 )

   Cartesian axes

     site n.     atom                  positions (alat units)
         1           Sc  tau(   1) = (   0.0000000   0.0000000   0.0000000  )
         2           Sc  tau(   2) = (   0.5000000   0.5000000   0.7222362  )
         3           Tl  tau(   3) = (   0.0000000   0.5000000   0.3611181  )
         4           Tl  tau(   4) = (   0.0000000   0.5000000   1.0833542  )
         5           Tl  tau(   5) = (   0.5000000   0.0000000   0.3611181  )
         6           Tl  tau(   6) = (   0.5000000   0.0000000   1.0833542  )
         7           Tl  tau(   7) = (   0.0000000   0.0000000   0.7222362  )
         8           Tl  tau(   8) = (   0.5000000   0.5000000   0.0000000  )
         9           F   tau(   9) = (   0.1416790   0.2781000   0.0000000  )
        10           F   tau(  10) = (   0.8583210   0.7219000   0.0000000  )
        11           F   tau(  11) = (   0.7219000   0.1416790   0.0000000  )
        12           F   tau(  12) = (   0.3583210   0.7781000   0.7222362  )
        13           F   tau(  13) = (   0.2781000   0.8583210   0.0000000  )
        14           F   tau(  14) = (   0.6416790   0.2219000   0.7222362  )
        15           F   tau(  15) = (   0.7781000   0.6416790   0.7222362  )
        16           F   tau(  16) = (   0.2219000   0.3583210   0.7222362  )
        17           F   tau(  17) = (   0.0000000   0.0000000   0.3119540  )
        18           F   tau(  18) = (   0.0000000   0.0000000   1.1325183  )
        19           F   tau(  19) = (   0.5000000   0.5000000   0.4102821  )
        20           F   tau(  20) = (   0.5000000   0.5000000   1.0341902  )

   Crystallographic axes

     site n.     atom                  positions (cryst. coord.)
         1           Sc  tau(   1) = (  0.0000000  0.0000000  0.0000000  )
         2           Sc  tau(   2) = (  0.5000000  0.5000000  0.5000000  )
         3           Tl  tau(   3) = (  0.0000000  0.5000000  0.2500000  )
         4           Tl  tau(   4) = (  0.0000000  0.5000000  0.7500000  )
         5           Tl  tau(   5) = (  0.5000000  0.0000000  0.2500000  )
         6           Tl  tau(   6) = (  0.5000000  0.0000000  0.7500000  )
         7           Tl  tau(   7) = (  0.0000000  0.0000000  0.5000000  )
         8           Tl  tau(   8) = (  0.5000000  0.5000000  0.0000000  )
         9           F   tau(   9) = (  0.1416790  0.2781000  0.0000000  )
        10           F   tau(  10) = (  0.8583210  0.7219000  0.0000000  )
        11           F   tau(  11) = (  0.7219000  0.1416790  0.0000000  )
        12           F   tau(  12) = (  0.3583210  0.7781000  0.5000000  )
        13           F   tau(  13) = (  0.2781000  0.8583210  0.0000000  )
        14           F   tau(  14) = (  0.6416790  0.2219000  0.5000000  )
        15           F   tau(  15) = (  0.7781000  0.6416790  0.5000000  )
        16           F   tau(  16) = (  0.2219000  0.3583210  0.5000000  )
        17           F   tau(  17) = (  0.0000000  0.0000000  0.2159640  )
        18           F   tau(  18) = (  0.0000000  0.0000000  0.7840360  )
        19           F   tau(  19) = (  0.5000000  0.5000000  0.2840360  )
        20           F   tau(  20) = (  0.5000000  0.5000000  0.7159640  )

     number of k points=     1  Methfessel-Paxton smearing, width (Ry)=  0.0010
                       cart. coord. in units 2pi/alat
        k(    1) = (   0.0000000   0.0000000   0.0000000), wk =   2.0000000

                       cryst. coord.
        k(    1) = (   0.0000000   0.0000000   0.0000000), wk =   2.0000000

     Check: negative core charge=   -0.000006

[...]
     estimated scf accuracy    <       0.00000264 Ry

     iteration # 10     ecut=    30.00 Ry     beta= 0.70
     Davidson diagonalization with overlap

     ethr =  1.43E-09,  avg # of iterations =  2.0

[...]

     End of self-consistent calculation

          k = 0.0000 0.0000 0.0000 (  3790 PWs)   bands (ev):

   -43.7746 -43.7735 -22.6293 -22.6282 -22.5830 -22.5830 -22.5820 -22.5820
   -17.5535 -17.5403 -17.2211 -17.2156 -17.1271 -17.1243 -17.1234 -17.1204
   -16.7738 -16.7737 -16.7726 -16.7722  -5.5460  -5.5367  -5.5124  -5.5088
    -5.5006  -5.4962  -5.4962  -5.4961  -5.4952  -5.4948  -5.4943  -5.4942
    -5.4585  -5.4585  -5.4501  -5.4476  -5.4255  -5.4233  -5.4232  -5.4132
    -4.8498  -4.8465  -4.8457  -4.8452  -4.8452  -4.8411  -4.8368  -4.8368
    -4.8339  -4.8325  -1.0441  -0.7670  -0.5076  -0.2625   0.2880   0.3253
     0.3598   0.3598   0.4281   0.4465   0.5395   0.6639   0.6640   0.6994
     0.6994   0.7310   0.7358   0.7836   0.7946   0.9534   0.9534   1.1526
     1.1527   1.4650   1.4651   1.4787   1.5302   1.6922   1.7937   1.8042
     1.8044   1.8370   1.8371   1.8422   1.8424   1.8917   1.8918   2.0859
     2.5090   2.7788   2.9648   3.3777   7.6705   7.6706   8.6098   8.6098
     8.6889   9.1656   9.1656   9.2663   9.2663   9.2820   9.2835   9.3886
     9.3887   9.4071   9.5853  10.3529  10.3530  10.3532

     occupation numbers
     1.0000   1.0000   1.0000   1.0000   1.0000   1.0000   1.0000   1.0000
     1.0000   1.0000   1.0000   1.0000   1.0000   1.0000   1.0000   1.0000
     1.0000   1.0000   1.0000   1.0000   1.0000   1.0000   1.0000   1.0000
     1.0000   1.0000   1.0000   1.0000   1.0000   1.0000   1.0000   1.0000
     1.0000   1.0000   1.0000   1.0000   1.0000   1.0000   1.0000   1.0000
     1.0000   1.0000   1.0000   1.0000   1.0000   1.0000   1.0000   1.0000
     1.0000   1.0000   1.0000   1.0000   1.0000   1.0000   1.0000   1.0000
     1.0000   1.0000   1.0000   1.0000   1.0000   1.0000   1.0000   1.0000
     1.0000   1.0000   1.0000   1.0000   1.0000   1.0000   1.0000   1.0000
     1.0000   1.0000   1.0000   1.0000   1.0000   1.0000   1.0000   1.0000
     1.0000   1.0000   1.0000   1.0000   1.0000   1.0000   1.0000   1.0000
     1.0000   1.0000   1.0000   1.0000  -0.0000  -0.0000  -0.0000  -0.0000
    -0.0000  -0.0000  -0.0000  -0.0000  -0.0000  -0.0000  -0.0000  -0.0000
    -0.0000  -0.0000  -0.0000  -0.0000  -0.0000  -0.0000

     the Fermi energy is     3.6893 ev

!    total energy              =   -1638.77321959 Ry
     estimated scf accuracy    <       0.00000075 Ry
     smearing contrib. (-TS)   =       0.00000000 Ry
     internal energy E=F+TS    =   -1638.77321959 Ry

     The total energy is F=E-TS. E is the sum of the following terms:
     one-electron contribution =    -622.37778868 Ry
     hartree contribution      =     424.70747868 Ry
     xc contribution           =    -508.47281263 Ry
     ewald contribution        =    -932.63009696 Ry

     convergence has been achieved in  10 iterations

     negative rho (up, down):  3.032E-01 0.000E+00

     Forces acting on atoms (cartesian axes, Ry/au):

     atom    1 type  1   force =     0.00000000    0.00000000   -0.00000000
     atom    2 type  1   force =     0.00000000    0.00000000    0.00000000
     atom    3 type  2   force =     0.00000000    0.00000000    0.00000000
     atom    4 type  2   force =     0.00000000    0.00000000   -0.00000000
     atom    5 type  2   force =     0.00000000    0.00000000   -0.00000000
     atom    6 type  2   force =     0.00000000    0.00000000    0.00000000
     atom    7 type  2   force =     0.00000000    0.00000000   -0.00000000
     atom    8 type  2   force =     0.00000000    0.00000000    0.00000000
     atom    9 type  3   force =    -0.00180024    0.00195295    0.00000000
     atom   10 type  3   force =     0.00180024   -0.00195295    0.00000000
     atom   11 type  3   force =    -0.00195295   -0.00180024   -0.00000000
     atom   12 type  3   force =     0.00180024    0.00195295   -0.00000000
     atom   13 type  3   force =     0.00195295    0.00180024   -0.00000000
     atom   14 type  3   force =    -0.00180024   -0.00195295   -0.00000000
     atom   15 type  3   force =     0.00195295   -0.00180024    0.00000000
     atom   16 type  3   force =    -0.00195295    0.00180024    0.00000000
     atom   17 type  3   force =     0.00000000    0.00000000    0.01217384
     atom   18 type  3   force =     0.00000000    0.00000000   -0.01217384
     atom   19 type  3   force =     0.00000000    0.00000000   -0.01217384
     atom   20 type  3   force =     0.00000000    0.00000000    0.01217384
     The non-local contrib.  to forces
     atom    1 type  1   force =     0.00000000    0.00000000    0.00000000
     atom    2 type  1   force =     0.00000000    0.00000000    0.00000000
     atom    3 type  2   force =     0.00000000    0.00000000    0.00000000
     atom    4 type  2   force =     0.00000000    0.00000000    0.00000000
     atom    5 type  2   force =     0.00000000    0.00000000    0.00000000
     atom    6 type  2   force =     0.00000000    0.00000000    0.00000000
     atom    7 type  2   force =     0.00000000    0.00000000    0.00000000
     atom    8 type  2   force =     0.00000000    0.00000000    0.00000000
     atom    9 type  3   force =    -0.26061261   -0.47293522    0.00000000
     atom   10 type  3   force =     0.26061261    0.47293522    0.00000000
     atom   11 type  3   force =     0.47293522   -0.26061261   -0.00000000
     atom   12 type  3   force =     0.26061261   -0.47293522    0.00000000
     atom   13 type  3   force =    -0.47293522    0.26061261    0.00000000
     atom   14 type  3   force =    -0.26061261    0.47293522    0.00000000
     atom   15 type  3   force =    -0.47293522   -0.26061261   -0.00000000
     atom   16 type  3   force =     0.47293522    0.26061261   -0.00000000
     atom   17 type  3   force =     0.00000000    0.00000000   -0.54837515
     atom   18 type  3   force =     0.00000000    0.00000000    0.54837515
     atom   19 type  3   force =     0.00000000    0.00000000    0.54837515
     atom   20 type  3   force =     0.00000000    0.00000000   -0.54837515
     The ionic contribution  to forces
     atom    1 type  1   force =     0.00000000   -0.00000000   -0.00000000
     atom    2 type  1   force =     0.00000000    0.00000000    0.00000000
     atom    3 type  2   force =    -0.00000000    0.00000000    0.00000000
     atom    4 type  2   force =    -0.00000000    0.00000000    0.00000000
     atom    5 type  2   force =     0.00000000   -0.00000000    0.00000000
     atom    6 type  2   force =     0.00000000   -0.00000000    0.00000000
     atom    7 type  2   force =    -0.00000000    0.00000000    0.00000000
     atom    8 type  2   force =     0.00000000    0.00000000   -0.00000000
     atom    9 type  3   force =     3.69524087    6.48285585   -0.00000000
     atom   10 type  3   force =    -3.69524087   -6.48285585   -0.00000000
     atom   11 type  3   force =    -6.48285585    3.69524087   -0.00000000
     atom   12 type  3   force =    -3.69524087    6.48285585    0.00000000
     atom   13 type  3   force =     6.48285585   -3.69524087   -0.00000000
     atom   14 type  3   force =     3.69524087   -6.48285585    0.00000000
     atom   15 type  3   force =     6.48285585    3.69524087    0.00000000
     atom   16 type  3   force =    -6.48285585   -3.69524087    0.00000000
     atom   17 type  3   force =    -0.00000000   -0.00000000    7.65042302
     atom   18 type  3   force =    -0.00000000   -0.00000000   -7.65042302
     atom   19 type  3   force =     0.00000000    0.00000000   -7.65042302
     atom   20 type  3   force =     0.00000000    0.00000000    7.65042302
     The local contribution  to forces
     atom    1 type  1   force =    -0.00005634   -0.00005638   -0.00000439
     atom    2 type  1   force =     0.00014070    0.00002394    0.00007088
     atom    3 type  2   force =    -0.00005402    0.00002332    0.00022884
     atom    4 type  2   force =    -0.00006497    0.00007058   -0.00022219
     atom    5 type  2   force =     0.00005637   -0.00003050    0.00031254
     atom    6 type  2   force =     0.00004935   -0.00001094   -0.00026769
     atom    7 type  2   force =    -0.00019049   -0.00011089    0.00000521
     atom    8 type  2   force =     0.00009422   -0.00000569   -0.00001131
     atom    9 type  3   force =    -3.43629312   -6.00769625   -0.00000115
     atom   10 type  3   force =     3.43625421    6.00766971   -0.00000114
     atom   11 type  3   force =     6.00772263   -3.43627899   -0.00000741
     atom   12 type  3   force =     3.43634116   -6.00766920    0.00000654
     atom   13 type  3   force =    -6.00772076    3.43625860   -0.00001681
     atom   14 type  3   force =    -3.43628416    6.00763125    0.00000094
     atom   15 type  3   force =    -6.00766004   -3.43625964    0.00001319
     atom   16 type  3   force =     6.00771276    3.43632259    0.00001467
     atom   17 type  3   force =    -0.00003954   -0.00002715   -7.08939307
     atom   18 type  3   force =    -0.00003630   -0.00002181    7.08940316
     atom   19 type  3   force =     0.00003598    0.00001353    7.08965837
     atom   20 type  3   force =     0.00003569    0.00001528   -7.08962565
     The core correction contribution to forces
     atom    1 type  1   force =     0.00000000    0.00000000    0.00000000
     atom    2 type  1   force =     0.00000000    0.00000000    0.00000000
     atom    3 type  2   force =     0.00000225   -0.00000176    0.00000097
     atom    4 type  2   force =     0.00000216    0.00000099    0.00000049
     atom    5 type  2   force =    -0.00000127   -0.00000109   -0.00000018
     atom    6 type  2   force =    -0.00000034    0.00000106    0.00000148
     atom    7 type  2   force =    -0.00000373   -0.00000184    0.00000058
     atom    8 type  2   force =     0.00000304    0.00000009    0.00000062
     atom    9 type  3   force =     0.00000000    0.00000000    0.00000000
     atom   10 type  3   force =     0.00000000    0.00000000    0.00000000
     atom   11 type  3   force =     0.00000000    0.00000000    0.00000000
     atom   12 type  3   force =     0.00000000    0.00000000    0.00000000
     atom   13 type  3   force =     0.00000000    0.00000000    0.00000000
     atom   14 type  3   force =     0.00000000    0.00000000    0.00000000
     atom   15 type  3   force =     0.00000000    0.00000000    0.00000000
     atom   16 type  3   force =     0.00000000    0.00000000    0.00000000
     atom   17 type  3   force =     0.00000000    0.00000000    0.00000000
     atom   18 type  3   force =     0.00000000    0.00000000    0.00000000
     atom   19 type  3   force =     0.00000000    0.00000000    0.00000000
     atom   20 type  3   force =     0.00000000    0.00000000    0.00000000
     The Hubbard contrib.    to forces
     atom    1 type  1   force =     0.00000000    0.00000000    0.00000000
     atom    2 type  1   force =     0.00000000    0.00000000    0.00000000
     atom    3 type  2   force =     0.00000000    0.00000000    0.00000000
     atom    4 type  2   force =     0.00000000    0.00000000    0.00000000
     atom    5 type  2   force =     0.00000000    0.00000000    0.00000000
     atom    6 type  2   force =     0.00000000    0.00000000    0.00000000
     atom    7 type  2   force =     0.00000000    0.00000000    0.00000000
     atom    8 type  2   force =     0.00000000    0.00000000    0.00000000
     atom    9 type  3   force =     0.00000000    0.00000000    0.00000000
     atom   10 type  3   force =     0.00000000    0.00000000    0.00000000
     atom   11 type  3   force =     0.00000000    0.00000000    0.00000000
     atom   12 type  3   force =     0.00000000    0.00000000    0.00000000
     atom   13 type  3   force =     0.00000000    0.00000000    0.00000000
     atom   14 type  3   force =     0.00000000    0.00000000    0.00000000
     atom   15 type  3   force =     0.00000000    0.00000000    0.00000000
     atom   16 type  3   force =     0.00000000    0.00000000    0.00000000
     atom   17 type  3   force =     0.00000000    0.00000000    0.00000000
     atom   18 type  3   force =     0.00000000    0.00000000    0.00000000
     atom   19 type  3   force =     0.00000000    0.00000000    0.00000000
     atom   20 type  3   force =     0.00000000    0.00000000    0.00000000
     The SCF correction term to forces
     atom    1 type  1   force =     0.00007283    0.00007333    0.00000275
     atom    2 type  1   force =    -0.00021079   -0.00002372   -0.00009892
     atom    3 type  2   force =     0.00011175   -0.00004326   -0.00025616
     atom    4 type  2   force =     0.00010801   -0.00008833    0.00026490
     atom    5 type  2   force =    -0.00009476    0.00003478   -0.00036325
     atom    6 type  2   force =    -0.00008706    0.00003164    0.00033347
     atom    7 type  2   force =     0.00024886    0.00013801   -0.00000637
     atom    8 type  2   force =    -0.00012753   -0.00001955    0.00004484
     atom    9 type  3   force =    -0.00013171   -0.00028770    0.00000483
     atom   10 type  3   force =     0.00017519    0.00030447    0.00000412
     atom   11 type  3   force =     0.00024603   -0.00014399    0.00001348
     atom   12 type  3   force =     0.00007100   -0.00030931   -0.00001187
     atom   13 type  3   force =    -0.00024967    0.00018253    0.00002285
     atom   14 type  3   force =    -0.00014871    0.00031789   -0.00000933
     atom   15 type  3   force =    -0.00028078   -0.00017214   -0.00001882
     atom   16 type  3   force =     0.00026293    0.00011020   -0.00002721
     atom   17 type  3   force =     0.00005312    0.00003921   -0.00054585
     atom   18 type  3   force =     0.00004573    0.00002871    0.00053446
     atom   19 type  3   force =    -0.00005521   -0.00001866    0.00015214
     atom   20 type  3   force =    -0.00005319   -0.00002182   -0.00018340

     Total force =     0.025480     Total SCF correction =     0.001438

     Computing stress (Cartesian axis) and pressure

     negative rho (up, down):  3.032E-01 0.000E+00
          total   stress  (Ry/bohr**3)                   (kbar)     P=      -83.87
  -0.00063306   0.00000000   0.00000000          -93.13        0.00        0.00
   0.00000000  -0.00063306   0.00000000            0.00      -93.13        0.00
   0.00000000   0.00000000  -0.00044435            0.00        0.00      -65.37

     kinetic stress (kbar)  12709.68      0.00      0.00
                                0.00  12709.68      0.00
                                0.00      0.00  12736.07

     local   stress (kbar)  -2235.65     -0.00     -0.00
                               -0.00  -2235.67     -0.00
                               -0.00     -0.00  -4919.62

     nonloc. stress (kbar)   4490.17      0.00      0.00
                                0.00   4490.17      0.00
                                0.00      0.00   4517.89

     hartree stress (kbar)   7304.44      0.00     -0.00
                                0.00   7304.46      0.00
                               -0.00      0.00   8266.13

     exc-cor stress (kbar)  10584.89     -0.00      0.00
                               -0.00  10584.89     -0.00
                                0.00     -0.00  10587.94

     corecor stress (kbar) -15638.02      0.00     -0.00
                                0.00 -15638.02     -0.00
                               -0.00     -0.00 -15638.98

     ewald   stress (kbar) -17308.63     -0.00     -0.00
                               -0.00 -17308.63     -0.00
                               -0.00     -0.00 -15614.80

     hubbard stress (kbar)      0.00      0.00      0.00
                                0.00      0.00      0.00
                                0.00      0.00      0.00

     DFT-D   stress (kbar)      0.00      0.00      0.00
                                0.00      0.00      0.00
                                0.00      0.00      0.00

     XDM     stress (kbar)      0.00      0.00      0.00
                                0.00      0.00      0.00
                                0.00      0.00      0.00

     dft-nl  stress (kbar)      0.00      0.00      0.00
                                0.00      0.00      0.00
                                0.00      0.00      0.00

     TS-vdW  stress (kbar)      0.00      0.00      0.00
                                0.00      0.00      0.00
                                0.00      0.00      0.00

[...]

                                0.00      0.00      0.00

     Writing all to output data dir calculations/myprefix.save/

     General routines

     Parallel routines

   This run was terminated on:  15:20:38   3Mar2023

   JOB DONE.