     Program PWSCF v.7.0 starts on  4Mar2023 at 17:36:47

     R & G space division:  proc/nbgrp/npool/nimage =      32

     Reading input from espresso_7079.pwi
Warning: card &CELL ignored
Warning: card / ignored

     Current dimensions of program PWSCF are:
     Max number of different atomic species (ntypx) = 10
     Max number of k-points (npk) =  40000
     Max angular momentum in pseudopotentials (lmaxx) =  4

     gamma-point specific algorithms are used
     Message from routine setup:
     using ibrav=0 with symmetry is DISCOURAGED, use correct ibrav instead

     Using Slab Decomposition

     bravais-lattice index     =            0
     lattice parameter (alat)  =      14.4352  a.u.
     unit-cell volume          =    1635.3285 (a.u.)^3
     number of atoms/cell      =            8
     number of atomic types    =            2
     number of electrons       =        66.00
     number of Kohn-Sham states=           40
     kinetic-energy cutoff     =      30.0000  Ry
     charge density cutoff     =     240.0000  Ry
     scf convergence threshold =      1.0E-06
     mixing beta               =       0.7000
     number of iterations used =            8  plain     mixing
     Exchange-correlation=  SLA  PW   PBX  PBC
                           (   1   4   3   4   0   0   0)

     celldm(1)=  14.435243  celldm(2)=   0.000000  celldm(3)=   0.000000
     celldm(4)=   0.000000  celldm(5)=   0.000000  celldm(6)=   0.000000

     crystal axes: (cart. coord. in units of alat)
               a(1) = (   1.000000   0.000000   0.000000 )
               a(2) = (   0.639938   0.768426   0.000000 )
               a(3) = (   0.639938   0.299856   0.707507 )

     reciprocal axes: (cart. coord. in units 2 pi/alat)
               b(1) = (  1.000000 -0.832791 -0.551544 )
               b(2) = (  0.000000  1.301361 -0.551544 )
               b(3) = (  0.000000  0.000000  1.413415 )

     PseudoPot. # 1 for Ti read from file:
     /home/pragov/projects/rrg-bengioy-ad/pragov/crystal_structure_design/SSSP/ti_pbe_v1.4.uspp.F.UPF
     MD5 check sum: 88a00a6731bd790ddea75d31a80cb452
     Pseudo is Ultrasoft + core correction, Zval = 12.0
     Generated by new atomic code, or converted to UPF format
     Using radial grid of  851 points,  6 beta functions with:
                l(1) =   0
                l(2) =   0
                l(3) =   1
                l(4) =   1
                l(5) =   2
                l(6) =   2
     Q(r) pseudized with  6 coefficients,  rinner =    1.000   1.000   1.000
                                                       1.000   1.000

     PseudoPot. # 2 for Br read from file:
     /home/pragov/projects/rrg-bengioy-ad/pragov/crystal_structure_design/SSSP/br_pbe_v1.4.uspp.F.UPF
     MD5 check sum: d3ffb7b29f6225aa16fe06858fb2a80b
     Pseudo is Ultrasoft + core correction, Zval =  7.0
     Generated by new atomic code, or converted to UPF format
     Using radial grid of  879 points,  6 beta functions with:
                l(1) =   0
                l(2) =   0
                l(3) =   1
                l(4) =   1
                l(5) =   2
                l(6) =   2
     Q(r) pseudized with  8 coefficients,  rinner =    1.100   1.100   1.100
                                                       1.100   1.100

     atomic species   valence    mass     pseudopotential
        Ti            12.00    47.86700     Ti( 1.00)
        Br             7.00    79.90400     Br( 1.00)

      2 Sym. Ops., with inversion, found

                                    s                        frac. trans.

      isym =  1     identity

 cryst.   s( 1) = (     1          0          0      )
                  (     0          1          0      )
                  (     0          0          1      )

 cart.    s( 1) = (  1.0000000  0.0000000  0.0000000 )
                  (  0.0000000  1.0000000  0.0000000 )
                  (  0.0000000  0.0000000  1.0000000 )

      isym =  2     inversion

 cryst.   s( 2) = (    -1          0          0      )
                  (     0         -1          0      )
                  (     0          0         -1      )

 cart.    s( 2) = ( -1.0000000 -0.0000000 -0.0000000 )
                  (  0.0000000 -1.0000000 -0.0000000 )
                  (  0.0000000  0.0000000 -1.0000000 )

   Cartesian axes

     site n.     atom                  positions (alat units)
         1           Ti  tau(   1) = (   0.7601427   0.3561803   0.2358926  )
         2           Ti  tau(   2) = (   1.5197337   0.7121020   0.4716139  )
         3           Br  tau(   3) = (   0.9382632   0.5793343   0.0530892  )
         4           Br  tau(   4) = (   1.2342702   0.8827279   0.4057422  )
         5           Br  tau(   5) = (   1.3416132   0.4889480   0.6544173  )
         6           Br  tau(   6) = (   0.8117083   0.5450359   0.5126889  )
         7           Br  tau(   7) = (   1.4681682   0.5232464   0.1948176  )
         8           Br  tau(   8) = (   1.0456062   0.1855544   0.3017643  )

   Crystallographic axes

     site n.     atom                  positions (cryst. coord.)
         1           Ti  tau(   1) = (  0.3334140  0.3334140  0.3334140  )
         2           Ti  tau(   2) = (  0.6665860  0.6665860  0.6665860  )
         3           Br  tau(   3) = (  0.4265180  0.7246420  0.0750370  )
         4           Br  tau(   4) = (  0.2753580  0.9249630  0.5734820  )
         5           Br  tau(   5) = (  0.5734820  0.2753580  0.9249630  )
         6           Br  tau(   6) = (  0.0750370  0.4265180  0.7246420  )
         7           Br  tau(   7) = (  0.9249630  0.5734820  0.2753580  )
         8           Br  tau(   8) = (  0.7246420  0.0750370  0.4265180  )

     number of k points=     1  Methfessel-Paxton smearing, width (Ry)=  0.0010
                       cart. coord. in units 2pi/alat
        k(    1) = (   0.0000000   0.0000000   0.0000000), wk =   2.0000000

                       cryst. coord.
        k(    1) = (   0.0000000   0.0000000   0.0000000), wk =   2.0000000

     Check: negative core charge=   -0.000002

     Initial potential from superposition of free atoms

     starting charge      63.9998, renormalised to      66.0000

     negative rho (up, down):  2.043E-03 0.000E+00
     Starting wfcs are   44 randomized atomic wfcs

     Self-consistent Calculation

     iteration #  1     ecut=    30.00 Ry     beta= 0.70
     Davidson diagonalization with overlap

     ethr =  1.00E-02,  avg # of iterations =  2.0

     negative rho (up, down):  1.158E-03 0.000E+00

     total energy              =    -519.00741653 Ry
     estimated scf accuracy    <       1.69776854 Ry

[...]

     ethr =  2.73E-04,  avg # of iterations =  1.0
     Minimization algorithm failed to find Fermi energy: reverting to bisection
     Possible cause: smearing is larger than the electronic band-gap.

[...]

     total energy              =    -520.19455076 Ry
     estimated scf accuracy    <       0.00000123 Ry

     iteration # 37     ecut=    30.00 Ry     beta= 0.70
     Davidson diagonalization with overlap

     ethr =  1.87E-09,  avg # of iterations =  2.0

[...]

     End of self-consistent calculation

          k = 0.0000 0.0000 0.0000 (  2288 PWs)   bands (ev):

   -53.4678 -53.4652 -29.7481 -29.7390 -29.7123 -29.7122 -29.6883 -29.6882
   -11.3894 -10.7868 -10.6125 -10.6125 -10.6005 -10.6005  -0.8009  -0.7449
    -0.0928  -0.0928  -0.0049  -0.0049   0.2358   0.7578   0.7578   0.8518
     1.0955   1.0955   1.4193   2.2229   2.2229   2.2809   2.5741   2.5741
     4.9992   4.9992   5.0018   5.0632   5.3043   5.3043   6.6492   6.6494

     occupation numbers
     1.0000   1.0000   1.0000   1.0000   1.0000   1.0000   1.0000   1.0000
     1.0000   1.0000   1.0000   1.0000   1.0000   1.0000   1.0000   1.0000
     1.0000   1.0000   1.0000   1.0000   1.0000   1.0000   1.0000   1.0000
     1.0000   1.0000   1.0000   1.0000   1.0000   1.0000   1.0000   1.0000
     0.3832   0.3819   0.2349  -0.0000  -0.0000  -0.0000  -0.0000  -0.0000

     the Fermi energy is     4.9973 ev

!    total energy              =    -520.19455038 Ry
     estimated scf accuracy    <       0.00000065 Ry
     smearing contrib. (-TS)   =      -0.00072798 Ry
     internal energy E=F+TS    =    -520.19382240 Ry

     The total energy is F=E-TS. E is the sum of the following terms:
     one-electron contribution =    -240.45430348 Ry
     hartree contribution      =     138.95840942 Ry
     xc contribution           =    -192.92146703 Ry
     ewald contribution        =    -225.77646131 Ry

     convergence has been achieved in  37 iterations

     negative rho (up, down):  1.504E-03 0.000E+00

     Forces acting on atoms (cartesian axes, Ry/au):

     atom    1 type  1   force =    -0.00035654   -0.00013706   -0.00010077
     atom    2 type  1   force =     0.00035654    0.00013706    0.00010077
     atom    3 type  2   force =    -0.00592826    0.00296431   -0.00153699
     atom    4 type  2   force =     0.00154560    0.00392999    0.00532264
     atom    5 type  2   force =     0.00592826   -0.00296431    0.00153699
     atom    6 type  2   force =    -0.00400795   -0.00437989    0.00330111
     atom    7 type  2   force =     0.00400795    0.00437989   -0.00330111
     atom    8 type  2   force =    -0.00154560   -0.00392999   -0.00532264
     The non-local contrib.  to forces
     atom    1 type  1   force =    -0.00063343   -0.00031762   -0.00018763
     atom    2 type  1   force =     0.00063343    0.00031762    0.00018763
     atom    3 type  2   force =    -0.00173001    0.00010712   -0.00063327
     atom    4 type  2   force =     0.00103988    0.00112824    0.00102405
     atom    5 type  2   force =     0.00173001   -0.00010712    0.00063327
     atom    6 type  2   force =    -0.00152951   -0.00096973    0.00033286
     atom    7 type  2   force =     0.00152951    0.00096973   -0.00033286
     atom    8 type  2   force =    -0.00103988   -0.00112824   -0.00102405
     The ionic contribution  to forces
     atom    1 type  1   force =    -0.06695189   -0.03137167   -0.02077881
     atom    2 type  1   force =     0.06695189    0.03137167    0.02077881
     atom    3 type  2   force =     5.66293757    6.97188960    2.16702217
     atom    4 type  2   force =    -8.98131560   -1.95228585    0.94692142
     atom    5 type  2   force =    -5.66293757   -6.97188960   -2.16702217
     atom    6 type  2   force =     7.24767571    1.33373014    5.57355194
     atom    7 type  2   force =    -7.24767571   -1.33373014   -5.57355194
     atom    8 type  2   force =     8.98131560    1.95228585   -0.94692142
     The local contribution  to forces
     atom    1 type  1   force =     0.06708369    0.03155114    0.02090007
     atom    2 type  1   force =    -0.06709085   -0.03158277   -0.02093128
     atom    3 type  2   force =    -5.67714707   -6.98678774   -2.17215326
     atom    4 type  2   force =     9.00174688    1.95816946   -0.94808534
     atom    5 type  2   force =     5.67695664    6.98671471    2.17291232
     atom    6 type  2   force =    -7.26490218   -1.33792337   -5.58538958
     atom    7 type  2   force =     7.26529768    1.33734800    5.58501572
     atom    8 type  2   force =    -9.00195199   -1.95753216    0.94768597
     The core correction contribution to forces
     atom    1 type  1   force =     0.00008742    0.00004403    0.00002394
     atom    2 type  1   force =    -0.00008769   -0.00004427   -0.00002398
     atom    3 type  2   force =     0.00978318    0.01763813    0.00453984
     atom    4 type  2   force =    -0.01981234   -0.00271026    0.00524076
     atom    5 type  2   force =    -0.00978269   -0.01763872   -0.00454165
     atom    6 type  2   force =     0.01476109    0.00044047    0.01446709
     atom    7 type  2   force =    -0.01476193   -0.00043994   -0.01446663
     atom    8 type  2   force =     0.01981257    0.00270966   -0.00523970
     The Hubbard contrib.    to forces
     atom    1 type  1   force =     0.00000000    0.00000000    0.00000000
     atom    2 type  1   force =     0.00000000    0.00000000    0.00000000
     atom    3 type  2   force =     0.00000000    0.00000000    0.00000000
     atom    4 type  2   force =     0.00000000    0.00000000    0.00000000
     atom    5 type  2   force =     0.00000000    0.00000000    0.00000000
     atom    6 type  2   force =     0.00000000    0.00000000    0.00000000
     atom    7 type  2   force =     0.00000000    0.00000000    0.00000000
     atom    8 type  2   force =     0.00000000    0.00000000    0.00000000
     The SCF correction term to forces
     atom    1 type  1   force =     0.00005469   -0.00004085   -0.00005679
     atom    2 type  1   force =    -0.00005320    0.00007692    0.00009115
     atom    3 type  2   force =     0.00022511    0.00011657   -0.00030149
     atom    4 type  2   force =    -0.00011619   -0.00036168    0.00021664
     atom    5 type  2   force =    -0.00004108   -0.00004421   -0.00043382
     atom    6 type  2   force =    -0.00000600    0.00033298    0.00033193
     atom    7 type  2   force =    -0.00037457    0.00022260    0.00002773
     atom    8 type  2   force =     0.00031513   -0.00025517    0.00017143

     Total force =     0.016659     Total SCF correction =     0.001081

     Computing stress (Cartesian axis) and pressure

     negative rho (up, down):  1.504E-03 0.000E+00
          total   stress  (Ry/bohr**3)                   (kbar)     P=       10.79
   0.00011097   0.00003148   0.00002066           16.32        4.63        3.04
   0.00003148   0.00005862   0.00000949            4.63        8.62        1.40
   0.00002066   0.00000949   0.00005051            3.04        1.40        7.43

     kinetic stress (kbar)   6188.71      7.57      5.12
                                7.57   6176.35      2.44
                                5.12      2.44   6174.09

     local   stress (kbar)   5181.95   4663.50   3088.32
                             4663.50  -2585.91   1446.94
                             3088.32   1446.94  -3812.08

     nonloc. stress (kbar)   -817.89     -5.51     -3.62
                               -5.51   -808.64     -1.68
                               -3.62     -1.68   -807.28

     hartree stress (kbar)   1644.92  -2104.80  -1393.89
                            -2104.80   5150.76   -653.08
                            -1393.89   -653.08   5704.25

     exc-cor stress (kbar)   9401.41     -0.62     -0.41
                               -0.62   9402.45     -0.19
                               -0.41     -0.19   9402.61

     corecor stress (kbar) -11751.75     -0.42     -0.28
                               -0.42 -11751.06     -0.13
                               -0.28     -0.13 -11750.94

     ewald   stress (kbar)  -9831.03  -2555.08  -1692.19
                            -2555.08  -5575.34   -792.91
                            -1692.19   -792.91  -4903.23

     hubbard stress (kbar)      0.00      0.00      0.00
                                0.00      0.00      0.00
                                0.00      0.00      0.00

     DFT-D   stress (kbar)      0.00      0.00      0.00
                                0.00      0.00      0.00
                                0.00      0.00      0.00

     XDM     stress (kbar)      0.00      0.00      0.00
                                0.00      0.00      0.00
                                0.00      0.00      0.00

     dft-nl  stress (kbar)      0.00      0.00      0.00
                                0.00      0.00      0.00
                                0.00      0.00      0.00

     TS-vdW  stress (kbar)      0.00      0.00      0.00
                                0.00      0.00      0.00
                                0.00      0.00      0.00

[...]

                                0.00      0.00      0.00

     Writing all to output data dir calculations/myprefix.save/

     General routines

     Parallel routines

   This run was terminated on:  17:36:51   4Mar2023

   JOB DONE.