     Program PWSCF v.7.0 starts on 23Jun2023 at  3:27:14

     K-points division:     npool     =       2
     R & G space division:  proc/nbgrp/npool/nimage =       4

     Reading input from espresso_10517.pwi
Warning: card &CELL ignored
Warning: card / ignored

     Current dimensions of program PWSCF are:
     Max number of different atomic species (ntypx) = 10
     Max number of k-points (npk) =  40000
     Max angular momentum in pseudopotentials (lmaxx) =  4
     file O.pbe-n-kjpaw_psl.0.1.UPF: wavefunction(s)  2P renormalized
     Message from routine setup:
     using ibrav=0 with symmetry is DISCOURAGED, use correct ibrav instead

     Using Slab Decomposition

     bravais-lattice index     =            0
     lattice parameter (alat)  =       9.5953  a.u.
     unit-cell volume          =    1238.3288 (a.u.)^3
     number of atoms/cell      =           16
     number of atomic types    =            3
     number of electrons       =       126.00
     number of Kohn-Sham states=           64
     kinetic-energy cutoff     =      30.0000  Ry
     charge density cutoff     =     240.0000  Ry
     scf convergence threshold =      1.0E-06
     mixing beta               =       0.7000
     number of iterations used =            8  plain     mixing
     Exchange-correlation= SLA  PW   PBX  PBC
                           (   1   4   3   4   0   0   0)

     celldm(1)=   9.595323  celldm(2)=   0.000000  celldm(3)=   0.000000
     celldm(4)=   0.000000  celldm(5)=   0.000000  celldm(6)=   0.000000

     crystal axes: (cart. coord. in units of alat)
               a(1) = (   1.000000   0.000000   0.000000 )
               a(2) = (  -0.207210   1.243773   0.000000 )
               a(3) = (  -0.341228  -0.470024   1.126980 )

     reciprocal axes: (cart. coord. in units 2 pi/alat)
               b(1) = (  1.000000  0.166598  0.372263 )
               b(2) = (  0.000000  0.804005  0.335323 )
               b(3) = (  0.000000  0.000000  0.887327 )

     PseudoPot. # 1 for Cr read from file:
     /home/pragov/projects/rrg-bengioy-ad/pragov/crystal_structure_design/SSSP/cr_pbe_v1.5.uspp.F.UPF
     MD5 check sum: 0d52af634a40206e4dee301ad30da4bf
     Pseudo is Ultrasoft + core correction, Zval = 14.0
     Generated by new atomic code, or converted to UPF format
     Using radial grid of  857 points,  6 beta functions with:
                l(1) =   0
                l(2) =   0
                l(3) =   1
                l(4) =   1
                l(5) =   2
                l(6) =   2
     Q(r) pseudized with  8 coefficients,  rinner =    0.950   0.950   0.950
                                                       0.950   0.950

     PseudoPot. # 2 for P  read from file:
     /home/pragov/projects/rrg-bengioy-ad/pragov/crystal_structure_design/SSSP/P.pbe-n-rrkjus_psl.1.0.0.UPF
     MD5 check sum: 8b930f418f0a4573dca56cd030ffe088
     Pseudo is Ultrasoft + core correction, Zval =  5.0
     Generated using "atomic" code by A. Dal Corso  v.5.1
     Using radial grid of 1147 points,  6 beta functions with:
                l(1) =   0
                l(2) =   0
                l(3) =   1
                l(4) =   1
                l(5) =   2
                l(6) =   2
     Q(r) pseudized with 0 coefficients

     PseudoPot. # 3 for O  read from file:
     /home/pragov/projects/rrg-bengioy-ad/pragov/crystal_structure_design/SSSP/O.pbe-n-kjpaw_psl.0.1.UPF
     MD5 check sum: 0234752ac141de4415c5fc33072bef88
     Pseudo is Projector augmented-wave + core cor, Zval =  6.0
     Generated using "atomic" code by A. Dal Corso  v.5.0.99 svn rev. 10869
     Shape of augmentation charge: BESSEL
     Using radial grid of 1095 points,  4 beta functions with:
                l(1) =   0
                l(2) =   0
                l(3) =   1
                l(4) =   1
     Q(r) pseudized with 0 coefficients

     atomic species   valence    mass     pseudopotential
        Cr            14.00    51.99610     Cr( 1.00)
        P              5.00    30.97376     P ( 1.00)
        O              6.00    15.99900     O ( 1.00)

      2 Sym. Ops., with inversion, found

                                    s                        frac. trans.

      isym =  1     identity

 cryst.   s( 1) = (     1          0          0      )
                  (     0          1          0      )
                  (     0          0          1      )

 cart.    s( 1) = (  1.0000000  0.0000000 -0.0000000 )
                  (  0.0000000  1.0000000 -0.0000000 )
                  (  0.0000000  0.0000000  1.0000000 )

      isym =  2     inversion

 cryst.   s( 2) = (    -1          0          0      )
                  (     0         -1          0      )
                  (     0          0         -1      )

 cart.    s( 2) = ( -1.0000000 -0.0000000  0.0000000 )
                  (  0.0000000 -1.0000000  0.0000000 )
                  (  0.0000000  0.0000000 -1.0000000 )

   Cartesian axes

     site n.     atom                  positions (alat units)
         1           Cr  tau(   1) = (   0.0022232  -0.1469725   1.0654589  )
         2           Cr  tau(   2) = (   0.4493399   0.9207192   0.0615196  )
         3           Cr  tau(   3) = (  -0.0524427   0.6618633   0.2847686  )
         4           Cr  tau(   4) = (   0.5040071   0.1118854   0.8422110  )
         5           P   tau(   5) = (  -0.0045562   0.0470966   0.4376501  )
         6           P   tau(   6) = (   0.4561175   0.7266521   0.6893295  )
         7           O   tau(   7) = (  -0.2565815   0.6623432   0.6271766  )
         8           O   tau(   8) = (   0.7081430   0.1114072   0.4998019  )
         9           O   tau(   9) = (  -0.2130531   0.2410367   1.0728057  )
        10           O   tau(  10) = (   0.6646167   0.5327107   0.0541739  )
        11           O   tau(  11) = (  -0.2016466   1.0501917   0.2431966  )
        12           O   tau(  12) = (   0.6532067  -0.2764417   0.8837830  )
        13           O   tau(  13) = (   0.1571580  -0.0284348   0.6884223  )
        14           O   tau(  14) = (   0.2944040   0.8021830   0.4385585  )
        15           O   tau(  15) = (   0.1267215   0.2886740   0.2991703  )
        16           O   tau(  16) = (   0.3248428   0.4850747   0.8278093  )

   Crystallographic axes

     site n.     atom                  positions (cryst. coord.)
         1           Cr  tau(   1) = (  0.3743690  0.2391060  0.9454110  )
         2           Cr  tau(   2) = (  0.6256310  0.7608920  0.0545880  )
         3           Cr  tau(   3) = (  0.1638310  0.6276310  0.2526830  )
         4           Cr  tau(   4) = (  0.8361710  0.3723690  0.7473170  )
         5           P   tau(   5) = (  0.1662110  0.1846200  0.3883390  )
         6           P   tau(   6) = (  0.8337880  0.8153800  0.6116610  )
         7           O   tau(   7) = (  0.0872380  0.7428340  0.5565110  )
         8           O   tau(   8) = (  0.9127610  0.2571670  0.4434880  )
         9           O   tau(   9) = (  0.2264690  0.5535310  0.9519300  )
        10           O   tau(  10) = (  0.7735320  0.4464680  0.0480700  )
        11           O   tau(  11) = (  0.0638460  0.9259090  0.2157950  )
        12           O   tau(  12) = (  0.9361520  0.0740920  0.7842050  )
        13           O   tau(  13) = (  0.4086950  0.2079820  0.6108560  )
        14           O   tau(  14) = (  0.5913050  0.7920180  0.3891450  )
        15           O   tau(  15) = (  0.2861840  0.3324140  0.2654620  )
        16           O   tau(  16) = (  0.7138180  0.6675860  0.7345380  )

     number of k points=    14
                       cart. coord. in units 2pi/alat
        k(    1) = (   0.0000000   0.0000000   0.0000000), wk =   0.0740741
        k(    2) = (   0.0000000   0.0000000   0.2957758), wk =   0.1481481
        k(    3) = (   0.0000000   0.2680018   0.1117743), wk =   0.1481481
        k(    4) = (   0.0000000   0.2680018   0.4075501), wk =   0.1481481
        k(    5) = (   0.0000000   0.2680018  -0.1840016), wk =   0.1481481
        k(    6) = (   0.3333333   0.0555326   0.1240877), wk =   0.1481481
        k(    7) = (   0.3333333   0.0555326   0.4198635), wk =   0.1481481
        k(    8) = (   0.3333333   0.0555326  -0.1716881), wk =   0.1481481
        k(    9) = (   0.3333333   0.3235343   0.2358620), wk =   0.1481481
        k(   10) = (   0.3333333   0.3235343   0.5316378), wk =   0.1481481
        k(   11) = (   0.3333333   0.3235343  -0.0599139), wk =   0.1481481
        k(   12) = (   0.3333333  -0.2124692   0.0123134), wk =   0.1481481
        k(   13) = (   0.3333333  -0.2124692   0.3080893), wk =   0.1481481
        k(   14) = (   0.3333333  -0.2124692  -0.2834624), wk =   0.1481481

                       cryst. coord.
        k(    1) = (   0.0000000   0.0000000   0.0000000), wk =   0.0740741
        k(    2) = (   0.0000000   0.0000000   0.3333333), wk =   0.1481481
        k(    3) = (   0.0000000   0.3333333  -0.0000000), wk =   0.1481481
        k(    4) = (   0.0000000   0.3333333   0.3333333), wk =   0.1481481
        k(    5) = (   0.0000000   0.3333333  -0.3333333), wk =   0.1481481
        k(    6) = (   0.3333333   0.0000000  -0.0000000), wk =   0.1481481
        k(    7) = (   0.3333333   0.0000000   0.3333333), wk =   0.1481481
        k(    8) = (   0.3333333   0.0000000  -0.3333333), wk =   0.1481481
        k(    9) = (   0.3333333   0.3333333  -0.0000000), wk =   0.1481481
        k(   10) = (   0.3333333   0.3333333   0.3333333), wk =   0.1481481
        k(   11) = (   0.3333333   0.3333333  -0.3333333), wk =   0.1481481
        k(   12) = (   0.3333333  -0.3333333   0.0000000), wk =   0.1481481
        k(   13) = (   0.3333333  -0.3333333   0.3333333), wk =   0.1481481
        k(   14) = (   0.3333333  -0.3333333  -0.3333333), wk =   0.1481481

     Check: negative core charge=   -0.000018

     Initial potential from superposition of free atoms

     starting charge     121.9996, renormalised to     126.0000

     negative rho (up, down):  3.115E-03 0.000E+00
     Starting wfcs are   88 randomized atomic wfcs
     Checking if some PAW data can be deallocated...

     Self-consistent Calculation

     iteration #  1     ecut=    30.00 Ry     beta= 0.70
     Davidson diagonalization with overlap

     ethr =  1.00E-02,  avg # of iterations =  2.0

     negative rho (up, down):  1.031E-02 0.000E+00

     total energy              =   -1134.58321302 Ry
     estimated scf accuracy    <      14.77385602 Ry

[...]

     c_bands:  1 eigenvalues not converged
     ethr =  8.50E-05,  avg # of iterations =  6.5

[...]

     c_bands:  1 eigenvalues not converged
     ethr =  4.38E-07,  avg # of iterations =  6.4

[...]

     total energy              =   -1146.30180207 Ry
     estimated scf accuracy    <       0.00000229 Ry

     iteration #104     ecut=    30.00 Ry     beta= 0.70
     Davidson diagonalization with overlap

     ethr =  1.82E-09,  avg # of iterations =  1.1

     negative rho (up, down):  2.612E-03 0.000E+00

     End of self-consistent calculation

          k = 0.0000 0.0000 0.0000 (  3437 PWs)   bands (ev):

   -63.2361 -63.2306 -62.9209 -62.9188 -34.6386 -34.6283 -34.6219 -34.5622
   -34.4738 -34.4695 -34.4146 -34.4050 -34.2212 -34.2208 -34.1395 -34.1142
   -14.0517 -13.6560 -11.6153 -11.5385 -11.4856 -11.4794 -11.1938 -11.1714
   -10.5214 -10.0220  -1.5897  -1.2552   0.6951   0.8434   0.8470   1.0403
     1.1236   1.2418   2.2798   2.7375   3.0253   3.1740   3.3693   3.4409
     3.5895   3.6390   3.8302   3.8674   3.9708   4.2362   4.4211   4.7298
     4.9386   5.2573   5.3241   5.5159   5.6911   5.7394   5.8881   5.9642
     8.6477   8.7110   8.9448   9.0833   9.1131   9.1413   9.2144   9.2592

     occupation numbers
     1.0000   1.0000   1.0000   1.0000   1.0000   1.0000   1.0000   1.0000
     1.0000   1.0000   1.0000   1.0000   1.0000   1.0000   1.0000   1.0000
     1.0000   1.0000   1.0000   1.0000   1.0000   1.0000   1.0000   1.0000
     1.0000   1.0000   1.0000   1.0000   1.0000   1.0000   1.0000   1.0000
     1.0000   1.0000   1.0000   1.0000   1.0000   1.0000   1.0000   1.0000
     1.0000   1.0000   1.0000   1.0000   1.0000   1.0000   1.0000   1.0000
     1.0000   1.0000   1.0000   1.0000   1.0000   1.0000   1.0000   1.0000
     1.0000   1.0000   1.0000   1.0000   1.0000   1.0000   1.0000   0.0000

[...]

          k = 0.3333-0.2125-0.2835 (  3438 PWs)   bands (ev):

   -63.2361 -63.2306 -62.9209 -62.9189 -34.6362 -34.6289 -34.6220 -34.5651
   -34.4757 -34.4743 -34.4118 -34.4052 -34.2219 -34.2214 -34.1352 -34.1170
   -13.8926 -13.7076 -11.7201 -11.6322 -11.4991 -11.4729 -11.2679 -11.1150
   -10.3833 -10.1303  -1.3912  -1.2048   0.6128   0.7770   0.9197   1.1840
     1.4256   1.5079   2.5710   2.7823   2.9107   2.9906   3.0542   3.3077
     3.4182   3.5974   3.7502   3.8678   4.0342   4.1738   4.5589   4.6456
     4.6991   5.0968   5.2922   5.3643   5.4319   5.5775   5.8645   6.1800
     8.4925   8.7541   8.7836   8.9771   9.0850   9.2399   9.2824   9.3287

     occupation numbers
     1.0000   1.0000   1.0000   1.0000   1.0000   1.0000   1.0000   1.0000
     1.0000   1.0000   1.0000   1.0000   1.0000   1.0000   1.0000   1.0000
     1.0000   1.0000   1.0000   1.0000   1.0000   1.0000   1.0000   1.0000
     1.0000   1.0000   1.0000   1.0000   1.0000   1.0000   1.0000   1.0000
     1.0000   1.0000   1.0000   1.0000   1.0000   1.0000   1.0000   1.0000
     1.0000   1.0000   1.0000   1.0000   1.0000   1.0000   1.0000   1.0000
     1.0000   1.0000   1.0000   1.0000   1.0000   1.0000   1.0000   1.0000
     1.0000   1.0000   1.0000   1.0000   1.0000   1.0000   1.0000   0.0000

     highest occupied, lowest unoccupied level (ev):     9.2936    9.2592

!    total energy              =   -1146.30180185 Ry
     estimated scf accuracy    <       0.00000054 Ry

     The total energy is the sum of the following terms:
     one-electron contribution =    -564.13924685 Ry
     hartree contribution      =     341.24077603 Ry
     xc contribution           =    -172.87783587 Ry
     ewald contribution        =    -655.33807592 Ry
     one-center paw contrib.   =     -95.18741924 Ry
      -> PAW hartree energy AE =       0.00000000 Ry
      -> PAW hartree energy PS =       0.00000000 Ry
      -> PAW xc energy AE      =       0.00000000 Ry
      -> PAW xc energy PS      =       0.00000000 Ry
      -> total E_H with PAW    =     341.24077603 Ry
      -> total E_XC with PAW   =    -172.87783587 Ry

     convergence has been achieved in 104 iterations

     Writing all to output data dir calculations_bands/myprefix.save/

     General routines

     Parallel routines

     PAW routines

   This run was terminated on:   3:29: 6  23Jun2023

   JOB DONE.