     Program PWSCF v.7.0 starts on  6Jun2023 at 13: 1:15

     K-points division:     npool     =       2
     R & G space division:  proc/nbgrp/npool/nimage =       4

     Reading input from espresso_16705.pwi
Warning: card &CELL ignored
Warning: card / ignored

     Current dimensions of program PWSCF are:
     Max number of different atomic species (ntypx) = 10
     Max number of k-points (npk) =  40000
     Max angular momentum in pseudopotentials (lmaxx) =  4
     file C.pbe-n-kjpaw_psl.1.0.0.UPF: wavefunction(s)  2S 2P renormalized
     file O.pbe-n-kjpaw_psl.0.1.UPF: wavefunction(s)  2P renormalized
     Message from routine setup:
     using ibrav=0 with symmetry is DISCOURAGED, use correct ibrav instead

     Using Slab Decomposition

     bravais-lattice index     =            0
     lattice parameter (alat)  =       7.4374  a.u.
     unit-cell volume          =     607.5155 (a.u.)^3
     number of atoms/cell      =            6
     number of atomic types    =            3
     number of electrons       =        44.00
     number of Kohn-Sham states=           64
     kinetic-energy cutoff     =      30.0000  Ry
     charge density cutoff     =     240.0000  Ry
     scf convergence threshold =      1.0E-06
     mixing beta               =       0.7000
     number of iterations used =            8  plain     mixing
     Exchange-correlation= SLA  PW   PBX  PBC
                           (   1   4   3   4   0   0   0)

     celldm(1)=   7.437438  celldm(2)=   0.000000  celldm(3)=   0.000000
     celldm(4)=   0.000000  celldm(5)=   0.000000  celldm(6)=   0.000000

     crystal axes: (cart. coord. in units of alat)
               a(1) = (   1.000000   0.000000   0.000000 )
               a(2) = (   0.515119   0.857119   0.000000 )
               a(3) = (   0.188477   0.106623   1.722845 )

     reciprocal axes: (cart. coord. in units 2 pi/alat)
               b(1) = (  1.000000 -0.600989 -0.072205 )
               b(2) = (  0.000000  1.166700 -0.072205 )
               b(3) = (  0.000000  0.000000  0.580435 )

     PseudoPot. # 1 for Ce read from file:
     /home/pragov/projects/rrg-bengioy-ad/pragov/crystal_structure_design/SSSP/Ce.GGA-PBE-paw-v1.0.UPF
     MD5 check sum: f2b950f613061344c13339c8d844425d
     Pseudo is Projector augmented-wave + core cor, Zval = 12.0
     Generated using ATOMPAW code
     Shape of augmentation charge: BESSEL
     Using radial grid of 1102 points,  8 beta functions with:
                l(1) =   0
                l(2) =   0
                l(3) =   1
                l(4) =   1
                l(5) =   2
                l(6) =   2
                l(7) =   3
                l(8) =   3
     Q(r) pseudized with 0 coefficients

     PseudoPot. # 2 for C  read from file:
     /home/pragov/projects/rrg-bengioy-ad/pragov/crystal_structure_design/SSSP/C.pbe-n-kjpaw_psl.1.0.0.UPF
     MD5 check sum: 5d2aebdfa2cae82b50a7e79e9516da0f
     Pseudo is Projector augmented-wave + core cor, Zval =  4.0
     Generated using "atomic" code by A. Dal Corso  v.5.1
     Shape of augmentation charge: PSQ
     Using radial grid of 1073 points,  4 beta functions with:
                l(1) =   0
                l(2) =   0
                l(3) =   1
                l(4) =   1
     Q(r) pseudized with 0 coefficients

     PseudoPot. # 3 for O  read from file:
     /home/pragov/projects/rrg-bengioy-ad/pragov/crystal_structure_design/SSSP/O.pbe-n-kjpaw_psl.0.1.UPF
     MD5 check sum: 0234752ac141de4415c5fc33072bef88
     Pseudo is Projector augmented-wave + core cor, Zval =  6.0
     Generated using "atomic" code by A. Dal Corso  v.5.0.99 svn rev. 10869
     Shape of augmentation charge: BESSEL
     Using radial grid of 1095 points,  4 beta functions with:
                l(1) =   0
                l(2) =   0
                l(3) =   1
                l(4) =   1
     Q(r) pseudized with 0 coefficients

     atomic species   valence    mass     pseudopotential
        Ce            12.00   140.11600     Ce( 1.00)
        C              4.00    12.01100     C ( 1.00)
        O              6.00    15.99900     O ( 1.00)

      2 Sym. Ops., with inversion, found

                                    s                        frac. trans.

      isym =  1     identity

 cryst.   s( 1) = (     1          0          0      )
                  (     0          1          0      )
                  (     0          0          1      )

 cart.    s( 1) = (  1.0000000  0.0000000  0.0000000 )
                  (  0.0000000  1.0000000  0.0000000 )
                  (  0.0000000  0.0000000  1.0000000 )

      isym =  2     inversion

 cryst.   s( 2) = (    -1          0          0      )
                  (     0         -1          0      )
                  (     0          0         -1      )

 cart.    s( 2) = ( -1.0000000 -0.0000000 -0.0000000 )
                  (  0.0000000 -1.0000000 -0.0000000 )
                  (  0.0000000  0.0000000 -1.0000000 )

   Cartesian axes

     site n.     atom                  positions (alat units)
         1           Ce  tau(   1) = (   0.5070451   0.2868408   0.3877867  )
         2           Ce  tau(   2) = (   1.1965506   0.6769013   1.3350588  )
         3           C   tau(   3) = (   1.5104266   0.8544642   0.7430133  )
         4           C   tau(   4) = (   0.1931692   0.1092778   0.9798322  )
         5           O   tau(   5) = (   1.0108074   0.5718244   0.2122890  )
         6           O   tau(   6) = (   0.6927884   0.3919177   1.5105565  )

   Crystallographic axes

     site n.     atom                  positions (cryst. coord.)
         1           Ce  tau(   1) = (  0.3066570  0.3066570  0.2250850  )
         2           Ce  tau(   2) = (  0.6933430  0.6933430  0.7749150  )
         3           C   tau(   3) = (  0.9432540  0.9432540  0.4312710  )
         4           C   tau(   4) = (  0.0567460  0.0567460  0.5687290  )
         5           O   tau(   5) = (  0.6518190  0.6518190  0.1232200  )
         6           O   tau(   6) = (  0.3481810  0.3481810  0.8767800  )

     number of k points=    14
                       cart. coord. in units 2pi/alat
        k(    1) = (   0.0000000   0.0000000   0.0000000), wk =   0.0740741
        k(    2) = (   0.0000000   0.0000000   0.1934784), wk =   0.1481481
        k(    3) = (   0.0000000   0.3888998  -0.0240682), wk =   0.1481481
        k(    4) = (   0.0000000   0.3888998   0.1694102), wk =   0.1481481
        k(    5) = (   0.0000000   0.3888998  -0.2175466), wk =   0.1481481
        k(    6) = (   0.3333333  -0.2003297  -0.0240682), wk =   0.1481481
        k(    7) = (   0.3333333  -0.2003297   0.1694102), wk =   0.1481481
        k(    8) = (   0.3333333  -0.2003297  -0.2175466), wk =   0.1481481
        k(    9) = (   0.3333333   0.1885702  -0.0481364), wk =   0.1481481
        k(   10) = (   0.3333333   0.1885702   0.1453420), wk =   0.1481481
        k(   11) = (   0.3333333   0.1885702  -0.2416148), wk =   0.1481481
        k(   12) = (   0.3333333  -0.5892295   0.0000000), wk =   0.1481481
        k(   13) = (   0.3333333  -0.5892295   0.1934784), wk =   0.1481481
        k(   14) = (   0.3333333  -0.5892295  -0.1934784), wk =   0.1481481

                       cryst. coord.
        k(    1) = (   0.0000000   0.0000000   0.0000000), wk =   0.0740741
        k(    2) = (   0.0000000   0.0000000   0.3333333), wk =   0.1481481
        k(    3) = (   0.0000000   0.3333333  -0.0000000), wk =   0.1481481
        k(    4) = (   0.0000000   0.3333333   0.3333333), wk =   0.1481481
        k(    5) = (   0.0000000   0.3333333  -0.3333333), wk =   0.1481481
        k(    6) = (   0.3333333   0.0000000  -0.0000000), wk =   0.1481481
        k(    7) = (   0.3333333   0.0000000   0.3333333), wk =   0.1481481
        k(    8) = (   0.3333333   0.0000000  -0.3333333), wk =   0.1481481
        k(    9) = (   0.3333333   0.3333333   0.0000000), wk =   0.1481481
        k(   10) = (   0.3333333   0.3333333   0.3333333), wk =   0.1481481
        k(   11) = (   0.3333333   0.3333333  -0.3333333), wk =   0.1481481
        k(   12) = (   0.3333333  -0.3333333   0.0000000), wk =   0.1481481
        k(   13) = (   0.3333333  -0.3333333   0.3333333), wk =   0.1481481
        k(   14) = (   0.3333333  -0.3333333  -0.3333333), wk =   0.1481481

     Check: negative core charge=   -0.000015

     Initial potential from superposition of free atoms

     starting charge      43.9859, renormalised to      44.0000
     Starting wfcs are   80 randomized atomic wfcs
     Checking if some PAW data can be deallocated...

     Self-consistent Calculation

     iteration #  1     ecut=    30.00 Ry     beta= 0.70
     Davidson diagonalization with overlap

     ethr =  1.00E-02,  avg # of iterations =  8.1

     total energy              =   -1082.85809993 Ry
     estimated scf accuracy    <       2.58016968 Ry

[...]

     total energy              =   -1084.68196260 Ry
     estimated scf accuracy    <       0.00000119 Ry

     iteration # 17     ecut=    30.00 Ry     beta= 0.70
     Davidson diagonalization with overlap

     ethr =  2.71E-09,  avg # of iterations =  1.0

     End of self-consistent calculation

          k = 0.0000 0.0000 0.0000 (  1697 PWs)   bands (ev):

   -22.7330 -22.6016  -8.2886  -6.7378  -5.2812  -5.2779  -5.2013  -5.1067
    -5.0798  -4.7137  -1.8770   5.6993   6.6535   6.7163   6.7622   6.9138
     6.9506   8.3160   8.5095   8.8318   9.0536  11.3722  11.9098  12.1202
    12.3082  12.3222  12.3370  12.4072  12.4880  12.4958  12.5406  12.5778
    12.7383  12.7685  12.8013  13.6675  14.0625  14.9419  15.4608  15.7739
    16.2807  16.6377  16.8732  18.5500  19.0700  19.1444  20.1027  21.3779
    21.6802  21.7206  23.0542  25.3202  25.9542  26.4513  26.5196  29.1333
    29.4690  30.2595  30.4654  31.1966  31.8746  33.4172  33.6003  33.7085

     occupation numbers
     1.0000   1.0000   1.0000   1.0000   1.0000   1.0000   1.0000   1.0000
     1.0000   1.0000   1.0000   1.0000   1.0000   1.0000   1.0000   1.0000
     1.0000   1.0000   1.0000   1.0000   1.0000   1.0000   0.0000   0.0000
     0.0000   0.0000   0.0000   0.0000   0.0000   0.0000   0.0000   0.0000
     0.0000   0.0000   0.0000   0.0000   0.0000   0.0000   0.0000   0.0000
     0.0000   0.0000   0.0000   0.0000   0.0000   0.0000   0.0000   0.0000
     0.0000   0.0000   0.0000   0.0000   0.0000   0.0000   0.0000   0.0000
     0.0000   0.0000   0.0000   0.0000   0.0000   0.0000   0.0000   0.0000

[...]

          k = 0.3333-0.5892-0.1935 (  1677 PWs)   bands (ev):

   -22.5635 -22.5584  -8.5444  -8.5007  -6.0126  -5.7924  -5.4470  -5.3803
    -3.5520  -3.5092  -2.0794   5.6172   6.7592   6.9451   7.4553   7.7314
     7.7826   8.3027   8.5253   8.7992   9.0527  11.9657  12.0893  12.1325
    12.1753  12.2819  12.3028  12.3177  12.3620  12.3648  12.5507  12.6111
    12.6287  12.7424  12.7789  13.8418  14.2198  14.8527  16.0099  16.6414
    17.2506  17.4840  18.3546  18.6455  19.1017  19.5158  19.6497  21.7914
    22.2552  22.8601  23.2313  25.0131  25.2931  26.5243  27.0286  27.3213
    27.9101  28.4121  29.3798  29.6933  30.5859  31.2356  31.4575  32.0854

     occupation numbers
     1.0000   1.0000   1.0000   1.0000   1.0000   1.0000   1.0000   1.0000
     1.0000   1.0000   1.0000   1.0000   1.0000   1.0000   1.0000   1.0000
     1.0000   1.0000   1.0000   1.0000   1.0000   1.0000   0.0000   0.0000
     0.0000   0.0000   0.0000   0.0000   0.0000   0.0000   0.0000   0.0000
     0.0000   0.0000   0.0000   0.0000   0.0000   0.0000   0.0000   0.0000
     0.0000   0.0000   0.0000   0.0000   0.0000   0.0000   0.0000   0.0000
     0.0000   0.0000   0.0000   0.0000   0.0000   0.0000   0.0000   0.0000
     0.0000   0.0000   0.0000   0.0000   0.0000   0.0000   0.0000   0.0000

     highest occupied, lowest unoccupied level (ev):    12.0673   11.9054

!    total energy              =   -1084.68196258 Ry

     total all-electron energy =     -1417.903943 Ry
     estimated scf accuracy    <       0.00000020 Ry

     The total energy is the sum of the following terms:
     one-electron contribution =     -26.02419193 Ry
     hartree contribution      =      44.12732283 Ry
     xc contribution           =     -44.72021212 Ry
     ewald contribution        =    -210.07230788 Ry
     one-center paw contrib.   =    -847.99257349 Ry
      -> PAW hartree energy AE =      43.55259415 Ry
      -> PAW hartree energy PS =     -43.31047410 Ry
      -> PAW xc energy AE      =    -417.05803428 Ry
      -> PAW xc energy PS      =       8.52473204 Ry
      -> total E_H with PAW    =      44.36944288 Ry
      -> total E_XC with PAW   =    -453.25351435 Ry

     convergence has been achieved in  17 iterations

     Writing all to output data dir calculations_bands/myprefix.save/

     General routines

     Parallel routines

     PAW routines

   This run was terminated on:  13: 1:41   6Jun2023

   JOB DONE.