     Program PWSCF v.7.0 starts on 23Jun2023 at  5:23:30

     K-points division:     npool     =       2
     R & G space division:  proc/nbgrp/npool/nimage =       4

     Reading input from espresso_226.pwi
Warning: card &CELL ignored
Warning: card / ignored

     Current dimensions of program PWSCF are:
     Max number of different atomic species (ntypx) = 10
     Max number of k-points (npk) =  40000
     Max angular momentum in pseudopotentials (lmaxx) =  4
     file O.pbe-n-kjpaw_psl.0.1.UPF: wavefunction(s)  2P renormalized
     Message from routine setup:
     using ibrav=0 with symmetry is DISCOURAGED, use correct ibrav instead

     Using Slab Decomposition

     bravais-lattice index     =            0
     lattice parameter (alat)  =      10.4025  a.u.
     unit-cell volume          =    1699.8775 (a.u.)^3
     number of atoms/cell      =           20
     number of atomic types    =            3
     number of electrons       =       168.00
     number of Kohn-Sham states=           90
     kinetic-energy cutoff     =      30.0000  Ry
     charge density cutoff     =     240.0000  Ry
     scf convergence threshold =      1.0E-06
     mixing beta               =       0.7000
     number of iterations used =            8  plain     mixing
     Exchange-correlation= SLA  PW   PBX  PBC
                           (   1   4   3   4   0   0   0)

     celldm(1)=  10.402517  celldm(2)=   0.000000  celldm(3)=   0.000000
     celldm(4)=   0.000000  celldm(5)=   0.000000  celldm(6)=   0.000000

     crystal axes: (cart. coord. in units of alat)
               a(1) = (   1.000000   0.000000   0.000000 )
               a(2) = (   0.013212   1.040888   0.000000 )
               a(3) = (   0.002782   0.004955   1.450769 )

     reciprocal axes: (cart. coord. in units 2 pi/alat)
               b(1) = (  1.000000 -0.012693 -0.001874 )
               b(2) = (  0.000000  0.960718 -0.003281 )
               b(3) = (  0.000000  0.000000  0.689290 )

     PseudoPot. # 1 for Ca read from file:
     /home/pragov/projects/rrg-bengioy-ad/pragov/crystal_structure_design/SSSP/Ca_pbe_v1.uspp.F.UPF
     MD5 check sum: 403a4c14b9e4d4dfdc3024c9a3812218
     Pseudo is Ultrasoft + core correction, Zval = 10.0
     Generated by new atomic code, or converted to UPF format
     Using radial grid of  845 points,  6 beta functions with:
                l(1) =   0
                l(2) =   0
                l(3) =   1
                l(4) =   1
                l(5) =   2
                l(6) =   2
     Q(r) pseudized with  8 coefficients,  rinner =    1.500   1.500   1.500
                                                       1.500   1.500

     PseudoPot. # 2 for Mo read from file:
     /home/pragov/projects/rrg-bengioy-ad/pragov/crystal_structure_design/SSSP/Mo_ONCV_PBE-1.0.oncvpsp.upf
     MD5 check sum: 1b5d28e075c9ccadda658a603575cd1f
     Pseudo is Norm-conserving, Zval = 14.0
     Generated using ONCVPSP code by D. R. Hamann
     Using radial grid of 1526 points,  6 beta functions with:
                l(1) =   0
                l(2) =   0
                l(3) =   1
                l(4) =   1
                l(5) =   2
                l(6) =   2

     PseudoPot. # 3 for O  read from file:
     /home/pragov/projects/rrg-bengioy-ad/pragov/crystal_structure_design/SSSP/O.pbe-n-kjpaw_psl.0.1.UPF
     MD5 check sum: 0234752ac141de4415c5fc33072bef88
     Pseudo is Projector augmented-wave + core cor, Zval =  6.0
     Generated using "atomic" code by A. Dal Corso  v.5.0.99 svn rev. 10869
     Shape of augmentation charge: BESSEL
     Using radial grid of 1095 points,  4 beta functions with:
                l(1) =   0
                l(2) =   0
                l(3) =   1
                l(4) =   1
     Q(r) pseudized with 0 coefficients

     atomic species   valence    mass     pseudopotential
        Ca            10.00    40.07800     Ca( 1.00)
        Mo            14.00    95.95000     Mo( 1.00)
        O              6.00    15.99900     O ( 1.00)

      2 Sym. Ops., with inversion, found

                                    s                        frac. trans.

      isym =  1     identity

 cryst.   s( 1) = (     1          0          0      )
                  (     0          1          0      )
                  (     0          0          1      )

 cart.    s( 1) = (  1.0000000 -0.0000000 -0.0000000 )
                  (  0.0000000  1.0000000  0.0000000 )
                  (  0.0000000  0.0000000  1.0000000 )

      isym =  2     inversion

 cryst.   s( 2) = (    -1          0          0      )
                  (     0         -1          0      )
                  (     0          0         -1      )

 cart.    s( 2) = ( -1.0000000  0.0000000  0.0000000 )
                  (  0.0000000 -1.0000000 -0.0000000 )
                  (  0.0000000  0.0000000 -1.0000000 )

   Cartesian axes

     site n.     atom                  positions (alat units)
         1           Ca  tau(   1) = (   0.0126283   0.0538881   1.0906070  )
         2           Ca  tau(   2) = (   0.5203797   0.4636053   0.3618030  )
         3           Ca  tau(   3) = (   0.4956146   0.5822372   1.0889662  )
         4           Ca  tau(   4) = (   1.0033660   0.9919545   0.3601622  )
         5           Mo  tau(   5) = (   0.5000000   0.0000000   0.0000000  )
         6           Mo  tau(   6) = (   0.0066060   0.5204440   0.0000000  )
         7           Mo  tau(   7) = (   0.0079971   0.5229213   0.7253846  )
         8           Mo  tau(   8) = (   0.5013912   0.0024773   0.7253846  )
         9           O   tau(   9) = (   0.2940892   0.3251133   0.7946632  )
        10           O   tau(  10) = (   0.8140683   0.2197352   0.6429606  )
        11           O   tau(  11) = (   0.2065159   0.8309300   1.3747460  )
        12           O   tau(  12) = (   0.7078812   0.7287945   0.0814259  )
        13           O   tau(  13) = (   0.7219051   0.7207292   0.6561060  )
        14           O   tau(  14) = (   0.2019260   0.8261074   0.8078086  )
        15           O   tau(  15) = (   0.8094784   0.2149126   0.0760232  )
        16           O   tau(  16) = (   0.3081131   0.3170480   1.3693433  )
        17           O   tau(  17) = (   0.9061726   0.4806881   1.0804067  )
        18           O   tau(  18) = (   0.3996247   0.0427019   0.3524847  )
        19           O   tau(  19) = (   0.6163696   1.0031407   1.0982845  )
        20           O   tau(  20) = (   0.1098217   0.5651544   0.3703625  )

   Crystallographic axes

     site n.     atom                  positions (cryst. coord.)
         1           Ca  tau(   1) = (  0.0099000  0.0481930  0.7517440  )
         2           Ca  tau(   2) = (  0.5138170  0.4442070  0.2493870  )
         3           Ca  tau(   3) = (  0.4861830  0.5557930  0.7506130  )
         4           Ca  tau(   4) = (  0.9901000  0.9518070  0.2482560  )
         5           Mo  tau(   5) = (  0.5000000  0.0000000  0.0000000  )
         6           Mo  tau(   6) = ( -0.0000000  0.5000000  0.0000000  )
         7           Mo  tau(   7) = (  0.0000000  0.5000000  0.5000000  )
         8           Mo  tau(   8) = (  0.5000000 -0.0000000  0.5000000  )
         9           O   tau(   9) = (  0.2884730  0.3097350  0.5477530  )
        10           O   tau(  10) = (  0.8100740  0.2089940  0.4431860  )
        11           O   tau(  11) = (  0.1933920  0.7937790  0.9475980  )
        12           O   tau(  12) = (  0.6984780  0.6998990  0.0561260  )
        13           O   tau(  13) = (  0.7115270  0.6902650  0.4522470  )
        14           O   tau(  14) = (  0.1899260  0.7910060  0.5568140  )
        15           O   tau(  15) = (  0.8066080  0.2062210  0.0524020  )
        16           O   tau(  16) = (  0.3015220  0.3001010  0.9438740  )
        17           O   tau(  17) = (  0.8980460  0.4582610  0.7447130  )
        18           O   tau(  18) = (  0.3984220  0.0398680  0.2429640  )
        19           O   tau(  19) = (  0.6015780  0.9601320  0.7570360  )
        20           O   tau(  20) = (  0.1019540  0.5417390  0.2552870  )

     number of k points=    14
                       cart. coord. in units 2pi/alat
        k(    1) = (   0.0000000   0.0000000   0.0000000), wk =   0.0740741
        k(    2) = (   0.0000000   0.0000000   0.2297632), wk =   0.1481481
        k(    3) = (   0.0000000   0.3202394  -0.0010937), wk =   0.1481481
        k(    4) = (   0.0000000   0.3202394   0.2286695), wk =   0.1481481
        k(    5) = (   0.0000000   0.3202394  -0.2308568), wk =   0.1481481
        k(    6) = (   0.3333333  -0.0042310  -0.0006248), wk =   0.1481481
        k(    7) = (   0.3333333  -0.0042310   0.2291383), wk =   0.1481481
        k(    8) = (   0.3333333  -0.0042310  -0.2303880), wk =   0.1481481
        k(    9) = (   0.3333333   0.3160084  -0.0017185), wk =   0.1481481
        k(   10) = (   0.3333333   0.3160084   0.2280447), wk =   0.1481481
        k(   11) = (   0.3333333   0.3160084  -0.2314817), wk =   0.1481481
        k(   12) = (   0.3333333  -0.3244704   0.0004688), wk =   0.1481481
        k(   13) = (   0.3333333  -0.3244704   0.2302320), wk =   0.1481481
        k(   14) = (   0.3333333  -0.3244704  -0.2292943), wk =   0.1481481

                       cryst. coord.
        k(    1) = (   0.0000000   0.0000000   0.0000000), wk =   0.0740741
        k(    2) = (   0.0000000   0.0000000   0.3333333), wk =   0.1481481
        k(    3) = (   0.0000000   0.3333333  -0.0000000), wk =   0.1481481
        k(    4) = (   0.0000000   0.3333333   0.3333333), wk =   0.1481481
        k(    5) = (   0.0000000   0.3333333  -0.3333333), wk =   0.1481481
        k(    6) = (   0.3333333  -0.0000000  -0.0000000), wk =   0.1481481
        k(    7) = (   0.3333333  -0.0000000   0.3333333), wk =   0.1481481
        k(    8) = (   0.3333333  -0.0000000  -0.3333333), wk =   0.1481481
        k(    9) = (   0.3333333   0.3333333  -0.0000000), wk =   0.1481481
        k(   10) = (   0.3333333   0.3333333   0.3333333), wk =   0.1481481
        k(   11) = (   0.3333333   0.3333333  -0.3333333), wk =   0.1481481
        k(   12) = (   0.3333333  -0.3333333   0.0000000), wk =   0.1481481
        k(   13) = (   0.3333333  -0.3333333   0.3333333), wk =   0.1481481
        k(   14) = (   0.3333333  -0.3333333  -0.3333333), wk =   0.1481481

     Check: negative core charge=   -0.000014

     Initial potential from superposition of free atoms

     starting charge     167.9742, renormalised to     168.0000
     Starting wfcs are  128 randomized atomic wfcs
     Checking if some PAW data can be deallocated...

     Self-consistent Calculation

     iteration #  1     ecut=    30.00 Ry     beta= 0.70
     Davidson diagonalization with overlap

     ethr =  1.00E-02,  avg # of iterations =  2.0

     total energy              =   -1346.45531398 Ry
     estimated scf accuracy    <       4.82541727 Ry

[...]

     c_bands:  1 eigenvalues not converged
     ethr =  3.55E-06,  avg # of iterations =  9.4

[...]

     total energy              =   -1349.17710636 Ry
     estimated scf accuracy    <       0.00000103 Ry

     iteration # 24     ecut=    30.00 Ry     beta= 0.70
     Davidson diagonalization with overlap

     ethr =  6.12E-10,  avg # of iterations =  5.7

     End of self-consistent calculation

          k = 0.0000 0.0000 0.0000 (  4723 PWs)   bands (ev):

   -51.0077 -50.7481 -50.6819 -50.3909 -28.7918 -28.7886 -28.7522 -28.7485
   -25.2200 -25.1483 -25.0930 -24.9373 -24.8970 -24.8556 -24.7912 -24.7324
   -24.6767 -24.5372 -24.4428 -24.3921 -10.1885 -10.1150 -10.1057 -10.0935
   -10.0861  -9.9440  -9.8900  -9.8602  -9.8379  -9.8121  -9.8042  -9.8030
    -8.0960  -7.5292  -7.4489  -7.2700  -7.2393  -7.0940  -7.0398  -6.9106
    -6.8484  -6.7809  -6.6806  -6.5569   4.3869   4.5726   4.6035   4.6726
     4.6957   4.7629   4.9778   5.1887   5.2947   5.3468   6.3152   6.3937
     6.5659   6.6381   6.6900   6.7607   6.8093   6.8774   6.9238   6.9737
     7.1621   7.4798   7.5515   7.7088   7.9190   8.0555   8.1844   8.1986
     8.2088   8.2803   8.3043   8.4003   8.4581   8.5302   8.5759   8.6007
    10.6648  10.6814  10.8177  10.9523  11.7849  11.9328  12.2127  12.4012
    12.4471  12.5489

     occupation numbers
     1.0000   1.0000   1.0000   1.0000   1.0000   1.0000   1.0000   1.0000
     1.0000   1.0000   1.0000   1.0000   1.0000   1.0000   1.0000   1.0000
     1.0000   1.0000   1.0000   1.0000   1.0000   1.0000   1.0000   1.0000
     1.0000   1.0000   1.0000   1.0000   1.0000   1.0000   1.0000   1.0000
     1.0000   1.0000   1.0000   1.0000   1.0000   1.0000   1.0000   1.0000
     1.0000   1.0000   1.0000   1.0000   1.0000   1.0000   1.0000   1.0000
     1.0000   1.0000   1.0000   1.0000   1.0000   1.0000   1.0000   1.0000
     1.0000   1.0000   1.0000   1.0000   1.0000   1.0000   1.0000   1.0000
     1.0000   1.0000   1.0000   1.0000   1.0000   1.0000   1.0000   1.0000
     1.0000   1.0000   1.0000   1.0000   1.0000   1.0000   1.0000   1.0000
     1.0000   1.0000   1.0000   1.0000   0.0000   0.0000   0.0000   0.0000
     0.0000   0.0000

[...]

          k = 0.3333-0.3245-0.2293 (  4715 PWs)   bands (ev):

   -51.0077 -50.7480 -50.6819 -50.3908 -28.7905 -28.7881 -28.7527 -28.7502
   -25.2191 -25.1471 -25.0928 -24.9362 -24.8970 -24.8523 -24.7903 -24.7389
   -24.6760 -24.5389 -24.4427 -24.3931 -10.2009 -10.1397 -10.1327 -10.0769
   -10.0096  -9.9751  -9.9011  -9.8859  -9.8796  -9.8567  -9.8230  -9.8150
    -7.5752  -7.4344  -7.3573  -7.3012  -7.2484  -7.1676  -7.1062  -6.9389
    -6.8888  -6.8253  -6.7872  -6.6974   4.6004   4.6523   4.9140   5.0333
     5.0882   5.2005   5.2226   5.4063   5.6793   5.7934   5.9500   6.0627
     6.1580   6.2154   6.3188   6.4240   6.4969   6.6106   6.7786   6.8850
     7.0626   7.3339   7.3912   7.4379   7.5808   7.7274   7.7357   7.9371
     8.0003   8.0998   8.1716   8.2146   8.2545   8.3421   8.4434   8.5201
    11.1707  11.5467  11.7839  11.8874  12.0077  12.0523  12.1956  12.3025
    12.3724  12.6169

     occupation numbers
     1.0000   1.0000   1.0000   1.0000   1.0000   1.0000   1.0000   1.0000
     1.0000   1.0000   1.0000   1.0000   1.0000   1.0000   1.0000   1.0000
     1.0000   1.0000   1.0000   1.0000   1.0000   1.0000   1.0000   1.0000
     1.0000   1.0000   1.0000   1.0000   1.0000   1.0000   1.0000   1.0000
     1.0000   1.0000   1.0000   1.0000   1.0000   1.0000   1.0000   1.0000
     1.0000   1.0000   1.0000   1.0000   1.0000   1.0000   1.0000   1.0000
     1.0000   1.0000   1.0000   1.0000   1.0000   1.0000   1.0000   1.0000
     1.0000   1.0000   1.0000   1.0000   1.0000   1.0000   1.0000   1.0000
     1.0000   1.0000   1.0000   1.0000   1.0000   1.0000   1.0000   1.0000
     1.0000   1.0000   1.0000   1.0000   1.0000   1.0000   1.0000   1.0000
     1.0000   1.0000   1.0000   1.0000   0.0000   0.0000   0.0000   0.0000
     0.0000   0.0000

     highest occupied, lowest unoccupied level (ev):    11.9318   11.7101

!    total energy              =   -1349.17710624 Ry
     estimated scf accuracy    <       0.00000021 Ry

     The total energy is the sum of the following terms:
     one-electron contribution =    -347.23970739 Ry
     hartree contribution      =     259.03034519 Ry
     xc contribution           =    -199.11296848 Ry
     ewald contribution        =    -947.58959396 Ry
     one-center paw contrib.   =    -114.26518159 Ry
      -> PAW hartree energy AE =       0.00000000 Ry
      -> PAW hartree energy PS =       0.00000000 Ry
      -> PAW xc energy AE      =       0.00000000 Ry
      -> PAW xc energy PS      =       0.00000000 Ry
      -> total E_H with PAW    =     259.03034519 Ry
      -> total E_XC with PAW   =    -199.11296848 Ry

     convergence has been achieved in  24 iterations

     Writing all to output data dir calculations_bands/myprefix.save/

     General routines

     Parallel routines

     PAW routines

   This run was terminated on:   5:24:33  23Jun2023

   JOB DONE.