     Program PWSCF v.7.0 starts on 23Jun2023 at 10:18:24

     K-points division:     npool     =       2
     R & G space division:  proc/nbgrp/npool/nimage =       4

     Reading input from espresso_12384.pwi
Warning: card &CELL ignored
Warning: card / ignored

     Current dimensions of program PWSCF are:
     Max number of different atomic species (ntypx) = 10
     Max number of k-points (npk) =  40000
     Max angular momentum in pseudopotentials (lmaxx) =  4
     file O.pbe-n-kjpaw_psl.0.1.UPF: wavefunction(s)  2P renormalized
     Message from routine setup:
     using ibrav=0 with symmetry is DISCOURAGED, use correct ibrav instead

     Using Slab Decomposition

     bravais-lattice index     =            0
     lattice parameter (alat)  =       8.6464  a.u.
     unit-cell volume          =    1305.9935 (a.u.)^3
     number of atoms/cell      =           18
     number of atomic types    =            3
     number of electrons       =       152.00
     number of Kohn-Sham states=           90
     kinetic-energy cutoff     =      30.0000  Ry
     charge density cutoff     =     240.0000  Ry
     scf convergence threshold =      1.0E-06
     mixing beta               =       0.7000
     number of iterations used =            8  plain     mixing
     Exchange-correlation=  SLA  PW   PBX  PBC
                           (   1   4   3   4   0   0   0)

     celldm(1)=   8.646398  celldm(2)=   0.000000  celldm(3)=   0.000000
     celldm(4)=   0.000000  celldm(5)=   0.000000  celldm(6)=   0.000000

     crystal axes: (cart. coord. in units of alat)
               a(1) = (   1.000000   0.000000   0.000000 )
               a(2) = (   0.000000   0.999211   0.000000 )
               a(3) = (   0.000000   0.997482   2.021986 )

     reciprocal axes: (cart. coord. in units 2 pi/alat)
               b(1) = (  1.000000  0.000000  0.000000 )
               b(2) = (  0.000000  1.000790 -0.493707 )
               b(3) = (  0.000000  0.000000  0.494563 )

     PseudoPot. # 1 for V  read from file:
     /home/pragov/projects/rrg-bengioy-ad/pragov/crystal_structure_design/SSSP/v_pbe_v1.4.uspp.F.UPF
     MD5 check sum: 22b79981416ebb76fdaf5b1b8640f6fb
     Pseudo is Ultrasoft + core correction, Zval = 13.0
     Generated by new atomic code, or converted to UPF format
     Using radial grid of  853 points,  6 beta functions with:
                l(1) =   0
                l(2) =   0
                l(3) =   1
                l(4) =   1
                l(5) =   2
                l(6) =   2
     Q(r) pseudized with  8 coefficients,  rinner =    1.100   1.100   1.100
                                                       1.100   1.100

     PseudoPot. # 2 for O  read from file:
     /home/pragov/projects/rrg-bengioy-ad/pragov/crystal_structure_design/SSSP/O.pbe-n-kjpaw_psl.0.1.UPF
     MD5 check sum: 0234752ac141de4415c5fc33072bef88
     Pseudo is Projector augmented-wave + core cor, Zval =  6.0
     Generated using "atomic" code by A. Dal Corso  v.5.0.99 svn rev. 10869
     Shape of augmentation charge: BESSEL
     Using radial grid of 1095 points,  4 beta functions with:
                l(1) =   0
                l(2) =   0
                l(3) =   1
                l(4) =   1
     Q(r) pseudized with 0 coefficients

     PseudoPot. # 3 for F  read from file:
     /home/pragov/projects/rrg-bengioy-ad/pragov/crystal_structure_design/SSSP/f_pbe_v1.4.uspp.F.UPF
     MD5 check sum: 4c38b6a325caf53ec0e86aed9459de46
     Pseudo is Ultrasoft, Zval =  7.0
     Generated by new atomic code, or converted to UPF format
     Using radial grid of  799 points,  4 beta functions with:
                l(1) =   0
                l(2) =   0
                l(3) =   1
                l(4) =   1
     Q(r) pseudized with  8 coefficients,  rinner =    0.950   0.950   0.950

     atomic species   valence    mass     pseudopotential
        V             13.00    50.94150     V ( 1.00)
        O              6.00    15.99900     O ( 1.00)
        F              7.00    18.99840     F ( 1.00)

      2 Sym. Ops. (no inversion) found ( 1 have fractional translation)

                                    s                        frac. trans.

      isym =  1     identity

 cryst.   s( 1) = (     1          0          0      )
                  (     0          1          0      )
                  (     0          0          1      )

 cart.    s( 1) = (  1.0000000  0.0000000  0.0000000 )
                  (  0.0000000  1.0000000  0.0000000 )
                  (  0.0000000  0.0000000  1.0000000 )

      isym =  2     inv. 180 deg rotation - cart. axis [1,0,0]

 cryst.   s( 2) = (    -1          0          0      )    f =(  0.0000000 )
                  (     0          1          0      )       (  0.0000000 )
                  (     0          0          1      )       (  0.5000000 )

 cart.    s( 2) = ( -1.0000000  0.0000000  0.0000000 )    f =(  0.0000000 )
                  (  0.0000000  1.0000000  0.0000000 )       (  0.4987409 )
                  (  0.0000000  0.0000000  1.0000000 )       (  1.0109928 )

   Cartesian axes

     site n.     atom                  positions (alat units)
         1           V   tau(   1) = (   0.2497340   0.9907872   0.0146028  )
         2           V   tau(   2) = (   0.2176610   1.0269330   0.6730867  )
         3           V   tau(   3) = (   0.2485980   0.9884703   1.3204497  )
         4           V   tau(   4) = (   0.7514020   0.4897294   0.3094568  )
         5           V   tau(   5) = (   0.7823390   1.5256739   1.6840795  )
         6           V   tau(   6) = (   0.7502660   1.4895281   1.0255956  )
         7           O   tau(   7) = (   0.0433090   0.7892997   0.3517183  )
         8           O   tau(   8) = (   0.0541530   0.8025125   1.0057599  )
         9           O   tau(   9) = (   0.0556270   1.7988792   1.6817017  )
        10           O   tau(  10) = (   0.9458470   1.3012534   2.0167528  )
        11           O   tau(  11) = (   0.9443730   1.3001383   0.6707088  )
        12           O   tau(  12) = (   0.9566910   1.2880406   1.3627112  )
        13           O   tau(  13) = (   0.5593250   1.6862902   2.0157559  )
        14           O   tau(  14) = (   0.5450170   0.7015294   1.3631500  )
        15           O   tau(  15) = (   0.4549830   0.2027885   0.3521571  )
        16           O   tau(  16) = (   0.4406750   1.1875493   1.0047631  )
        17           F   tau(  17) = (   0.5455510   0.6998159   0.6735962  )
        18           F   tau(  18) = (   0.4544490   1.1985568   1.6845891  )

   Crystallographic axes

     site n.     atom                  positions (cryst. coord.)
         1           V   tau(   1) = (  0.2497340  0.9843600  0.0072220  )
         2           V   tau(   2) = (  0.2176610  0.6954360  0.3328840  )
         3           V   tau(   3) = (  0.2485980  0.3373350  0.6530460  )
         4           V   tau(   4) = (  0.7514020  0.3373350  0.1530460  )
         5           V   tau(   5) = (  0.7823390  0.6954360  0.8328840  )
         6           V   tau(   6) = (  0.7502660  0.9843600  0.5072220  )
         7           O   tau(   7) = (  0.0433090  0.6162770  0.1739470  )
         8           O   tau(   8) = (  0.0541530  0.3065950  0.4974120  )
         9           O   tau(   9) = (  0.0556270  0.9700310  0.8317080  )
        10           O   tau(  10) = (  0.9458470  0.3065950  0.9974120  )
        11           O   tau(  11) = (  0.9443730  0.9700310  0.3317080  )
        12           O   tau(  12) = (  0.9566910  0.6162770  0.6739470  )
        13           O   tau(  13) = (  0.5593250  0.6924280  0.9969190  )
        14           O   tau(  14) = (  0.5450170  0.0290860  0.6741640  )
        15           O   tau(  15) = (  0.4549830  0.0290860  0.1741640  )
        16           O   tau(  16) = (  0.4406750  0.6924280  0.4969190  )
        17           F   tau(  17) = (  0.5455510  0.3678090  0.3331360  )
        18           F   tau(  18) = (  0.4544490  0.3678090  0.8331360  )

     number of k points=    10
                       cart. coord. in units 2pi/alat
        k(    1) = (   0.0000000   0.0000000   0.0000000), wk =   0.0740741
        k(    2) = (   0.0000000   0.0000000   0.1648544), wk =   0.1481481
        k(    3) = (   0.0000000   0.3335965  -0.1645692), wk =   0.1481481
        k(    4) = (   0.0000000   0.3335965   0.0002853), wk =   0.1481481
        k(    5) = (   0.0000000   0.3335965  -0.3294236), wk =   0.1481481
        k(    6) = (   0.3333333   0.0000000   0.0000000), wk =   0.1481481
        k(    7) = (   0.3333333   0.0000000   0.1648544), wk =   0.2962963
        k(    8) = (   0.3333333   0.3335965  -0.1645692), wk =   0.2962963
        k(    9) = (   0.3333333   0.3335965   0.0002853), wk =   0.2962963
        k(   10) = (   0.3333333   0.3335965  -0.3294236), wk =   0.2962963

                       cryst. coord.
        k(    1) = (   0.0000000   0.0000000   0.0000000), wk =   0.0740741
        k(    2) = (   0.0000000   0.0000000   0.3333333), wk =   0.1481481
        k(    3) = (   0.0000000   0.3333333  -0.0000000), wk =   0.1481481
        k(    4) = (   0.0000000   0.3333333   0.3333333), wk =   0.1481481
        k(    5) = (   0.0000000   0.3333333  -0.3333333), wk =   0.1481481
        k(    6) = (   0.3333333   0.0000000   0.0000000), wk =   0.1481481
        k(    7) = (   0.3333333   0.0000000   0.3333333), wk =   0.2962963
        k(    8) = (   0.3333333   0.3333333  -0.0000000), wk =   0.2962963
        k(    9) = (   0.3333333   0.3333333   0.3333333), wk =   0.2962963
        k(   10) = (   0.3333333   0.3333333  -0.3333333), wk =   0.2962963

     Check: negative core charge=   -0.000017

     Initial potential from superposition of free atoms

     starting charge     151.9926, renormalised to     152.0000

     negative rho (up, down):  3.686E-03 0.000E+00
     Starting wfcs are  108 randomized atomic wfcs
     Checking if some PAW data can be deallocated...

     Self-consistent Calculation

     iteration #  1     ecut=    30.00 Ry     beta= 0.70
     Davidson diagonalization with overlap

     ethr =  1.00E-02,  avg # of iterations =  2.0

     negative rho (up, down):  1.067E-02 0.000E+00

     total energy              =   -1380.93884500 Ry
     estimated scf accuracy    <       6.55820944 Ry

[...]

     total energy              =   -1384.94480084 Ry
     estimated scf accuracy    <       0.00000135 Ry

     iteration # 19     ecut=    30.00 Ry     beta= 0.70
     Davidson diagonalization with overlap

     ethr =  8.86E-10,  avg # of iterations =  2.0

     negative rho (up, down):  7.246E-03 0.000E+00

     End of self-consistent calculation

          k = 0.0000 0.0000 0.0000 (  3635 PWs)   bands (ev):

   -55.6423 -55.6411 -55.6081 -55.6073 -55.4827 -55.4823 -29.6503 -29.6430
   -29.5870 -29.5866 -29.4980 -29.4959 -29.4129 -29.4104 -29.3946 -29.3935
   -29.3522 -29.3455 -29.3077 -29.3073 -29.2525 -29.2516 -29.1929 -29.1904
   -14.5603 -14.5440  -9.7582  -9.3164  -9.1595  -8.7765  -8.7578  -8.6174
    -8.5666  -8.5605  -8.3223  -8.3219   2.1147   2.4903   3.1761   3.2186
     3.2911   3.3170   3.3322   3.6805   3.8449   3.8587   4.2021   4.2133
     4.2401   4.4398   4.5219   4.5448   4.6756   4.8460   4.8654   5.2271
     5.2427   5.6911   5.7559   5.8444   5.8834   5.9250   6.1831   6.2864
     6.5298   6.6721   6.8181   7.0218   7.1528   7.2358   7.2927   8.0210
     9.7114   9.8322   9.9979  10.0432  10.0967  10.1575  10.2120  10.2682
    10.3538  10.3652  10.5012  10.7061  10.7941  11.1783  11.1888  11.4588
    11.5088  11.7689

     occupation numbers
     1.0000   1.0000   1.0000   1.0000   1.0000   1.0000   1.0000   1.0000
     1.0000   1.0000   1.0000   1.0000   1.0000   1.0000   1.0000   1.0000
     1.0000   1.0000   1.0000   1.0000   1.0000   1.0000   1.0000   1.0000
     1.0000   1.0000   1.0000   1.0000   1.0000   1.0000   1.0000   1.0000
     1.0000   1.0000   1.0000   1.0000   1.0000   1.0000   1.0000   1.0000
     1.0000   1.0000   1.0000   1.0000   1.0000   1.0000   1.0000   1.0000
     1.0000   1.0000   1.0000   1.0000   1.0000   1.0000   1.0000   1.0000
     1.0000   1.0000   1.0000   1.0000   1.0000   1.0000   1.0000   1.0000
     1.0000   1.0000   1.0000   1.0000   1.0000   1.0000   1.0000   1.0000
     1.0000   1.0000   1.0000   1.0000   0.0000   0.0000   0.0000   0.0000
     0.0000   0.0000   0.0000   0.0000   0.0000   0.0000   0.0000   0.0000
     0.0000   0.0000

[...]

          k = 0.3333 0.3336-0.3294 (  3615 PWs)   bands (ev):

   -55.6417 -55.6412 -55.6079 -55.6074 -55.4825 -55.4824 -29.6538 -29.6499
   -29.5874 -29.5845 -29.4933 -29.4892 -29.4124 -29.4082 -29.3942 -29.3877
   -29.3539 -29.3521 -29.3088 -29.3074 -29.2547 -29.2508 -29.1928 -29.1915
   -14.5397 -14.5357  -9.3798  -9.1682  -9.0685  -8.9599  -8.8175  -8.6969
    -8.6423  -8.6223  -8.5081  -8.4210   2.3490   2.6926   2.8764   3.0207
     3.0830   3.4008   3.4935   3.5666   3.7191   3.7925   4.1059   4.1726
     4.3522   4.4958   4.7657   4.8808   5.0307   5.1352   5.2130   5.2637
     5.4225   5.5652   5.5969   5.7371   5.9204   5.9660   6.1858   6.3465
     6.4466   6.6228   6.6998   6.8276   6.9320   6.9962   7.2138   7.3699
     9.8269   9.9770  10.0218  10.1239  10.1358  10.1992  10.3507  10.4110
    10.5044  10.5691  10.6005  10.6754  10.8350  10.9164  11.0747  11.2932
    11.4209  11.4978

     occupation numbers
     1.0000   1.0000   1.0000   1.0000   1.0000   1.0000   1.0000   1.0000
     1.0000   1.0000   1.0000   1.0000   1.0000   1.0000   1.0000   1.0000
     1.0000   1.0000   1.0000   1.0000   1.0000   1.0000   1.0000   1.0000
     1.0000   1.0000   1.0000   1.0000   1.0000   1.0000   1.0000   1.0000
     1.0000   1.0000   1.0000   1.0000   1.0000   1.0000   1.0000   1.0000
     1.0000   1.0000   1.0000   1.0000   1.0000   1.0000   1.0000   1.0000
     1.0000   1.0000   1.0000   1.0000   1.0000   1.0000   1.0000   1.0000
     1.0000   1.0000   1.0000   1.0000   1.0000   1.0000   1.0000   1.0000
     1.0000   1.0000   1.0000   1.0000   1.0000   1.0000   1.0000   1.0000
     1.0000   1.0000   1.0000   1.0000   0.0000   0.0000   0.0000   0.0000
     0.0000   0.0000   0.0000   0.0000   0.0000   0.0000   0.0000   0.0000
     0.0000   0.0000

     highest occupied, lowest unoccupied level (ev):    10.1711   10.0555

!    total energy              =   -1384.94480077 Ry
     estimated scf accuracy    <       0.00000024 Ry

     The total energy is the sum of the following terms:
     one-electron contribution =    -527.01900292 Ry
     hartree contribution      =     334.95036373 Ry
     xc contribution           =    -209.64688442 Ry
     ewald contribution        =    -887.98577032 Ry
     one-center paw contrib.   =     -95.24350684 Ry
      -> PAW hartree energy AE =       0.00000000 Ry
      -> PAW hartree energy PS =       0.00000000 Ry
      -> PAW xc energy AE      =       0.00000000 Ry
      -> PAW xc energy PS      =       0.00000000 Ry
      -> total E_H with PAW    =     334.95036373 Ry
      -> total E_XC with PAW   =    -209.64688442 Ry

     convergence has been achieved in  19 iterations

     Writing all to output data dir calculations_bands/myprefix.save/

     General routines

     Parallel routines

     PAW routines

   This run was terminated on:  10:18:42  23Jun2023

   JOB DONE.