     Program PWSCF v.7.0 starts on  5Jun2023 at 19:55:17

     K-points division:     npool     =       2
     R & G space division:  proc/nbgrp/npool/nimage =       4

     Reading input from espresso_11305.pwi
Warning: card &CELL ignored
Warning: card / ignored

     Current dimensions of program PWSCF are:
     Max number of different atomic species (ntypx) = 10
     Max number of k-points (npk) =  40000
     Max angular momentum in pseudopotentials (lmaxx) =  4
     file O.pbe-n-kjpaw_psl.0.1.UPF: wavefunction(s)  2P renormalized
     Message from routine setup:
     using ibrav=0 with symmetry is DISCOURAGED, use correct ibrav instead

     Using Slab Decomposition

     bravais-lattice index     =            0
     lattice parameter (alat)  =      12.2635  a.u.
     unit-cell volume          =    1116.7413 (a.u.)^3
     number of atoms/cell      =           10
     number of atomic types    =            3
     number of electrons       =       116.00
     number of Kohn-Sham states=           64
     kinetic-energy cutoff     =      30.0000  Ry
     charge density cutoff     =     240.0000  Ry
     scf convergence threshold =      1.0E-06
     mixing beta               =       0.7000
     number of iterations used =            8  plain     mixing
     Exchange-correlation=  SLA  PW   PBX  PBC
                           (   1   4   3   4   0   0   0)

     celldm(1)=  12.263518  celldm(2)=   0.000000  celldm(3)=   0.000000
     celldm(4)=   0.000000  celldm(5)=   0.000000  celldm(6)=   0.000000

     crystal axes: (cart. coord. in units of alat)
               a(1) = (   1.000000   0.000000   0.000000 )
               a(2) = (   0.226947   0.973907   0.000000 )
               a(3) = (  -0.613473  -0.486954   0.621713 )

     reciprocal axes: (cart. coord. in units 2 pi/alat)
               b(1) = (  1.000000 -0.233027  0.804230 )
               b(2) = (  0.000000  1.026792  0.804230 )
               b(3) = (  0.000000  0.000000  1.608460 )

     PseudoPot. # 1 for Cu read from file:
     /home/pragov/projects/rrg-bengioy-ad/pragov/crystal_structure_design/SSSP/Cu_pbe_v1.2.uspp.F.UPF
     MD5 check sum: 6e991ff952a84172a2a52a1c1e996048
     Pseudo is Ultrasoft + core correction, Zval = 19.0
     Generated by new atomic code, or converted to UPF format
     Using radial grid of  867 points,  6 beta functions with:
                l(1) =   0
                l(2) =   0
                l(3) =   1
                l(4) =   1
                l(5) =   2
                l(6) =   2
     Q(r) pseudized with  8 coefficients,  rinner =    1.150   1.150   1.150
                                                       1.150   1.150

     PseudoPot. # 2 for O  read from file:
     /home/pragov/projects/rrg-bengioy-ad/pragov/crystal_structure_design/SSSP/O.pbe-n-kjpaw_psl.0.1.UPF
     MD5 check sum: 0234752ac141de4415c5fc33072bef88
     Pseudo is Projector augmented-wave + core cor, Zval =  6.0
     Generated using "atomic" code by A. Dal Corso  v.5.0.99 svn rev. 10869
     Shape of augmentation charge: BESSEL
     Using radial grid of 1095 points,  4 beta functions with:
                l(1) =   0
                l(2) =   0
                l(3) =   1
                l(4) =   1
     Q(r) pseudized with 0 coefficients

     PseudoPot. # 3 for F  read from file:
     /home/pragov/projects/rrg-bengioy-ad/pragov/crystal_structure_design/SSSP/f_pbe_v1.4.uspp.F.UPF
     MD5 check sum: 4c38b6a325caf53ec0e86aed9459de46
     Pseudo is Ultrasoft, Zval =  7.0
     Generated by new atomic code, or converted to UPF format
     Using radial grid of  799 points,  4 beta functions with:
                l(1) =   0
                l(2) =   0
                l(3) =   1
                l(4) =   1
     Q(r) pseudized with  8 coefficients,  rinner =    0.950   0.950   0.950

     atomic species   valence    mass     pseudopotential
        Cu            19.00    63.54600     Cu( 1.00)
        O              6.00    15.99900     O ( 1.00)
        F              7.00    18.99840     F ( 1.00)

      4 Sym. Ops., with inversion, found ( 2 have fractional translation)

                                    s                        frac. trans.

      isym =  1     identity

 cryst.   s( 1) = (     1          0          0      )
                  (     0          1          0      )
                  (     0          0          1      )

 cart.    s( 1) = (  1.0000000 -0.0000000 -0.0000000 )
                  (  0.0000000  1.0000000 -0.0000000 )
                  (  0.0000000  0.0000000  1.0000000 )

      isym =  2     180 deg rotation - cart. axis [0,0,1]

 cryst.   s( 2) = (    -1          0          0      )
                  (     0         -1          0      )
                  (     1          1          1      )

 cart.    s( 2) = ( -1.0000000  0.0000000 -0.0000000 )
                  (  0.0000000 -1.0000000 -0.0000000 )
                  (  0.0000000  0.0000000  1.0000000 )

      isym =  3     inversion

 cryst.   s( 3) = (    -1          0          0      )    f =(  0.2500000 )
                  (     0         -1          0      )       ( -0.2500000 )
                  (     0          0         -1      )       ( -0.5000000 )

 cart.    s( 3) = ( -1.0000000  0.0000000  0.0000000 )    f =(  0.5000000 )
                  (  0.0000000 -1.0000000  0.0000000 )       (  0.0000000 )
                  (  0.0000000  0.0000000 -1.0000000 )       ( -0.3108564 )

      isym =  4     inv. 180 deg rotation - cart. axis [0,0,1]

 cryst.   s( 4) = (     1          0          0      )    f =(  0.2500000 )
                  (     0          1          0      )       ( -0.2500000 )
                  (    -1         -1         -1      )       ( -0.5000000 )

 cart.    s( 4) = (  1.0000000 -0.0000000  0.0000000 )    f =(  0.5000000 )
                  (  0.0000000  1.0000000  0.0000000 )       (  0.0000000 )
                  (  0.0000000  0.0000000 -1.0000000 )       ( -0.3108564 )

   Cartesian axes

     site n.     atom                  positions (alat units)
         1           Cu  tau(   1) = (   0.4432634  -0.2434768   0.4662845  )
         2           Cu  tau(   2) = (   0.2500000   0.0000000   0.1554282  )
         3           Cu  tau(   3) = (   0.7500000   0.0000000   0.1554282  )
         4           Cu  tau(   4) = (   0.5567366   0.2434768   0.4662845  )
         5           O   tau(   5) = (   0.5000000  -0.0000000   0.3108564  )
         6           O   tau(   6) = (   0.0000000   0.0000000   0.0000000  )
         7           F   tau(   7) = (   0.3118223   0.2475136   0.0000000  )
         8           F   tau(   8) = (  -0.1881777   0.2475136   0.3108564  )
         9           F   tau(   9) = (   0.9151243   0.7263936   0.0000000  )
        10           F   tau(  10) = (   0.4151243   0.7263936   0.3108564  )

   Crystallographic axes

     site n.     atom                  positions (cryst. coord.)
         1           Cu  tau(   1) = (  0.8750000  0.1250000  0.7500000  )
         2           Cu  tau(   2) = (  0.3750000  0.1250000  0.2500000  )
         3           Cu  tau(   3) = (  0.8750000  0.1250000  0.2500000  )
         4           Cu  tau(   4) = (  0.8750000  0.6250000  0.7500000  )
         5           O   tau(   5) = (  0.7500000  0.2500000  0.5000000  )
         6           O   tau(   6) = (  0.0000000  0.0000000  0.0000000  )
         7           F   tau(   7) = (  0.2541450  0.2541450  0.0000000  )
         8           F   tau(   8) = (  0.0041450  0.5041450  0.5000000  )
         9           F   tau(   9) = (  0.7458550  0.7458550  0.0000000  )
        10           F   tau(  10) = (  0.4958550  0.9958550  0.5000000  )

     number of k points=    10
                       cart. coord. in units 2pi/alat
        k(    1) = (   0.0000000   0.0000000   0.0000000), wk =   0.0740741
        k(    2) = (   0.0000000   0.0000000   0.5361533), wk =   0.1481481
        k(    3) = (   0.0000000   0.3422640   0.2680767), wk =   0.2962963
        k(    4) = (   0.0000000   0.3422640   0.8042300), wk =   0.1481481
        k(    5) = (   0.3333333  -0.0776756   0.2680767), wk =   0.2962963
        k(    6) = (   0.3333333  -0.0776756   0.8042300), wk =   0.1481481
        k(    7) = (   0.3333333   0.2645883   0.5361533), wk =   0.2962963
        k(    8) = (   0.3333333   0.2645883   0.0000000), wk =   0.1481481
        k(    9) = (   0.3333333  -0.4199396   0.0000000), wk =   0.1481481
        k(   10) = (   0.3333333  -0.4199396   0.5361533), wk =   0.2962963

                       cryst. coord.
        k(    1) = (   0.0000000   0.0000000   0.0000000), wk =   0.0740741
        k(    2) = (   0.0000000   0.0000000   0.3333333), wk =   0.1481481
        k(    3) = (   0.0000000   0.3333333  -0.0000000), wk =   0.2962963
        k(    4) = (   0.0000000   0.3333333   0.3333333), wk =   0.1481481
        k(    5) = (   0.3333333  -0.0000000  -0.0000000), wk =   0.2962963
        k(    6) = (   0.3333333  -0.0000000   0.3333333), wk =   0.1481481
        k(    7) = (   0.3333333   0.3333333  -0.0000000), wk =   0.2962963
        k(    8) = (   0.3333333   0.3333333  -0.3333333), wk =   0.1481481
        k(    9) = (   0.3333333  -0.3333333   0.0000000), wk =   0.1481481
        k(   10) = (   0.3333333  -0.3333333   0.3333333), wk =   0.2962963

     Check: negative core charge=   -0.000006

     Initial potential from superposition of free atoms

     starting charge     112.0000, renormalised to     116.0000
     Starting wfcs are   76 randomized atomic wfcs
     Checking if some PAW data can be deallocated...

     Self-consistent Calculation

     iteration #  1     ecut=    30.00 Ry     beta= 0.70
     Davidson diagonalization with overlap

     ethr =  1.00E-02,  avg # of iterations =  2.3

     total energy              =   -1890.38117396 Ry
     estimated scf accuracy    <       3.29335849 Ry

[...]

     total energy              =   -1892.32089318 Ry
     estimated scf accuracy    <       0.00000447 Ry

     iteration # 10     ecut=    30.00 Ry     beta= 0.70
     Davidson diagonalization with overlap

     ethr =  3.85E-09,  avg # of iterations =  2.2

     End of self-consistent calculation

          k = 0.0000 0.0000 0.0000 (  3113 PWs)   bands (ev):

  -108.8870-108.8866-108.8841-108.8841 -66.5014 -66.4931 -66.4867 -66.4867
   -66.3621 -66.3595 -66.3536 -66.3536 -65.9328 -65.9328 -65.9285 -65.9246
   -19.5018 -19.4211 -19.3155 -19.3018 -15.5947 -15.2115  -3.7482  -2.9905
    -2.9905  -1.9619  -1.9008  -1.9008  -1.8434  -1.8434  -1.7549  -1.4736
    -0.9538  -0.9538  -0.9189  -0.3918  -0.3918   0.2137   0.2641   0.2641
     0.9991   1.1417   1.2264   1.3162   1.3162   1.5182   1.5368   1.5368
     1.5624   1.5661   1.6198   1.9967   2.0777   2.0777   2.1289   2.1289
     2.8863   4.0479   4.1177   4.1177   5.9700   9.5777  10.2956  10.2956

     occupation numbers
     1.0000   1.0000   1.0000   1.0000   1.0000   1.0000   1.0000   1.0000
     1.0000   1.0000   1.0000   1.0000   1.0000   1.0000   1.0000   1.0000
     1.0000   1.0000   1.0000   1.0000   1.0000   1.0000   1.0000   1.0000
     1.0000   1.0000   1.0000   1.0000   1.0000   1.0000   1.0000   1.0000
     1.0000   1.0000   1.0000   1.0000   1.0000   1.0000   1.0000   1.0000
     1.0000   1.0000   1.0000   1.0000   1.0000   1.0000   1.0000   1.0000
     1.0000   1.0000   1.0000   1.0000   1.0000   1.0000   1.0000   1.0000
     1.0000   1.0000   0.0000   0.0000   0.0000   0.0000   0.0000   0.0000

[...]

          k = 0.3333-0.4199 0.5362 (  3090 PWs)   bands (ev):

  -108.8857-108.8855-108.8842-108.8840 -66.4956 -66.4918 -66.4889 -66.4868
   -66.3586 -66.3565 -66.3550 -66.3536 -65.9300 -65.9283 -65.9282 -65.9279
   -19.4528 -19.4131 -19.3527 -19.3160 -15.4648 -15.3682  -3.1760  -2.9509
    -2.6827  -2.4128  -2.1096  -1.9337  -1.8791  -1.8273  -1.6339  -1.1982
    -1.1331  -0.8577  -0.7386  -0.5806  -0.5679  -0.3765  -0.3279  -0.2903
     1.2506   1.3549   1.3671   1.4193   1.5036   1.5227   1.5715   1.6980
     1.7559   1.8534   1.9417   1.9949   2.0097   2.1081   2.1320   2.2075
     3.2496   3.4843   3.6584   3.9042   8.1161   8.5248   8.8545   9.9959

     occupation numbers
     1.0000   1.0000   1.0000   1.0000   1.0000   1.0000   1.0000   1.0000
     1.0000   1.0000   1.0000   1.0000   1.0000   1.0000   1.0000   1.0000
     1.0000   1.0000   1.0000   1.0000   1.0000   1.0000   1.0000   1.0000
     1.0000   1.0000   1.0000   1.0000   1.0000   1.0000   1.0000   1.0000
     1.0000   1.0000   1.0000   1.0000   1.0000   1.0000   1.0000   1.0000
     1.0000   1.0000   1.0000   1.0000   1.0000   1.0000   1.0000   1.0000
     1.0000   1.0000   1.0000   1.0000   1.0000   1.0000   1.0000   1.0000
     1.0000   1.0000   0.0000   0.0000   0.0000   0.0000   0.0000   0.0000

     highest occupied, lowest unoccupied level (ev):     4.0479    3.6035

!    total energy              =   -1892.32089363 Ry
     estimated scf accuracy    <       0.00000055 Ry

     The total energy is the sum of the following terms:
     one-electron contribution =   -1993.32229413 Ry
     hartree contribution      =    1032.80462975 Ry
     xc contribution           =    -206.95466538 Ry
     ewald contribution        =    -705.79477144 Ry
     one-center paw contrib.   =     -19.05379242 Ry
      -> PAW hartree energy AE =       0.00000000 Ry
      -> PAW hartree energy PS =       0.00000000 Ry
      -> PAW xc energy AE      =       0.00000000 Ry
      -> PAW xc energy PS      =       0.00000000 Ry
      -> total E_H with PAW    =    1032.80462975 Ry
      -> total E_XC with PAW   =    -206.95466538 Ry

     convergence has been achieved in  10 iterations

     Writing all to output data dir calculations_bands/myprefix.save/

     General routines

     Parallel routines

     PAW routines

   This run was terminated on:  19:55:27   5Jun2023

   JOB DONE.