     Program PWSCF v.7.0 starts on  7Jun2023 at  0:23:57

     K-points division:     npool     =       2
     R & G space division:  proc/nbgrp/npool/nimage =       4

     Reading input from espresso_967.pwi
Warning: card &CELL ignored
Warning: card / ignored

     Current dimensions of program PWSCF are:
     Max number of different atomic species (ntypx) = 10
     Max number of k-points (npk) =  40000
     Max angular momentum in pseudopotentials (lmaxx) =  4
     file In.pbe-dn-rrkjus_psl.0.2.2.UPF: wavefunction(s)  5S renormalized
     file O.pbe-n-kjpaw_psl.0.1.UPF: wavefunction(s)  2P renormalized
     Message from routine setup:
     using ibrav=0 with symmetry is DISCOURAGED, use correct ibrav instead

     Using Slab Decomposition

     bravais-lattice index     =            0
     lattice parameter (alat)  =      10.8429  a.u.
     unit-cell volume          =    1435.6457 (a.u.)^3
     number of atoms/cell      =           13
     number of atomic types    =            3
     number of electrons       =       112.00
     number of Kohn-Sham states=           64
     kinetic-energy cutoff     =      30.0000  Ry
     charge density cutoff     =     240.0000  Ry
     scf convergence threshold =      1.0E-06
     mixing beta               =       0.7000
     number of iterations used =            8  plain     mixing
     Exchange-correlation= SLA  PW   PBX  PBC
                           (   1   4   3   4   0   0   0)

     celldm(1)=  10.842874  celldm(2)=   0.000000  celldm(3)=   0.000000
     celldm(4)=   0.000000  celldm(5)=   0.000000  celldm(6)=   0.000000

     crystal axes: (cart. coord. in units of alat)
               a(1) = (   1.000000   0.000000   0.000000 )
               a(2) = (  -0.500000   0.866025   0.000000 )
               a(3) = (   0.000000   0.000000   1.300419 )

     reciprocal axes: (cart. coord. in units 2 pi/alat)
               b(1) = (  1.000000  0.577350  0.000000 )
               b(2) = (  0.000000  1.154701  0.000000 )
               b(3) = (  0.000000  0.000000  0.768983 )

     PseudoPot. # 1 for Rb read from file:
     /home/pragov/projects/rrg-bengioy-ad/pragov/crystal_structure_design/SSSP/Rb_ONCV_PBE-1.0.oncvpsp.upf
     MD5 check sum: 55a5172d6bfbce6759a58e35d43f6aa9
     Pseudo is Norm-conserving, Zval =  9.0
     Generated using ONCVPSP code by D. R. Hamann
     Using radial grid of 2308 points,  6 beta functions with:
                l(1) =   0
                l(2) =   0
                l(3) =   1
                l(4) =   1
                l(5) =   2
                l(6) =   2

     PseudoPot. # 2 for In read from file:
     /home/pragov/projects/rrg-bengioy-ad/pragov/crystal_structure_design/SSSP/In.pbe-dn-rrkjus_psl.0.2.2.UPF
     MD5 check sum: 25e7c42c3b55b68f4bf926be2e7201a4
     Pseudo is Ultrasoft + core correction, Zval = 13.0
     Generated using "atomic" code by A. Dal Corso  v.5.0.99 svn rev. 10869
     Using radial grid of 1241 points,  6 beta functions with:
                l(1) =   0
                l(2) =   0
                l(3) =   1
                l(4) =   1
                l(5) =   2
                l(6) =   2
     Q(r) pseudized with 0 coefficients

     PseudoPot. # 3 for O  read from file:
     /home/pragov/projects/rrg-bengioy-ad/pragov/crystal_structure_design/SSSP/O.pbe-n-kjpaw_psl.0.1.UPF
     MD5 check sum: 0234752ac141de4415c5fc33072bef88
     Pseudo is Projector augmented-wave + core cor, Zval =  6.0
     Generated using "atomic" code by A. Dal Corso  v.5.0.99 svn rev. 10869
     Shape of augmentation charge: BESSEL
     Using radial grid of 1095 points,  4 beta functions with:
                l(1) =   0
                l(2) =   0
                l(3) =   1
                l(4) =   1
     Q(r) pseudized with 0 coefficients

     atomic species   valence    mass     pseudopotential
        Rb             9.00    85.46780     Rb( 1.00)
        In            13.00   114.81800     In( 1.00)
        O              6.00    15.99900     O ( 1.00)

     12 Sym. Ops., with inversion, found

                                    s                        frac. trans.

      isym =  1     identity

 cryst.   s( 1) = (     1          0          0      )
                  (     0          1          0      )
                  (     0          0          1      )

 cart.    s( 1) = (  1.0000000  0.0000000  0.0000000 )
                  (  0.0000000  1.0000000  0.0000000 )
                  (  0.0000000  0.0000000  1.0000000 )

      isym =  2     180 deg rotation - cart. axis [0,1,0]

[...]

      isym =  3     120 deg rotation - cryst. axis [0,0,1]

[...]

      isym =  6     180 deg rotation - cryst. axis [2,1,0]

[...]

      isym =  7     inversion

[...]

      isym =  8     inv. 180 deg rotation - cart. axis [0,1,0]

[...]

      isym =  9     inv. 120 deg rotation - cryst. axis [0,0,1]

 cryst.   s( 9) = (     0         -1          0      )
                  (     1          1          0      )
                  (     0          0         -1      )

 cart.    s( 9) = (  0.5000000  0.8660254  0.0000000 )
                  ( -0.8660254  0.5000000  0.0000000 )
                  (  0.0000000  0.0000000 -1.0000000 )

[...]

 cryst.   s(10) = (     1          1          0      )
                  (    -1          0          0      )
                  (     0          0         -1      )

 cart.    s(10) = (  0.5000000 -0.8660254  0.0000000 )
                  (  0.8660254  0.5000000  0.0000000 )
                  (  0.0000000  0.0000000 -1.0000000 )

[...]

      isym = 12     inv. 180 deg rotation - cryst. axis [2,1,0]

 cryst.   s(12) = (    -1         -1          0      )
                  (     0          1          0      )
                  (     0          0          1      )

 cart.    s(12) = ( -0.5000000 -0.8660253  0.0000000 )
                  ( -0.8660254  0.5000000  0.0000000 )
                  (  0.0000000  0.0000000  1.0000000 )

   Cartesian axes

     site n.     atom                  positions (alat units)
         1           Rb  tau(   1) = (  -0.0000005   0.5773506   0.0000000  )
         2           Rb  tau(   2) = (   0.5000005   0.2886749   0.0000000  )
         3           In  tau(   3) = (   0.0000000   0.0000000   0.9413293  )
         4           In  tau(   4) = (   0.5000005   0.2886749   0.6502096  )
         5           In  tau(   5) = (   0.0000000   0.0000000   0.3590900  )
         6           In  tau(   6) = (  -0.0000005   0.5773506   0.6502096  )
         7           O   tau(   7) = (   0.3577630   0.0000000   0.8650922  )
         8           O   tau(   8) = (   0.3211185   0.5561936   0.8650922  )
         9           O   tau(   9) = (   0.1788815   0.3098319   0.4353271  )
        10           O   tau(  10) = (  -0.3211185   0.5561936   0.4353271  )
        11           O   tau(  11) = (  -0.1788815   0.3098319   0.8650922  )
        12           O   tau(  12) = (   0.0000000   0.0000000   0.0000000  )
        13           O   tau(  13) = (   0.6422370   0.0000000   0.4353271  )

   Crystallographic axes

     site n.     atom                  positions (cryst. coord.)
         1           Rb  tau(   1) = (  0.3333330  0.6666670  0.0000000  )
         2           Rb  tau(   2) = (  0.6666670  0.3333330  0.0000000  )
         3           In  tau(   3) = (  0.0000000  0.0000000  0.7238660  )
         4           In  tau(   4) = (  0.6666670  0.3333330  0.5000000  )
         5           In  tau(   5) = (  0.0000000  0.0000000  0.2761340  )
         6           In  tau(   6) = (  0.3333330  0.6666670  0.5000000  )
         7           O   tau(   7) = (  0.3577630  0.0000000  0.6652410  )
         8           O   tau(   8) = (  0.6422370  0.6422370  0.6652410  )
         9           O   tau(   9) = (  0.3577630  0.3577630  0.3347590  )
        10           O   tau(  10) = ( -0.0000000  0.6422370  0.3347590  )
        11           O   tau(  11) = (  0.0000000  0.3577630  0.6652410  )
        12           O   tau(  12) = (  0.0000000  0.0000000  0.0000000  )
        13           O   tau(  13) = (  0.6422370  0.0000000  0.3347590  )

     number of k points=     7
                       cart. coord. in units 2pi/alat
        k(    1) = (   0.0000000   0.0000000   0.0000000), wk =   0.0740741
        k(    2) = (   0.0000000   0.0000000   0.2563276), wk =   0.1481481
        k(    3) = (   0.0000000   0.3849002   0.0000000), wk =   0.4444444
        k(    4) = (   0.0000000   0.3849002   0.2563276), wk =   0.8888889
        k(    5) = (   0.3333333   0.5773502   0.0000000), wk =   0.1481481
        k(    6) = (   0.3333333   0.5773502   0.2563276), wk =   0.1481481
        k(    7) = (  -0.3333333  -0.5773502   0.2563276), wk =   0.1481481

                       cryst. coord.
        k(    1) = (   0.0000000   0.0000000   0.0000000), wk =   0.0740741
        k(    2) = (   0.0000000   0.0000000   0.3333333), wk =   0.1481481
        k(    3) = (   0.0000000   0.3333333   0.0000000), wk =   0.4444444
        k(    4) = (   0.0000000   0.3333333   0.3333333), wk =   0.8888889
        k(    5) = (   0.3333333   0.3333333   0.0000000), wk =   0.1481481
        k(    6) = (   0.3333333   0.3333333   0.3333333), wk =   0.1481481
        k(    7) = (  -0.3333333  -0.3333333   0.3333333), wk =   0.1481481

     Check: negative core charge=   -0.000008

     Initial potential from superposition of free atoms

     starting charge     111.9356, renormalised to     112.0000
     Starting wfcs are   74 randomized atomic wfcs
     Checking if some PAW data can be deallocated...

     Self-consistent Calculation

     iteration #  1     ecut=    30.00 Ry     beta= 0.70
     Davidson diagonalization with overlap

     ethr =  1.00E-02,  avg # of iterations =  3.7

     total energy              =    -966.99315305 Ry
     estimated scf accuracy    <       3.37780919 Ry

[...]

     total energy              =    -968.82970726 Ry
     estimated scf accuracy    <       0.00000739 Ry

     iteration #  9     ecut=    30.00 Ry     beta= 0.70
     Davidson diagonalization with overlap

     ethr =  6.60E-09,  avg # of iterations =  2.0

     End of self-consistent calculation

          k = 0.0000 0.0000 0.0000 (  4033 PWs)   bands (ev):

   -18.7729 -18.4798 -10.2905  -9.8063  -9.8061  -9.7075  -9.7074  -9.7017
    -9.5040  -5.6786  -5.6786  -5.6777  -5.6742  -5.6742  -5.6044  -5.6044
    -5.5637  -5.5637  -5.3472  -5.2226  -5.2226  -5.1992  -5.1991  -5.1404
    -5.0931  -4.9227  -4.9227  -4.5768  -4.5768  -3.3384  -3.3383  -2.7586
    -2.4725  -2.3400  -2.3400   2.0326   2.3244   2.3986   3.4649   3.4651
     3.8848   4.2429   4.2429   4.4132   5.3510   5.4368   5.4368   6.0880
     6.0881   6.3550   6.3550   6.4124   6.5349   6.5349   6.5692   6.5693
     8.0137  11.2839  12.0201  12.6823  13.3951  14.2119  14.2119  14.5963

     occupation numbers
     1.0000   1.0000   1.0000   1.0000   1.0000   1.0000   1.0000   1.0000
     1.0000   1.0000   1.0000   1.0000   1.0000   1.0000   1.0000   1.0000
     1.0000   1.0000   1.0000   1.0000   1.0000   1.0000   1.0000   1.0000
     1.0000   1.0000   1.0000   1.0000   1.0000   1.0000   1.0000   1.0000
     1.0000   1.0000   1.0000   1.0000   1.0000   1.0000   1.0000   1.0000
     1.0000   1.0000   1.0000   1.0000   1.0000   1.0000   1.0000   1.0000
     1.0000   1.0000   1.0000   1.0000   1.0000   1.0000   1.0000   1.0000
     0.0000   0.0000   0.0000   0.0000   0.0000   0.0000   0.0000   0.0000

[...]

          k = 0.3333 0.5774 0.2563 (  3993 PWs)   bands (ev):

[...]

          k =-0.3333-0.5774 0.2563 (  3993 PWs)   bands (ev):

   -18.6285 -18.6285  -9.9752  -9.9750  -9.8924  -9.7156  -9.7038  -9.7037
    -9.5082  -5.8417  -5.6567  -5.6567  -5.6337  -5.6337  -5.5866  -5.5866
    -5.5087  -5.5087  -5.4099  -5.3391  -5.2667  -5.2667  -5.2416  -5.1389
    -5.1389  -5.0799  -4.7935  -4.7935  -4.3764  -3.4424  -2.8519  -2.8519
    -2.6014  -2.6014  -2.1338   1.8564   2.5147   2.5147   3.0153   4.2115
     4.2115   4.5216   4.7990   4.7990   5.2854   5.4671   5.4672   5.4985
     5.8878   5.8879   6.2255   6.2256   6.2333   6.4486   6.4486   6.5254
    10.6755  11.3001  11.9091  11.9091  12.6996  13.0654  13.0654  13.8062

     occupation numbers
     1.0000   1.0000   1.0000   1.0000   1.0000   1.0000   1.0000   1.0000
     1.0000   1.0000   1.0000   1.0000   1.0000   1.0000   1.0000   1.0000
     1.0000   1.0000   1.0000   1.0000   1.0000   1.0000   1.0000   1.0000
     1.0000   1.0000   1.0000   1.0000   1.0000   1.0000   1.0000   1.0000
     1.0000   1.0000   1.0000   1.0000   1.0000   1.0000   1.0000   1.0000
     1.0000   1.0000   1.0000   1.0000   1.0000   1.0000   1.0000   1.0000
     1.0000   1.0000   1.0000   1.0000   1.0000   1.0000   1.0000   1.0000
     0.0000   0.0000   0.0000   0.0000   0.0000   0.0000   0.0000   0.0000

     highest occupied, lowest unoccupied level (ev):     6.6391    8.0137

!    total energy              =    -968.82970775 Ry
     estimated scf accuracy    <       0.00000061 Ry

     The total energy is the sum of the following terms:
     one-electron contribution =    -348.76116048 Ry
     hartree contribution      =     259.28320062 Ry
     xc contribution           =    -258.13205575 Ry
     ewald contribution        =    -554.52851204 Ry
     one-center paw contrib.   =     -66.69118011 Ry
      -> PAW hartree energy AE =       0.00000000 Ry
      -> PAW hartree energy PS =       0.00000000 Ry
      -> PAW xc energy AE      =       0.00000000 Ry
      -> PAW xc energy PS      =       0.00000000 Ry
      -> total E_H with PAW    =     259.28320062 Ry
      -> total E_XC with PAW   =    -258.13205575 Ry

     convergence has been achieved in   9 iterations

     Writing all to output data dir calculations_bands/myprefix.save/

     General routines

     Parallel routines

     PAW routines

   This run was terminated on:   0:24: 7   7Jun2023

   JOB DONE.