     Program PWSCF v.7.0 starts on  6Jun2023 at  2: 4: 4

     K-points division:     npool     =       2
     R & G space division:  proc/nbgrp/npool/nimage =       4

     Reading input from espresso_13176.pwi
Warning: card &CELL ignored
Warning: card / ignored

     Current dimensions of program PWSCF are:
     Max number of different atomic species (ntypx) = 10
     Max number of k-points (npk) =  40000
     Max angular momentum in pseudopotentials (lmaxx) =  4
     Message from routine setup:
     using ibrav=0 with symmetry is DISCOURAGED, use correct ibrav instead

     Using Slab Decomposition

     bravais-lattice index     =            0
     lattice parameter (alat)  =      13.8046  a.u.
     unit-cell volume          =    1457.0399 (a.u.)^3
     number of atoms/cell      =            8
     number of atomic types    =            2
     number of electrons       =       100.00
     number of Kohn-Sham states=           64
     kinetic-energy cutoff     =      30.0000  Ry
     charge density cutoff     =     240.0000  Ry
     scf convergence threshold =      1.0E-06
     mixing beta               =       0.7000
     number of iterations used =            8  plain     mixing
     Exchange-correlation=  SLA  PW   PBX  PBC
                           (   1   4   3   4   0   0   0)

     celldm(1)=  13.804606  celldm(2)=   0.000000  celldm(3)=   0.000000
     celldm(4)=   0.000000  celldm(5)=   0.000000  celldm(6)=   0.000000

     crystal axes: (cart. coord. in units of alat)
               a(1) = (   1.000000   0.000000   0.000000 )
               a(2) = (  -0.802724   0.596351   0.000000 )
               a(3) = (   0.000000   0.000000   0.928747 )

     reciprocal axes: (cart. coord. in units 2 pi/alat)
               b(1) = (  1.000000  1.346058  0.000000 )
               b(2) = (  0.000000  1.676864  0.000000 )
               b(3) = (  0.000000  0.000000  1.076720 )

     PseudoPot. # 1 for La read from file:
     /home/pragov/projects/rrg-bengioy-ad/pragov/crystal_structure_design/SSSP/La.GGA-PBE-paw-v1.0.UPF
     MD5 check sum: 436541e95c1ad8901025bd0b0ed42ae2
     Pseudo is Projector augmented-wave + core cor, Zval = 11.0
     Generated using ATOMPAW code
     Shape of augmentation charge: BESSEL
     Using radial grid of 1101 points,  8 beta functions with:
                l(1) =   0
                l(2) =   0
                l(3) =   1
                l(4) =   1
                l(5) =   2
                l(6) =   2
                l(7) =   3
                l(8) =   3
     Q(r) pseudized with 0 coefficients

     PseudoPot. # 2 for Ge read from file:
     /home/pragov/projects/rrg-bengioy-ad/pragov/crystal_structure_design/SSSP/ge_pbe_v1.4.uspp.F.UPF
     MD5 check sum: 9c9eaa91e581c3f09632fb3098b2c6b2
     Pseudo is Ultrasoft + core correction, Zval = 14.0
     Generated by new atomic code, or converted to UPF format
     Using radial grid of  873 points,  6 beta functions with:
                l(1) =   0
                l(2) =   0
                l(3) =   1
                l(4) =   1
                l(5) =   2
                l(6) =   2
     Q(r) pseudized with  8 coefficients,  rinner =    1.400   1.400   1.400
                                                       1.400   1.400

     atomic species   valence    mass     pseudopotential
        La            11.00   138.90547     La( 1.00)
        Ge            14.00    72.63000     Ge( 1.00)

      4 Sym. Ops., with inversion, found ( 2 have fractional translation)

                                    s                        frac. trans.

      isym =  1     identity

 cryst.   s( 1) = (     1          0          0      )
                  (     0          1          0      )
                  (     0          0          1      )

 cart.    s( 1) = (  1.0000000 -0.0000000  0.0000000 )
                  (  0.0000000  1.0000000  0.0000000 )
                  (  0.0000000  0.0000000  1.0000000 )

      isym =  2     180 deg rotation - cart. axis [0,0,1]

 cryst.   s( 2) = (    -1          0          0      )    f =(  0.0000000 )
                  (     0         -1          0      )       (  0.0000000 )
                  (     0          0          1      )       (  0.5000000 )

 cart.    s( 2) = ( -1.0000000  0.0000000  0.0000000 )    f =( -0.0000000 )
                  (  0.0000000 -1.0000000  0.0000000 )       (  0.0000000 )
                  (  0.0000000  0.0000000  1.0000000 )       (  0.4643733 )

      isym =  3     inversion

 cryst.   s( 3) = (    -1          0          0      )
                  (     0         -1          0      )
                  (     0          0         -1      )

 cart.    s( 3) = ( -1.0000000  0.0000000  0.0000000 )
                  (  0.0000000 -1.0000000  0.0000000 )
                  (  0.0000000  0.0000000 -1.0000000 )

      isym =  4     inv. 180 deg rotation - cart. axis [0,0,1]

 cryst.   s( 4) = (     1          0          0      )    f =(  0.0000000 )
                  (     0          1          0      )       (  0.0000000 )
                  (     0          0         -1      )       (  0.5000000 )

 cart.    s( 4) = (  1.0000000 -0.0000000  0.0000000 )    f =(  0.0000000 )
                  (  0.0000000  1.0000000  0.0000000 )       (  0.0000000 )
                  (  0.0000000  0.0000000 -1.0000000 )       (  0.4643733 )

   Cartesian axes

     site n.     atom                  positions (alat units)
         1           La  tau(   1) = (   0.9134404   0.0286344   0.2321867  )
         2           La  tau(   2) = (  -0.7161640   0.5677169   0.6965600  )
         3           La  tau(   3) = (   0.5934119   0.1345017   0.6965600  )
         4           La  tau(   4) = (  -0.3961355   0.4618496   0.2321867  )
         5           Ge  tau(   5) = (   0.2755359   0.2396569   0.4128307  )
         6           Ge  tau(   6) = (  -0.0782594   0.3566944   0.5159160  )
         7           Ge  tau(   7) = (   0.2755359   0.2396569   0.0515427  )
         8           Ge  tau(   8) = (  -0.0782594   0.3566944   0.8772040  )

   Crystallographic axes

     site n.     atom                  positions (cryst. coord.)
         1           La  tau(   1) = (  0.9519840  0.0480160  0.2500000  )
         2           La  tau(   2) = (  0.0480160  0.9519840  0.7500000  )
         3           La  tau(   3) = (  0.7744590  0.2255410  0.7500000  )
         4           La  tau(   4) = (  0.2255410  0.7744590  0.2500000  )
         5           Ge  tau(   5) = (  0.5981280  0.4018720  0.4445030  )
         6           Ge  tau(   6) = (  0.4018720  0.5981280  0.5554970  )
         7           Ge  tau(   7) = (  0.5981280  0.4018720  0.0554970  )
         8           Ge  tau(   8) = (  0.4018720  0.5981280  0.9445030  )

     number of k points=    10
                       cart. coord. in units 2pi/alat
        k(    1) = (   0.0000000   0.0000000   0.0000000), wk =   0.0740741
        k(    2) = (   0.0000000   0.0000000   0.3589066), wk =   0.1481481
        k(    3) = (   0.0000000   0.5589546   0.0000000), wk =   0.1481481
        k(    4) = (   0.0000000   0.5589546   0.3589066), wk =   0.2962963
        k(    5) = (   0.3333333   0.4486861   0.0000000), wk =   0.1481481
        k(    6) = (   0.3333333   0.4486861   0.3589066), wk =   0.2962963
        k(    7) = (   0.3333333   1.0076407   0.0000000), wk =   0.1481481
        k(    8) = (   0.3333333   1.0076407   0.3589066), wk =   0.2962963
        k(    9) = (   0.3333333  -0.1102686   0.0000000), wk =   0.1481481
        k(   10) = (   0.3333333  -0.1102686   0.3589066), wk =   0.2962963

                       cryst. coord.
        k(    1) = (   0.0000000   0.0000000   0.0000000), wk =   0.0740741
        k(    2) = (   0.0000000   0.0000000   0.3333333), wk =   0.1481481
        k(    3) = (   0.0000000   0.3333333   0.0000000), wk =   0.1481481
        k(    4) = (   0.0000000   0.3333333   0.3333333), wk =   0.2962963
        k(    5) = (   0.3333333  -0.0000000   0.0000000), wk =   0.1481481
        k(    6) = (   0.3333333  -0.0000000   0.3333333), wk =   0.2962963
        k(    7) = (   0.3333333   0.3333333   0.0000000), wk =   0.1481481
        k(    8) = (   0.3333333   0.3333333   0.3333333), wk =   0.2962963
        k(    9) = (   0.3333333  -0.3333333   0.0000000), wk =   0.1481481
        k(   10) = (   0.3333333  -0.3333333   0.3333333), wk =   0.2962963

     Initial potential from superposition of free atoms

     starting charge      99.9624, renormalised to     100.0000
     Starting wfcs are  164 randomized atomic wfcs
     Checking if some PAW data can be deallocated...

     Self-consistent Calculation

     iteration #  1     ecut=    30.00 Ry     beta= 0.70
     Davidson diagonalization with overlap

     ethr =  1.00E-02,  avg # of iterations =  2.0

     Threshold (ethr) on eigenvalues was too large:
     Diagonalizing with lowered threshold

     Davidson diagonalization with overlap

[...]

     total energy              =   -2687.90741726 Ry
     estimated scf accuracy    <       0.11422659 Ry

[...]

     c_bands:  1 eigenvalues not converged
     c_bands:  5 eigenvalues not converged
     ethr =  3.77E-06,  avg # of iterations = 19.4

[...]

     total energy              =   -2687.94761438 Ry
     estimated scf accuracy    <       0.00000164 Ry

     iteration #  8     ecut=    30.00 Ry     beta= 0.70
     Davidson diagonalization with overlap

     ethr =  1.64E-09,  avg # of iterations =  5.0

     End of self-consistent calculation

          k = 0.0000 0.0000 0.0000 (  4087 PWs)   bands (ev):

   -21.3575 -21.2751 -21.2628 -21.2132 -12.9014 -12.8920 -12.8530 -12.8511
   -12.8346 -12.8342 -12.8261 -12.8141 -12.8064 -12.7980 -12.7960 -12.7848
   -12.7776 -12.7772 -12.7641 -12.7628 -12.7613 -12.7546 -12.7422 -12.7416
    -5.6195  -5.5349  -5.3781  -5.1390  -5.0892  -5.0593  -4.9098  -4.8720
    -4.7905  -4.7495  -4.6895  -4.6672   1.3270   3.2038   4.0750   5.0455
     7.5216   7.5858   9.4005   9.4827   9.7428  10.0010  10.0644  10.4493
    10.5748  11.1837  11.5554  11.9743  12.3560  12.4138  12.6362  12.6393
    12.8145  12.8392  12.8450  13.1746  13.1974  13.2365  13.2808  13.3749

     occupation numbers
     1.0000   1.0000   1.0000   1.0000   1.0000   1.0000   1.0000   1.0000
     1.0000   1.0000   1.0000   1.0000   1.0000   1.0000   1.0000   1.0000
     1.0000   1.0000   1.0000   1.0000   1.0000   1.0000   1.0000   1.0000
     1.0000   1.0000   1.0000   1.0000   1.0000   1.0000   1.0000   1.0000
     1.0000   1.0000   1.0000   1.0000   1.0000   1.0000   1.0000   1.0000
     1.0000   1.0000   1.0000   1.0000   1.0000   1.0000   1.0000   1.0000
     1.0000   1.0000   0.0000   0.0000   0.0000   0.0000   0.0000   0.0000
     0.0000   0.0000   0.0000   0.0000   0.0000   0.0000   0.0000   0.0000

[...]

          k = 0.3333-0.1103 0.3589 (  4068 PWs)   bands (ev):

   -21.3159 -21.2820 -21.2708 -21.2413 -12.8986 -12.8886 -12.8570 -12.8561
   -12.8291 -12.8251 -12.8199 -12.8090 -12.8027 -12.7979 -12.7967 -12.7885
   -12.7780 -12.7773 -12.7647 -12.7622 -12.7616 -12.7585 -12.7445 -12.7425
    -5.4957  -5.3463  -5.2538  -5.1257  -5.0665  -5.0271  -4.9760  -4.9251
    -4.9124  -4.8630  -4.8250  -4.7635   1.8826   2.5999   3.9952   4.7026
     8.4421   8.6482   9.1008   9.4308   9.4747   9.7269  10.2036  10.3131
    10.7385  10.9942  11.1821  11.2425  12.4314  12.5209  12.6071  12.7290
    12.9159  12.9529  13.0905  13.1283  13.2044  13.2155  13.2785  13.3341

     occupation numbers
     1.0000   1.0000   1.0000   1.0000   1.0000   1.0000   1.0000   1.0000
     1.0000   1.0000   1.0000   1.0000   1.0000   1.0000   1.0000   1.0000
     1.0000   1.0000   1.0000   1.0000   1.0000   1.0000   1.0000   1.0000
     1.0000   1.0000   1.0000   1.0000   1.0000   1.0000   1.0000   1.0000
     1.0000   1.0000   1.0000   1.0000   1.0000   1.0000   1.0000   1.0000
     1.0000   1.0000   1.0000   1.0000   1.0000   1.0000   1.0000   1.0000
     1.0000   1.0000   0.0000   0.0000   0.0000   0.0000   0.0000   0.0000
     0.0000   0.0000   0.0000   0.0000   0.0000   0.0000   0.0000   0.0000

     highest occupied, lowest unoccupied level (ev):    11.4564   11.1821

!    total energy              =   -2687.94761533 Ry
     estimated scf accuracy    <       0.00000015 Ry

     The total energy is the sum of the following terms:
     one-electron contribution =    -586.27123680 Ry
     hartree contribution      =     375.37431815 Ry
     xc contribution           =    -268.20791740 Ry
     ewald contribution        =    -616.56386874 Ry
     one-center paw contrib.   =   -1592.27891055 Ry
      -> PAW hartree energy AE =      35.25751578 Ry
      -> PAW hartree energy PS =     -35.29481210 Ry
      -> PAW xc energy AE      =    -405.37811388 Ry
      -> PAW xc energy PS      =       7.33931695 Ry
      -> total E_H with PAW    =     375.33702184 Ry
      -> total E_XC with PAW   =    -666.24671433 Ry

     convergence has been achieved in   8 iterations

     Writing all to output data dir calculations_bands/myprefix.save/

     General routines

     Parallel routines

     PAW routines

   This run was terminated on:   2: 4:24   6Jun2023

   JOB DONE.