     Program PWSCF v.7.0 starts on  6Jun2023 at 11: 9:47

     K-points division:     npool     =       2
     R & G space division:  proc/nbgrp/npool/nimage =       4

     Reading input from espresso_16402.pwi
Warning: card &CELL ignored
Warning: card / ignored

     Current dimensions of program PWSCF are:
     Max number of different atomic species (ntypx) = 10
     Max number of k-points (npk) =  40000
     Max angular momentum in pseudopotentials (lmaxx) =  4
     Message from routine setup:
     using ibrav=0 with symmetry is DISCOURAGED, use correct ibrav instead

     Using Slab Decomposition

     bravais-lattice index     =            0
     lattice parameter (alat)  =      11.1093  a.u.
     unit-cell volume          =     395.9495 (a.u.)^3
     number of atoms/cell      =            3
     number of atomic types    =            2
     number of electrons       =        42.00
     number of Kohn-Sham states=           64
     kinetic-energy cutoff     =      30.0000  Ry
     charge density cutoff     =     240.0000  Ry
     scf convergence threshold =      1.0E-06
     mixing beta               =       0.7000
     number of iterations used =            8  plain     mixing
     Exchange-correlation= PBE
                           (   1   4   3   4   0   0   0)

     celldm(1)=  11.109275  celldm(2)=   0.000000  celldm(3)=   0.000000
     celldm(4)=   0.000000  celldm(5)=   0.000000  celldm(6)=   0.000000

     crystal axes: (cart. coord. in units of alat)
               a(1) = (   1.000000   0.000000   0.000000 )
               a(2) = (   0.685410   0.728157   0.000000 )
               a(3) = (  -0.842705  -0.364079   0.396604 )

     reciprocal axes: (cart. coord. in units 2 pi/alat)
               b(1) = (  1.000000 -0.941294  1.260702 )
               b(2) = (  0.000000  1.373330  1.260702 )
               b(3) = (  0.000000  0.000000  2.521405 )

     PseudoPot. # 1 for Hf read from file:
     /home/pragov/projects/rrg-bengioy-ad/pragov/crystal_structure_design/SSSP/Hf-sp.oncvpsp.upf
     MD5 check sum: 417ed15784afe83d2e06dacf143de3f8
     Pseudo is Norm-conserving + core correction, Zval = 12.0
     Generated using ONCVPSP code by D. R. Hamann
     Using radial grid of 1656 points,  8 beta functions with:
                l(1) =   0
                l(2) =   0
                l(3) =   1
                l(4) =   1
                l(5) =   2
                l(6) =   2
                l(7) =   3
                l(8) =   3

     PseudoPot. # 2 for Pd read from file:
     /home/pragov/projects/rrg-bengioy-ad/pragov/crystal_structure_design/SSSP/Pd_ONCV_PBE-1.0.oncvpsp.upf
     MD5 check sum: eb77f42b51d86fb18e25f68156a31cf1
     Pseudo is Norm-conserving, Zval = 18.0
     Generated using ONCVPSP code by D. R. Hamann
     Using radial grid of 1410 points,  6 beta functions with:
                l(1) =   0
                l(2) =   0
                l(3) =   1
                l(4) =   1
                l(5) =   2
                l(6) =   2

     atomic species   valence    mass     pseudopotential
        Hf            12.00   178.49000     Hf( 1.00)
        Pd            18.00   106.42000     Pd( 1.00)

      4 Sym. Ops., with inversion, found

                                    s                        frac. trans.

      isym =  1     identity

 cryst.   s( 1) = (     1          0          0      )
                  (     0          1          0      )
                  (     0          0          1      )

 cart.    s( 1) = (  1.0000000 -0.0000000  0.0000000 )
                  (  0.0000000  1.0000000  0.0000000 )
                  (  0.0000000  0.0000000  1.0000000 )

      isym =  2     180 deg rotation - cart. axis [0,0,1]

[...]

      isym =  3     inversion

[...]

      isym =  4     inv. 180 deg rotation - cart. axis [0,0,1]

 cryst.   s( 4) = (     1          0          0      )
                  (     0          1          0      )
                  (    -1         -1         -1      )

 cart.    s( 4) = (  1.0000000 -0.0000000 -0.0000000 )
                  (  0.0000000  1.0000000 -0.0000000 )
                  (  0.0000000  0.0000000 -1.0000000 )

   Cartesian axes

     site n.     atom                  positions (alat units)
         1           Hf  tau(   1) = (   1.1092864   0.4792513   0.0000000  )
         2           Hf  tau(   2) = (   0.5761237   0.2489060   0.0000000  )
         3           Pd  tau(   3) = (   0.0000000   0.0000000   0.0000000  )

   Crystallographic axes

     site n.     atom                  positions (cryst. coord.)
         1           Hf  tau(   1) = (  0.6581700  0.6581700  0.0000000  )
         2           Hf  tau(   2) = (  0.3418300  0.3418300  0.0000000  )
         3           Pd  tau(   3) = (  0.0000000  0.0000000  0.0000000  )

     number of k points=    10
                       cart. coord. in units 2pi/alat
        k(    1) = (   0.0000000   0.0000000   0.0000000), wk =   0.0740741
        k(    2) = (   0.0000000   0.0000000   0.8404683), wk =   0.1481481
        k(    3) = (   0.0000000   0.4577766   0.4202342), wk =   0.2962963
        k(    4) = (   0.0000000   0.4577766   1.2607025), wk =   0.1481481
        k(    5) = (   0.3333333  -0.3137647   0.4202342), wk =   0.2962963
        k(    6) = (   0.3333333  -0.3137647   1.2607025), wk =   0.1481481
        k(    7) = (   0.3333333   0.1440119   0.8404683), wk =   0.2962963
        k(    8) = (   0.3333333   0.1440119  -0.0000000), wk =   0.1481481
        k(    9) = (   0.3333333  -0.7715412  -0.0000000), wk =   0.1481481
        k(   10) = (   0.3333333  -0.7715412   0.8404683), wk =   0.2962963

                       cryst. coord.
        k(    1) = (   0.0000000   0.0000000   0.0000000), wk =   0.0740741
        k(    2) = (   0.0000000   0.0000000   0.3333333), wk =   0.1481481
        k(    3) = (   0.0000000   0.3333333   0.0000000), wk =   0.2962963
        k(    4) = (   0.0000000   0.3333333   0.3333333), wk =   0.1481481
        k(    5) = (   0.3333333  -0.0000000   0.0000000), wk =   0.2962963
        k(    6) = (   0.3333333  -0.0000000   0.3333333), wk =   0.1481481
        k(    7) = (   0.3333333   0.3333333   0.0000000), wk =   0.2962963
        k(    8) = (   0.3333333   0.3333333  -0.3333333), wk =   0.1481481
        k(    9) = (   0.3333333  -0.3333333  -0.0000000), wk =   0.1481481
        k(   10) = (   0.3333333  -0.3333333   0.3333333), wk =   0.2962963

     Initial potential from superposition of free atoms

     starting charge      41.9959, renormalised to      42.0000
     Starting wfcs are   30 randomized atomic wfcs +   34 random wfcs

     Self-consistent Calculation

     iteration #  1     ecut=    30.00 Ry     beta= 0.70
     Davidson diagonalization with overlap

     ethr =  1.00E-02,  avg # of iterations =  6.3

     Threshold (ethr) on eigenvalues was too large:
     Diagonalizing with lowered threshold

     Davidson diagonalization with overlap

[...]

     total energy              =    -478.50813339 Ry
     estimated scf accuracy    <       0.21284609 Ry

[...]

     total energy              =    -478.60341572 Ry
     estimated scf accuracy    <       0.00002047 Ry

     iteration #  7     ecut=    30.00 Ry     beta= 0.70
     Davidson diagonalization with overlap

     ethr =  4.87E-08,  avg # of iterations =  1.0

     End of self-consistent calculation

          k = 0.0000 0.0000 0.0000 (  1125 PWs)   bands (ev):

   -69.7657 -45.3697 -45.3267 -35.1800 -35.1800 -35.0947 -14.3245 -14.0613
   -14.0613 -13.8197 -13.8197 -13.8041   8.8916  11.6824  11.9335  13.1242
    13.1242  13.2399  13.3744  14.7879  16.9074  18.0182  18.7216  18.7216
    19.4514  19.4514  19.7118  20.2370  20.8275  21.6558  29.1349  29.1349
    29.4665  29.4665  30.0812  30.6563  31.7273  31.7599  31.7599  31.9635
    35.9302  36.2440  38.0889  39.9714  40.1366  40.2494  41.7087  41.7087
    42.5649  42.5649  42.5761  43.8262  44.5586  44.5586  46.2231  48.0539
    48.0539  48.5114  50.6134  51.0620  51.0760  51.9570  51.9570  52.1326

     occupation numbers
     1.0000   1.0000   1.0000   1.0000   1.0000   1.0000   1.0000   1.0000
     1.0000   1.0000   1.0000   1.0000   1.0000   1.0000   1.0000   1.0000
     1.0000   1.0000   1.0000   1.0000   1.0000   0.0000   0.0000   0.0000
     0.0000   0.0000   0.0000   0.0000   0.0000   0.0000   0.0000   0.0000
     0.0000   0.0000   0.0000   0.0000   0.0000   0.0000   0.0000   0.0000
     0.0000   0.0000   0.0000   0.0000   0.0000   0.0000   0.0000   0.0000
     0.0000   0.0000   0.0000   0.0000   0.0000   0.0000   0.0000   0.0000
     0.0000   0.0000   0.0000   0.0000   0.0000   0.0000   0.0000   0.0000

[...]

          k = 0.3333-0.7715 0.8405 (  1100 PWs)   bands (ev):

   -69.7648 -45.3335 -45.3080 -35.1984 -35.1778 -35.0902 -14.3319 -14.2831
   -13.9833 -13.8913 -13.8741 -13.8548  11.2630  11.3776  12.5059  12.6957
    12.7814  12.9706  14.1920  15.7817  16.3809  17.3899  17.5091  18.2450
    18.8851  19.0175  20.1554  21.4428  21.8221  21.8471  27.6008  28.3403
    28.4313  28.8501  29.8175  30.6791  30.9216  32.8405  33.1247  35.3419
    37.0430  37.2396  37.4807  37.5686  38.7041  39.3719  39.6504  39.8582
    41.0657  41.7643  43.2838  45.4176  46.5292  47.2259  48.1413  48.4204
    49.1031  49.4948  50.1751  50.7526  51.1000  51.4650  52.8169  53.1784

     occupation numbers
     1.0000   1.0000   1.0000   1.0000   1.0000   1.0000   1.0000   1.0000
     1.0000   1.0000   1.0000   1.0000   1.0000   1.0000   1.0000   1.0000
     1.0000   1.0000   1.0000   1.0000   1.0000   0.0000   0.0000   0.0000
     0.0000   0.0000   0.0000   0.0000   0.0000   0.0000   0.0000   0.0000
     0.0000   0.0000   0.0000   0.0000   0.0000   0.0000   0.0000   0.0000
     0.0000   0.0000   0.0000   0.0000   0.0000   0.0000   0.0000   0.0000
     0.0000   0.0000   0.0000   0.0000   0.0000   0.0000   0.0000   0.0000
     0.0000   0.0000   0.0000   0.0000   0.0000   0.0000   0.0000   0.0000

     highest occupied, lowest unoccupied level (ev):    16.9074   16.1361

!    total energy              =    -478.60341844 Ry
     estimated scf accuracy    <       0.00000061 Ry

     The total energy is the sum of the following terms:
     one-electron contribution =    -154.79132899 Ry
     hartree contribution      =      94.88963543 Ry
     xc contribution           =     -81.76478142 Ry
     ewald contribution        =    -336.93694346 Ry

     convergence has been achieved in   7 iterations

     Writing all to output data dir calculations_bands/myprefix.save/

     General routines

     Parallel routines

   This run was terminated on:  11: 9:57   6Jun2023

   JOB DONE.