     Program PWSCF v.7.0 starts on 23Jun2023 at  4:47:24

     K-points division:     npool     =       2
     R & G space division:  proc/nbgrp/npool/nimage =       4

     Reading input from espresso_9008.pwi
Warning: card &CELL ignored
Warning: card / ignored

     Current dimensions of program PWSCF are:
     Max number of different atomic species (ntypx) = 10
     Max number of k-points (npk) =  40000
     Max angular momentum in pseudopotentials (lmaxx) =  4
     Message from routine setup:
     using ibrav=0 with symmetry is DISCOURAGED, use correct ibrav instead

     Using Slab Decomposition

     bravais-lattice index     =            0
     lattice parameter (alat)  =      31.3492  a.u.
     unit-cell volume          =    1525.9562 (a.u.)^3
     number of atoms/cell      =           10
     number of atomic types    =            3
     number of electrons       =       142.00
     number of Kohn-Sham states=           90
     kinetic-energy cutoff     =      30.0000  Ry
     charge density cutoff     =     240.0000  Ry
     scf convergence threshold =      1.0E-06
     mixing beta               =       0.7000
     number of iterations used =            8  plain     mixing
     Exchange-correlation=  SLA  PW   PBX  PBC
                           (   1   4   3   4   0   0   0)

     celldm(1)=  31.349215  celldm(2)=   0.000000  celldm(3)=   0.000000
     celldm(4)=   0.000000  celldm(5)=   0.000000  celldm(6)=   0.000000

     crystal axes: (cart. coord. in units of alat)
               a(1) = (   1.000000   0.000000   0.000000 )
               a(2) = (   0.971125   0.238571   0.000000 )
               a(3) = (   0.971125   0.117538   0.207608 )

     reciprocal axes: (cart. coord. in units 2 pi/alat)
               b(1) = (  1.000000 -4.070586 -2.373106 )
               b(2) = (  0.000000  4.191619 -2.373106 )
               b(3) = (  0.000000  0.000000  4.816773 )

     PseudoPot. # 1 for Yb read from file:
     /home/pragov/projects/rrg-bengioy-ad/pragov/crystal_structure_design/SSSP/Yb.GGA-PBE-paw-v1.0.UPF
     MD5 check sum: 43b6465ad8021f06e3edb42ae292e187
     Pseudo is Projector augmented-wave + core cor, Zval = 24.0
     Generated using ATOMPAW code
     Shape of augmentation charge: BESSEL
     Using radial grid of 1117 points,  8 beta functions with:
                l(1) =   0
                l(2) =   0
                l(3) =   1
                l(4) =   1
                l(5) =   2
                l(6) =   2
                l(7) =   3
                l(8) =   3
     Q(r) pseudized with 0 coefficients

     PseudoPot. # 2 for Sm read from file:
     /home/pragov/projects/rrg-bengioy-ad/pragov/crystal_structure_design/SSSP/Sm.GGA-PBE-paw-v1.0.UPF
     MD5 check sum: 886f70968969f895acf876f5617e0641
     Pseudo is Projector augmented-wave + core cor, Zval = 16.0
     Generated using ATOMPAW code
     Shape of augmentation charge: BESSEL
     Using radial grid of 1107 points,  8 beta functions with:
                l(1) =   0
                l(2) =   0
                l(3) =   1
                l(4) =   1
                l(5) =   2
                l(6) =   2
                l(7) =   3
                l(8) =   3
     Q(r) pseudized with 0 coefficients

     PseudoPot. # 3 for S  read from file:
     /home/pragov/projects/rrg-bengioy-ad/pragov/crystal_structure_design/SSSP/s_pbe_v1.4.uspp.F.UPF
     MD5 check sum: 88d86576ff6df21479756cfb9bdac1df
     Pseudo is Ultrasoft + core correction, Zval =  6.0
     Generated by new atomic code, or converted to UPF format
     Using radial grid of  907 points,  6 beta functions with:
                l(1) =   0
                l(2) =   0
                l(3) =   1
                l(4) =   1
                l(5) =   2
                l(6) =   2
     Q(r) pseudized with  8 coefficients,  rinner =    1.300   1.300   1.300
                                                       1.300   1.300

     atomic species   valence    mass     pseudopotential
        Yb            24.00   173.05400     Yb( 1.00)
        Sm            16.00   150.36000     Sm( 1.00)
        S              6.00    32.06000     S ( 1.00)

      2 Sym. Ops., with inversion, found

                                    s                        frac. trans.

      isym =  1     identity

 cryst.   s( 1) = (     1          0          0      )
                  (     0          1          0      )
                  (     0          0          1      )

 cart.    s( 1) = (  1.0000000 -0.0000000 -0.0000000 )
                  (  0.0000000  1.0000000 -0.0000000 )
                  (  0.0000000  0.0000000  1.0000000 )

      isym =  2     inversion

 cryst.   s( 2) = (    -1          0          0      )
                  (     0         -1          0      )
                  (     0          0         -1      )

 cart.    s( 2) = ( -1.0000000  0.0000000  0.0000000 )
                  (  0.0000000 -1.0000000  0.0000000 )
                  (  0.0000000  0.0000000 -1.0000000 )

   Cartesian axes

     site n.     atom                  positions (alat units)
         1           Yb  tau(   1) = (   0.2932864   0.0354974   0.0206946  )
         2           Yb  tau(   2) = (   2.0597486   0.2492977   0.1453377  )
         3           Yb  tau(   3) = (   0.8825014   0.1068119   0.0622701  )
         4           Yb  tau(   4) = (   2.6489635   0.3206122   0.1869133  )
         5           Sm  tau(   5) = (   1.4711250   0.1780548   0.1038039  )
         6           S   tau(   6) = (   1.7649086   0.2136123   0.1245336  )
         7           S   tau(   7) = (   1.1773413   0.1424972   0.0830743  )
         8           S   tau(   8) = (   0.0000000   0.0000000   0.0000000  )
         9           S   tau(   9) = (   0.5903389   0.0714505   0.0416549  )
        10           S   tau(  10) = (   2.3519110   0.2846590   0.1659530  )

   Crystallographic axes

     site n.     atom                  positions (cryst. coord.)
         1           Yb  tau(   1) = (  0.0996810  0.0996810  0.0996810  )
         2           Yb  tau(   2) = (  0.7000590  0.7000590  0.7000590  )
         3           Yb  tau(   3) = (  0.2999410  0.2999410  0.2999410  )
         4           Yb  tau(   4) = (  0.9003190  0.9003190  0.9003190  )
         5           Sm  tau(   5) = (  0.5000000  0.5000000  0.5000000  )
         6           S   tau(   6) = (  0.5998500  0.5998500  0.5998500  )
         7           S   tau(   7) = (  0.4001500  0.4001500  0.4001500  )
         8           S   tau(   8) = (  0.0000000  0.0000000  0.0000000  )
         9           S   tau(   9) = (  0.2006420  0.2006420  0.2006420  )
        10           S   tau(  10) = (  0.7993580  0.7993580  0.7993580  )

     number of k points=    14
                       cart. coord. in units 2pi/alat
        k(    1) = (   0.0000000   0.0000000   0.0000000), wk =   0.0740741
        k(    2) = (   0.0000000   0.0000000   1.6055911), wk =   0.1481481
        k(    3) = (   0.0000000   1.3972062  -0.7910354), wk =   0.1481481
        k(    4) = (   0.0000000   1.3972062   0.8145557), wk =   0.1481481
        k(    5) = (   0.0000000   1.3972062  -2.3966266), wk =   0.1481481
        k(    6) = (   0.3333333  -1.3568618  -0.7910354), wk =   0.1481481
        k(    7) = (   0.3333333  -1.3568618   0.8145557), wk =   0.1481481
        k(    8) = (   0.3333333  -1.3568618  -2.3966266), wk =   0.1481481
        k(    9) = (   0.3333333   0.0403444  -1.5820708), wk =   0.1481481
        k(   10) = (   0.3333333   0.0403444   0.0235203), wk =   0.1481481
        k(   11) = (   0.3333333   0.0403444  -3.1876620), wk =   0.1481481
        k(   12) = (   0.3333333  -2.7540680  -0.0000000), wk =   0.1481481
        k(   13) = (   0.3333333  -2.7540680   1.6055911), wk =   0.1481481
        k(   14) = (   0.3333333  -2.7540680  -1.6055911), wk =   0.1481481

                       cryst. coord.
        k(    1) = (   0.0000000   0.0000000   0.0000000), wk =   0.0740741
        k(    2) = (   0.0000000   0.0000000   0.3333333), wk =   0.1481481
        k(    3) = (   0.0000000   0.3333333  -0.0000000), wk =   0.1481481
        k(    4) = (   0.0000000   0.3333333   0.3333333), wk =   0.1481481
        k(    5) = (   0.0000000   0.3333333  -0.3333333), wk =   0.1481481
        k(    6) = (   0.3333333  -0.0000000  -0.0000000), wk =   0.1481481
        k(    7) = (   0.3333333  -0.0000000   0.3333333), wk =   0.1481481
        k(    8) = (   0.3333333  -0.0000000  -0.3333333), wk =   0.1481481
        k(    9) = (   0.3333333   0.3333333  -0.0000000), wk =   0.1481481
        k(   10) = (   0.3333333   0.3333333   0.3333333), wk =   0.1481481
        k(   11) = (   0.3333333   0.3333333  -0.3333333), wk =   0.1481481
        k(   12) = (   0.3333333  -0.3333333  -0.0000000), wk =   0.1481481
        k(   13) = (   0.3333333  -0.3333333   0.3333333), wk =   0.1481481
        k(   14) = (   0.3333333  -0.3333333  -0.3333333), wk =   0.1481481

     Initial potential from superposition of free atoms

     starting charge     141.9782, renormalised to     142.0000
     Starting wfcs are  180 randomized atomic wfcs
     Checking if some PAW data can be deallocated...

     Self-consistent Calculation

     iteration #  1     ecut=    30.00 Ry     beta= 0.70
     Davidson diagonalization with overlap

     ethr =  1.00E-02,  avg # of iterations =  2.0

     total energy              =   -4767.80655875 Ry
     estimated scf accuracy    <       2.11937743 Ry

[...]

     c_bands:  1 eigenvalues not converged
     ethr =  2.47E-06,  avg # of iterations =  6.4

[...]

     total energy              =   -4770.38953367 Ry
     estimated scf accuracy    <       0.00000584 Ry

     iteration #141     ecut=    30.00 Ry     beta= 0.70
     Davidson diagonalization with overlap

     ethr =  7.27E-10,  avg # of iterations =  1.2

     End of self-consistent calculation

          k = 0.0000 0.0000 0.0000 (  4303 PWs)   bands (ev):

   -39.2974 -39.2973 -39.2910 -39.2883 -27.1330 -11.7481 -11.6933 -11.6200
   -11.5673 -11.5545 -11.5544 -11.5471 -11.5471 -11.5383 -11.5382 -11.5366
   -11.5366  -7.0678  -6.7273  -6.7267  -1.4631  -1.1176  -1.0926  -0.5411
    -0.3684   6.7583   6.8759   8.3594   8.4577   8.6468   8.6468   8.7533
     8.7534   9.3252   9.3252   9.3377   9.3378   9.7988   9.8292   9.8294
    12.1602  12.1822  12.2166  12.2167  12.2195  12.2195  12.2227  12.2374
    12.2802  12.2803  12.2917  12.2920  12.2935  12.2943  12.2944  12.2979
    12.2980  12.3116  12.3410  12.3411  12.3703  12.3737  12.3755  12.3852
    12.3852  12.4477  12.5066  12.5069  12.5639  12.5643  12.5681  12.5967
    12.7999  12.8033  12.9872  13.7812  14.0074  14.0792  14.0792  14.3007
    14.3627  14.8031  14.8032  15.0218  15.0219  15.0263  15.0263  15.1435
    15.3919  15.8291

     occupation numbers
     1.0000   1.0000   1.0000   1.0000   1.0000   1.0000   1.0000   1.0000
     1.0000   1.0000   1.0000   1.0000   1.0000   1.0000   1.0000   1.0000
     1.0000   1.0000   1.0000   1.0000   1.0000   1.0000   1.0000   1.0000
     1.0000   1.0000   1.0000   1.0000   1.0000   1.0000   1.0000   1.0000
     1.0000   1.0000   1.0000   1.0000   1.0000   1.0000   1.0000   1.0000
     1.0000   1.0000   1.0000   1.0000   1.0000   1.0000   1.0000   1.0000
     1.0000   1.0000   1.0000   1.0000   1.0000   1.0000   1.0000   1.0000
     1.0000   1.0000   1.0000   1.0000   1.0000   1.0000   1.0000   1.0000
     1.0000   1.0000   1.0000   1.0000   1.0000   1.0000   1.0000   0.0000
     0.0000   0.0000   0.0000   0.0000   0.0000   0.0000   0.0000   0.0000
     0.0000   0.0000   0.0000   0.0000   0.0000   0.0000   0.0000   0.0000
     0.0000   0.0000

[...]

          k = 0.3333-2.7541-1.6056 (  4219 PWs)   bands (ev):

   -39.2940 -39.2940 -39.2875 -39.2860 -27.1149 -11.7137 -11.6932 -11.6859
   -11.6636 -11.6478 -11.6165 -11.5905 -11.5904 -11.5768 -11.5682 -11.5616
   -11.5545  -7.1060  -6.9348  -6.7977  -0.8377  -0.7928  -0.6650  -0.6081
    -0.4458   7.1046   7.2406   7.6038   7.7055   7.9306   8.2864   8.6309
     8.6438   8.8017   8.8463   8.9101   9.0638   9.1896   9.2487   9.3086
    12.0652  12.1650  12.1812  12.1969  12.2107  12.2190  12.2203  12.2272
    12.2343  12.2404  12.2421  12.2487  12.2556  12.2779  12.2889  12.2918
    12.2953  12.3008  12.3119  12.3165  12.3208  12.3297  12.3395  12.3449
    12.3517  12.3656  12.3847  12.4253  12.4496  12.4566  12.5004  12.5856
    12.6476  12.6642  12.7404  12.8305  13.3379  13.8868  14.8037  15.4428
    15.7067  15.9306  15.9737  15.9892  16.0696  16.2701  16.2975  16.4094
    16.8429  16.8662

     occupation numbers
     1.0000   1.0000   1.0000   1.0000   1.0000   1.0000   1.0000   1.0000
     1.0000   1.0000   1.0000   1.0000   1.0000   1.0000   1.0000   1.0000
     1.0000   1.0000   1.0000   1.0000   1.0000   1.0000   1.0000   1.0000
     1.0000   1.0000   1.0000   1.0000   1.0000   1.0000   1.0000   1.0000
     1.0000   1.0000   1.0000   1.0000   1.0000   1.0000   1.0000   1.0000
     1.0000   1.0000   1.0000   1.0000   1.0000   1.0000   1.0000   1.0000
     1.0000   1.0000   1.0000   1.0000   1.0000   1.0000   1.0000   1.0000
     1.0000   1.0000   1.0000   1.0000   1.0000   1.0000   1.0000   1.0000
     1.0000   1.0000   1.0000   1.0000   1.0000   1.0000   1.0000   0.0000
     0.0000   0.0000   0.0000   0.0000   0.0000   0.0000   0.0000   0.0000
     0.0000   0.0000   0.0000   0.0000   0.0000   0.0000   0.0000   0.0000
     0.0000   0.0000

     highest occupied, lowest unoccupied level (ev):    12.5681   12.5855

!    total energy              =   -4770.38953402 Ry
     estimated scf accuracy    <       0.00000037 Ry

     The total energy is the sum of the following terms:
     one-electron contribution =   -1675.40537627 Ry
     hartree contribution      =     781.51134943 Ry
     xc contribution           =    -213.58784638 Ry
     ewald contribution        =   -1275.92606143 Ry
     one-center paw contrib.   =   -2386.98159937 Ry
      -> PAW hartree energy AE =     900.82926614 Ry
      -> PAW hartree energy PS =    -774.20979838 Ry
      -> PAW xc energy AE      =   -1169.69948734 Ry
      -> PAW xc energy PS      =      74.43219051 Ry
      -> total E_H with PAW    =     908.13081719 Ry
      -> total E_XC with PAW   =   -1308.85514321 Ry

     convergence has been achieved in 141 iterations

     Writing all to output data dir calculations_bands/myprefix.save/

     General routines

     Parallel routines

     PAW routines

   This run was terminated on:   5:13:20  23Jun2023

   JOB DONE.