     Program PWSCF v.7.0 starts on  5Jun2023 at 20:30:27

     K-points division:     npool     =       2
     R & G space division:  proc/nbgrp/npool/nimage =       4

     Reading input from espresso_11435.pwi
Warning: card &CELL ignored
Warning: card / ignored

     Current dimensions of program PWSCF are:
     Max number of different atomic species (ntypx) = 10
     Max number of k-points (npk) =  40000
     Max angular momentum in pseudopotentials (lmaxx) =  4
     file C.pbe-n-kjpaw_psl.1.0.0.UPF: wavefunction(s)  2S 2P renormalized
     Message from routine setup:
     using ibrav=0 with symmetry is DISCOURAGED, use correct ibrav instead

     Using Slab Decomposition

     bravais-lattice index     =            0
     lattice parameter (alat)  =      10.9558  a.u.
     unit-cell volume          =    1060.0596 (a.u.)^3
     number of atoms/cell      =           10
     number of atomic types    =            4
     number of electrons       =       116.00
     number of Kohn-Sham states=           64
     kinetic-energy cutoff     =      30.0000  Ry
     charge density cutoff     =     240.0000  Ry
     scf convergence threshold =      1.0E-06
     mixing beta               =       0.7000
     number of iterations used =            8  plain     mixing
     Exchange-correlation= SLA  PW   PBX  PBC
                           (   1   4   3   4   0   0   0)

     celldm(1)=  10.955766  celldm(2)=   0.000000  celldm(3)=   0.000000
     celldm(4)=   0.000000  celldm(5)=   0.000000  celldm(6)=   0.000000

     crystal axes: (cart. coord. in units of alat)
               a(1) = (   1.000000   0.000000   0.000000 )
               a(2) = (  -0.768389   0.639983   0.000000 )
               a(3) = (   0.000000   0.000000   1.259603 )

     reciprocal axes: (cart. coord. in units 2 pi/alat)
               b(1) = (  1.000000  1.200641  0.000000 )
               b(2) = (  0.000000  1.562542  0.000000 )
               b(3) = (  0.000000  0.000000  0.793901 )

     PseudoPot. # 1 for Dy read from file:
     /home/pragov/projects/rrg-bengioy-ad/pragov/crystal_structure_design/SSSP/Dy.GGA-PBE-paw-v1.0.UPF
     MD5 check sum: 733414aae3e3693a823ce0c917a68f08
     Pseudo is Projector augmented-wave + core cor, Zval = 20.0
     Generated using ATOMPAW code
     Shape of augmentation charge: BESSEL
     Using radial grid of 1112 points,  8 beta functions with:
                l(1) =   0
                l(2) =   0
                l(3) =   1
                l(4) =   1
                l(5) =   2
                l(6) =   2
                l(7) =   3
                l(8) =   3
     Q(r) pseudized with 0 coefficients

     PseudoPot. # 2 for Re read from file:
     /home/pragov/projects/rrg-bengioy-ad/pragov/crystal_structure_design/SSSP/Re_pbe_v1.2.uspp.F.UPF
     MD5 check sum: 85f993410f3e006da9d71c142b4ad953
     Pseudo is Ultrasoft + core correction, Zval = 15.0
     Generated by new atomic code, or converted to UPF format
     Using radial grid of  981 points,  8 beta functions with:
                l(1) =   0
                l(2) =   0
                l(3) =   1
                l(4) =   1
                l(5) =   2
                l(6) =   2
                l(7) =   3
                l(8) =   3
     Q(r) pseudized with  8 coefficients,  rinner =    1.150   1.150   1.150
                                                       1.150   1.150   1.150
                                                       1.150

     PseudoPot. # 3 for Si read from file:
     /home/pragov/projects/rrg-bengioy-ad/pragov/crystal_structure_design/SSSP/Si.pbe-n-rrkjus_psl.1.0.0.UPF
     MD5 check sum: 0b0bb1205258b0d07b9f9672cf965d36
     Pseudo is Ultrasoft + core correction, Zval =  4.0
     Generated using "atomic" code by A. Dal Corso  v.5.1
     Using radial grid of 1141 points,  6 beta functions with:
                l(1) =   0
                l(2) =   0
                l(3) =   1
                l(4) =   1
                l(5) =   2
                l(6) =   2
     Q(r) pseudized with 0 coefficients

     PseudoPot. # 4 for C  read from file:
     /home/pragov/projects/rrg-bengioy-ad/pragov/crystal_structure_design/SSSP/C.pbe-n-kjpaw_psl.1.0.0.UPF
     MD5 check sum: 5d2aebdfa2cae82b50a7e79e9516da0f
     Pseudo is Projector augmented-wave + core cor, Zval =  4.0
     Generated using "atomic" code by A. Dal Corso  v.5.1
     Shape of augmentation charge: PSQ
     Using radial grid of 1073 points,  4 beta functions with:
                l(1) =   0
                l(2) =   0
                l(3) =   1
                l(4) =   1
     Q(r) pseudized with 0 coefficients

     atomic species   valence    mass     pseudopotential
        Dy            20.00   162.50000     Dy( 1.00)
        Re            15.00   186.20700     Re( 1.00)
        Si             4.00    28.08500     Si( 1.00)
        C              4.00    12.01100     C ( 1.00)

      4 Sym. Ops., with inversion, found ( 2 have fractional translation)

                                    s                        frac. trans.

      isym =  1     identity

 cryst.   s( 1) = (     1          0          0      )
                  (     0          1          0      )
                  (     0          0          1      )

 cart.    s( 1) = (  1.0000000  0.0000000  0.0000000 )
                  (  0.0000000  1.0000000  0.0000000 )
                  (  0.0000000  0.0000000  1.0000000 )

      isym =  2     180 deg rotation - cart. axis [0,0,1]

 cryst.   s( 2) = (    -1          0          0      )    f =( -0.0000000 )
                  (     0         -1          0      )       ( -0.0000000 )
                  (     0          0          1      )       ( -0.5000000 )

 cart.    s( 2) = ( -1.0000000 -0.0000000  0.0000000 )    f =(  0.0000000 )
                  (  0.0000000 -1.0000000  0.0000000 )       ( -0.0000000 )
                  (  0.0000000  0.0000000  1.0000000 )       ( -0.6298017 )

      isym =  3     inversion

 cryst.   s( 3) = (    -1          0          0      )
                  (     0         -1          0      )
                  (     0          0         -1      )

 cart.    s( 3) = ( -1.0000000 -0.0000000  0.0000000 )
                  (  0.0000000 -1.0000000  0.0000000 )
                  (  0.0000000  0.0000000 -1.0000000 )

      isym =  4     inv. 180 deg rotation - cart. axis [0,0,1]

 cryst.   s( 4) = (     1          0          0      )    f =(  0.0000000 )
                  (     0          1          0      )       (  0.0000000 )
                  (     0          0         -1      )       (  0.5000000 )

 cart.    s( 4) = (  1.0000000  0.0000000  0.0000000 )    f =(  0.0000000 )
                  (  0.0000000  1.0000000  0.0000000 )       (  0.0000000 )
                  (  0.0000000  0.0000000 -1.0000000 )       (  0.6298017 )

   Cartesian axes

     site n.     atom                  positions (alat units)
         1           Dy  tau(   1) = (   0.1930680   0.2920298   0.3149008  )
         2           Dy  tau(   2) = (   0.0385426   0.3479528   0.9447025  )
         3           Re  tau(   3) = (   0.6926469   0.1112315   0.0766204  )
         4           Re  tau(   4) = (  -0.4610362   0.5287511   1.1829829  )
         5           Re  tau(   5) = (  -0.4610362   0.5287511   0.7064221  )
         6           Re  tau(   6) = (   0.6926469   0.1112315   0.5531812  )
         7           Si  tau(   7) = (  -0.2990783   0.4701383   0.3149008  )
         8           Si  tau(   8) = (   0.5306889   0.1698444   0.9447025  )
         9           C   tau(   9) = (   0.0000000   0.0000000   0.0000000  )
        10           C   tau(  10) = (   0.0000000   0.0000000   0.6298017  )

   Crystallographic axes

     site n.     atom                  positions (cryst. coord.)
         1           Dy  tau(   1) = (  0.5436910  0.4563090  0.2500000  )
         2           Dy  tau(   2) = (  0.4563090  0.5436910  0.7500000  )
         3           Re  tau(   3) = (  0.8261960  0.1738040  0.0608290  )
         4           Re  tau(   4) = (  0.1738040  0.8261960  0.9391710  )
         5           Re  tau(   5) = (  0.1738040  0.8261960  0.5608290  )
         6           Re  tau(   6) = (  0.8261960  0.1738040  0.4391710  )
         7           Si  tau(   7) = (  0.2653890  0.7346110  0.2500000  )
         8           Si  tau(   8) = (  0.7346110  0.2653890  0.7500000  )
         9           C   tau(   9) = (  0.0000000  0.0000000  0.0000000  )
        10           C   tau(  10) = (  0.0000000  0.0000000  0.5000000  )

     number of k points=    10
                       cart. coord. in units 2pi/alat
        k(    1) = (   0.0000000   0.0000000   0.0000000), wk =   0.0740741
        k(    2) = (   0.0000000   0.0000000   0.2646336), wk =   0.1481481
        k(    3) = (   0.0000000   0.5208475   0.0000000), wk =   0.1481481
        k(    4) = (   0.0000000   0.5208475   0.2646336), wk =   0.2962963
        k(    5) = (   0.3333333   0.4002136   0.0000000), wk =   0.1481481
        k(    6) = (   0.3333333   0.4002136   0.2646336), wk =   0.2962963
        k(    7) = (   0.3333333   0.9210611   0.0000000), wk =   0.1481481
        k(    8) = (   0.3333333   0.9210611   0.2646336), wk =   0.2962963
        k(    9) = (   0.3333333  -0.1206338   0.0000000), wk =   0.1481481
        k(   10) = (   0.3333333  -0.1206338   0.2646336), wk =   0.2962963

                       cryst. coord.
        k(    1) = (   0.0000000   0.0000000   0.0000000), wk =   0.0740741
        k(    2) = (   0.0000000   0.0000000   0.3333333), wk =   0.1481481
        k(    3) = (   0.0000000   0.3333333   0.0000000), wk =   0.1481481
        k(    4) = (   0.0000000   0.3333333   0.3333333), wk =   0.2962963
        k(    5) = (   0.3333333  -0.0000000   0.0000000), wk =   0.1481481
        k(    6) = (   0.3333333  -0.0000000   0.3333333), wk =   0.2962963
        k(    7) = (   0.3333333   0.3333333   0.0000000), wk =   0.1481481
        k(    8) = (   0.3333333   0.3333333   0.3333333), wk =   0.2962963
        k(    9) = (   0.3333333  -0.3333333   0.0000000), wk =   0.1481481
        k(   10) = (   0.3333333  -0.3333333   0.3333333), wk =   0.2962963

     Check: negative core charge=   -0.000006

     Initial potential from superposition of free atoms

     starting charge     113.9910, renormalised to     116.0000

     negative rho (up, down):  5.236E-01 0.000E+00
     Starting wfcs are  132 randomized atomic wfcs
     Checking if some PAW data can be deallocated...

     Self-consistent Calculation

     iteration #  1     ecut=    30.00 Ry     beta= 0.70
     Davidson diagonalization with overlap

     ethr =  1.00E-02,  avg # of iterations =  2.0

     negative rho (up, down):  4.695E-01 0.000E+00

     total energy              =   -2342.30948814 Ry
     estimated scf accuracy    <      31.80223941 Ry

[...]

     c_bands:  2 eigenvalues not converged
     ethr =  1.00E-02,  avg # of iterations = 13.4

[...]

     c_bands:  5 eigenvalues not converged
     ethr =  3.59E-05,  avg # of iterations = 16.3

[...]

     total energy              =   -2376.58111691 Ry
     estimated scf accuracy    <       0.00000192 Ry

     iteration # 55     ecut=    30.00 Ry     beta= 0.70
     Davidson diagonalization with overlap

     ethr =  1.20E-09,  avg # of iterations =  1.1

     negative rho (up, down):  5.173E-01 0.000E+00

     End of self-consistent calculation

          k = 0.0000 0.0000 0.0000 (  2971 PWs)   bands (ev):

   -63.2843 -63.2658 -63.2407 -63.2223 -28.0208 -28.0115 -25.3661 -25.3208
   -25.3161 -25.2778 -25.2418 -25.2361 -25.1472 -25.0710 -24.9491 -24.9400
   -24.9128 -24.8939  -4.3962  -4.2496  -4.2399  -4.1318  -4.1182  -4.0923
     5.1109   6.4884   7.3757   7.9141  10.9713  11.3785  11.8079  11.8266
    11.8637  12.2038  12.2275  12.7226  12.9957  13.3368  13.7850  13.9641
    14.1413  14.2565  14.4258  15.0869  15.3024  16.0865  16.1389  16.1951
    16.6198  16.6893  16.7230  16.7581  16.7644  16.7708  16.7785  16.8095
    16.8096  16.8156  16.8552  16.9033  16.9805  17.0492  17.2509  17.7888

     occupation numbers
     1.0000   1.0000   1.0000   1.0000   1.0000   1.0000   1.0000   1.0000
     1.0000   1.0000   1.0000   1.0000   1.0000   1.0000   1.0000   1.0000
     1.0000   1.0000   1.0000   1.0000   1.0000   1.0000   1.0000   1.0000
     1.0000   1.0000   1.0000   1.0000   1.0000   1.0000   1.0000   1.0000
     1.0000   1.0000   1.0000   1.0000   1.0000   1.0000   1.0000   1.0000
     1.0000   1.0000   1.0000   1.0000   1.0000   1.0000   1.0000   1.0000
     1.0000   1.0000   1.0000   1.0000   1.0000   1.0000   1.0000   1.0000
     1.0000   1.0000   0.0000   0.0000   0.0000   0.0000   0.0000   0.0000

[...]

          k = 0.3333-0.1206 0.2646 (  2941 PWs)   bands (ev):

   -63.2808 -63.2722 -63.2343 -63.2257 -28.0190 -28.0138 -25.3534 -25.3317
   -25.3004 -25.2703 -25.2635 -25.2524 -25.1226 -25.0863 -24.9384 -24.9279
   -24.9203 -24.9046  -4.3402  -4.2693  -4.2450  -4.1706  -4.1212  -4.1024
     5.8351   6.3188   7.1205   7.7124  10.5483  11.1934  11.5858  11.7025
    12.1706  12.4103  12.5777  12.6550  12.9237  13.1878  13.2708  13.6583
    14.0447  14.4993  14.7481  14.9622  15.5644  15.9611  16.0983  16.3501
    16.5942  16.6244  16.7319  16.7420  16.7572  16.7658  16.7948  16.8091
    16.8341  16.8550  16.8779  16.8947  16.9097  16.9962  17.0723  17.3360

     occupation numbers
     1.0000   1.0000   1.0000   1.0000   1.0000   1.0000   1.0000   1.0000
     1.0000   1.0000   1.0000   1.0000   1.0000   1.0000   1.0000   1.0000
     1.0000   1.0000   1.0000   1.0000   1.0000   1.0000   1.0000   1.0000
     1.0000   1.0000   1.0000   1.0000   1.0000   1.0000   1.0000   1.0000
     1.0000   1.0000   1.0000   1.0000   1.0000   1.0000   1.0000   1.0000
     1.0000   1.0000   1.0000   1.0000   1.0000   1.0000   1.0000   1.0000
     1.0000   1.0000   1.0000   1.0000   1.0000   1.0000   1.0000   1.0000
     1.0000   1.0000   0.0000   0.0000   0.0000   0.0000   0.0000   0.0000

     highest occupied, lowest unoccupied level (ev):    16.8574   16.8414

!    total energy              =   -2376.58111678 Ry
     estimated scf accuracy    <       0.00000026 Ry

     The total energy is the sum of the following terms:
     one-electron contribution =    -444.23072265 Ry
     hartree contribution      =     286.37067864 Ry
     xc contribution           =    -287.59145193 Ry
     ewald contribution        =    -958.12029252 Ry
     one-center paw contrib.   =    -973.00932833 Ry
      -> PAW hartree energy AE =     513.44970090 Ry
      -> PAW hartree energy PS =    -477.29133414 Ry
      -> PAW xc energy AE      =   -1050.06919301 Ry
      -> PAW xc energy PS      =      53.25232416 Ry
      -> total E_H with PAW    =     322.52904541 Ry
      -> total E_XC with PAW   =   -1284.40832078 Ry

     convergence has been achieved in  55 iterations

     Writing all to output data dir calculations_bands/myprefix.save/

     General routines

     Parallel routines

     PAW routines

   This run was terminated on:  20:31:57   5Jun2023

   JOB DONE.