     Program PWSCF v.7.0 starts on  4Jun2023 at 22:24:51

     K-points division:     npool     =       2
     R & G space division:  proc/nbgrp/npool/nimage =       4

     Reading input from espresso_9197.pwi
Warning: card &CELL ignored
Warning: card / ignored

     Current dimensions of program PWSCF are:
     Max number of different atomic species (ntypx) = 10
     Max number of k-points (npk) =  40000
     Max angular momentum in pseudopotentials (lmaxx) =  4
     Message from routine setup:
     using ibrav=0 with symmetry is DISCOURAGED, use correct ibrav instead

     Using Slab Decomposition

     bravais-lattice index     =            0
     lattice parameter (alat)  =       7.4199  a.u.
     unit-cell volume          =     819.0420 (a.u.)^3
     number of atoms/cell      =            8
     number of atomic types    =            3
     number of electrons       =       128.00
     number of Kohn-Sham states=           64
     kinetic-energy cutoff     =      30.0000  Ry
     charge density cutoff     =     240.0000  Ry
     scf convergence threshold =      1.0E-06
     mixing beta               =       0.7000
     number of iterations used =            8  plain     mixing
     Exchange-correlation= PBE
                           (   1   4   3   4   0   0   0)

     celldm(1)=   7.419894  celldm(2)=   0.000000  celldm(3)=   0.000000
     celldm(4)=   0.000000  celldm(5)=   0.000000  celldm(6)=   0.000000

     crystal axes: (cart. coord. in units of alat)
               a(1) = (   1.000000   0.000000   0.000000 )
               a(2) = (   0.000000   1.027365   0.000000 )
               a(3) = (   0.000000   0.000000   1.951589 )

     reciprocal axes: (cart. coord. in units 2 pi/alat)
               b(1) = (  1.000000  0.000000  0.000000 )
               b(2) = (  0.000000  0.973364  0.000000 )
               b(3) = (  0.000000  0.000000  0.512403 )

     PseudoPot. # 1 for Ta read from file:
     /home/pragov/projects/rrg-bengioy-ad/pragov/crystal_structure_design/SSSP/Ta_pbe_v1.uspp.F.UPF
     MD5 check sum: f8bbe9446314a3b8ea5d9f3e3836c939
     Pseudo is Ultrasoft + core correction, Zval = 13.0
     Generated by new atomic code, or converted to UPF format
     Using radial grid of  921 points,  7 beta functions with:
                l(1) =   0
                l(2) =   0
                l(3) =   1
                l(4) =   1
                l(5) =   2
                l(6) =   2
                l(7) =   3
     Q(r) pseudized with  6 coefficients,  rinner =    1.300   1.300   1.300
                                                       1.300   1.300   1.300
                                                       1.300

     PseudoPot. # 2 for Pd read from file:
     /home/pragov/projects/rrg-bengioy-ad/pragov/crystal_structure_design/SSSP/Pd_ONCV_PBE-1.0.oncvpsp.upf
     MD5 check sum: eb77f42b51d86fb18e25f68156a31cf1
     Pseudo is Norm-conserving, Zval = 18.0
     Generated using ONCVPSP code by D. R. Hamann
     Using radial grid of 1410 points,  6 beta functions with:
                l(1) =   0
                l(2) =   0
                l(3) =   1
                l(4) =   1
                l(5) =   2
                l(6) =   2

     PseudoPot. # 3 for Ru read from file:
     /home/pragov/projects/rrg-bengioy-ad/pragov/crystal_structure_design/SSSP/Ru_ONCV_PBE-1.0.oncvpsp.upf
     MD5 check sum: be037bb81c227cfb9b1461a9f099f4bd
     Pseudo is Norm-conserving, Zval = 16.0
     Generated using ONCVPSP code by D. R. Hamann
     Using radial grid of 1458 points,  6 beta functions with:
                l(1) =   0
                l(2) =   0
                l(3) =   1
                l(4) =   1
                l(5) =   2
                l(6) =   2

     atomic species   valence    mass     pseudopotential
        Ta            13.00   180.94788     Ta( 1.00)
        Pd            18.00   106.42000     Pd( 1.00)
        Ru            16.00   101.07000     Ru( 1.00)

      8 Sym. Ops., with inversion, found

                                    s                        frac. trans.

      isym =  1     identity

 cryst.   s( 1) = (     1          0          0      )
                  (     0          1          0      )
                  (     0          0          1      )

 cart.    s( 1) = (  1.0000000  0.0000000  0.0000000 )
                  (  0.0000000  1.0000000  0.0000000 )
                  (  0.0000000  0.0000000  1.0000000 )

      isym =  2     180 deg rotation - cart. axis [0,0,1]

[...]

      isym =  4     180 deg rotation - cart. axis [1,0,0]

[...]

      isym =  5     inversion

[...]

      isym =  6     inv. 180 deg rotation - cart. axis [0,0,1]

[...]

      isym =  8     inv. 180 deg rotation - cart. axis [1,0,0]

 cryst.   s( 8) = (    -1          0          0      )
                  (     0          1          0      )
                  (     0          0          1      )

 cart.    s( 8) = ( -1.0000000  0.0000000  0.0000000 )
                  (  0.0000000  1.0000000  0.0000000 )
                  (  0.0000000  0.0000000  1.0000000 )

   Cartesian axes

     site n.     atom                  positions (alat units)
         1           Ta  tau(   1) = (   0.0000000   0.0000000   0.4762384  )
         2           Ta  tau(   2) = (   0.0000000   0.0000000   1.4753505  )
         3           Pd  tau(   3) = (   0.5000000   0.5136824   0.4868395  )
         4           Pd  tau(   4) = (   0.5000000   0.5136824   1.4647495  )
         5           Pd  tau(   5) = (   0.0000000   0.5136824   0.9757945  )
         6           Ru  tau(   6) = (   0.0000000   0.5136824   0.0000000  )
         7           Ru  tau(   7) = (   0.5000000   0.0000000   0.9757945  )
         8           Ru  tau(   8) = (   0.5000000   0.0000000   0.0000000  )

   Crystallographic axes

     site n.     atom                  positions (cryst. coord.)
         1           Ta  tau(   1) = (  0.0000000  0.0000000  0.2440260  )
         2           Ta  tau(   2) = (  0.0000000  0.0000000  0.7559740  )
         3           Pd  tau(   3) = (  0.5000000  0.5000000  0.2494580  )
         4           Pd  tau(   4) = (  0.5000000  0.5000000  0.7505420  )
         5           Pd  tau(   5) = (  0.0000000  0.5000000  0.5000000  )
         6           Ru  tau(   6) = (  0.0000000  0.5000000  0.0000000  )
         7           Ru  tau(   7) = (  0.5000000  0.0000000  0.5000000  )
         8           Ru  tau(   8) = (  0.5000000  0.0000000  0.0000000  )

     number of k points=     8
                       cart. coord. in units 2pi/alat
        k(    1) = (   0.0000000   0.0000000   0.0000000), wk =   0.0740741
        k(    2) = (   0.0000000   0.0000000   0.1708010), wk =   0.1481481
        k(    3) = (   0.0000000   0.3244547   0.0000000), wk =   0.1481481
        k(    4) = (   0.0000000   0.3244547   0.1708010), wk =   0.2962963
        k(    5) = (   0.3333333   0.0000000   0.0000000), wk =   0.1481481
        k(    6) = (   0.3333333   0.0000000   0.1708010), wk =   0.2962963
        k(    7) = (   0.3333333   0.3244547   0.0000000), wk =   0.2962963
        k(    8) = (   0.3333333   0.3244547   0.1708010), wk =   0.5925926

                       cryst. coord.
        k(    1) = (   0.0000000   0.0000000   0.0000000), wk =   0.0740741
        k(    2) = (   0.0000000   0.0000000   0.3333333), wk =   0.1481481
        k(    3) = (   0.0000000   0.3333333   0.0000000), wk =   0.1481481
        k(    4) = (   0.0000000   0.3333333   0.3333333), wk =   0.2962963
        k(    5) = (   0.3333333   0.0000000   0.0000000), wk =   0.1481481
        k(    6) = (   0.3333333   0.0000000   0.3333333), wk =   0.2962963
        k(    7) = (   0.3333333   0.3333333   0.0000000), wk =   0.2962963
        k(    8) = (   0.3333333   0.3333333   0.3333333), wk =   0.5925926

     Check: negative core charge=   -0.000003

     Initial potential from superposition of free atoms

     starting charge     127.9951, renormalised to     128.0000

     negative rho (up, down):  1.844E-01 0.000E+00
     Starting wfcs are   86 randomized atomic wfcs

     Self-consistent Calculation

     iteration #  1     ecut=    30.00 Ry     beta= 0.70
     Davidson diagonalization with overlap

     ethr =  1.00E-02,  avg # of iterations =  2.0

     negative rho (up, down):  1.844E-01 0.000E+00

     total energy              =   -1607.42079701 Ry
     estimated scf accuracy    <       1.58829071 Ry

[...]

     c_bands:  1 eigenvalues not converged
     ethr =  7.58E-08,  avg # of iterations =  9.5

[...]

     c_bands:  1 eigenvalues not converged
     ethr =  7.58E-08,  avg # of iterations = 11.1

[...]

     total energy              =   -1608.53867427 Ry
     estimated scf accuracy    <       0.00000528 Ry

     iteration # 36     ecut=    30.00 Ry     beta= 0.70
     Davidson diagonalization with overlap

     ethr =  1.60E-09,  avg # of iterations =  5.5

     negative rho (up, down):  1.873E-01 0.000E+00

     End of self-consistent calculation

          k = 0.0000 0.0000 0.0000 (  2305 PWs)   bands (ev):

   -64.8673 -64.8662 -64.7176 -51.2768 -51.2016 -51.1259 -47.1443 -47.1430
   -30.3023 -30.2831 -30.2826 -30.2825 -30.2640 -30.2144 -30.1304 -30.1227
   -30.0125 -21.4006 -21.3792 -21.2489 -21.1638 -21.1127 -21.0939 -21.0833
   -21.0771 -21.0497 -13.6148 -13.5998 -13.5800 -13.5745 -13.5568 -13.5040
    13.1847  15.1836  15.3917  15.4009  15.4858  15.7217  15.7730  15.7817
    16.1698  16.4526  16.8453  16.9290  17.2025  17.3774  17.4525  17.6715
    17.8653  18.6742  18.7181  18.7402  18.8887  19.2154  20.1020  20.2299
    20.3174  20.4326  20.7481  21.0924  21.4955  21.6453  21.7288  21.9474

     occupation numbers
     1.0000   1.0000   1.0000   1.0000   1.0000   1.0000   1.0000   1.0000
     1.0000   1.0000   1.0000   1.0000   1.0000   1.0000   1.0000   1.0000
     1.0000   1.0000   1.0000   1.0000   1.0000   1.0000   1.0000   1.0000
     1.0000   1.0000   1.0000   1.0000   1.0000   1.0000   1.0000   1.0000
     1.0000   1.0000   1.0000   1.0000   1.0000   1.0000   1.0000   1.0000
     1.0000   1.0000   1.0000   1.0000   1.0000   1.0000   1.0000   1.0000
     1.0000   1.0000   1.0000   1.0000   1.0000   1.0000   1.0000   1.0000
     1.0000   1.0000   1.0000   1.0000   1.0000   1.0000   1.0000   1.0000

[...]

          k = 0.3333 0.3245 0.1708 (  2267 PWs)   bands (ev):

   -64.8664 -64.8661 -64.7183 -51.2587 -51.2188 -51.1255 -47.1437 -47.1434
   -30.3231 -30.2903 -30.2820 -30.2814 -30.2322 -30.2190 -30.1374 -30.1229
   -30.0026 -21.4287 -21.3304 -21.2258 -21.1910 -21.1397 -21.1136 -21.0970
   -21.0873 -21.0277 -13.6255 -13.6174 -13.5916 -13.5817 -13.5311 -13.5278
    15.4343  15.4671  15.9843  16.1114  16.2442  16.3723  16.4208  16.7073
    17.1014  17.2694  17.3944  17.6307  17.6741  17.7773  17.9107  18.1984
    18.3349  18.5679  18.6632  18.8182  18.9873  19.1215  19.1719  19.2169
    19.4506  19.4906  19.5880  19.6661  20.0167  20.2061  20.4472  20.6566

     occupation numbers
     1.0000   1.0000   1.0000   1.0000   1.0000   1.0000   1.0000   1.0000
     1.0000   1.0000   1.0000   1.0000   1.0000   1.0000   1.0000   1.0000
     1.0000   1.0000   1.0000   1.0000   1.0000   1.0000   1.0000   1.0000
     1.0000   1.0000   1.0000   1.0000   1.0000   1.0000   1.0000   1.0000
     1.0000   1.0000   1.0000   1.0000   1.0000   1.0000   1.0000   1.0000
     1.0000   1.0000   1.0000   1.0000   1.0000   1.0000   1.0000   1.0000
     1.0000   1.0000   1.0000   1.0000   1.0000   1.0000   1.0000   1.0000
     1.0000   1.0000   1.0000   1.0000   1.0000   1.0000   1.0000   1.0000

     highest occupied level (ev):    22.0405

!    total energy              =   -1608.53867354 Ry
     estimated scf accuracy    <       0.00000089 Ry

     The total energy is the sum of the following terms:
     one-electron contribution =    -390.21147011 Ry
     hartree contribution      =     273.11077957 Ry
     xc contribution           =    -218.17059552 Ry
     ewald contribution        =   -1273.26738748 Ry

     convergence has been achieved in  36 iterations

     Writing all to output data dir calculations_bands/myprefix.save/

     General routines

     Parallel routines

   This run was terminated on:  22:28:11   4Jun2023

   JOB DONE.