     Program PWSCF v.7.0 starts on  5Jun2023 at 22:12:56

     K-points division:     npool     =       2
     R & G space division:  proc/nbgrp/npool/nimage =       4

     Reading input from espresso_12076.pwi
Warning: card &CELL ignored
Warning: card / ignored

     Current dimensions of program PWSCF are:
     Max number of different atomic species (ntypx) = 10
     Max number of k-points (npk) =  40000
     Max angular momentum in pseudopotentials (lmaxx) =  4
     file O.pbe-n-kjpaw_psl.0.1.UPF: wavefunction(s)  2P renormalized
     Message from routine setup:
     using ibrav=0 with symmetry is DISCOURAGED, use correct ibrav instead

     Using Slab Decomposition

     bravais-lattice index     =            0
     lattice parameter (alat)  =      10.9857  a.u.
     unit-cell volume          =     935.5505 (a.u.)^3
     number of atoms/cell      =           16
     number of atomic types    =            3
     number of electrons       =       128.00
     number of Kohn-Sham states=           64
     kinetic-energy cutoff     =      30.0000  Ry
     charge density cutoff     =     240.0000  Ry
     scf convergence threshold =      1.0E-06
     mixing beta               =       0.7000
     number of iterations used =            8  plain     mixing
     Exchange-correlation= SLA  PW   PBX  PBC
                           (   1   4   3   4   0   0   0)

     celldm(1)=  10.985686  celldm(2)=   0.000000  celldm(3)=   0.000000
     celldm(4)=   0.000000  celldm(5)=   0.000000  celldm(6)=   0.000000

     crystal axes: (cart. coord. in units of alat)
               a(1) = (   1.000000   0.000000   0.000000 )
               a(2) = (   0.004095   0.999992   0.000000 )
               a(3) = (  -0.499746  -0.502307   0.705650 )

     reciprocal axes: (cart. coord. in units 2 pi/alat)
               b(1) = (  1.000000 -0.004095  0.705291 )
               b(2) = (  0.000000  1.000008  0.711842 )
               b(3) = (  0.000000  0.000000  1.417133 )

     PseudoPot. # 1 for Li read from file:
     /home/pragov/projects/rrg-bengioy-ad/pragov/crystal_structure_design/SSSP/li_pbe_v1.4.uspp.F.UPF
     MD5 check sum: e912e257baa3777c20ea3d68f190483c
     Pseudo is Ultrasoft, Zval =  3.0
     Generated by new atomic code, or converted to UPF format
     Using radial grid of  751 points,  5 beta functions with:
                l(1) =   0
                l(2) =   0
                l(3) =   0
                l(4) =   1
                l(5) =   1
     Q(r) pseudized with 10 coefficients,  rinner =    1.150   1.150   1.150

     PseudoPot. # 2 for Co read from file:
     /home/pragov/projects/rrg-bengioy-ad/pragov/crystal_structure_design/SSSP/Co_pbe_v1.2.uspp.F.UPF
     MD5 check sum: 5f91765df6ddd3222702df6e7b74a16d
     Pseudo is Ultrasoft + core correction, Zval = 17.0
     Generated by new atomic code, or converted to UPF format
     Using radial grid of  863 points,  6 beta functions with:
                l(1) =   0
                l(2) =   0
                l(3) =   1
                l(4) =   1
                l(5) =   2
                l(6) =   2
     Q(r) pseudized with  8 coefficients,  rinner =    1.200   1.200   1.200
                                                       1.200   1.200

     PseudoPot. # 3 for O  read from file:
     /home/pragov/projects/rrg-bengioy-ad/pragov/crystal_structure_design/SSSP/O.pbe-n-kjpaw_psl.0.1.UPF
     MD5 check sum: 0234752ac141de4415c5fc33072bef88
     Pseudo is Projector augmented-wave + core cor, Zval =  6.0
     Generated using "atomic" code by A. Dal Corso  v.5.0.99 svn rev. 10869
     Shape of augmentation charge: BESSEL
     Using radial grid of 1095 points,  4 beta functions with:
                l(1) =   0
                l(2) =   0
                l(3) =   1
                l(4) =   1
     Q(r) pseudized with 0 coefficients

     atomic species   valence    mass     pseudopotential
        Li             3.00     6.94000     Li( 1.00)
        Co            17.00    58.93319     Co( 1.00)
        O              6.00    15.99900     O ( 1.00)

      2 Sym. Ops., with inversion, found

                                    s                        frac. trans.

      isym =  1     identity

 cryst.   s( 1) = (     1          0          0      )
                  (     0          1          0      )
                  (     0          0          1      )

 cart.    s( 1) = (  1.0000000  0.0000000 -0.0000000 )
                  (  0.0000000  1.0000000 -0.0000000 )
                  (  0.0000000  0.0000000  1.0000000 )

      isym =  2     inversion

 cryst.   s( 2) = (    -1          0          0      )
                  (     0         -1          0      )
                  (     0          0         -1      )

 cart.    s( 2) = ( -1.0000000 -0.0000000  0.0000000 )
                  (  0.0000000 -1.0000000  0.0000000 )
                  (  0.0000000  0.0000000 -1.0000000 )

   Cartesian axes

     site n.     atom                  positions (alat units)
         1           Li  tau(   1) = (  -0.2498728  -0.2511536   0.3528250  )
         2           Li  tau(   2) = (   0.0020475   0.4999958   0.0000000  )
         3           Li  tau(   3) = (   0.0000000   0.0000000   0.0000000  )
         4           Li  tau(   4) = (   0.2501272  -0.2511536   0.3528250  )
         5           Co  tau(   5) = (   0.5000000   0.0000000   0.0000000  )
         6           Co  tau(   6) = (  -0.2478252   0.2488422   0.3528250  )
         7           Co  tau(   7) = (   0.5020475   0.4999958   0.0000000  )
         8           Co  tau(   8) = (   0.2521748   0.2488422   0.3528250  )
         9           O   tau(   9) = (   0.2386360   0.2558114   0.6896013  )
        10           O   tau(  10) = (  -0.2284548   0.2541052   0.6973028  )
        11           O   tau(  11) = (   0.0112633   0.4841171   0.3688736  )
        12           O   tau(  12) = (   0.0076444   0.0170373   0.3611721  )
        13           O   tau(  13) = (   0.4967052   0.4806471   0.3444778  )
        14           O   tau(  14) = (   0.4930862   0.0135672   0.3367764  )
        15           O   tau(  15) = (   0.7328043   0.2435791   0.0083471  )
        16           O   tau(  16) = (   0.2657136   0.2418729   0.0160486  )

   Crystallographic axes

     site n.     atom                  positions (cryst. coord.)
         1           Li  tau(   1) = (  0.0000000  0.0000000  0.5000000  )
         2           Li  tau(   2) = (  0.0000000  0.5000000  0.0000000  )
         3           Li  tau(   3) = (  0.0000000  0.0000000  0.0000000  )
         4           Li  tau(   4) = (  0.5000000  0.0000000  0.5000000  )
         5           Co  tau(   5) = (  0.5000000  0.0000000  0.0000000  )
         6           Co  tau(   6) = (  0.0000000  0.5000000  0.5000000  )
         7           Co  tau(   7) = (  0.5000000  0.5000000  0.0000000  )
         8           Co  tau(   8) = (  0.5000000  0.5000000  0.5000000  )
         9           O   tau(   9) = (  0.7239580  0.7467010  0.9772570  )
        10           O   tau(  10) = (  0.2623060  0.7504770  0.9881710  )
        11           O   tau(  11) = (  0.2694440  0.7467010  0.5227430  )
        12           O   tau(  12) = (  0.2623060  0.2741350  0.5118290  )
        13           O   tau(  13) = (  0.7376940  0.7258650  0.4881710  )
        14           O   tau(  14) = (  0.7305560  0.2532990  0.4772570  )
        15           O   tau(  15) = (  0.7376940  0.2495230  0.0118290  )
        16           O   tau(  16) = (  0.2760420  0.2532990  0.0227430  )

     number of k points=    14
                       cart. coord. in units 2pi/alat
        k(    1) = (   0.0000000   0.0000000   0.0000000), wk =   0.0740741
        k(    2) = (   0.0000000   0.0000000   0.4723778), wk =   0.1481481
        k(    3) = (   0.0000000   0.3333361   0.2372808), wk =   0.1481481
        k(    4) = (   0.0000000   0.3333361   0.7096585), wk =   0.1481481
        k(    5) = (   0.0000000   0.3333361  -0.2350970), wk =   0.1481481
        k(    6) = (   0.3333333  -0.0013650   0.2350970), wk =   0.1481481
        k(    7) = (   0.3333333  -0.0013650   0.7074748), wk =   0.1481481
        k(    8) = (   0.3333333  -0.0013650  -0.2372808), wk =   0.1481481
        k(    9) = (   0.3333333   0.3319711   0.4723778), wk =   0.1481481
        k(   10) = (   0.3333333   0.3319711   0.9447555), wk =   0.1481481
        k(   11) = (   0.3333333   0.3319711   0.0000000), wk =   0.1481481
        k(   12) = (   0.3333333  -0.3347012  -0.0021838), wk =   0.1481481
        k(   13) = (   0.3333333  -0.3347012   0.4701940), wk =   0.1481481
        k(   14) = (   0.3333333  -0.3347012  -0.4745616), wk =   0.1481481

                       cryst. coord.
        k(    1) = (   0.0000000   0.0000000   0.0000000), wk =   0.0740741
        k(    2) = (   0.0000000   0.0000000   0.3333333), wk =   0.1481481
        k(    3) = (   0.0000000   0.3333333  -0.0000000), wk =   0.1481481
        k(    4) = (   0.0000000   0.3333333   0.3333333), wk =   0.1481481
        k(    5) = (   0.0000000   0.3333333  -0.3333333), wk =   0.1481481
        k(    6) = (   0.3333333   0.0000000  -0.0000000), wk =   0.1481481
        k(    7) = (   0.3333333   0.0000000   0.3333333), wk =   0.1481481
        k(    8) = (   0.3333333   0.0000000  -0.3333333), wk =   0.1481481
        k(    9) = (   0.3333333   0.3333333  -0.0000000), wk =   0.1481481
        k(   10) = (   0.3333333   0.3333333   0.3333333), wk =   0.1481481
        k(   11) = (   0.3333333   0.3333333  -0.3333333), wk =   0.1481481
        k(   12) = (   0.3333333  -0.3333333   0.0000000), wk =   0.1481481
        k(   13) = (   0.3333333  -0.3333333   0.3333333), wk =   0.1481481
        k(   14) = (   0.3333333  -0.3333333  -0.3333333), wk =   0.1481481

     Check: negative core charge=   -0.000025

     Initial potential from superposition of free atoms

     starting charge     122.1970, renormalised to     128.0000
     Starting wfcs are  104 randomized atomic wfcs
     Checking if some PAW data can be deallocated...

     Self-consistent Calculation

     iteration #  1     ecut=    30.00 Ry     beta= 0.70
     Davidson diagonalization with overlap

     ethr =  1.00E-02,  avg # of iterations =  3.1

     total energy              =   -1525.38589405 Ry
     estimated scf accuracy    <      78.45714193 Ry

[...]

     total energy              =   -1585.10236547 Ry
     estimated scf accuracy    <       0.00000101 Ry

     iteration # 26     ecut=    30.00 Ry     beta= 0.70
     Davidson diagonalization with overlap

     ethr =  7.86E-10,  avg # of iterations =  3.6

     End of self-consistent calculation

          k = 0.0000 0.0000 0.0000 (  2637 PWs)   bands (ev):

   -85.6386 -85.6356 -85.6155 -85.6130 -48.9333 -48.9124 -48.9048 -48.8899
   -48.8751 -48.8684 -48.8563 -48.8425 -48.8411 -48.8401 -48.8337 -48.8277
   -35.2498 -35.2356 -34.9075 -34.8942 -10.0856  -8.8242  -8.6922  -8.6800
    -8.6727  -8.6161  -8.6048  -8.5996   2.8148   2.8832   2.8846   2.8887
     3.6129   3.6213   3.7609   4.7715   4.7887   5.0932   5.1739   5.3307
     5.7542   5.7947   5.8318   6.2209   6.2361   6.2549   6.2626   6.2739
     6.3012   7.5424   7.5743   7.5830   7.8874   7.8999   8.6176   8.6215
     8.6309   8.7400   8.9559   8.9675   8.9813   9.1664   9.2403   9.2928

     occupation numbers
     1.0000   1.0000   1.0000   1.0000   1.0000   1.0000   1.0000   1.0000
     1.0000   1.0000   1.0000   1.0000   1.0000   1.0000   1.0000   1.0000
     1.0000   1.0000   1.0000   1.0000   1.0000   1.0000   1.0000   1.0000
     1.0000   1.0000   1.0000   1.0000   1.0000   1.0000   1.0000   1.0000
     1.0000   1.0000   1.0000   1.0000   1.0000   1.0000   1.0000   1.0000
     1.0000   1.0000   1.0000   1.0000   1.0000   1.0000   1.0000   1.0000
     1.0000   1.0000   1.0000   1.0000   1.0000   1.0000   1.0000   1.0000
     1.0000   1.0000   1.0000   1.0000   1.0000   1.0000   1.0000   1.0000

[...]

          k = 0.3333-0.3347-0.4746 (  2592 PWs)   bands (ev):

   -85.6376 -85.6351 -85.6148 -85.6127 -48.9225 -48.9058 -48.9012 -48.8858
   -48.8682 -48.8665 -48.8546 -48.8427 -48.8375 -48.8362 -48.8316 -48.8245
   -35.2454 -35.2380 -34.9069 -34.8936  -9.5144  -9.3761  -8.9755  -8.7241
    -8.6569  -8.5656  -8.5652  -8.5462   3.5313   3.7536   3.7649   3.9353
     3.9799   4.1120   4.2486   4.3082   4.3786   4.5210   4.8773   4.9382
     4.9946   5.3434   5.4493   5.7011   5.7282   5.7333   5.9816   6.3101
     6.4500   6.6312   6.7989   7.1007   8.4149   8.6410   8.8224   8.9376
     8.9886   9.0005   9.0599   9.1428   9.2910   9.3040   9.3188   9.3974

     occupation numbers
     1.0000   1.0000   1.0000   1.0000   1.0000   1.0000   1.0000   1.0000
     1.0000   1.0000   1.0000   1.0000   1.0000   1.0000   1.0000   1.0000
     1.0000   1.0000   1.0000   1.0000   1.0000   1.0000   1.0000   1.0000
     1.0000   1.0000   1.0000   1.0000   1.0000   1.0000   1.0000   1.0000
     1.0000   1.0000   1.0000   1.0000   1.0000   1.0000   1.0000   1.0000
     1.0000   1.0000   1.0000   1.0000   1.0000   1.0000   1.0000   1.0000
     1.0000   1.0000   1.0000   1.0000   1.0000   1.0000   1.0000   1.0000
     1.0000   1.0000   1.0000   1.0000   1.0000   1.0000   1.0000   1.0000

     highest occupied level (ev):     9.4882

!    total energy              =   -1585.10236519 Ry
     estimated scf accuracy    <       0.00000034 Ry

     The total energy is the sum of the following terms:
     one-electron contribution =   -1058.64559430 Ry
     hartree contribution      =     589.18979604 Ry
     xc contribution           =    -203.45246216 Ry
     ewald contribution        =    -836.00185081 Ry
     one-center paw contrib.   =     -76.19225396 Ry
      -> PAW hartree energy AE =       0.00000000 Ry
      -> PAW hartree energy PS =       0.00000000 Ry
      -> PAW xc energy AE      =       0.00000000 Ry
      -> PAW xc energy PS      =       0.00000000 Ry
      -> total E_H with PAW    =     589.18979604 Ry
      -> total E_XC with PAW   =    -203.45246216 Ry

     convergence has been achieved in  26 iterations

     Writing all to output data dir calculations_bands/myprefix.save/

     General routines

     Parallel routines

     PAW routines

   This run was terminated on:  22:13:24   5Jun2023

   JOB DONE.