     Program PWSCF v.7.0 starts on  2Jun2023 at 20:41:25

     Reading input from espresso_71.pwi
Warning: card &CELL ignored
Warning: card / ignored

     Current dimensions of program PWSCF are:
     Max number of different atomic species (ntypx) = 10
     Max number of k-points (npk) =  40000
     Max angular momentum in pseudopotentials (lmaxx) =  4
     Message from routine setup:
     using ibrav=0 with symmetry is DISCOURAGED, use correct ibrav instead

     Subspace diagonalization in iterative solution of the eigenvalue problem:
     a serial algorithm will be used

     Using Slab Decomposition

     bravais-lattice index     =            0
     lattice parameter (alat)  =       7.5391  a.u.
     unit-cell volume          =    1322.2284 (a.u.)^3
     number of atoms/cell      =           12
     number of atomic types    =            3
     number of electrons       =       124.00
     number of Kohn-Sham states=           64
     kinetic-energy cutoff     =      30.0000  Ry
     charge density cutoff     =     240.0000  Ry
     scf convergence threshold =      1.0E-06
     mixing beta               =       0.7000
     number of iterations used =            8  plain     mixing
     Exchange-correlation= SLA  PW   PBE  PBE
                           (   1   4   3   4   0   0   0)

     celldm(1)=   7.539149  celldm(2)=   0.000000  celldm(3)=   0.000000
     celldm(4)=   0.000000  celldm(5)=   0.000000  celldm(6)=   0.000000

     crystal axes: (cart. coord. in units of alat)
               a(1) = (   1.000000   0.000000   0.000000 )
               a(2) = (   0.000000   1.652151   0.000000 )
               a(3) = (   0.000000   0.000000   1.867625 )

     reciprocal axes: (cart. coord. in units 2 pi/alat)
               b(1) = (  1.000000  0.000000  0.000000 )
               b(2) = (  0.000000  0.605271  0.000000 )
               b(3) = (  0.000000  0.000000  0.535439 )

     PseudoPot. # 1 for Zr read from file:
     /home/pragov/projects/rrg-bengioy-ad/pragov/crystal_structure_design/SSSP/Zr_pbe_v1.uspp.F.UPF
     MD5 check sum: 5db81b1e868ab7776c4564c113de050b
     Pseudo is Ultrasoft + core correction, Zval = 12.0
     Generated by new atomic code, or converted to UPF format
     Using radial grid of  887 points,  6 beta functions with:
                l(1) =   0
                l(2) =   0
                l(3) =   1
                l(4) =   1
                l(5) =   2
                l(6) =   2
     Q(r) pseudized with  6 coefficients,  rinner =    1.200   1.200   1.200
                                                       1.200   1.200

     PseudoPot. # 2 for Si read from file:
     /home/pragov/projects/rrg-bengioy-ad/pragov/crystal_structure_design/SSSP/Si.pbe-n-rrkjus_psl.1.0.0.UPF
     MD5 check sum: 0b0bb1205258b0d07b9f9672cf965d36
     Pseudo is Ultrasoft + core correction, Zval =  4.0
     Generated using "atomic" code by A. Dal Corso  v.5.1
     Using radial grid of 1141 points,  6 beta functions with:
                l(1) =   0
                l(2) =   0
                l(3) =   1
                l(4) =   1
                l(5) =   2
                l(6) =   2
     Q(r) pseudized with 0 coefficients

     PseudoPot. # 3 for Ir read from file:
     /home/pragov/projects/rrg-bengioy-ad/pragov/crystal_structure_design/SSSP/Ir_pbe_v1.2.uspp.F.UPF
     MD5 check sum: 8836f839c3459d2b385c504ce6d91f2c
     Pseudo is Ultrasoft + core correction, Zval = 15.0
     Generated by new atomic code, or converted to UPF format
     Using radial grid of  983 points,  7 beta functions with:
                l(1) =   0
                l(2) =   0
                l(3) =   1
                l(4) =   1
                l(5) =   1
                l(6) =   2
                l(7) =   2
     Q(r) pseudized with  8 coefficients,  rinner =    1.400   1.400   1.400
                                                       1.400   1.400

     atomic species   valence    mass     pseudopotential
        Zr            12.00    91.22400     Zr( 1.00)
        Si             4.00    28.08500     Si( 1.00)
        Ir            15.00   192.21700     Ir( 1.00)

      8 Sym. Ops., with inversion, found ( 6 have fractional translation)

                                    s                        frac. trans.

      isym =  1     identity

 cryst.   s( 1) = (     1          0          0      )
                  (     0          1          0      )
                  (     0          0          1      )

 cart.    s( 1) = (  1.0000000  0.0000000  0.0000000 )
                  (  0.0000000  1.0000000  0.0000000 )
                  (  0.0000000  0.0000000  1.0000000 )

      isym =  2     180 deg rotation - cart. axis [0,0,1]

 cryst.   s( 2) = (    -1          0          0      )    f =( -0.0000000 )
                  (     0         -1          0      )       (  0.5000000 )
                  (     0          0          1      )       ( -0.5000000 )

 cart.    s( 2) = ( -1.0000000  0.0000000  0.0000000 )    f =( -0.0000000 )
                  (  0.0000000 -1.0000000  0.0000000 )       (  0.8260756 )
                  (  0.0000000  0.0000000  1.0000000 )       ( -0.9338125 )

[...]

      isym =  4     180 deg rotation - cart. axis [1,0,0]

[...]

      isym =  5     inversion

 cryst.   s( 5) = (    -1          0          0      )
                  (     0         -1          0      )
                  (     0          0         -1      )

 cart.    s( 5) = ( -1.0000000  0.0000000  0.0000000 )
                  (  0.0000000 -1.0000000  0.0000000 )
                  (  0.0000000  0.0000000 -1.0000000 )

      isym =  6     inv. 180 deg rotation - cart. axis [0,0,1]

[...]

      isym =  8     inv. 180 deg rotation - cart. axis [1,0,0]

 cryst.   s( 8) = (    -1          0          0      )    f =(  0.5000000 )
                  (     0          1          0      )       (  0.0000000 )
                  (     0          0          1      )       (  0.0000000 )

 cart.    s( 8) = ( -1.0000000  0.0000000  0.0000000 )    f =(  0.5000000 )
                  (  0.0000000  1.0000000  0.0000000 )       (  0.0000000 )
                  (  0.0000000  0.0000000  1.0000000 )       (  0.0000000 )

   Cartesian axes

     site n.     atom                  positions (alat units)
         1           Zr  tau(   1) = (   0.2500000   0.0307019   0.5937834  )
         2           Zr  tau(   2) = (   0.2500000   0.8567775   0.3400292  )
         3           Zr  tau(   3) = (   0.7500000   1.6214492   1.2738417  )
         4           Zr  tau(   4) = (   0.7500000   0.7953736   1.5275959  )
         5           Si  tau(   5) = (   0.2500000   0.4602943   1.1549505  )
         6           Si  tau(   6) = (   0.2500000   1.2863698   1.6464870  )
         7           Si  tau(   7) = (   0.7500000   1.1918569   0.7126745  )
         8           Si  tau(   8) = (   0.7500000   0.3657813   0.2211380  )
         9           Ir  tau(   9) = (   0.2500000   0.2510857   1.7461416  )
        10           Ir  tau(  10) = (   0.2500000   1.0771612   1.0552959  )
        11           Ir  tau(  11) = (   0.7500000   1.4010655   0.1214834  )
        12           Ir  tau(  12) = (   0.7500000   0.5749899   0.8123291  )

   Crystallographic axes

     site n.     atom                  positions (cryst. coord.)
         1           Zr  tau(   1) = (  0.2500000  0.0185830  0.3179350  )
         2           Zr  tau(   2) = (  0.2500000  0.5185830  0.1820650  )
         3           Zr  tau(   3) = (  0.7500000  0.9814170  0.6820650  )
         4           Zr  tau(   4) = (  0.7500000  0.4814170  0.8179350  )
         5           Si  tau(   5) = (  0.2500000  0.2786030  0.6184060  )
         6           Si  tau(   6) = (  0.2500000  0.7786030  0.8815940  )
         7           Si  tau(   7) = (  0.7500000  0.7213970  0.3815940  )
         8           Si  tau(   8) = (  0.7500000  0.2213970  0.1184060  )
         9           Ir  tau(   9) = (  0.2500000  0.1519750  0.9349530  )
        10           Ir  tau(  10) = (  0.2500000  0.6519750  0.5650470  )
        11           Ir  tau(  11) = (  0.7500000  0.8480250  0.0650470  )
        12           Ir  tau(  12) = (  0.7500000  0.3480250  0.4349530  )

     number of k points=     8
                       cart. coord. in units 2pi/alat
        k(    1) = (   0.0000000   0.0000000   0.0000000), wk =   0.0740741
        k(    2) = (   0.0000000   0.0000000   0.1784798), wk =   0.1481481
        k(    3) = (   0.0000000   0.2017572   0.0000000), wk =   0.1481481
        k(    4) = (   0.0000000   0.2017572   0.1784798), wk =   0.2962963
        k(    5) = (   0.3333333   0.0000000   0.0000000), wk =   0.1481481
        k(    6) = (   0.3333333   0.0000000   0.1784798), wk =   0.2962963
        k(    7) = (   0.3333333   0.2017572   0.0000000), wk =   0.2962963
        k(    8) = (   0.3333333   0.2017572   0.1784798), wk =   0.5925926

                       cryst. coord.
        k(    1) = (   0.0000000   0.0000000   0.0000000), wk =   0.0740741
        k(    2) = (   0.0000000   0.0000000   0.3333333), wk =   0.1481481
        k(    3) = (   0.0000000   0.3333333   0.0000000), wk =   0.1481481
        k(    4) = (   0.0000000   0.3333333   0.3333333), wk =   0.2962963
        k(    5) = (   0.3333333   0.0000000   0.0000000), wk =   0.1481481
        k(    6) = (   0.3333333   0.0000000   0.3333333), wk =   0.2962963
        k(    7) = (   0.3333333   0.3333333   0.0000000), wk =   0.2962963
        k(    8) = (   0.3333333   0.3333333   0.3333333), wk =   0.5925926

     Check: negative core charge=   -0.000002

     Initial potential from superposition of free atoms

     starting charge     121.9890, renormalised to     124.0000

     negative rho (up, down):  1.712E+00 0.000E+00
     Starting wfcs are  116 randomized atomic wfcs

     Self-consistent Calculation

     iteration #  1     ecut=    30.00 Ry     beta= 0.70
     Davidson diagonalization with overlap

     ethr =  1.00E-02,  avg # of iterations =  2.0

     negative rho (up, down):  1.376E+00 0.000E+00

     total energy              =   -1165.35241634 Ry
     estimated scf accuracy    <       8.26835214 Ry

[...]

     total energy              =   -1170.35928976 Ry
     estimated scf accuracy    <       0.00000330 Ry

     iteration # 11     ecut=    30.00 Ry     beta= 0.70
     Davidson diagonalization with overlap

     ethr =  2.07E-09,  avg # of iterations =  4.8

     negative rho (up, down):  1.502E+00 0.000E+00

     End of self-consistent calculation

          k = 0.0000 0.0000 0.0000 (  3661 PWs)   bands (ev):

   -32.2589 -32.2535 -32.2347 -32.2211 -32.1981 -32.1978 -32.1976 -32.1971
   -32.1407 -32.1363 -32.1363 -32.1293 -32.0353 -31.9838 -31.9804 -31.9647
   -10.2503 -10.2078 -10.1678 -10.1571 -10.1333 -10.1046 -10.0466 -10.0146
    -9.9913  -9.9616  -9.9572  -9.9491   5.9492   7.8532   7.9673   8.1351
    10.8773  11.1161  11.5785  11.6429  11.6914  11.8727  11.9493  12.0560
    12.3074  12.4245  12.7113  12.7471  13.5369  13.5869  13.6220  13.6612
    13.9271  13.9377  14.2769  14.6582  14.6767  15.0735  15.2009  15.2268
    15.8860  15.9551  16.1487  16.2140  16.5593  16.8464  17.2377  17.2934

     occupation numbers
     1.0000   1.0000   1.0000   1.0000   1.0000   1.0000   1.0000   1.0000
     1.0000   1.0000   1.0000   1.0000   1.0000   1.0000   1.0000   1.0000
     1.0000   1.0000   1.0000   1.0000   1.0000   1.0000   1.0000   1.0000
     1.0000   1.0000   1.0000   1.0000   1.0000   1.0000   1.0000   1.0000
     1.0000   1.0000   1.0000   1.0000   1.0000   1.0000   1.0000   1.0000
     1.0000   1.0000   1.0000   1.0000   1.0000   1.0000   1.0000   1.0000
     1.0000   1.0000   1.0000   1.0000   1.0000   1.0000   1.0000   1.0000
     1.0000   1.0000   1.0000   1.0000   1.0000   1.0000   0.0000   0.0000

[...]

          k = 0.3333 0.2018 0.1785 (  3662 PWs)   bands (ev):

   -32.2434 -32.2383 -32.2323 -32.2276 -32.2186 -32.2143 -32.2053 -32.2035
   -32.1405 -32.1363 -32.1263 -32.1262 -31.9943 -31.9925 -31.9880 -31.9818
   -10.2062 -10.1977 -10.1818 -10.1801 -10.1514 -10.1438 -10.0570 -10.0411
   -10.0180 -10.0084  -9.9653  -9.9594   7.4520   7.7602   8.1461   8.2473
    10.8263  10.9006  10.9895  11.4101  12.0905  12.2986  12.3818  12.5507
    12.6018  12.7443  12.9151  13.1185  13.2480  13.4377  13.5156  13.6399
    13.8557  13.9616  14.1370  14.3229  14.5010  14.7289  15.0187  15.1781
    15.2908  15.5155  15.8359  15.9516  16.3925  16.7469  16.9498  17.1110

     occupation numbers
     1.0000   1.0000   1.0000   1.0000   1.0000   1.0000   1.0000   1.0000
     1.0000   1.0000   1.0000   1.0000   1.0000   1.0000   1.0000   1.0000
     1.0000   1.0000   1.0000   1.0000   1.0000   1.0000   1.0000   1.0000
     1.0000   1.0000   1.0000   1.0000   1.0000   1.0000   1.0000   1.0000
     1.0000   1.0000   1.0000   1.0000   1.0000   1.0000   1.0000   1.0000
     1.0000   1.0000   1.0000   1.0000   1.0000   1.0000   1.0000   1.0000
     1.0000   1.0000   1.0000   1.0000   1.0000   1.0000   1.0000   1.0000
     1.0000   1.0000   1.0000   1.0000   1.0000   1.0000   0.0000   0.0000

     highest occupied, lowest unoccupied level (ev):    17.0647   16.7308

!    total energy              =   -1170.35929034 Ry
     estimated scf accuracy    <       0.00000031 Ry

     The total energy is the sum of the following terms:
     one-electron contribution =    -189.97621779 Ry
     hartree contribution      =     171.72170319 Ry
     xc contribution           =    -298.20495134 Ry
     ewald contribution        =    -853.89982440 Ry

     convergence has been achieved in  11 iterations

     Writing all to output data dir calculations_bands/myprefix.save/

     General routines

     Parallel routines

   This run was terminated on:  20:43:18   2Jun2023

   JOB DONE.