     Program PWSCF v.7.0 starts on  4Jun2023 at 15: 1:47

     K-points division:     npool     =       2
     R & G space division:  proc/nbgrp/npool/nimage =       4

     Reading input from espresso_2335.pwi
Warning: card &CELL ignored
Warning: card / ignored

     Current dimensions of program PWSCF are:
     Max number of different atomic species (ntypx) = 10
     Max number of k-points (npk) =  40000
     Max angular momentum in pseudopotentials (lmaxx) =  4
     file O.pbe-n-kjpaw_psl.0.1.UPF: wavefunction(s)  2P renormalized

     Using Slab Decomposition

     bravais-lattice index     =            0
     lattice parameter (alat)  =       9.5214  a.u.
     unit-cell volume          =     733.6864 (a.u.)^3
     number of atoms/cell      =           10
     number of atomic types    =            2
     number of electrons       =        96.00
     number of Kohn-Sham states=           64
     kinetic-energy cutoff     =      30.0000  Ry
     charge density cutoff     =     240.0000  Ry
     scf convergence threshold =      1.0E-06
     mixing beta               =       0.7000
     number of iterations used =            8  plain     mixing
     Exchange-correlation= SLA  PW   PBX  PBC
                           (   1   4   3   4   0   0   0)

     celldm(1)=   9.521401  celldm(2)=   0.000000  celldm(3)=   0.000000
     celldm(4)=   0.000000  celldm(5)=   0.000000  celldm(6)=   0.000000

     crystal axes: (cart. coord. in units of alat)
               a(1) = (   1.000000   0.000000   0.000000 )
               a(2) = (   0.591751   0.912500   0.000000 )
               a(3) = (   0.051363   0.614036   0.931484 )

     reciprocal axes: (cart. coord. in units 2 pi/alat)
               b(1) = (  1.000000 -0.648495  0.372349 )
               b(2) = (  0.000000  1.095891 -0.722414 )
               b(3) = (  0.000000  0.000000  1.073556 )

     PseudoPot. # 1 for Mn read from file:
     /home/pragov/projects/rrg-bengioy-ad/pragov/crystal_structure_design/SSSP/mn_pbe_v1.5.uspp.F.UPF
     MD5 check sum: 82ef2b46521d7a7d9e736dc3972e4928
     Pseudo is Ultrasoft + core correction, Zval = 15.0
     Generated by new atomic code, or converted to UPF format
     Using radial grid of  859 points,  6 beta functions with:
                l(1) =   0
                l(2) =   0
                l(3) =   1
                l(4) =   1
                l(5) =   2
                l(6) =   2
     Q(r) pseudized with  8 coefficients,  rinner =    0.950   0.950   0.950
                                                       0.950   0.950

     PseudoPot. # 2 for O  read from file:
     /home/pragov/projects/rrg-bengioy-ad/pragov/crystal_structure_design/SSSP/O.pbe-n-kjpaw_psl.0.1.UPF
     MD5 check sum: 0234752ac141de4415c5fc33072bef88
     Pseudo is Projector augmented-wave + core cor, Zval =  6.0
     Generated using "atomic" code by A. Dal Corso  v.5.0.99 svn rev. 10869
     Shape of augmentation charge: BESSEL
     Using radial grid of 1095 points,  4 beta functions with:
                l(1) =   0
                l(2) =   0
                l(3) =   1
                l(4) =   1
     Q(r) pseudized with 0 coefficients

     atomic species   valence    mass     pseudopotential
        Mn            15.00    54.93804     Mn( 1.00)
        O              6.00    15.99900     O ( 1.00)

     No symmetry found

                                    s                        frac. trans.

      isym =  1     identity

 cryst.   s( 1) = (     1          0          0      )
                  (     0          1          0      )
                  (     0          0          1      )

 cart.    s( 1) = (  1.0000000 -0.0000000 -0.0000000 )
                  (  0.0000000  1.0000000 -0.0000000 )
                  (  0.0000000  0.0000000  1.0000000 )

   Cartesian axes

     site n.     atom                  positions (alat units)
         1           Mn  tau(   1) = (   1.1064798   1.2229568   0.8869167  )
         2           Mn  tau(   2) = (   1.0591829   0.6053475   0.5091191  )
         3           Mn  tau(   3) = (   0.5833723   0.9204634   0.4220300  )
         4           Mn  tau(   4) = (   0.5373922   0.3039849   0.0444513  )
         5           O   tau(   5) = (   0.8708558   0.8956280   0.6931225  )
         6           O   tau(   6) = (   1.2565791   0.9161303   0.2338601  )
         7           O   tau(   7) = (   0.1951065   0.3564333   0.2271814  )
         8           O   tau(   8) = (   1.4486218   1.1706240   0.7044465  )
         9           O   tau(   9) = (   0.3858336   0.6107438   0.6980892  )
        10           O   tau(  10) = (   0.7721466   0.6303687   0.2382018  )

   Crystallographic axes

     site n.     atom                  positions (cryst. coord.)
         1           Mn  tau(   1) = (  0.6436410  0.6995060  0.9521550  )
         2           Mn  tau(   2) = (  0.8561880  0.2956000  0.5465680  )
         3           Mn  tau(   3) = (  0.1435990  0.7038470  0.4530730  )
         4           Mn  tau(   4) = (  0.3568110  0.3010220  0.0477210  )
         5           O   tau(   5) = (  0.5481290  0.4807890  0.7441060  )
         6           O   tau(   6) = (  0.7495510  0.8350350  0.2510620  )
         7           O   tau(   7) = (  0.0485520  0.2264930  0.2438920  )
         8           O   tau(   8) = (  0.9517780  0.7739740  0.7562630  )
         9           O   tau(   9) = (  0.2497020  0.1649990  0.7494380  )
        10           O   tau(  10) = (  0.4520500  0.5187350  0.2557230  )

     number of k points=    14
                       cart. coord. in units 2pi/alat
        k(    1) = (   0.0000000   0.0000000   0.0000000), wk =   0.0740741
        k(    2) = (   0.0000000   0.0000000   0.3578521), wk =   0.1481481
        k(    3) = (   0.0000000   0.3652970  -0.2408047), wk =   0.1481481
        k(    4) = (   0.0000000   0.3652970   0.1170474), wk =   0.1481481
        k(    5) = (   0.0000000   0.3652970  -0.5986568), wk =   0.1481481
        k(    6) = (   0.3333333  -0.2161649   0.1241162), wk =   0.1481481
        k(    7) = (   0.3333333  -0.2161649   0.4819683), wk =   0.1481481
        k(    8) = (   0.3333333  -0.2161649  -0.2337359), wk =   0.1481481
        k(    9) = (   0.3333333   0.1491321  -0.1166886), wk =   0.1481481
        k(   10) = (   0.3333333   0.1491321   0.2411635), wk =   0.1481481
        k(   11) = (   0.3333333   0.1491321  -0.4745407), wk =   0.1481481
        k(   12) = (   0.3333333  -0.5814618   0.3649209), wk =   0.1481481
        k(   13) = (   0.3333333  -0.5814618   0.7227730), wk =   0.1481481
        k(   14) = (   0.3333333  -0.5814618   0.0070688), wk =   0.1481481

                       cryst. coord.
        k(    1) = (   0.0000000   0.0000000   0.0000000), wk =   0.0740741
        k(    2) = (   0.0000000   0.0000000   0.3333333), wk =   0.1481481
        k(    3) = (   0.0000000   0.3333333  -0.0000000), wk =   0.1481481
        k(    4) = (   0.0000000   0.3333333   0.3333333), wk =   0.1481481
        k(    5) = (   0.0000000   0.3333333  -0.3333333), wk =   0.1481481
        k(    6) = (   0.3333333  -0.0000000   0.0000000), wk =   0.1481481
        k(    7) = (   0.3333333  -0.0000000   0.3333333), wk =   0.1481481
        k(    8) = (   0.3333333  -0.0000000  -0.3333333), wk =   0.1481481
        k(    9) = (   0.3333333   0.3333333  -0.0000000), wk =   0.1481481
        k(   10) = (   0.3333333   0.3333333   0.3333333), wk =   0.1481481
        k(   11) = (   0.3333333   0.3333333  -0.3333333), wk =   0.1481481
        k(   12) = (   0.3333333  -0.3333333   0.0000000), wk =   0.1481481
        k(   13) = (   0.3333333  -0.3333333   0.3333333), wk =   0.1481481
        k(   14) = (   0.3333333  -0.3333333  -0.3333333), wk =   0.1481481

     Check: negative core charge=   -0.000036

     Initial potential from superposition of free atoms

     starting charge      93.9997, renormalised to      96.0000
     Starting wfcs are   76 randomized atomic wfcs
     Checking if some PAW data can be deallocated...

     Self-consistent Calculation

     iteration #  1     ecut=    30.00 Ry     beta= 0.70
     Davidson diagonalization with overlap

     ethr =  1.00E-02,  avg # of iterations =  2.0

     total energy              =   -1090.44717997 Ry
     estimated scf accuracy    <       6.02272072 Ry

[...]

     total energy              =   -1094.27376215 Ry
     estimated scf accuracy    <       0.00000118 Ry

     iteration # 21     ecut=    30.00 Ry     beta= 0.70
     Davidson diagonalization with overlap

     ethr =  1.22E-09,  avg # of iterations =  1.0

     End of self-consistent calculation

          k = 0.0000 0.0000 0.0000 (  2031 PWs)   bands (ev):

   -69.4104 -69.4052 -69.4015 -69.3964 -38.2855 -38.2801 -38.2238 -38.2187
   -38.2034 -38.1855 -38.1499 -38.1391 -37.9726 -37.9620 -37.9422 -37.9369
    -9.6514  -8.4477  -8.3191  -8.3088  -8.3026  -8.2636   3.2965   3.9670
     4.1602   4.3610   4.3666   4.4940   4.9436   5.0912   5.3141   5.3486
     5.3956   5.9158   6.3750   6.6510   7.0905   7.4346   7.4818   7.6073
     9.4656   9.5029   9.6196   9.7749   9.8863   9.9961  10.0642  10.0878
    10.4708  10.4976  10.7485  10.7536  11.1096  11.1575  11.1983  11.6012
    12.4231  12.5015  12.8691  13.2063  14.4780  17.9297  20.2870  20.6193

     occupation numbers
     1.0000   1.0000   1.0000   1.0000   1.0000   1.0000   1.0000   1.0000
     1.0000   1.0000   1.0000   1.0000   1.0000   1.0000   1.0000   1.0000
     1.0000   1.0000   1.0000   1.0000   1.0000   1.0000   1.0000   1.0000
     1.0000   1.0000   1.0000   1.0000   1.0000   1.0000   1.0000   1.0000
     1.0000   1.0000   1.0000   1.0000   1.0000   1.0000   1.0000   1.0000
     1.0000   1.0000   1.0000   1.0000   1.0000   1.0000   1.0000   1.0000
     0.0000   0.0000   0.0000   0.0000   0.0000   0.0000   0.0000   0.0000
     0.0000   0.0000   0.0000   0.0000   0.0000   0.0000   0.0000   0.0000

[...]

          k = 0.3333-0.5815 0.0071 (  2030 PWs)   bands (ev):

   -69.4078 -69.4064 -69.4005 -69.3993 -38.2854 -38.2783 -38.2303 -38.2240
   -38.1907 -38.1876 -38.1502 -38.1452 -37.9690 -37.9611 -37.9433 -37.9419
    -8.9594  -8.8570  -8.4984  -8.4611  -8.3457  -8.2738   3.6006   3.8740
     3.9711   4.1065   4.5056   4.8005   5.0135   5.3257   5.4341   5.5259
     5.6901   6.1658   6.2681   6.4465   6.6871   6.8963   7.2562   7.4163
     9.2228   9.3642   9.8926   9.9594  10.0293  10.0633  10.2264  10.2811
    10.3809  10.4092  10.5142  10.5977  11.0098  11.1764  11.3045  11.6730
    12.2621  12.4483  12.5449  13.0635  17.6109  17.9995  18.3868  19.5884

     occupation numbers
     1.0000   1.0000   1.0000   1.0000   1.0000   1.0000   1.0000   1.0000
     1.0000   1.0000   1.0000   1.0000   1.0000   1.0000   1.0000   1.0000
     1.0000   1.0000   1.0000   1.0000   1.0000   1.0000   1.0000   1.0000
     1.0000   1.0000   1.0000   1.0000   1.0000   1.0000   1.0000   1.0000
     1.0000   1.0000   1.0000   1.0000   1.0000   1.0000   1.0000   1.0000
     1.0000   1.0000   1.0000   1.0000   1.0000   1.0000   1.0000   1.0000
     0.0000   0.0000   0.0000   0.0000   0.0000   0.0000   0.0000   0.0000
     0.0000   0.0000   0.0000   0.0000   0.0000   0.0000   0.0000   0.0000

     highest occupied, lowest unoccupied level (ev):    10.3015   10.2552

!    total energy              =   -1094.27376214 Ry
     estimated scf accuracy    <       0.00000009 Ry

     The total energy is the sum of the following terms:
     one-electron contribution =    -534.00577798 Ry
     hartree contribution      =     311.40255516 Ry
     xc contribution           =    -149.42003023 Ry
     ewald contribution        =    -665.08215025 Ry
     one-center paw contrib.   =     -57.16835885 Ry
      -> PAW hartree energy AE =       0.00000000 Ry
      -> PAW hartree energy PS =       0.00000000 Ry
      -> PAW xc energy AE      =       0.00000000 Ry
      -> PAW xc energy PS      =       0.00000000 Ry
      -> total E_H with PAW    =     311.40255516 Ry
      -> total E_XC with PAW   =    -149.42003023 Ry

     convergence has been achieved in  21 iterations

     Writing all to output data dir calculations_bands/myprefix.save/

     General routines

     Parallel routines

     PAW routines

   This run was terminated on:  15: 2: 2   4Jun2023

   JOB DONE.