     Program PWSCF v.7.0 starts on  6Jun2023 at 14:23:18

     K-points division:     npool     =       2
     R & G space division:  proc/nbgrp/npool/nimage =       4

     Reading input from espresso_16938.pwi
Warning: card &CELL ignored
Warning: card / ignored

     Current dimensions of program PWSCF are:
     Max number of different atomic species (ntypx) = 10
     Max number of k-points (npk) =  40000
     Max angular momentum in pseudopotentials (lmaxx) =  4
     Message from routine setup:
     using ibrav=0 with symmetry is DISCOURAGED, use correct ibrav instead

     Using Slab Decomposition

     bravais-lattice index     =            0
     lattice parameter (alat)  =       7.8331  a.u.
     unit-cell volume          =    1356.2661 (a.u.)^3
     number of atoms/cell      =           12
     number of atomic types    =            3
     number of electrons       =       128.00
     number of Kohn-Sham states=           64
     kinetic-energy cutoff     =      30.0000  Ry
     charge density cutoff     =     240.0000  Ry
     scf convergence threshold =      1.0E-06
     mixing beta               =       0.7000
     number of iterations used =            8  plain     mixing
     Exchange-correlation= PBE
                           (   1   4   3   4   0   0   0)

     celldm(1)=   7.833062  celldm(2)=   0.000000  celldm(3)=   0.000000
     celldm(4)=   0.000000  celldm(5)=   0.000000  celldm(6)=   0.000000

     crystal axes: (cart. coord. in units of alat)
               a(1) = (   1.000000   0.000000   0.000000 )
               a(2) = (   0.000000   1.646423   0.000000 )
               a(3) = (   0.000000   0.000000   1.713992 )

     reciprocal axes: (cart. coord. in units 2 pi/alat)
               b(1) = (  1.000000  0.000000  0.000000 )
               b(2) = (  0.000000  0.607377  0.000000 )
               b(3) = (  0.000000  0.000000  0.583433 )

     PseudoPot. # 1 for Y  read from file:
     /home/pragov/projects/rrg-bengioy-ad/pragov/crystal_structure_design/SSSP/Y_pbe_v1.uspp.F.UPF
     MD5 check sum: 2cf71db95cafeb975fc457bd7f14888e
     Pseudo is Ultrasoft + core correction, Zval = 11.0
     Generated by new atomic code, or converted to UPF format
     Using radial grid of  885 points,  6 beta functions with:
                l(1) =   0
                l(2) =   0
                l(3) =   1
                l(4) =   1
                l(5) =   2
                l(6) =   2
     Q(r) pseudized with  6 coefficients,  rinner =    1.200   1.200   1.200
                                                       1.200   1.200

     PseudoPot. # 2 for Co read from file:
     /home/pragov/projects/rrg-bengioy-ad/pragov/crystal_structure_design/SSSP/Co_pbe_v1.2.uspp.F.UPF
     MD5 check sum: 5f91765df6ddd3222702df6e7b74a16d
     Pseudo is Ultrasoft + core correction, Zval = 17.0
     Generated by new atomic code, or converted to UPF format
     Using radial grid of  863 points,  6 beta functions with:
                l(1) =   0
                l(2) =   0
                l(3) =   1
                l(4) =   1
                l(5) =   2
                l(6) =   2
     Q(r) pseudized with  8 coefficients,  rinner =    1.200   1.200   1.200
                                                       1.200   1.200

     PseudoPot. # 3 for Si read from file:
     /home/pragov/projects/rrg-bengioy-ad/pragov/crystal_structure_design/SSSP/Si.pbe-n-rrkjus_psl.1.0.0.UPF
     MD5 check sum: 0b0bb1205258b0d07b9f9672cf965d36
     Pseudo is Ultrasoft + core correction, Zval =  4.0
     Generated using "atomic" code by A. Dal Corso  v.5.1
     Using radial grid of 1141 points,  6 beta functions with:
                l(1) =   0
                l(2) =   0
                l(3) =   1
                l(4) =   1
                l(5) =   2
                l(6) =   2
     Q(r) pseudized with 0 coefficients

     atomic species   valence    mass     pseudopotential
        Y             11.00    88.90584     Y ( 1.00)
        Co            17.00    58.93319     Co( 1.00)
        Si             4.00    28.08500     Si( 1.00)

      8 Sym. Ops., with inversion, found ( 6 have fractional translation)

                                    s                        frac. trans.

      isym =  1     identity

 cryst.   s( 1) = (     1          0          0      )
                  (     0          1          0      )
                  (     0          0          1      )

 cart.    s( 1) = (  1.0000000  0.0000000  0.0000000 )
                  (  0.0000000  1.0000000  0.0000000 )
                  (  0.0000000  0.0000000  1.0000000 )

      isym =  2     180 deg rotation - cart. axis [0,0,1]

 cryst.   s( 2) = (    -1          0          0      )    f =(  0.0000000 )
                  (     0         -1          0      )       (  0.5000000 )
                  (     0          0          1      )       (  0.5000000 )

 cart.    s( 2) = ( -1.0000000  0.0000000  0.0000000 )    f =(  0.0000000 )
                  (  0.0000000 -1.0000000  0.0000000 )       (  0.8232114 )
                  (  0.0000000  0.0000000  1.0000000 )       (  0.8569961 )

[...]

      isym =  4     180 deg rotation - cart. axis [1,0,0]

[...]

      isym =  5     inversion

 cryst.   s( 5) = (    -1          0          0      )
                  (     0         -1          0      )
                  (     0          0         -1      )

 cart.    s( 5) = ( -1.0000000  0.0000000  0.0000000 )
                  (  0.0000000 -1.0000000  0.0000000 )
                  (  0.0000000  0.0000000 -1.0000000 )

      isym =  6     inv. 180 deg rotation - cart. axis [0,0,1]

[...]

      isym =  8     inv. 180 deg rotation - cart. axis [1,0,0]

 cryst.   s( 8) = (    -1          0          0      )    f =(  0.5000000 )
                  (     0          1          0      )       (  0.0000000 )
                  (     0          0          1      )       (  0.0000000 )

 cart.    s( 8) = ( -1.0000000  0.0000000  0.0000000 )    f =(  0.5000000 )
                  (  0.0000000  1.0000000  0.0000000 )       (  0.0000000 )
                  (  0.0000000  0.0000000  1.0000000 )       (  0.0000000 )

   Cartesian axes

     site n.     atom                  positions (alat units)
         1           Y   tau(   1) = (   0.7500000   0.0170207   0.5258871  )
         2           Y   tau(   2) = (   0.2500000   1.6294021   1.1881051  )
         3           Y   tau(   3) = (   0.2500000   0.8061907   1.3828831  )
         4           Y   tau(   4) = (   0.7500000   0.8402321   0.3311090  )
         5           Co  tau(   5) = (   0.7500000   1.3992404   1.5987758  )
         6           Co  tau(   6) = (   0.2500000   0.2471824   0.1152163  )
         7           Co  tau(   7) = (   0.2500000   1.0703938   0.7417798  )
         8           Co  tau(   8) = (   0.7500000   0.5760290   0.9722123  )
         9           Si  tau(   9) = (   0.7500000   1.1455711   1.0258551  )
        10           Si  tau(  10) = (   0.2500000   0.5008517   0.6881370  )
        11           Si  tau(  11) = (   0.2500000   1.3240631   0.1688591  )
        12           Si  tau(  12) = (   0.7500000   0.3223597   1.5451330  )

   Crystallographic axes

     site n.     atom                  positions (cryst. coord.)
         1           Y   tau(   1) = (  0.7500000  0.0103380  0.3068200  )
         2           Y   tau(   2) = (  0.2500000  0.9896620  0.6931800  )
         3           Y   tau(   3) = (  0.2500000  0.4896620  0.8068200  )
         4           Y   tau(   4) = (  0.7500000  0.5103380  0.1931800  )
         5           Co  tau(   5) = (  0.7500000  0.8498670  0.9327790  )
         6           Co  tau(   6) = (  0.2500000  0.1501330  0.0672210  )
         7           Co  tau(   7) = (  0.2500000  0.6501330  0.4327790  )
         8           Co  tau(   8) = (  0.7500000  0.3498670  0.5672210  )
         9           Si  tau(   9) = (  0.7500000  0.6957940  0.5985180  )
        10           Si  tau(  10) = (  0.2500000  0.3042060  0.4014820  )
        11           Si  tau(  11) = (  0.2500000  0.8042060  0.0985180  )
        12           Si  tau(  12) = (  0.7500000  0.1957940  0.9014820  )

     number of k points=     8
                       cart. coord. in units 2pi/alat
        k(    1) = (   0.0000000   0.0000000   0.0000000), wk =   0.0740741
        k(    2) = (   0.0000000   0.0000000   0.1944778), wk =   0.1481481
        k(    3) = (   0.0000000   0.2024591   0.0000000), wk =   0.1481481
        k(    4) = (   0.0000000   0.2024591   0.1944778), wk =   0.2962963
        k(    5) = (   0.3333333   0.0000000   0.0000000), wk =   0.1481481
        k(    6) = (   0.3333333   0.0000000   0.1944778), wk =   0.2962963
        k(    7) = (   0.3333333   0.2024591   0.0000000), wk =   0.2962963
        k(    8) = (   0.3333333   0.2024591   0.1944778), wk =   0.5925926

                       cryst. coord.
        k(    1) = (   0.0000000   0.0000000   0.0000000), wk =   0.0740741
        k(    2) = (   0.0000000   0.0000000   0.3333333), wk =   0.1481481
        k(    3) = (   0.0000000   0.3333333   0.0000000), wk =   0.1481481
        k(    4) = (   0.0000000   0.3333333   0.3333333), wk =   0.2962963
        k(    5) = (   0.3333333   0.0000000   0.0000000), wk =   0.1481481
        k(    6) = (   0.3333333   0.0000000   0.3333333), wk =   0.2962963
        k(    7) = (   0.3333333   0.3333333   0.0000000), wk =   0.2962963
        k(    8) = (   0.3333333   0.3333333   0.3333333), wk =   0.5925926

     Check: negative core charge=   -0.000012

     Initial potential from superposition of free atoms

     starting charge     123.9799, renormalised to     128.0000

     negative rho (up, down):  1.754E-01 0.000E+00
     Starting wfcs are  120 randomized atomic wfcs

     Self-consistent Calculation

     iteration #  1     ecut=    30.00 Ry     beta= 0.70
     Davidson diagonalization with overlap

     ethr =  1.00E-02,  avg # of iterations =  2.6

     negative rho (up, down):  1.591E-01 0.000E+00

     total energy              =   -1551.25021425 Ry
     estimated scf accuracy    <      50.26028013 Ry

[...]

     c_bands:  1 eigenvalues not converged
     c_bands:  1 eigenvalues not converged
     ethr =  4.69E-05,  avg # of iterations = 16.9

[...]

     c_bands:  1 eigenvalues not converged
     ethr =  1.35E-07,  avg # of iterations = 12.0

[...]

     total energy              =   -1590.07211189 Ry
     estimated scf accuracy    <       0.00000533 Ry

     iteration # 34     ecut=    30.00 Ry     beta= 0.70
     Davidson diagonalization with overlap

     ethr =  4.16E-09,  avg # of iterations =  5.2

     negative rho (up, down):  1.712E-01 0.000E+00

     End of self-consistent calculation

          k = 0.0000 0.0000 0.0000 (  3777 PWs)   bands (ev):

   -81.6641 -81.6634 -81.6633 -81.6628 -45.0513 -45.0496 -45.0429 -45.0421
   -44.9172 -44.9100 -44.9048 -44.9024 -44.8050 -44.8046 -44.8005 -44.7943
   -28.7685 -28.7365 -28.7287 -28.6981  -9.0928  -9.0756  -9.0225  -9.0037
    -8.8805  -8.8277  -8.7549  -8.7439  -8.7359  -8.6921  -8.6768  -8.6154
     3.3580   5.0623   5.3470   5.7037   8.4887   8.7293   9.6572   9.6792
     9.7014   9.9017  10.2358  10.4176  10.5098  10.5319  10.6532  10.8844
    11.0329  11.2459  11.3595  11.4623  11.7083  11.7598  11.7879  11.8129
    11.9653  12.1559  12.2218  12.2400  12.6459  12.7351  12.7419  13.1157

     occupation numbers
     1.0000   1.0000   1.0000   1.0000   1.0000   1.0000   1.0000   1.0000
     1.0000   1.0000   1.0000   1.0000   1.0000   1.0000   1.0000   1.0000
     1.0000   1.0000   1.0000   1.0000   1.0000   1.0000   1.0000   1.0000
     1.0000   1.0000   1.0000   1.0000   1.0000   1.0000   1.0000   1.0000
     1.0000   1.0000   1.0000   1.0000   1.0000   1.0000   1.0000   1.0000
     1.0000   1.0000   1.0000   1.0000   1.0000   1.0000   1.0000   1.0000
     1.0000   1.0000   1.0000   1.0000   1.0000   1.0000   1.0000   1.0000
     1.0000   1.0000   1.0000   1.0000   1.0000   1.0000   1.0000   1.0000

[...]

          k = 0.3333 0.2025 0.1945 (  3764 PWs)   bands (ev):

   -81.6634 -81.6633 -81.6630 -81.6630 -45.0471 -45.0466 -45.0433 -45.0419
   -44.9095 -44.9087 -44.9052 -44.9047 -44.8018 -44.8012 -44.7999 -44.7995
   -28.7451 -28.7386 -28.7214 -28.7151  -9.0440  -9.0282  -8.9907  -8.9850
    -8.9366  -8.9197  -8.7836  -8.7634  -8.7601  -8.7433  -8.7133  -8.6949
     4.7139   4.9914   5.5028   5.5404   8.5241   8.5958   8.9200   9.2403
     9.9980  10.3114  10.3609  10.4392  10.5073  10.5503  10.7977  10.9120
    11.2480  11.3517  11.4846  11.5661  11.6060  11.6899  11.7037  11.7849
    11.9059  11.9681  12.0208  12.1753  12.3915  12.5110  12.7058  12.8244

     occupation numbers
     1.0000   1.0000   1.0000   1.0000   1.0000   1.0000   1.0000   1.0000
     1.0000   1.0000   1.0000   1.0000   1.0000   1.0000   1.0000   1.0000
     1.0000   1.0000   1.0000   1.0000   1.0000   1.0000   1.0000   1.0000
     1.0000   1.0000   1.0000   1.0000   1.0000   1.0000   1.0000   1.0000
     1.0000   1.0000   1.0000   1.0000   1.0000   1.0000   1.0000   1.0000
     1.0000   1.0000   1.0000   1.0000   1.0000   1.0000   1.0000   1.0000
     1.0000   1.0000   1.0000   1.0000   1.0000   1.0000   1.0000   1.0000
     1.0000   1.0000   1.0000   1.0000   1.0000   1.0000   1.0000   1.0000

     highest occupied level (ev):    13.3143

!    total energy              =   -1590.07211139 Ry
     estimated scf accuracy    <       0.00000099 Ry

     The total energy is the sum of the following terms:
     one-electron contribution =    -998.57385185 Ry
     hartree contribution      =     559.54763762 Ry
     xc contribution           =    -243.68011435 Ry
     ewald contribution        =    -907.36578280 Ry

     convergence has been achieved in  34 iterations

     Writing all to output data dir calculations_bands/myprefix.save/

     General routines

     Parallel routines

   This run was terminated on:  14:23:49   6Jun2023

   JOB DONE.