     Program PWSCF v.7.0 starts on  5Jun2023 at 20:37:58

     K-points division:     npool     =       2
     R & G space division:  proc/nbgrp/npool/nimage =       4

     Reading input from espresso_11451.pwi
Warning: card &CELL ignored
Warning: card / ignored

     Current dimensions of program PWSCF are:
     Max number of different atomic species (ntypx) = 10
     Max number of k-points (npk) =  40000
     Max angular momentum in pseudopotentials (lmaxx) =  4
     file In.pbe-dn-rrkjus_psl.0.2.2.UPF: wavefunction(s)  5S renormalized
     Message from routine setup:
     using ibrav=0 with symmetry is DISCOURAGED, use correct ibrav instead

     Using Slab Decomposition

     bravais-lattice index     =            0
     lattice parameter (alat)  =      13.7195  a.u.
     unit-cell volume          =     920.3894 (a.u.)^3
     number of atoms/cell      =            5
     number of atomic types    =            3
     number of electrons       =        68.00
     number of Kohn-Sham states=           64
     kinetic-energy cutoff     =      30.0000  Ry
     charge density cutoff     =     240.0000  Ry
     scf convergence threshold =      1.0E-06
     mixing beta               =       0.7000
     number of iterations used =            8  plain     mixing
     Exchange-correlation= PBE
                           (   1   4   3   4   0   0   0)

     celldm(1)=  13.719481  celldm(2)=   0.000000  celldm(3)=   0.000000
     celldm(4)=   0.000000  celldm(5)=   0.000000  celldm(6)=   0.000000

     crystal axes: (cart. coord. in units of alat)
               a(1) = (   1.000000   0.000000   0.000000 )
               a(2) = (   0.601729   0.798701   0.000000 )
               a(3) = (  -0.800864  -0.399350   0.446246 )

     reciprocal axes: (cart. coord. in units 2 pi/alat)
               b(1) = (  1.000000 -0.753384  1.120458 )
               b(2) = (  0.000000  1.252034  1.120458 )
               b(3) = (  0.000000  0.000000  2.240915 )

     PseudoPot. # 1 for Sr read from file:
     /home/pragov/projects/rrg-bengioy-ad/pragov/crystal_structure_design/SSSP/Sr_pbe_v1.uspp.F.UPF
     MD5 check sum: 6b418c05fbe9db5448babca5e47b7a5b
     Pseudo is Ultrasoft + core correction, Zval = 10.0
     Generated by new atomic code, or converted to UPF format
     Using radial grid of  883 points,  6 beta functions with:
                l(1) =   0
                l(2) =   0
                l(3) =   1
                l(4) =   1
                l(5) =   2
                l(6) =   2
     Q(r) pseudized with  6 coefficients,  rinner =    1.400   1.400   1.400
                                                       1.400   1.400

     PseudoPot. # 2 for In read from file:
     /home/pragov/projects/rrg-bengioy-ad/pragov/crystal_structure_design/SSSP/In.pbe-dn-rrkjus_psl.0.2.2.UPF
     MD5 check sum: 25e7c42c3b55b68f4bf926be2e7201a4
     Pseudo is Ultrasoft + core correction, Zval = 13.0
     Generated using "atomic" code by A. Dal Corso  v.5.0.99 svn rev. 10869
     Using radial grid of 1241 points,  6 beta functions with:
                l(1) =   0
                l(2) =   0
                l(3) =   1
                l(4) =   1
                l(5) =   2
                l(6) =   2
     Q(r) pseudized with 0 coefficients

     PseudoPot. # 3 for Au read from file:
     /home/pragov/projects/rrg-bengioy-ad/pragov/crystal_structure_design/SSSP/Au_ONCV_PBE-1.0.oncvpsp.upf
     MD5 check sum: d14007822ba0e19f0206237467fc06c2
     Pseudo is Norm-conserving, Zval = 19.0
     Generated using ONCVPSP code by D. R. Hamann
     Using radial grid of 1278 points,  8 beta functions with:
                l(1) =   0
                l(2) =   0
                l(3) =   1
                l(4) =   1
                l(5) =   2
                l(6) =   2
                l(7) =   3
                l(8) =   3

     atomic species   valence    mass     pseudopotential
        Sr            10.00    87.62000     Sr( 1.00)
        In            13.00   114.81800     In( 1.00)
        Au            19.00   196.96657     Au( 1.00)

      2 Sym. Ops. (no inversion) found

                                    s                        frac. trans.

      isym =  1     identity

 cryst.   s( 1) = (     1          0          0      )
                  (     0          1          0      )
                  (     0          0          1      )

 cart.    s( 1) = (  1.0000000 -0.0000000  0.0000000 )
                  (  0.0000000  1.0000000  0.0000000 )
                  (  0.0000000  0.0000000  1.0000000 )

      isym =  2     inv. 180 deg rotation - cart. axis [0,0,1]

 cryst.   s( 2) = (     1          0          0      )
                  (     0          1          0      )
                  (    -1         -1         -1      )

 cart.    s( 2) = (  1.0000000 -0.0000000  0.0000000 )
                  (  0.0000000  1.0000000  0.0000000 )
                  (  0.0000000  0.0000000 -1.0000000 )

   Cartesian axes

     site n.     atom                  positions (alat units)
         1           Sr  tau(   1) = (   1.5996240   0.7976511   0.0000000  )
         2           In  tau(   2) = (   0.2708015   0.3843595   0.2231231  )
         3           In  tau(   3) = (   0.4699372  -0.0149908   0.2231231  )
         4           In  tau(   4) = (   0.6172998   0.3078160   0.0000000  )
         5           Au  tau(   5) = (   0.9533905   0.4754074   0.0000000  )

   Crystallographic axes

     site n.     atom                  positions (cryst. coord.)
         1           Sr  tau(   1) = (  0.9986860  0.9986860  0.0000000  )
         2           In  tau(   2) = (  0.2312310  0.7312310  0.5000000  )
         3           In  tau(   3) = (  0.7312310  0.2312310  0.5000000  )
         4           In  tau(   4) = (  0.3853960  0.3853960  0.0000000  )
         5           Au  tau(   5) = (  0.5952260  0.5952260  0.0000000  )

     number of k points=    10
                       cart. coord. in units 2pi/alat
        k(    1) = (   0.0000000   0.0000000   0.0000000), wk =   0.0740741
        k(    2) = (   0.0000000   0.0000000   0.7469718), wk =   0.1481481
        k(    3) = (   0.0000000   0.4173445   0.3734859), wk =   0.2962963
        k(    4) = (   0.0000000   0.4173445   1.1204577), wk =   0.1481481
        k(    5) = (   0.3333333  -0.2511282   0.3734859), wk =   0.2962963
        k(    6) = (   0.3333333  -0.2511282   1.1204577), wk =   0.1481481
        k(    7) = (   0.3333333   0.1662164   0.7469718), wk =   0.2962963
        k(    8) = (   0.3333333   0.1662164   0.0000000), wk =   0.1481481
        k(    9) = (   0.3333333  -0.6684727   0.0000000), wk =   0.1481481
        k(   10) = (   0.3333333  -0.6684727   0.7469718), wk =   0.2962963

                       cryst. coord.
        k(    1) = (   0.0000000   0.0000000   0.0000000), wk =   0.0740741
        k(    2) = (   0.0000000   0.0000000   0.3333333), wk =   0.1481481
        k(    3) = (   0.0000000   0.3333333   0.0000000), wk =   0.2962963
        k(    4) = (   0.0000000   0.3333333   0.3333333), wk =   0.1481481
        k(    5) = (   0.3333333  -0.0000000  -0.0000000), wk =   0.2962963
        k(    6) = (   0.3333333  -0.0000000   0.3333333), wk =   0.1481481
        k(    7) = (   0.3333333   0.3333333   0.0000000), wk =   0.2962963
        k(    8) = (   0.3333333   0.3333333  -0.3333333), wk =   0.1481481
        k(    9) = (   0.3333333  -0.3333333   0.0000000), wk =   0.1481481
        k(   10) = (   0.3333333  -0.3333333   0.3333333), wk =   0.2962963

     Check: negative core charge=   -0.000002

     Initial potential from superposition of free atoms

     starting charge      67.9551, renormalised to      68.0000

     negative rho (up, down):  6.363E-02 0.000E+00
     Starting wfcs are   50 randomized atomic wfcs +   14 random wfcs

     Self-consistent Calculation

     iteration #  1     ecut=    30.00 Ry     beta= 0.70
     Davidson diagonalization with overlap

     ethr =  1.00E-02,  avg # of iterations =  7.2

     Threshold (ethr) on eigenvalues was too large:
     Diagonalizing with lowered threshold

     Davidson diagonalization with overlap

[...]

     negative rho (up, down):  6.490E-02 0.000E+00

     total energy              =    -779.26553226 Ry
     estimated scf accuracy    <       0.10210010 Ry

[...]

     total energy              =    -779.29587936 Ry
     estimated scf accuracy    <       0.00002634 Ry

     iteration #  8     ecut=    30.00 Ry     beta= 0.70
     Davidson diagonalization with overlap

     ethr =  3.87E-08,  avg # of iterations =  2.0

     negative rho (up, down):  6.644E-02 0.000E+00

     End of self-consistent calculation

          k = 0.0000 0.0000 0.0000 (  2533 PWs)   bands (ev):

   -96.3661 -47.4386 -47.3373 -47.3373 -25.4182  -7.4925  -7.3832  -7.3832
    -4.3574  -4.2896  -4.2354  -4.2354  -4.1735  -4.0270  -3.9883  -3.9883
    -3.9047  -3.8550  -3.8430  -3.7462  -3.7388  -3.7194  -3.7194   1.4986
     5.0884   5.4861   5.7921   5.7921   6.1385   6.3505   6.6575   9.6457
     9.8317   9.8317  12.0856  12.3967  12.3967  12.9247  13.8255  14.7679
    14.7679  14.8125  15.2762  15.9644  16.8566  16.8566  17.3571  18.0687
    19.2682  19.2682  20.0345  20.2634  20.7486  21.2507  21.2507  21.9358
    22.4195  23.3562  23.4658  24.0581  24.0581  24.8493  25.7123  25.7123

     occupation numbers
     1.0000   1.0000   1.0000   1.0000   1.0000   1.0000   1.0000   1.0000
     1.0000   1.0000   1.0000   1.0000   1.0000   1.0000   1.0000   1.0000
     1.0000   1.0000   1.0000   1.0000   1.0000   1.0000   1.0000   1.0000
     1.0000   1.0000   1.0000   1.0000   1.0000   1.0000   1.0000   1.0000
     1.0000   1.0000   0.0000   0.0000   0.0000   0.0000   0.0000   0.0000
     0.0000   0.0000   0.0000   0.0000   0.0000   0.0000   0.0000   0.0000
     0.0000   0.0000   0.0000   0.0000   0.0000   0.0000   0.0000   0.0000
     0.0000   0.0000   0.0000   0.0000   0.0000   0.0000   0.0000   0.0000

[...]

          k = 0.3333-0.6685 0.7470 (  2564 PWs)   bands (ev):

   -96.3661 -47.4425 -47.3389 -47.3363 -25.4168  -7.4869  -7.4318  -7.3813
    -4.2420  -4.2236  -4.1899  -4.1676  -4.0821  -4.0589  -4.0344  -4.0125
    -3.9582  -3.9180  -3.8571  -3.8180  -3.8102  -3.7498  -3.7124   2.6471
     4.0549   5.1946   5.7867   5.8489   6.0203   6.1045   6.5475   9.6679
    10.1349  10.2035  11.4894  12.0790  12.6844  13.4256  13.4947  13.7545
    13.7744  14.4636  15.7572  16.1867  16.6363  16.9250  17.5944  18.4953
    18.6217  19.3654  19.4549  21.0278  21.7892  22.6168  23.1274  23.3975
    23.7357  24.2078  24.5515  24.6465  25.0665  25.1088  25.5835  26.2995

     occupation numbers
     1.0000   1.0000   1.0000   1.0000   1.0000   1.0000   1.0000   1.0000
     1.0000   1.0000   1.0000   1.0000   1.0000   1.0000   1.0000   1.0000
     1.0000   1.0000   1.0000   1.0000   1.0000   1.0000   1.0000   1.0000
     1.0000   1.0000   1.0000   1.0000   1.0000   1.0000   1.0000   1.0000
     1.0000   1.0000   0.0000   0.0000   0.0000   0.0000   0.0000   0.0000
     0.0000   0.0000   0.0000   0.0000   0.0000   0.0000   0.0000   0.0000
     0.0000   0.0000   0.0000   0.0000   0.0000   0.0000   0.0000   0.0000
     0.0000   0.0000   0.0000   0.0000   0.0000   0.0000   0.0000   0.0000

     highest occupied, lowest unoccupied level (ev):    10.5227    9.3920

!    total energy              =    -779.29588443 Ry
     estimated scf accuracy    <       0.00000060 Ry

     The total energy is the sum of the following terms:
     one-electron contribution =    -346.75995996 Ry
     hartree contribution      =     214.05674092 Ry
     xc contribution           =    -186.56324103 Ry
     ewald contribution        =    -460.02942437 Ry

     convergence has been achieved in   8 iterations

     Writing all to output data dir calculations_bands/myprefix.save/

     General routines

     Parallel routines

   This run was terminated on:  20:38: 7   5Jun2023

   JOB DONE.