     Program PWSCF v.7.0 starts on  7Jun2023 at  4:16:46

     K-points division:     npool     =       2
     R & G space division:  proc/nbgrp/npool/nimage =       4

     Reading input from espresso_1544.pwi
Warning: card &CELL ignored
Warning: card / ignored

     Current dimensions of program PWSCF are:
     Max number of different atomic species (ntypx) = 10
     Max number of k-points (npk) =  40000
     Max angular momentum in pseudopotentials (lmaxx) =  4
     Message from routine setup:
     using ibrav=0 with symmetry is DISCOURAGED, use correct ibrav instead

     Using Slab Decomposition

     bravais-lattice index     =            0
     lattice parameter (alat)  =      10.7952  a.u.
     unit-cell volume          =    1146.5966 (a.u.)^3
     number of atoms/cell      =            8
     number of atomic types    =            3
     number of electrons       =        84.00
     number of Kohn-Sham states=           64
     kinetic-energy cutoff     =      30.0000  Ry
     charge density cutoff     =     240.0000  Ry
     scf convergence threshold =      1.0E-06
     mixing beta               =       0.7000
     number of iterations used =            8  plain     mixing
     Exchange-correlation= PBE
                           (   1   4   3   4   0   0   0)

     celldm(1)=  10.795169  celldm(2)=   0.000000  celldm(3)=   0.000000
     celldm(4)=   0.000000  celldm(5)=   0.000000  celldm(6)=   0.000000

     crystal axes: (cart. coord. in units of alat)
               a(1) = (   1.000000   0.000000   0.000000 )
               a(2) = (  -0.209458   0.977818   0.000000 )
               a(3) = (   0.000000   0.000000   0.932104 )

     reciprocal axes: (cart. coord. in units 2 pi/alat)
               b(1) = (  1.000000  0.214209  0.000000 )
               b(2) = (  0.000000  1.022685  0.000000 )
               b(3) = (  0.000000  0.000000  1.072842 )

     PseudoPot. # 1 for Na read from file:
     /home/pragov/projects/rrg-bengioy-ad/pragov/crystal_structure_design/SSSP/na_pbe_v1.5.uspp.F.UPF
     MD5 check sum: 44600605ef58000f06b90626533354dc
     Pseudo is Ultrasoft, Zval =  9.0
     Generated by new atomic code, or converted to UPF format
     Using radial grid of  819 points,  5 beta functions with:
                l(1) =   0
                l(2) =   0
                l(3) =   1
                l(4) =   1
                l(5) =   2
     Q(r) pseudized with  8 coefficients,  rinner =    1.250   1.250   1.250
                                                       1.250   1.250

     PseudoPot. # 2 for Cu read from file:
     /home/pragov/projects/rrg-bengioy-ad/pragov/crystal_structure_design/SSSP/Cu_pbe_v1.2.uspp.F.UPF
     MD5 check sum: 6e991ff952a84172a2a52a1c1e996048
     Pseudo is Ultrasoft + core correction, Zval = 19.0
     Generated by new atomic code, or converted to UPF format
     Using radial grid of  867 points,  6 beta functions with:
                l(1) =   0
                l(2) =   0
                l(3) =   1
                l(4) =   1
                l(5) =   2
                l(6) =   2
     Q(r) pseudized with  8 coefficients,  rinner =    1.150   1.150   1.150
                                                       1.150   1.150

     PseudoPot. # 3 for As read from file:
     /home/pragov/projects/rrg-bengioy-ad/pragov/crystal_structure_design/SSSP/As.pbe-n-rrkjus_psl.0.2.UPF
     MD5 check sum: 767315de957beeeb34f87d97bf945c8f
     Pseudo is Ultrasoft + core correction, Zval =  5.0
     Generated using "atomic" code by A. Dal Corso  v.5.0.99 svn rev. 10869
     Using radial grid of 1209 points,  4 beta functions with:
                l(1) =   0
                l(2) =   0
                l(3) =   1
                l(4) =   1
     Q(r) pseudized with 0 coefficients

     atomic species   valence    mass     pseudopotential
        Na             9.00    22.98977     Na( 1.00)
        Cu            19.00    63.54600     Cu( 1.00)
        As             5.00    74.92159     As( 1.00)

      4 Sym. Ops., with inversion, found ( 2 have fractional translation)

                                    s                        frac. trans.

      isym =  1     identity

 cryst.   s( 1) = (     1          0          0      )
                  (     0          1          0      )
                  (     0          0          1      )

 cart.    s( 1) = (  1.0000000  0.0000000  0.0000000 )
                  (  0.0000000  1.0000000  0.0000000 )
                  (  0.0000000  0.0000000  1.0000000 )

      isym =  2     180 deg rotation - cart. axis [0,0,1]

 cryst.   s( 2) = (    -1          0          0      )    f =(  0.0000000 )
                  (     0         -1          0      )       (  0.0000000 )
                  (     0          0          1      )       (  0.5000000 )

 cart.    s( 2) = ( -1.0000000 -0.0000000  0.0000000 )    f =(  0.0000000 )
                  (  0.0000000 -1.0000000  0.0000000 )       (  0.0000000 )
                  (  0.0000000  0.0000000  1.0000000 )       (  0.4660520 )

      isym =  3     inversion

 cryst.   s( 3) = (    -1          0          0      )
                  (     0         -1          0      )
                  (     0          0         -1      )

 cart.    s( 3) = ( -1.0000000 -0.0000000  0.0000000 )
                  (  0.0000000 -1.0000000  0.0000000 )
                  (  0.0000000  0.0000000 -1.0000000 )

      isym =  4     inv. 180 deg rotation - cart. axis [0,0,1]

 cryst.   s( 4) = (     1          0          0      )    f =(  0.0000000 )
                  (     0          1          0      )       (  0.0000000 )
                  (     0          0         -1      )       (  0.5000000 )

 cart.    s( 4) = (  1.0000000  0.0000000  0.0000000 )    f =(  0.0000000 )
                  (  0.0000000  1.0000000  0.0000000 )       (  0.0000000 )
                  (  0.0000000  0.0000000 -1.0000000 )       (  0.4660520 )

   Cartesian axes

     site n.     atom                  positions (alat units)
         1           Na  tau(   1) = (   0.9037109   0.3145014   0.6990780  )
         2           Na  tau(   2) = (  -0.1131685   0.6633163   0.2330260  )
         3           Na  tau(   3) = (   0.6723065   0.0282785   0.2330260  )
         4           Na  tau(   4) = (   0.1182359   0.9495392   0.6990780  )
         5           Cu  tau(   5) = (   0.3952712   0.4889089   0.4660520  )
         6           Cu  tau(   6) = (   0.3952712   0.4889089   0.0000000  )
         7           As  tau(   7) = (   0.6087690   0.7529832   0.6990780  )
         8           As  tau(   8) = (   0.1817734   0.2248345   0.2330260  )

   Crystallographic axes

     site n.     atom                  positions (cryst. coord.)
         1           Na  tau(   1) = (  0.9710800  0.3216360  0.7500000  )
         2           Na  tau(   2) = (  0.0289200  0.6783640  0.2500000  )
         3           Na  tau(   3) = (  0.6783640  0.0289200  0.2500000  )
         4           Na  tau(   4) = (  0.3216360  0.9710800  0.7500000  )
         5           Cu  tau(   5) = (  0.5000000  0.5000000  0.5000000  )
         6           Cu  tau(   6) = (  0.5000000  0.5000000  0.0000000  )
         7           As  tau(   7) = (  0.7700650  0.7700650  0.7500000  )
         8           As  tau(   8) = (  0.2299350  0.2299350  0.2500000  )

     number of k points=    10
                       cart. coord. in units 2pi/alat
        k(    1) = (   0.0000000   0.0000000   0.0000000), wk =   0.0740741
        k(    2) = (   0.0000000   0.0000000   0.3576139), wk =   0.1481481
        k(    3) = (   0.0000000   0.3408952   0.0000000), wk =   0.1481481
        k(    4) = (   0.0000000   0.3408952   0.3576139), wk =   0.2962963
        k(    5) = (   0.3333333   0.0714031   0.0000000), wk =   0.1481481
        k(    6) = (   0.3333333   0.0714031   0.3576139), wk =   0.2962963
        k(    7) = (   0.3333333   0.4122983   0.0000000), wk =   0.1481481
        k(    8) = (   0.3333333   0.4122983   0.3576139), wk =   0.2962963
        k(    9) = (   0.3333333  -0.2694921   0.0000000), wk =   0.1481481
        k(   10) = (   0.3333333  -0.2694921   0.3576139), wk =   0.2962963

                       cryst. coord.
        k(    1) = (   0.0000000   0.0000000   0.0000000), wk =   0.0740741
        k(    2) = (   0.0000000   0.0000000   0.3333333), wk =   0.1481481
        k(    3) = (   0.0000000   0.3333333   0.0000000), wk =   0.1481481
        k(    4) = (   0.0000000   0.3333333   0.3333333), wk =   0.2962963
        k(    5) = (   0.3333333  -0.0000000   0.0000000), wk =   0.1481481
        k(    6) = (   0.3333333  -0.0000000   0.3333333), wk =   0.2962963
        k(    7) = (   0.3333333   0.3333333   0.0000000), wk =   0.1481481
        k(    8) = (   0.3333333   0.3333333   0.3333333), wk =   0.2962963
        k(    9) = (   0.3333333  -0.3333333   0.0000000), wk =   0.1481481
        k(   10) = (   0.3333333  -0.3333333   0.3333333), wk =   0.2962963

     Initial potential from superposition of free atoms

     starting charge      81.9744, renormalised to      84.0000
     Starting wfcs are   54 randomized atomic wfcs +   10 random wfcs

     Self-consistent Calculation

     iteration #  1     ecut=    30.00 Ry     beta= 0.70
     Davidson diagonalization with overlap

     ethr =  1.00E-02,  avg # of iterations =  6.2

     total energy              =   -1224.55546836 Ry
     estimated scf accuracy    <       1.91584090 Ry

[...]

     total energy              =   -1225.38565133 Ry
     estimated scf accuracy    <       0.00001038 Ry

     iteration # 11     ecut=    30.00 Ry     beta= 0.70
     Davidson diagonalization with overlap

     ethr =  1.24E-08,  avg # of iterations =  2.0

     End of self-consistent calculation

          k = 0.0000 0.0000 0.0000 (  3189 PWs)   bands (ev):

  -106.7416-106.7396 -64.2160 -64.2019 -64.0839 -64.0732 -64.0706 -64.0581
   -46.8191 -46.8125 -46.8124 -46.8118 -18.7659 -18.7549 -18.7487 -18.7416
   -18.7363 -18.7332 -18.7323 -18.7257 -18.7157 -18.7075 -18.6946 -18.6931
    -5.1258  -4.2510   1.1707   1.8776   2.2204   2.2348   2.9235   3.0351
     3.0768   3.2266   3.3853   3.5374   3.6941   4.1663   4.3024   4.4594
     4.7342   4.7858   5.9522   6.0403   6.3031   9.1739   9.4653  10.5045
    11.0382  11.6396  11.8989  11.9851  12.3733  12.4740  12.4908  12.6454
    12.7138  14.1541  15.0577  15.1190  16.0929  17.3239  17.6858  18.7267

     occupation numbers
     1.0000   1.0000   1.0000   1.0000   1.0000   1.0000   1.0000   1.0000
     1.0000   1.0000   1.0000   1.0000   1.0000   1.0000   1.0000   1.0000
     1.0000   1.0000   1.0000   1.0000   1.0000   1.0000   1.0000   1.0000
     1.0000   1.0000   1.0000   1.0000   1.0000   1.0000   1.0000   1.0000
     1.0000   1.0000   1.0000   1.0000   1.0000   1.0000   1.0000   1.0000
     1.0000   1.0000   0.0000   0.0000   0.0000   0.0000   0.0000   0.0000
     0.0000   0.0000   0.0000   0.0000   0.0000   0.0000   0.0000   0.0000
     0.0000   0.0000   0.0000   0.0000   0.0000   0.0000   0.0000   0.0000

[...]

          k = 0.3333-0.2695 0.3576 (  3170 PWs)   bands (ev):

  -106.7406-106.7394 -64.2109 -64.2043 -64.0766 -64.0704 -64.0697 -64.0647
   -46.8158 -46.8152 -46.8128 -46.8111 -18.7614 -18.7601 -18.7521 -18.7518
   -18.7437 -18.7278 -18.7214 -18.7178 -18.7122 -18.7114 -18.6912 -18.6889
    -4.7855  -4.4417   1.4465   1.9051   2.2185   2.4693   2.7233   2.7674
     2.7735   3.1214   3.1451   3.3159   3.3418   3.4665   3.7147   3.9448
     4.0390   4.7280   7.7217   7.9899   8.5447   8.8891   9.4523   9.7492
    11.3514  11.5689  11.5994  12.5192  12.7589  13.3639  13.5512  13.6730
    14.0931  14.1684  14.8458  15.2335  15.2924  15.8392  16.0913  16.8544

     occupation numbers
     1.0000   1.0000   1.0000   1.0000   1.0000   1.0000   1.0000   1.0000
     1.0000   1.0000   1.0000   1.0000   1.0000   1.0000   1.0000   1.0000
     1.0000   1.0000   1.0000   1.0000   1.0000   1.0000   1.0000   1.0000
     1.0000   1.0000   1.0000   1.0000   1.0000   1.0000   1.0000   1.0000
     1.0000   1.0000   1.0000   1.0000   1.0000   1.0000   1.0000   1.0000
     1.0000   1.0000   0.0000   0.0000   0.0000   0.0000   0.0000   0.0000
     0.0000   0.0000   0.0000   0.0000   0.0000   0.0000   0.0000   0.0000
     0.0000   0.0000   0.0000   0.0000   0.0000   0.0000   0.0000   0.0000

     highest occupied, lowest unoccupied level (ev):     5.2164    5.9522

!    total energy              =   -1225.38565189 Ry
     estimated scf accuracy    <       0.00000047 Ry

     The total energy is the sum of the following terms:
     one-electron contribution =   -1169.47627081 Ry
     hartree contribution      =     605.78682183 Ry
     xc contribution           =    -153.52217751 Ry
     ewald contribution        =    -508.17402541 Ry

     convergence has been achieved in  11 iterations

     Writing all to output data dir calculations_bands/myprefix.save/

     General routines

     Parallel routines

   This run was terminated on:   4:16:56   7Jun2023

   JOB DONE.