     Program PWSCF v.7.0 starts on 23Jun2023 at  8: 8:38

     K-points division:     npool     =       2
     R & G space division:  proc/nbgrp/npool/nimage =       4

     Reading input from espresso_451.pwi
Warning: card &CELL ignored
Warning: card / ignored

     Current dimensions of program PWSCF are:
     Max number of different atomic species (ntypx) = 10
     Max number of k-points (npk) =  40000
     Max angular momentum in pseudopotentials (lmaxx) =  4
     Message from routine setup:
     using ibrav=0 with symmetry is DISCOURAGED, use correct ibrav instead

     Using Slab Decomposition

     bravais-lattice index     =            0
     lattice parameter (alat)  =      13.1629  a.u.
     unit-cell volume          =    1168.9450 (a.u.)^3
     number of atoms/cell      =            9
     number of atomic types    =            3
     number of electrons       =       144.00
     number of Kohn-Sham states=           90
     kinetic-energy cutoff     =      30.0000  Ry
     charge density cutoff     =     240.0000  Ry
     scf convergence threshold =      1.0E-06
     mixing beta               =       0.7000
     number of iterations used =            8  plain     mixing
     Exchange-correlation= PBE
                           (   1   4   3   4   0   0   0)

     celldm(1)=  13.162937  celldm(2)=   0.000000  celldm(3)=   0.000000
     celldm(4)=   0.000000  celldm(5)=   0.000000  celldm(6)=   0.000000

     crystal axes: (cart. coord. in units of alat)
               a(1) = (   1.000000   0.000000   0.000000 )
               a(2) = (  -0.500000   0.866025   0.000000 )
               a(3) = (   0.000000   0.000000   0.591841 )

     reciprocal axes: (cart. coord. in units 2 pi/alat)
               b(1) = (  1.000000  0.577350  0.000000 )
               b(2) = (  0.000000  1.154701  0.000000 )
               b(3) = (  0.000000  0.000000  1.689643 )

     PseudoPot. # 1 for Lu read from file:
     /home/pragov/projects/rrg-bengioy-ad/pragov/crystal_structure_design/SSSP/Lu.GGA-PBE-paw-v1.0.UPF
     MD5 check sum: 9ceca61ee0c17e9380a83635bfffa61d
     Pseudo is Projector augmented-wave + core cor, Zval = 25.0
     Generated using ATOMPAW code
     Shape of augmentation charge: BESSEL
     Using radial grid of 1118 points,  8 beta functions with:
                l(1) =   0
                l(2) =   0
                l(3) =   1
                l(4) =   1
                l(5) =   2
                l(6) =   2
                l(7) =   3
                l(8) =   3
     Q(r) pseudized with 0 coefficients

     PseudoPot. # 2 for Si read from file:
     /home/pragov/projects/rrg-bengioy-ad/pragov/crystal_structure_design/SSSP/Si.pbe-n-rrkjus_psl.1.0.0.UPF
     MD5 check sum: 0b0bb1205258b0d07b9f9672cf965d36
     Pseudo is Ultrasoft + core correction, Zval =  4.0
     Generated using "atomic" code by A. Dal Corso  v.5.1
     Using radial grid of 1141 points,  6 beta functions with:
                l(1) =   0
                l(2) =   0
                l(3) =   1
                l(4) =   1
                l(5) =   2
                l(6) =   2
     Q(r) pseudized with 0 coefficients

     PseudoPot. # 3 for Ag read from file:
     /home/pragov/projects/rrg-bengioy-ad/pragov/crystal_structure_design/SSSP/Ag_ONCV_PBE-1.0.oncvpsp.upf
     MD5 check sum: 94f47bd0669c641108e45594df92fabc
     Pseudo is Norm-conserving, Zval = 19.0
     Generated using ONCVPSP code by D. R. Hamann
     Using radial grid of 1398 points,  6 beta functions with:
                l(1) =   0
                l(2) =   0
                l(3) =   1
                l(4) =   1
                l(5) =   2
                l(6) =   2

     atomic species   valence    mass     pseudopotential
        Lu            25.00   174.96680     Lu( 1.00)
        Si             4.00    28.08500     Si( 1.00)
        Ag            19.00   107.86820     Ag( 1.00)

     12 Sym. Ops. (no inversion) found

                                    s                        frac. trans.

      isym =  1     identity

 cryst.   s( 1) = (     1          0          0      )
                  (     0          1          0      )
                  (     0          0          1      )

 cart.    s( 1) = (  1.0000000  0.0000000  0.0000000 )
                  (  0.0000000  1.0000000  0.0000000 )
                  (  0.0000000  0.0000000  1.0000000 )

      isym =  2     180 deg rotation - cart. axis [1,0,0]

[...]

      isym =  3     120 deg rotation - cryst. axis [0,0,1]

[...]

      isym =  6     180 deg rotation - cryst. axis [1,1,0]

[...]

      isym =  7     inv. 180 deg rotation - cart. axis [0,0,1]

[...]

      isym =  8     inv. 180 deg rotation - cart. axis [0,1,0]

[...]

      isym =  9     inv.  60 deg rotation - cryst. axis [0,0,1]

 cryst.   s( 9) = (    -1         -1          0      )
                  (     1          0          0      )
                  (     0          0         -1      )

 cart.    s( 9) = ( -0.4999999  0.8660254  0.0000000 )
                  ( -0.8660254 -0.5000001  0.0000000 )
                  (  0.0000000  0.0000000 -1.0000000 )

[...]

 cryst.   s(10) = (     0          1          0      )
                  (    -1         -1          0      )
                  (     0          0         -1      )

 cart.    s(10) = ( -0.5000001 -0.8660254  0.0000000 )
                  (  0.8660254 -0.4999999  0.0000000 )
                  (  0.0000000  0.0000000 -1.0000000 )

[...]

      isym = 12     inv. 180 deg rotation - cryst. axis [2,1,0]

 cryst.   s(12) = (    -1         -1          0      )
                  (     0          1          0      )
                  (     0          0          1      )

 cart.    s(12) = ( -0.4999999 -0.8660255  0.0000000 )
                  ( -0.8660254  0.4999999  0.0000000 )
                  (  0.0000000  0.0000000  1.0000000 )

   Cartesian axes

     site n.     atom                  positions (alat units)
         1           Lu  tau(   1) = (   0.2104595   0.3645265   0.2959205  )
         2           Lu  tau(   2) = (   0.5790810   0.0000000   0.2959205  )
         3           Lu  tau(   3) = (   0.7104595   0.5014988   0.2959205  )
         4           Si  tau(   4) = (   0.5000005   0.2886748   0.0000000  )
         5           Si  tau(   5) = (  -0.0000005   0.5773505   0.0000000  )
         6           Si  tau(   6) = (   0.0000000   0.0000000   0.2959205  )
         7           Ag  tau(   7) = (   0.3745310   0.6487067   0.0000000  )
         8           Ag  tau(   8) = (   0.2509380   0.0000000   0.0000000  )
         9           Ag  tau(   9) = (  -0.1254690   0.2173187   0.0000000  )

   Crystallographic axes

     site n.     atom                  positions (cryst. coord.)
         1           Lu  tau(   1) = (  0.4209190  0.4209190  0.5000000  )
         2           Lu  tau(   2) = (  0.5790810  0.0000000  0.5000000  )
         3           Lu  tau(   3) = (  1.0000000  0.5790810  0.5000000  )
         4           Si  tau(   4) = (  0.6666670  0.3333330  0.0000000  )
         5           Si  tau(   5) = (  0.3333330  0.6666670  0.0000000  )
         6           Si  tau(   6) = (  0.0000000  0.0000000  0.5000000  )
         7           Ag  tau(   7) = (  0.7490620  0.7490620  0.0000000  )
         8           Ag  tau(   8) = (  0.2509380  0.0000000  0.0000000  )
         9           Ag  tau(   9) = (  0.0000000  0.2509380  0.0000000  )

     number of k points=     6
                       cart. coord. in units 2pi/alat
        k(    1) = (   0.0000000   0.0000000   0.0000000), wk =   0.0740741
        k(    2) = (   0.0000000   0.0000000   0.5632144), wk =   0.1481481
        k(    3) = (   0.0000000   0.3849002   0.0000000), wk =   0.4444444
        k(    4) = (   0.0000000   0.3849002   0.5632144), wk =   0.8888889
        k(    5) = (   0.3333333   0.5773503   0.0000000), wk =   0.1481481
        k(    6) = (   0.3333333   0.5773503   0.5632144), wk =   0.2962963

                       cryst. coord.
        k(    1) = (   0.0000000   0.0000000   0.0000000), wk =   0.0740741
        k(    2) = (   0.0000000   0.0000000   0.3333333), wk =   0.1481481
        k(    3) = (   0.0000000   0.3333333   0.0000000), wk =   0.4444444
        k(    4) = (   0.0000000   0.3333333   0.3333333), wk =   0.8888889
        k(    5) = (   0.3333333   0.3333333   0.0000000), wk =   0.1481481
        k(    6) = (   0.3333333   0.3333333   0.3333333), wk =   0.2962963

     Initial potential from superposition of free atoms

     starting charge     143.9861, renormalised to     144.0000
     Starting wfcs are  138 randomized atomic wfcs
     Checking if some PAW data can be deallocated...

     Self-consistent Calculation

     iteration #  1     ecut=    30.00 Ry     beta= 0.70
     Davidson diagonalization with overlap

     ethr =  1.00E-02,  avg # of iterations =  4.3

     Threshold (ethr) on eigenvalues was too large:
     Diagonalizing with lowered threshold

     Davidson diagonalization with overlap

[...]

     total energy              =   -4136.23104677 Ry
     estimated scf accuracy    <       0.31190767 Ry

[...]

     total energy              =   -4136.35273862 Ry
     estimated scf accuracy    <       0.00000416 Ry

     iteration #  8     ecut=    30.00 Ry     beta= 0.70
     Davidson diagonalization with overlap

     ethr =  2.89E-09,  avg # of iterations =  3.0

     End of self-consistent calculation

          k = 0.0000 0.0000 0.0000 (  3253 PWs)   bands (ev):

   -78.7906 -78.7886 -78.7886 -41.8550 -41.8280 -41.8279 -41.8084 -41.8039
   -41.8039 -41.7857 -41.7856 -41.7736 -40.9607 -40.9525 -40.9525 -11.7217
   -11.7057 -11.7057 -11.6243 -11.6227 -11.5934 -11.5934 -11.5097 -11.5096
     5.3389   6.9203   7.5570   9.0817   9.3364   9.3364   9.3794   9.6297
     9.6297   9.8199   9.8199   9.8547   9.8547  10.0465  10.0880  10.0880
    10.3135  10.3868  10.3868  10.4123  10.4203  10.4223  10.4248  10.4248
    10.4296  10.4401  10.4401  10.4401  10.4509  10.4618  10.4618  10.4678
    10.4679  10.4829  10.4829  10.4994  10.4994  10.6204  11.2060  11.2060
    11.5968  11.9738  11.9738  14.0543  14.5783  14.8329  15.4997  15.4998
    16.2389  16.2389  16.4948  16.4948  16.8893  16.9413  18.0609  18.6655
    18.9930  18.9930  19.0799  19.0799  20.0194  20.8055  20.8055  20.9055
    21.0176  21.9287

     occupation numbers
     1.0000   1.0000   1.0000   1.0000   1.0000   1.0000   1.0000   1.0000
     1.0000   1.0000   1.0000   1.0000   1.0000   1.0000   1.0000   1.0000
     1.0000   1.0000   1.0000   1.0000   1.0000   1.0000   1.0000   1.0000
     1.0000   1.0000   1.0000   1.0000   1.0000   1.0000   1.0000   1.0000
     1.0000   1.0000   1.0000   1.0000   1.0000   1.0000   1.0000   1.0000
     1.0000   1.0000   1.0000   1.0000   1.0000   1.0000   1.0000   1.0000
     1.0000   1.0000   1.0000   1.0000   1.0000   1.0000   1.0000   1.0000
     1.0000   1.0000   1.0000   1.0000   1.0000   1.0000   1.0000   1.0000
     1.0000   1.0000   1.0000   1.0000   1.0000   1.0000   1.0000   1.0000
     0.0000   0.0000   0.0000   0.0000   0.0000   0.0000   0.0000   0.0000
     0.0000   0.0000   0.0000   0.0000   0.0000   0.0000   0.0000   0.0000
     0.0000   0.0000

[...]

          k = 0.3333 0.5774 0.5632 (  3255 PWs)   bands (ev):

   -78.7906 -78.7887 -78.7886 -41.8573 -41.8302 -41.8302 -41.8035 -41.8014
   -41.8014 -41.7852 -41.7851 -41.7781 -40.9560 -40.9560 -40.9522 -11.6852
   -11.6848 -11.6848 -11.6467 -11.6467 -11.6292 -11.5870 -11.5870 -11.5258
     6.6781   7.1034   7.1034   8.7758   9.3286   9.3287   9.6476   9.6619
     9.6619   9.8838   9.9753   9.9753  10.0589  10.1167  10.1639  10.1639
    10.1928  10.1928  10.4068  10.4068  10.4117  10.4269  10.4269  10.4289
    10.4392  10.4404  10.4404  10.4417  10.4474  10.4474  10.4566  10.4609
    10.4609  10.4620  10.4874  10.4874  10.5212  10.5212  10.5216  11.7320
    12.0647  12.0647  12.8767  12.8767  13.0547  13.8847  13.8848  14.7849
    16.4289  16.4289  16.5215  17.2676  17.7052  17.7052  18.1106  18.4109
    18.4110  19.6130  19.6130  20.1763  20.1763  20.2042  20.5670  21.1091
    21.1091  21.4485

     occupation numbers
     1.0000   1.0000   1.0000   1.0000   1.0000   1.0000   1.0000   1.0000
     1.0000   1.0000   1.0000   1.0000   1.0000   1.0000   1.0000   1.0000
     1.0000   1.0000   1.0000   1.0000   1.0000   1.0000   1.0000   1.0000
     1.0000   1.0000   1.0000   1.0000   1.0000   1.0000   1.0000   1.0000
     1.0000   1.0000   1.0000   1.0000   1.0000   1.0000   1.0000   1.0000
     1.0000   1.0000   1.0000   1.0000   1.0000   1.0000   1.0000   1.0000
     1.0000   1.0000   1.0000   1.0000   1.0000   1.0000   1.0000   1.0000
     1.0000   1.0000   1.0000   1.0000   1.0000   1.0000   1.0000   1.0000
     1.0000   1.0000   1.0000   1.0000   1.0000   1.0000   1.0000   1.0000
     0.0000   0.0000   0.0000   0.0000   0.0000   0.0000   0.0000   0.0000
     0.0000   0.0000   0.0000   0.0000   0.0000   0.0000   0.0000   0.0000
     0.0000   0.0000

     highest occupied, lowest unoccupied level (ev):    15.4998   15.2394

!    total energy              =   -4136.35274021 Ry
     estimated scf accuracy    <       0.00000054 Ry

     The total energy is the sum of the following terms:
     one-electron contribution =   -1698.96402264 Ry
     hartree contribution      =     803.42470036 Ry
     xc contribution           =    -223.83312340 Ry
     ewald contribution        =   -1544.18684713 Ry
     one-center paw contrib.   =   -1472.79344741 Ry
      -> PAW hartree energy AE =     982.04928460 Ry
      -> PAW hartree energy PS =    -845.28440695 Ry
      -> PAW xc energy AE      =   -1198.65208490 Ry
      -> PAW xc energy PS      =      80.02490898 Ry
      -> total E_H with PAW    =     940.18957801 Ry
      -> total E_XC with PAW   =   -1342.46029932 Ry

     convergence has been achieved in   8 iterations

     Writing all to output data dir calculations_bands/myprefix.save/

     General routines

     Parallel routines

     PAW routines

   This run was terminated on:   8: 8:56  23Jun2023

   JOB DONE.