     Program PWSCF v.7.0 starts on  6Jun2023 at 15:45: 0

     K-points division:     npool     =       2
     R & G space division:  proc/nbgrp/npool/nimage =       4

     Reading input from espresso_19286.pwi
Warning: card &CELL ignored
Warning: card / ignored

     Current dimensions of program PWSCF are:
     Max number of different atomic species (ntypx) = 10
     Max number of k-points (npk) =  40000
     Max angular momentum in pseudopotentials (lmaxx) =  4
     file Mg.pbe-n-kjpaw_psl.0.3.0.UPF: wavefunction(s)  3S renormalized
     Message from routine setup:
     using ibrav=0 with symmetry is DISCOURAGED, use correct ibrav instead

     Using Slab Decomposition

     bravais-lattice index     =            0
     lattice parameter (alat)  =      14.1180  a.u.
     unit-cell volume          =     652.7111 (a.u.)^3
     number of atoms/cell      =            6
     number of atomic types    =            2
     number of electrons       =       102.00
     number of Kohn-Sham states=           64
     kinetic-energy cutoff     =      30.0000  Ry
     charge density cutoff     =     240.0000  Ry
     scf convergence threshold =      1.0E-06
     mixing beta               =       0.7000
     number of iterations used =            8  plain     mixing
     Exchange-correlation= SLA  PW   PBE  PBE
                           (   1   4   3   4   0   0   0)

     celldm(1)=  14.117967  celldm(2)=   0.000000  celldm(3)=   0.000000
     celldm(4)=   0.000000  celldm(5)=   0.000000  celldm(6)=   0.000000

     crystal axes: (cart. coord. in units of alat)
               a(1) = (   1.000000   0.000000   0.000000 )
               a(2) = (  -0.925272   0.379304   0.000000 )
               a(3) = (   0.000000   0.000000   0.611529 )

     reciprocal axes: (cart. coord. in units 2 pi/alat)
               b(1) = (  1.000000  2.439392  0.000000 )
               b(2) = (  0.000000  2.636406  0.000000 )
               b(3) = (  0.000000  0.000000  1.635246 )

     PseudoPot. # 1 for Mg read from file:
     /home/pragov/projects/rrg-bengioy-ad/pragov/crystal_structure_design/SSSP/Mg.pbe-n-kjpaw_psl.0.3.0.UPF
     MD5 check sum: 24ecedc7f3e3cbe212e682f4413594e4
     Pseudo is Projector augmented-wave + core cor, Zval =  2.0
     Generated using "atomic" code by A. Dal Corso  v.5.0.99 svn rev. 10869
     Shape of augmentation charge: PSQ
     Using radial grid of 1129 points,  4 beta functions with:
                l(1) =   0
                l(2) =   0
                l(3) =   1
                l(4) =   1
     Q(r) pseudized with 0 coefficients

     PseudoPot. # 2 for Zn read from file:
     /home/pragov/projects/rrg-bengioy-ad/pragov/crystal_structure_design/SSSP/Zn_pbe_v1.uspp.F.UPF
     MD5 check sum: df62231357ef9e81f77b2b3087fa5675
     Pseudo is Ultrasoft, Zval = 20.0
     Generated by new atomic code, or converted to UPF format
     Using radial grid of  943 points,  6 beta functions with:
                l(1) =   0
                l(2) =   0
                l(3) =   1
                l(4) =   1
                l(5) =   2
                l(6) =   2
     Q(r) pseudized with  8 coefficients,  rinner =    1.100   1.100   1.100
                                                       1.100   1.100

     atomic species   valence    mass     pseudopotential
        Mg             2.00    24.30500     Mg( 1.00)
        Zn            20.00    65.38000     Zn( 1.00)

      2 Sym. Ops. (no inversion) found

                                    s                        frac. trans.

      isym =  1     identity

 cryst.   s( 1) = (     1          0          0      )
                  (     0          1          0      )
                  (     0          0          1      )

 cart.    s( 1) = (  1.0000000  0.0000000  0.0000000 )
                  (  0.0000000  1.0000000  0.0000000 )
                  (  0.0000000  0.0000000  1.0000000 )

      isym =  2     inv. 180 deg rotation - cart. axis [0,0,1]

 cryst.   s( 2) = (     1          0          0      )
                  (     0          1          0      )
                  (     0          0         -1      )

 cart.    s( 2) = (  1.0000000  0.0000000  0.0000000 )
                  (  0.0000000  1.0000000  0.0000000 )
                  (  0.0000000  0.0000000 -1.0000000 )

   Cartesian axes

     site n.     atom                  positions (alat units)
         1           Mg  tau(   1) = (   0.5719273   0.0843360   0.3057643  )
         2           Zn  tau(   2) = (  -0.9242189   0.3790968   0.0000000  )
         3           Zn  tau(   3) = (  -0.2751173   0.2512151   0.0000000  )
         4           Zn  tau(   4) = (   0.3523269   0.1276002   0.0000000  )
         5           Zn  tau(   5) = (  -0.7208947   0.3390392   0.3057643  )
         6           Zn  tau(   6) = (  -0.0633566   0.2094954   0.3057643  )

   Crystallographic axes

     site n.     atom                  positions (cryst. coord.)
         1           Mg  tau(   1) = (  0.7776560  0.2223440  0.5000000  )
         2           Zn  tau(   2) = (  0.0005470  0.9994530  0.0000000  )
         3           Zn  tau(   3) = (  0.3376950  0.6623050  0.0000000  )
         4           Zn  tau(   4) = (  0.6635940  0.3364060  0.0000000  )
         5           Zn  tau(   5) = (  0.1061550  0.8938450  0.5000000  )
         6           Zn  tau(   6) = (  0.4476850  0.5523150  0.5000000  )

     number of k points=    10
                       cart. coord. in units 2pi/alat
        k(    1) = (   0.0000000   0.0000000   0.0000000), wk =   0.0740741
        k(    2) = (   0.0000000   0.0000000   0.5450821), wk =   0.1481481
        k(    3) = (   0.0000000   0.8788019   0.0000000), wk =   0.1481481
        k(    4) = (   0.0000000   0.8788019   0.5450821), wk =   0.2962963
        k(    5) = (   0.3333333   0.8131308   0.0000000), wk =   0.1481481
        k(    6) = (   0.3333333   0.8131308   0.5450821), wk =   0.2962963
        k(    7) = (   0.3333333   1.6919328   0.0000000), wk =   0.1481481
        k(    8) = (   0.3333333   1.6919328   0.5450821), wk =   0.2962963
        k(    9) = (   0.3333333  -0.0656711   0.0000000), wk =   0.1481481
        k(   10) = (   0.3333333  -0.0656711   0.5450821), wk =   0.2962963

                       cryst. coord.
        k(    1) = (   0.0000000   0.0000000   0.0000000), wk =   0.0740741
        k(    2) = (   0.0000000   0.0000000   0.3333333), wk =   0.1481481
        k(    3) = (   0.0000000   0.3333333   0.0000000), wk =   0.1481481
        k(    4) = (   0.0000000   0.3333333   0.3333333), wk =   0.2962963
        k(    5) = (   0.3333333  -0.0000000   0.0000000), wk =   0.1481481
        k(    6) = (   0.3333333  -0.0000000   0.3333333), wk =   0.2962963
        k(    7) = (   0.3333333   0.3333333   0.0000000), wk =   0.1481481
        k(    8) = (   0.3333333   0.3333333   0.3333333), wk =   0.2962963
        k(    9) = (   0.3333333  -0.3333333   0.0000000), wk =   0.1481481
        k(   10) = (   0.3333333  -0.3333333   0.3333333), wk =   0.2962963

     Initial potential from superposition of free atoms

     starting charge     101.9984, renormalised to     102.0000
     Starting wfcs are   69 randomized atomic wfcs
     Checking if some PAW data can be deallocated...

     Self-consistent Calculation

     iteration #  1     ecut=    30.00 Ry     beta= 0.70
     Davidson diagonalization with overlap

     ethr =  1.00E-02,  avg # of iterations =  3.9

     Threshold (ethr) on eigenvalues was too large:
     Diagonalizing with lowered threshold

     Davidson diagonalization with overlap

[...]

     total energy              =   -2340.84799813 Ry
     estimated scf accuracy    <       0.30507310 Ry

[...]

     total energy              =   -2341.02623552 Ry
     estimated scf accuracy    <       0.00000177 Ry

     iteration # 10     ecut=    30.00 Ry     beta= 0.70
     Davidson diagonalization with overlap

     ethr =  1.74E-09,  avg # of iterations =  2.0

     End of self-consistent calculation

          k = 0.0000 0.0000 0.0000 (  1819 PWs)   bands (ev):

  -115.2281-115.2111-115.2096-115.1305-115.1238 -69.3281 -69.3162 -69.3139
   -69.3042 -69.3038 -69.3016 -69.2942 -69.2902 -69.2878 -69.2337 -69.2203
   -69.2196 -69.2121 -69.2116 -69.1989   1.6687   3.3250   3.3748   3.4043
     3.5479   3.5735   3.7194   3.7519   3.8589   3.8741   3.8983   3.9479
     3.9907   3.9908   4.0086   4.0107   4.0709   4.1157   4.1262   4.1856
     4.2502   4.3511   4.3661   4.3830   4.4126   4.5303   5.0418   5.1551
     8.9557  10.2582  12.0630  12.2492  12.4269  12.6796  13.7870  14.1596
    19.4727  20.1599  20.3927  20.5102  21.1833  21.5553  22.7988  23.2101

     occupation numbers
     1.0000   1.0000   1.0000   1.0000   1.0000   1.0000   1.0000   1.0000
     1.0000   1.0000   1.0000   1.0000   1.0000   1.0000   1.0000   1.0000
     1.0000   1.0000   1.0000   1.0000   1.0000   1.0000   1.0000   1.0000
     1.0000   1.0000   1.0000   1.0000   1.0000   1.0000   1.0000   1.0000
     1.0000   1.0000   1.0000   1.0000   1.0000   1.0000   1.0000   1.0000
     1.0000   1.0000   1.0000   1.0000   1.0000   1.0000   1.0000   1.0000
     1.0000   1.0000   1.0000   0.0000   0.0000   0.0000   0.0000   0.0000
     0.0000   0.0000   0.0000   0.0000   0.0000   0.0000   0.0000   0.0000

[...]

          k = 0.3333-0.0657 0.5451 (  1818 PWs)   bands (ev):

  -115.2277-115.2108-115.2092-115.1295-115.1243 -69.3215 -69.3165 -69.3157
   -69.3068 -69.3029 -69.2972 -69.2958 -69.2928 -69.2806 -69.2336 -69.2237
   -69.2199 -69.2168 -69.2031 -69.1951   2.6992   3.2904   3.4213   3.4525
     3.5134   3.6228   3.6861   3.7496   3.7901   3.8708   3.8766   3.9107
     3.9341   3.9782   4.0033   4.0562   4.0856   4.1291   4.1914   4.2233
     4.2363   4.2834   4.3886   4.4122   4.4162   4.4650   4.5696   5.7242
     6.8342   8.0502  10.0885  11.5432  13.5767  15.6551  16.5317  18.5371
    19.9651  20.1033  20.8528  21.9771  22.3179  22.6869  22.7785  22.9704

     occupation numbers
     1.0000   1.0000   1.0000   1.0000   1.0000   1.0000   1.0000   1.0000
     1.0000   1.0000   1.0000   1.0000   1.0000   1.0000   1.0000   1.0000
     1.0000   1.0000   1.0000   1.0000   1.0000   1.0000   1.0000   1.0000
     1.0000   1.0000   1.0000   1.0000   1.0000   1.0000   1.0000   1.0000
     1.0000   1.0000   1.0000   1.0000   1.0000   1.0000   1.0000   1.0000
     1.0000   1.0000   1.0000   1.0000   1.0000   1.0000   1.0000   1.0000
     1.0000   1.0000   1.0000   0.0000   0.0000   0.0000   0.0000   0.0000
     0.0000   0.0000   0.0000   0.0000   0.0000   0.0000   0.0000   0.0000

     highest occupied, lowest unoccupied level (ev):    12.1056   10.6400

!    total energy              =   -2341.02623591 Ry
     estimated scf accuracy    <       0.00000009 Ry

     The total energy is the sum of the following terms:
     one-electron contribution =   -2100.42597529 Ry
     hartree contribution      =    1080.66254509 Ry
     xc contribution           =    -212.36554424 Ry
     ewald contribution        =   -1077.59183895 Ry
     one-center paw contrib.   =     -31.30542252 Ry
      -> PAW hartree energy AE =       0.97293764 Ry
      -> PAW hartree energy PS =      -0.97072291 Ry
      -> PAW xc energy AE      =     -32.70907208 Ry
      -> PAW xc energy PS      =       1.40143484 Ry
      -> total E_H with PAW    =    1080.66475981 Ry
      -> total E_XC with PAW   =    -243.67318148 Ry

     convergence has been achieved in  10 iterations

     Writing all to output data dir calculations_bands/myprefix.save/

     General routines

     Parallel routines

     PAW routines

   This run was terminated on:  15:45: 9   6Jun2023

   JOB DONE.