     Program PWSCF v.7.0 starts on  6Jun2023 at  1:10:53

     K-points division:     npool     =       2
     R & G space division:  proc/nbgrp/npool/nimage =       4

     Reading input from espresso_13047.pwi
Warning: card &CELL ignored
Warning: card / ignored

     Current dimensions of program PWSCF are:
     Max number of different atomic species (ntypx) = 10
     Max number of k-points (npk) =  40000
     Max angular momentum in pseudopotentials (lmaxx) =  4
     file Ba.pbe-spn-kjpaw_psl.1.0.0.UPF: wavefunction(s)  5S 6S renormalized
     Message from routine setup:
     using ibrav=0 with symmetry is DISCOURAGED, use correct ibrav instead

     Using Slab Decomposition

     bravais-lattice index     =            0
     lattice parameter (alat)  =       9.5634  a.u.
     unit-cell volume          =     850.2242 (a.u.)^3
     number of atoms/cell      =            8
     number of atomic types    =            3
     number of electrons       =        66.00
     number of Kohn-Sham states=           64
     kinetic-energy cutoff     =      30.0000  Ry
     charge density cutoff     =     240.0000  Ry
     scf convergence threshold =      1.0E-06
     mixing beta               =       0.7000
     number of iterations used =            8  plain     mixing
     Exchange-correlation=  SLA  PW   PBX  PBC
                           (   1   4   3   4   0   0   0)

     celldm(1)=   9.563373  celldm(2)=   0.000000  celldm(3)=   0.000000
     celldm(4)=   0.000000  celldm(5)=   0.000000  celldm(6)=   0.000000

     crystal axes: (cart. coord. in units of alat)
               a(1) = (   1.000000   0.000000   0.000000 )
               a(2) = (  -0.129971   0.991518   0.000000 )
               a(3) = (  -0.129971  -0.148120   0.980392 )

     reciprocal axes: (cart. coord. in units 2 pi/alat)
               b(1) = (  1.000000  0.131083  0.152375 )
               b(2) = (  0.000000  1.008555  0.152375 )
               b(3) = (  0.000000  0.000000  1.020001 )

     PseudoPot. # 1 for Ba read from file:
     /home/pragov/projects/rrg-bengioy-ad/pragov/crystal_structure_design/SSSP/Ba.pbe-spn-kjpaw_psl.1.0.0.UPF
     MD5 check sum: c432291d3e53af55f19d5e8866385beb
     Pseudo is Projector augmented-wave + core cor, Zval = 10.0
     Generated using "atomic" code by A. Dal Corso  v.5.1
     Shape of augmentation charge: PSQ
     Using radial grid of 1251 points,  7 beta functions with:
                l(1) =   0
                l(2) =   0
                l(3) =   0
                l(4) =   1
                l(5) =   1
                l(6) =   2
                l(7) =   2
     Q(r) pseudized with 0 coefficients

     PseudoPot. # 2 for Sn read from file:
     /home/pragov/projects/rrg-bengioy-ad/pragov/crystal_structure_design/SSSP/Sn_pbe_v1.uspp.F.UPF
     MD5 check sum: 4cf58ce39ec5d5d420df3dd08604eb00
     Pseudo is Ultrasoft + core correction, Zval = 14.0
     Generated by new atomic code, or converted to UPF format
     Using radial grid of  891 points,  6 beta functions with:
                l(1) =   0
                l(2) =   0
                l(3) =   1
                l(4) =   1
                l(5) =   2
                l(6) =   2
     Q(r) pseudized with  6 coefficients,  rinner =    1.200   1.200   1.200
                                                       1.200   1.200

     PseudoPot. # 3 for F  read from file:
     /home/pragov/projects/rrg-bengioy-ad/pragov/crystal_structure_design/SSSP/f_pbe_v1.4.uspp.F.UPF
     MD5 check sum: 4c38b6a325caf53ec0e86aed9459de46
     Pseudo is Ultrasoft, Zval =  7.0
     Generated by new atomic code, or converted to UPF format
     Using radial grid of  799 points,  4 beta functions with:
                l(1) =   0
                l(2) =   0
                l(3) =   1
                l(4) =   1
     Q(r) pseudized with  8 coefficients,  rinner =    0.950   0.950   0.950

     atomic species   valence    mass     pseudopotential
        Ba            10.00   137.32700     Ba( 1.00)
        Sn            14.00   118.71000     Sn( 1.00)
        F              7.00    18.99840     F ( 1.00)

      2 Sym. Ops., with inversion, found

                                    s                        frac. trans.

      isym =  1     identity

 cryst.   s( 1) = (     1          0          0      )
                  (     0          1          0      )
                  (     0          0          1      )

 cart.    s( 1) = (  1.0000000  0.0000000 -0.0000000 )
                  (  0.0000000  1.0000000 -0.0000000 )
                  (  0.0000000  0.0000000  1.0000000 )

      isym =  2     inversion

 cryst.   s( 2) = (    -1          0          0      )
                  (     0         -1          0      )
                  (     0          0         -1      )

 cart.    s( 2) = ( -1.0000000 -0.0000000  0.0000000 )
                  (  0.0000000 -1.0000000  0.0000000 )
                  (  0.0000000  0.0000000 -1.0000000 )

   Cartesian axes

     site n.     atom                  positions (alat units)
         1           Ba  tau(   1) = (   0.0000000   0.0000000   0.0000000  )
         2           Sn  tau(   2) = (   0.3700289   0.4216989   0.4901958  )
         3           F   tau(   3) = (   0.6647774   0.3152869   0.7327447  )
         4           F   tau(   4) = (   0.5852748   0.7471839   0.4212116  )
         5           F   tau(   5) = (   0.5138471   0.2234637   0.1786685  )
         6           F   tau(   6) = (   0.1547830   0.0962139   0.5591801  )
         7           F   tau(   7) = (   0.0752805   0.5281110   0.2476469  )
         8           F   tau(   8) = (   0.2262107   0.6199341   0.8017231  )

   Crystallographic axes

     site n.     atom                  positions (cryst. coord.)
         1           Ba  tau(   1) = (  0.0000000  0.0000000  0.0000000  )
         2           Sn  tau(   2) = (  0.5000000  0.5000000  0.5000000  )
         3           F   tau(   3) = (  0.8177580  0.4296360  0.7474000  )
         4           F   tau(   4) = (  0.7474000  0.8177580  0.4296360  )
         5           F   tau(   5) = (  0.5703640  0.2526000  0.1822420  )
         6           F   tau(   6) = (  0.2526000  0.1822420  0.5703640  )
         7           F   tau(   7) = (  0.1822420  0.5703640  0.2526000  )
         8           F   tau(   8) = (  0.4296360  0.7474000  0.8177580  )

     number of k points=    14
                       cart. coord. in units 2pi/alat
        k(    1) = (   0.0000000   0.0000000   0.0000000), wk =   0.0740741
        k(    2) = (   0.0000000   0.0000000   0.3400002), wk =   0.1481481
        k(    3) = (   0.0000000   0.3361849   0.0507916), wk =   0.1481481
        k(    4) = (   0.0000000   0.3361849   0.3907918), wk =   0.1481481
        k(    5) = (   0.0000000   0.3361849  -0.2892085), wk =   0.1481481
        k(    6) = (   0.3333333   0.0436943   0.0507916), wk =   0.1481481
        k(    7) = (   0.3333333   0.0436943   0.3907918), wk =   0.1481481
        k(    8) = (   0.3333333   0.0436943  -0.2892085), wk =   0.1481481
        k(    9) = (   0.3333333   0.3798793   0.1015833), wk =   0.1481481
        k(   10) = (   0.3333333   0.3798793   0.4415834), wk =   0.1481481
        k(   11) = (   0.3333333   0.3798793  -0.2384169), wk =   0.1481481
        k(   12) = (   0.3333333  -0.2924906  -0.0000000), wk =   0.1481481
        k(   13) = (   0.3333333  -0.2924906   0.3400002), wk =   0.1481481
        k(   14) = (   0.3333333  -0.2924906  -0.3400002), wk =   0.1481481

                       cryst. coord.
        k(    1) = (   0.0000000   0.0000000   0.0000000), wk =   0.0740741
        k(    2) = (   0.0000000   0.0000000   0.3333333), wk =   0.1481481
        k(    3) = (   0.0000000   0.3333333   0.0000000), wk =   0.1481481
        k(    4) = (   0.0000000   0.3333333   0.3333333), wk =   0.1481481
        k(    5) = (   0.0000000   0.3333333  -0.3333333), wk =   0.1481481
        k(    6) = (   0.3333333   0.0000000  -0.0000000), wk =   0.1481481
        k(    7) = (   0.3333333   0.0000000   0.3333333), wk =   0.1481481
        k(    8) = (   0.3333333   0.0000000  -0.3333333), wk =   0.1481481
        k(    9) = (   0.3333333   0.3333333   0.0000000), wk =   0.1481481
        k(   10) = (   0.3333333   0.3333333   0.3333333), wk =   0.1481481
        k(   11) = (   0.3333333   0.3333333  -0.3333333), wk =   0.1481481
        k(   12) = (   0.3333333  -0.3333333   0.0000000), wk =   0.1481481
        k(   13) = (   0.3333333  -0.3333333   0.3333333), wk =   0.1481481
        k(   14) = (   0.3333333  -0.3333333  -0.3333333), wk =   0.1481481

     Check: negative core charge=   -0.000001

     Initial potential from superposition of free atoms

     starting charge      64.9829, renormalised to      66.0000
     Starting wfcs are   38 randomized atomic wfcs +   26 random wfcs
     Checking if some PAW data can be deallocated...

     Self-consistent Calculation

     iteration #  1     ecut=    30.00 Ry     beta= 0.70
     Davidson diagonalization with overlap

     ethr =  1.00E-02,  avg # of iterations =  6.8

     Threshold (ethr) on eigenvalues was too large:
     Diagonalizing with lowered threshold

     Davidson diagonalization with overlap

[...]

     total energy              =    -891.63011517 Ry
     estimated scf accuracy    <       0.58542163 Ry

[...]

     total energy              =    -891.87243094 Ry
     estimated scf accuracy    <       0.00000242 Ry

     iteration #  7     ecut=    30.00 Ry     beta= 0.70
     Davidson diagonalization with overlap

     ethr =  3.67E-09,  avg # of iterations =  2.0

     End of self-consistent calculation

          k = 0.0000 0.0000 0.0000 (  2349 PWs)   bands (ev):

   -20.6913 -18.1145 -18.1143 -17.8368 -17.2904 -17.2189 -17.2186 -15.7874
   -15.7874 -15.7652 -14.7076 -14.7075  -5.8259  -5.7997  -5.7996  -2.6770
    -0.1061   0.2349   0.2351   0.8732   0.8732   1.1195   1.5027   1.5028
     1.6839   1.7035   1.7037   1.9613   1.9811   1.9812   2.4003   2.4005
     2.7035   7.6304  12.2051  12.2052  12.6341  12.7521  12.7521  13.5736
    13.5800  13.5800  14.8127  17.7258  17.7259  18.0897  18.0898  18.2516
    18.2883  18.9394  21.7570  21.7570  22.4678  22.4679  22.7210  22.7210
    22.9613  23.7412  24.8345  25.0784  25.2836  25.2836  26.9191  27.4883

     occupation numbers
     1.0000   1.0000   1.0000   1.0000   1.0000   1.0000   1.0000   1.0000
     1.0000   1.0000   1.0000   1.0000   1.0000   1.0000   1.0000   1.0000
     1.0000   1.0000   1.0000   1.0000   1.0000   1.0000   1.0000   1.0000
     1.0000   1.0000   1.0000   1.0000   1.0000   1.0000   1.0000   1.0000
     1.0000   0.0000   0.0000   0.0000   0.0000   0.0000   0.0000   0.0000
     0.0000   0.0000   0.0000   0.0000   0.0000   0.0000   0.0000   0.0000
     0.0000   0.0000   0.0000   0.0000   0.0000   0.0000   0.0000   0.0000
     0.0000   0.0000   0.0000   0.0000   0.0000   0.0000   0.0000   0.0000

[...]

          k = 0.3333-0.2925-0.3400 (  2350 PWs)   bands (ev):

   -20.6455 -18.1640 -18.1334 -17.7414 -17.3978 -17.2215 -17.1971 -15.7854
   -15.7854 -15.7617 -14.7503 -14.7172  -5.8964  -5.7632  -5.7270  -2.5293
    -0.2568  -0.0064   0.1663   1.0070   1.0786   1.3255   1.3992   1.5205
     1.6350   1.7505   1.8173   1.8769   1.9370   2.2402   2.2878   2.4022
     2.4820   8.6704  11.5679  11.6691  11.7469  12.7137  12.7854  13.2768
    14.0569  15.0391  15.7081  16.6156  17.2427  17.3680  18.4957  18.6027
    18.8326  19.6713  19.8104  20.9931  21.3156  22.0450  22.1484  23.2554
    23.6054  23.9584  24.1228  24.6571  24.8292  25.0223  25.3239  25.5280

     occupation numbers
     1.0000   1.0000   1.0000   1.0000   1.0000   1.0000   1.0000   1.0000
     1.0000   1.0000   1.0000   1.0000   1.0000   1.0000   1.0000   1.0000
     1.0000   1.0000   1.0000   1.0000   1.0000   1.0000   1.0000   1.0000
     1.0000   1.0000   1.0000   1.0000   1.0000   1.0000   1.0000   1.0000
     1.0000   0.0000   0.0000   0.0000   0.0000   0.0000   0.0000   0.0000
     0.0000   0.0000   0.0000   0.0000   0.0000   0.0000   0.0000   0.0000
     0.0000   0.0000   0.0000   0.0000   0.0000   0.0000   0.0000   0.0000
     0.0000   0.0000   0.0000   0.0000   0.0000   0.0000   0.0000   0.0000

     highest occupied, lowest unoccupied level (ev):     2.7035    7.6304

!    total energy              =    -891.87243115 Ry
     estimated scf accuracy    <       0.00000008 Ry

     The total energy is the sum of the following terms:
     one-electron contribution =    -243.32128302 Ry
     hartree contribution      =     163.29454169 Ry
     xc contribution           =    -124.30331926 Ry
     ewald contribution        =    -312.59060318 Ry
     one-center paw contrib.   =    -374.95176738 Ry
      -> PAW hartree energy AE =      28.36519088 Ry
      -> PAW hartree energy PS =     -28.25063288 Ry
      -> PAW xc energy AE      =    -394.17592080 Ry
      -> PAW xc energy PS      =      19.10959542 Ry
      -> total E_H with PAW    =     163.40909969 Ry
      -> total E_XC with PAW   =    -499.36964464 Ry

     convergence has been achieved in   7 iterations

     Writing all to output data dir calculations_bands/myprefix.save/

     General routines

     Parallel routines

     PAW routines

   This run was terminated on:   1:11: 9   6Jun2023

   JOB DONE.