     Program PWSCF v.7.0 starts on  5Jun2023 at 22:34:40

     K-points division:     npool     =       2
     R & G space division:  proc/nbgrp/npool/nimage =       4

     Reading input from espresso_12142.pwi
Warning: card &CELL ignored
Warning: card / ignored

     Current dimensions of program PWSCF are:
     Max number of different atomic species (ntypx) = 10
     Max number of k-points (npk) =  40000
     Max angular momentum in pseudopotentials (lmaxx) =  4
     file O.pbe-n-kjpaw_psl.0.1.UPF: wavefunction(s)  2P renormalized
     Message from routine setup:
     using ibrav=0 with symmetry is DISCOURAGED, use correct ibrav instead

     Using Slab Decomposition

     bravais-lattice index     =            0
     lattice parameter (alat)  =       7.2447  a.u.
     unit-cell volume          =    1213.5332 (a.u.)^3
     number of atoms/cell      =           13
     number of atomic types    =            5
     number of electrons       =       124.00
     number of Kohn-Sham states=           64
     kinetic-energy cutoff     =      30.0000  Ry
     charge density cutoff     =     240.0000  Ry
     scf convergence threshold =      1.0E-06
     mixing beta               =       0.7000
     number of iterations used =            8  plain     mixing
     Exchange-correlation= SLA  PW   PBX  PBC
                           (   1   4   3   4   0   0   0)

     celldm(1)=   7.244747  celldm(2)=   0.000000  celldm(3)=   0.000000
     celldm(4)=   0.000000  celldm(5)=   0.000000  celldm(6)=   0.000000

     crystal axes: (cart. coord. in units of alat)
               a(1) = (   1.000000   0.000000   0.000000 )
               a(2) = (   0.000000   1.003550   0.000000 )
               a(3) = (   0.000000   0.000000   3.180116 )

     reciprocal axes: (cart. coord. in units 2 pi/alat)
               b(1) = (  1.000000  0.000000  0.000000 )
               b(2) = (  0.000000  0.996463  0.000000 )
               b(3) = (  0.000000  0.000000  0.314454 )

     PseudoPot. # 1 for Sr read from file:
     /home/pragov/projects/rrg-bengioy-ad/pragov/crystal_structure_design/SSSP/Sr_pbe_v1.uspp.F.UPF
     MD5 check sum: 6b418c05fbe9db5448babca5e47b7a5b
     Pseudo is Ultrasoft + core correction, Zval = 10.0
     Generated by new atomic code, or converted to UPF format
     Using radial grid of  883 points,  6 beta functions with:
                l(1) =   0
                l(2) =   0
                l(3) =   1
                l(4) =   1
                l(5) =   2
                l(6) =   2
     Q(r) pseudized with  6 coefficients,  rinner =    1.400   1.400   1.400
                                                       1.400   1.400

     PseudoPot. # 2 for Y  read from file:
     /home/pragov/projects/rrg-bengioy-ad/pragov/crystal_structure_design/SSSP/Y_pbe_v1.uspp.F.UPF
     MD5 check sum: 2cf71db95cafeb975fc457bd7f14888e
     Pseudo is Ultrasoft + core correction, Zval = 11.0
     Generated by new atomic code, or converted to UPF format
     Using radial grid of  885 points,  6 beta functions with:
                l(1) =   0
                l(2) =   0
                l(3) =   1
                l(4) =   1
                l(5) =   2
                l(6) =   2
     Q(r) pseudized with  6 coefficients,  rinner =    1.200   1.200   1.200
                                                       1.200   1.200

     PseudoPot. # 3 for Tl read from file:
     /home/pragov/projects/rrg-bengioy-ad/pragov/crystal_structure_design/SSSP/Tl_pbe_v1.2.uspp.F.UPF
     MD5 check sum: b76cf1f7e72655a2b2c53cf6385d7059
     Pseudo is Ultrasoft + core correction, Zval = 13.0
     Generated by new atomic code, or converted to UPF format
     Using radial grid of  899 points,  6 beta functions with:
                l(1) =   0
                l(2) =   0
                l(3) =   1
                l(4) =   1
                l(5) =   2
                l(6) =   2
     Q(r) pseudized with  6 coefficients,  rinner =    1.100   1.100   1.100
                                                       1.100   1.100

     PseudoPot. # 4 for Cu read from file:
     /home/pragov/projects/rrg-bengioy-ad/pragov/crystal_structure_design/SSSP/Cu_pbe_v1.2.uspp.F.UPF
     MD5 check sum: 6e991ff952a84172a2a52a1c1e996048
     Pseudo is Ultrasoft + core correction, Zval = 19.0
     Generated by new atomic code, or converted to UPF format
     Using radial grid of  867 points,  6 beta functions with:
                l(1) =   0
                l(2) =   0
                l(3) =   1
                l(4) =   1
                l(5) =   2
                l(6) =   2
     Q(r) pseudized with  8 coefficients,  rinner =    1.150   1.150   1.150
                                                       1.150   1.150

     PseudoPot. # 5 for O  read from file:
     /home/pragov/projects/rrg-bengioy-ad/pragov/crystal_structure_design/SSSP/O.pbe-n-kjpaw_psl.0.1.UPF
     MD5 check sum: 0234752ac141de4415c5fc33072bef88
     Pseudo is Projector augmented-wave + core cor, Zval =  6.0
     Generated using "atomic" code by A. Dal Corso  v.5.0.99 svn rev. 10869
     Shape of augmentation charge: BESSEL
     Using radial grid of 1095 points,  4 beta functions with:
                l(1) =   0
                l(2) =   0
                l(3) =   1
                l(4) =   1
     Q(r) pseudized with 0 coefficients

     atomic species   valence    mass     pseudopotential
        Sr            10.00    87.62000     Sr( 1.00)
        Y             11.00    88.90584     Y ( 1.00)
        Tl            13.00   204.38000     Tl( 1.00)
        Cu            19.00    63.54600     Cu( 1.00)
        O              6.00    15.99900     O ( 1.00)

      4 Sym. Ops. (no inversion) found

                                    s                        frac. trans.

      isym =  1     identity

 cryst.   s( 1) = (     1          0          0      )
                  (     0          1          0      )
                  (     0          0          1      )

 cart.    s( 1) = (  1.0000000  0.0000000  0.0000000 )
                  (  0.0000000  1.0000000  0.0000000 )
                  (  0.0000000  0.0000000  1.0000000 )

      isym =  2     180 deg rotation - cart. axis [0,1,0]

[...]

      isym =  3     inv. 180 deg rotation - cart. axis [0,0,1]

[...]

      isym =  4     inv. 180 deg rotation - cart. axis [1,0,0]

 cryst.   s( 4) = (    -1          0          0      )
                  (     0          1          0      )
                  (     0          0          1      )

 cart.    s( 4) = ( -1.0000000  0.0000000  0.0000000 )
                  (  0.0000000  1.0000000  0.0000000 )
                  (  0.0000000  0.0000000  1.0000000 )

   Cartesian axes

     site n.     atom                  positions (alat units)
         1           Sr  tau(   1) = (   0.5000000   0.4863163   2.5216444  )
         2           Sr  tau(   2) = (   0.5000000   0.4863163   0.6584717  )
         3           Y   tau(   3) = (   0.5000000   0.5005979   1.5900581  )
         4           Tl  tau(   4) = (   0.0000000   0.9352294   0.0000000  )
         5           Cu  tau(   5) = (   0.0000000   0.9999894   2.0310734  )
         6           Cu  tau(   6) = (   0.0000000   0.9999894   1.1490427  )
         7           O   tau(   7) = (   0.5000000   1.0014466   1.9700915  )
         8           O   tau(   8) = (   0.0000000   0.4993886   1.9720949  )
         9           O   tau(   9) = (   0.5000000   1.0014466   1.2100246  )
        10           O   tau(  10) = (   0.0000000   0.4993886   1.2080212  )
        11           O   tau(  11) = (   0.5000000   0.5608129   0.0000000  )
        12           O   tau(  12) = (   0.0000000   1.0021822   2.6265024  )
        13           O   tau(  13) = (   0.0000000   1.0021822   0.5536137  )

   Crystallographic axes

     site n.     atom                  positions (cryst. coord.)
         1           Sr  tau(   1) = (  0.5000000  0.4845960  0.7929410  )
         2           Sr  tau(   2) = (  0.5000000  0.4845960  0.2070590  )
         3           Y   tau(   3) = (  0.5000000  0.4988270  0.5000000  )
         4           Tl  tau(   4) = (  0.0000000  0.9319210  0.0000000  )
         5           Cu  tau(   5) = (  0.0000000  0.9964520  0.6386790  )
         6           Cu  tau(   6) = (  0.0000000  0.9964520  0.3613210  )
         7           O   tau(   7) = (  0.5000000  0.9979040  0.6195030  )
         8           O   tau(   8) = (  0.0000000  0.4976220  0.6201330  )
         9           O   tau(   9) = (  0.5000000  0.9979040  0.3804970  )
        10           O   tau(  10) = (  0.0000000  0.4976220  0.3798670  )
        11           O   tau(  11) = (  0.5000000  0.5588290  0.0000000  )
        12           O   tau(  12) = (  0.0000000  0.9986370  0.8259140  )
        13           O   tau(  13) = (  0.0000000  0.9986370  0.1740860  )

     number of k points=     8
                       cart. coord. in units 2pi/alat
        k(    1) = (   0.0000000   0.0000000   0.0000000), wk =   0.0740741
        k(    2) = (   0.0000000   0.0000000   0.1048180), wk =   0.1481481
        k(    3) = (   0.0000000   0.3321542   0.0000000), wk =   0.1481481
        k(    4) = (   0.0000000   0.3321542   0.1048180), wk =   0.2962963
        k(    5) = (   0.3333333   0.0000000   0.0000000), wk =   0.1481481
        k(    6) = (   0.3333333   0.0000000   0.1048180), wk =   0.2962963
        k(    7) = (   0.3333333   0.3321542   0.0000000), wk =   0.2962963
        k(    8) = (   0.3333333   0.3321542   0.1048180), wk =   0.5925926

                       cryst. coord.
        k(    1) = (   0.0000000   0.0000000   0.0000000), wk =   0.0740741
        k(    2) = (   0.0000000   0.0000000   0.3333333), wk =   0.1481481
        k(    3) = (   0.0000000   0.3333333   0.0000000), wk =   0.1481481
        k(    4) = (   0.0000000   0.3333333   0.3333333), wk =   0.2962963
        k(    5) = (   0.3333333   0.0000000   0.0000000), wk =   0.1481481
        k(    6) = (   0.3333333   0.0000000   0.3333333), wk =   0.2962963
        k(    7) = (   0.3333333   0.3333333   0.0000000), wk =   0.2962963
        k(    8) = (   0.3333333   0.3333333   0.3333333), wk =   0.5925926

     Check: negative core charge=   -0.000012

     Initial potential from superposition of free atoms

     starting charge     121.9233, renormalised to     124.0000

     negative rho (up, down):  2.251E-01 0.000E+00
     Starting wfcs are  102 randomized atomic wfcs
     Checking if some PAW data can be deallocated...

     Self-consistent Calculation

     iteration #  1     ecut=    30.00 Ry     beta= 0.70
     Davidson diagonalization with overlap

     ethr =  1.00E-02,  avg # of iterations =  2.0

     negative rho (up, down):  2.222E-01 0.000E+00

     total energy              =   -1426.34319353 Ry
     estimated scf accuracy    <      54.94438654 Ry

[...]

     total energy              =   -1472.08797180 Ry
     estimated scf accuracy    <       0.00000115 Ry

     iteration # 16     ecut=    30.00 Ry     beta= 0.70
     Davidson diagonalization with overlap

     ethr =  9.31E-10,  avg # of iterations =  3.1

     negative rho (up, down):  2.368E-01 0.000E+00

     End of self-consistent calculation

          k = 0.0000 0.0000 0.0000 (  3341 PWs)   bands (ev):

  -102.2454-102.2445 -59.7046 -59.7034 -59.6810 -59.6792 -59.4600 -59.4583
   -30.9953 -23.6084 -23.6074 -11.5198 -10.9787 -10.9750  -8.4091  -7.5618
    -7.5167  -7.1352  -7.1150  -6.9636  -6.8915  -5.5521  -5.5515  -5.5484
    -5.5459  -5.4775  -5.0623  -0.6806  -0.5385  -0.4991  -0.4750  -0.3223
     4.4893   5.2847   5.2877   5.3086   5.6266   5.6436   5.9295   6.5503
     7.1496   7.4816   7.5675   7.6734   7.7033   7.7131   7.7257   7.8185
     7.8514   7.9093   8.0365   8.1904   8.2022   8.2040   8.5285   8.6461
     8.7744   8.8227   8.8482   8.9622   8.9739   9.1406   9.2627  10.7291

     occupation numbers
     1.0000   1.0000   1.0000   1.0000   1.0000   1.0000   1.0000   1.0000
     1.0000   1.0000   1.0000   1.0000   1.0000   1.0000   1.0000   1.0000
     1.0000   1.0000   1.0000   1.0000   1.0000   1.0000   1.0000   1.0000
     1.0000   1.0000   1.0000   1.0000   1.0000   1.0000   1.0000   1.0000
     1.0000   1.0000   1.0000   1.0000   1.0000   1.0000   1.0000   1.0000
     1.0000   1.0000   1.0000   1.0000   1.0000   1.0000   1.0000   1.0000
     1.0000   1.0000   1.0000   1.0000   1.0000   1.0000   1.0000   1.0000
     1.0000   1.0000   1.0000   1.0000   1.0000   1.0000   0.0000   0.0000

[...]

          k = 0.3333 0.3322 0.1048 (  3352 PWs)   bands (ev):

  -102.2457-102.2455 -59.7069 -59.7066 -59.6819 -59.6814 -59.4602 -59.4590
   -30.9754 -23.5746 -23.5735 -11.3884 -11.3672 -11.1687  -7.6738  -7.4903
    -7.3593  -7.3181  -7.1574  -6.9955  -6.9490  -5.6892  -5.6775  -5.5997
    -5.4852  -5.4255  -5.0956  -0.5879  -0.5408  -0.4597  -0.4252  -0.2403
     3.7078   4.0628   4.4431   5.1213   5.1391   5.1552   5.5121   5.9478
     6.1988   6.2866   6.5339   6.6422   6.8056   7.3462   7.7216   8.0216
     8.0823   8.2435   8.2763   8.3878   8.4510   8.5555   8.7127   8.9260
     9.0660   9.1324   9.1344   9.1832   9.3672  11.5889  11.6960  11.8399

     occupation numbers
     1.0000   1.0000   1.0000   1.0000   1.0000   1.0000   1.0000   1.0000
     1.0000   1.0000   1.0000   1.0000   1.0000   1.0000   1.0000   1.0000
     1.0000   1.0000   1.0000   1.0000   1.0000   1.0000   1.0000   1.0000
     1.0000   1.0000   1.0000   1.0000   1.0000   1.0000   1.0000   1.0000
     1.0000   1.0000   1.0000   1.0000   1.0000   1.0000   1.0000   1.0000
     1.0000   1.0000   1.0000   1.0000   1.0000   1.0000   1.0000   1.0000
     1.0000   1.0000   1.0000   1.0000   1.0000   1.0000   1.0000   1.0000
     1.0000   1.0000   1.0000   1.0000   1.0000   1.0000   0.0000   0.0000

     highest occupied, lowest unoccupied level (ev):    11.5949    9.1524

!    total energy              =   -1472.08797195 Ry
     estimated scf accuracy    <       0.00000020 Ry

     The total energy is the sum of the following terms:
     one-electron contribution =   -1102.80816816 Ry
     hartree contribution      =     625.24269315 Ry
     xc contribution           =    -250.49626636 Ry
     ewald contribution        =    -677.33898383 Ry
     one-center paw contrib.   =     -66.68724674 Ry
      -> PAW hartree energy AE =       0.00000000 Ry
      -> PAW hartree energy PS =       0.00000000 Ry
      -> PAW xc energy AE      =       0.00000000 Ry
      -> PAW xc energy PS      =       0.00000000 Ry
      -> total E_H with PAW    =     625.24269315 Ry
      -> total E_XC with PAW   =    -250.49626636 Ry

     convergence has been achieved in  16 iterations

     Writing all to output data dir calculations_bands/myprefix.save/

     General routines

     Parallel routines

     PAW routines

   This run was terminated on:  22:34:58   5Jun2023

   JOB DONE.