     Program PWSCF v.7.0 starts on  7Jun2023 at  0:44:17

     K-points division:     npool     =       2
     R & G space division:  proc/nbgrp/npool/nimage =       4

     Reading input from espresso_1015.pwi
Warning: card &CELL ignored
Warning: card / ignored

     Current dimensions of program PWSCF are:
     Max number of different atomic species (ntypx) = 10
     Max number of k-points (npk) =  40000
     Max angular momentum in pseudopotentials (lmaxx) =  4
     file In.pbe-dn-rrkjus_psl.0.2.2.UPF: wavefunction(s)  5S renormalized

     Using Slab Decomposition

     bravais-lattice index     =            0
     lattice parameter (alat)  =      19.6814  a.u.
     unit-cell volume          =    1449.9654 (a.u.)^3
     number of atoms/cell      =           10
     number of atomic types    =            4
     number of electrons       =       114.00
     number of Kohn-Sham states=           64
     kinetic-energy cutoff     =      30.0000  Ry
     charge density cutoff     =     240.0000  Ry
     scf convergence threshold =      1.0E-06
     mixing beta               =       0.7000
     number of iterations used =            8  plain     mixing
     Exchange-correlation=  SLA  PW   PBX  PBC
                           (   1   4   3   4   0   0   0)

     celldm(1)=  19.681429  celldm(2)=   0.000000  celldm(3)=   0.000000
     celldm(4)=   0.000000  celldm(5)=   0.000000  celldm(6)=   0.000000

     crystal axes: (cart. coord. in units of alat)
               a(1) = (   1.000000   0.000000   0.000000 )
               a(2) = (   0.928424   0.371522   0.000000 )
               a(3) = (   0.140910   0.027147   0.511922 )

     reciprocal axes: (cart. coord. in units 2 pi/alat)
               b(1) = (  1.000000 -2.498978 -0.142736 )
               b(2) = (  0.000000  2.691634 -0.142736 )
               b(3) = (  0.000000  0.000000  1.953423 )

     PseudoPot. # 1 for Zn read from file:
     /home/pragov/projects/rrg-bengioy-ad/pragov/crystal_structure_design/SSSP/Zn_pbe_v1.uspp.F.UPF
     MD5 check sum: df62231357ef9e81f77b2b3087fa5675
     Pseudo is Ultrasoft, Zval = 20.0
     Generated by new atomic code, or converted to UPF format
     Using radial grid of  943 points,  6 beta functions with:
                l(1) =   0
                l(2) =   0
                l(3) =   1
                l(4) =   1
                l(5) =   2
                l(6) =   2
     Q(r) pseudized with  8 coefficients,  rinner =    1.100   1.100   1.100
                                                       1.100   1.100

     PseudoPot. # 2 for In read from file:
     /home/pragov/projects/rrg-bengioy-ad/pragov/crystal_structure_design/SSSP/In.pbe-dn-rrkjus_psl.0.2.2.UPF
     MD5 check sum: 25e7c42c3b55b68f4bf926be2e7201a4
     Pseudo is Ultrasoft + core correction, Zval = 13.0
     Generated using "atomic" code by A. Dal Corso  v.5.0.99 svn rev. 10869
     Using radial grid of 1241 points,  6 beta functions with:
                l(1) =   0
                l(2) =   0
                l(3) =   1
                l(4) =   1
                l(5) =   2
                l(6) =   2
     Q(r) pseudized with 0 coefficients

     PseudoPot. # 3 for Cu read from file:
     /home/pragov/projects/rrg-bengioy-ad/pragov/crystal_structure_design/SSSP/Cu_pbe_v1.2.uspp.F.UPF
     MD5 check sum: 6e991ff952a84172a2a52a1c1e996048
     Pseudo is Ultrasoft + core correction, Zval = 19.0
     Generated by new atomic code, or converted to UPF format
     Using radial grid of  867 points,  6 beta functions with:
                l(1) =   0
                l(2) =   0
                l(3) =   1
                l(4) =   1
                l(5) =   2
                l(6) =   2
     Q(r) pseudized with  8 coefficients,  rinner =    1.150   1.150   1.150
                                                       1.150   1.150

     PseudoPot. # 4 for S  read from file:
     /home/pragov/projects/rrg-bengioy-ad/pragov/crystal_structure_design/SSSP/s_pbe_v1.4.uspp.F.UPF
     MD5 check sum: 88d86576ff6df21479756cfb9bdac1df
     Pseudo is Ultrasoft + core correction, Zval =  6.0
     Generated by new atomic code, or converted to UPF format
     Using radial grid of  907 points,  6 beta functions with:
                l(1) =   0
                l(2) =   0
                l(3) =   1
                l(4) =   1
                l(5) =   2
                l(6) =   2
     Q(r) pseudized with  8 coefficients,  rinner =    1.300   1.300   1.300
                                                       1.300   1.300

     atomic species   valence    mass     pseudopotential
        Zn            20.00    65.38000     Zn( 1.00)
        In            13.00   114.81800     In( 1.00)
        Cu            19.00    63.54600     Cu( 1.00)
        S              6.00    32.06000     S ( 1.00)

     No symmetry found

                                    s                        frac. trans.

      isym =  1     identity

 cryst.   s( 1) = (     1          0          0      )
                  (     0          1          0      )
                  (     0          0          1      )

 cart.    s( 1) = (  1.0000000 -0.0000000  0.0000000 )
                  (  0.0000000  1.0000000  0.0000000 )
                  (  0.0000000  0.0000000  1.0000000 )

   Cartesian axes

     site n.     atom                  positions (alat units)
         1           Zn  tau(   1) = (   1.2053886   0.2322248   0.2074241  )
         2           In  tau(   2) = (   0.4977565   0.0958955   0.4143419  )
         3           In  tau(   3) = (   0.8626002   0.1661847   0.3062660  )
         4           Cu  tau(   4) = (   0.1408167   0.0271291   0.5079688  )
         5           Cu  tau(   5) = (   1.5723536   0.3029226   0.1008199  )
         6           S   tau(   6) = (   1.0811713   0.2082936   0.3922274  )
         7           S   tau(   7) = (   0.2034508   0.0391959   0.0837842  )
         8           S   tau(   8) = (   1.4256151   0.2746526   0.2678519  )
         9           S   tau(   9) = (   0.7172230   0.1381770   0.4990512  )
        10           S   tau(  10) = (   1.7817686   0.3432676   0.1638160  )

   Crystallographic axes

     site n.     atom                  positions (cryst. coord.)
         1           Zn  tau(   1) = (  0.5954570  0.5954570  0.4051870  )
         2           In  tau(   2) = (  0.1989740  0.1989740  0.8093850  )
         3           In  tau(   3) = (  0.4035930  0.4035930  0.5982670  )
         4           Cu  tau(   4) = (  0.0005160  0.0005160  0.9922780  )
         5           Cu  tau(   5) = (  0.8009660  0.8009660  0.1969440  )
         6           S   tau(   6) = (  0.5046650  0.5046650  0.7661860  )
         7           S   tau(   7) = (  0.0935420  0.0935420  0.1636660  )
         8           S   tau(   8) = (  0.7010320  0.7010320  0.5232280  )
         9           S   tau(   9) = (  0.3006890  0.3006890  0.9748580  )
        10           S   tau(  10) = (  0.9005680  0.9005680  0.3200020  )

     number of k points=    14
                       cart. coord. in units 2pi/alat
        k(    1) = (   0.0000000   0.0000000   0.0000000), wk =   0.0740741
        k(    2) = (   0.0000000   0.0000000   0.6511410), wk =   0.1481481
        k(    3) = (   0.0000000   0.8972112  -0.0475788), wk =   0.1481481
        k(    4) = (   0.0000000   0.8972112   0.6035622), wk =   0.1481481
        k(    5) = (   0.0000000   0.8972112  -0.6987198), wk =   0.1481481
        k(    6) = (   0.3333333  -0.8329927  -0.0475788), wk =   0.1481481
        k(    7) = (   0.3333333  -0.8329927   0.6035622), wk =   0.1481481
        k(    8) = (   0.3333333  -0.8329927  -0.6987198), wk =   0.1481481
        k(    9) = (   0.3333333   0.0642185  -0.0951576), wk =   0.1481481
        k(   10) = (   0.3333333   0.0642185   0.5559834), wk =   0.1481481
        k(   11) = (   0.3333333   0.0642185  -0.7462986), wk =   0.1481481
        k(   12) = (   0.3333333  -1.7302038  -0.0000000), wk =   0.1481481
        k(   13) = (   0.3333333  -1.7302038   0.6511410), wk =   0.1481481
        k(   14) = (   0.3333333  -1.7302038  -0.6511410), wk =   0.1481481

                       cryst. coord.
        k(    1) = (   0.0000000   0.0000000   0.0000000), wk =   0.0740741
        k(    2) = (   0.0000000   0.0000000   0.3333333), wk =   0.1481481
        k(    3) = (   0.0000000   0.3333333   0.0000000), wk =   0.1481481
        k(    4) = (   0.0000000   0.3333333   0.3333333), wk =   0.1481481
        k(    5) = (   0.0000000   0.3333333  -0.3333333), wk =   0.1481481
        k(    6) = (   0.3333333  -0.0000000  -0.0000000), wk =   0.1481481
        k(    7) = (   0.3333333  -0.0000000   0.3333333), wk =   0.1481481
        k(    8) = (   0.3333333  -0.0000000  -0.3333333), wk =   0.1481481
        k(    9) = (   0.3333333   0.3333333  -0.0000000), wk =   0.1481481
        k(   10) = (   0.3333333   0.3333333   0.3333333), wk =   0.1481481
        k(   11) = (   0.3333333   0.3333333  -0.3333333), wk =   0.1481481
        k(   12) = (   0.3333333  -0.3333333  -0.0000000), wk =   0.1481481
        k(   13) = (   0.3333333  -0.3333333   0.3333333), wk =   0.1481481
        k(   14) = (   0.3333333  -0.3333333  -0.3333333), wk =   0.1481481

     Initial potential from superposition of free atoms

     starting charge     111.9922, renormalised to     114.0000
     Starting wfcs are   77 randomized atomic wfcs

     Self-consistent Calculation

     iteration #  1     ecut=    30.00 Ry     beta= 0.70
     Davidson diagonalization with overlap

     ethr =  1.00E-02,  avg # of iterations =  3.0

     total energy              =   -1591.77275865 Ry
     estimated scf accuracy    <     102.21849479 Ry

[...]

     total energy              =   -1679.46421274 Ry
     estimated scf accuracy    <       0.00000110 Ry

     iteration # 22     ecut=    30.00 Ry     beta= 0.70
     Davidson diagonalization with overlap

     ethr =  9.66E-10,  avg # of iterations =  4.0

     End of self-consistent calculation

          k = 0.0000 0.0000 0.0000 (  4055 PWs)   bands (ev):

  -118.5465-104.0885-103.9362 -72.6629 -72.6537 -72.6466 -61.5055 -61.4900
   -61.4506 -61.3355 -61.3275 -61.3229  -7.7766  -7.7108  -7.5211  -7.4727
    -7.4378  -7.3985  -7.3922  -7.2427  -7.1664  -7.1186  -6.5486  -5.8104
    -5.5311  -5.0531  -4.9031   0.3066   0.3269   0.4109   0.5170   0.5960
     1.3531   1.5480   2.3186   3.1514   3.1555   3.3788   3.6999   3.8152
     3.9933   4.0227   4.3845   4.6166   4.6322   4.6920   5.1987   5.8536
     5.9102   6.0030   6.2559   6.3305   6.6102   7.3185   7.4284   7.4503
     7.6460   7.6524   9.4753  10.0626  10.4875  10.8548  11.7257  12.0109

     occupation numbers
     1.0000   1.0000   1.0000   1.0000   1.0000   1.0000   1.0000   1.0000
     1.0000   1.0000   1.0000   1.0000   1.0000   1.0000   1.0000   1.0000
     1.0000   1.0000   1.0000   1.0000   1.0000   1.0000   1.0000   1.0000
     1.0000   1.0000   1.0000   1.0000   1.0000   1.0000   1.0000   1.0000
     1.0000   1.0000   1.0000   1.0000   1.0000   1.0000   1.0000   1.0000
     1.0000   1.0000   1.0000   1.0000   1.0000   1.0000   1.0000   1.0000
     1.0000   1.0000   1.0000   1.0000   1.0000   1.0000   1.0000   1.0000
     1.0000   0.0000   0.0000   0.0000   0.0000   0.0000   0.0000   0.0000

[...]

          k = 0.3333-1.7302-0.6511 (  4026 PWs)   bands (ev):

  -118.5461-104.0883-103.9360 -72.6650 -72.6471 -72.6457 -61.5053 -61.4877
   -61.4518 -61.3333 -61.3287 -61.3226  -7.8228  -7.7064  -7.5967  -7.5345
    -7.4237  -7.4135  -7.3855  -7.2685  -7.1438  -7.1412  -5.6692  -5.4019
    -5.2941  -5.0104  -4.9593   0.3441   0.4232   0.4967   0.5268   0.5712
     1.1524   1.3276   1.9723   2.3623   2.6284   2.9116   3.2952   3.7419
     3.8804   4.0254   4.1697   4.2239   4.3666   4.6335   4.6829   5.8109
     5.8734   5.9554   6.1247   6.2448   6.3378   6.4934   6.6263   6.8245
     6.9478   9.2512   9.7571  10.5387  10.8976  11.2212  11.6428  11.9617

     occupation numbers
     1.0000   1.0000   1.0000   1.0000   1.0000   1.0000   1.0000   1.0000
     1.0000   1.0000   1.0000   1.0000   1.0000   1.0000   1.0000   1.0000
     1.0000   1.0000   1.0000   1.0000   1.0000   1.0000   1.0000   1.0000
     1.0000   1.0000   1.0000   1.0000   1.0000   1.0000   1.0000   1.0000
     1.0000   1.0000   1.0000   1.0000   1.0000   1.0000   1.0000   1.0000
     1.0000   1.0000   1.0000   1.0000   1.0000   1.0000   1.0000   1.0000
     1.0000   1.0000   1.0000   1.0000   1.0000   1.0000   1.0000   1.0000
     1.0000   0.0000   0.0000   0.0000   0.0000   0.0000   0.0000   0.0000

     highest occupied, lowest unoccupied level (ev):     7.6608    7.6524

!    total energy              =   -1679.46421292 Ry
     estimated scf accuracy    <       0.00000012 Ry

     The total energy is the sum of the following terms:
     one-electron contribution =   -1402.48817325 Ry
     hartree contribution      =     754.26928685 Ry
     xc contribution           =    -257.51515753 Ry
     ewald contribution        =    -773.73016898 Ry

     convergence has been achieved in  22 iterations

     Writing all to output data dir calculations_bands/myprefix.save/

     General routines

     Parallel routines

   This run was terminated on:   0:45: 8   7Jun2023

   JOB DONE.