     Program PWSCF v.7.0 starts on 23Jun2023 at  5:36:18

     K-points division:     npool     =       2
     R & G space division:  proc/nbgrp/npool/nimage =       4

     Reading input from espresso_4074.pwi
Warning: card &CELL ignored
Warning: card / ignored

     Current dimensions of program PWSCF are:
     Max number of different atomic species (ntypx) = 10
     Max number of k-points (npk) =  40000
     Max angular momentum in pseudopotentials (lmaxx) =  4
     file O.pbe-n-kjpaw_psl.0.1.UPF: wavefunction(s)  2P renormalized

     Using Slab Decomposition

     bravais-lattice index     =            0
     lattice parameter (alat)  =      10.4572  a.u.
     unit-cell volume          =    1746.6942 (a.u.)^3
     number of atoms/cell      =           20
     number of atomic types    =            4
     number of electrons       =       178.00
     number of Kohn-Sham states=           90
     kinetic-energy cutoff     =      30.0000  Ry
     charge density cutoff     =     240.0000  Ry
     scf convergence threshold =      1.0E-06
     mixing beta               =       0.7000
     number of iterations used =            8  plain     mixing
     Exchange-correlation= SLA  PW   PBX  PBC
                           (   1   4   3   4   0   0   0)

     celldm(1)=  10.457179  celldm(2)=   0.000000  celldm(3)=   0.000000
     celldm(4)=   0.000000  celldm(5)=   0.000000  celldm(6)=   0.000000

     crystal axes: (cart. coord. in units of alat)
               a(1) = (   1.000000   0.000000   0.000000 )
               a(2) = (   0.233836   1.237955   0.000000 )
               a(3) = (   0.233831   0.100511   1.233867 )

     reciprocal axes: (cart. coord. in units 2 pi/alat)
               b(1) = (  1.000000 -0.188889 -0.174124 )
               b(2) = (  0.000000  0.807784 -0.065802 )
               b(3) = (  0.000000  0.000000  0.810460 )

     PseudoPot. # 1 for Ca read from file:
     /home/pragov/projects/rrg-bengioy-ad/pragov/crystal_structure_design/SSSP/Ca_pbe_v1.uspp.F.UPF
     MD5 check sum: 403a4c14b9e4d4dfdc3024c9a3812218
     Pseudo is Ultrasoft + core correction, Zval = 10.0
     Generated by new atomic code, or converted to UPF format
     Using radial grid of  845 points,  6 beta functions with:
                l(1) =   0
                l(2) =   0
                l(3) =   1
                l(4) =   1
                l(5) =   2
                l(6) =   2
     Q(r) pseudized with  8 coefficients,  rinner =    1.500   1.500   1.500
                                                       1.500   1.500

     PseudoPot. # 2 for Mn read from file:
     /home/pragov/projects/rrg-bengioy-ad/pragov/crystal_structure_design/SSSP/mn_pbe_v1.5.uspp.F.UPF
     MD5 check sum: 82ef2b46521d7a7d9e736dc3972e4928
     Pseudo is Ultrasoft + core correction, Zval = 15.0
     Generated by new atomic code, or converted to UPF format
     Using radial grid of  859 points,  6 beta functions with:
                l(1) =   0
                l(2) =   0
                l(3) =   1
                l(4) =   1
                l(5) =   2
                l(6) =   2
     Q(r) pseudized with  8 coefficients,  rinner =    0.950   0.950   0.950
                                                       0.950   0.950

     PseudoPot. # 3 for Ge read from file:
     /home/pragov/projects/rrg-bengioy-ad/pragov/crystal_structure_design/SSSP/ge_pbe_v1.4.uspp.F.UPF
     MD5 check sum: 9c9eaa91e581c3f09632fb3098b2c6b2
     Pseudo is Ultrasoft + core correction, Zval = 14.0
     Generated by new atomic code, or converted to UPF format
     Using radial grid of  873 points,  6 beta functions with:
                l(1) =   0
                l(2) =   0
                l(3) =   1
                l(4) =   1
                l(5) =   2
                l(6) =   2
     Q(r) pseudized with  8 coefficients,  rinner =    1.400   1.400   1.400
                                                       1.400   1.400

     PseudoPot. # 4 for O  read from file:
     /home/pragov/projects/rrg-bengioy-ad/pragov/crystal_structure_design/SSSP/O.pbe-n-kjpaw_psl.0.1.UPF
     MD5 check sum: 0234752ac141de4415c5fc33072bef88
     Pseudo is Projector augmented-wave + core cor, Zval =  6.0
     Generated using "atomic" code by A. Dal Corso  v.5.0.99 svn rev. 10869
     Shape of augmentation charge: BESSEL
     Using radial grid of 1095 points,  4 beta functions with:
                l(1) =   0
                l(2) =   0
                l(3) =   1
                l(4) =   1
     Q(r) pseudized with 0 coefficients

     atomic species   valence    mass     pseudopotential
        Ca            10.00    40.07800     Ca( 1.00)
        Mn            15.00    54.93804     Mn( 1.00)
        Ge            14.00    72.63000     Ge( 1.00)
        O              6.00    15.99900     O ( 1.00)

     No symmetry found

                                    s                        frac. trans.

      isym =  1     identity

 cryst.   s( 1) = (     1          0          0      )
                  (     0          1          0      )
                  (     0          0          1      )

 cart.    s( 1) = (  1.0000000 -0.0000000 -0.0000000 )
                  (  0.0000000  1.0000000 -0.0000000 )
                  (  0.0000000  0.0000000  1.0000000 )

   Cartesian axes

     site n.     atom                  positions (alat units)
         1           Ca  tau(   1) = (   0.9838312   0.4454596   0.8596808  )
         2           Ca  tau(   2) = (   0.4838277   0.8930110   0.3741924  )
         3           Mn  tau(   3) = (   0.4839403   0.2053264   1.1201316  )
         4           Mn  tau(   4) = (   0.9838437   1.1331056   0.1137379  )
         5           Ge  tau(   5) = (   0.9036946   0.4945340   0.2337684  )
         6           Ge  tau(   6) = (   1.0639572   1.0653149   0.7599424  )
         7           Ge  tau(   7) = (   0.5639547   0.8439294   1.0000923  )
         8           Ge  tau(   8) = (   0.4036930   0.2731566   0.4739258  )
         9           O   tau(   9) = (   0.6878183   0.4404369   0.4820002  )
        10           O   tau(  10) = (   1.2798297   0.8223025   0.8340213  )
        11           O   tau(  11) = (   0.7798308   0.8980441   0.7518630  )
        12           O   tau(  12) = (   0.1878213   0.5161730   0.3998358  )
        13           O   tau(  13) = (   0.3205649   0.2022827   0.7671099  )
        14           O   tau(  14) = (   0.6470894   0.5574693   1.0945300  )
        15           O   tau(  15) = (   1.1470935   1.1361866   0.4667620  )
        16           O   tau(  16) = (   0.8205621   0.7810030   0.1393332  )
        17           O   tau(  17) = (   0.9108317   0.2600376   0.0219924  )
        18           O   tau(  18) = (   1.0568301   1.2954337   0.9764724  )
        19           O   tau(  19) = (   0.5568252   1.0784226   1.2118745  )
        20           O   tau(  20) = (   0.4108280   0.0430333   0.2574007  )

   Crystallographic axes

     site n.     atom                  positions (cryst. coord.)
         1           Ca  tau(   1) = (  0.7499980  0.3032660  0.6967370  )
         2           Ca  tau(   2) = (  0.2499920  0.6967370  0.3032680  )
         3           Mn  tau(   3) = (  0.2501150  0.0921520  0.9078220  )
         4           Mn  tau(   4) = (  0.7500080  0.9078200  0.0921800  )
         5           Ge  tau(   5) = (  0.7695780  0.3840940  0.1894600  )
         6           Ge  tau(   6) = (  0.7304070  0.8105380  0.6159030  )
         7           Ge  tau(   7) = (  0.2304060  0.6159040  0.8105350  )
         8           Ge  tau(   8) = (  0.2695750  0.1894660  0.3840980  )
         9           O   tau(   9) = (  0.5206970  0.3240610  0.3906420  )
        10           O   tau(  10) = (  0.9792830  0.6093620  0.6759410  )
        11           O   tau(  11) = (  0.4792830  0.6759510  0.6093550  )
        12           O   tau(  12) = (  0.0207010  0.3906460  0.3240510  )
        13           O   tau(  13) = (  0.1487840  0.1129230  0.6217120  )
        14           O   tau(  14) = (  0.3512060  0.3782920  0.8870730  )
        15           O   tau(  15) = (  0.8512060  0.8870790  0.3782920  )
        16           O   tau(  16) = (  0.6487780  0.6217130  0.1129240  )
        17           O   tau(  17) = (  0.8578840  0.2086070  0.0178240  )
        18           O   tau(  18) = (  0.6421100  0.9821760  0.7913920  )
        19           O   tau(  19) = (  0.1421070  0.7913880  0.9821760  )
        20           O   tau(  20) = (  0.3578800  0.0178240  0.2086130  )

     number of k points=    14
                       cart. coord. in units 2pi/alat
        k(    1) = (   0.0000000   0.0000000   0.0000000), wk =   0.0740741
        k(    2) = (   0.0000000   0.0000000   0.2701534), wk =   0.1481481
        k(    3) = (   0.0000000   0.2692612  -0.0219341), wk =   0.1481481
        k(    4) = (   0.0000000   0.2692612   0.2482193), wk =   0.1481481
        k(    5) = (   0.0000000   0.2692612  -0.2920875), wk =   0.1481481
        k(    6) = (   0.3333333  -0.0629630  -0.0580412), wk =   0.1481481
        k(    7) = (   0.3333333  -0.0629630   0.2121122), wk =   0.1481481
        k(    8) = (   0.3333333  -0.0629630  -0.3281946), wk =   0.1481481
        k(    9) = (   0.3333333   0.2062982  -0.0799753), wk =   0.1481481
        k(   10) = (   0.3333333   0.2062982   0.1901781), wk =   0.1481481
        k(   11) = (   0.3333333   0.2062982  -0.3501287), wk =   0.1481481
        k(   12) = (   0.3333333  -0.3322242  -0.0361071), wk =   0.1481481
        k(   13) = (   0.3333333  -0.3322242   0.2340463), wk =   0.1481481
        k(   14) = (   0.3333333  -0.3322242  -0.3062605), wk =   0.1481481

                       cryst. coord.
        k(    1) = (   0.0000000   0.0000000   0.0000000), wk =   0.0740741
        k(    2) = (   0.0000000   0.0000000   0.3333333), wk =   0.1481481
        k(    3) = (   0.0000000   0.3333333  -0.0000000), wk =   0.1481481
        k(    4) = (   0.0000000   0.3333333   0.3333333), wk =   0.1481481
        k(    5) = (   0.0000000   0.3333333  -0.3333333), wk =   0.1481481
        k(    6) = (   0.3333333   0.0000000   0.0000000), wk =   0.1481481
        k(    7) = (   0.3333333   0.0000000   0.3333333), wk =   0.1481481
        k(    8) = (   0.3333333   0.0000000  -0.3333333), wk =   0.1481481
        k(    9) = (   0.3333333   0.3333333   0.0000000), wk =   0.1481481
        k(   10) = (   0.3333333   0.3333333   0.3333333), wk =   0.1481481
        k(   11) = (   0.3333333   0.3333333  -0.3333333), wk =   0.1481481
        k(   12) = (   0.3333333  -0.3333333   0.0000000), wk =   0.1481481
        k(   13) = (   0.3333333  -0.3333333   0.3333333), wk =   0.1481481
        k(   14) = (   0.3333333  -0.3333333  -0.3333333), wk =   0.1481481

     Check: negative core charge=   -0.000017

     Initial potential from superposition of free atoms

     starting charge     176.9854, renormalised to     178.0000
     Starting wfcs are  130 randomized atomic wfcs
     Checking if some PAW data can be deallocated...

     Self-consistent Calculation

     iteration #  1     ecut=    30.00 Ry     beta= 0.70
     Davidson diagonalization with overlap

     ethr =  1.00E-02,  avg # of iterations =  1.6

     total energy              =   -1924.56262793 Ry
     estimated scf accuracy    <       4.54551966 Ry

[...]

     total energy              =   -1926.73929511 Ry
     estimated scf accuracy    <       0.00000293 Ry

     iteration # 33     ecut=    30.00 Ry     beta= 0.70
     Davidson diagonalization with overlap

     ethr =  6.15E-10,  avg # of iterations =  2.9

     End of self-consistent calculation

          k = 0.0000 0.0000 0.0000 (  4845 PWs)   bands (ev):

   -69.8196 -69.8182 -38.6348 -38.6243 -38.5638 -38.5603 -38.5016 -38.4978
   -31.5964 -31.5954 -17.2537 -17.2507 -17.2061 -17.2038 -17.1609 -17.1587
   -17.1581 -17.1567 -17.1275 -17.1242 -17.0579 -17.0543 -16.9566 -16.9561
   -16.9454 -16.9447 -16.9287 -16.9277 -16.9164 -16.9157 -12.8745 -12.8214
   -12.7999 -12.7416 -12.7245 -12.7208 -12.4298 -12.0652 -10.7468 -10.7190
   -10.6600 -10.6452 -10.4272 -10.2634 -10.0277  -9.8560  -9.8130  -9.6710
    -1.7605  -1.7142   0.0360   0.6500   1.6850   1.9978   2.0710   2.1524
     2.4683   2.4967   2.7646   3.1055   3.1212   3.2472   3.6157   3.7124
     4.2723   4.3583   4.3651   4.4004   4.4021   4.5308   4.6194   4.7416
     4.7851   5.0163   5.0575   5.0859   5.3268   5.3479   5.3994   5.6381
     5.7668   5.8558   5.8647   5.9892   8.8195   8.9728   9.1791   9.2662
     9.2826   9.3533

     occupation numbers
     1.0000   1.0000   1.0000   1.0000   1.0000   1.0000   1.0000   1.0000
     1.0000   1.0000   1.0000   1.0000   1.0000   1.0000   1.0000   1.0000
     1.0000   1.0000   1.0000   1.0000   1.0000   1.0000   1.0000   1.0000
     1.0000   1.0000   1.0000   1.0000   1.0000   1.0000   1.0000   1.0000
     1.0000   1.0000   1.0000   1.0000   1.0000   1.0000   1.0000   1.0000
     1.0000   1.0000   1.0000   1.0000   1.0000   1.0000   1.0000   1.0000
     1.0000   1.0000   1.0000   1.0000   1.0000   1.0000   1.0000   1.0000
     1.0000   1.0000   1.0000   1.0000   1.0000   1.0000   1.0000   1.0000
     1.0000   1.0000   1.0000   1.0000   1.0000   1.0000   1.0000   1.0000
     1.0000   1.0000   1.0000   1.0000   1.0000   1.0000   1.0000   1.0000
     1.0000   1.0000   1.0000   1.0000   1.0000   1.0000   1.0000   1.0000
     1.0000   0.0000

[...]

          k = 0.3333-0.3322-0.3063 (  4851 PWs)   bands (ev):

   -69.8194 -69.8186 -38.6338 -38.6305 -38.5628 -38.5615 -38.5000 -38.4990
   -31.5960 -31.5957 -17.2406 -17.2382 -17.2177 -17.2159 -17.1587 -17.1582
   -17.1576 -17.1554 -17.1152 -17.1144 -17.0806 -17.0783 -16.9546 -16.9539
   -16.9509 -16.9495 -16.9247 -16.9231 -16.9187 -16.9180 -12.9233 -12.8653
   -12.8437 -12.7515 -12.7411 -12.7248 -11.8627 -11.8443 -11.2983 -11.2271
   -10.4916 -10.4902 -10.4246 -10.3225  -9.9877  -9.8890  -9.7309  -9.7260
    -1.2617  -1.1682   0.0226   0.2724   1.7478   1.8299   1.9319   2.0483
     2.5281   2.5319   2.8100   2.8699   3.1258   3.4491   3.6571   3.7911
     3.9243   4.1794   4.1887   4.2622   4.4628   4.5433   4.6901   4.7359
     4.7910   4.9018   4.9657   5.0416   5.1485   5.3082   5.4484   5.5586
     5.6613   5.7279   5.8397   5.9071   8.9153   8.9876   9.2117   9.2815
     9.3186   9.3587

     occupation numbers
     1.0000   1.0000   1.0000   1.0000   1.0000   1.0000   1.0000   1.0000
     1.0000   1.0000   1.0000   1.0000   1.0000   1.0000   1.0000   1.0000
     1.0000   1.0000   1.0000   1.0000   1.0000   1.0000   1.0000   1.0000
     1.0000   1.0000   1.0000   1.0000   1.0000   1.0000   1.0000   1.0000
     1.0000   1.0000   1.0000   1.0000   1.0000   1.0000   1.0000   1.0000
     1.0000   1.0000   1.0000   1.0000   1.0000   1.0000   1.0000   1.0000
     1.0000   1.0000   1.0000   1.0000   1.0000   1.0000   1.0000   1.0000
     1.0000   1.0000   1.0000   1.0000   1.0000   1.0000   1.0000   1.0000
     1.0000   1.0000   1.0000   1.0000   1.0000   1.0000   1.0000   1.0000
     1.0000   1.0000   1.0000   1.0000   1.0000   1.0000   1.0000   1.0000
     1.0000   1.0000   1.0000   1.0000   1.0000   1.0000   1.0000   1.0000
     1.0000   0.0000

     highest occupied, lowest unoccupied level (ev):     9.3417    9.3254

!    total energy              =   -1926.73929508 Ry
     estimated scf accuracy    <       0.00000052 Ry

     The total energy is the sum of the following terms:
     one-electron contribution =   -1007.12611433 Ry
     hartree contribution      =     619.89001216 Ry
     xc contribution           =    -399.74694030 Ry
     ewald contribution        =   -1025.48314990 Ry
     one-center paw contrib.   =    -114.27310271 Ry
      -> PAW hartree energy AE =       0.00000000 Ry
      -> PAW hartree energy PS =       0.00000000 Ry
      -> PAW xc energy AE      =       0.00000000 Ry
      -> PAW xc energy PS      =       0.00000000 Ry
      -> total E_H with PAW    =     619.89001216 Ry
      -> total E_XC with PAW   =    -399.74694030 Ry

     convergence has been achieved in  33 iterations

     Writing all to output data dir calculations_bands/myprefix.save/

     General routines

     Parallel routines

     PAW routines

   This run was terminated on:   5:37:13  23Jun2023

   JOB DONE.