     Program PWSCF v.7.0 starts on  6Jun2023 at  2:57:49

     K-points division:     npool     =       2
     R & G space division:  proc/nbgrp/npool/nimage =       4

     Reading input from espresso_13293.pwi
Warning: card &CELL ignored
Warning: card / ignored

     Current dimensions of program PWSCF are:
     Max number of different atomic species (ntypx) = 10
     Max number of k-points (npk) =  40000
     Max angular momentum in pseudopotentials (lmaxx) =  4
     Message from routine setup:
     using ibrav=0 with symmetry is DISCOURAGED, use correct ibrav instead

     Using Slab Decomposition

     bravais-lattice index     =            0
     lattice parameter (alat)  =      17.1153  a.u.
     unit-cell volume          =    2092.2478 (a.u.)^3
     number of atoms/cell      =           12
     number of atomic types    =            2
     number of electrons       =        54.00
     number of Kohn-Sham states=           64
     kinetic-energy cutoff     =      30.0000  Ry
     charge density cutoff     =     240.0000  Ry
     scf convergence threshold =      1.0E-06
     mixing beta               =       0.7000
     number of iterations used =            8  plain     mixing
     Exchange-correlation= PBE
                           (   1   4   3   4   0   0   0)

     celldm(1)=  17.115289  celldm(2)=   0.000000  celldm(3)=   0.000000
     celldm(4)=   0.000000  celldm(5)=   0.000000  celldm(6)=   0.000000

     crystal axes: (cart. coord. in units of alat)
               a(1) = (   1.000000   0.000000   0.000000 )
               a(2) = (   0.916720   0.399529   0.000000 )
               a(3) = (   0.420238   0.087596   1.044508 )

     reciprocal axes: (cart. coord. in units 2 pi/alat)
               b(1) = (  1.000000 -2.294501 -0.209906 )
               b(2) = (  0.000000  2.502946 -0.209906 )
               b(3) = (  0.000000  0.000000  0.957388 )

     PseudoPot. # 1 for Si read from file:
     /home/pragov/projects/rrg-bengioy-ad/pragov/crystal_structure_design/SSSP/Si.pbe-n-rrkjus_psl.1.0.0.UPF
     MD5 check sum: 0b0bb1205258b0d07b9f9672cf965d36
     Pseudo is Ultrasoft + core correction, Zval =  4.0
     Generated using "atomic" code by A. Dal Corso  v.5.1
     Using radial grid of 1141 points,  6 beta functions with:
                l(1) =   0
                l(2) =   0
                l(3) =   1
                l(4) =   1
                l(5) =   2
                l(6) =   2
     Q(r) pseudized with 0 coefficients

     PseudoPot. # 2 for As read from file:
     /home/pragov/projects/rrg-bengioy-ad/pragov/crystal_structure_design/SSSP/As.pbe-n-rrkjus_psl.0.2.UPF
     MD5 check sum: 767315de957beeeb34f87d97bf945c8f
     Pseudo is Ultrasoft + core correction, Zval =  5.0
     Generated using "atomic" code by A. Dal Corso  v.5.0.99 svn rev. 10869
     Using radial grid of 1209 points,  4 beta functions with:
                l(1) =   0
                l(2) =   0
                l(3) =   1
                l(4) =   1
     Q(r) pseudized with 0 coefficients

     atomic species   valence    mass     pseudopotential
        Si             4.00    28.08500     Si( 1.00)
        As             5.00    74.92159     As( 1.00)

      2 Sym. Ops., with inversion, found

                                    s                        frac. trans.

      isym =  1     identity

 cryst.   s( 1) = (     1          0          0      )
                  (     0          1          0      )
                  (     0          0          1      )

 cart.    s( 1) = (  1.0000000  0.0000000  0.0000000 )
                  (  0.0000000  1.0000000 -0.0000000 )
                  (  0.0000000  0.0000000  1.0000000 )

      isym =  2     inversion

 cryst.   s( 2) = (    -1          0          0      )
                  (     0         -1          0      )
                  (     0          0         -1      )

 cart.    s( 2) = ( -1.0000000 -0.0000000 -0.0000000 )
                  (  0.0000000 -1.0000000  0.0000000 )
                  (  0.0000000  0.0000000 -1.0000000 )

   Cartesian axes

     site n.     atom                  positions (alat units)
         1           Si  tau(   1) = (   0.5103798   0.1063857   0.6164739  )
         2           Si  tau(   2) = (   1.8265790   0.3807398   0.4280342  )
         3           Si  tau(   3) = (   0.7374162   0.1537101   0.7319182  )
         4           Si  tau(   4) = (   1.5995426   0.3334154   0.3125899  )
         5           Si  tau(   5) = (   1.4646689   0.3053017   0.9486035  )
         6           Si  tau(   6) = (   0.8722898   0.1818237   0.0959046  )
         7           As  tau(   7) = (   0.6702773   0.1397154   0.9876085  )
         8           As  tau(   8) = (   1.6666815   0.3474101   0.0568996  )
         9           As  tau(   9) = (   0.4794270   0.0999338   0.3530855  )
        10           As  tau(  10) = (   1.8575318   0.3871917   0.6914226  )
        11           As  tau(  11) = (   1.3332400   0.2779061   0.7163916  )
        12           As  tau(  12) = (   1.0037188   0.2092193   0.3281166  )

   Crystallographic axes

     site n.     atom                  positions (cryst. coord.)
         1           Si  tau(   1) = (  0.1368760  0.1368760  0.5902050  )
         2           Si  tau(   2) = (  0.8631240  0.8631240  0.4097950  )
         3           Si  tau(   3) = (  0.2310940  0.2310940  0.7007300  )
         4           Si  tau(   4) = (  0.7689060  0.7689060  0.2992700  )
         5           Si  tau(   5) = (  0.5650360  0.5650360  0.9081820  )
         6           Si  tau(   6) = (  0.4349640  0.4349640  0.0918180  )
         7           As  tau(   7) = (  0.1423950  0.1423950  0.9455250  )
         8           As  tau(   8) = (  0.8576050  0.8576050  0.0544750  )
         9           As  tau(   9) = (  0.1760140  0.1760140  0.3380400  )
        10           As  tau(  10) = (  0.8239860  0.8239860  0.6619600  )
        11           As  tau(  11) = (  0.5452090  0.5452090  0.6858650  )
        12           As  tau(  12) = (  0.4547910  0.4547910  0.3141350  )

     number of k points=    14
                       cart. coord. in units 2pi/alat
        k(    1) = (   0.0000000   0.0000000   0.0000000), wk =   0.0740741
        k(    2) = (   0.0000000   0.0000000   0.3191295), wk =   0.1481481
        k(    3) = (   0.0000000   0.8343152  -0.0699687), wk =   0.1481481
        k(    4) = (   0.0000000   0.8343152   0.2491608), wk =   0.1481481
        k(    5) = (   0.0000000   0.8343152  -0.3890982), wk =   0.1481481
        k(    6) = (   0.3333333  -0.7648338  -0.0699687), wk =   0.1481481
        k(    7) = (   0.3333333  -0.7648338   0.2491608), wk =   0.1481481
        k(    8) = (   0.3333333  -0.7648338  -0.3890982), wk =   0.1481481
        k(    9) = (   0.3333333   0.0694814  -0.1399374), wk =   0.1481481
        k(   10) = (   0.3333333   0.0694814   0.1791921), wk =   0.1481481
        k(   11) = (   0.3333333   0.0694814  -0.4590669), wk =   0.1481481
        k(   12) = (   0.3333333  -1.5991491  -0.0000000), wk =   0.1481481
        k(   13) = (   0.3333333  -1.5991491   0.3191295), wk =   0.1481481
        k(   14) = (   0.3333333  -1.5991491  -0.3191295), wk =   0.1481481

                       cryst. coord.
        k(    1) = (   0.0000000   0.0000000   0.0000000), wk =   0.0740741
        k(    2) = (   0.0000000   0.0000000   0.3333333), wk =   0.1481481
        k(    3) = (   0.0000000   0.3333333  -0.0000000), wk =   0.1481481
        k(    4) = (   0.0000000   0.3333333   0.3333333), wk =   0.1481481
        k(    5) = (   0.0000000   0.3333333  -0.3333333), wk =   0.1481481
        k(    6) = (   0.3333333  -0.0000000  -0.0000000), wk =   0.1481481
        k(    7) = (   0.3333333  -0.0000000   0.3333333), wk =   0.1481481
        k(    8) = (   0.3333333  -0.0000000  -0.3333333), wk =   0.1481481
        k(    9) = (   0.3333333   0.3333333  -0.0000000), wk =   0.1481481
        k(   10) = (   0.3333333   0.3333333   0.3333333), wk =   0.1481481
        k(   11) = (   0.3333333   0.3333333  -0.3333333), wk =   0.1481481
        k(   12) = (   0.3333333  -0.3333333  -0.0000000), wk =   0.1481481
        k(   13) = (   0.3333333  -0.3333333   0.3333333), wk =   0.1481481
        k(   14) = (   0.3333333  -0.3333333  -0.3333333), wk =   0.1481481

     Initial potential from superposition of free atoms

     starting charge      53.9952, renormalised to      54.0000
     Starting wfcs are   48 randomized atomic wfcs +   16 random wfcs

     Self-consistent Calculation

     iteration #  1     ecut=    30.00 Ry     beta= 0.70
     Davidson diagonalization with overlap

     ethr =  1.00E-02,  avg # of iterations =  7.0

     Threshold (ethr) on eigenvalues was too large:
     Diagonalizing with lowered threshold

     Davidson diagonalization with overlap

[...]

     total energy              =    -177.70979583 Ry
     estimated scf accuracy    <       0.27827991 Ry

[...]

     total energy              =    -177.75187359 Ry
     estimated scf accuracy    <       0.00000754 Ry

     iteration #  8     ecut=    30.00 Ry     beta= 0.70
     Davidson diagonalization with overlap

     ethr =  1.40E-08,  avg # of iterations =  2.0

     End of self-consistent calculation

          k = 0.0000 0.0000 0.0000 (  5767 PWs)   bands (ev):

    -8.7435  -8.0564  -7.8023  -7.4433  -6.9839  -6.6578  -3.5151  -3.3139
    -2.5685  -1.7413  -1.1691  -0.0400   1.0369   1.0506   1.8371   1.8817
     2.0695   2.1687   2.5072   2.6043   2.9562   3.1334   3.1341   3.2786
     3.2962   3.3304   3.4813   5.5561   5.7689   6.3412   6.3597   6.8894
     6.9358   7.2135   7.2241   7.3660   8.0728   8.1537   8.6453   8.6874
     8.7943   8.9366   9.0576   9.4367   9.8340  10.0073  10.4389  10.5968
    10.6235  10.9721  11.2057  11.8254  11.8485  12.2008  12.2157  12.6567
    12.7398  13.2377  13.2783  13.4380  13.7153  14.2441  14.6295  15.1567

     occupation numbers
     1.0000   1.0000   1.0000   1.0000   1.0000   1.0000   1.0000   1.0000
     1.0000   1.0000   1.0000   1.0000   1.0000   1.0000   1.0000   1.0000
     1.0000   1.0000   1.0000   1.0000   1.0000   1.0000   1.0000   1.0000
     1.0000   1.0000   1.0000   0.0000   0.0000   0.0000   0.0000   0.0000
     0.0000   0.0000   0.0000   0.0000   0.0000   0.0000   0.0000   0.0000
     0.0000   0.0000   0.0000   0.0000   0.0000   0.0000   0.0000   0.0000
     0.0000   0.0000   0.0000   0.0000   0.0000   0.0000   0.0000   0.0000
     0.0000   0.0000   0.0000   0.0000   0.0000   0.0000   0.0000   0.0000

[...]

          k = 0.3333-1.5991-0.3191 (  5819 PWs)   bands (ev):

    -7.7101  -7.2465  -7.0164  -6.6192  -6.3754  -6.1258  -4.1302  -3.6720
    -2.7838  -2.3177  -1.7425  -1.5107  -0.2179   0.1764   0.2657   0.5169
     0.7302   1.4116   1.5577   1.6849   1.9158   2.2626   2.4378   2.6339
     2.7728   2.8944   3.3060   6.0732   6.4469   6.5415   6.8703   7.0194
     7.2440   7.3838   7.4918   7.7178   7.9009   8.1118   8.1968   8.5848
     9.2343   9.4419   9.6822   9.8219  10.1540  10.2744  10.4504  11.2255
    11.5047  11.5887  11.9161  12.0488  12.1243  12.4615  12.5543  12.8821
    13.1445  13.4146  13.6088  13.9196  13.9766  14.3046  14.4384  14.7327

     occupation numbers
     1.0000   1.0000   1.0000   1.0000   1.0000   1.0000   1.0000   1.0000
     1.0000   1.0000   1.0000   1.0000   1.0000   1.0000   1.0000   1.0000
     1.0000   1.0000   1.0000   1.0000   1.0000   1.0000   1.0000   1.0000
     1.0000   1.0000   1.0000   0.0000   0.0000   0.0000   0.0000   0.0000
     0.0000   0.0000   0.0000   0.0000   0.0000   0.0000   0.0000   0.0000
     0.0000   0.0000   0.0000   0.0000   0.0000   0.0000   0.0000   0.0000
     0.0000   0.0000   0.0000   0.0000   0.0000   0.0000   0.0000   0.0000
     0.0000   0.0000   0.0000   0.0000   0.0000   0.0000   0.0000   0.0000

     highest occupied, lowest unoccupied level (ev):     3.9927    5.5561

!    total energy              =    -177.75187535 Ry
     estimated scf accuracy    <       0.00000042 Ry

     The total energy is the sum of the following terms:
     one-electron contribution =      -6.75821669 Ry
     hartree contribution      =      24.98653440 Ry
     xc contribution           =     -91.92142641 Ry
     ewald contribution        =    -104.05876665 Ry

     convergence has been achieved in   8 iterations

     Writing all to output data dir calculations_bands/myprefix.save/

     General routines

     Parallel routines

   This run was terminated on:   2:58:10   6Jun2023

   JOB DONE.