     Program PWSCF v.7.0 starts on  6Jun2023 at  6:42:27

     K-points division:     npool     =       2
     R & G space division:  proc/nbgrp/npool/nimage =       4

     Reading input from espresso_13839.pwi
Warning: card &CELL ignored
Warning: card / ignored

     Current dimensions of program PWSCF are:
     Max number of different atomic species (ntypx) = 10
     Max number of k-points (npk) =  40000
     Max angular momentum in pseudopotentials (lmaxx) =  4
     file O.pbe-n-kjpaw_psl.0.1.UPF: wavefunction(s)  2P renormalized
     Message from routine setup:
     using ibrav=0 with symmetry is DISCOURAGED, use correct ibrav instead

     Using Slab Decomposition

     bravais-lattice index     =            0
     lattice parameter (alat)  =       9.8174  a.u.
     unit-cell volume          =     946.5359 (a.u.)^3
     number of atoms/cell      =           12
     number of atomic types    =            2
     number of electrons       =        96.00
     number of Kohn-Sham states=           64
     kinetic-energy cutoff     =      30.0000  Ry
     charge density cutoff     =     240.0000  Ry
     scf convergence threshold =      1.0E-06
     mixing beta               =       0.7000
     number of iterations used =            8  plain     mixing
     Exchange-correlation= SLA  PW   PBX  PBC
                           (   1   4   3   4   0   0   0)

     celldm(1)=   9.817407  celldm(2)=   0.000000  celldm(3)=   0.000000
     celldm(4)=   0.000000  celldm(5)=   0.000000  celldm(6)=   0.000000

     crystal axes: (cart. coord. in units of alat)
               a(1) = (   1.000000   0.000000   0.000000 )
               a(2) = (   0.000000   0.989831   0.000000 )
               a(3) = (   0.000000   0.172285   1.010615 )

     reciprocal axes: (cart. coord. in units 2 pi/alat)
               b(1) = (  1.000000  0.000000  0.000000 )
               b(2) = (  0.000000  1.010273 -0.172227 )
               b(3) = (  0.000000  0.000000  0.989497 )

     PseudoPot. # 1 for Hf read from file:
     /home/pragov/projects/rrg-bengioy-ad/pragov/crystal_structure_design/SSSP/Hf-sp.oncvpsp.upf
     MD5 check sum: 417ed15784afe83d2e06dacf143de3f8
     Pseudo is Norm-conserving + core correction, Zval = 12.0
     Generated using ONCVPSP code by D. R. Hamann
     Using radial grid of 1656 points,  8 beta functions with:
                l(1) =   0
                l(2) =   0
                l(3) =   1
                l(4) =   1
                l(5) =   2
                l(6) =   2
                l(7) =   3
                l(8) =   3

     PseudoPot. # 2 for O  read from file:
     /home/pragov/projects/rrg-bengioy-ad/pragov/crystal_structure_design/SSSP/O.pbe-n-kjpaw_psl.0.1.UPF
     MD5 check sum: 0234752ac141de4415c5fc33072bef88
     Pseudo is Projector augmented-wave + core cor, Zval =  6.0
     Generated using "atomic" code by A. Dal Corso  v.5.0.99 svn rev. 10869
     Shape of augmentation charge: BESSEL
     Using radial grid of 1095 points,  4 beta functions with:
                l(1) =   0
                l(2) =   0
                l(3) =   1
                l(4) =   1
     Q(r) pseudized with 0 coefficients

     atomic species   valence    mass     pseudopotential
        Hf            12.00   178.49000     Hf( 1.00)
        O              6.00    15.99900     O ( 1.00)

      4 Sym. Ops., with inversion, found ( 2 have fractional translation)

                                    s                        frac. trans.

      isym =  1     identity

 cryst.   s( 1) = (     1          0          0      )
                  (     0          1          0      )
                  (     0          0          1      )

 cart.    s( 1) = (  1.0000000  0.0000000  0.0000000 )
                  (  0.0000000  1.0000000 -0.0000000 )
                  (  0.0000000  0.0000000  1.0000000 )

      isym =  2     180 deg rotation - cart. axis [1,0,0]

 cryst.   s( 2) = (     1          0          0      )    f =(  0.5000000 )
                  (     0         -1          0      )       ( -0.0000000 )
                  (     0          0         -1      )       ( -0.5000000 )

 cart.    s( 2) = (  1.0000000  0.0000000  0.0000000 )    f =(  0.5000000 )
                  (  0.0000000 -1.0000000  0.0000000 )       ( -0.0861426 )
                  (  0.0000000  0.0000000 -1.0000000 )       ( -0.5053074 )

      isym =  3     inversion

 cryst.   s( 3) = (    -1          0          0      )
                  (     0         -1          0      )
                  (     0          0         -1      )

 cart.    s( 3) = ( -1.0000000  0.0000000  0.0000000 )
                  (  0.0000000 -1.0000000  0.0000000 )
                  (  0.0000000  0.0000000 -1.0000000 )

      isym =  4     inv. 180 deg rotation - cart. axis [1,0,0]

 cryst.   s( 4) = (    -1          0          0      )    f =(  0.5000000 )
                  (     0          1          0      )       ( -0.0000000 )
                  (     0          0          1      )       ( -0.5000000 )

 cart.    s( 4) = ( -1.0000000  0.0000000  0.0000000 )    f =(  0.5000000 )
                  (  0.0000000  1.0000000 -0.0000000 )       ( -0.0861426 )
                  (  0.0000000  0.0000000  1.0000000 )       ( -0.5053074 )

   Cartesian axes

     site n.     atom                  positions (alat units)
         1           Hf  tau(   1) = (   0.5426810   0.8386374   0.7154051  )
         2           Hf  tau(   2) = (   0.0426810   0.4096214   0.8005170  )
         3           Hf  tau(   3) = (   0.4573190   0.3234788   0.2952097  )
         4           Hf  tau(   4) = (   0.9573190   0.7524948   0.2100977  )
         5           O   tau(   5) = (   0.2573970   0.7139534   0.9880861  )
         6           O   tau(   6) = (   0.7573970   0.5343055   0.5278360  )
         7           O   tau(   7) = (   0.7426030   0.4481629   0.0225286  )
         8           O   tau(   8) = (   0.2426030   0.6278108   0.4827787  )
         9           O   tau(   9) = (   0.6698780   0.9824712   0.3507783  )
        10           O   tau(  10) = (   0.1698780   0.0935025   0.1545291  )
        11           O   tau(  11) = (   0.3301220   0.1796451   0.6598364  )
        12           O   tau(  12) = (   0.8301220   1.0686138   0.8560857  )

   Crystallographic axes

     site n.     atom                  positions (cryst. coord.)
         1           Hf  tau(   1) = (  0.5426810  0.7240410  0.7078910  )
         2           Hf  tau(   2) = (  0.0426810  0.2759590  0.7921090  )
         3           Hf  tau(   3) = (  0.4573190  0.2759590  0.2921090  )
         4           Hf  tau(   4) = (  0.9573190  0.7240410  0.2078910  )
         5           O   tau(   5) = (  0.2573970  0.5511130  0.9777080  )
         6           O   tau(   6) = (  0.7573970  0.4488870  0.5222920  )
         7           O   tau(   7) = (  0.7426030  0.4488870  0.0222920  )
         8           O   tau(   8) = (  0.2426030  0.5511130  0.4777080  )
         9           O   tau(   9) = (  0.6698780  0.9321510  0.3470940  )
        10           O   tau(  10) = (  0.1698780  0.0678490  0.1529060  )
        11           O   tau(  11) = (  0.3301220  0.0678490  0.6529060  )
        12           O   tau(  12) = (  0.8301220  0.9321510  0.8470940  )

     number of k points=    10
                       cart. coord. in units 2pi/alat
        k(    1) = (   0.0000000   0.0000000   0.0000000), wk =   0.0740741
        k(    2) = (   0.0000000   0.0000000   0.3298323), wk =   0.1481481
        k(    3) = (   0.0000000   0.3367578  -0.0574090), wk =   0.1481481
        k(    4) = (   0.0000000   0.3367578   0.2724233), wk =   0.1481481
        k(    5) = (   0.0000000   0.3367578  -0.3872413), wk =   0.1481481
        k(    6) = (   0.3333333   0.0000000   0.0000000), wk =   0.1481481
        k(    7) = (   0.3333333   0.0000000   0.3298323), wk =   0.2962963
        k(    8) = (   0.3333333   0.3367578  -0.0574090), wk =   0.2962963
        k(    9) = (   0.3333333   0.3367578   0.2724233), wk =   0.2962963
        k(   10) = (   0.3333333   0.3367578  -0.3872413), wk =   0.2962963

                       cryst. coord.
        k(    1) = (   0.0000000   0.0000000   0.0000000), wk =   0.0740741
        k(    2) = (   0.0000000   0.0000000   0.3333333), wk =   0.1481481
        k(    3) = (   0.0000000   0.3333333  -0.0000000), wk =   0.1481481
        k(    4) = (   0.0000000   0.3333333   0.3333333), wk =   0.1481481
        k(    5) = (   0.0000000   0.3333333  -0.3333333), wk =   0.1481481
        k(    6) = (   0.3333333   0.0000000   0.0000000), wk =   0.1481481
        k(    7) = (   0.3333333   0.0000000   0.3333333), wk =   0.2962963
        k(    8) = (   0.3333333   0.3333333  -0.0000000), wk =   0.2962963
        k(    9) = (   0.3333333   0.3333333   0.3333333), wk =   0.2962963
        k(   10) = (   0.3333333   0.3333333  -0.3333333), wk =   0.2962963

     Check: negative core charge=   -0.000012

     Initial potential from superposition of free atoms

     starting charge      95.9926, renormalised to      96.0000
     Starting wfcs are   72 randomized atomic wfcs
     Checking if some PAW data can be deallocated...

     Self-consistent Calculation

     iteration #  1     ecut=    30.00 Ry     beta= 0.70
     Davidson diagonalization with overlap

     ethr =  1.00E-02,  avg # of iterations =  2.1

     total energy              =    -783.90408697 Ry
     estimated scf accuracy    <       3.75255052 Ry

[...]

     total energy              =    -785.76463495 Ry
     estimated scf accuracy    <       0.00002084 Ry

     iteration #  8     ecut=    30.00 Ry     beta= 0.70
     Davidson diagonalization with overlap

     ethr =  2.17E-08,  avg # of iterations =  3.0

     End of self-consistent calculation

          k = 0.0000 0.0000 0.0000 (  2625 PWs)   bands (ev):

   -49.8652 -49.8279 -49.8236 -49.8159 -18.9683 -18.9338 -18.9108 -18.7310
   -18.6657 -18.6339 -18.6045 -18.5710 -18.5433 -18.5420 -18.4942 -18.4379
    -7.6045  -6.3099  -6.1841  -6.1190  -5.6483  -5.6099  -5.5216  -5.4362
     5.1296   5.2236   5.7272   5.9344   6.0385   6.3690   7.1529   7.4337
     7.6366   7.8081   7.8230   7.9801   8.5085   8.6641   8.6664   8.7124
     8.9121   9.3908   9.4116   9.5661   9.9924  10.0004  10.3452  10.5591
    15.0798  15.5658  15.6840  16.0334  16.2094  16.3661  16.5623  16.7599
    17.0146  17.1450  17.6021  17.8065  18.0350  18.4429  18.7425  19.2469

     occupation numbers
     1.0000   1.0000   1.0000   1.0000   1.0000   1.0000   1.0000   1.0000
     1.0000   1.0000   1.0000   1.0000   1.0000   1.0000   1.0000   1.0000
     1.0000   1.0000   1.0000   1.0000   1.0000   1.0000   1.0000   1.0000
     1.0000   1.0000   1.0000   1.0000   1.0000   1.0000   1.0000   1.0000
     1.0000   1.0000   1.0000   1.0000   1.0000   1.0000   1.0000   1.0000
     1.0000   1.0000   1.0000   1.0000   1.0000   1.0000   1.0000   1.0000
     0.0000   0.0000   0.0000   0.0000   0.0000   0.0000   0.0000   0.0000
     0.0000   0.0000   0.0000   0.0000   0.0000   0.0000   0.0000   0.0000

[...]

          k = 0.3333 0.3368-0.3872 (  2621 PWs)   bands (ev):

   -49.8381 -49.8352 -49.8307 -49.8220 -18.9069 -18.8772 -18.8623 -18.8180
   -18.6801 -18.6676 -18.6031 -18.5631 -18.5448 -18.5369 -18.5105 -18.4940
    -6.7123  -6.5311  -6.4478  -6.2688  -5.6970  -5.6719  -5.6442  -5.5471
     5.8305   6.1371   6.3164   6.4090   6.4840   6.6662   6.7422   6.9654
     7.3028   7.5731   7.8120   7.9746   8.2134   8.3391   8.5254   8.7173
     8.9110   8.9525   9.1697   9.3213   9.4151   9.7557   9.8080  10.1002
    14.8998  15.3179  15.6951  15.9485  16.1618  16.4330  16.7539  16.9446
    17.0777  17.4946  17.7054  18.1004  18.5774  18.8085  19.3205  19.4623

     occupation numbers
     1.0000   1.0000   1.0000   1.0000   1.0000   1.0000   1.0000   1.0000
     1.0000   1.0000   1.0000   1.0000   1.0000   1.0000   1.0000   1.0000
     1.0000   1.0000   1.0000   1.0000   1.0000   1.0000   1.0000   1.0000
     1.0000   1.0000   1.0000   1.0000   1.0000   1.0000   1.0000   1.0000
     1.0000   1.0000   1.0000   1.0000   1.0000   1.0000   1.0000   1.0000
     1.0000   1.0000   1.0000   1.0000   1.0000   1.0000   1.0000   1.0000
     0.0000   0.0000   0.0000   0.0000   0.0000   0.0000   0.0000   0.0000
     0.0000   0.0000   0.0000   0.0000   0.0000   0.0000   0.0000   0.0000

     highest occupied, lowest unoccupied level (ev):    10.5591   14.7426

!    total energy              =    -785.76464015 Ry
     estimated scf accuracy    <       0.00000075 Ry

     The total energy is the sum of the following terms:
     one-electron contribution =    -144.14974405 Ry
     hartree contribution      =     126.11030652 Ry
     xc contribution           =    -174.24474819 Ry
     ewald contribution        =    -517.34399231 Ry
     one-center paw contrib.   =     -76.13646211 Ry
      -> PAW hartree energy AE =       0.00000000 Ry
      -> PAW hartree energy PS =       0.00000000 Ry
      -> PAW xc energy AE      =       0.00000000 Ry
      -> PAW xc energy PS      =       0.00000000 Ry
      -> total E_H with PAW    =     126.11030652 Ry
      -> total E_XC with PAW   =    -174.24474819 Ry

     convergence has been achieved in   8 iterations

     Writing all to output data dir calculations_bands/myprefix.save/

     General routines

     Parallel routines

     PAW routines

   This run was terminated on:   6:42:37   6Jun2023

   JOB DONE.