     Program PWSCF v.7.0 starts on  5Jun2023 at  7:31:18

     K-points division:     npool     =       2
     R & G space division:  proc/nbgrp/npool/nimage =       4

     Reading input from espresso_9525.pwi
Warning: card &CELL ignored
Warning: card / ignored

     Current dimensions of program PWSCF are:
     Max number of different atomic species (ntypx) = 10
     Max number of k-points (npk) =  40000
     Max angular momentum in pseudopotentials (lmaxx) =  4
     Message from routine setup:
     using ibrav=0 with symmetry is DISCOURAGED, use correct ibrav instead

     Using Slab Decomposition

     bravais-lattice index     =            0
     lattice parameter (alat)  =       7.1343  a.u.
     unit-cell volume          =    2869.2169 (a.u.)^3
     number of atoms/cell      =           12
     number of atomic types    =            2
     number of electrons       =       104.00
     number of Kohn-Sham states=           64
     kinetic-energy cutoff     =      30.0000  Ry
     charge density cutoff     =     240.0000  Ry
     scf convergence threshold =      1.0E-06
     mixing beta               =       0.7000
     number of iterations used =            8  plain     mixing
     Exchange-correlation= SLA  PW   PBX  PBC
                           (   1   4   3   4   0   0   0)

     celldm(1)=   7.134347  celldm(2)=   0.000000  celldm(3)=   0.000000
     celldm(4)=   0.000000  celldm(5)=   0.000000  celldm(6)=   0.000000

     crystal axes: (cart. coord. in units of alat)
               a(1) = (   1.000000   0.000000   0.000000 )
               a(2) = (   0.000000   1.834712   0.000000 )
               a(3) = (   0.000000   0.388978   4.306583 )

     reciprocal axes: (cart. coord. in units 2 pi/alat)
               b(1) = (  1.000000  0.000000  0.000000 )
               b(2) = (  0.000000  0.545045 -0.049229 )
               b(3) = (  0.000000  0.000000  0.232203 )

     PseudoPot. # 1 for Zr read from file:
     /home/pragov/projects/rrg-bengioy-ad/pragov/crystal_structure_design/SSSP/Zr_pbe_v1.uspp.F.UPF
     MD5 check sum: 5db81b1e868ab7776c4564c113de050b
     Pseudo is Ultrasoft + core correction, Zval = 12.0
     Generated by new atomic code, or converted to UPF format
     Using radial grid of  887 points,  6 beta functions with:
                l(1) =   0
                l(2) =   0
                l(3) =   1
                l(4) =   1
                l(5) =   2
                l(6) =   2
     Q(r) pseudized with  6 coefficients,  rinner =    1.200   1.200   1.200
                                                       1.200   1.200

     PseudoPot. # 2 for I  read from file:
     /home/pragov/projects/rrg-bengioy-ad/pragov/crystal_structure_design/SSSP/I.pbe-n-kjpaw_psl.0.2.UPF
     MD5 check sum: d4ef18d9c8f18dc85e5843bca1e50dc0
     Pseudo is Projector augmented-wave + core cor, Zval =  7.0
     Generated using "atomic" code by A. Dal Corso  v.5.0.99 svn rev. 10869
     Shape of augmentation charge: PSQ
     Using radial grid of 1247 points,  4 beta functions with:
                l(1) =   0
                l(2) =   0
                l(3) =   1
                l(4) =   1
     Q(r) pseudized with 0 coefficients

     atomic species   valence    mass     pseudopotential
        Zr            12.00    91.22400     Zr( 1.00)
        I              7.00   126.90447     I ( 1.00)

      4 Sym. Ops., with inversion, found ( 2 have fractional translation)

                                    s                        frac. trans.

      isym =  1     identity

 cryst.   s( 1) = (     1          0          0      )
                  (     0          1          0      )
                  (     0          0          1      )

 cart.    s( 1) = (  1.0000000  0.0000000  0.0000000 )
                  (  0.0000000  1.0000000 -0.0000000 )
                  (  0.0000000  0.0000000  1.0000000 )

      isym =  2     180 deg rotation - cart. axis [1,0,0]

 cryst.   s( 2) = (     1          0          0      )    f =( -0.5000000 )
                  (     0         -1          0      )       (  0.0000000 )
                  (     0          0         -1      )       ( -0.0000000 )

 cart.    s( 2) = (  1.0000000  0.0000000  0.0000000 )    f =( -0.5000000 )
                  (  0.0000000 -1.0000000  0.0000000 )       (  0.0000000 )
                  (  0.0000000  0.0000000 -1.0000000 )       ( -0.0000000 )

      isym =  3     inversion

 cryst.   s( 3) = (    -1          0          0      )
                  (     0         -1          0      )
                  (     0          0         -1      )

 cart.    s( 3) = ( -1.0000000  0.0000000  0.0000000 )
                  (  0.0000000 -1.0000000  0.0000000 )
                  (  0.0000000  0.0000000 -1.0000000 )

      isym =  4     inv. 180 deg rotation - cart. axis [1,0,0]

 cryst.   s( 4) = (    -1          0          0      )    f =(  0.5000000 )
                  (     0          1          0      )       (  0.0000000 )
                  (     0          0          1      )       (  0.0000000 )

 cart.    s( 4) = ( -1.0000000  0.0000000  0.0000000 )    f =(  0.5000000 )
                  (  0.0000000  1.0000000 -0.0000000 )       (  0.0000000 )
                  (  0.0000000  0.0000000  1.0000000 )       (  0.0000000 )

   Cartesian axes

     site n.     atom                  positions (alat units)
         1           Zr  tau(   1) = (   0.2500000   0.9628226   4.2929184  )
         2           Zr  tau(   2) = (   0.2500000   1.6858500   2.1673009  )
         3           Zr  tau(   3) = (   0.7500000   1.2608665   0.0136648  )
         4           Zr  tau(   4) = (   0.7500000   0.5378391   2.1392823  )
         5           I   tau(   5) = (   0.2500000   0.9641932   2.5870248  )
         6           I   tau(   6) = (   0.7500000   1.2594959   1.7195584  )
         7           I   tau(   7) = (   0.7500000   1.1573520   3.7225718  )
         8           I   tau(   8) = (   0.7500000   0.1467938   0.4333026  )
         9           I   tau(   9) = (   0.2500000   1.0663371   0.5840114  )
        10           I   tau(  10) = (   0.7500000   1.8808060   2.7375657  )
        11           I   tau(  11) = (   0.2500000   2.0768953   3.8732806  )
        12           I   tau(  12) = (   0.2500000   0.3428831   1.5690175  )

   Crystallographic axes

     site n.     atom                  positions (cryst. coord.)
         1           Zr  tau(   1) = (  0.2500000  0.3134440  0.9968270  )
         2           Zr  tau(   2) = (  0.2500000  0.8121690  0.5032530  )
         3           Zr  tau(   3) = (  0.7500000  0.6865560  0.0031730  )
         4           Zr  tau(   4) = (  0.7500000  0.1878310  0.4967470  )
         5           I   tau(   5) = (  0.2500000  0.3981710  0.6007140  )
         6           I   tau(   6) = (  0.7500000  0.6018290  0.3992860  )
         7           I   tau(   7) = (  0.7500000  0.4475490  0.8643910  )
         8           I   tau(   8) = (  0.7500000  0.0586780  0.1006140  )
         9           I   tau(   9) = (  0.2500000  0.5524510  0.1356090  )
        10           I   tau(  10) = (  0.7500000  0.8903550  0.6356700  )
        11           I   tau(  11) = (  0.2500000  0.9413220  0.8993860  )
        12           I   tau(  12) = (  0.2500000  0.1096450  0.3643300  )

     number of k points=    10
                       cart. coord. in units 2pi/alat
        k(    1) = (   0.0000000   0.0000000   0.0000000), wk =   0.0740741
        k(    2) = (   0.0000000   0.0000000   0.0774009), wk =   0.1481481
        k(    3) = (   0.0000000   0.1816816  -0.0164098), wk =   0.1481481
        k(    4) = (   0.0000000   0.1816816   0.0609911), wk =   0.1481481
        k(    5) = (   0.0000000   0.1816816  -0.0938107), wk =   0.1481481
        k(    6) = (   0.3333333   0.0000000   0.0000000), wk =   0.1481481
        k(    7) = (   0.3333333   0.0000000   0.0774009), wk =   0.2962963
        k(    8) = (   0.3333333   0.1816816  -0.0164098), wk =   0.2962963
        k(    9) = (   0.3333333   0.1816816   0.0609911), wk =   0.2962963
        k(   10) = (   0.3333333   0.1816816  -0.0938107), wk =   0.2962963

                       cryst. coord.
        k(    1) = (   0.0000000   0.0000000   0.0000000), wk =   0.0740741
        k(    2) = (   0.0000000   0.0000000   0.3333333), wk =   0.1481481
        k(    3) = (   0.0000000   0.3333333  -0.0000000), wk =   0.1481481
        k(    4) = (   0.0000000   0.3333333   0.3333333), wk =   0.1481481
        k(    5) = (   0.0000000   0.3333333  -0.3333333), wk =   0.1481481
        k(    6) = (   0.3333333   0.0000000   0.0000000), wk =   0.1481481
        k(    7) = (   0.3333333   0.0000000   0.3333333), wk =   0.2962963
        k(    8) = (   0.3333333   0.3333333  -0.0000000), wk =   0.2962963
        k(    9) = (   0.3333333   0.3333333   0.3333333), wk =   0.2962963
        k(   10) = (   0.3333333   0.3333333  -0.3333333), wk =   0.2962963

     Check: negative core charge=   -0.000001

     Initial potential from superposition of free atoms

     starting charge     103.9908, renormalised to     104.0000

     negative rho (up, down):  2.476E-01 0.000E+00
     Starting wfcs are   84 randomized atomic wfcs
     Checking if some PAW data can be deallocated...

     Self-consistent Calculation

     iteration #  1     ecut=    30.00 Ry     beta= 0.70
     Davidson diagonalization with overlap

     ethr =  1.00E-02,  avg # of iterations =  2.0

     Threshold (ethr) on eigenvalues was too large:
     Diagonalizing with lowered threshold

     Davidson diagonalization with overlap

[...]

     negative rho (up, down):  2.472E-01 0.000E+00

     total energy              =   -3428.21890940 Ry
     estimated scf accuracy    <       0.82884315 Ry

[...]

     total energy              =   -3428.70382362 Ry
     estimated scf accuracy    <       0.00000957 Ry

     iteration #  9     ecut=    30.00 Ry     beta= 0.70
     Davidson diagonalization with overlap

     ethr =  9.20E-09,  avg # of iterations =  2.7

     negative rho (up, down):  2.490E-01 0.000E+00

     End of self-consistent calculation

          k = 0.0000 0.0000 0.0000 (  7927 PWs)   bands (ev):

   -42.4140 -42.3988 -42.3687 -42.3534 -20.5614 -20.5464 -20.5389 -20.5233
   -20.4592 -20.4590 -20.4438 -20.4436 -20.3249 -20.3093 -20.2407 -20.2252
    -7.3765  -7.3202  -7.0004  -6.9378  -6.5956  -6.5645  -6.5236  -6.4974
     1.2111   1.2816   1.3809   1.7744   1.7890   1.8800   2.4240   2.5052
     2.9433   3.2151   3.6667   3.8831   3.9253   4.0567   4.1334   4.1835
     4.3008   4.3264   4.5389   4.6010   4.8350   4.8655   5.4198   5.4572
     6.0371   6.1192   6.5570   6.8680   7.6603   7.6746   8.3190   8.3551
     8.4913   8.5104   8.8569   9.1533   9.2043   9.2378   9.4164   9.4285

     occupation numbers
     1.0000   1.0000   1.0000   1.0000   1.0000   1.0000   1.0000   1.0000
     1.0000   1.0000   1.0000   1.0000   1.0000   1.0000   1.0000   1.0000
     1.0000   1.0000   1.0000   1.0000   1.0000   1.0000   1.0000   1.0000
     1.0000   1.0000   1.0000   1.0000   1.0000   1.0000   1.0000   1.0000
     1.0000   1.0000   1.0000   1.0000   1.0000   1.0000   1.0000   1.0000
     1.0000   1.0000   1.0000   1.0000   1.0000   1.0000   1.0000   1.0000
     1.0000   1.0000   1.0000   1.0000   0.0000   0.0000   0.0000   0.0000
     0.0000   0.0000   0.0000   0.0000   0.0000   0.0000   0.0000   0.0000

[...]

          k = 0.3333 0.1817-0.0938 (  7959 PWs)   bands (ev):

   -42.3981 -42.3829 -42.3756 -42.3604 -20.5733 -20.5669 -20.5583 -20.5518
   -20.5038 -20.4882 -20.4670 -20.4514 -20.3402 -20.3246 -20.2603 -20.2448
    -6.7523  -6.7349  -6.6575  -6.6393  -6.5034  -6.4828  -6.3283  -6.3117
     1.5643   1.5832   1.8734   1.9148   2.0052   2.0310   2.2652   2.2917
     2.4891   2.5607   2.7933   2.8191   2.9172   3.0312   3.1206   3.1535
     3.4515   3.4790   3.8458   3.8817   3.9045   3.9266   4.2231   4.2377
     6.4984   6.5025   6.5385   6.5454   8.1454   8.1717   8.5544   8.6092
     8.9958   9.0274   9.1393   9.1717   9.2203   9.2595   9.4061   9.4601

     occupation numbers
     1.0000   1.0000   1.0000   1.0000   1.0000   1.0000   1.0000   1.0000
     1.0000   1.0000   1.0000   1.0000   1.0000   1.0000   1.0000   1.0000
     1.0000   1.0000   1.0000   1.0000   1.0000   1.0000   1.0000   1.0000
     1.0000   1.0000   1.0000   1.0000   1.0000   1.0000   1.0000   1.0000
     1.0000   1.0000   1.0000   1.0000   1.0000   1.0000   1.0000   1.0000
     1.0000   1.0000   1.0000   1.0000   1.0000   1.0000   1.0000   1.0000
     1.0000   1.0000   1.0000   1.0000   0.0000   0.0000   0.0000   0.0000
     0.0000   0.0000   0.0000   0.0000   0.0000   0.0000   0.0000   0.0000

     highest occupied, lowest unoccupied level (ev):     6.8680    7.5136

!    total energy              =   -3428.70382536 Ry
     estimated scf accuracy    <       0.00000024 Ry

     The total energy is the sum of the following terms:
     one-electron contribution =    -320.11917796 Ry
     hartree contribution      =     196.90965882 Ry
     xc contribution           =    -405.29549237 Ry
     ewald contribution        =    -336.00368556 Ry
     one-center paw contrib.   =   -2564.19512829 Ry
      -> PAW hartree energy AE =       0.00000000 Ry
      -> PAW hartree energy PS =       0.00000000 Ry
      -> PAW xc energy AE      =       0.00000000 Ry
      -> PAW xc energy PS      =       0.00000000 Ry
      -> total E_H with PAW    =     196.90965882 Ry
      -> total E_XC with PAW   =    -405.29549237 Ry

     convergence has been achieved in   9 iterations

     Writing all to output data dir calculations_bands/myprefix.save/

     General routines

     Parallel routines

     PAW routines

   This run was terminated on:   7:32:27   5Jun2023

   JOB DONE.