     Program PWSCF v.7.0 starts on  6Jun2023 at 22:11:30

     K-points division:     npool     =       2
     R & G space division:  proc/nbgrp/npool/nimage =       4

     Reading input from espresso_586.pwi
Warning: card &CELL ignored
Warning: card / ignored

     Current dimensions of program PWSCF are:
     Max number of different atomic species (ntypx) = 10
     Max number of k-points (npk) =  40000
     Max angular momentum in pseudopotentials (lmaxx) =  4
     file O.pbe-n-kjpaw_psl.0.1.UPF: wavefunction(s)  2P renormalized
     Message from routine setup:
     using ibrav=0 with symmetry is DISCOURAGED, use correct ibrav instead

     Using Slab Decomposition

     bravais-lattice index     =            0
     lattice parameter (alat)  =      12.4687  a.u.
     unit-cell volume          =    1037.1614 (a.u.)^3
     number of atoms/cell      =           12
     number of atomic types    =            3
     number of electrons       =       102.00
     number of Kohn-Sham states=           64
     kinetic-energy cutoff     =      30.0000  Ry
     charge density cutoff     =     240.0000  Ry
     scf convergence threshold =      1.0E-06
     mixing beta               =       0.7000
     number of iterations used =            8  plain     mixing
     Exchange-correlation= SLA  PW   PBX  PBC
                           (   1   4   3   4   0   0   0)

     celldm(1)=  12.468688  celldm(2)=   0.000000  celldm(3)=   0.000000
     celldm(4)=   0.000000  celldm(5)=   0.000000  celldm(6)=   0.000000

     crystal axes: (cart. coord. in units of alat)
               a(1) = (   1.000000   0.000000   0.000000 )
               a(2) = (   0.348383   0.937352   0.000000 )
               a(3) = (  -0.674191  -0.468676   0.570796 )

     reciprocal axes: (cart. coord. in units 2 pi/alat)
               b(1) = (  1.000000 -0.371667  0.875969 )
               b(2) = (  0.000000  1.066835  0.875969 )
               b(3) = (  0.000000  0.000000  1.751938 )

     PseudoPot. # 1 for Zr read from file:
     /home/pragov/projects/rrg-bengioy-ad/pragov/crystal_structure_design/SSSP/Zr_pbe_v1.uspp.F.UPF
     MD5 check sum: 5db81b1e868ab7776c4564c113de050b
     Pseudo is Ultrasoft + core correction, Zval = 12.0
     Generated by new atomic code, or converted to UPF format
     Using radial grid of  887 points,  6 beta functions with:
                l(1) =   0
                l(2) =   0
                l(3) =   1
                l(4) =   1
                l(5) =   2
                l(6) =   2
     Q(r) pseudized with  6 coefficients,  rinner =    1.200   1.200   1.200
                                                       1.200   1.200

     PseudoPot. # 2 for Bi read from file:
     /home/pragov/projects/rrg-bengioy-ad/pragov/crystal_structure_design/SSSP/Bi_pbe_v1.uspp.F.UPF
     MD5 check sum: cceb9f28ec65b6d7ff33140f5b0b1758
     Pseudo is Ultrasoft + core correction, Zval = 15.0
     Generated by new atomic code, or converted to UPF format
     Using radial grid of  899 points,  6 beta functions with:
                l(1) =   0
                l(2) =   0
                l(3) =   1
                l(4) =   1
                l(5) =   2
                l(6) =   2
     Q(r) pseudized with  6 coefficients,  rinner =    1.000   1.000   1.000
                                                       1.000   1.000

     PseudoPot. # 3 for O  read from file:
     /home/pragov/projects/rrg-bengioy-ad/pragov/crystal_structure_design/SSSP/O.pbe-n-kjpaw_psl.0.1.UPF
     MD5 check sum: 0234752ac141de4415c5fc33072bef88
     Pseudo is Projector augmented-wave + core cor, Zval =  6.0
     Generated using "atomic" code by A. Dal Corso  v.5.0.99 svn rev. 10869
     Shape of augmentation charge: BESSEL
     Using radial grid of 1095 points,  4 beta functions with:
                l(1) =   0
                l(2) =   0
                l(3) =   1
                l(4) =   1
     Q(r) pseudized with 0 coefficients

     atomic species   valence    mass     pseudopotential
        Zr            12.00    91.22400     Zr( 1.00)
        Bi            15.00   208.98040     Bi( 1.00)
        O              6.00    15.99900     O ( 1.00)

      2 Sym. Ops., with inversion, found ( 1 have fractional translation)

                                    s                        frac. trans.

      isym =  1     identity

 cryst.   s( 1) = (     1          0          0      )
                  (     0          1          0      )
                  (     0          0          1      )

 cart.    s( 1) = (  1.0000000 -0.0000000 -0.0000000 )
                  (  0.0000000  1.0000000 -0.0000000 )
                  (  0.0000000  0.0000000  1.0000000 )

      isym =  2     inversion

 cryst.   s( 2) = (    -1          0          0      )    f =(  0.2500000 )
                  (     0         -1          0      )       ( -0.2500000 )
                  (     0          0         -1      )       (  0.5000000 )

 cart.    s( 2) = ( -1.0000000  0.0000000  0.0000000 )    f =( -0.1741915 )
                  (  0.0000000 -1.0000000  0.0000000 )       ( -0.4686762 )
                  (  0.0000000  0.0000000 -1.0000000 )       (  0.2853982 )

   Cartesian axes

     site n.     atom                  positions (alat units)
         1           Zr  tau(   1) = (   0.5000000  -0.0000000   0.2853982  )
         2           Zr  tau(   2) = (   0.0000000   0.0000000   0.0000000  )
         3           Bi  tau(   3) = (   0.1741915   0.4686762   0.2853982  )
         4           Bi  tau(   4) = (   0.6741915   0.4686762   0.0000000  )
         5           O   tau(   5) = (   0.4871577   0.3184401   0.2820864  )
         6           O   tau(   6) = (  -0.2059824  -0.1229769   0.2887100  )
         7           O   tau(   7) = (   0.3575219  -0.0950128   0.5541977  )
         8           O   tau(   8) = (   0.7096865   0.8369009   0.0165988  )
         9           O   tau(   9) = (   0.1386965   0.1004514   0.2687994  )
        10           O   tau(  10) = (   0.8166696   0.5636890   0.3019970  )
        11           O   tau(  11) = (   0.0317910  -0.3456993   0.5674847  )
        12           O   tau(  12) = (   0.3612252   0.6189122   0.0033118  )

   Crystallographic axes

     site n.     atom                  positions (cryst. coord.)
         1           Zr  tau(   1) = (  0.7500000  0.2500000  0.5000000  )
         2           Zr  tau(   2) = (  0.0000000  0.0000000  0.0000000  )
         3           Bi  tau(   3) = (  0.2500000  0.7500000  0.5000000  )
         4           Bi  tau(   4) = (  0.5000000  0.5000000  0.0000000  )
         5           O   tau(   5) = (  0.6159030  0.5868220  0.4941980  )
         6           O   tau(   6) = (  0.0926250  0.1217050  0.5058020  )
         7           O   tau(   7) = (  0.8782950  0.3840970  0.9709200  )
         8           O   tau(   8) = (  0.4131780  0.9073750  0.0290800  )
         9           O   tau(   9) = (  0.3368220  0.3426250  0.4709200  )
        10           O   tau(  10) = (  0.8717050  0.8659030  0.5290800  )
        11           O   tau(  11) = (  0.6573750  0.1282950  0.9941980  )
        12           O   tau(  12) = (  0.1340970  0.6631780  0.0058020  )

     number of k points=    14
                       cart. coord. in units 2pi/alat
        k(    1) = (   0.0000000   0.0000000   0.0000000), wk =   0.0740741
        k(    2) = (   0.0000000   0.0000000   0.5839794), wk =   0.1481481
        k(    3) = (   0.0000000   0.3556116   0.2919897), wk =   0.1481481
        k(    4) = (   0.0000000   0.3556116   0.8759691), wk =   0.1481481
        k(    5) = (   0.3333333  -0.1238890   0.2919897), wk =   0.1481481
        k(    6) = (   0.3333333  -0.1238890   0.8759691), wk =   0.1481481
        k(    7) = (   0.3333333   0.2317226   0.5839794), wk =   0.1481481
        k(    8) = (   0.3333333   0.2317226   0.0000000), wk =   0.1481481
        k(    9) = (   0.3333333  -0.4795006  -0.0000000), wk =   0.1481481
        k(   10) = (   0.3333333  -0.4795006   0.5839794), wk =   0.1481481
        k(   11) = (   0.0000000  -0.3556116   0.2919897), wk =   0.1481481
        k(   12) = (  -0.3333333   0.1238890   0.2919897), wk =   0.1481481
        k(   13) = (  -0.3333333  -0.2317226   0.5839794), wk =   0.1481481
        k(   14) = (  -0.3333333   0.4795006   0.5839794), wk =   0.1481481

                       cryst. coord.
        k(    1) = (   0.0000000   0.0000000   0.0000000), wk =   0.0740741
        k(    2) = (   0.0000000   0.0000000   0.3333333), wk =   0.1481481
        k(    3) = (   0.0000000   0.3333333   0.0000000), wk =   0.1481481
        k(    4) = (   0.0000000   0.3333333   0.3333333), wk =   0.1481481
        k(    5) = (   0.3333333  -0.0000000   0.0000000), wk =   0.1481481
        k(    6) = (   0.3333333  -0.0000000   0.3333333), wk =   0.1481481
        k(    7) = (   0.3333333   0.3333333  -0.0000000), wk =   0.1481481
        k(    8) = (   0.3333333   0.3333333  -0.3333333), wk =   0.1481481
        k(    9) = (   0.3333333  -0.3333333  -0.0000000), wk =   0.1481481
        k(   10) = (   0.3333333  -0.3333333   0.3333333), wk =   0.1481481
        k(   11) = (   0.0000000  -0.3333333   0.3333333), wk =   0.1481481
        k(   12) = (  -0.3333333   0.0000000   0.3333333), wk =   0.1481481
        k(   13) = (  -0.3333333  -0.3333333   0.6666667), wk =   0.1481481
        k(   14) = (  -0.3333333   0.3333333   0.3333333), wk =   0.1481481

     Check: negative core charge=   -0.000013

     Initial potential from superposition of free atoms

     starting charge      99.9956, renormalised to     102.0000

     negative rho (up, down):  2.115E-01 0.000E+00
     Starting wfcs are   76 randomized atomic wfcs
     Checking if some PAW data can be deallocated...

     Self-consistent Calculation

     iteration #  1     ecut=    30.00 Ry     beta= 0.70
     Davidson diagonalization with overlap

     ethr =  1.00E-02,  avg # of iterations =  2.0

     negative rho (up, down):  2.078E-01 0.000E+00

     total energy              =    -900.82983425 Ry
     estimated scf accuracy    <       3.00359208 Ry

[...]

     total energy              =    -902.36581855 Ry
     estimated scf accuracy    <       0.00000348 Ry

     iteration # 10     ecut=    30.00 Ry     beta= 0.70
     Davidson diagonalization with overlap

     ethr =  3.41E-09,  avg # of iterations =  4.0

     negative rho (up, down):  2.147E-01 0.000E+00

     End of self-consistent calculation

          k = 0.0000 0.0000 0.0000 (  2897 PWs)   bands (ev):

   -37.4966 -37.4817 -15.7435 -15.6489 -15.6489 -15.5974 -15.5973 -15.5154
   -11.3459 -11.2850 -11.2850 -11.2400 -11.2400 -11.2105 -11.1993 -11.1819
   -11.1744 -11.1593  -7.9354  -6.2766  -6.0421  -6.0414  -6.0189  -6.0182
    -5.7618  -5.5080   0.5033   1.9405   5.5655   5.7445   5.9594   5.9596
     6.3762   6.5873   6.9616   6.9621   7.5133   7.5136   8.5569   8.5573
     9.1410   9.1869   9.2011   9.2015   9.6858   9.7040   9.8387   9.8409
     9.9604   9.9611  10.0807  10.1921  14.5558  14.7784  14.9349  15.5725
    16.1030  16.1030  16.7138  16.7387  17.2403  17.2485  17.2485  17.3780

     occupation numbers
     1.0000   1.0000   1.0000   1.0000   1.0000   1.0000   1.0000   1.0000
     1.0000   1.0000   1.0000   1.0000   1.0000   1.0000   1.0000   1.0000
     1.0000   1.0000   1.0000   1.0000   1.0000   1.0000   1.0000   1.0000
     1.0000   1.0000   1.0000   1.0000   1.0000   1.0000   1.0000   1.0000
     1.0000   1.0000   1.0000   1.0000   1.0000   1.0000   1.0000   1.0000
     1.0000   1.0000   1.0000   1.0000   1.0000   1.0000   1.0000   1.0000
     1.0000   1.0000   1.0000   0.0000   0.0000   0.0000   0.0000   0.0000
     0.0000   0.0000   0.0000   0.0000   0.0000   0.0000   0.0000   0.0000

[...]

          k = 0.0000-0.3556 0.2920 (  2876 PWs)   bands (ev):

[...]

          k =-0.3333 0.1239 0.2920 (  2876 PWs)   bands (ev):

[...]

          k =-0.3333 0.4795 0.5840 (  2897 PWs)   bands (ev):

   -37.4910 -37.4873 -15.7285 -15.6940 -15.6434 -15.6172 -15.5518 -15.5265
   -11.3521 -11.3294 -11.2717 -11.2664 -11.2098 -11.1953 -11.1921 -11.1711
   -11.1617 -11.1580  -6.9902  -6.9434  -6.7404  -6.2958  -5.8800  -5.7950
    -5.7204  -5.5014   1.1911   1.7251   5.2664   6.1242   6.1356   6.2191
     6.8888   6.9050   7.2369   7.3822   7.4693   7.5680   7.9018   8.1691
     8.3493   8.4395   8.9170   9.1904   9.2675   9.5629   9.5754   9.8002
     9.8597   9.8939  10.6422  10.7484  14.6501  14.6507  15.0273  15.0936
    15.2341  15.5448  16.5961  16.7311  17.0301  17.0975  17.7262  18.0864

     occupation numbers
     1.0000   1.0000   1.0000   1.0000   1.0000   1.0000   1.0000   1.0000
     1.0000   1.0000   1.0000   1.0000   1.0000   1.0000   1.0000   1.0000
     1.0000   1.0000   1.0000   1.0000   1.0000   1.0000   1.0000   1.0000
     1.0000   1.0000   1.0000   1.0000   1.0000   1.0000   1.0000   1.0000
     1.0000   1.0000   1.0000   1.0000   1.0000   1.0000   1.0000   1.0000
     1.0000   1.0000   1.0000   1.0000   1.0000   1.0000   1.0000   1.0000
     1.0000   1.0000   1.0000   0.0000   0.0000   0.0000   0.0000   0.0000
     0.0000   0.0000   0.0000   0.0000   0.0000   0.0000   0.0000   0.0000

     highest occupied, lowest unoccupied level (ev):    11.2905   10.1921

!    total energy              =    -902.36581939 Ry
     estimated scf accuracy    <       0.00000034 Ry

     The total energy is the sum of the following terms:
     one-electron contribution =    -151.63078980 Ry
     hartree contribution      =     145.67978088 Ry
     xc contribution           =    -224.49530091 Ry
     ewald contribution        =    -595.69066758 Ry
     one-center paw contrib.   =     -76.22884197 Ry
      -> PAW hartree energy AE =       0.00000000 Ry
      -> PAW hartree energy PS =       0.00000000 Ry
      -> PAW xc energy AE      =       0.00000000 Ry
      -> PAW xc energy PS      =       0.00000000 Ry
      -> total E_H with PAW    =     145.67978088 Ry
      -> total E_XC with PAW   =    -224.49530091 Ry

     convergence has been achieved in  10 iterations

     Writing all to output data dir calculations_bands/myprefix.save/

     General routines

     Parallel routines

     PAW routines

   This run was terminated on:  22:11:49   6Jun2023

   JOB DONE.