     Program PWSCF v.7.0 starts on  5Jun2023 at 19: 9: 5

     K-points division:     npool     =       2
     R & G space division:  proc/nbgrp/npool/nimage =       4

     Reading input from espresso_11193.pwi
Warning: card &CELL ignored
Warning: card / ignored

     Current dimensions of program PWSCF are:
     Max number of different atomic species (ntypx) = 10
     Max number of k-points (npk) =  40000
     Max angular momentum in pseudopotentials (lmaxx) =  4
     Message from routine setup:
     using ibrav=0 with symmetry is DISCOURAGED, use correct ibrav instead

     Using Slab Decomposition

     bravais-lattice index     =            0
     lattice parameter (alat)  =      11.8932  a.u.
     unit-cell volume          =    1187.9810 (a.u.)^3
     number of atoms/cell      =            8
     number of atomic types    =            3
     number of electrons       =        64.00
     number of Kohn-Sham states=           64
     kinetic-energy cutoff     =      30.0000  Ry
     charge density cutoff     =     240.0000  Ry
     scf convergence threshold =      1.0E-06
     mixing beta               =       0.7000
     number of iterations used =            8  plain     mixing
     Exchange-correlation= PBE
                           (   1   4   3   4   0   0   0)

     celldm(1)=  11.893237  celldm(2)=   0.000000  celldm(3)=   0.000000
     celldm(4)=   0.000000  celldm(5)=   0.000000  celldm(6)=   0.000000

     crystal axes: (cart. coord. in units of alat)
               a(1) = (   1.000000   0.000000   0.000000 )
               a(2) = (   0.002641   0.999997   0.000000 )
               a(3) = (  -0.501320  -0.499998   0.706172 )

     reciprocal axes: (cart. coord. in units 2 pi/alat)
               b(1) = (  1.000000 -0.002641  0.708042 )
               b(2) = (  0.000000  1.000003  0.708042 )
               b(3) = (  0.000000  0.000000  1.416085 )

     PseudoPot. # 1 for Cs read from file:
     /home/pragov/projects/rrg-bengioy-ad/pragov/crystal_structure_design/SSSP/Cs_pbe_v1.uspp.F.UPF
     MD5 check sum: 3476d69cb178dfad3ffaa59df4e07ca4
     Pseudo is Ultrasoft + core correction, Zval =  9.0
     Generated by new atomic code, or converted to UPF format
     Using radial grid of  905 points,  6 beta functions with:
                l(1) =   0
                l(2) =   0
                l(3) =   1
                l(4) =   1
                l(5) =   2
                l(6) =   2
     Q(r) pseudized with  6 coefficients,  rinner =    1.500   1.500   1.500
                                                       1.500   1.500

     PseudoPot. # 2 for Ta read from file:
     /home/pragov/projects/rrg-bengioy-ad/pragov/crystal_structure_design/SSSP/Ta_pbe_v1.uspp.F.UPF
     MD5 check sum: f8bbe9446314a3b8ea5d9f3e3836c939
     Pseudo is Ultrasoft + core correction, Zval = 13.0
     Generated by new atomic code, or converted to UPF format
     Using radial grid of  921 points,  7 beta functions with:
                l(1) =   0
                l(2) =   0
                l(3) =   1
                l(4) =   1
                l(5) =   2
                l(6) =   2
                l(7) =   3
     Q(r) pseudized with  6 coefficients,  rinner =    1.300   1.300   1.300
                                                       1.300   1.300   1.300
                                                       1.300

     PseudoPot. # 3 for N  read from file:
     /home/pragov/projects/rrg-bengioy-ad/pragov/crystal_structure_design/SSSP/N.pbe-n-radius_5.UPF
     MD5 check sum: 16739722b17309cd8fe442a2ace49922
     Pseudo is Ultrasoft + core correction, Zval =  5.0
     Generated using "atomic" code by A. Dal Corso  v.5.1
     Using radial grid of 1085 points,  4 beta functions with:
                l(1) =   0
                l(2) =   0
                l(3) =   1
                l(4) =   1
     Q(r) pseudized with 0 coefficients

     atomic species   valence    mass     pseudopotential
        Cs             9.00   132.90545     Cs( 1.00)
        Ta            13.00   180.94788     Ta( 1.00)
        N              5.00    14.00700     N ( 1.00)

      2 Sym. Ops. (no inversion) found ( 1 have fractional translation)

                                    s                        frac. trans.

      isym =  1     identity

 cryst.   s( 1) = (     1          0          0      )
                  (     0          1          0      )
                  (     0          0          1      )

 cart.    s( 1) = (  1.0000000  0.0000000 -0.0000000 )
                  (  0.0000000  1.0000000 -0.0000000 )
                  (  0.0000000  0.0000000  1.0000000 )

      isym =  2     inv. 180 deg rotation - cart. axis [0,0,1]

 cryst.   s( 2) = (     1          0          0      )    f =(  0.2500000 )
                  (     0          1          0      )       ( -0.2500000 )
                  (    -1         -1         -1      )       ( -0.5000000 )

 cart.    s( 2) = (  1.0000000  0.0000000 -0.0000000 )    f =(  0.5000000 )
                  (  0.0000000  1.0000000 -0.0000000 )       ( -0.0000000 )
                  (  0.0000000  0.0000000 -1.0000000 )       ( -0.3530862 )

   Cartesian axes

     site n.     atom                  positions (alat units)
         1           Cs  tau(   1) = (   0.5013205   0.4999983   0.0000000  )
         2           Cs  tau(   2) = (   0.0013205   0.4999983   0.3530862  )
         3           Ta  tau(   3) = (   0.0000000   0.0000000   0.0000000  )
         4           Ta  tau(   4) = (   0.5000000   0.0000000   0.3530862  )
         5           N   tau(   5) = (   0.7717354  -0.0217929   0.2073223  )
         6           N   tau(   6) = (   0.4776043  -0.2282062   0.5604086  )
         7           N   tau(   7) = (   0.2717354  -0.0217929   0.1457639  )
         8           N   tau(   8) = (   0.4789248   0.2717921   0.4988501  )

   Crystallographic axes

     site n.     atom                  positions (cryst. coord.)
         1           Cs  tau(   1) = (  0.5000000  0.5000000  0.0000000  )
         2           Cs  tau(   2) = (  0.2500000  0.7500000  0.5000000  )
         3           Ta  tau(   3) = (  0.0000000  0.0000000  0.0000000  )
         4           Ta  tau(   4) = (  0.7500000  0.2500000  0.5000000  )
         5           N   tau(   5) = (  0.9185860  0.1250000  0.2935860  )
         6           N   tau(   6) = (  0.8750000  0.1685860  0.7935860  )
         7           N   tau(   7) = (  0.3750000  0.0814140  0.2064140  )
         8           N   tau(   8) = (  0.8314140  0.6250000  0.7064140  )

     number of k points=    10
                       cart. coord. in units 2pi/alat
        k(    1) = (   0.0000000   0.0000000   0.0000000), wk =   0.0740741
        k(    2) = (   0.0000000   0.0000000   0.4720282), wk =   0.1481481
        k(    3) = (   0.0000000   0.3333345   0.2360141), wk =   0.2962963
        k(    4) = (   0.0000000   0.3333345   0.7080423), wk =   0.1481481
        k(    5) = (   0.3333333  -0.0008803   0.2360141), wk =   0.2962963
        k(    6) = (   0.3333333  -0.0008803   0.7080423), wk =   0.1481481
        k(    7) = (   0.3333333   0.3324542   0.4720282), wk =   0.2962963
        k(    8) = (   0.3333333   0.3324542  -0.0000000), wk =   0.1481481
        k(    9) = (   0.3333333  -0.3342148  -0.0000000), wk =   0.1481481
        k(   10) = (   0.3333333  -0.3342148   0.4720282), wk =   0.2962963

                       cryst. coord.
        k(    1) = (   0.0000000   0.0000000   0.0000000), wk =   0.0740741
        k(    2) = (   0.0000000   0.0000000   0.3333333), wk =   0.1481481
        k(    3) = (   0.0000000   0.3333333  -0.0000000), wk =   0.2962963
        k(    4) = (   0.0000000   0.3333333   0.3333333), wk =   0.1481481
        k(    5) = (   0.3333333   0.0000000  -0.0000000), wk =   0.2962963
        k(    6) = (   0.3333333   0.0000000   0.3333333), wk =   0.1481481
        k(    7) = (   0.3333333   0.3333333  -0.0000000), wk =   0.2962963
        k(    8) = (   0.3333333   0.3333333  -0.3333333), wk =   0.1481481
        k(    9) = (   0.3333333  -0.3333333  -0.0000000), wk =   0.1481481
        k(   10) = (   0.3333333  -0.3333333   0.3333333), wk =   0.2962963

     Check: negative core charge=   -0.000002

     Initial potential from superposition of free atoms

     starting charge      63.9190, renormalised to      64.0000

     negative rho (up, down):  1.913E-01 0.000E+00
     Starting wfcs are   68 randomized atomic wfcs

     Self-consistent Calculation

     iteration #  1     ecut=    30.00 Ry     beta= 0.70
     Davidson diagonalization with overlap

     ethr =  1.00E-02,  avg # of iterations =  6.6

     negative rho (up, down):  1.912E-01 0.000E+00

     total energy              =    -489.25348106 Ry
     estimated scf accuracy    <       3.57661412 Ry

[...]

     total energy              =    -491.12694097 Ry
     estimated scf accuracy    <       0.00000358 Ry

     iteration #  9     ecut=    30.00 Ry     beta= 0.70
     Davidson diagonalization with overlap

     ethr =  5.59E-09,  avg # of iterations =  3.4

     negative rho (up, down):  1.929E-01 0.000E+00

     End of self-consistent calculation

          k = 0.0000 0.0000 0.0000 (  3287 PWs)   bands (ev):

   -59.5141 -59.5127 -26.1849 -26.1839 -26.1839 -26.1349 -26.1334 -26.1334
   -14.1080 -13.8297  -5.5804  -4.5498  -4.5460  -4.5460  -1.1577  -1.1380
    -1.1380  -0.6078  -0.5939  -0.5939   3.6718   4.0868   4.1300   4.1300
     4.1582   4.1603   6.1506   6.2680   6.2680   7.4657   7.6285   7.6285
     9.8511   9.9596  10.3355  10.3960  10.3960  10.4132  12.9086  12.9443
    13.2148  13.2754  13.2754  14.4172  14.4683  14.4683  14.8911  15.0030
    15.8568  15.9168  16.9349  16.9496  16.9496  17.3292  17.4159  18.0024
    18.1892  18.1892  19.2211  19.2211  19.3353  19.3360  19.3566  19.3567

     occupation numbers
     1.0000   1.0000   1.0000   1.0000   1.0000   1.0000   1.0000   1.0000
     1.0000   1.0000   1.0000   1.0000   1.0000   1.0000   1.0000   1.0000
     1.0000   1.0000   1.0000   1.0000   1.0000   1.0000   1.0000   1.0000
     1.0000   1.0000   1.0000   1.0000   1.0000   1.0000   1.0000   1.0000
     0.0000   0.0000   0.0000   0.0000   0.0000   0.0000   0.0000   0.0000
     0.0000   0.0000   0.0000   0.0000   0.0000   0.0000   0.0000   0.0000
     0.0000   0.0000   0.0000   0.0000   0.0000   0.0000   0.0000   0.0000
     0.0000   0.0000   0.0000   0.0000   0.0000   0.0000   0.0000   0.0000

[...]

          k = 0.3333-0.3342 0.4720 (  3280 PWs)   bands (ev):

   -59.5138 -59.5131 -26.1897 -26.1875 -26.1676 -26.1514 -26.1298 -26.1284
   -14.0030 -13.9344  -5.2795  -4.9845  -4.5515  -4.5397  -1.3000  -1.2340
    -1.0012  -0.7307  -0.4125  -0.3323   3.8688   4.0739   4.2871   4.3206
     4.7374   4.9827   5.1271   5.7141   6.0610   6.3297   6.3504   7.1250
    10.4572  11.4445  11.6838  11.6858  11.7969  12.2378  12.2758  12.4307
    12.6601  13.0635  13.5216  13.9464  14.0906  14.1595  14.2878  14.3657
    14.3833  14.9687  15.1620  15.1800  17.0086  17.0977  17.1157  17.6681
    18.3085  18.6450  19.0470  19.9301  19.9708  20.3723  20.9648  20.9889

     occupation numbers
     1.0000   1.0000   1.0000   1.0000   1.0000   1.0000   1.0000   1.0000
     1.0000   1.0000   1.0000   1.0000   1.0000   1.0000   1.0000   1.0000
     1.0000   1.0000   1.0000   1.0000   1.0000   1.0000   1.0000   1.0000
     1.0000   1.0000   1.0000   1.0000   1.0000   1.0000   1.0000   1.0000
     0.0000   0.0000   0.0000   0.0000   0.0000   0.0000   0.0000   0.0000
     0.0000   0.0000   0.0000   0.0000   0.0000   0.0000   0.0000   0.0000
     0.0000   0.0000   0.0000   0.0000   0.0000   0.0000   0.0000   0.0000
     0.0000   0.0000   0.0000   0.0000   0.0000   0.0000   0.0000   0.0000

     highest occupied, lowest unoccupied level (ev):     7.6285    9.8511

!    total energy              =    -491.12694206 Ry
     estimated scf accuracy    <       0.00000004 Ry

     The total energy is the sum of the following terms:
     one-electron contribution =    -173.60999885 Ry
     hartree contribution      =     110.80748828 Ry
     xc contribution           =    -166.67016267 Ry
     ewald contribution        =    -261.65426882 Ry

     convergence has been achieved in   9 iterations

     Writing all to output data dir calculations_bands/myprefix.save/

     General routines

     Parallel routines

   This run was terminated on:  19: 9:16   5Jun2023

   JOB DONE.