     Program PWSCF v.7.0 starts on  6Jun2023 at  2: 3: 6

     K-points division:     npool     =       2
     R & G space division:  proc/nbgrp/npool/nimage =       4

     Reading input from espresso_13173.pwi
Warning: card &CELL ignored
Warning: card / ignored

     Current dimensions of program PWSCF are:
     Max number of different atomic species (ntypx) = 10
     Max number of k-points (npk) =  40000
     Max angular momentum in pseudopotentials (lmaxx) =  4
     file O.pbe-n-kjpaw_psl.0.1.UPF: wavefunction(s)  2P renormalized
     Message from routine setup:
     using ibrav=0 with symmetry is DISCOURAGED, use correct ibrav instead

     Using Slab Decomposition

     bravais-lattice index     =            0
     lattice parameter (alat)  =      12.1347  a.u.
     unit-cell volume          =    1406.7976 (a.u.)^3
     number of atoms/cell      =            8
     number of atomic types    =            3
     number of electrons       =        72.00
     number of Kohn-Sham states=           64
     kinetic-energy cutoff     =      30.0000  Ry
     charge density cutoff     =     240.0000  Ry
     scf convergence threshold =      1.0E-06
     mixing beta               =       0.7000
     number of iterations used =            8  plain     mixing
     Exchange-correlation= SLA  PW   PBX  PBC
                           (   1   4   3   4   0   0   0)

     celldm(1)=  12.134713  celldm(2)=   0.000000  celldm(3)=   0.000000
     celldm(4)=   0.000000  celldm(5)=   0.000000  celldm(6)=   0.000000

     crystal axes: (cart. coord. in units of alat)
               a(1) = (   1.000000   0.000000   0.000000 )
               a(2) = (  -0.128051   0.991768   0.000000 )
               a(3) = (   0.343742   0.390977   0.793840 )

     reciprocal axes: (cart. coord. in units 2 pi/alat)
               b(1) = (  1.000000  0.129114 -0.496601 )
               b(2) = (  0.000000  1.008301 -0.496601 )
               b(3) = (  0.000000  0.000000  1.259699 )

     PseudoPot. # 1 for Cs read from file:
     /home/pragov/projects/rrg-bengioy-ad/pragov/crystal_structure_design/SSSP/Cs_pbe_v1.uspp.F.UPF
     MD5 check sum: 3476d69cb178dfad3ffaa59df4e07ca4
     Pseudo is Ultrasoft + core correction, Zval =  9.0
     Generated by new atomic code, or converted to UPF format
     Using radial grid of  905 points,  6 beta functions with:
                l(1) =   0
                l(2) =   0
                l(3) =   1
                l(4) =   1
                l(5) =   2
                l(6) =   2
     Q(r) pseudized with  6 coefficients,  rinner =    1.500   1.500   1.500
                                                       1.500   1.500

     PseudoPot. # 2 for Bi read from file:
     /home/pragov/projects/rrg-bengioy-ad/pragov/crystal_structure_design/SSSP/Bi_pbe_v1.uspp.F.UPF
     MD5 check sum: cceb9f28ec65b6d7ff33140f5b0b1758
     Pseudo is Ultrasoft + core correction, Zval = 15.0
     Generated by new atomic code, or converted to UPF format
     Using radial grid of  899 points,  6 beta functions with:
                l(1) =   0
                l(2) =   0
                l(3) =   1
                l(4) =   1
                l(5) =   2
                l(6) =   2
     Q(r) pseudized with  6 coefficients,  rinner =    1.000   1.000   1.000
                                                       1.000   1.000

     PseudoPot. # 3 for O  read from file:
     /home/pragov/projects/rrg-bengioy-ad/pragov/crystal_structure_design/SSSP/O.pbe-n-kjpaw_psl.0.1.UPF
     MD5 check sum: 0234752ac141de4415c5fc33072bef88
     Pseudo is Projector augmented-wave + core cor, Zval =  6.0
     Generated using "atomic" code by A. Dal Corso  v.5.0.99 svn rev. 10869
     Shape of augmentation charge: BESSEL
     Using radial grid of 1095 points,  4 beta functions with:
                l(1) =   0
                l(2) =   0
                l(3) =   1
                l(4) =   1
     Q(r) pseudized with 0 coefficients

     atomic species   valence    mass     pseudopotential
        Cs             9.00   132.90545     Cs( 1.00)
        Bi            15.00   208.98040     Bi( 1.00)
        O              6.00    15.99900     O ( 1.00)

      2 Sym. Ops., with inversion, found

                                    s                        frac. trans.

      isym =  1     identity

 cryst.   s( 1) = (     1          0          0      )
                  (     0          1          0      )
                  (     0          0          1      )

 cart.    s( 1) = (  1.0000000  0.0000000  0.0000000 )
                  (  0.0000000  1.0000000  0.0000000 )
                  (  0.0000000  0.0000000  1.0000000 )

      isym =  2     inversion

 cryst.   s( 2) = (    -1          0          0      )
                  (     0         -1          0      )
                  (     0          0         -1      )

 cart.    s( 2) = ( -1.0000000 -0.0000000 -0.0000000 )
                  (  0.0000000 -1.0000000 -0.0000000 )
                  (  0.0000000  0.0000000 -1.0000000 )

   Cartesian axes

     site n.     atom                  positions (alat units)
         1           Cs  tau(   1) = (   0.5346839   0.9289922   0.5953802  )
         2           Cs  tau(   2) = (   0.6810069   0.4537520   0.1984601  )
         3           Bi  tau(   3) = (   0.0506228   1.0079776   0.1984601  )
         4           Bi  tau(   4) = (   1.1650680   0.3747667   0.5953802  )
         5           O   tau(   5) = (   0.7272205   0.9525271   0.1662960  )
         6           O   tau(   6) = (   0.1922556   0.3440503   0.2306241  )
         7           O   tau(   7) = (   1.0234352   1.0386939   0.5632162  )
         8           O   tau(   8) = (   0.4884703   0.4302171   0.6275443  )

   Crystallographic axes

     site n.     atom                  positions (cryst. coord.)
         1           Cs  tau(   1) = (  0.3589630  0.6410370  0.7500000  )
         2           Cs  tau(   2) = (  0.6410370  0.3589630  0.2500000  )
         3           Bi  tau(   3) = (  0.0822110  0.9177890  0.2500000  )
         4           Bi  tau(   4) = (  0.9177890  0.0822110  0.7500000  )
         5           O   tau(   5) = (  0.7676220  0.8778510  0.2094830  )
         6           O   tau(   6) = (  0.1221490  0.2323780  0.2905170  )
         7           O   tau(   7) = (  0.8778510  0.7676220  0.7094830  )
         8           O   tau(   8) = (  0.2323780  0.1221490  0.7905170  )

     number of k points=    14
                       cart. coord. in units 2pi/alat
        k(    1) = (   0.0000000   0.0000000   0.0000000), wk =   0.0740741
        k(    2) = (   0.0000000   0.0000000   0.4198997), wk =   0.1481481
        k(    3) = (   0.0000000   0.3361002  -0.1655337), wk =   0.1481481
        k(    4) = (   0.0000000   0.3361002   0.2543660), wk =   0.1481481
        k(    5) = (   0.0000000   0.3361002  -0.5854334), wk =   0.1481481
        k(    6) = (   0.3333333   0.0430379  -0.1655337), wk =   0.1481481
        k(    7) = (   0.3333333   0.0430379   0.2543660), wk =   0.1481481
        k(    8) = (   0.3333333   0.0430379  -0.5854334), wk =   0.1481481
        k(    9) = (   0.3333333   0.3791381  -0.3310674), wk =   0.1481481
        k(   10) = (   0.3333333   0.3791381   0.0888323), wk =   0.1481481
        k(   11) = (   0.3333333   0.3791381  -0.7509672), wk =   0.1481481
        k(   12) = (   0.3333333  -0.2930623  -0.0000000), wk =   0.1481481
        k(   13) = (   0.3333333  -0.2930623   0.4198997), wk =   0.1481481
        k(   14) = (   0.3333333  -0.2930623  -0.4198997), wk =   0.1481481

                       cryst. coord.
        k(    1) = (   0.0000000   0.0000000   0.0000000), wk =   0.0740741
        k(    2) = (   0.0000000   0.0000000   0.3333333), wk =   0.1481481
        k(    3) = (   0.0000000   0.3333333   0.0000000), wk =   0.1481481
        k(    4) = (   0.0000000   0.3333333   0.3333333), wk =   0.1481481
        k(    5) = (   0.0000000   0.3333333  -0.3333333), wk =   0.1481481
        k(    6) = (   0.3333333   0.0000000  -0.0000000), wk =   0.1481481
        k(    7) = (   0.3333333   0.0000000   0.3333333), wk =   0.1481481
        k(    8) = (   0.3333333   0.0000000  -0.3333333), wk =   0.1481481
        k(    9) = (   0.3333333   0.3333333   0.0000000), wk =   0.1481481
        k(   10) = (   0.3333333   0.3333333   0.3333333), wk =   0.1481481
        k(   11) = (   0.3333333   0.3333333  -0.3333333), wk =   0.1481481
        k(   12) = (   0.3333333  -0.3333333  -0.0000000), wk =   0.1481481
        k(   13) = (   0.3333333  -0.3333333   0.3333333), wk =   0.1481481
        k(   14) = (   0.3333333  -0.3333333  -0.3333333), wk =   0.1481481

     Check: negative core charge=   -0.000007

     Initial potential from superposition of free atoms

     starting charge      69.9211, renormalised to      72.0000

     negative rho (up, down):  8.503E-02 0.000E+00
     Starting wfcs are   60 randomized atomic wfcs +    4 random wfcs
     Checking if some PAW data can be deallocated...

     Self-consistent Calculation

     iteration #  1     ecut=    30.00 Ry     beta= 0.70
     Davidson diagonalization with overlap

     ethr =  1.00E-02,  avg # of iterations =  6.0

     negative rho (up, down):  7.873E-02 0.000E+00

     total energy              =    -662.37945625 Ry
     estimated scf accuracy    <       1.81087235 Ry

[...]

     total energy              =    -663.29916154 Ry
     estimated scf accuracy    <       0.00001517 Ry

     iteration #  8     ecut=    30.00 Ry     beta= 0.70
     Davidson diagonalization with overlap

     ethr =  2.11E-08,  avg # of iterations =  3.5

     negative rho (up, down):  8.405E-02 0.000E+00

     End of self-consistent calculation

          k = 0.0000 0.0000 0.0000 (  3891 PWs)   bands (ev):

   -16.3902 -16.3810 -16.3428 -16.2019 -16.1642 -16.1534 -16.1442 -16.1088
   -16.1056 -16.0950 -14.8502 -14.6879 -11.7718 -10.5330 -10.4290 -10.1793
    -3.9009  -2.5387  -1.9829  -1.8581  -1.7764  -1.6483  -1.5058  -1.3069
     1.8472   2.6358   2.9168   2.9401   3.2020   4.5027   4.5677   4.6375
     4.7063   4.8406   4.8540   5.4948   9.3485   9.7140   9.8296  10.3684
    10.6428  10.7440  10.7605  10.8863  11.9799  12.0683  12.6421  13.2206
    14.0558  14.1641  14.2830  14.4269  14.5214  15.8666  16.0126  16.1316
    16.5945  16.6935  17.4212  17.5129  17.5882  17.6810  18.2871  18.7664

     occupation numbers
     1.0000   1.0000   1.0000   1.0000   1.0000   1.0000   1.0000   1.0000
     1.0000   1.0000   1.0000   1.0000   1.0000   1.0000   1.0000   1.0000
     1.0000   1.0000   1.0000   1.0000   1.0000   1.0000   1.0000   1.0000
     1.0000   1.0000   1.0000   1.0000   1.0000   1.0000   1.0000   1.0000
     1.0000   1.0000   1.0000   1.0000   0.0000   0.0000   0.0000   0.0000
     0.0000   0.0000   0.0000   0.0000   0.0000   0.0000   0.0000   0.0000
     0.0000   0.0000   0.0000   0.0000   0.0000   0.0000   0.0000   0.0000
     0.0000   0.0000   0.0000   0.0000   0.0000   0.0000   0.0000   0.0000

[...]

          k = 0.3333-0.2931-0.4199 (  3900 PWs)   bands (ev):

   -16.4334 -16.3933 -16.2783 -16.2013 -16.1745 -16.1739 -16.1451 -16.1400
   -16.0762 -16.0689 -14.7813 -14.7411 -11.5847 -10.9937 -10.3021 -10.1410
    -3.6048  -2.9407  -1.9268  -1.8427  -1.6939  -1.5318  -1.3559  -1.3204
     2.1273   2.4257   2.5910   3.1731   3.6208   4.1823   4.5760   4.5814
     4.6384   4.8398   4.9276   5.3961   8.5360   8.9427   9.6140  10.0380
    10.5480  11.1006  11.4657  11.7731  12.3472  12.4706  12.5285  13.1469
    13.3193  13.9396  14.2912  14.3813  14.9171  15.3113  15.4384  15.5890
    16.3712  16.7555  17.3016  17.5521  17.8110  18.2635  18.6423  18.9485

     occupation numbers
     1.0000   1.0000   1.0000   1.0000   1.0000   1.0000   1.0000   1.0000
     1.0000   1.0000   1.0000   1.0000   1.0000   1.0000   1.0000   1.0000
     1.0000   1.0000   1.0000   1.0000   1.0000   1.0000   1.0000   1.0000
     1.0000   1.0000   1.0000   1.0000   1.0000   1.0000   1.0000   1.0000
     1.0000   1.0000   1.0000   1.0000   0.0000   0.0000   0.0000   0.0000
     0.0000   0.0000   0.0000   0.0000   0.0000   0.0000   0.0000   0.0000
     0.0000   0.0000   0.0000   0.0000   0.0000   0.0000   0.0000   0.0000
     0.0000   0.0000   0.0000   0.0000   0.0000   0.0000   0.0000   0.0000

     highest occupied, lowest unoccupied level (ev):     5.6418    8.0948

!    total energy              =    -663.29916554 Ry
     estimated scf accuracy    <       0.00000046 Ry

     The total energy is the sum of the following terms:
     one-electron contribution =    -272.47744132 Ry
     hartree contribution      =     175.79515021 Ry
     xc contribution           =    -219.59463490 Ry
     ewald contribution        =    -308.89082598 Ry
     one-center paw contrib.   =     -38.13141355 Ry
      -> PAW hartree energy AE =       0.00000000 Ry
      -> PAW hartree energy PS =       0.00000000 Ry
      -> PAW xc energy AE      =       0.00000000 Ry
      -> PAW xc energy PS      =       0.00000000 Ry
      -> total E_H with PAW    =     175.79515021 Ry
      -> total E_XC with PAW   =    -219.59463490 Ry

     convergence has been achieved in   8 iterations

     Writing all to output data dir calculations_bands/myprefix.save/

     General routines

     Parallel routines

     PAW routines

   This run was terminated on:   2: 3:18   6Jun2023

   JOB DONE.