     Program PWSCF v.7.0 starts on  7Jun2023 at 11:34:13

     K-points division:     npool     =       2
     R & G space division:  proc/nbgrp/npool/nimage =       4

     Reading input from espresso_8664.pwi
Warning: card &CELL ignored
Warning: card / ignored

     Current dimensions of program PWSCF are:
     Max number of different atomic species (ntypx) = 10
     Max number of k-points (npk) =  40000
     Max angular momentum in pseudopotentials (lmaxx) =  4
     file Mg.pbe-n-kjpaw_psl.0.3.0.UPF: wavefunction(s)  3S renormalized

     Using Slab Decomposition

     bravais-lattice index     =            0
     lattice parameter (alat)  =      14.0530  a.u.
     unit-cell volume          =    1575.5803 (a.u.)^3
     number of atoms/cell      =            6
     number of atomic types    =            2
     number of electrons       =        52.00
     number of Kohn-Sham states=           64
     kinetic-energy cutoff     =      30.0000  Ry
     charge density cutoff     =     240.0000  Ry
     scf convergence threshold =      1.0E-06
     mixing beta               =       0.7000
     number of iterations used =            8  plain     mixing
     Exchange-correlation= SLA  PW   PBX  PBC
                           (   1   4   3   4   0   0   0)

     celldm(1)=  14.053037  celldm(2)=   0.000000  celldm(3)=   0.000000
     celldm(4)=   0.000000  celldm(5)=   0.000000  celldm(6)=   0.000000

     crystal axes: (cart. coord. in units of alat)
               a(1) = (   1.000000   0.000000   0.000000 )
               a(2) = (   0.868162   0.496282   0.000000 )
               a(3) = (   0.311184   0.082667   1.143936 )

     reciprocal axes: (cart. coord. in units 2 pi/alat)
               b(1) = (  1.000000 -1.749332 -0.145613 )
               b(2) = (  0.000000  2.014985 -0.145613 )
               b(3) = (  0.000000  0.000000  0.874175 )

     PseudoPot. # 1 for Ca read from file:
     /home/pragov/projects/rrg-bengioy-ad/pragov/crystal_structure_design/SSSP/Ca_pbe_v1.uspp.F.UPF
     MD5 check sum: 403a4c14b9e4d4dfdc3024c9a3812218
     Pseudo is Ultrasoft + core correction, Zval = 10.0
     Generated by new atomic code, or converted to UPF format
     Using radial grid of  845 points,  6 beta functions with:
                l(1) =   0
                l(2) =   0
                l(3) =   1
                l(4) =   1
                l(5) =   2
                l(6) =   2
     Q(r) pseudized with  8 coefficients,  rinner =    1.500   1.500   1.500
                                                       1.500   1.500

     PseudoPot. # 2 for Mg read from file:
     /home/pragov/projects/rrg-bengioy-ad/pragov/crystal_structure_design/SSSP/Mg.pbe-n-kjpaw_psl.0.3.0.UPF
     MD5 check sum: 24ecedc7f3e3cbe212e682f4413594e4
     Pseudo is Projector augmented-wave + core cor, Zval =  2.0
     Generated using "atomic" code by A. Dal Corso  v.5.0.99 svn rev. 10869
     Shape of augmentation charge: PSQ
     Using radial grid of 1129 points,  4 beta functions with:
                l(1) =   0
                l(2) =   0
                l(3) =   1
                l(4) =   1
     Q(r) pseudized with 0 coefficients

     atomic species   valence    mass     pseudopotential
        Ca            10.00    40.07800     Ca( 1.00)
        Mg             2.00    24.30500     Mg( 1.00)

     No symmetry found

                                    s                        frac. trans.

      isym =  1     identity

 cryst.   s( 1) = (     1          0          0      )
                  (     0          1          0      )
                  (     0          0          1      )

 cart.    s( 1) = (  1.0000000  0.0000000  0.0000000 )
                  (  0.0000000  1.0000000 -0.0000000 )
                  (  0.0000000  0.0000000  1.0000000 )

   Cartesian axes

     site n.     atom                  positions (alat units)
         1           Ca  tau(   1) = (   0.0142285   0.0037798   0.0162576  )
         2           Ca  tau(   2) = (   0.7099271   0.1885939   0.3778215  )
         3           Ca  tau(   3) = (   1.9619119   0.5211867   0.6791434  )
         4           Ca  tau(   4) = (   1.4519139   0.3857045   0.7589467  )
         5           Ca  tau(   5) = (   0.8081864   0.2146967   1.0918080  )
         6           Mg  tau(   6) = (   1.2286443   0.3263924   0.3171734  )

   Crystallographic axes

     site n.     atom                  positions (cryst. coord.)
         1           Ca  tau(   1) = (  0.0052490  0.0052490  0.0142120  )
         2           Ca  tau(   2) = (  0.3249980  0.3249980  0.3302820  )
         3           Ca  tau(   3) = (  0.9512910  0.9512910  0.5936900  )
         4           Ca  tau(   4) = (  0.6666760  0.6666760  0.6634520  )
         5           Ca  tau(   5) = (  0.2736290  0.2736290  0.9544310  )
         6           Mg  tau(   6) = (  0.6114910  0.6114910  0.2772650  )

     number of k points=    14
                       cart. coord. in units 2pi/alat
        k(    1) = (   0.0000000   0.0000000   0.0000000), wk =   0.0740741
        k(    2) = (   0.0000000   0.0000000   0.2913916), wk =   0.1481481
        k(    3) = (   0.0000000   0.6716616  -0.0485377), wk =   0.1481481
        k(    4) = (   0.0000000   0.6716616   0.2428539), wk =   0.1481481
        k(    5) = (   0.0000000   0.6716616  -0.3399293), wk =   0.1481481
        k(    6) = (   0.3333333  -0.5831107  -0.0485377), wk =   0.1481481
        k(    7) = (   0.3333333  -0.5831107   0.2428539), wk =   0.1481481
        k(    8) = (   0.3333333  -0.5831107  -0.3399293), wk =   0.1481481
        k(    9) = (   0.3333333   0.0885508  -0.0970754), wk =   0.1481481
        k(   10) = (   0.3333333   0.0885508   0.1943162), wk =   0.1481481
        k(   11) = (   0.3333333   0.0885508  -0.3884670), wk =   0.1481481
        k(   12) = (   0.3333333  -1.2547723  -0.0000000), wk =   0.1481481
        k(   13) = (   0.3333333  -1.2547723   0.2913916), wk =   0.1481481
        k(   14) = (   0.3333333  -1.2547723  -0.2913916), wk =   0.1481481

                       cryst. coord.
        k(    1) = (   0.0000000   0.0000000   0.0000000), wk =   0.0740741
        k(    2) = (   0.0000000   0.0000000   0.3333333), wk =   0.1481481
        k(    3) = (   0.0000000   0.3333333  -0.0000000), wk =   0.1481481
        k(    4) = (   0.0000000   0.3333333   0.3333333), wk =   0.1481481
        k(    5) = (   0.0000000   0.3333333  -0.3333333), wk =   0.1481481
        k(    6) = (   0.3333333  -0.0000000   0.0000000), wk =   0.1481481
        k(    7) = (   0.3333333  -0.0000000   0.3333333), wk =   0.1481481
        k(    8) = (   0.3333333  -0.0000000  -0.3333333), wk =   0.1481481
        k(    9) = (   0.3333333   0.3333333   0.0000000), wk =   0.1481481
        k(   10) = (   0.3333333   0.3333333   0.3333333), wk =   0.1481481
        k(   11) = (   0.3333333   0.3333333  -0.3333333), wk =   0.1481481
        k(   12) = (   0.3333333  -0.3333333   0.0000000), wk =   0.1481481
        k(   13) = (   0.3333333  -0.3333333   0.3333333), wk =   0.1481481
        k(   14) = (   0.3333333  -0.3333333  -0.3333333), wk =   0.1481481

     Initial potential from superposition of free atoms

     starting charge      51.9718, renormalised to      52.0000
     Starting wfcs are   54 randomized atomic wfcs +   10 random wfcs
     Checking if some PAW data can be deallocated...

     Self-consistent Calculation

     iteration #  1     ecut=    30.00 Ry     beta= 0.70
     Davidson diagonalization with overlap

     ethr =  1.00E-02,  avg # of iterations =  4.7

     Threshold (ethr) on eigenvalues was too large:
     Diagonalizing with lowered threshold

     Davidson diagonalization with overlap

[...]

     total energy              =    -408.18767670 Ry
     estimated scf accuracy    <       0.05610594 Ry

[...]

     total energy              =    -408.21744813 Ry
     estimated scf accuracy    <       0.00000124 Ry

     iteration # 10     ecut=    30.00 Ry     beta= 0.70
     Davidson diagonalization with overlap

     ethr =  2.39E-09,  avg # of iterations =  2.2

     End of self-consistent calculation

          k = 0.0000 0.0000 0.0000 (  4391 PWs)   bands (ev):

   -37.1280 -37.0974 -37.0407 -37.0314 -37.0244 -18.1634 -18.1293 -18.1264
   -18.0880 -18.0816 -18.0784 -18.0513 -18.0385 -18.0120 -18.0033 -17.9903
   -17.9886 -17.9837 -17.9633 -17.9565   0.4251   2.4760   2.7137   3.5369
     3.6194   3.9388   4.5412   5.4381   5.7792   5.8633   5.9619   6.5410
     6.7271   6.8728   6.9939   7.3077   7.4881   7.5090   7.7110   7.7511
     7.8831   7.9928   8.0507   8.2309   8.5295   8.5468   8.7275   8.7592
     8.8496   8.9728   9.1363   9.7297  10.0837  10.6439  11.1121  11.7586
    11.8321  12.0198  12.1688  12.7134  12.7566  13.4138  13.8852  14.2498

     occupation numbers
     1.0000   1.0000   1.0000   1.0000   1.0000   1.0000   1.0000   1.0000
     1.0000   1.0000   1.0000   1.0000   1.0000   1.0000   1.0000   1.0000
     1.0000   1.0000   1.0000   1.0000   1.0000   1.0000   1.0000   1.0000
     1.0000   1.0000   0.0000   0.0000   0.0000   0.0000   0.0000   0.0000
     0.0000   0.0000   0.0000   0.0000   0.0000   0.0000   0.0000   0.0000
     0.0000   0.0000   0.0000   0.0000   0.0000   0.0000   0.0000   0.0000
     0.0000   0.0000   0.0000   0.0000   0.0000   0.0000   0.0000   0.0000
     0.0000   0.0000   0.0000   0.0000   0.0000   0.0000   0.0000   0.0000

[...]

          k = 0.3333-1.2548-0.2914 (  4362 PWs)   bands (ev):

   -37.1230 -37.0926 -37.0343 -37.0275 -37.0213 -18.1585 -18.1330 -18.1215
   -18.1136 -18.1036 -18.0878 -18.0767 -18.0675 -18.0375 -18.0248 -18.0124
   -18.0119 -18.0002 -17.9943 -17.9880   2.1646   2.9135   3.1864   3.7940
     4.5653   4.7726   5.1224   5.3228   5.4146   5.6221   5.9713   6.0819
     6.1999   6.4454   6.6136   6.7739   7.0381   7.1843   7.3494   7.6955
     7.9969   8.1189   8.4894   8.5763   8.6702   8.7295   8.7869   8.8849
     9.0056   9.2598   9.3741   9.7227  10.0565  10.2871  10.4133  10.7626
    11.0155  11.3204  11.5901  11.8360  12.0665  12.2532  12.6818  12.8396

     occupation numbers
     1.0000   1.0000   1.0000   1.0000   1.0000   1.0000   1.0000   1.0000
     1.0000   1.0000   1.0000   1.0000   1.0000   1.0000   1.0000   1.0000
     1.0000   1.0000   1.0000   1.0000   1.0000   1.0000   1.0000   1.0000
     1.0000   1.0000   0.0000   0.0000   0.0000   0.0000   0.0000   0.0000
     0.0000   0.0000   0.0000   0.0000   0.0000   0.0000   0.0000   0.0000
     0.0000   0.0000   0.0000   0.0000   0.0000   0.0000   0.0000   0.0000
     0.0000   0.0000   0.0000   0.0000   0.0000   0.0000   0.0000   0.0000
     0.0000   0.0000   0.0000   0.0000   0.0000   0.0000   0.0000   0.0000

     highest occupied, lowest unoccupied level (ev):     4.8691    4.5412

!    total energy              =    -408.21744815 Ry
     estimated scf accuracy    <       0.00000027 Ry

     The total energy is the sum of the following terms:
     one-electron contribution =    -210.45258683 Ry
     hartree contribution      =     107.66879366 Ry
     xc contribution           =     -60.52212966 Ry
     ewald contribution        =    -213.62368655 Ry
     one-center paw contrib.   =     -31.28783877 Ry
      -> PAW hartree energy AE =       0.00000000 Ry
      -> PAW hartree energy PS =       0.00000000 Ry
      -> PAW xc energy AE      =       0.00000000 Ry
      -> PAW xc energy PS      =       0.00000000 Ry
      -> total E_H with PAW    =     107.66879366 Ry
      -> total E_XC with PAW   =     -60.52212966 Ry

     convergence has been achieved in  10 iterations

     Writing all to output data dir calculations_bands/myprefix.save/

     General routines

     Parallel routines

     PAW routines

   This run was terminated on:  11:34:30   7Jun2023

   JOB DONE.