     Program PWSCF v.7.0 starts on  6Jun2023 at  6:21:52

     K-points division:     npool     =       2
     R & G space division:  proc/nbgrp/npool/nimage =       4

     Reading input from espresso_13785.pwi
Warning: card &CELL ignored
Warning: card / ignored

     Current dimensions of program PWSCF are:
     Max number of different atomic species (ntypx) = 10
     Max number of k-points (npk) =  40000
     Max angular momentum in pseudopotentials (lmaxx) =  4
     Message from routine setup:
     using ibrav=0 with symmetry is DISCOURAGED, use correct ibrav instead

     Using Slab Decomposition

     bravais-lattice index     =            0
     lattice parameter (alat)  =      12.7954  a.u.
     unit-cell volume          =    3093.6180 (a.u.)^3
     number of atoms/cell      =           15
     number of atomic types    =            3
     number of electrons       =       112.00
     number of Kohn-Sham states=           64
     kinetic-energy cutoff     =      30.0000  Ry
     charge density cutoff     =     240.0000  Ry
     scf convergence threshold =      1.0E-06
     mixing beta               =       0.7000
     number of iterations used =            8  plain     mixing
     Exchange-correlation=  SLA  PW   PBX  PBC
                           (   1   4   3   4   0   0   0)

     celldm(1)=  12.795353  celldm(2)=   0.000000  celldm(3)=   0.000000
     celldm(4)=   0.000000  celldm(5)=   0.000000  celldm(6)=   0.000000

     crystal axes: (cart. coord. in units of alat)
               a(1) = (   1.000000   0.000000   0.000000 )
               a(2) = (   0.483588   0.939371   0.000000 )
               a(3) = (   0.413952   0.376866   1.572074 )

     reciprocal axes: (cart. coord. in units 2 pi/alat)
               b(1) = (  1.000000 -0.514800 -0.139905 )
               b(2) = (  0.000000  1.064543 -0.255198 )
               b(3) = (  0.000000  0.000000  0.636102 )

     PseudoPot. # 1 for Te read from file:
     /home/pragov/projects/rrg-bengioy-ad/pragov/crystal_structure_design/SSSP/Te_pbe_v1.uspp.F.UPF
     MD5 check sum: c319670d6894cc26e93307826a071b75
     Pseudo is Ultrasoft + core correction, Zval =  6.0
     Generated by new atomic code, or converted to UPF format
     Using radial grid of  891 points,  5 beta functions with:
                l(1) =   0
                l(2) =   0
                l(3) =   1
                l(4) =   1
                l(5) =   2
     Q(r) pseudized with  6 coefficients,  rinner =    1.800   1.800   1.800
                                                       1.800   1.800

     PseudoPot. # 2 for Os read from file:
     /home/pragov/projects/rrg-bengioy-ad/pragov/crystal_structure_design/SSSP/Os_pbe_v1.2.uspp.F.UPF
     MD5 check sum: a3fb40a04f0c37c25c34bbc47164c9a8
     Pseudo is Ultrasoft + core correction, Zval = 16.0
     Generated by new atomic code, or converted to UPF format
     Using radial grid of  983 points,  8 beta functions with:
                l(1) =   0
                l(2) =   0
                l(3) =   1
                l(4) =   1
                l(5) =   2
                l(6) =   2
                l(7) =   3
                l(8) =   3
     Q(r) pseudized with  8 coefficients,  rinner =    1.150   1.150   1.150
                                                       1.150   1.150   1.150
                                                       1.150

     PseudoPot. # 3 for Cl read from file:
     /home/pragov/projects/rrg-bengioy-ad/pragov/crystal_structure_design/SSSP/cl_pbe_v1.4.uspp.F.UPF
     MD5 check sum: fc6f6913ecf08c9257cb748ef0700058
     Pseudo is Ultrasoft + core correction, Zval =  7.0
     Generated by new atomic code, or converted to UPF format
     Using radial grid of  909 points,  6 beta functions with:
                l(1) =   0
                l(2) =   0
                l(3) =   1
                l(4) =   1
                l(5) =   2
                l(6) =   2
     Q(r) pseudized with  8 coefficients,  rinner =    1.300   1.300   1.300
                                                       1.300   1.300

     atomic species   valence    mass     pseudopotential
        Te             6.00   127.60000     Te( 1.00)
        Os            16.00   190.23000     Os( 1.00)
        Cl             7.00    35.45000     Cl( 1.00)

      2 Sym. Ops., with inversion, found

                                    s                        frac. trans.

      isym =  1     identity

 cryst.   s( 1) = (     1          0          0      )
                  (     0          1          0      )
                  (     0          0          1      )

 cart.    s( 1) = (  1.0000000  0.0000000  0.0000000 )
                  (  0.0000000  1.0000000 -0.0000000 )
                  (  0.0000000  0.0000000  1.0000000 )

      isym =  2     inversion

 cryst.   s( 2) = (    -1          0          0      )
                  (     0         -1          0      )
                  (     0          0         -1      )

 cart.    s( 2) = ( -1.0000000 -0.0000000 -0.0000000 )
                  (  0.0000000 -1.0000000  0.0000000 )
                  (  0.0000000  0.0000000 -1.0000000 )

   Cartesian axes

     site n.     atom                  positions (alat units)
         1           Te  tau(   1) = (   1.4130374   0.9855251   1.1954285  )
         2           Te  tau(   2) = (   0.4845028   0.3307110   0.3766453  )
         3           Os  tau(   3) = (   0.0000000   0.0000000   0.0000000  )
         4           Cl  tau(   4) = (   0.6042776   0.8663239   0.9299917  )
         5           Cl  tau(   5) = (   1.2932627   0.4499123   0.6420821  )
         6           Cl  tau(   6) = (   1.1369431   0.7964527   1.1001231  )
         7           Cl  tau(   7) = (   1.1842665   1.1233897   1.5441884  )
         8           Cl  tau(   8) = (   0.7132738   0.1928465   0.0278854  )
         9           Cl  tau(   9) = (   0.1088884   0.1096270   0.3095979  )
        10           Cl  tau(  10) = (   1.7886518   1.2066091   1.2624759  )
        11           Cl  tau(  11) = (   0.5805599   0.6406799   1.4208167  )
        12           Cl  tau(  12) = (   1.3169803   0.6755563   0.1512571  )
        13           Cl  tau(  13) = (   1.0698486   0.9866858   0.5501818  )
        14           Cl  tau(  14) = (   0.8276917   0.3295503   1.0218920  )
        15           Cl  tau(  15) = (   0.7605971   0.5197835   0.4719507  )

   Crystallographic axes

     site n.     atom                  positions (cryst. coord.)
         1           Te  tau(   1) = (  0.7384420  0.7440630  0.7604150  )
         2           Te  tau(   2) = (  0.2615580  0.2559370  0.2395850  )
         3           Os  tau(   3) = (  0.0000000  0.0000000  0.0000000  )
         4           Cl  tau(   4) = (  0.0281830  0.6849070  0.5915700  )
         5           Cl  tau(   5) = (  0.9718170  0.3150930  0.4084300  )
         6           Cl  tau(   6) = (  0.5730160  0.5671090  0.6997910  )
         7           Cl  tau(   7) = (  0.3899050  0.8018230  0.9822620  )
         8           Cl  tau(   8) = (  0.6100950  0.1981770  0.0177380  )
         9           Cl  tau(   9) = (  0.0091380  0.0376940  0.1969360  )
        10           Cl  tau(  10) = (  0.9908620  0.9623060  0.8030640  )
        11           Cl  tau(  11) = (  0.0519580  0.3194420  0.9037850  )
        12           Cl  tau(  12) = (  0.9480420  0.6805580  0.0962150  )
        13           Cl  tau(  13) = (  0.4849290  0.9099640  0.3499720  )
        14           Cl  tau(  14) = (  0.5150710  0.0900360  0.6500280  )
        15           Cl  tau(  15) = (  0.4269840  0.4328910  0.3002090  )

     number of k points=    14
                       cart. coord. in units 2pi/alat
        k(    1) = (   0.0000000   0.0000000   0.0000000), wk =   0.0740741
        k(    2) = (   0.0000000   0.0000000   0.2120341), wk =   0.1481481
        k(    3) = (   0.0000000   0.3548475  -0.0850659), wk =   0.1481481
        k(    4) = (   0.0000000   0.3548475   0.1269683), wk =   0.1481481
        k(    5) = (   0.0000000   0.3548475  -0.2971000), wk =   0.1481481
        k(    6) = (   0.3333333  -0.1716001  -0.0466351), wk =   0.1481481
        k(    7) = (   0.3333333  -0.1716001   0.1653991), wk =   0.1481481
        k(    8) = (   0.3333333  -0.1716001  -0.2586692), wk =   0.1481481
        k(    9) = (   0.3333333   0.1832474  -0.1317009), wk =   0.1481481
        k(   10) = (   0.3333333   0.1832474   0.0803332), wk =   0.1481481
        k(   11) = (   0.3333333   0.1832474  -0.3437351), wk =   0.1481481
        k(   12) = (   0.3333333  -0.5264476   0.0384308), wk =   0.1481481
        k(   13) = (   0.3333333  -0.5264476   0.2504649), wk =   0.1481481
        k(   14) = (   0.3333333  -0.5264476  -0.1736034), wk =   0.1481481

                       cryst. coord.
        k(    1) = (   0.0000000   0.0000000   0.0000000), wk =   0.0740741
        k(    2) = (   0.0000000   0.0000000   0.3333333), wk =   0.1481481
        k(    3) = (   0.0000000   0.3333333   0.0000000), wk =   0.1481481
        k(    4) = (   0.0000000   0.3333333   0.3333333), wk =   0.1481481
        k(    5) = (   0.0000000   0.3333333  -0.3333333), wk =   0.1481481
        k(    6) = (   0.3333333   0.0000000   0.0000000), wk =   0.1481481
        k(    7) = (   0.3333333   0.0000000   0.3333333), wk =   0.1481481
        k(    8) = (   0.3333333   0.0000000  -0.3333333), wk =   0.1481481
        k(    9) = (   0.3333333   0.3333333   0.0000000), wk =   0.1481481
        k(   10) = (   0.3333333   0.3333333   0.3333333), wk =   0.1481481
        k(   11) = (   0.3333333   0.3333333  -0.3333333), wk =   0.1481481
        k(   12) = (   0.3333333  -0.3333333   0.0000000), wk =   0.1481481
        k(   13) = (   0.3333333  -0.3333333   0.3333333), wk =   0.1481481
        k(   14) = (   0.3333333  -0.3333333  -0.3333333), wk =   0.1481481

     Initial potential from superposition of free atoms

     starting charge     111.4994, renormalised to     112.0000

     negative rho (up, down):  3.056E-01 0.000E+00
     Starting wfcs are   69 randomized atomic wfcs

     Self-consistent Calculation

     iteration #  1     ecut=    30.00 Ry     beta= 0.70
     Davidson diagonalization with overlap

     ethr =  1.00E-02,  avg # of iterations =  2.0

     negative rho (up, down):  2.990E-01 0.000E+00

     total energy              =    -650.69125570 Ry
     estimated scf accuracy    <       1.53934748 Ry

[...]

     total energy              =    -651.58118740 Ry
     estimated scf accuracy    <       0.00000258 Ry

     iteration # 16     ecut=    30.00 Ry     beta= 0.70
     Davidson diagonalization with overlap

     ethr =  2.31E-09,  avg # of iterations =  2.0

     negative rho (up, down):  3.016E-01 0.000E+00

     End of self-consistent calculation

          k = 0.0000 0.0000 0.0000 (  8553 PWs)   bands (ev):

   -84.2973 -43.6960 -43.5778 -43.5608 -14.1908 -14.1235 -13.0043 -12.7421
   -12.7386 -12.7008 -12.6975 -12.3650 -12.3246 -12.2788 -12.2464 -12.2401
    -8.9130  -8.8233  -3.6703  -3.4499  -3.3889  -3.3427  -3.2420  -3.0173
    -2.5369  -2.4611  -2.1173  -1.9794  -1.9238  -1.8786  -1.5555  -1.3224
    -1.1605  -0.7711  -0.7569  -0.6221  -0.5792  -0.5099  -0.2597  -0.0789
     0.0550   0.0737   0.1684   0.2374   0.2644   0.2818   0.3809   0.4505
     0.4856   0.5294   0.5382   0.6087   0.6445   0.8334   2.0040   2.1215
     2.3089   4.1211   4.2181   4.2857   4.3108   4.3395   4.3820   5.3373

     occupation numbers
     1.0000   1.0000   1.0000   1.0000   1.0000   1.0000   1.0000   1.0000
     1.0000   1.0000   1.0000   1.0000   1.0000   1.0000   1.0000   1.0000
     1.0000   1.0000   1.0000   1.0000   1.0000   1.0000   1.0000   1.0000
     1.0000   1.0000   1.0000   1.0000   1.0000   1.0000   1.0000   1.0000
     1.0000   1.0000   1.0000   1.0000   1.0000   1.0000   1.0000   1.0000
     1.0000   1.0000   1.0000   1.0000   1.0000   1.0000   1.0000   1.0000
     1.0000   1.0000   1.0000   1.0000   1.0000   1.0000   1.0000   1.0000
     0.0000   0.0000   0.0000   0.0000   0.0000   0.0000   0.0000   0.0000

[...]

          k = 0.3333-0.5264-0.1736 (  8589 PWs)   bands (ev):

   -84.2973 -43.6963 -43.5783 -43.5608 -14.1182 -14.1074 -12.9978 -12.8058
   -12.7671 -12.7291 -12.6781 -12.3943 -12.3484 -12.3062 -12.2775 -12.2334
    -8.7981  -8.7804  -3.6128  -3.4593  -3.4075  -3.2046  -3.0662  -2.9895
    -2.6449  -2.3768  -2.3209  -1.8501  -1.7607  -1.7043  -1.4420  -1.2874
    -1.1932  -0.8283  -0.7099  -0.6569  -0.4985  -0.3596  -0.3427  -0.2376
    -0.2055  -0.1711  -0.0888   0.0468   0.0697   0.1178   0.1920   0.2376
     0.3489   0.4660   0.4781   0.5066   0.7845   0.9347   2.2803   2.3195
     2.3599   4.0758   4.3233   4.3822   4.4583   4.5642   4.6603   5.3970

     occupation numbers
     1.0000   1.0000   1.0000   1.0000   1.0000   1.0000   1.0000   1.0000
     1.0000   1.0000   1.0000   1.0000   1.0000   1.0000   1.0000   1.0000
     1.0000   1.0000   1.0000   1.0000   1.0000   1.0000   1.0000   1.0000
     1.0000   1.0000   1.0000   1.0000   1.0000   1.0000   1.0000   1.0000
     1.0000   1.0000   1.0000   1.0000   1.0000   1.0000   1.0000   1.0000
     1.0000   1.0000   1.0000   1.0000   1.0000   1.0000   1.0000   1.0000
     1.0000   1.0000   1.0000   1.0000   1.0000   1.0000   1.0000   1.0000
     0.0000   0.0000   0.0000   0.0000   0.0000   0.0000   0.0000   0.0000

     highest occupied, lowest unoccupied level (ev):     2.3293    2.3051

!    total energy              =    -651.58118769 Ry
     estimated scf accuracy    <       0.00000016 Ry

     The total energy is the sum of the following terms:
     one-electron contribution =    -337.08911100 Ry
     hartree contribution      =     203.61912155 Ry
     xc contribution           =    -178.87586971 Ry
     ewald contribution        =    -339.23532853 Ry

     convergence has been achieved in  16 iterations

     Writing all to output data dir calculations_bands/myprefix.save/

     General routines

     Parallel routines

   This run was terminated on:   6:22:31   6Jun2023

   JOB DONE.