     Program PWSCF v.7.0 starts on  5Jun2023 at 23:13:21

     K-points division:     npool     =       2
     R & G space division:  proc/nbgrp/npool/nimage =       4

     Reading input from espresso_12294.pwi
Warning: card &CELL ignored
Warning: card / ignored

     Current dimensions of program PWSCF are:
     Max number of different atomic species (ntypx) = 10
     Max number of k-points (npk) =  40000
     Max angular momentum in pseudopotentials (lmaxx) =  4
     Message from routine setup:
     using ibrav=0 with symmetry is DISCOURAGED, use correct ibrav instead

     Using Slab Decomposition

     bravais-lattice index     =            0
     lattice parameter (alat)  =      11.9697  a.u.
     unit-cell volume          =    1714.9479 (a.u.)^3
     number of atoms/cell      =           12
     number of atomic types    =            3
     number of electrons       =       124.00
     number of Kohn-Sham states=           64
     kinetic-energy cutoff     =      30.0000  Ry
     charge density cutoff     =     240.0000  Ry
     scf convergence threshold =      1.0E-06
     mixing beta               =       0.7000
     number of iterations used =            8  plain     mixing
     Exchange-correlation= SLA  PW   PBE  PBE
                           (   1   4   3   4   0   0   0)

     celldm(1)=  11.969710  celldm(2)=   0.000000  celldm(3)=   0.000000
     celldm(4)=   0.000000  celldm(5)=   0.000000  celldm(6)=   0.000000

     crystal axes: (cart. coord. in units of alat)
               a(1) = (   1.000000   0.000000   0.000000 )
               a(2) = (   0.000000   1.000000   0.000000 )
               a(3) = (   0.000000   0.000000   1.000000 )

     reciprocal axes: (cart. coord. in units 2 pi/alat)
               b(1) = (  1.000000  0.000000  0.000000 )
               b(2) = (  0.000000  1.000000  0.000000 )
               b(3) = (  0.000000  0.000000  1.000000 )

     PseudoPot. # 1 for Ce read from file:
     /home/pragov/projects/rrg-bengioy-ad/pragov/crystal_structure_design/SSSP/Ce.GGA-PBE-paw-v1.0.UPF
     MD5 check sum: f2b950f613061344c13339c8d844425d
     Pseudo is Projector augmented-wave + core cor, Zval = 12.0
     Generated using ATOMPAW code
     Shape of augmentation charge: BESSEL
     Using radial grid of 1102 points,  8 beta functions with:
                l(1) =   0
                l(2) =   0
                l(3) =   1
                l(4) =   1
                l(5) =   2
                l(6) =   2
                l(7) =   3
                l(8) =   3
     Q(r) pseudized with 0 coefficients

     PseudoPot. # 2 for Si read from file:
     /home/pragov/projects/rrg-bengioy-ad/pragov/crystal_structure_design/SSSP/Si.pbe-n-rrkjus_psl.1.0.0.UPF
     MD5 check sum: 0b0bb1205258b0d07b9f9672cf965d36
     Pseudo is Ultrasoft + core correction, Zval =  4.0
     Generated using "atomic" code by A. Dal Corso  v.5.1
     Using radial grid of 1141 points,  6 beta functions with:
                l(1) =   0
                l(2) =   0
                l(3) =   1
                l(4) =   1
                l(5) =   2
                l(6) =   2
     Q(r) pseudized with 0 coefficients

     PseudoPot. # 3 for Ir read from file:
     /home/pragov/projects/rrg-bengioy-ad/pragov/crystal_structure_design/SSSP/Ir_pbe_v1.2.uspp.F.UPF
     MD5 check sum: 8836f839c3459d2b385c504ce6d91f2c
     Pseudo is Ultrasoft + core correction, Zval = 15.0
     Generated by new atomic code, or converted to UPF format
     Using radial grid of  983 points,  7 beta functions with:
                l(1) =   0
                l(2) =   0
                l(3) =   1
                l(4) =   1
                l(5) =   1
                l(6) =   2
                l(7) =   2
     Q(r) pseudized with  8 coefficients,  rinner =    1.400   1.400   1.400
                                                       1.400   1.400

     atomic species   valence    mass     pseudopotential
        Ce            12.00   140.11600     Ce( 1.00)
        Si             4.00    28.08500     Si( 1.00)
        Ir            15.00   192.21700     Ir( 1.00)

     12 Sym. Ops. (no inversion) found ( 9 have fractional translation)

                                    s                        frac. trans.

      isym =  1     identity

 cryst.   s( 1) = (     1          0          0      )
                  (     0          1          0      )
                  (     0          0          1      )

 cart.    s( 1) = (  1.0000000  0.0000000  0.0000000 )
                  (  0.0000000  1.0000000  0.0000000 )
                  (  0.0000000  0.0000000  1.0000000 )

      isym =  2     180 deg rotation - cart. axis [0,0,1]

 cryst.   s( 2) = (    -1          0          0      )    f =(  0.5000000 )
                  (     0         -1          0      )       (  0.0000000 )
                  (     0          0          1      )       (  0.5000000 )

 cart.    s( 2) = ( -1.0000000  0.0000000  0.0000000 )    f =(  0.5000000 )
                  (  0.0000000 -1.0000000  0.0000000 )       (  0.0000000 )
                  (  0.0000000  0.0000000  1.0000000 )       (  0.5000000 )

[...]

 cryst.   s( 8) = (     0          0          1      )    f =(  0.5000000 )
                  (    -1          0          0      )       (  0.0000000 )
                  (     0         -1          0      )       (  0.5000000 )

 cart.    s( 8) = (  0.0000000 -1.0000000  0.0000000 )    f =(  0.5000000 )
                  (  0.0000000  0.0000000 -1.0000000 )       (  0.0000000 )
                  (  1.0000000  0.0000000  0.0000000 )       (  0.5000000 )

[...]

 cryst.   s( 9) = (     0          1          0      )
                  (     0          0          1      )
                  (     1          0          0      )

 cart.    s( 9) = (  0.0000000  0.0000000  1.0000000 )
                  (  1.0000000  0.0000000  0.0000000 )
                  (  0.0000000  1.0000000  0.0000000 )

[...]

 cryst.   s(10) = (     0         -1          0      )    f =( -0.5000000 )
                  (     0          0         -1      )       (  0.5000000 )
                  (     1          0          0      )       (  0.0000000 )

 cart.    s(10) = (  0.0000000  0.0000000  1.0000000 )    f =( -0.5000000 )
                  ( -1.0000000  0.0000000  0.0000000 )       (  0.5000000 )
                  (  0.0000000 -1.0000000  0.0000000 )       (  0.0000000 )

[...]

      isym = 12     120 deg rotation - cart. axis [-1,-1,1]

 cryst.   s(12) = (     0          1          0      )    f =(  0.0000000 )
                  (     0          0         -1      )       (  0.5000000 )
                  (    -1          0          0      )       (  0.5000000 )

 cart.    s(12) = (  0.0000000  0.0000000 -1.0000000 )    f =(  0.0000000 )
                  (  1.0000000  0.0000000  0.0000000 )       (  0.5000000 )
                  (  0.0000000 -1.0000000  0.0000000 )       (  0.5000000 )

   Cartesian axes

     site n.     atom                  positions (alat units)
         1           Ce  tau(   1) = (   0.3765870   0.1234130   0.8765870  )
         2           Ce  tau(   2) = (   0.6234130   0.6234130   0.6234130  )
         3           Ce  tau(   3) = (   0.1234130   0.8765870   0.3765870  )
         4           Ce  tau(   4) = (   0.8765870   0.3765870   0.1234130  )
         5           Si  tau(   5) = (   0.0836810   0.4163190   0.5836810  )
         6           Si  tau(   6) = (   0.5836810   0.0836810   0.4163190  )
         7           Si  tau(   7) = (   0.4163190   0.5836810   0.0836810  )
         8           Si  tau(   8) = (   0.9163190   0.9163190   0.9163190  )
         9           Ir  tau(   9) = (   0.3120810   0.3120810   0.3120810  )
        10           Ir  tau(  10) = (   0.8120810   0.1879190   0.6879190  )
        11           Ir  tau(  11) = (   0.1879190   0.6879190   0.8120810  )
        12           Ir  tau(  12) = (   0.6879190   0.8120810   0.1879190  )

   Crystallographic axes

     site n.     atom                  positions (cryst. coord.)
         1           Ce  tau(   1) = (  0.3765870  0.1234130  0.8765870  )
         2           Ce  tau(   2) = (  0.6234130  0.6234130  0.6234130  )
         3           Ce  tau(   3) = (  0.1234130  0.8765870  0.3765870  )
         4           Ce  tau(   4) = (  0.8765870  0.3765870  0.1234130  )
         5           Si  tau(   5) = (  0.0836810  0.4163190  0.5836810  )
         6           Si  tau(   6) = (  0.5836810  0.0836810  0.4163190  )
         7           Si  tau(   7) = (  0.4163190  0.5836810  0.0836810  )
         8           Si  tau(   8) = (  0.9163190  0.9163190  0.9163190  )
         9           Ir  tau(   9) = (  0.3120810  0.3120810  0.3120810  )
        10           Ir  tau(  10) = (  0.8120810  0.1879190  0.6879190  )
        11           Ir  tau(  11) = (  0.1879190  0.6879190  0.8120810  )
        12           Ir  tau(  12) = (  0.6879190  0.8120810  0.1879190  )

     number of k points=     4
                       cart. coord. in units 2pi/alat
        k(    1) = (   0.0000000   0.0000000   0.0000000), wk =   0.0740741
        k(    2) = (   0.0000000   0.0000000   0.3333333), wk =   0.4444444
        k(    3) = (   0.0000000   0.3333333   0.3333333), wk =   0.8888889
        k(    4) = (   0.3333333   0.3333333   0.3333333), wk =   0.5925926

                       cryst. coord.
        k(    1) = (   0.0000000   0.0000000   0.0000000), wk =   0.0740741
        k(    2) = (   0.0000000   0.0000000   0.3333333), wk =   0.4444444
        k(    3) = (   0.0000000   0.3333333   0.3333333), wk =   0.8888889
        k(    4) = (   0.3333333   0.3333333   0.3333333), wk =   0.5925926

     Initial potential from superposition of free atoms

     starting charge     121.9697, renormalised to     124.0000

     negative rho (up, down):  1.467E+00 0.000E+00
     Starting wfcs are  192 randomized atomic wfcs
     Checking if some PAW data can be deallocated...

     Self-consistent Calculation

     iteration #  1     ecut=    30.00 Ry     beta= 0.70
     Davidson diagonalization with overlap

     ethr =  1.00E-02,  avg # of iterations =  2.0

     negative rho (up, down):  1.070E+00 0.000E+00

     total energy              =   -2677.86108972 Ry
     estimated scf accuracy    <      26.06335941 Ry

[...]

     c_bands:  1 eigenvalues not converged
     ethr =  3.92E-04,  avg # of iterations = 15.5

[...]

     c_bands:  1 eigenvalues not converged
     ethr =  3.80E-09,  avg # of iterations = 17.2

[...]

     total energy              =   -2701.70411826 Ry
     estimated scf accuracy    <       0.00001301 Ry

     iteration # 58     ecut=    30.00 Ry     beta= 0.70
     Davidson diagonalization with overlap

     ethr =  3.80E-09,  avg # of iterations =  8.0

     negative rho (up, down):  1.259E+00 0.000E+00

     End of self-consistent calculation

          k = 0.0000 0.0000 0.0000 (  4729 PWs)   bands (ev):

   -34.7669 -34.7669 -34.7669 -34.7642 -34.7642 -34.7636 -34.7636 -34.7636
   -34.5571 -34.5571 -34.5571 -34.5558 -20.6811 -20.6134 -20.6134 -20.6134
    -3.6545  -3.6545  -3.6545  -3.5826  -3.5826  -3.5826  -3.3877  -3.3877
    -3.2668  -3.2668  -3.2668  -3.2456   4.3634   6.0370   6.0370   6.0370
     9.0075   9.0075   9.0075   9.8203   9.8203   9.8203  10.4992  10.4992
    10.5318  10.5318  10.5318  11.0486  11.0486  11.0486  11.2887  11.2887
    11.3331  11.7371  11.7371  11.7371  12.1398  12.2994  12.2994  12.2994
    13.3117  13.3117  13.3117  13.5163  13.5163  14.1828  14.3214  14.3237

     occupation numbers
     1.0000   1.0000   1.0000   1.0000   1.0000   1.0000   1.0000   1.0000
     1.0000   1.0000   1.0000   1.0000   1.0000   1.0000   1.0000   1.0000
     1.0000   1.0000   1.0000   1.0000   1.0000   1.0000   1.0000   1.0000
     1.0000   1.0000   1.0000   1.0000   1.0000   1.0000   1.0000   1.0000
     1.0000   1.0000   1.0000   1.0000   1.0000   1.0000   1.0000   1.0000
     1.0000   1.0000   1.0000   1.0000   1.0000   1.0000   1.0000   1.0000
     1.0000   1.0000   1.0000   1.0000   1.0000   1.0000   1.0000   1.0000
     1.0000   1.0000   1.0000   1.0000   1.0000   1.0000   0.0000   0.0000

[...]

          k = 0.3333 0.3333 0.3333 (  4743 PWs)   bands (ev):

   -34.7673 -34.7669 -34.7661 -34.7655 -34.7638 -34.7637 -34.7635 -34.7633
   -34.5572 -34.5571 -34.5566 -34.5564 -20.6489 -20.6377 -20.6194 -20.6136
    -3.7731  -3.7433  -3.6482  -3.6041  -3.5524  -3.4687  -3.4241  -3.3261
    -3.3160  -3.2717  -3.2638  -3.2151   5.3409   5.6086   5.8920   6.0494
     9.1452   9.2288   9.5628   9.6117   9.7234   9.8230  10.0529  10.0675
    10.1771  10.3369  10.4905  10.7816  11.0888  11.1810  11.2441  11.2501
    11.3530  11.5301  11.6131  11.6484  11.9046  11.9453  12.3742  12.4735
    13.0203  13.5262  13.5948  13.7416  13.8527  14.0071  14.0956  14.1160

     occupation numbers
     1.0000   1.0000   1.0000   1.0000   1.0000   1.0000   1.0000   1.0000
     1.0000   1.0000   1.0000   1.0000   1.0000   1.0000   1.0000   1.0000
     1.0000   1.0000   1.0000   1.0000   1.0000   1.0000   1.0000   1.0000
     1.0000   1.0000   1.0000   1.0000   1.0000   1.0000   1.0000   1.0000
     1.0000   1.0000   1.0000   1.0000   1.0000   1.0000   1.0000   1.0000
     1.0000   1.0000   1.0000   1.0000   1.0000   1.0000   1.0000   1.0000
     1.0000   1.0000   1.0000   1.0000   1.0000   1.0000   1.0000   1.0000
     1.0000   1.0000   1.0000   1.0000   1.0000   1.0000   0.0000   0.0000

     highest occupied, lowest unoccupied level (ev):    14.1828   14.0956

!    total energy              =   -2701.70411974 Ry
     estimated scf accuracy    <       0.00000044 Ry

     The total energy is the sum of the following terms:
     one-electron contribution =    -207.97901384 Ry
     hartree contribution      =     183.59878555 Ry
     xc contribution           =    -267.75119960 Ry
     ewald contribution        =    -776.23997303 Ry
     one-center paw contrib.   =   -1633.33271882 Ry
      -> PAW hartree energy AE =      87.32349708 Ry
      -> PAW hartree energy PS =     -86.79064650 Ry
      -> PAW xc energy AE      =    -834.24922868 Ry
      -> PAW xc energy PS      =      17.05001869 Ry
      -> total E_H with PAW    =     184.13163613 Ry
      -> total E_XC with PAW   =   -1084.95040959 Ry

     convergence has been achieved in  58 iterations

     Writing all to output data dir calculations_bands/myprefix.save/

     General routines

     Parallel routines

     PAW routines

   This run was terminated on:  23:14:49   5Jun2023

   JOB DONE.