     Program PWSCF v.7.0 starts on  7Jun2023 at 11:10: 0

     K-points division:     npool     =       2
     R & G space division:  proc/nbgrp/npool/nimage =       4

     Reading input from espresso_8579.pwi
Warning: card &CELL ignored
Warning: card / ignored

     Current dimensions of program PWSCF are:
     Max number of different atomic species (ntypx) = 10
     Max number of k-points (npk) =  40000
     Max angular momentum in pseudopotentials (lmaxx) =  4
     file K.pbe-spn-kjpaw_psl.1.0.0.UPF: wavefunction(s)  3S renormalized
     file C.pbe-n-kjpaw_psl.1.0.0.UPF: wavefunction(s)  2S 2P renormalized
     file O.pbe-n-kjpaw_psl.0.1.UPF: wavefunction(s)  2P renormalized
     Message from routine setup:
     using ibrav=0 with symmetry is DISCOURAGED, use correct ibrav instead

     Using Slab Decomposition

     bravais-lattice index     =            0
     lattice parameter (alat)  =      19.5006  a.u.
     unit-cell volume          =    2181.7282 (a.u.)^3
     number of atoms/cell      =           20
     number of atomic types    =            3
     number of electrons       =       124.00
     number of Kohn-Sham states=           64
     kinetic-energy cutoff     =      30.0000  Ry
     charge density cutoff     =     240.0000  Ry
     scf convergence threshold =      1.0E-06
     mixing beta               =       0.7000
     number of iterations used =            8  plain     mixing
     Exchange-correlation= SLA  PW   PBX  PBC
                           (   1   4   3   4   0   0   0)

     celldm(1)=  19.500585  celldm(2)=   0.000000  celldm(3)=   0.000000
     celldm(4)=   0.000000  celldm(5)=   0.000000  celldm(6)=   0.000000

     crystal axes: (cart. coord. in units of alat)
               a(1) = (   1.000000   0.000000   0.000000 )
               a(2) = (   0.000000   0.435471   0.000000 )
               a(3) = (   0.000000   0.333935   0.675614 )

     reciprocal axes: (cart. coord. in units 2 pi/alat)
               b(1) = (  1.000000  0.000000  0.000000 )
               b(2) = (  0.000000  2.296367 -1.135021 )
               b(3) = (  0.000000  0.000000  1.480134 )

     PseudoPot. # 1 for K  read from file:
     /home/pragov/projects/rrg-bengioy-ad/pragov/crystal_structure_design/SSSP/K.pbe-spn-kjpaw_psl.1.0.0.UPF
     MD5 check sum: 7d58810084cac21f60fbe77ea2b688fd
     Pseudo is Projector augmented-wave + core cor, Zval =  9.0
     Generated using "atomic" code by A. Dal Corso  v.5.1
     Shape of augmentation charge: PSQ
     Using radial grid of 1165 points,  6 beta functions with:
                l(1) =   0
                l(2) =   0
                l(3) =   1
                l(4) =   1
                l(5) =   2
                l(6) =   2
     Q(r) pseudized with 0 coefficients

     PseudoPot. # 2 for C  read from file:
     /home/pragov/projects/rrg-bengioy-ad/pragov/crystal_structure_design/SSSP/C.pbe-n-kjpaw_psl.1.0.0.UPF
     MD5 check sum: 5d2aebdfa2cae82b50a7e79e9516da0f
     Pseudo is Projector augmented-wave + core cor, Zval =  4.0
     Generated using "atomic" code by A. Dal Corso  v.5.1
     Shape of augmentation charge: PSQ
     Using radial grid of 1073 points,  4 beta functions with:
                l(1) =   0
                l(2) =   0
                l(3) =   1
                l(4) =   1
     Q(r) pseudized with 0 coefficients

     PseudoPot. # 3 for O  read from file:
     /home/pragov/projects/rrg-bengioy-ad/pragov/crystal_structure_design/SSSP/O.pbe-n-kjpaw_psl.0.1.UPF
     MD5 check sum: 0234752ac141de4415c5fc33072bef88
     Pseudo is Projector augmented-wave + core cor, Zval =  6.0
     Generated using "atomic" code by A. Dal Corso  v.5.0.99 svn rev. 10869
     Shape of augmentation charge: BESSEL
     Using radial grid of 1095 points,  4 beta functions with:
                l(1) =   0
                l(2) =   0
                l(3) =   1
                l(4) =   1
     Q(r) pseudized with 0 coefficients

     atomic species   valence    mass     pseudopotential
        K              9.00    39.09830     K ( 1.00)
        C              4.00    12.01100     C ( 1.00)
        O              6.00    15.99900     O ( 1.00)

      4 Sym. Ops., with inversion, found ( 2 have fractional translation)

                                    s                        frac. trans.

      isym =  1     identity

 cryst.   s( 1) = (     1          0          0      )
                  (     0          1          0      )
                  (     0          0          1      )

 cart.    s( 1) = (  1.0000000  0.0000000  0.0000000 )
                  (  0.0000000  1.0000000 -0.0000000 )
                  (  0.0000000  0.0000000  1.0000000 )

      isym =  2     180 deg rotation - cart. axis [1,0,0]

 cryst.   s( 2) = (     1          0          0      )    f =(  0.5000000 )
                  (     0         -1          0      )       (  0.0000000 )
                  (     0          0         -1      )       (  0.5000000 )

 cart.    s( 2) = (  1.0000000  0.0000000  0.0000000 )    f =(  0.5000000 )
                  (  0.0000000 -1.0000000  0.0000000 )       (  0.1669673 )
                  (  0.0000000  0.0000000 -1.0000000 )       (  0.3378072 )

      isym =  3     inversion

 cryst.   s( 3) = (    -1          0          0      )
                  (     0         -1          0      )
                  (     0          0         -1      )

 cart.    s( 3) = ( -1.0000000  0.0000000  0.0000000 )
                  (  0.0000000 -1.0000000  0.0000000 )
                  (  0.0000000  0.0000000 -1.0000000 )

      isym =  4     inv. 180 deg rotation - cart. axis [1,0,0]

 cryst.   s( 4) = (    -1          0          0      )    f =(  0.5000000 )
                  (     0          1          0      )       (  0.0000000 )
                  (     0          0          1      )       (  0.5000000 )

 cart.    s( 4) = ( -1.0000000  0.0000000  0.0000000 )    f =(  0.5000000 )
                  (  0.0000000  1.0000000 -0.0000000 )       (  0.1669673 )
                  (  0.0000000  0.0000000  1.0000000 )       (  0.3378072 )

   Cartesian axes

     site n.     atom                  positions (alat units)
         1           K   tau(   1) = (   0.8144710   0.2776273   0.0576130  )
         2           K   tau(   2) = (   0.1855290   0.4917779   0.6180015  )
         3           K   tau(   3) = (   0.3144710   0.3248106   0.2801942  )
         4           K   tau(   4) = (   0.6855290   0.4445946   0.3954203  )
         5           C   tau(   5) = (   0.5484950   0.1467325   0.1434350  )
         6           C   tau(   6) = (   0.4515050   0.6226727   0.5321795  )
         7           C   tau(   7) = (   0.0484950   0.4557053   0.1943723  )
         8           C   tau(   8) = (   0.9515050   0.3136998   0.4812422  )
         9           O   tau(   9) = (   0.5816860   0.2366940   0.2231724  )
        10           O   tau(  10) = (   0.4183140   0.5327112   0.4524421  )
        11           O   tau(  11) = (   0.0816860   0.3657439   0.1146349  )
        12           O   tau(  12) = (   0.9183140   0.4036613   0.5609796  )
        13           O   tau(  13) = (   0.4287870   0.1233708   0.1208485  )
        14           O   tau(  14) = (   0.5712130   0.6460344   0.5547660  )
        15           O   tau(  15) = (   0.9287870   0.4790671   0.2169587  )
        16           O   tau(  16) = (   0.0712130   0.2903381   0.4586558  )
        17           O   tau(  17) = (   0.6380860   0.0790050   0.0897608  )
        18           O   tau(  18) = (   0.3619140   0.6904002   0.5858537  )
        19           O   tau(  19) = (   0.1380860   0.5234329   0.2480465  )
        20           O   tau(  20) = (   0.8619140   0.2459723   0.4275680  )

   Crystallographic axes

     site n.     atom                  positions (cryst. coord.)
         1           K   tau(   1) = (  0.8144710  0.5721420  0.0852750  )
         2           K   tau(   2) = (  0.1855290  0.4278580  0.9147250  )
         3           K   tau(   3) = (  0.3144710  0.4278580  0.4147250  )
         4           K   tau(   4) = (  0.6855290  0.5721420  0.5852750  )
         5           C   tau(   5) = (  0.5484950  0.1741500  0.2123030  )
         6           C   tau(   6) = (  0.4515050  0.8258500  0.7876970  )
         7           C   tau(   7) = (  0.0484950  0.8258500  0.2876970  )
         8           C   tau(   8) = (  0.9515050  0.1741500  0.7123030  )
         9           O   tau(   9) = (  0.5816860  0.2902310  0.3303250  )
        10           O   tau(  10) = (  0.4183140  0.7097690  0.6696750  )
        11           O   tau(  11) = (  0.0816860  0.7097690  0.1696750  )
        12           O   tau(  12) = (  0.9183140  0.2902310  0.8303250  )
        13           O   tau(  13) = (  0.4287870  0.1461390  0.1788720  )
        14           O   tau(  14) = (  0.5712130  0.8538610  0.8211280  )
        15           O   tau(  15) = (  0.9287870  0.8538610  0.3211280  )
        16           O   tau(  16) = (  0.0712130  0.1461390  0.6788720  )
        17           O   tau(  17) = (  0.6380860  0.0795440  0.1328580  )
        18           O   tau(  18) = (  0.3619140  0.9204560  0.8671420  )
        19           O   tau(  19) = (  0.1380860  0.9204560  0.3671420  )
        20           O   tau(  20) = (  0.8619140  0.0795440  0.6328580  )

     number of k points=    10
                       cart. coord. in units 2pi/alat
        k(    1) = (   0.0000000   0.0000000   0.0000000), wk =   0.0740741
        k(    2) = (   0.0000000   0.0000000   0.4933780), wk =   0.1481481
        k(    3) = (   0.0000000   0.7654555  -0.3783402), wk =   0.1481481
        k(    4) = (   0.0000000   0.7654555   0.1150378), wk =   0.1481481
        k(    5) = (   0.0000000   0.7654555  -0.8717182), wk =   0.1481481
        k(    6) = (   0.3333333   0.0000000   0.0000000), wk =   0.1481481
        k(    7) = (   0.3333333   0.0000000   0.4933780), wk =   0.2962963
        k(    8) = (   0.3333333   0.7654555  -0.3783402), wk =   0.2962963
        k(    9) = (   0.3333333   0.7654555   0.1150378), wk =   0.2962963
        k(   10) = (   0.3333333   0.7654555  -0.8717182), wk =   0.2962963

                       cryst. coord.
        k(    1) = (   0.0000000   0.0000000   0.0000000), wk =   0.0740741
        k(    2) = (   0.0000000   0.0000000   0.3333333), wk =   0.1481481
        k(    3) = (   0.0000000   0.3333333  -0.0000000), wk =   0.1481481
        k(    4) = (   0.0000000   0.3333333   0.3333333), wk =   0.1481481
        k(    5) = (   0.0000000   0.3333333  -0.3333333), wk =   0.1481481
        k(    6) = (   0.3333333   0.0000000   0.0000000), wk =   0.1481481
        k(    7) = (   0.3333333   0.0000000   0.3333333), wk =   0.2962963
        k(    8) = (   0.3333333   0.3333333  -0.0000000), wk =   0.2962963
        k(    9) = (   0.3333333   0.3333333   0.3333333), wk =   0.2962963
        k(   10) = (   0.3333333   0.3333333  -0.3333333), wk =   0.2962963

     Check: negative core charge=   -0.000017

     Initial potential from superposition of free atoms

     starting charge     123.9245, renormalised to     124.0000
     Starting wfcs are   96 randomized atomic wfcs
     Checking if some PAW data can be deallocated...

     Self-consistent Calculation

     iteration #  1     ecut=    30.00 Ry     beta= 0.70
     Davidson diagonalization with overlap

     ethr =  1.00E-02,  avg # of iterations =  2.0

     total energy              =   -1024.64325596 Ry
     estimated scf accuracy    <       1.68277303 Ry

[...]

     total energy              =   -1025.31481851 Ry
     estimated scf accuracy    <       0.00000241 Ry

     iteration # 10     ecut=    30.00 Ry     beta= 0.70
     Davidson diagonalization with overlap

     ethr =  1.95E-09,  avg # of iterations =  2.0

     End of self-consistent calculation

          k = 0.0000 0.0000 0.0000 (  6075 PWs)   bands (ev):

   -26.3267 -26.3214 -26.3144 -26.3112 -20.3200 -20.3180 -20.2361 -20.2307
   -17.1933 -17.1746 -17.1461 -17.1259 -17.0304 -17.0247 -16.9926 -16.9784
    -9.9027  -9.8995  -9.8730  -9.8325  -9.8159  -9.7814  -9.7806  -9.7771
    -9.7722  -9.7684  -9.7493  -9.7452  -5.7479  -5.4591  -5.4472  -5.4142
    -4.1240  -4.1211  -4.0877  -4.0539  -4.0363  -3.8972  -3.8969  -3.8784
    -3.7978  -3.7149  -3.3522  -3.3207  -0.6008  -0.4628  -0.3799  -0.3525
    -0.2042  -0.0667   0.1235   0.1602   0.2015   0.2051   0.2064   0.2069
     0.3234   0.3875   0.4982   0.5185   1.3164   1.3938   1.4951   1.6308

     occupation numbers
     1.0000   1.0000   1.0000   1.0000   1.0000   1.0000   1.0000   1.0000
     1.0000   1.0000   1.0000   1.0000   1.0000   1.0000   1.0000   1.0000
     1.0000   1.0000   1.0000   1.0000   1.0000   1.0000   1.0000   1.0000
     1.0000   1.0000   1.0000   1.0000   1.0000   1.0000   1.0000   1.0000
     1.0000   1.0000   1.0000   1.0000   1.0000   1.0000   1.0000   1.0000
     1.0000   1.0000   1.0000   1.0000   1.0000   1.0000   1.0000   1.0000
     1.0000   1.0000   1.0000   1.0000   1.0000   1.0000   1.0000   1.0000
     1.0000   1.0000   1.0000   1.0000   1.0000   1.0000   0.0000   0.0000

[...]

          k = 0.3333 0.7655-0.8717 (  6055 PWs)   bands (ev):

   -26.3178 -26.3170 -26.3143 -26.3136 -20.2764 -20.2737 -20.2519 -20.2447
   -17.1673 -17.1639 -17.1488 -17.1425 -17.0523 -17.0506 -17.0233 -17.0208
    -9.8951  -9.8857  -9.8495  -9.8382  -9.8274  -9.8217  -9.8176  -9.8081
    -9.7938  -9.7859  -9.7829  -9.7766  -5.5907  -5.5326  -5.4011  -5.3820
    -4.1474  -4.1233  -4.0764  -4.0506  -3.9804  -3.9631  -3.9045  -3.8840
    -3.7923  -3.7655  -3.5795  -3.5599  -0.4830  -0.4508  -0.3384  -0.2881
    -0.2177  -0.2088   0.1371   0.1491   0.1886   0.2149   0.3765   0.3815
     0.4506   0.4530   0.6295   0.6457   1.3327   1.3483   1.5741   1.6021

     occupation numbers
     1.0000   1.0000   1.0000   1.0000   1.0000   1.0000   1.0000   1.0000
     1.0000   1.0000   1.0000   1.0000   1.0000   1.0000   1.0000   1.0000
     1.0000   1.0000   1.0000   1.0000   1.0000   1.0000   1.0000   1.0000
     1.0000   1.0000   1.0000   1.0000   1.0000   1.0000   1.0000   1.0000
     1.0000   1.0000   1.0000   1.0000   1.0000   1.0000   1.0000   1.0000
     1.0000   1.0000   1.0000   1.0000   1.0000   1.0000   1.0000   1.0000
     1.0000   1.0000   1.0000   1.0000   1.0000   1.0000   1.0000   1.0000
     1.0000   1.0000   1.0000   1.0000   1.0000   1.0000   0.0000   0.0000

     highest occupied, lowest unoccupied level (ev):     1.3938    1.4951

!    total energy              =   -1025.31481857 Ry

     total all-electron energy =     -6927.488766 Ry
     estimated scf accuracy    <       0.00000022 Ry

     The total energy is the sum of the following terms:
     one-electron contribution =    -329.49154938 Ry
     hartree contribution      =     218.99548749 Ry
     xc contribution           =    -152.06704554 Ry
     ewald contribution        =    -402.07595684 Ry
     one-center paw contrib.   =    -360.67575429 Ry
      -> PAW hartree energy AE =     113.00974051 Ry
      -> PAW hartree energy PS =    -112.37930762 Ry
      -> PAW xc energy AE      =    -198.64434840 Ry
      -> PAW xc energy PS      =      31.76277814 Ry
      -> total E_H with PAW    =     219.62592037 Ry
      -> total E_XC with PAW   =    -318.94861580 Ry

     convergence has been achieved in  10 iterations

     Writing all to output data dir calculations_bands/myprefix.save/

     General routines

     Parallel routines

     PAW routines

   This run was terminated on:  11:10:17   7Jun2023

   JOB DONE.