     Program PWSCF v.7.0 starts on  6Jun2023 at  0:21:10

     K-points division:     npool     =       2
     R & G space division:  proc/nbgrp/npool/nimage =       4

     Reading input from espresso_12512.pwi
Warning: card &CELL ignored
Warning: card / ignored

     Current dimensions of program PWSCF are:
     Max number of different atomic species (ntypx) = 10
     Max number of k-points (npk) =  40000
     Max angular momentum in pseudopotentials (lmaxx) =  4
     file O.pbe-n-kjpaw_psl.0.1.UPF: wavefunction(s)  2P renormalized
     Message from routine setup:
     using ibrav=0 with symmetry is DISCOURAGED, use correct ibrav instead

     Using Slab Decomposition

     bravais-lattice index     =            0
     lattice parameter (alat)  =      11.8228  a.u.
     unit-cell volume          =    1265.7711 (a.u.)^3
     number of atoms/cell      =           16
     number of atomic types    =            4
     number of electrons       =       100.00
     number of Kohn-Sham states=           64
     kinetic-energy cutoff     =      30.0000  Ry
     charge density cutoff     =     240.0000  Ry
     scf convergence threshold =      1.0E-06
     mixing beta               =       0.7000
     number of iterations used =            8  plain     mixing
     Exchange-correlation= SLA  PW   PBX  PBC
                           (   1   4   3   4   0   0   0)

     celldm(1)=  11.822805  celldm(2)=   0.000000  celldm(3)=   0.000000
     celldm(4)=   0.000000  celldm(5)=   0.000000  celldm(6)=   0.000000

     crystal axes: (cart. coord. in units of alat)
               a(1) = (   1.000000   0.000000   0.000000 )
               a(2) = (  -0.408935   0.912563   0.000000 )
               a(3) = (  -0.295532  -0.456282   0.839326 )

     reciprocal axes: (cart. coord. in units 2 pi/alat)
               b(1) = (  1.000000  0.448117  0.595716 )
               b(2) = (  0.000000  1.095814  0.595716 )
               b(3) = (  0.000000  0.000000  1.191433 )

     PseudoPot. # 1 for Sr read from file:
     /home/pragov/projects/rrg-bengioy-ad/pragov/crystal_structure_design/SSSP/Sr_pbe_v1.uspp.F.UPF
     MD5 check sum: 6b418c05fbe9db5448babca5e47b7a5b
     Pseudo is Ultrasoft + core correction, Zval = 10.0
     Generated by new atomic code, or converted to UPF format
     Using radial grid of  883 points,  6 beta functions with:
                l(1) =   0
                l(2) =   0
                l(3) =   1
                l(4) =   1
                l(5) =   2
                l(6) =   2
     Q(r) pseudized with  6 coefficients,  rinner =    1.400   1.400   1.400
                                                       1.400   1.400

     PseudoPot. # 2 for Ge read from file:
     /home/pragov/projects/rrg-bengioy-ad/pragov/crystal_structure_design/SSSP/ge_pbe_v1.4.uspp.F.UPF
     MD5 check sum: 9c9eaa91e581c3f09632fb3098b2c6b2
     Pseudo is Ultrasoft + core correction, Zval = 14.0
     Generated by new atomic code, or converted to UPF format
     Using radial grid of  873 points,  6 beta functions with:
                l(1) =   0
                l(2) =   0
                l(3) =   1
                l(4) =   1
                l(5) =   2
                l(6) =   2
     Q(r) pseudized with  8 coefficients,  rinner =    1.400   1.400   1.400
                                                       1.400   1.400

     PseudoPot. # 3 for H  read from file:
     /home/pragov/projects/rrg-bengioy-ad/pragov/crystal_structure_design/SSSP/H.pbe-rrkjus_psl.1.0.0.UPF
     MD5 check sum: f52b6d4d1c606e5624b1dc7b2218f220
     Pseudo is Ultrasoft, Zval =  1.0
     Generated using "atomic" code by A. Dal Corso  v.5.1
     Using radial grid of  929 points,  2 beta functions with:
                l(1) =   0
                l(2) =   0
     Q(r) pseudized with 0 coefficients

     PseudoPot. # 4 for O  read from file:
     /home/pragov/projects/rrg-bengioy-ad/pragov/crystal_structure_design/SSSP/O.pbe-n-kjpaw_psl.0.1.UPF
     MD5 check sum: 0234752ac141de4415c5fc33072bef88
     Pseudo is Projector augmented-wave + core cor, Zval =  6.0
     Generated using "atomic" code by A. Dal Corso  v.5.0.99 svn rev. 10869
     Shape of augmentation charge: BESSEL
     Using radial grid of 1095 points,  4 beta functions with:
                l(1) =   0
                l(2) =   0
                l(3) =   1
                l(4) =   1
     Q(r) pseudized with 0 coefficients

     atomic species   valence    mass     pseudopotential
        Sr            10.00    87.62000     Sr( 1.00)
        Ge            14.00    72.63000     Ge( 1.00)
        H              1.00     1.00800     H ( 1.00)
        O              6.00    15.99900     O ( 1.00)

      2 Sym. Ops. (no inversion) found ( 1 have fractional translation)

                                    s                        frac. trans.

      isym =  1     identity

 cryst.   s( 1) = (     1          0          0      )
                  (     0          1          0      )
                  (     0          0          1      )

 cart.    s( 1) = (  1.0000000  0.0000000  0.0000000 )
                  (  0.0000000  1.0000000  0.0000000 )
                  (  0.0000000  0.0000000  1.0000000 )

      isym =  2     inv. 180 deg rotation - cart. axis [0,0,1]

 cryst.   s( 2) = (     1          0          0      )    f =( -0.2500000 )
                  (     0          1          0      )       (  0.2500000 )
                  (    -1         -1         -1      )       ( -0.5000000 )

 cart.    s( 2) = (  1.0000000  0.0000000  0.0000000 )    f =( -0.2044677 )
                  (  0.0000000  1.0000000  0.0000000 )       (  0.4562817 )
                  (  0.0000000  0.0000000 -1.0000000 )       ( -0.4196629 )

   Cartesian axes

     site n.     atom                  positions (alat units)
         1           Sr  tau(   1) = (   0.5000000  -0.0000000   0.4196629  )
         2           Sr  tau(   2) = (   0.2955323   0.4562817   0.0000000  )
         3           Ge  tau(   3) = (  -0.2044677   0.4562817   0.4196629  )
         4           Ge  tau(   4) = (   0.0000000   0.0000000   0.0000000  )
         5           H   tau(   5) = (  -0.0192241  -0.1494728   0.3545404  )
         6           H   tau(   6) = (   0.7763081   0.3068088   0.0651224  )
         7           H   tau(   7) = (  -0.3330097   0.3776137   0.7742033  )
         8           H   tau(   8) = (   0.1669903   0.3776137   0.4847853  )
         9           O   tau(   9) = (   0.0707301   0.4821113   0.3506359  )
        10           O   tau(  10) = (  -0.2396470   0.2749927   0.6366017  )
        11           O   tau(  11) = (   0.6444807   0.3500429   0.2027240  )
        12           O   tau(  12) = (   0.1155008  -0.1945836   0.4886899  )
        13           O   tau(  13) = (   0.2603530   0.2749927   0.6223869  )
        14           O   tau(  14) = (   0.8489484  -0.1062388   0.2169389  )
        15           O   tau(  15) = (   0.2751978   0.0258296   0.0690270  )
        16           O   tau(  16) = (   0.6155008  -0.1945836   0.7702988  )

   Crystallographic axes

     site n.     atom                  positions (cryst. coord.)
         1           Sr  tau(   1) = (  0.7500000  0.2500000  0.5000000  )
         2           Sr  tau(   2) = (  0.5000000  0.5000000  0.0000000  )
         3           Ge  tau(   3) = (  0.2500000  0.7500000  0.5000000  )
         4           Ge  tau(   4) = (  0.0000000  0.0000000  0.0000000  )
         5           H   tau(   5) = (  0.1250000  0.0474110  0.4224110  )
         6           H   tau(   6) = (  0.9525890  0.3750000  0.0775890  )
         7           H   tau(   7) = (  0.2974110  0.8750000  0.9224110  )
         8           H   tau(   8) = (  0.6250000  0.7025890  0.5775890  )
         9           O   tau(   9) = (  0.4956520  0.7371840  0.4177590  )
        10           O   tau(  10) = (  0.2628160  0.6805750  0.7584680  )
        11           O   tau(  11) = (  0.9221070  0.5043480  0.2415320  )
        12           O   tau(  12) = (  0.3194250  0.0778930  0.5822410  )
        13           O   tau(  13) = (  0.7543480  0.6721070  0.7415320  )
        14           O   tau(  14) = (  0.9305750  0.0128160  0.2584680  )
        15           O   tau(  15) = (  0.3278930  0.0694250  0.0822410  )
        16           O   tau(  16) = (  0.9871840  0.2456520  0.9177590  )

     number of k points=    10
                       cart. coord. in units 2pi/alat
        k(    1) = (   0.0000000   0.0000000   0.0000000), wk =   0.0740741
        k(    2) = (   0.0000000   0.0000000   0.3971442), wk =   0.1481481
        k(    3) = (   0.0000000   0.3652715   0.1985721), wk =   0.2962963
        k(    4) = (   0.0000000   0.3652715   0.5957163), wk =   0.1481481
        k(    5) = (   0.3333333   0.1493725   0.1985721), wk =   0.2962963
        k(    6) = (   0.3333333   0.1493725   0.5957163), wk =   0.1481481
        k(    7) = (   0.3333333   0.5146439   0.3971442), wk =   0.2962963
        k(    8) = (   0.3333333   0.5146439   0.0000000), wk =   0.1481481
        k(    9) = (   0.3333333  -0.2158990   0.0000000), wk =   0.1481481
        k(   10) = (   0.3333333  -0.2158990   0.3971442), wk =   0.2962963

                       cryst. coord.
        k(    1) = (   0.0000000   0.0000000   0.0000000), wk =   0.0740741
        k(    2) = (   0.0000000   0.0000000   0.3333333), wk =   0.1481481
        k(    3) = (   0.0000000   0.3333333   0.0000000), wk =   0.2962963
        k(    4) = (   0.0000000   0.3333333   0.3333333), wk =   0.1481481
        k(    5) = (   0.3333333  -0.0000000  -0.0000000), wk =   0.2962963
        k(    6) = (   0.3333333  -0.0000000   0.3333333), wk =   0.1481481
        k(    7) = (   0.3333333   0.3333333   0.0000000), wk =   0.2962963
        k(    8) = (   0.3333333   0.3333333  -0.3333333), wk =   0.1481481
        k(    9) = (   0.3333333  -0.3333333  -0.0000000), wk =   0.1481481
        k(   10) = (   0.3333333  -0.3333333   0.3333333), wk =   0.2962963

     Check: negative core charge=   -0.000012

     Initial potential from superposition of free atoms

     starting charge      99.9309, renormalised to     100.0000

     negative rho (up, down):  1.298E-01 0.000E+00
     Starting wfcs are   80 randomized atomic wfcs
     Checking if some PAW data can be deallocated...

     Self-consistent Calculation

     iteration #  1     ecut=    30.00 Ry     beta= 0.70
     Davidson diagonalization with overlap

     ethr =  1.00E-02,  avg # of iterations =  2.0

     negative rho (up, down):  1.322E-01 0.000E+00

     total energy              =    -904.75299729 Ry
     estimated scf accuracy    <       2.83473430 Ry

[...]

     total energy              =    -906.05996920 Ry
     estimated scf accuracy    <       0.00000250 Ry

     iteration #  9     ecut=    30.00 Ry     beta= 0.70
     Davidson diagonalization with overlap

     ethr =  2.50E-09,  avg # of iterations =  2.0

     negative rho (up, down):  1.359E-01 0.000E+00

     End of self-consistent calculation

          k = 0.0000 0.0000 0.0000 (  3555 PWs)   bands (ev):

   -27.1864 -27.1627 -18.3030 -18.3030 -18.2874 -18.2874 -18.2809 -18.2626
   -18.0596 -18.0523 -18.0508 -18.0505 -13.7544 -12.5208 -12.4495 -12.4495
   -12.4407 -11.6511 -11.5041 -11.5041  -9.2313  -9.1674  -9.1674  -8.9640
    -8.9640  -8.8867  -2.3951  -1.1422  -1.1280  -0.5179  -0.5179   0.8288
     1.6363   1.7104   1.7104   2.0124   2.4677   2.4677   2.8440   3.5892
     3.9102   3.9102   4.0053   4.1444   4.2496   4.2496   4.3014   4.4924
     4.4925   4.5150   8.6711  11.3639  11.4715  12.7961  12.7961  12.9582
    12.9582  13.4437  13.5854  13.6161  13.6161  13.7273  14.1945  14.2370

     occupation numbers
     1.0000   1.0000   1.0000   1.0000   1.0000   1.0000   1.0000   1.0000
     1.0000   1.0000   1.0000   1.0000   1.0000   1.0000   1.0000   1.0000
     1.0000   1.0000   1.0000   1.0000   1.0000   1.0000   1.0000   1.0000
     1.0000   1.0000   1.0000   1.0000   1.0000   1.0000   1.0000   1.0000
     1.0000   1.0000   1.0000   1.0000   1.0000   1.0000   1.0000   1.0000
     1.0000   1.0000   1.0000   1.0000   1.0000   1.0000   1.0000   1.0000
     1.0000   1.0000   0.0000   0.0000   0.0000   0.0000   0.0000   0.0000
     0.0000   0.0000   0.0000   0.0000   0.0000   0.0000   0.0000   0.0000

[...]

          k = 0.3333-0.2159 0.3971 (  3494 PWs)   bands (ev):

   -27.1773 -27.1714 -18.3006 -18.2975 -18.2868 -18.2812 -18.2709 -18.2667
   -18.0548 -18.0532 -18.0493 -18.0484 -13.4939 -13.2309 -12.5973 -12.5264
   -11.9205 -11.7313 -11.3616 -11.2183  -9.1680  -9.1621  -9.1220  -9.1138
    -9.0629  -8.9862  -2.1272  -1.8518  -0.6154  -0.4373   0.0918   0.3634
     1.6993   1.8715   2.0500   2.0888   2.1637   2.3144   3.1115   3.2838
     3.8397   3.8956   3.9197   3.9654   4.0552   4.2145   4.2813   4.3694
     4.4358   4.5613  10.2475  10.8981  11.8048  11.9291  12.2295  12.4705
    12.7645  13.0117  13.4245  13.6424  13.7918  13.8779  14.1181  14.4817

     occupation numbers
     1.0000   1.0000   1.0000   1.0000   1.0000   1.0000   1.0000   1.0000
     1.0000   1.0000   1.0000   1.0000   1.0000   1.0000   1.0000   1.0000
     1.0000   1.0000   1.0000   1.0000   1.0000   1.0000   1.0000   1.0000
     1.0000   1.0000   1.0000   1.0000   1.0000   1.0000   1.0000   1.0000
     1.0000   1.0000   1.0000   1.0000   1.0000   1.0000   1.0000   1.0000
     1.0000   1.0000   1.0000   1.0000   1.0000   1.0000   1.0000   1.0000
     1.0000   1.0000   0.0000   0.0000   0.0000   0.0000   0.0000   0.0000
     0.0000   0.0000   0.0000   0.0000   0.0000   0.0000   0.0000   0.0000

     highest occupied, lowest unoccupied level (ev):     4.5613    8.6711

!    total energy              =    -906.05996942 Ry
     estimated scf accuracy    <       0.00000018 Ry

     The total energy is the sum of the following terms:
     one-electron contribution =    -463.91292792 Ry
     hartree contribution      =     296.62049447 Ry
     xc contribution           =    -216.17583437 Ry
     ewald contribution        =    -446.42872451 Ry
     one-center paw contrib.   =     -76.16297709 Ry
      -> PAW hartree energy AE =       0.00000000 Ry
      -> PAW hartree energy PS =       0.00000000 Ry
      -> PAW xc energy AE      =       0.00000000 Ry
      -> PAW xc energy PS      =       0.00000000 Ry
      -> total E_H with PAW    =     296.62049447 Ry
      -> total E_XC with PAW   =    -216.17583437 Ry

     convergence has been achieved in   9 iterations

     Writing all to output data dir calculations_bands/myprefix.save/

     General routines

     Parallel routines

     PAW routines

   This run was terminated on:   0:21:22   6Jun2023

   JOB DONE.