     Program PWSCF v.7.0 starts on  6Jun2023 at  3:35:56

     K-points division:     npool     =       2
     R & G space division:  proc/nbgrp/npool/nimage =       4

     Reading input from espresso_13374.pwi
Warning: card &CELL ignored
Warning: card / ignored

     Current dimensions of program PWSCF are:
     Max number of different atomic species (ntypx) = 10
     Max number of k-points (npk) =  40000
     Max angular momentum in pseudopotentials (lmaxx) =  4

     Using Slab Decomposition

     bravais-lattice index     =            0
     lattice parameter (alat)  =      13.0108  a.u.
     unit-cell volume          =    1187.9365 (a.u.)^3
     number of atoms/cell      =            8
     number of atomic types    =            5
     number of electrons       =        96.00
     number of Kohn-Sham states=           64
     kinetic-energy cutoff     =      30.0000  Ry
     charge density cutoff     =     240.0000  Ry
     scf convergence threshold =      1.0E-06
     mixing beta               =       0.7000
     number of iterations used =            8  plain     mixing
     Exchange-correlation=  SLA  PW   PBX  PBC
                           (   1   4   3   4   0   0   0)

     celldm(1)=  13.010776  celldm(2)=   0.000000  celldm(3)=   0.000000
     celldm(4)=   0.000000  celldm(5)=   0.000000  celldm(6)=   0.000000

     crystal axes: (cart. coord. in units of alat)
               a(1) = (   1.000000   0.000000   0.000000 )
               a(2) = (   0.666649   0.741283   0.000000 )
               a(3) = (   0.333351   0.141706   0.727612 )

     reciprocal axes: (cart. coord. in units 2 pi/alat)
               b(1) = (  1.000000 -0.899319 -0.282997 )
               b(2) = (  0.000000  1.349013 -0.262726 )
               b(3) = (  0.000000  0.000000  1.374359 )

     PseudoPot. # 1 for Zn read from file:
     /home/pragov/projects/rrg-bengioy-ad/pragov/crystal_structure_design/SSSP/Zn_pbe_v1.uspp.F.UPF
     MD5 check sum: df62231357ef9e81f77b2b3087fa5675
     Pseudo is Ultrasoft, Zval = 20.0
     Generated by new atomic code, or converted to UPF format
     Using radial grid of  943 points,  6 beta functions with:
                l(1) =   0
                l(2) =   0
                l(3) =   1
                l(4) =   1
                l(5) =   2
                l(6) =   2
     Q(r) pseudized with  8 coefficients,  rinner =    1.100   1.100   1.100
                                                       1.100   1.100

     PseudoPot. # 2 for Cu read from file:
     /home/pragov/projects/rrg-bengioy-ad/pragov/crystal_structure_design/SSSP/Cu_pbe_v1.2.uspp.F.UPF
     MD5 check sum: 6e991ff952a84172a2a52a1c1e996048
     Pseudo is Ultrasoft + core correction, Zval = 19.0
     Generated by new atomic code, or converted to UPF format
     Using radial grid of  867 points,  6 beta functions with:
                l(1) =   0
                l(2) =   0
                l(3) =   1
                l(4) =   1
                l(5) =   2
                l(6) =   2
     Q(r) pseudized with  8 coefficients,  rinner =    1.150   1.150   1.150
                                                       1.150   1.150

     PseudoPot. # 3 for Sn read from file:
     /home/pragov/projects/rrg-bengioy-ad/pragov/crystal_structure_design/SSSP/Sn_pbe_v1.uspp.F.UPF
     MD5 check sum: 4cf58ce39ec5d5d420df3dd08604eb00
     Pseudo is Ultrasoft + core correction, Zval = 14.0
     Generated by new atomic code, or converted to UPF format
     Using radial grid of  891 points,  6 beta functions with:
                l(1) =   0
                l(2) =   0
                l(3) =   1
                l(4) =   1
                l(5) =   2
                l(6) =   2
     Q(r) pseudized with  6 coefficients,  rinner =    1.200   1.200   1.200
                                                       1.200   1.200

     PseudoPot. # 4 for Se read from file:
     /home/pragov/projects/rrg-bengioy-ad/pragov/crystal_structure_design/SSSP/Se_pbe_v1.uspp.F.UPF
     MD5 check sum: 1b3568f3a8ae88f9a2a0ad0698632c85
     Pseudo is Ultrasoft + core correction, Zval =  6.0
     Generated by new atomic code, or converted to UPF format
     Using radial grid of  877 points,  6 beta functions with:
                l(1) =   0
                l(2) =   0
                l(3) =   1
                l(4) =   1
                l(5) =   2
                l(6) =   2
     Q(r) pseudized with  8 coefficients,  rinner =    1.300   1.300   1.300
                                                       1.300   1.300

     PseudoPot. # 5 for S  read from file:
     /home/pragov/projects/rrg-bengioy-ad/pragov/crystal_structure_design/SSSP/s_pbe_v1.4.uspp.F.UPF
     MD5 check sum: 88d86576ff6df21479756cfb9bdac1df
     Pseudo is Ultrasoft + core correction, Zval =  6.0
     Generated by new atomic code, or converted to UPF format
     Using radial grid of  907 points,  6 beta functions with:
                l(1) =   0
                l(2) =   0
                l(3) =   1
                l(4) =   1
                l(5) =   2
                l(6) =   2
     Q(r) pseudized with  8 coefficients,  rinner =    1.300   1.300   1.300
                                                       1.300   1.300

     atomic species   valence    mass     pseudopotential
        Zn            20.00    65.38000     Zn( 1.00)
        Cu            19.00    63.54600     Cu( 1.00)
        Sn            14.00   118.71000     Sn( 1.00)
        Se             6.00    78.97100     Se( 1.00)
        S              6.00    32.06000     S ( 1.00)

     No symmetry found

                                    s                        frac. trans.

      isym =  1     identity

 cryst.   s( 1) = (     1          0          0      )
                  (     0          1          0      )
                  (     0          0          1      )

 cart.    s( 1) = (  1.0000000  0.0000000  0.0000000 )
                  (  0.0000000  1.0000000 -0.0000000 )
                  (  0.0000000  0.0000000  1.0000000 )

   Cartesian axes

     site n.     atom                  positions (alat units)
         1           Zn  tau(   1) = (   0.3454423   0.1471431   0.7210134  )
         2           Cu  tau(   2) = (   0.4857844   0.2143543   0.1896608  )
         3           Cu  tau(   3) = (   1.4857844   0.6558484   0.5534669  )
         4           Sn  tau(   4) = (   1.0074638   0.4448505   0.3597329  )
         5           Se  tau(   5) = (   0.6490679   0.5181314   0.2708034  )
         6           Se  tau(   6) = (   0.9966546   0.2055401   0.6501461  )
         7           S   tau(   7) = (   1.1815766   0.7499179   0.4515815  )
         8           S   tau(   8) = (   1.1815766   0.2963782   0.0778494  )

   Crystallographic axes

     site n.     atom                  positions (cryst. coord.)
         1           Zn  tau(   1) = (  0.0090690  0.0090690  0.9909310  )
         2           Cu  tau(   2) = (  0.2393380  0.2393380  0.2606620  )
         3           Cu  tau(   3) = (  0.7393380  0.7393380  0.7606620  )
         4           Sn  tau(   4) = (  0.5055980  0.5055980  0.4944020  )
         5           Se  tau(   5) = (  0.1064660  0.6278190  0.3721810  )
         6           Se  tau(   6) = (  0.6278190  0.1064660  0.8935340  )
         7           S   tau(   7) = (  0.3793650  0.8930070  0.6206350  )
         8           S   tau(   8) = (  0.8930070  0.3793650  0.1069930  )

     number of k points=    14
                       cart. coord. in units 2pi/alat
        k(    1) = (   0.0000000   0.0000000   0.0000000), wk =   0.0740741
        k(    2) = (   0.0000000   0.0000000   0.4581196), wk =   0.1481481
        k(    3) = (   0.0000000   0.4496711  -0.0875754), wk =   0.1481481
        k(    4) = (   0.0000000   0.4496711   0.3705442), wk =   0.1481481
        k(    5) = (   0.0000000   0.4496711  -0.5456949), wk =   0.1481481
        k(    6) = (   0.3333333  -0.2997730  -0.0943324), wk =   0.1481481
        k(    7) = (   0.3333333  -0.2997730   0.3637872), wk =   0.1481481
        k(    8) = (   0.3333333  -0.2997730  -0.5524519), wk =   0.1481481
        k(    9) = (   0.3333333   0.1498981  -0.1819077), wk =   0.1481481
        k(   10) = (   0.3333333   0.1498981   0.2762118), wk =   0.1481481
        k(   11) = (   0.3333333   0.1498981  -0.6400273), wk =   0.1481481
        k(   12) = (   0.3333333  -0.7494441  -0.0067570), wk =   0.1481481
        k(   13) = (   0.3333333  -0.7494441   0.4513626), wk =   0.1481481
        k(   14) = (   0.3333333  -0.7494441  -0.4648766), wk =   0.1481481

                       cryst. coord.
        k(    1) = (   0.0000000   0.0000000   0.0000000), wk =   0.0740741
        k(    2) = (   0.0000000   0.0000000   0.3333333), wk =   0.1481481
        k(    3) = (   0.0000000   0.3333333  -0.0000000), wk =   0.1481481
        k(    4) = (   0.0000000   0.3333333   0.3333333), wk =   0.1481481
        k(    5) = (   0.0000000   0.3333333  -0.3333333), wk =   0.1481481
        k(    6) = (   0.3333333  -0.0000000   0.0000000), wk =   0.1481481
        k(    7) = (   0.3333333  -0.0000000   0.3333333), wk =   0.1481481
        k(    8) = (   0.3333333  -0.0000000  -0.3333333), wk =   0.1481481
        k(    9) = (   0.3333333   0.3333333  -0.0000000), wk =   0.1481481
        k(   10) = (   0.3333333   0.3333333   0.3333333), wk =   0.1481481
        k(   11) = (   0.3333333   0.3333333  -0.3333333), wk =   0.1481481
        k(   12) = (   0.3333333  -0.3333333   0.0000000), wk =   0.1481481
        k(   13) = (   0.3333333  -0.3333333   0.3333333), wk =   0.1481481
        k(   14) = (   0.3333333  -0.3333333  -0.3333333), wk =   0.1481481

     Initial potential from superposition of free atoms

     starting charge      92.9996, renormalised to      96.0000
     Starting wfcs are   64 randomized atomic wfcs

     Self-consistent Calculation

     iteration #  1     ecut=    30.00 Ry     beta= 0.70
     Davidson diagonalization with overlap

     ethr =  1.00E-02,  avg # of iterations =  4.7

     total energy              =   -1485.35041884 Ry
     estimated scf accuracy    <      99.82747316 Ry

[...]

     total energy              =   -1567.80359393 Ry
     estimated scf accuracy    <       0.00000284 Ry

     iteration # 17     ecut=    30.00 Ry     beta= 0.70
     Davidson diagonalization with overlap

     ethr =  2.95E-09,  avg # of iterations =  3.9

     End of self-consistent calculation

          k = 0.0000 0.0000 0.0000 (  3331 PWs)   bands (ev):

  -118.5784-104.2008-104.1994 -72.7007 -72.6870 -72.6695 -61.6186 -61.6126
   -61.6009 -61.5997 -61.5583 -61.5558 -14.6464 -14.6461 -14.6338 -14.5923
   -14.5791  -6.6897  -5.4348  -5.4054  -5.3243  -0.3421   0.4424   0.4683
     0.4685   0.5292   0.6686   1.8847   2.5643   2.6210   3.3824   3.4377
     3.7419   3.7654   4.1915   4.2596   4.5990   5.0064   5.5740   5.6630
     5.6814   5.7183   5.7788   6.0285   6.0437   7.3198   7.5916   7.5955
     7.6682   9.4220  10.3935  10.9734  11.1231  11.3323  12.5688  12.6465
    12.6491  13.7321  13.9090  14.1776  14.2720  14.5602  16.4372  17.4362

     occupation numbers
     1.0000   1.0000   1.0000   1.0000   1.0000   1.0000   1.0000   1.0000
     1.0000   1.0000   1.0000   1.0000   1.0000   1.0000   1.0000   1.0000
     1.0000   1.0000   1.0000   1.0000   1.0000   1.0000   1.0000   1.0000
     1.0000   1.0000   1.0000   1.0000   1.0000   1.0000   1.0000   1.0000
     1.0000   1.0000   1.0000   1.0000   1.0000   1.0000   1.0000   1.0000
     1.0000   1.0000   1.0000   1.0000   1.0000   1.0000   1.0000   1.0000
     0.0000   0.0000   0.0000   0.0000   0.0000   0.0000   0.0000   0.0000
     0.0000   0.0000   0.0000   0.0000   0.0000   0.0000   0.0000   0.0000

[...]

          k = 0.3333-0.7494-0.4649 (  3294 PWs)   bands (ev):

  -118.5776-104.2003-104.1991 -72.6918 -72.6864 -72.6696 -61.6168 -61.6145
   -61.6011 -61.5994 -61.5549 -61.5537 -14.6464 -14.6463 -14.6342 -14.5920
   -14.5785  -6.0963  -5.6868  -5.6304  -5.5847  -0.2396   0.4014   0.4392
     0.5044   0.5389   0.5510   1.7636   2.2271   2.5864   3.3984   3.7195
     3.8382   3.9317   4.3130   4.4524   4.5883   4.6042   5.6524   5.7471
     5.7731   5.9909   6.0756   6.1683   6.4024   6.6806   6.8857   7.3320
     8.2494  10.0070  10.7847  10.9621  11.5316  11.7472  12.5022  13.0398
    13.1475  13.4573  14.0950  14.3438  14.3635  14.7718  15.1269  15.3322

     occupation numbers
     1.0000   1.0000   1.0000   1.0000   1.0000   1.0000   1.0000   1.0000
     1.0000   1.0000   1.0000   1.0000   1.0000   1.0000   1.0000   1.0000
     1.0000   1.0000   1.0000   1.0000   1.0000   1.0000   1.0000   1.0000
     1.0000   1.0000   1.0000   1.0000   1.0000   1.0000   1.0000   1.0000
     1.0000   1.0000   1.0000   1.0000   1.0000   1.0000   1.0000   1.0000
     1.0000   1.0000   1.0000   1.0000   1.0000   1.0000   1.0000   1.0000
     0.0000   0.0000   0.0000   0.0000   0.0000   0.0000   0.0000   0.0000
     0.0000   0.0000   0.0000   0.0000   0.0000   0.0000   0.0000   0.0000

     highest occupied, lowest unoccupied level (ev):     7.5955    7.6682

!    total energy              =   -1567.80359448 Ry
     estimated scf accuracy    <       0.00000052 Ry

     The total energy is the sum of the following terms:
     one-electron contribution =   -1342.63499954 Ry
     hartree contribution      =     708.42780580 Ry
     xc contribution           =    -243.76650462 Ry
     ewald contribution        =    -689.82989613 Ry

     convergence has been achieved in  17 iterations

     Writing all to output data dir calculations_bands/myprefix.save/

     General routines

     Parallel routines

   This run was terminated on:   3:36:22   6Jun2023

   JOB DONE.