     Program PWSCF v.7.0 starts on  5Jun2023 at 19:12:40

     K-points division:     npool     =       2
     R & G space division:  proc/nbgrp/npool/nimage =       4

     Reading input from espresso_11205.pwi
Warning: card &CELL ignored
Warning: card / ignored

     Current dimensions of program PWSCF are:
     Max number of different atomic species (ntypx) = 10
     Max number of k-points (npk) =  40000
     Max angular momentum in pseudopotentials (lmaxx) =  4
     Message from routine setup:
     using ibrav=0 with symmetry is DISCOURAGED, use correct ibrav instead

     Using Slab Decomposition

     bravais-lattice index     =            0
     lattice parameter (alat)  =       6.7275  a.u.
     unit-cell volume          =    2970.4591 (a.u.)^3
     number of atoms/cell      =           12
     number of atomic types    =            3
     number of electrons       =       104.00
     number of Kohn-Sham states=           64
     kinetic-energy cutoff     =      30.0000  Ry
     charge density cutoff     =     240.0000  Ry
     scf convergence threshold =      1.0E-06
     mixing beta               =       0.7000
     number of iterations used =            8  plain     mixing
     Exchange-correlation= SLA  PW   PBE  PBE
                           (   1   4   3   4   0   0   0)

     celldm(1)=   6.727478  celldm(2)=   0.000000  celldm(3)=   0.000000
     celldm(4)=   0.000000  celldm(5)=   0.000000  celldm(6)=   0.000000

     crystal axes: (cart. coord. in units of alat)
               a(1) = (   1.000000   0.000000   0.000000 )
               a(2) = (  -0.500000   0.866025   0.000000 )
               a(3) = (   0.000000   0.000000  11.265125 )

     reciprocal axes: (cart. coord. in units 2 pi/alat)
               b(1) = (  1.000000  0.577350  0.000000 )
               b(2) = (  0.000000  1.154701  0.000000 )
               b(3) = (  0.000000  0.000000  0.088770 )

     PseudoPot. # 1 for Te read from file:
     /home/pragov/projects/rrg-bengioy-ad/pragov/crystal_structure_design/SSSP/Te_pbe_v1.uspp.F.UPF
     MD5 check sum: c319670d6894cc26e93307826a071b75
     Pseudo is Ultrasoft + core correction, Zval =  6.0
     Generated by new atomic code, or converted to UPF format
     Using radial grid of  891 points,  5 beta functions with:
                l(1) =   0
                l(2) =   0
                l(3) =   1
                l(4) =   1
                l(5) =   2
     Q(r) pseudized with  6 coefficients,  rinner =    1.800   1.800   1.800
                                                       1.800   1.800

     PseudoPot. # 2 for Mo read from file:
     /home/pragov/projects/rrg-bengioy-ad/pragov/crystal_structure_design/SSSP/Mo_ONCV_PBE-1.0.oncvpsp.upf
     MD5 check sum: 1b5d28e075c9ccadda658a603575cd1f
     Pseudo is Norm-conserving, Zval = 14.0
     Generated using ONCVPSP code by D. R. Hamann
     Using radial grid of 1526 points,  6 beta functions with:
                l(1) =   0
                l(2) =   0
                l(3) =   1
                l(4) =   1
                l(5) =   2
                l(6) =   2

     PseudoPot. # 3 for W  read from file:
     /home/pragov/projects/rrg-bengioy-ad/pragov/crystal_structure_design/SSSP/W_pbe_v1.2.uspp.F.UPF
     MD5 check sum: 9c083fa34c2a2ea0f02f1f893e16e1c8
     Pseudo is Ultrasoft + core correction, Zval = 14.0
     Generated by new atomic code, or converted to UPF format
     Using radial grid of  923 points,  8 beta functions with:
                l(1) =   0
                l(2) =   0
                l(3) =   0
                l(4) =   1
                l(5) =   1
                l(6) =   2
                l(7) =   2
                l(8) =   3
     Q(r) pseudized with  6 coefficients,  rinner =    1.350   1.350   1.350
                                                       1.350   1.350   1.350
                                                       1.350

     atomic species   valence    mass     pseudopotential
        Te             6.00   127.60000     Te( 1.00)
        Mo            14.00    95.95000     Mo( 1.00)
        W             14.00   183.84000     W ( 1.00)

      6 Sym. Ops. (no inversion) found

                                    s                        frac. trans.

      isym =  1     identity

 cryst.   s( 1) = (     1          0          0      )
                  (     0          1          0      )
                  (     0          0          1      )

 cart.    s( 1) = (  1.0000000  0.0000000  0.0000000 )
                  (  0.0000000  1.0000000  0.0000000 )
                  (  0.0000000  0.0000000  1.0000000 )

      isym =  2     120 deg rotation - cryst. axis [0,0,1]

[...]

      isym =  3     120 deg rotation - cryst. axis [0,0,-1]

[...]

      isym =  4     inv. 180 deg rotation - cart. axis [1,0,0]

[...]

      isym =  5     inv. 180 deg rotation - cryst. axis [0,1,0]

[...]

      isym =  6     inv. 180 deg rotation - cryst. axis [1,1,0]

 cryst.   s( 6) = (     0         -1          0      )
                  (    -1          0          0      )
                  (     0          0          1      )

 cart.    s( 6) = (  0.5000001 -0.8660254  0.0000000 )
                  ( -0.8660254 -0.5000001  0.0000000 )
                  (  0.0000000  0.0000000  1.0000000 )

   Cartesian axes

     site n.     atom                  positions (alat units)
         1           Te  tau(   1) = (   0.0000000   0.0000000   3.6850703  )
         2           Te  tau(   2) = (   0.0000000   0.0000000   7.9172201  )
         3           Te  tau(   3) = (  -0.0000006   0.5773505   0.5497381  )
         4           Te  tau(   4) = (  -0.0000006   0.5773505   4.7823273  )
         5           Te  tau(   5) = (  -0.0000006   0.5773505   1.5665959  )
         6           Te  tau(   6) = (  -0.0000006   0.5773505   5.7992526  )
         7           Te  tau(   7) = (   0.0000000   0.0000000   2.6641232  )
         8           Te  tau(   8) = (   0.0000000   0.0000000   6.8968138  )
         9           Mo  tau(   9) = (   0.0000000   0.0000000   1.0579079  )
        10           Mo  tau(  10) = (   0.0000000   0.0000000   5.2907787  )
        11           W   tau(  11) = (  -0.0000006   0.5773505   3.1744559  )
        12           W   tau(  12) = (  -0.0000006   0.5773505   7.4073267  )

   Crystallographic axes

     site n.     atom                  positions (cryst. coord.)
         1           Te  tau(   1) = (  0.0000000  0.0000000  0.3271220  )
         2           Te  tau(   2) = (  0.0000000  0.0000000  0.7028080  )
         3           Te  tau(   3) = (  0.3333330  0.6666670  0.0488000  )
         4           Te  tau(   4) = (  0.3333330  0.6666670  0.4245250  )
         5           Te  tau(   5) = (  0.3333330  0.6666670  0.1390660  )
         6           Te  tau(   6) = (  0.3333330  0.6666670  0.5147970  )
         7           Te  tau(   7) = (  0.0000000  0.0000000  0.2364930  )
         8           Te  tau(   8) = (  0.0000000  0.0000000  0.6122270  )
         9           Mo  tau(   9) = (  0.0000000  0.0000000  0.0939100  )
        10           Mo  tau(  10) = (  0.0000000  0.0000000  0.4696600  )
        11           W   tau(  11) = (  0.3333330  0.6666670  0.2817950  )
        12           W   tau(  12) = (  0.3333330  0.6666670  0.6575450  )

     number of k points=     7
                       cart. coord. in units 2pi/alat
        k(    1) = (   0.0000000   0.0000000   0.0000000), wk =   0.0740741
        k(    2) = (   0.0000000   0.0000000   0.0295898), wk =   0.1481481
        k(    3) = (   0.0000000   0.3849002   0.0000000), wk =   0.4444444
        k(    4) = (   0.0000000   0.3849002   0.0295898), wk =   0.4444444
        k(    5) = (   0.3333333   0.5773503   0.0000000), wk =   0.1481481
        k(    6) = (   0.3333333   0.5773503   0.0295898), wk =   0.2962963
        k(    7) = (   0.0000000  -0.3849002   0.0295898), wk =   0.4444444

                       cryst. coord.
        k(    1) = (   0.0000000   0.0000000   0.0000000), wk =   0.0740741
        k(    2) = (   0.0000000   0.0000000   0.3333333), wk =   0.1481481
        k(    3) = (   0.0000000   0.3333333   0.0000000), wk =   0.4444444
        k(    4) = (   0.0000000   0.3333333   0.3333333), wk =   0.4444444
        k(    5) = (   0.3333333   0.3333333   0.0000000), wk =   0.1481481
        k(    6) = (   0.3333333   0.3333333   0.3333333), wk =   0.2962963
        k(    7) = (   0.0000000  -0.3333333   0.3333333), wk =   0.4444444

     Initial potential from superposition of free atoms

     starting charge     103.7956, renormalised to     104.0000

     negative rho (up, down):  1.239E-01 0.000E+00
     Starting wfcs are   78 randomized atomic wfcs

     Self-consistent Calculation

     iteration #  1     ecut=    30.00 Ry     beta= 0.70
     Davidson diagonalization with overlap

     ethr =  1.00E-02,  avg # of iterations =  2.0

     negative rho (up, down):  1.275E-01 0.000E+00

     total energy              =    -756.74228625 Ry
     estimated scf accuracy    <      53.45989784 Ry

[...]

     total energy              =    -804.66720686 Ry
     estimated scf accuracy    <       0.00000154 Ry

     iteration # 35     ecut=    30.00 Ry     beta= 0.70
     Davidson diagonalization with overlap

     ethr =  1.48E-09,  avg # of iterations =  2.6

     negative rho (up, down):  1.228E-01 0.000E+00

     End of self-consistent calculation

          k = 0.0000 0.0000 0.0000 (  8191 PWs)   bands (ev):

   -68.3461 -68.3460 -55.2827 -55.2785 -32.6391 -32.6363 -32.4817 -32.4817
   -32.4808 -32.4808 -29.4865 -29.4804 -29.2724 -29.2724 -29.2696 -29.2696
    -7.5275  -7.5203  -7.2482  -7.2391  -6.4498  -6.4019  -6.3262  -6.2862
    -0.2193  -0.1235   0.3916   0.5128   2.8932   3.2548   3.7349   3.7850
     3.7850   3.7862   3.7862   3.7915   3.7915   3.7928   3.7928   4.2090
     4.5029   4.5029   4.5051   4.5051   4.6376   4.6377   4.6394   4.6395
     4.7616   5.0275   5.2541   5.3604   8.3230   8.3230   8.3265   8.3265
     8.5015   8.5015   8.5118   8.5118   8.5867   8.5867   8.5997   8.5997

     occupation numbers
     1.0000   1.0000   1.0000   1.0000   1.0000   1.0000   1.0000   1.0000
     1.0000   1.0000   1.0000   1.0000   1.0000   1.0000   1.0000   1.0000
     1.0000   1.0000   1.0000   1.0000   1.0000   1.0000   1.0000   1.0000
     1.0000   1.0000   1.0000   1.0000   1.0000   1.0000   1.0000   1.0000
     1.0000   1.0000   1.0000   1.0000   1.0000   1.0000   1.0000   1.0000
     1.0000   1.0000   1.0000   1.0000   1.0000   1.0000   1.0000   1.0000
     1.0000   1.0000   1.0000   1.0000   0.0000   0.0000   0.0000   0.0000
     0.0000   0.0000   0.0000   0.0000   0.0000   0.0000   0.0000   0.0000

[...]

          k = 0.0000-0.3849 0.0296 (  8267 PWs)   bands (ev):

   -68.3439 -68.3438 -55.2766 -55.2725 -32.6253 -32.6225 -32.5540 -32.5531
   -32.4992 -32.4982 -29.4687 -29.4626 -29.3577 -29.3550 -29.2926 -29.2898
    -6.1617  -6.1539  -5.9779  -5.9684  -5.5452  -5.5157  -5.4530  -5.4310
     0.6396   0.6561   0.9299   0.9401   1.3731   1.4156   1.5120   1.5858
     1.6910   1.7448   1.8918   1.9366   3.3587   3.3650   3.3818   3.3893
     3.6142   3.7299   3.8898   4.0188   4.4002   4.4419   4.4855   4.5067
     4.6557   4.6711   4.6895   4.7039   6.7785   6.8364   7.1215   7.1248
     7.1507   7.2412   7.4765   7.4822   7.8392   7.9939   8.3944   8.5947

     occupation numbers
     1.0000   1.0000   1.0000   1.0000   1.0000   1.0000   1.0000   1.0000
     1.0000   1.0000   1.0000   1.0000   1.0000   1.0000   1.0000   1.0000
     1.0000   1.0000   1.0000   1.0000   1.0000   1.0000   1.0000   1.0000
     1.0000   1.0000   1.0000   1.0000   1.0000   1.0000   1.0000   1.0000
     1.0000   1.0000   1.0000   1.0000   1.0000   1.0000   1.0000   1.0000
     1.0000   1.0000   1.0000   1.0000   1.0000   1.0000   1.0000   1.0000
     1.0000   1.0000   1.0000   1.0000   0.0000   0.0000   0.0000   0.0000
     0.0000   0.0000   0.0000   0.0000   0.0000   0.0000   0.0000   0.0000

     highest occupied, lowest unoccupied level (ev):     5.6470    6.4942

!    total energy              =    -804.66720636 Ry
     estimated scf accuracy    <       0.00000081 Ry

     The total energy is the sum of the following terms:
     one-electron contribution =   -3484.34563060 Ry
     hartree contribution      =    1764.26142242 Ry
     xc contribution           =    -229.49685334 Ry
     ewald contribution        =    1144.91385517 Ry

     convergence has been achieved in  35 iterations

     Writing all to output data dir calculations_bands/myprefix.save/

     General routines

     Parallel routines

   This run was terminated on:  19:13:38   5Jun2023

   JOB DONE.