     Program PWSCF v.7.0 starts on 23Jun2023 at  4:31:25

     K-points division:     npool     =       2
     R & G space division:  proc/nbgrp/npool/nimage =       4

     Reading input from espresso_4009.pwi
Warning: card &CELL ignored
Warning: card / ignored

     Current dimensions of program PWSCF are:
     Max number of different atomic species (ntypx) = 10
     Max number of k-points (npk) =  40000
     Max angular momentum in pseudopotentials (lmaxx) =  4
     Message from routine setup:
     using ibrav=0 with symmetry is DISCOURAGED, use correct ibrav instead

     Using Slab Decomposition

     bravais-lattice index     =            0
     lattice parameter (alat)  =      13.3470  a.u.
     unit-cell volume          =    2367.5910 (a.u.)^3
     number of atoms/cell      =           16
     number of atomic types    =            3
     number of electrons       =       150.00
     number of Kohn-Sham states=           90
     kinetic-energy cutoff     =      30.0000  Ry
     charge density cutoff     =     240.0000  Ry
     scf convergence threshold =      1.0E-06
     mixing beta               =       0.7000
     number of iterations used =            8  plain     mixing
     Exchange-correlation= SLA  PW   PBE  PBE
                           (   1   4   3   4   0   0   0)

     celldm(1)=  13.347009  celldm(2)=   0.000000  celldm(3)=   0.000000
     celldm(4)=   0.000000  celldm(5)=   0.000000  celldm(6)=   0.000000

     crystal axes: (cart. coord. in units of alat)
               a(1) = (   1.000000   0.000000   0.000000 )
               a(2) = (  -0.185367   0.988037   0.000000 )
               a(3) = (  -0.018544  -0.050001   1.007816 )

     reciprocal axes: (cart. coord. in units 2 pi/alat)
               b(1) = (  1.000000  0.187612  0.027709 )
               b(2) = (  0.000000  1.012107  0.050214 )
               b(3) = (  0.000000  0.000000  0.992244 )

     PseudoPot. # 1 for Na read from file:
     /home/pragov/projects/rrg-bengioy-ad/pragov/crystal_structure_design/SSSP/na_pbe_v1.5.uspp.F.UPF
     MD5 check sum: 44600605ef58000f06b90626533354dc
     Pseudo is Ultrasoft, Zval =  9.0
     Generated by new atomic code, or converted to UPF format
     Using radial grid of  819 points,  5 beta functions with:
                l(1) =   0
                l(2) =   0
                l(3) =   1
                l(4) =   1
                l(5) =   2
     Q(r) pseudized with  8 coefficients,  rinner =    1.250   1.250   1.250
                                                       1.250   1.250

     PseudoPot. # 2 for Mo read from file:
     /home/pragov/projects/rrg-bengioy-ad/pragov/crystal_structure_design/SSSP/Mo_ONCV_PBE-1.0.oncvpsp.upf
     MD5 check sum: 1b5d28e075c9ccadda658a603575cd1f
     Pseudo is Norm-conserving, Zval = 14.0
     Generated using ONCVPSP code by D. R. Hamann
     Using radial grid of 1526 points,  6 beta functions with:
                l(1) =   0
                l(2) =   0
                l(3) =   1
                l(4) =   1
                l(5) =   2
                l(6) =   2

     PseudoPot. # 3 for Se read from file:
     /home/pragov/projects/rrg-bengioy-ad/pragov/crystal_structure_design/SSSP/Se_pbe_v1.uspp.F.UPF
     MD5 check sum: 1b3568f3a8ae88f9a2a0ad0698632c85
     Pseudo is Ultrasoft + core correction, Zval =  6.0
     Generated by new atomic code, or converted to UPF format
     Using radial grid of  877 points,  6 beta functions with:
                l(1) =   0
                l(2) =   0
                l(3) =   1
                l(4) =   1
                l(5) =   2
                l(6) =   2
     Q(r) pseudized with  8 coefficients,  rinner =    1.300   1.300   1.300
                                                       1.300   1.300

     atomic species   valence    mass     pseudopotential
        Na             9.00    22.98977     Na( 1.00)
        Mo            14.00    95.95000     Mo( 1.00)
        Se             6.00    78.97100     Se( 1.00)

      2 Sym. Ops., with inversion, found

                                    s                        frac. trans.

      isym =  1     identity

 cryst.   s( 1) = (     1          0          0      )
                  (     0          1          0      )
                  (     0          0          1      )

 cart.    s( 1) = (  1.0000000  0.0000000  0.0000000 )
                  (  0.0000000  1.0000000 -0.0000000 )
                  (  0.0000000  0.0000000  1.0000000 )

      isym =  2     inversion

 cryst.   s( 2) = (    -1          0          0      )
                  (     0         -1          0      )
                  (     0          0         -1      )

 cart.    s( 2) = ( -1.0000000 -0.0000000 -0.0000000 )
                  (  0.0000000 -1.0000000  0.0000000 )
                  (  0.0000000  0.0000000 -1.0000000 )

   Cartesian axes

     site n.     atom                  positions (alat units)
         1           Na  tau(   1) = (   0.7659309   0.6138057   0.9518322  )
         2           Na  tau(   2) = (   0.0301574   0.3242302   0.0559842  )
         3           Mo  tau(   3) = (   0.0744179   0.8551150   0.5603137  )
         4           Mo  tau(   4) = (   0.7216703   0.0829210   0.4475028  )
         5           Mo  tau(   5) = (   0.3925310   0.7146188   0.4130899  )
         6           Mo  tau(   6) = (   0.4035572   0.2234172   0.5947266  )
         7           Mo  tau(   7) = (   0.3974050   0.9044206   0.7553645  )
         8           Mo  tau(   8) = (   0.3986833   0.0336153   0.2524520  )
         9           Se  tau(   9) = (   0.7172613   0.2520905   0.7720176  )
        10           Se  tau(  10) = (   0.0788270   0.6859455   0.2357988  )
        11           Se  tau(  11) = (   0.5301170   0.8949536   0.1225716  )
        12           Se  tau(  12) = (   0.2659713   0.0430824   0.8852448  )
        13           Se  tau(  13) = (   0.6962082   0.7651677   0.5940151  )
        14           Se  tau(  14) = (   0.0998800   0.1728682   0.4138014  )
        15           Se  tau(  15) = (   0.2520053   0.5695615   0.7251632  )
        16           Se  tau(  16) = (   0.5440829   0.3684745   0.2826532  )

   Crystallographic axes

     site n.     atom                  positions (cryst. coord.)
         1           Na  tau(   1) = (  0.9074620  0.6690330  0.9444500  )
         2           Na  tau(   2) = (  0.0925380  0.3309670  0.0555500  )
         3           Mo  tau(   3) = (  0.2503730  0.8936040  0.5559680  )
         4           Mo  tau(   4) = (  0.7496270  0.1063960  0.4440320  )
         5           Mo  tau(   5) = (  0.5380480  0.7440140  0.4098860  )
         6           Mo  tau(   6) = (  0.4619520  0.2559860  0.5901140  )
         7           Mo  tau(   7) = (  0.5880150  0.9533010  0.7495060  )
         8           Mo  tau(   8) = (  0.4119850  0.0466990  0.2504940  )
         9           Se  tau(   9) = (  0.7859480  0.2939090  0.7660300  )
        10           Se  tau(  10) = (  0.2140520  0.7060910  0.2339700  )
        11           Se  tau(  11) = (  0.7014170  0.9119440  0.1216210  )
        12           Se  tau(  12) = (  0.2985830  0.0880560  0.8783790  )
        13           Se  tau(  13) = (  0.8562220  0.8042600  0.5894080  )
        14           Se  tau(  14) = (  0.1437780  0.1957400  0.4105920  )
        15           Se  tau(  15) = (  0.3789550  0.6128710  0.7195390  )
        16           Se  tau(  16) = (  0.6210450  0.3871290  0.2804610  )

     number of k points=    14
                       cart. coord. in units 2pi/alat
        k(    1) = (   0.0000000   0.0000000   0.0000000), wk =   0.0740741
        k(    2) = (   0.0000000   0.0000000   0.3307481), wk =   0.1481481
        k(    3) = (   0.0000000   0.3373691   0.0167381), wk =   0.1481481
        k(    4) = (   0.0000000   0.3373691   0.3474862), wk =   0.1481481
        k(    5) = (   0.0000000   0.3373691  -0.3140099), wk =   0.1481481
        k(    6) = (   0.3333333   0.0625372   0.0092362), wk =   0.1481481
        k(    7) = (   0.3333333   0.0625372   0.3399843), wk =   0.1481481
        k(    8) = (   0.3333333   0.0625372  -0.3215118), wk =   0.1481481
        k(    9) = (   0.3333333   0.3999064   0.0259744), wk =   0.1481481
        k(   10) = (   0.3333333   0.3999064   0.3567224), wk =   0.1481481
        k(   11) = (   0.3333333   0.3999064  -0.3047737), wk =   0.1481481
        k(   12) = (   0.3333333  -0.2748319  -0.0075019), wk =   0.1481481
        k(   13) = (   0.3333333  -0.2748319   0.3232462), wk =   0.1481481
        k(   14) = (   0.3333333  -0.2748319  -0.3382499), wk =   0.1481481

                       cryst. coord.
        k(    1) = (   0.0000000   0.0000000   0.0000000), wk =   0.0740741
        k(    2) = (   0.0000000   0.0000000   0.3333333), wk =   0.1481481
        k(    3) = (   0.0000000   0.3333333   0.0000000), wk =   0.1481481
        k(    4) = (   0.0000000   0.3333333   0.3333333), wk =   0.1481481
        k(    5) = (   0.0000000   0.3333333  -0.3333333), wk =   0.1481481
        k(    6) = (   0.3333333   0.0000000  -0.0000000), wk =   0.1481481
        k(    7) = (   0.3333333   0.0000000   0.3333333), wk =   0.1481481
        k(    8) = (   0.3333333   0.0000000  -0.3333333), wk =   0.1481481
        k(    9) = (   0.3333333   0.3333333   0.0000000), wk =   0.1481481
        k(   10) = (   0.3333333   0.3333333   0.3333333), wk =   0.1481481
        k(   11) = (   0.3333333   0.3333333  -0.3333333), wk =   0.1481481
        k(   12) = (   0.3333333  -0.3333333  -0.0000000), wk =   0.1481481
        k(   13) = (   0.3333333  -0.3333333   0.3333333), wk =   0.1481481
        k(   14) = (   0.3333333  -0.3333333  -0.3333333), wk =   0.1481481

     Initial potential from superposition of free atoms

     starting charge     149.9809, renormalised to     150.0000
     Starting wfcs are  102 randomized atomic wfcs

     Self-consistent Calculation

     iteration #  1     ecut=    30.00 Ry     beta= 0.70
     Davidson diagonalization with overlap

     ethr =  1.00E-02,  avg # of iterations =  2.0

     total energy              =   -1361.41642892 Ry
     estimated scf accuracy    <       2.60030009 Ry

[...]

     total energy              =   -1363.08374263 Ry
     estimated scf accuracy    <       0.00000164 Ry

     iteration # 13     ecut=    30.00 Ry     beta= 0.70
     Davidson diagonalization with overlap

     ethr =  1.09E-09,  avg # of iterations =  2.0

     End of self-consistent calculation

          k = 0.0000 0.0000 0.0000 (  6565 PWs)   bands (ev):

   -51.7676 -51.6931 -51.6329 -51.6121 -51.5705 -51.5195 -43.2198 -43.2155
   -26.2568 -26.1426 -26.1074 -26.0868 -26.0841 -26.0785 -26.0741 -25.7908
   -25.7283 -25.6828 -25.5733 -25.4851 -25.4481 -25.4428 -25.4264 -25.4073
   -25.3944 -25.3582 -15.1909 -15.1328 -15.1255 -15.1247 -15.1191 -15.1114
    -4.7538  -3.8700  -3.8106  -3.7955  -3.7179  -3.6203  -3.5744  -3.4552
     3.6760   3.8577   3.9330   4.1815   4.2721   4.4754   4.7478   4.8086
     5.0140   5.0544   5.1478   5.2097   5.2471   5.6058   5.6550   5.8399
     6.0731   6.5113   6.6719   6.8091   6.9827   7.0191   7.0852   7.1370
     7.4385   7.6526   7.7305   7.9441   8.0112   8.2689   8.3145   8.5863
     8.6223   8.7084   8.8924   9.0782  10.5440  10.6776  10.7836  10.8095
    11.0754  11.2714  11.3366  11.5001  11.6391  11.8261  11.8602  11.9456
    12.0354  12.1174

     occupation numbers
     1.0000   1.0000   1.0000   1.0000   1.0000   1.0000   1.0000   1.0000
     1.0000   1.0000   1.0000   1.0000   1.0000   1.0000   1.0000   1.0000
     1.0000   1.0000   1.0000   1.0000   1.0000   1.0000   1.0000   1.0000
     1.0000   1.0000   1.0000   1.0000   1.0000   1.0000   1.0000   1.0000
     1.0000   1.0000   1.0000   1.0000   1.0000   1.0000   1.0000   1.0000
     1.0000   1.0000   1.0000   1.0000   1.0000   1.0000   1.0000   1.0000
     1.0000   1.0000   1.0000   1.0000   1.0000   1.0000   1.0000   1.0000
     1.0000   1.0000   1.0000   1.0000   1.0000   1.0000   1.0000   1.0000
     1.0000   1.0000   1.0000   1.0000   1.0000   1.0000   1.0000   1.0000
     1.0000   1.0000   1.0000   0.0000   0.0000   0.0000   0.0000   0.0000
     0.0000   0.0000   0.0000   0.0000   0.0000   0.0000   0.0000   0.0000
     0.0000   0.0000

[...]

          k = 0.3333-0.2748-0.3382 (  6550 PWs)   bands (ev):

   -51.7670 -51.6938 -51.6333 -51.6115 -51.5706 -51.5192 -43.2196 -43.2154
   -26.2522 -26.1425 -26.1071 -26.0898 -26.0850 -26.0782 -26.0715 -25.7916
   -25.7320 -25.6854 -25.5697 -25.4797 -25.4515 -25.4397 -25.4254 -25.4127
   -25.3985 -25.3551 -15.1900 -15.1316 -15.1254 -15.1243 -15.1192 -15.1111
    -4.3849  -4.0488  -3.8875  -3.8001  -3.7186  -3.7094  -3.6374  -3.5187
     3.8660   3.9599   3.9855   4.2259   4.3335   4.3606   4.5169   4.6750
     4.7749   4.9180   5.1177   5.4283   5.5961   5.9512   6.0050   6.1546
     6.3581   6.4401   6.4657   6.5183   6.8029   6.9577   7.2694   7.3124
     7.5147   7.5431   7.7242   7.8113   7.9109   8.0589   8.1429   8.3503
     8.5378   8.5887   8.8685   9.2349  10.6725  10.7957  10.8098  10.8864
    10.9800  11.1245  11.2377  11.3966  11.4780  11.5042  11.6600  11.7935
    11.8820  12.0562

     occupation numbers
     1.0000   1.0000   1.0000   1.0000   1.0000   1.0000   1.0000   1.0000
     1.0000   1.0000   1.0000   1.0000   1.0000   1.0000   1.0000   1.0000
     1.0000   1.0000   1.0000   1.0000   1.0000   1.0000   1.0000   1.0000
     1.0000   1.0000   1.0000   1.0000   1.0000   1.0000   1.0000   1.0000
     1.0000   1.0000   1.0000   1.0000   1.0000   1.0000   1.0000   1.0000
     1.0000   1.0000   1.0000   1.0000   1.0000   1.0000   1.0000   1.0000
     1.0000   1.0000   1.0000   1.0000   1.0000   1.0000   1.0000   1.0000
     1.0000   1.0000   1.0000   1.0000   1.0000   1.0000   1.0000   1.0000
     1.0000   1.0000   1.0000   1.0000   1.0000   1.0000   1.0000   1.0000
     1.0000   1.0000   1.0000   0.0000   0.0000   0.0000   0.0000   0.0000
     0.0000   0.0000   0.0000   0.0000   0.0000   0.0000   0.0000   0.0000
     0.0000   0.0000

     highest occupied, lowest unoccupied level (ev):     8.9893    9.0782

!    total energy              =   -1363.08374282 Ry
     estimated scf accuracy    <       0.00000007 Ry

     The total energy is the sum of the following terms:
     one-electron contribution =    -778.89292149 Ry
     hartree contribution      =     438.82097710 Ry
     xc contribution           =    -360.71347195 Ry
     ewald contribution        =    -662.29832647 Ry

     convergence has been achieved in  13 iterations

     Writing all to output data dir calculations_bands/myprefix.save/

     General routines

     Parallel routines

   This run was terminated on:   4:31:59  23Jun2023

   JOB DONE.