     Program PWSCF v.7.0 starts on 23Jun2023 at  6:59:21

     K-points division:     npool     =       2
     R & G space division:  proc/nbgrp/npool/nimage =       4

     Reading input from espresso_9160.pwi
Warning: card &CELL ignored
Warning: card / ignored

     Current dimensions of program PWSCF are:
     Max number of different atomic species (ntypx) = 10
     Max number of k-points (npk) =  40000
     Max angular momentum in pseudopotentials (lmaxx) =  4
     file Ga.pbe-dn-kjpaw_psl.1.0.0.UPF: wavefunction(s)  4S renormalized
     Message from routine setup:
     using ibrav=0 with symmetry is DISCOURAGED, use correct ibrav instead

     Using Slab Decomposition

     bravais-lattice index     =            0
     lattice parameter (alat)  =      12.6489  a.u.
     unit-cell volume          =    5538.7955 (a.u.)^3
     number of atoms/cell      =           16
     number of atomic types    =            2
     number of electrons       =       136.00
     number of Kohn-Sham states=           90
     kinetic-energy cutoff     =      30.0000  Ry
     charge density cutoff     =     240.0000  Ry
     scf convergence threshold =      1.0E-06
     mixing beta               =       0.7000
     number of iterations used =            8  plain     mixing
     Exchange-correlation= SLA  PW   PBX  PBC
                           (   1   4   3   4   0   0   0)

     celldm(1)=  12.648925  celldm(2)=   0.000000  celldm(3)=   0.000000
     celldm(4)=   0.000000  celldm(5)=   0.000000  celldm(6)=   0.000000

     crystal axes: (cart. coord. in units of alat)
               a(1) = (   1.000000   0.000000   0.000000 )
               a(2) = (   0.000000   1.516534   0.000000 )
               a(3) = (   0.000000   0.591326   1.804689 )

     reciprocal axes: (cart. coord. in units 2 pi/alat)
               b(1) = (  1.000000  0.000000  0.000000 )
               b(2) = (  0.000000  0.659398 -0.216059 )
               b(3) = (  0.000000  0.000000  0.554112 )

     PseudoPot. # 1 for Ga read from file:
     /home/pragov/projects/rrg-bengioy-ad/pragov/crystal_structure_design/SSSP/Ga.pbe-dn-kjpaw_psl.1.0.0.UPF
     MD5 check sum: a27b4342b1af7e5f338de752e9ed7044
     Pseudo is Projector augmented-wave + core cor, Zval = 13.0
     Generated using "atomic" code by A. Dal Corso  v.5.1
     Shape of augmentation charge: PSQ
     Using radial grid of 1205 points,  6 beta functions with:
                l(1) =   0
                l(2) =   0
                l(3) =   1
                l(4) =   1
                l(5) =   2
                l(6) =   2
     Q(r) pseudized with 0 coefficients

     PseudoPot. # 2 for I  read from file:
     /home/pragov/projects/rrg-bengioy-ad/pragov/crystal_structure_design/SSSP/I.pbe-n-kjpaw_psl.0.2.UPF
     MD5 check sum: d4ef18d9c8f18dc85e5843bca1e50dc0
     Pseudo is Projector augmented-wave + core cor, Zval =  7.0
     Generated using "atomic" code by A. Dal Corso  v.5.0.99 svn rev. 10869
     Shape of augmentation charge: PSQ
     Using radial grid of 1247 points,  4 beta functions with:
                l(1) =   0
                l(2) =   0
                l(3) =   1
                l(4) =   1
     Q(r) pseudized with 0 coefficients

     atomic species   valence    mass     pseudopotential
        Ga            13.00    69.72300     Ga( 1.00)
        I              7.00   126.90447     I ( 1.00)

      4 Sym. Ops., with inversion, found ( 2 have fractional translation)

                                    s                        frac. trans.

      isym =  1     identity

 cryst.   s( 1) = (     1          0          0      )
                  (     0          1          0      )
                  (     0          0          1      )

 cart.    s( 1) = (  1.0000000  0.0000000  0.0000000 )
                  (  0.0000000  1.0000000  0.0000000 )
                  (  0.0000000  0.0000000  1.0000000 )

      isym =  2     180 deg rotation - cart. axis [1,0,0]

 cryst.   s( 2) = (     1          0          0      )    f =( -0.5000000 )
                  (     0         -1          0      )       (  0.0000000 )
                  (     0          0         -1      )       (  0.5000000 )

 cart.    s( 2) = (  1.0000000  0.0000000  0.0000000 )    f =( -0.5000000 )
                  (  0.0000000 -1.0000000 -0.0000000 )       (  0.2956628 )
                  (  0.0000000  0.0000000 -1.0000000 )       (  0.9023446 )

      isym =  3     inversion

 cryst.   s( 3) = (    -1          0          0      )
                  (     0         -1          0      )
                  (     0          0         -1      )

 cart.    s( 3) = ( -1.0000000  0.0000000  0.0000000 )
                  (  0.0000000 -1.0000000 -0.0000000 )
                  (  0.0000000  0.0000000 -1.0000000 )

      isym =  4     inv. 180 deg rotation - cart. axis [1,0,0]

 cryst.   s( 4) = (    -1          0          0      )    f =(  0.5000000 )
                  (     0          1          0      )       ( -0.0000000 )
                  (     0          0          1      )       (  0.5000000 )

 cart.    s( 4) = ( -1.0000000  0.0000000  0.0000000 )    f =(  0.5000000 )
                  (  0.0000000  1.0000000  0.0000000 )       (  0.2956628 )
                  (  0.0000000  0.0000000  1.0000000 )       (  0.9023446 )

   Cartesian axes

     site n.     atom                  positions (alat units)
         1           Ga  tau(   1) = (   0.0031830   0.8534097   1.7200817  )
         2           Ga  tau(   2) = (   0.5031830   1.5501125   0.9869520  )
         3           Ga  tau(   3) = (   0.9968170   1.2544496   0.0846074  )
         4           Ga  tau(   4) = (   0.4968170   0.5577469   0.8177371  )
         5           I   tau(   5) = (   0.7770620   0.9631970   1.4404523  )
         6           I   tau(   6) = (   0.2770620   1.4403252   1.2665813  )
         7           I   tau(   7) = (   0.2229380   1.1446624   0.3642368  )
         8           I   tau(   8) = (   0.7229380   0.6675341   0.5381078  )
         9           I   tau(   9) = (   0.2334030   0.5090344   0.0806425  )
        10           I   tau(  10) = (   0.7334030   1.3031621   0.8217020  )
        11           I   tau(  11) = (   0.7665970   1.5988249   1.7240466  )
        12           I   tau(  12) = (   0.2665970   0.8046973   0.9829871  )
        13           I   tau(  13) = (   0.7888170   0.0668760   0.1990103  )
        14           I   tau(  14) = (   0.2888170   1.7453205   0.7033343  )
        15           I   tau(  15) = (   0.2111830   2.0409833   1.6056788  )
        16           I   tau(  16) = (   0.7111830   0.3625389   1.1013548  )

   Crystallographic axes

     site n.     atom                  positions (cryst. coord.)
         1           Ga  tau(   1) = (  0.0031830  0.1910980  0.9531180  )
         2           Ga  tau(   2) = (  0.5031830  0.8089020  0.5468820  )
         3           Ga  tau(   3) = (  0.9968170  0.8089020  0.0468820  )
         4           Ga  tau(   4) = (  0.4968170  0.1910980  0.4531180  )
         5           I   tau(   5) = (  0.7770620  0.3239080  0.7981720  )
         6           I   tau(   6) = (  0.2770620  0.6760920  0.7018280  )
         7           I   tau(   7) = (  0.2229380  0.6760920  0.2018280  )
         8           I   tau(   8) = (  0.7229380  0.3239080  0.2981720  )
         9           I   tau(   9) = (  0.2334030  0.3182330  0.0446850  )
        10           I   tau(  10) = (  0.7334030  0.6817670  0.4553150  )
        11           I   tau(  11) = (  0.7665970  0.6817670  0.9553150  )
        12           I   tau(  12) = (  0.2665970  0.3182330  0.5446850  )
        13           I   tau(  13) = (  0.7888170  0.0011000  0.1102740  )
        14           I   tau(  14) = (  0.2888170  0.9989000  0.3897260  )
        15           I   tau(  15) = (  0.2111830  0.9989000  0.8897260  )
        16           I   tau(  16) = (  0.7111830  0.0011000  0.6102740  )

     number of k points=    10
                       cart. coord. in units 2pi/alat
        k(    1) = (   0.0000000   0.0000000   0.0000000), wk =   0.0740741
        k(    2) = (   0.0000000   0.0000000   0.1847040), wk =   0.1481481
        k(    3) = (   0.0000000   0.2197995  -0.0720197), wk =   0.1481481
        k(    4) = (   0.0000000   0.2197995   0.1126844), wk =   0.1481481
        k(    5) = (   0.0000000   0.2197995  -0.2567237), wk =   0.1481481
        k(    6) = (   0.3333333   0.0000000   0.0000000), wk =   0.1481481
        k(    7) = (   0.3333333   0.0000000   0.1847040), wk =   0.2962963
        k(    8) = (   0.3333333   0.2197995  -0.0720197), wk =   0.2962963
        k(    9) = (   0.3333333   0.2197995   0.1126844), wk =   0.2962963
        k(   10) = (   0.3333333   0.2197995  -0.2567237), wk =   0.2962963

                       cryst. coord.
        k(    1) = (   0.0000000   0.0000000   0.0000000), wk =   0.0740741
        k(    2) = (   0.0000000   0.0000000   0.3333333), wk =   0.1481481
        k(    3) = (   0.0000000   0.3333333   0.0000000), wk =   0.1481481
        k(    4) = (   0.0000000   0.3333333   0.3333333), wk =   0.1481481
        k(    5) = (   0.0000000   0.3333333  -0.3333333), wk =   0.1481481
        k(    6) = (   0.3333333   0.0000000   0.0000000), wk =   0.1481481
        k(    7) = (   0.3333333   0.0000000   0.3333333), wk =   0.2962963
        k(    8) = (   0.3333333   0.3333333   0.0000000), wk =   0.2962963
        k(    9) = (   0.3333333   0.3333333   0.3333333), wk =   0.2962963
        k(   10) = (   0.3333333   0.3333333  -0.3333333), wk =   0.2962963

     Check: negative core charge=   -0.000001

     Initial potential from superposition of free atoms

     starting charge     135.9873, renormalised to     136.0000
     Starting wfcs are   84 randomized atomic wfcs +    6 random wfcs
     Checking if some PAW data can be deallocated...

     Self-consistent Calculation

     iteration #  1     ecut=    30.00 Ry     beta= 0.70
     Davidson diagonalization with overlap

     ethr =  1.00E-02,  avg # of iterations =  5.2

     Threshold (ethr) on eigenvalues was too large:
     Diagonalizing with lowered threshold

     Davidson diagonalization with overlap

[...]

     negative rho (up, down):  1.035E-04 0.000E+00

     total energy              =   -5658.95677189 Ry
     estimated scf accuracy    <       0.29936920 Ry

[...]

     c_bands:  1 eigenvalues not converged
     c_bands:  1 eigenvalues not converged
     ethr =  1.44E-06,  avg # of iterations = 15.7

[...]

     total energy              =   -5659.06244052 Ry
     estimated scf accuracy    <       0.00000238 Ry

     iteration #  8     ecut=    30.00 Ry     beta= 0.70
     Davidson diagonalization with overlap

     ethr =  1.75E-09,  avg # of iterations =  4.0

     negative rho (up, down):  6.068E-05 0.000E+00

     End of self-consistent calculation

          k = 0.0000 0.0000 0.0000 ( 15337 PWs)   bands (ev):

   -14.2158 -14.2153 -14.1960 -14.1957 -14.1827 -14.1823 -14.1804 -14.1801
   -14.1757 -14.1754 -14.1427 -14.1426 -14.1242 -14.1237 -14.0941 -14.0938
   -14.0923 -14.0922 -14.0903 -14.0903 -11.8971 -11.8446 -11.2413 -11.2058
   -10.8544 -10.8417 -10.7490 -10.6880 -10.5628 -10.5531 -10.5113 -10.4961
    -5.0652  -5.0320  -4.8767  -4.8096  -2.2928  -2.2631  -2.1576  -2.1329
    -2.0481  -1.9931  -1.6443  -1.6135  -1.5382  -1.3455  -1.2713  -1.2519
    -1.0298  -0.9810  -0.6667  -0.5978  -0.3706  -0.2743  -0.2302  -0.1879
    -0.1464  -0.0498  -0.0482  -0.0150   0.0336   0.0692   0.1204   0.1288
     0.2099   0.2521   0.3054   0.3657   2.6691   2.7257   2.9762   3.1612
     4.3631   4.8656   5.1736   5.4123   5.6011   5.6475   5.7485   5.7747
     5.9677   6.0043   6.1581   6.1991   6.4946   6.9629   7.4950   7.4969
     7.5999   7.6505

     occupation numbers
     1.0000   1.0000   1.0000   1.0000   1.0000   1.0000   1.0000   1.0000
     1.0000   1.0000   1.0000   1.0000   1.0000   1.0000   1.0000   1.0000
     1.0000   1.0000   1.0000   1.0000   1.0000   1.0000   1.0000   1.0000
     1.0000   1.0000   1.0000   1.0000   1.0000   1.0000   1.0000   1.0000
     1.0000   1.0000   1.0000   1.0000   1.0000   1.0000   1.0000   1.0000
     1.0000   1.0000   1.0000   1.0000   1.0000   1.0000   1.0000   1.0000
     1.0000   1.0000   1.0000   1.0000   1.0000   1.0000   1.0000   1.0000
     1.0000   1.0000   1.0000   1.0000   1.0000   1.0000   1.0000   1.0000
     1.0000   1.0000   1.0000   1.0000   0.0000   0.0000   0.0000   0.0000
     0.0000   0.0000   0.0000   0.0000   0.0000   0.0000   0.0000   0.0000
     0.0000   0.0000   0.0000   0.0000   0.0000   0.0000   0.0000   0.0000
     0.0000   0.0000

[...]

          k = 0.3333 0.2198-0.2567 ( 15360 PWs)   bands (ev):

   -14.2159 -14.2157 -14.1958 -14.1957 -14.1827 -14.1825 -14.1803 -14.1802
   -14.1757 -14.1756 -14.1427 -14.1426 -14.1241 -14.1239 -14.0939 -14.0939
   -14.0924 -14.0924 -14.0907 -14.0906 -11.8522 -11.8413 -11.2427 -11.2343
   -10.8814 -10.8445 -10.6937 -10.6764 -10.5597 -10.5505 -10.5444 -10.5328
    -5.0782  -5.0712  -4.8261  -4.8137  -2.3291  -2.3207  -2.3128  -2.2897
    -2.0818  -2.0318  -1.6553  -1.5985  -1.4083  -1.3719  -1.2757  -1.2526
    -0.8287  -0.7348  -0.6789  -0.5846  -0.3850  -0.3510  -0.2452  -0.2109
    -0.1610  -0.1444  -0.0078   0.0226   0.0652   0.0927   0.1738   0.2021
     0.2156   0.2471   0.2581   0.3516   2.6881   2.7323   3.1625   3.2307
     4.7283   4.8542   5.4537   5.5125   5.5931   5.6524   5.7909   5.8578
     5.9716   6.0176   6.1921   6.3751   7.0620   7.0889   7.4497   7.5662
     7.6519   7.6912

     occupation numbers
     1.0000   1.0000   1.0000   1.0000   1.0000   1.0000   1.0000   1.0000
     1.0000   1.0000   1.0000   1.0000   1.0000   1.0000   1.0000   1.0000
     1.0000   1.0000   1.0000   1.0000   1.0000   1.0000   1.0000   1.0000
     1.0000   1.0000   1.0000   1.0000   1.0000   1.0000   1.0000   1.0000
     1.0000   1.0000   1.0000   1.0000   1.0000   1.0000   1.0000   1.0000
     1.0000   1.0000   1.0000   1.0000   1.0000   1.0000   1.0000   1.0000
     1.0000   1.0000   1.0000   1.0000   1.0000   1.0000   1.0000   1.0000
     1.0000   1.0000   1.0000   1.0000   1.0000   1.0000   1.0000   1.0000
     1.0000   1.0000   1.0000   1.0000   0.0000   0.0000   0.0000   0.0000
     0.0000   0.0000   0.0000   0.0000   0.0000   0.0000   0.0000   0.0000
     0.0000   0.0000   0.0000   0.0000   0.0000   0.0000   0.0000   0.0000
     0.0000   0.0000

     highest occupied, lowest unoccupied level (ev):     0.3657    2.6570

!    total energy              =   -5659.06244126 Ry

     total all-electron energy =   -186347.690429 Ry
     estimated scf accuracy    <       0.00000004 Ry

     The total energy is the sum of the following terms:
     one-electron contribution =    -795.64843766 Ry
     hartree contribution      =     471.15883067 Ry
     xc contribution           =    -652.77482587 Ry
     ewald contribution        =    -391.75460727 Ry
     one-center paw contrib.   =   -4290.04340114 Ry
      -> PAW hartree energy AE =     278.21087479 Ry
      -> PAW hartree energy PS =    -273.79116334 Ry
      -> PAW xc energy AE      =    -301.38981833 Ry
      -> PAW xc energy PS      =      75.10022490 Ry
      -> total E_H with PAW    =     475.57854212 Ry
      -> total E_XC with PAW   =    -879.06441930 Ry

     convergence has been achieved in   8 iterations

     Writing all to output data dir calculations_bands/myprefix.save/

     General routines

     Parallel routines

     PAW routines

   This run was terminated on:   6:59:57  23Jun2023

   JOB DONE.