     Program PWSCF v.7.0 starts on  6Jun2023 at 10:57:12

     K-points division:     npool     =       2
     R & G space division:  proc/nbgrp/npool/nimage =       4

     Reading input from espresso_16386.pwi
Warning: card &CELL ignored
Warning: card / ignored

     Current dimensions of program PWSCF are:
     Max number of different atomic species (ntypx) = 10
     Max number of k-points (npk) =  40000
     Max angular momentum in pseudopotentials (lmaxx) =  4
     file O.pbe-n-kjpaw_psl.0.1.UPF: wavefunction(s)  2P renormalized
     Message from routine setup:
     using ibrav=0 with symmetry is DISCOURAGED, use correct ibrav instead

     Using Slab Decomposition

     bravais-lattice index     =            0
     lattice parameter (alat)  =      11.5790  a.u.
     unit-cell volume          =    1060.4806 (a.u.)^3
     number of atoms/cell      =           10
     number of atomic types    =            3
     number of electrons       =       108.00
     number of Kohn-Sham states=           64
     kinetic-energy cutoff     =      30.0000  Ry
     charge density cutoff     =     240.0000  Ry
     scf convergence threshold =      1.0E-06
     mixing beta               =       0.7000
     number of iterations used =            8  plain     mixing
     Exchange-correlation= SLA  PW   PBX  PBC
                           (   1   4   3   4   0   0   0)

     celldm(1)=  11.578963  celldm(2)=   0.000000  celldm(3)=   0.000000
     celldm(4)=   0.000000  celldm(5)=   0.000000  celldm(6)=   0.000000

     crystal axes: (cart. coord. in units of alat)
               a(1) = (   1.000000   0.000000   0.000000 )
               a(2) = (   0.522251   0.852792   0.000000 )
               a(3) = (   0.522251   0.292574   0.801033 )

     reciprocal axes: (cart. coord. in units 2 pi/alat)
               b(1) = (  1.000000 -0.612401 -0.428294 )
               b(2) = (  0.000000  1.172619 -0.428294 )
               b(3) = (  0.000000  0.000000  1.248387 )

     PseudoPot. # 1 for Ho read from file:
     /home/pragov/projects/rrg-bengioy-ad/pragov/crystal_structure_design/SSSP/Ho.GGA-PBE-paw-v1.0.UPF
     MD5 check sum: 3d93cae5f38e6cc822e0e70538981326
     Pseudo is Projector augmented-wave + core cor, Zval = 21.0
     Generated using ATOMPAW code
     Shape of augmentation charge: BESSEL
     Using radial grid of 1114 points,  8 beta functions with:
                l(1) =   0
                l(2) =   0
                l(3) =   1
                l(4) =   1
                l(5) =   2
                l(6) =   2
                l(7) =   3
                l(8) =   3
     Q(r) pseudized with 0 coefficients

     PseudoPot. # 2 for Bi read from file:
     /home/pragov/projects/rrg-bengioy-ad/pragov/crystal_structure_design/SSSP/Bi_pbe_v1.uspp.F.UPF
     MD5 check sum: cceb9f28ec65b6d7ff33140f5b0b1758
     Pseudo is Ultrasoft + core correction, Zval = 15.0
     Generated by new atomic code, or converted to UPF format
     Using radial grid of  899 points,  6 beta functions with:
                l(1) =   0
                l(2) =   0
                l(3) =   1
                l(4) =   1
                l(5) =   2
                l(6) =   2
     Q(r) pseudized with  6 coefficients,  rinner =    1.000   1.000   1.000
                                                       1.000   1.000

     PseudoPot. # 3 for O  read from file:
     /home/pragov/projects/rrg-bengioy-ad/pragov/crystal_structure_design/SSSP/O.pbe-n-kjpaw_psl.0.1.UPF
     MD5 check sum: 0234752ac141de4415c5fc33072bef88
     Pseudo is Projector augmented-wave + core cor, Zval =  6.0
     Generated using "atomic" code by A. Dal Corso  v.5.0.99 svn rev. 10869
     Shape of augmentation charge: BESSEL
     Using radial grid of 1095 points,  4 beta functions with:
                l(1) =   0
                l(2) =   0
                l(3) =   1
                l(4) =   1
     Q(r) pseudized with 0 coefficients

     atomic species   valence    mass     pseudopotential
        Ho            21.00   164.93033     Ho( 1.00)
        Bi            15.00   208.98040     Bi( 1.00)
        O              6.00    15.99900     O ( 1.00)

      2 Sym. Ops., with inversion, found

                                    s                        frac. trans.

      isym =  1     identity

 cryst.   s( 1) = (     1          0          0      )
                  (     0          1          0      )
                  (     0          0          1      )

 cart.    s( 1) = (  1.0000000  0.0000000 -0.0000000 )
                  (  0.0000000  1.0000000  0.0000000 )
                  (  0.0000000  0.0000000  1.0000000 )

      isym =  2     inversion

 cryst.   s( 2) = (    -1          0          0      )
                  (     0         -1          0      )
                  (     0          0         -1      )

 cart.    s( 2) = ( -1.0000000 -0.0000000  0.0000000 )
                  (  0.0000000 -1.0000000 -0.0000000 )
                  (  0.0000000  0.0000000 -1.0000000 )

   Cartesian axes

     site n.     atom                  positions (alat units)
         1           Ho  tau(   1) = (   1.7544891   0.9828960   0.6874069  )
         2           Ho  tau(   2) = (   0.2900126   0.1624702   0.1136266  )
         3           Bi  tau(   3) = (   1.3154630   0.7369458   0.5153970  )
         4           Bi  tau(   4) = (   0.7290386   0.4084204   0.2856365  )
         5           O   tau(   5) = (   1.0186019   0.7530576   0.7912657  )
         6           O   tau(   6) = (   0.6583807   0.7997964   0.3651471  )
         7           O   tau(   7) = (   0.8703346   0.2390358   0.6259804  )
         8           O   tau(   8) = (   1.1741670   0.9063304   0.1750530  )
         9           O   tau(   9) = (   1.3861210   0.3455698   0.4358864  )
        10           O   tau(  10) = (   1.0258997   0.3923086   0.0097678  )

   Crystallographic axes

     site n.     atom                  positions (cryst. coord.)
         1           Ho  tau(   1) = (  0.8581500  0.8581500  0.8581500  )
         2           Ho  tau(   2) = (  0.1418500  0.1418500  0.1418500  )
         3           Bi  tau(   3) = (  0.6434150  0.6434150  0.6434150  )
         4           Bi  tau(   4) = (  0.3565850  0.3565850  0.3565850  )
         5           O   tau(   5) = (  0.2185340  0.5441550  0.9878060  )
         6           O   tau(   6) = (  0.0121940  0.7814660  0.4558450  )
         7           O   tau(   7) = (  0.4558450  0.0121940  0.7814660  )
         8           O   tau(   8) = (  0.5441550  0.9878060  0.2185340  )
         9           O   tau(   9) = (  0.9878060  0.2185340  0.5441550  )
        10           O   tau(  10) = (  0.7814660  0.4558450  0.0121940  )

     number of k points=    14
                       cart. coord. in units 2pi/alat
        k(    1) = (   0.0000000   0.0000000   0.0000000), wk =   0.0740741
        k(    2) = (   0.0000000   0.0000000   0.4161291), wk =   0.1481481
        k(    3) = (   0.0000000   0.3908730  -0.1427648), wk =   0.1481481
        k(    4) = (   0.0000000   0.3908730   0.2733643), wk =   0.1481481
        k(    5) = (   0.0000000   0.3908730  -0.5588939), wk =   0.1481481
        k(    6) = (   0.3333333  -0.2041337  -0.1427648), wk =   0.1481481
        k(    7) = (   0.3333333  -0.2041337   0.2733643), wk =   0.1481481
        k(    8) = (   0.3333333  -0.2041337  -0.5588939), wk =   0.1481481
        k(    9) = (   0.3333333   0.1867393  -0.2855295), wk =   0.1481481
        k(   10) = (   0.3333333   0.1867393   0.1305995), wk =   0.1481481
        k(   11) = (   0.3333333   0.1867393  -0.7016586), wk =   0.1481481
        k(   12) = (   0.3333333  -0.5950067   0.0000000), wk =   0.1481481
        k(   13) = (   0.3333333  -0.5950067   0.4161291), wk =   0.1481481
        k(   14) = (   0.3333333  -0.5950067  -0.4161291), wk =   0.1481481

                       cryst. coord.
        k(    1) = (   0.0000000   0.0000000   0.0000000), wk =   0.0740741
        k(    2) = (   0.0000000   0.0000000   0.3333333), wk =   0.1481481
        k(    3) = (   0.0000000   0.3333333   0.0000000), wk =   0.1481481
        k(    4) = (   0.0000000   0.3333333   0.3333333), wk =   0.1481481
        k(    5) = (   0.0000000   0.3333333  -0.3333333), wk =   0.1481481
        k(    6) = (   0.3333333   0.0000000   0.0000000), wk =   0.1481481
        k(    7) = (   0.3333333   0.0000000   0.3333333), wk =   0.1481481
        k(    8) = (   0.3333333   0.0000000  -0.3333333), wk =   0.1481481
        k(    9) = (   0.3333333   0.3333333   0.0000000), wk =   0.1481481
        k(   10) = (   0.3333333   0.3333333   0.3333333), wk =   0.1481481
        k(   11) = (   0.3333333   0.3333333  -0.3333333), wk =   0.1481481
        k(   12) = (   0.3333333  -0.3333333   0.0000000), wk =   0.1481481
        k(   13) = (   0.3333333  -0.3333333   0.3333333), wk =   0.1481481
        k(   14) = (   0.3333333  -0.3333333  -0.3333333), wk =   0.1481481

     Check: negative core charge=   -0.000011

     Initial potential from superposition of free atoms

     starting charge     105.9913, renormalised to     108.0000

     negative rho (up, down):  8.657E-02 0.000E+00
     Starting wfcs are  106 randomized atomic wfcs
     Checking if some PAW data can be deallocated...

     Self-consistent Calculation

     iteration #  1     ecut=    30.00 Ry     beta= 0.70
     Davidson diagonalization with overlap

     ethr =  1.00E-02,  avg # of iterations =  2.0

     negative rho (up, down):  8.293E-02 0.000E+00

     total energy              =   -2271.03516478 Ry
     estimated scf accuracy    <       8.97361806 Ry

[...]

     total energy              =   -2279.64462418 Ry
     estimated scf accuracy    <       0.00000242 Ry

     iteration # 40     ecut=    30.00 Ry     beta= 0.70
     Davidson diagonalization with overlap

     ethr =  2.24E-09,  avg # of iterations =  1.0

     negative rho (up, down):  8.312E-02 0.000E+00

     End of self-consistent calculation

          k = 0.0000 0.0000 0.0000 (  2927 PWs)   bands (ev):

   -34.9049 -34.8707 -11.8708 -11.8708 -11.8464 -11.8464 -11.8089 -11.8070
   -11.7606 -11.7606 -11.7529 -11.7529 -10.6447 -10.6445 -10.5318 -10.1494
   -10.0739 -10.0736  -7.4785  -6.0160  -6.0159  -5.7814  -5.7010  -5.7010
     0.8037   1.0843   6.1455   6.1457   6.1458   6.7829   6.7829   7.4152
     7.9698   7.9698   8.0537   8.2952   8.2953   8.7096   8.7097   8.7540
     8.8340   8.8340   9.1655  10.1945  10.9777  11.0434  11.0439  11.0443
    11.0745  11.0760  11.0866  11.0876  11.1033  11.1845  11.1942  11.2976
    11.3489  11.3493  14.6108  14.8062  14.8062  15.1451  15.5769  15.5770

     occupation numbers
     1.0000   1.0000   1.0000   1.0000   1.0000   1.0000   1.0000   1.0000
     1.0000   1.0000   1.0000   1.0000   1.0000   1.0000   1.0000   1.0000
     1.0000   1.0000   1.0000   1.0000   1.0000   1.0000   1.0000   1.0000
     1.0000   1.0000   1.0000   1.0000   1.0000   1.0000   1.0000   1.0000
     1.0000   1.0000   1.0000   1.0000   1.0000   1.0000   1.0000   1.0000
     1.0000   1.0000   1.0000   1.0000   1.0000   1.0000   1.0000   1.0000
     1.0000   1.0000   1.0000   1.0000   1.0000   1.0000   0.0000   0.0000
     0.0000   0.0000   0.0000   0.0000   0.0000   0.0000   0.0000   0.0000

[...]

          k = 0.3333-0.5950-0.4161 (  2956 PWs)   bands (ev):

   -34.8973 -34.8783 -11.9080 -11.8896 -11.8345 -11.8203 -11.8014 -11.7796
   -11.7714 -11.7678 -11.7415 -11.7356 -10.7130 -10.6699 -10.4437 -10.3324
   -10.0881  -9.9969  -6.6092  -6.5016  -6.2104  -6.0233  -5.8222  -5.4918
     0.7527   1.1506   5.8046   6.4213   6.5521   6.7897   7.2329   7.4385
     7.4775   7.8928   7.9792   8.1655   8.2937   8.4648   8.6083   8.7506
     8.8546   8.9799   9.8427   9.8980  11.0022  11.0126  11.0186  11.0275
    11.0583  11.0930  11.1054  11.1119  11.1301  11.1531  11.1984  11.2465
    11.3049  11.3251  13.4313  14.2378  14.7506  15.1422  15.3149  16.1000

     occupation numbers
     1.0000   1.0000   1.0000   1.0000   1.0000   1.0000   1.0000   1.0000
     1.0000   1.0000   1.0000   1.0000   1.0000   1.0000   1.0000   1.0000
     1.0000   1.0000   1.0000   1.0000   1.0000   1.0000   1.0000   1.0000
     1.0000   1.0000   1.0000   1.0000   1.0000   1.0000   1.0000   1.0000
     1.0000   1.0000   1.0000   1.0000   1.0000   1.0000   1.0000   1.0000
     1.0000   1.0000   1.0000   1.0000   1.0000   1.0000   1.0000   1.0000
     1.0000   1.0000   1.0000   1.0000   1.0000   1.0000   0.0000   0.0000
     0.0000   0.0000   0.0000   0.0000   0.0000   0.0000   0.0000   0.0000

     highest occupied, lowest unoccupied level (ev):    11.1845   11.1896

!    total energy              =   -2279.64462255 Ry
     estimated scf accuracy    <       0.00000062 Ry

     The total energy is the sum of the following terms:
     one-electron contribution =    -575.29524058 Ry
     hartree contribution      =     347.39264271 Ry
     xc contribution           =    -234.54859531 Ry
     ewald contribution        =    -791.11996026 Ry
     one-center paw contrib.   =   -1026.07346910 Ry
      -> PAW hartree energy AE =     590.34900311 Ry
      -> PAW hartree energy PS =    -538.62446143 Ry
      -> PAW xc energy AE      =   -1078.70775630 Ry
      -> PAW xc energy PS      =      58.08192231 Ry
      -> total E_H with PAW    =     399.11718439 Ry
      -> total E_XC with PAW   =   -1255.17442931 Ry

     convergence has been achieved in  40 iterations

     Writing all to output data dir calculations_bands/myprefix.save/

     General routines

     Parallel routines

     PAW routines

   This run was terminated on:  10:58:37   6Jun2023

   JOB DONE.