     Program PWSCF v.7.0 starts on  6Jun2023 at  1: 8:32

     K-points division:     npool     =       2
     R & G space division:  proc/nbgrp/npool/nimage =       4

     Reading input from espresso_13042.pwi
Warning: card &CELL ignored
Warning: card / ignored

     Current dimensions of program PWSCF are:
     Max number of different atomic species (ntypx) = 10
     Max number of k-points (npk) =  40000
     Max angular momentum in pseudopotentials (lmaxx) =  4
     file Mg.pbe-n-kjpaw_psl.0.3.0.UPF: wavefunction(s)  3S renormalized
     file Cd.pbe-dn-rrkjus_psl.0.3.1.UPF: wavefunction(s)  4D renormalized
     Message from routine setup:
     using ibrav=0 with symmetry is DISCOURAGED, use correct ibrav instead

     Using Slab Decomposition

     bravais-lattice index     =            0
     lattice parameter (alat)  =       5.8750  a.u.
     unit-cell volume          =     919.4200 (a.u.)^3
     number of atoms/cell      =            6
     number of atomic types    =            2
     number of electrons       =        62.00
     number of Kohn-Sham states=           64
     kinetic-energy cutoff     =      30.0000  Ry
     charge density cutoff     =     240.0000  Ry
     scf convergence threshold =      1.0E-06
     mixing beta               =       0.7000
     number of iterations used =            8  plain     mixing
     Exchange-correlation= PBE
                           (   1   4   3   4   0   0   0)

     celldm(1)=   5.874971  celldm(2)=   0.000000  celldm(3)=   0.000000
     celldm(4)=   0.000000  celldm(5)=   0.000000  celldm(6)=   0.000000

     crystal axes: (cart. coord. in units of alat)
               a(1) = (   1.000000   0.000000   0.000000 )
               a(2) = (  -0.500000   0.866025   0.000000 )
               a(3) = (   0.000000   0.000000   5.235598 )

     reciprocal axes: (cart. coord. in units 2 pi/alat)
               b(1) = (  1.000000  0.577351  0.000000 )
               b(2) = (  0.000000  1.154701  0.000000 )
               b(3) = (  0.000000  0.000000  0.191000 )

     PseudoPot. # 1 for Mg read from file:
     /home/pragov/projects/rrg-bengioy-ad/pragov/crystal_structure_design/SSSP/Mg.pbe-n-kjpaw_psl.0.3.0.UPF
     MD5 check sum: 24ecedc7f3e3cbe212e682f4413594e4
     Pseudo is Projector augmented-wave + core cor, Zval =  2.0
     Generated using "atomic" code by A. Dal Corso  v.5.0.99 svn rev. 10869
     Shape of augmentation charge: PSQ
     Using radial grid of 1129 points,  4 beta functions with:
                l(1) =   0
                l(2) =   0
                l(3) =   1
                l(4) =   1
     Q(r) pseudized with 0 coefficients

     PseudoPot. # 2 for Cd read from file:
     /home/pragov/projects/rrg-bengioy-ad/pragov/crystal_structure_design/SSSP/Cd.pbe-dn-rrkjus_psl.0.3.1.UPF
     MD5 check sum: 558e9f355611b531a870a69ef6ace9e2
     Pseudo is Ultrasoft + core correction, Zval = 12.0
     Generated using "atomic" code by A. Dal Corso  v.5.0.99 svn rev. 10869
     Using radial grid of 1239 points,  6 beta functions with:
                l(1) =   0
                l(2) =   0
                l(3) =   1
                l(4) =   1
                l(5) =   2
                l(6) =   2
     Q(r) pseudized with 0 coefficients

     atomic species   valence    mass     pseudopotential
        Mg             2.00    24.30500     Mg( 1.00)
        Cd            12.00   112.41400     Cd( 1.00)

     12 Sym. Ops. (no inversion) found

                                    s                        frac. trans.

      isym =  1     identity

 cryst.   s( 1) = (     1          0          0      )
                  (     0          1          0      )
                  (     0          0          1      )

 cart.    s( 1) = (  1.0000000  0.0000000  0.0000000 )
                  (  0.0000000  1.0000000  0.0000000 )
                  (  0.0000000  0.0000000  1.0000000 )

      isym =  2     180 deg rotation - cart. axis [0,1,0]

[...]

      isym =  3     120 deg rotation - cryst. axis [0,0,1]

[...]

      isym =  6     180 deg rotation - cryst. axis [2,1,0]

[...]

      isym =  7     inv. 180 deg rotation - cart. axis [0,0,1]

[...]

      isym =  8     inv. 180 deg rotation - cart. axis [1,0,0]

[...]

      isym =  9     inv.  60 deg rotation - cryst. axis [0,0,1]

 cryst.   s( 9) = (    -1         -1          0      )
                  (     1          0          0      )
                  (     0          0         -1      )

 cart.    s( 9) = ( -0.4999998  0.8660255  0.0000000 )
                  ( -0.8660253 -0.5000002  0.0000000 )
                  (  0.0000000  0.0000000 -1.0000000 )

[...]

 cryst.   s(10) = (     0          1          0      )
                  (    -1         -1          0      )
                  (     0          0         -1      )

 cart.    s(10) = ( -0.5000002 -0.8660255  0.0000000 )
                  (  0.8660253 -0.4999998  0.0000000 )
                  (  0.0000000  0.0000000 -1.0000000 )

[...]

      isym = 12     inv. 180 deg rotation - cryst. axis [1,1,0]

 cryst.   s(12) = (     0         -1          0      )
                  (    -1          0          0      )
                  (     0          0          1      )

 cart.    s(12) = (  0.5000002 -0.8660253  0.0000000 )
                  ( -0.8660253 -0.5000002  0.0000000 )
                  (  0.0000000  0.0000000  1.0000000 )

   Cartesian axes

     site n.     atom                  positions (alat units)
         1           Mg  tau(   1) = (   0.0000000   0.0000000   0.0000000  )
         2           Cd  tau(   2) = (   0.5000004   0.2886748   4.3734310  )
         3           Cd  tau(   3) = (   0.0000000   0.0000000   3.4923218  )
         4           Cd  tau(   4) = (   0.5000004   0.2886748   2.6177989  )
         5           Cd  tau(   5) = (   0.0000000   0.0000000   1.7432761  )
         6           Cd  tau(   6) = (   0.5000004   0.2886748   0.8621668  )

   Crystallographic axes

     site n.     atom                  positions (cryst. coord.)
         1           Mg  tau(   1) = (  0.0000000  0.0000000  0.0000000  )
         2           Cd  tau(   2) = (  0.6666670  0.3333330  0.8353260  )
         3           Cd  tau(   3) = (  0.0000000  0.0000000  0.6670340  )
         4           Cd  tau(   4) = (  0.6666670  0.3333330  0.5000000  )
         5           Cd  tau(   5) = (  0.0000000  0.0000000  0.3329660  )
         6           Cd  tau(   6) = (  0.6666670  0.3333330  0.1646740  )

     number of k points=     6
                       cart. coord. in units 2pi/alat
        k(    1) = (   0.0000000   0.0000000   0.0000000), wk =   0.0740741
        k(    2) = (   0.0000000   0.0000000   0.0636667), wk =   0.1481481
        k(    3) = (   0.0000000   0.3849002   0.0000000), wk =   0.4444444
        k(    4) = (   0.0000000   0.3849002   0.0636667), wk =   0.8888889
        k(    5) = (   0.3333333   0.5773504   0.0000000), wk =   0.1481481
        k(    6) = (   0.3333333   0.5773504   0.0636667), wk =   0.2962963

                       cryst. coord.
        k(    1) = (   0.0000000   0.0000000   0.0000000), wk =   0.0740741
        k(    2) = (   0.0000000   0.0000000   0.3333333), wk =   0.1481481
        k(    3) = (   0.0000000   0.3333333   0.0000000), wk =   0.4444444
        k(    4) = (   0.0000000   0.3333333   0.3333333), wk =   0.8888889
        k(    5) = (   0.3333333   0.3333333   0.0000000), wk =   0.1481481
        k(    6) = (   0.3333333   0.3333333   0.3333333), wk =   0.2962963

     Initial potential from superposition of free atoms

     starting charge      61.9747, renormalised to      62.0000
     Starting wfcs are   49 randomized atomic wfcs +   15 random wfcs
     Checking if some PAW data can be deallocated...

     Self-consistent Calculation

     iteration #  1     ecut=    30.00 Ry     beta= 0.70
     Davidson diagonalization with overlap

     ethr =  1.00E-02,  avg # of iterations =  8.7

     Threshold (ethr) on eigenvalues was too large:
     Diagonalizing with lowered threshold

     Davidson diagonalization with overlap

[...]

     total energy              =    -644.39881051 Ry
     estimated scf accuracy    <       0.27012341 Ry

[...]

     c_bands:  1 eigenvalues not converged
     ethr =  2.41E-06,  avg # of iterations = 12.3

[...]

     total energy              =    -644.59065608 Ry
     estimated scf accuracy    <       0.00006849 Ry

     iteration #  8     ecut=    30.00 Ry     beta= 0.70
     Davidson diagonalization with overlap

     ethr =  1.10E-07,  avg # of iterations =  2.7

     End of self-consistent calculation

          k = 0.0000 0.0000 0.0000 (  2513 PWs)   bands (ev):

    -0.1104  -0.0424   0.0093   0.1291   0.1785   0.3505   0.3505   0.3917
     0.3917   0.3938   0.3938   0.4345   0.4345   0.4551   0.4551   0.7308
     0.7308   0.8269   0.8269   0.8810   0.8810   0.9091   0.9931   0.9931
     1.0326   1.0326   1.5197   1.8895   3.5763   3.9738   6.8655   7.2416
    11.3140  11.5789  16.4290  17.1071  21.5514  21.5514  21.5960  22.5416
    22.5681  22.5681  22.7158  22.7719  22.8165  22.8166  22.8959  22.8959
    23.3567  23.6104  23.8069  23.8069  23.9152  23.9349  23.9349  24.7777
    24.9108  24.9108  25.5507  25.5507  26.8634  26.8637  26.9493  26.9799

     occupation numbers
     1.0000   1.0000   1.0000   1.0000   1.0000   1.0000   1.0000   1.0000
     1.0000   1.0000   1.0000   1.0000   1.0000   1.0000   1.0000   1.0000
     1.0000   1.0000   1.0000   1.0000   1.0000   1.0000   1.0000   1.0000
     1.0000   1.0000   1.0000   1.0000   1.0000   1.0000   1.0000   0.0000
     0.0000   0.0000   0.0000   0.0000   0.0000   0.0000   0.0000   0.0000
     0.0000   0.0000   0.0000   0.0000   0.0000   0.0000   0.0000   0.0000
     0.0000   0.0000   0.0000   0.0000   0.0000   0.0000   0.0000   0.0000
     0.0000   0.0000   0.0000   0.0000   0.0000   0.0000   0.0000   0.0000

[...]

          k = 0.3333 0.5774 0.0637 (  2556 PWs)   bands (ev):

     0.0592   0.1560   0.1911   0.2135   0.2609   0.3312   0.3643   0.3953
     0.4136   0.4547   0.4623   0.5210   0.5275   0.5433   0.5450   0.5569
     0.6835   0.6871   0.7385   0.8746   0.8835   0.8921   0.9936   1.0001
     1.0445   8.7406   8.9714   9.0089   9.3200   9.3851   9.6773   9.7459
    10.0089  10.3473  10.5527  10.9492  11.1785  11.9495  12.4927  12.6603
    12.9848  13.3815  13.6248  15.3446  15.8284  16.7514  16.7657  17.0873
    18.0814  19.3140  19.3690  20.6390  22.2318  22.8487  22.9679  25.4889
    25.7985  26.0079  27.2319  27.6992  27.8873  28.7551  28.8261  30.3766

     occupation numbers
     1.0000   1.0000   1.0000   1.0000   1.0000   1.0000   1.0000   1.0000
     1.0000   1.0000   1.0000   1.0000   1.0000   1.0000   1.0000   1.0000
     1.0000   1.0000   1.0000   1.0000   1.0000   1.0000   1.0000   1.0000
     1.0000   1.0000   1.0000   1.0000   1.0000   1.0000   1.0000   0.0000
     0.0000   0.0000   0.0000   0.0000   0.0000   0.0000   0.0000   0.0000
     0.0000   0.0000   0.0000   0.0000   0.0000   0.0000   0.0000   0.0000
     0.0000   0.0000   0.0000   0.0000   0.0000   0.0000   0.0000   0.0000
     0.0000   0.0000   0.0000   0.0000   0.0000   0.0000   0.0000   0.0000

     highest occupied, lowest unoccupied level (ev):     9.6773    7.2416

!    total energy              =    -644.59066422 Ry
     estimated scf accuracy    <       0.00000081 Ry

     The total energy is the sum of the following terms:
     one-electron contribution =    -309.99586799 Ry
     hartree contribution      =     217.55453683 Ry
     xc contribution           =    -215.93282694 Ry
     ewald contribution        =    -304.92036224 Ry
     one-center paw contrib.   =     -31.29614388 Ry
      -> PAW hartree energy AE =       0.78428163 Ry
      -> PAW hartree energy PS =      -0.78233716 Ry
      -> PAW xc energy AE      =     -32.60742599 Ry
      -> PAW xc energy PS      =       1.30933764 Ry
      -> total E_H with PAW    =     217.55648129 Ry
      -> total E_XC with PAW   =    -247.23091528 Ry

     convergence has been achieved in   8 iterations

     Writing all to output data dir calculations_bands/myprefix.save/

     General routines

     Parallel routines

     PAW routines

   This run was terminated on:   1: 8:41   6Jun2023

   JOB DONE.