     Program PWSCF v.7.0 starts on  2Jun2023 at 21:43:24

     Reading input from espresso_92.pwi
Warning: card &CELL ignored
Warning: card / ignored

     Current dimensions of program PWSCF are:
     Max number of different atomic species (ntypx) = 10
     Max number of k-points (npk) =  40000
     Max angular momentum in pseudopotentials (lmaxx) =  4
     file O.pbe-n-kjpaw_psl.0.1.UPF: wavefunction(s)  2P renormalized
     Message from routine setup:
     using ibrav=0 with symmetry is DISCOURAGED, use correct ibrav instead

     Subspace diagonalization in iterative solution of the eigenvalue problem:
     a serial algorithm will be used

     Using Slab Decomposition

     bravais-lattice index     =            0
     lattice parameter (alat)  =       9.9257  a.u.
     unit-cell volume          =     803.8340 (a.u.)^3
     number of atoms/cell      =           12
     number of atomic types    =            3
     number of electrons       =        76.00
     number of Kohn-Sham states=           64
     kinetic-energy cutoff     =      30.0000  Ry
     charge density cutoff     =     240.0000  Ry
     scf convergence threshold =      1.0E-06
     mixing beta               =       0.7000
     number of iterations used =            8  plain     mixing
     Exchange-correlation= SLA  PW   PBX  PBC
                           (   1   4   3   4   0   0   0)

     celldm(1)=   9.925673  celldm(2)=   0.000000  celldm(3)=   0.000000
     celldm(4)=   0.000000  celldm(5)=   0.000000  celldm(6)=   0.000000

     crystal axes: (cart. coord. in units of alat)
               a(1) = (   1.000000   0.000000   0.000000 )
               a(2) = (   0.166190   0.987471   0.000000 )
               a(3) = (   0.494782   0.256363   0.832457 )

     reciprocal axes: (cart. coord. in units 2 pi/alat)
               b(1) = (  1.000000 -0.168299 -0.542534 )
               b(2) = (  0.000000  1.012688 -0.311866 )
               b(3) = (  0.000000  0.000000  1.201263 )

     PseudoPot. # 1 for Li read from file:
     /home/pragov/projects/rrg-bengioy-ad/pragov/crystal_structure_design/SSSP/li_pbe_v1.4.uspp.F.UPF
     MD5 check sum: e912e257baa3777c20ea3d68f190483c
     Pseudo is Ultrasoft, Zval =  3.0
     Generated by new atomic code, or converted to UPF format
     Using radial grid of  751 points,  5 beta functions with:
                l(1) =   0
                l(2) =   0
                l(3) =   0
                l(4) =   1
                l(5) =   1
     Q(r) pseudized with 10 coefficients,  rinner =    1.150   1.150   1.150

     PseudoPot. # 2 for Mo read from file:
     /home/pragov/projects/rrg-bengioy-ad/pragov/crystal_structure_design/SSSP/Mo_ONCV_PBE-1.0.oncvpsp.upf
     MD5 check sum: 1b5d28e075c9ccadda658a603575cd1f
     Pseudo is Norm-conserving, Zval = 14.0
     Generated using ONCVPSP code by D. R. Hamann
     Using radial grid of 1526 points,  6 beta functions with:
                l(1) =   0
                l(2) =   0
                l(3) =   1
                l(4) =   1
                l(5) =   2
                l(6) =   2

     PseudoPot. # 3 for O  read from file:
     /home/pragov/projects/rrg-bengioy-ad/pragov/crystal_structure_design/SSSP/O.pbe-n-kjpaw_psl.0.1.UPF
     MD5 check sum: 0234752ac141de4415c5fc33072bef88
     Pseudo is Projector augmented-wave + core cor, Zval =  6.0
     Generated using "atomic" code by A. Dal Corso  v.5.0.99 svn rev. 10869
     Shape of augmentation charge: BESSEL
     Using radial grid of 1095 points,  4 beta functions with:
                l(1) =   0
                l(2) =   0
                l(3) =   1
                l(4) =   1
     Q(r) pseudized with 0 coefficients

     atomic species   valence    mass     pseudopotential
        Li             3.00     6.94000     Li( 1.00)
        Mo            14.00    95.95000     Mo( 1.00)
        O              6.00    15.99900     O ( 1.00)

      2 Sym. Ops., with inversion, found

                                    s                        frac. trans.

      isym =  1     identity

 cryst.   s( 1) = (     1          0          0      )
                  (     0          1          0      )
                  (     0          0          1      )

 cart.    s( 1) = (  1.0000000  0.0000000 -0.0000000 )
                  (  0.0000000  1.0000000  0.0000000 )
                  (  0.0000000  0.0000000  1.0000000 )

      isym =  2     inversion

 cryst.   s( 2) = (    -1          0          0      )
                  (     0         -1          0      )
                  (     0          0         -1      )

 cart.    s( 2) = ( -1.0000000 -0.0000000  0.0000000 )
                  (  0.0000000 -1.0000000 -0.0000000 )
                  (  0.0000000  0.0000000 -1.0000000 )

   Cartesian axes

     site n.     atom                  positions (alat units)
         1           Li  tau(   1) = (   1.4008130   1.1967932   0.7077454  )
         2           Li  tau(   2) = (   0.2601595   0.0470407   0.1247121  )
         3           Li  tau(   3) = (   0.7473910   0.1281814   0.4162287  )
         4           Li  tau(   4) = (   0.5830952   0.4937356   0.0000000  )
         5           Mo  tau(   5) = (   1.0910502   0.5787625   0.2824728  )
         6           Mo  tau(   6) = (   0.5699222   0.6650714   0.5499847  )
         7           O   tau(   7) = (   0.7348535   0.9577236   0.7784168  )
         8           O   tau(   8) = (   0.9261190   0.2861103   0.0540406  )
         9           O   tau(   9) = (   0.7552753   0.7967005   0.2320767  )
        10           O   tau(  10) = (   0.4114220   0.3577441   0.3514619  )
        11           O   tau(  11) = (   1.2495504   0.8860898   0.4809956  )
        12           O   tau(  12) = (   0.9056971   0.4471334   0.6003808  )

   Crystallographic axes

     site n.     atom                  positions (cryst. coord.)
         1           Li  tau(   1) = (  0.8154180  0.9912560  0.8501880  )
         2           Li  tau(   2) = (  0.1845820  0.0087440  0.1498120  )
         3           Li  tau(   3) = (  0.5000000  0.0000000  0.5000000  )
         4           Li  tau(   4) = (  0.5000000  0.5000000  0.0000000  )
         5           Mo  tau(   5) = (  0.8403940  0.4980120  0.3393240  )
         6           Mo  tau(   6) = (  0.1596060  0.5019880  0.6606760  )
         7           O   tau(   7) = (  0.1513520  0.7271130  0.9350830  )
         8           O   tau(   8) = (  0.8486480  0.2728870  0.0649170  )
         9           O   tau(   9) = (  0.4952820  0.7344320  0.2787850  )
        10           O   tau(  10) = (  0.1605340  0.2526740  0.4221980  )
        11           O   tau(  11) = (  0.8394660  0.7473260  0.5778020  )
        12           O   tau(  12) = (  0.5047180  0.2655680  0.7212150  )

     number of k points=    14
                       cart. coord. in units 2pi/alat
        k(    1) = (   0.0000000   0.0000000   0.0000000), wk =   0.0740741
        k(    2) = (   0.0000000   0.0000000   0.4004208), wk =   0.1481481
        k(    3) = (   0.0000000   0.3375626  -0.1039554), wk =   0.1481481
        k(    4) = (   0.0000000   0.3375626   0.2964654), wk =   0.1481481
        k(    5) = (   0.0000000   0.3375626  -0.5043763), wk =   0.1481481
        k(    6) = (   0.3333333  -0.0560997  -0.1808447), wk =   0.1481481
        k(    7) = (   0.3333333  -0.0560997   0.2195762), wk =   0.1481481
        k(    8) = (   0.3333333  -0.0560997  -0.5812655), wk =   0.1481481
        k(    9) = (   0.3333333   0.2814629  -0.2848001), wk =   0.1481481
        k(   10) = (   0.3333333   0.2814629   0.1156208), wk =   0.1481481
        k(   11) = (   0.3333333   0.2814629  -0.6852209), wk =   0.1481481
        k(   12) = (   0.3333333  -0.3936623  -0.0768892), wk =   0.1481481
        k(   13) = (   0.3333333  -0.3936623   0.3235316), wk =   0.1481481
        k(   14) = (   0.3333333  -0.3936623  -0.4773101), wk =   0.1481481

                       cryst. coord.
        k(    1) = (   0.0000000   0.0000000   0.0000000), wk =   0.0740741
        k(    2) = (   0.0000000   0.0000000   0.3333333), wk =   0.1481481
        k(    3) = (   0.0000000   0.3333333  -0.0000000), wk =   0.1481481
        k(    4) = (   0.0000000   0.3333333   0.3333333), wk =   0.1481481
        k(    5) = (   0.0000000   0.3333333  -0.3333333), wk =   0.1481481
        k(    6) = (   0.3333333   0.0000000  -0.0000000), wk =   0.1481481
        k(    7) = (   0.3333333   0.0000000   0.3333333), wk =   0.1481481
        k(    8) = (   0.3333333   0.0000000  -0.3333333), wk =   0.1481481
        k(    9) = (   0.3333333   0.3333333  -0.0000000), wk =   0.1481481
        k(   10) = (   0.3333333   0.3333333   0.3333333), wk =   0.1481481
        k(   11) = (   0.3333333   0.3333333  -0.3333333), wk =   0.1481481
        k(   12) = (   0.3333333  -0.3333333  -0.0000000), wk =   0.1481481
        k(   13) = (   0.3333333  -0.3333333   0.3333333), wk =   0.1481481
        k(   14) = (   0.3333333  -0.3333333  -0.3333333), wk =   0.1481481

     Check: negative core charge=   -0.000015

     Initial potential from superposition of free atoms

     starting charge      74.1950, renormalised to      76.0000
     Starting wfcs are   64 randomized atomic wfcs
     Checking if some PAW data can be deallocated...

     Self-consistent Calculation

     iteration #  1     ecut=    30.00 Ry     beta= 0.70
     Davidson diagonalization with overlap

     ethr =  1.00E-02,  avg # of iterations =  4.2

     total energy              =    -580.69895105 Ry
     estimated scf accuracy    <       3.34181963 Ry

[...]

     total energy              =    -582.61107451 Ry
     estimated scf accuracy    <       0.00000105 Ry

     iteration # 11     ecut=    30.00 Ry     beta= 0.70
     Davidson diagonalization with overlap

     ethr =  1.38E-09,  avg # of iterations =  2.1

     End of self-consistent calculation

          k = 0.0000 0.0000 0.0000 (  2213 PWs)   bands (ev):

   -52.7113 -52.6569 -35.8649 -35.8526 -35.7248 -35.6962 -27.0618 -27.0236
   -26.8914 -26.6528 -26.6061 -26.5463 -10.0035  -9.2826  -9.1668  -8.8818
    -8.8625  -8.8538   2.7726   3.2839   3.3183   3.5840   3.5842   3.9415
     4.1129   4.2617   4.4069   4.7689   4.9479   5.2647   5.8519   6.3517
     6.5093   6.7399   6.7719   6.8092   9.6073  10.0105  10.1072  10.2271
    10.3326  10.7659  13.1809  13.3959  13.5193  13.6279  13.8878  15.5287
    17.9628  18.1727  18.4854  18.9094  19.5140  19.9447  20.0649  20.5109
    21.0031  21.4374  21.9510  22.2915  22.6301  23.0661  23.3554  23.4960

     occupation numbers
     1.0000   1.0000   1.0000   1.0000   1.0000   1.0000   1.0000   1.0000
     1.0000   1.0000   1.0000   1.0000   1.0000   1.0000   1.0000   1.0000
     1.0000   1.0000   1.0000   1.0000   1.0000   1.0000   1.0000   1.0000
     1.0000   1.0000   1.0000   1.0000   1.0000   1.0000   1.0000   1.0000
     1.0000   1.0000   1.0000   1.0000   1.0000   1.0000   0.0000   0.0000
     0.0000   0.0000   0.0000   0.0000   0.0000   0.0000   0.0000   0.0000
     0.0000   0.0000   0.0000   0.0000   0.0000   0.0000   0.0000   0.0000
     0.0000   0.0000   0.0000   0.0000   0.0000   0.0000   0.0000   0.0000

[...]

          k = 0.3333-0.3937-0.4773 (  2201 PWs)   bands (ev):

   -52.6910 -52.6770 -35.8602 -35.8562 -35.7247 -35.6962 -27.0890 -26.9334
   -26.9163 -26.6856 -26.6128 -26.5466  -9.4534  -9.3926  -9.2822  -9.0697
    -9.0085  -8.8927   2.8512   3.3919   3.5339   3.5792   3.6305   3.8632
     3.9773   4.1164   4.4462   5.3667   5.6917   5.7407   5.8644   5.9687
     6.0013   6.1299   6.3030   6.6301   9.2500   9.6231   9.7554  10.3504
    10.6829  11.0259  12.9482  13.3715  13.5676  14.0281  15.4169  15.6481
    16.6547  17.8693  18.7274  18.8964  19.9899  20.4437  20.7905  20.9158
    21.4083  21.6692  21.8131  22.3455  22.7042  22.8777  23.0262  23.2312

     occupation numbers
     1.0000   1.0000   1.0000   1.0000   1.0000   1.0000   1.0000   1.0000
     1.0000   1.0000   1.0000   1.0000   1.0000   1.0000   1.0000   1.0000
     1.0000   1.0000   1.0000   1.0000   1.0000   1.0000   1.0000   1.0000
     1.0000   1.0000   1.0000   1.0000   1.0000   1.0000   1.0000   1.0000
     1.0000   1.0000   1.0000   1.0000   1.0000   1.0000   0.0000   0.0000
     0.0000   0.0000   0.0000   0.0000   0.0000   0.0000   0.0000   0.0000
     0.0000   0.0000   0.0000   0.0000   0.0000   0.0000   0.0000   0.0000
     0.0000   0.0000   0.0000   0.0000   0.0000   0.0000   0.0000   0.0000

     highest occupied, lowest unoccupied level (ev):    10.0407    9.7554

!    total energy              =    -582.61107476 Ry
     estimated scf accuracy    <       0.00000008 Ry

     The total energy is the sum of the following terms:
     one-electron contribution =    -201.03473822 Ry
     hartree contribution      =     131.57777983 Ry
     xc contribution           =     -89.47539131 Ry
     ewald contribution        =    -366.54018774 Ry
     one-center paw contrib.   =     -57.13853733 Ry
      -> PAW hartree energy AE =     175.75633025 Ry
      -> PAW hartree energy PS =    -175.14287224 Ry
      -> PAW xc energy AE      =    -102.69038185 Ry
      -> PAW xc energy PS      =      44.93838651 Ry
      -> total E_H with PAW    =     132.19123784 Ry
      -> total E_XC with PAW   =    -147.22738664 Ry

     convergence has been achieved in  11 iterations

     Writing all to output data dir calculations_bands/myprefix.save/

     General routines

     Parallel routines

     PAW routines

   This run was terminated on:  21:45:49   2Jun2023

   JOB DONE.