     Program PWSCF v.7.0 starts on  7Jun2023 at 11:26:16

     K-points division:     npool     =       2
     R & G space division:  proc/nbgrp/npool/nimage =       4

     Reading input from espresso_8637.pwi
Warning: card &CELL ignored
Warning: card / ignored

     Current dimensions of program PWSCF are:
     Max number of different atomic species (ntypx) = 10
     Max number of k-points (npk) =  40000
     Max angular momentum in pseudopotentials (lmaxx) =  4
     Message from routine setup:
     using ibrav=0 with symmetry is DISCOURAGED, use correct ibrav instead

     Using Slab Decomposition

     bravais-lattice index     =            0
     lattice parameter (alat)  =      11.3125  a.u.
     unit-cell volume          =     654.4959 (a.u.)^3
     number of atoms/cell      =            5
     number of atomic types    =            3
     number of electrons       =        60.00
     number of Kohn-Sham states=           64
     kinetic-energy cutoff     =      30.0000  Ry
     charge density cutoff     =     240.0000  Ry
     scf convergence threshold =      1.0E-06
     mixing beta               =       0.7000
     number of iterations used =            8  plain     mixing
     Exchange-correlation= PBE
                           (   1   4   3   4   0   0   0)

     celldm(1)=  11.312539  celldm(2)=   0.000000  celldm(3)=   0.000000
     celldm(4)=   0.000000  celldm(5)=   0.000000  celldm(6)=   0.000000

     crystal axes: (cart. coord. in units of alat)
               a(1) = (   1.000000   0.000000   0.000000 )
               a(2) = (   0.473252   0.880927   0.000000 )
               a(3) = (  -0.736626  -0.440464   0.513200 )

     reciprocal axes: (cart. coord. in units 2 pi/alat)
               b(1) = (  1.000000 -0.537220  0.974279 )
               b(2) = (  0.000000  1.135168  0.974279 )
               b(3) = (  0.000000  0.000000  1.948558 )

     PseudoPot. # 1 for Nd read from file:
     /home/pragov/projects/rrg-bengioy-ad/pragov/crystal_structure_design/SSSP/Nd.GGA-PBE-paw-v1.0.UPF
     MD5 check sum: 1d1e94942b6eb1cde76049b71bb7dcb0
     Pseudo is Projector augmented-wave + core cor, Zval = 14.0
     Generated using ATOMPAW code
     Shape of augmentation charge: BESSEL
     Using radial grid of 1105 points,  8 beta functions with:
                l(1) =   0
                l(2) =   0
                l(3) =   1
                l(4) =   1
                l(5) =   2
                l(6) =   2
                l(7) =   3
                l(8) =   3
     Q(r) pseudized with 0 coefficients

     PseudoPot. # 2 for Si read from file:
     /home/pragov/projects/rrg-bengioy-ad/pragov/crystal_structure_design/SSSP/Si.pbe-n-rrkjus_psl.1.0.0.UPF
     MD5 check sum: 0b0bb1205258b0d07b9f9672cf965d36
     Pseudo is Ultrasoft + core correction, Zval =  4.0
     Generated using "atomic" code by A. Dal Corso  v.5.1
     Using radial grid of 1141 points,  6 beta functions with:
                l(1) =   0
                l(2) =   0
                l(3) =   1
                l(4) =   1
                l(5) =   2
                l(6) =   2
     Q(r) pseudized with 0 coefficients

     PseudoPot. # 3 for Au read from file:
     /home/pragov/projects/rrg-bengioy-ad/pragov/crystal_structure_design/SSSP/Au_ONCV_PBE-1.0.oncvpsp.upf
     MD5 check sum: d14007822ba0e19f0206237467fc06c2
     Pseudo is Norm-conserving, Zval = 19.0
     Generated using ONCVPSP code by D. R. Hamann
     Using radial grid of 1278 points,  8 beta functions with:
                l(1) =   0
                l(2) =   0
                l(3) =   1
                l(4) =   1
                l(5) =   2
                l(6) =   2
                l(7) =   3
                l(8) =   3

     atomic species   valence    mass     pseudopotential
        Nd            14.00   144.24200     Nd( 1.00)
        Si             4.00    28.08500     Si( 1.00)
        Au            19.00   196.96657     Au( 1.00)

      4 Sym. Ops., with inversion, found

                                    s                        frac. trans.

      isym =  1     identity

 cryst.   s( 1) = (     1          0          0      )
                  (     0          1          0      )
                  (     0          0          1      )

 cart.    s( 1) = (  1.0000000 -0.0000000 -0.0000000 )
                  (  0.0000000  1.0000000 -0.0000000 )
                  (  0.0000000  0.0000000  1.0000000 )

      isym =  2     180 deg rotation - cart. axis [0,0,1]

[...]

      isym =  3     inversion

[...]

      isym =  4     inv. 180 deg rotation - cart. axis [0,0,1]

 cryst.   s( 4) = (     1          0          0      )
                  (     0          1          0      )
                  (    -1         -1         -1      )

 cart.    s( 4) = (  1.0000000 -0.0000000  0.0000000 )
                  (  0.0000000  1.0000000  0.0000000 )
                  (  0.0000000  0.0000000 -1.0000000 )

   Cartesian axes

     site n.     atom                  positions (alat units)
         1           Nd  tau(   1) = (   0.0000000   0.0000000   0.0000000  )
         2           Si  tau(   2) = (   0.9049449   0.5411096   0.0000000  )
         3           Si  tau(   3) = (   0.5683069   0.3398177   0.0000000  )
         4           Au  tau(   4) = (   0.5000000   0.0000000   0.2565999  )
         5           Au  tau(   5) = (   0.2366259   0.4404636   0.2565999  )

   Crystallographic axes

     site n.     atom                  positions (cryst. coord.)
         1           Nd  tau(   1) = (  0.0000000  0.0000000  0.0000000  )
         2           Si  tau(   2) = (  0.6142500  0.6142500  0.0000000  )
         3           Si  tau(   3) = (  0.3857500  0.3857500  0.0000000  )
         4           Au  tau(   4) = (  0.7500000  0.2500000  0.5000000  )
         5           Au  tau(   5) = (  0.2500000  0.7500000  0.5000000  )

     number of k points=    10
                       cart. coord. in units 2pi/alat
        k(    1) = (   0.0000000   0.0000000   0.0000000), wk =   0.0740741
        k(    2) = (   0.0000000   0.0000000   0.6495195), wk =   0.1481481
        k(    3) = (   0.0000000   0.3783892   0.3247597), wk =   0.2962963
        k(    4) = (   0.0000000   0.3783892   0.9742792), wk =   0.1481481
        k(    5) = (   0.3333333  -0.1790733   0.3247597), wk =   0.2962963
        k(    6) = (   0.3333333  -0.1790733   0.9742792), wk =   0.1481481
        k(    7) = (   0.3333333   0.1993158   0.6495195), wk =   0.2962963
        k(    8) = (   0.3333333   0.1993158   0.0000000), wk =   0.1481481
        k(    9) = (   0.3333333  -0.5574625  -0.0000000), wk =   0.1481481
        k(   10) = (   0.3333333  -0.5574625   0.6495195), wk =   0.2962963

                       cryst. coord.
        k(    1) = (   0.0000000   0.0000000   0.0000000), wk =   0.0740741
        k(    2) = (   0.0000000   0.0000000   0.3333333), wk =   0.1481481
        k(    3) = (   0.0000000   0.3333333  -0.0000000), wk =   0.2962963
        k(    4) = (   0.0000000   0.3333333   0.3333333), wk =   0.1481481
        k(    5) = (   0.3333333  -0.0000000  -0.0000000), wk =   0.2962963
        k(    6) = (   0.3333333  -0.0000000   0.3333333), wk =   0.1481481
        k(    7) = (   0.3333333   0.3333333  -0.0000000), wk =   0.2962963
        k(    8) = (   0.3333333   0.3333333  -0.3333333), wk =   0.1481481
        k(    9) = (   0.3333333  -0.3333333   0.0000000), wk =   0.1481481
        k(   10) = (   0.3333333  -0.3333333   0.3333333), wk =   0.2962963

     Initial potential from superposition of free atoms

     starting charge      59.9925, renormalised to      60.0000
     Starting wfcs are   60 randomized atomic wfcs +    4 random wfcs
     Checking if some PAW data can be deallocated...

     Self-consistent Calculation

     iteration #  1     ecut=    30.00 Ry     beta= 0.70
     Davidson diagonalization with overlap

     ethr =  1.00E-02,  avg # of iterations =  5.0

     total energy              =   -1108.08886329 Ry
     estimated scf accuracy    <       1.29855445 Ry

[...]

     total energy              =   -1109.39706514 Ry
     estimated scf accuracy    <       0.00000532 Ry

     iteration # 32     ecut=    30.00 Ry     beta= 0.70
     Davidson diagonalization with overlap

     ethr =  4.83E-09,  avg # of iterations =  1.0

     End of self-consistent calculation

          k = 0.0000 0.0000 0.0000 (  1793 PWs)   bands (ev):

   -92.6476 -92.6449 -43.6934 -43.6933 -43.6654 -43.6588 -43.6369 -43.6368
   -22.5543  -3.8620  -3.7667  -3.7643   3.5114   6.2641   7.5758   8.3717
     8.5407   8.5409   9.9466   9.9467  10.0884  10.6214  10.7690  10.8562
    11.5116  12.7907  12.7908  14.0286  14.2209  14.2626  14.4788  14.6373
    14.6783  14.7208  14.8361  15.8955  15.9153  16.0191  17.2182  17.8722
    18.1127  19.5535  19.9316  19.9323  22.4413  22.4414  22.9585  23.5244
    23.5246  23.7799  23.8524  24.0780  26.6142  26.8776  26.8779  27.7983
    28.0736  30.4091  30.7466  32.4539  32.4544  33.5278  34.7600  35.3041

     occupation numbers
     1.0000   1.0000   1.0000   1.0000   1.0000   1.0000   1.0000   1.0000
     1.0000   1.0000   1.0000   1.0000   1.0000   1.0000   1.0000   1.0000
     1.0000   1.0000   1.0000   1.0000   1.0000   1.0000   1.0000   1.0000
     1.0000   1.0000   1.0000   1.0000   1.0000   1.0000   0.0000   0.0000
     0.0000   0.0000   0.0000   0.0000   0.0000   0.0000   0.0000   0.0000
     0.0000   0.0000   0.0000   0.0000   0.0000   0.0000   0.0000   0.0000
     0.0000   0.0000   0.0000   0.0000   0.0000   0.0000   0.0000   0.0000
     0.0000   0.0000   0.0000   0.0000   0.0000   0.0000   0.0000   0.0000

[...]

          k = 0.3333-0.5575 0.6495 (  1831 PWs)   bands (ev):

   -92.6470 -92.6456 -43.6822 -43.6807 -43.6668 -43.6617 -43.6577 -43.6565
   -22.5497  -3.8959  -3.8754  -3.7481   5.0655   5.3828   8.4855   8.6408
     8.7230   8.9449   9.1254   9.2476   9.4398   9.8853   9.9859  10.1704
    10.2163  13.3806  13.4639  14.1673  14.5587  14.6095  14.6810  14.7294
    14.7872  14.9982  15.0841  16.0102  16.4179  16.7246  17.1416  17.6359
    17.9334  18.5138  18.5968  20.7584  21.7366  22.3154  22.9886  23.6533
    23.9777  24.6373  25.1258  25.5656  26.1358  27.4078  28.2203  29.0808
    29.1589  29.7411  30.7078  31.5785  31.9877  33.4697  33.5335  34.2171

     occupation numbers
     1.0000   1.0000   1.0000   1.0000   1.0000   1.0000   1.0000   1.0000
     1.0000   1.0000   1.0000   1.0000   1.0000   1.0000   1.0000   1.0000
     1.0000   1.0000   1.0000   1.0000   1.0000   1.0000   1.0000   1.0000
     1.0000   1.0000   1.0000   1.0000   1.0000   1.0000   0.0000   0.0000
     0.0000   0.0000   0.0000   0.0000   0.0000   0.0000   0.0000   0.0000
     0.0000   0.0000   0.0000   0.0000   0.0000   0.0000   0.0000   0.0000
     0.0000   0.0000   0.0000   0.0000   0.0000   0.0000   0.0000   0.0000
     0.0000   0.0000   0.0000   0.0000   0.0000   0.0000   0.0000   0.0000

     highest occupied, lowest unoccupied level (ev):    14.6095   14.4788

!    total energy              =   -1109.39706534 Ry
     estimated scf accuracy    <       0.00000081 Ry

     The total energy is the sum of the following terms:
     one-electron contribution =    -321.97783920 Ry
     hartree contribution      =     187.71519103 Ry
     xc contribution           =     -76.84304569 Ry
     ewald contribution        =    -468.23640988 Ry
     one-center paw contrib.   =    -430.05496160 Ry
      -> PAW hartree energy AE =      80.73176218 Ry
      -> PAW hartree energy PS =     -80.34034638 Ry
      -> PAW xc energy AE      =    -442.94313436 Ry
      -> PAW xc energy PS      =      12.49675696 Ry
      -> total E_H with PAW    =     188.10660682 Ry
      -> total E_XC with PAW   =    -507.28942308 Ry

     convergence has been achieved in  32 iterations

     Writing all to output data dir calculations_bands/myprefix.save/

     General routines

     Parallel routines

     PAW routines

   This run was terminated on:  11:26:43   7Jun2023

   JOB DONE.