     Program PWSCF v.7.0 starts on  7Jun2023 at  4: 4:23

     K-points division:     npool     =       2
     R & G space division:  proc/nbgrp/npool/nimage =       4

     Reading input from espresso_1511.pwi
Warning: card &CELL ignored
Warning: card / ignored

     Current dimensions of program PWSCF are:
     Max number of different atomic species (ntypx) = 10
     Max number of k-points (npk) =  40000
     Max angular momentum in pseudopotentials (lmaxx) =  4
     Message from routine setup:
     using ibrav=0 with symmetry is DISCOURAGED, use correct ibrav instead

     Using Slab Decomposition

     bravais-lattice index     =            0
     lattice parameter (alat)  =       8.9488  a.u.
     unit-cell volume          =    1411.3197 (a.u.)^3
     number of atoms/cell      =           18
     number of atomic types    =            3
     number of electrons       =       128.00
     number of Kohn-Sham states=           64
     kinetic-energy cutoff     =      30.0000  Ry
     charge density cutoff     =     240.0000  Ry
     scf convergence threshold =      1.0E-06
     mixing beta               =       0.7000
     number of iterations used =            8  plain     mixing
     Exchange-correlation=  SLA  PW   PBX  PBC
                           (   1   4   3   4   0   0   0)

     celldm(1)=   8.948753  celldm(2)=   0.000000  celldm(3)=   0.000000
     celldm(4)=   0.000000  celldm(5)=   0.000000  celldm(6)=   0.000000

     crystal axes: (cart. coord. in units of alat)
               a(1) = (   1.000000   0.000000   0.000000 )
               a(2) = (   0.000000   1.000000   0.000000 )
               a(3) = (   0.000000   0.000000   1.969418 )

     reciprocal axes: (cart. coord. in units 2 pi/alat)
               b(1) = (  1.000000  0.000000  0.000000 )
               b(2) = (  0.000000  1.000000  0.000000 )
               b(3) = (  0.000000  0.000000  0.507764 )

     PseudoPot. # 1 for Li read from file:
     /home/pragov/projects/rrg-bengioy-ad/pragov/crystal_structure_design/SSSP/li_pbe_v1.4.uspp.F.UPF
     MD5 check sum: e912e257baa3777c20ea3d68f190483c
     Pseudo is Ultrasoft, Zval =  3.0
     Generated by new atomic code, or converted to UPF format
     Using radial grid of  751 points,  5 beta functions with:
                l(1) =   0
                l(2) =   0
                l(3) =   0
                l(4) =   1
                l(5) =   1
     Q(r) pseudized with 10 coefficients,  rinner =    1.150   1.150   1.150

     PseudoPot. # 2 for Pt read from file:
     /home/pragov/projects/rrg-bengioy-ad/pragov/crystal_structure_design/SSSP/pt_pbe_v1.4.uspp.F.UPF
     MD5 check sum: f09d6de1a584b5a045c4fc126da2d0c4
     Pseudo is Ultrasoft + core correction, Zval = 16.0
     Generated by new atomic code, or converted to UPF format
     Using radial grid of  985 points,  6 beta functions with:
                l(1) =   0
                l(2) =   0
                l(3) =   1
                l(4) =   1
                l(5) =   2
                l(6) =   2
     Q(r) pseudized with  8 coefficients,  rinner =    1.300   1.300   1.300
                                                       1.300   1.300

     PseudoPot. # 3 for F  read from file:
     /home/pragov/projects/rrg-bengioy-ad/pragov/crystal_structure_design/SSSP/f_pbe_v1.4.uspp.F.UPF
     MD5 check sum: 4c38b6a325caf53ec0e86aed9459de46
     Pseudo is Ultrasoft, Zval =  7.0
     Generated by new atomic code, or converted to UPF format
     Using radial grid of  799 points,  4 beta functions with:
                l(1) =   0
                l(2) =   0
                l(3) =   1
                l(4) =   1
     Q(r) pseudized with  8 coefficients,  rinner =    0.950   0.950   0.950

     atomic species   valence    mass     pseudopotential
        Li             3.00     6.94000     Li( 1.00)
        Pt            16.00   195.08400     Pt( 1.00)
        F              7.00    18.99840     F ( 1.00)

     16 Sym. Ops., with inversion, found ( 8 have fractional translation)

                                    s                        frac. trans.

      isym =  1     identity

 cryst.   s( 1) = (     1          0          0      )
                  (     0          1          0      )
                  (     0          0          1      )

 cart.    s( 1) = (  1.0000000  0.0000000  0.0000000 )
                  (  0.0000000  1.0000000  0.0000000 )
                  (  0.0000000  0.0000000  1.0000000 )

      isym =  2     180 deg rotation - cart. axis [0,0,1]

[...]

 cryst.   s( 3) = (    -1          0          0      )    f =(  0.5000000 )
                  (     0          1          0      )       ( -0.5000000 )
                  (     0          0         -1      )       ( -0.5000000 )

 cart.    s( 3) = ( -1.0000000  0.0000000  0.0000000 )    f =(  0.5000000 )
                  (  0.0000000  1.0000000  0.0000000 )       ( -0.5000000 )
                  (  0.0000000  0.0000000 -1.0000000 )       ( -0.9847089 )

[...]

      isym =  8      90 deg rotation - cart. axis [0,0,1]

 cryst.   s( 8) = (     0          1          0      )    f =(  0.5000000 )
                  (    -1          0          0      )       ( -0.5000000 )
                  (     0          0          1      )       ( -0.5000000 )

 cart.    s( 8) = (  0.0000000 -1.0000000  0.0000000 )    f =(  0.5000000 )
                  (  1.0000000  0.0000000  0.0000000 )       ( -0.5000000 )
                  (  0.0000000  0.0000000  1.0000000 )       ( -0.9847089 )

      isym =  9     inversion

 cryst.   s( 9) = (    -1          0          0      )
                  (     0         -1          0      )
                  (     0          0         -1      )

 cart.    s( 9) = ( -1.0000000  0.0000000  0.0000000 )
                  (  0.0000000 -1.0000000  0.0000000 )
                  (  0.0000000  0.0000000 -1.0000000 )

      isym = 10     inv. 180 deg rotation - cart. axis [0,0,1]

 cryst.   s(10) = (     1          0          0      )
                  (     0          1          0      )
                  (     0          0         -1      )

 cart.    s(10) = (  1.0000000  0.0000000  0.0000000 )
                  (  0.0000000  1.0000000  0.0000000 )
                  (  0.0000000  0.0000000 -1.0000000 )

[...]

 cryst.   s(11) = (     1          0          0      )    f =( -0.5000000 )
                  (     0         -1          0      )       (  0.5000000 )
                  (     0          0          1      )       ( -0.5000000 )

 cart.    s(11) = (  1.0000000  0.0000000  0.0000000 )    f =( -0.5000000 )
                  (  0.0000000 -1.0000000  0.0000000 )       (  0.5000000 )
                  (  0.0000000  0.0000000  1.0000000 )       ( -0.9847089 )

[...]

 cryst.   s(14) = (     0          1          0      )
                  (     1          0          0      )
                  (     0          0          1      )

 cart.    s(14) = (  0.0000000  1.0000000  0.0000000 )
                  (  1.0000000  0.0000000  0.0000000 )
                  (  0.0000000  0.0000000  1.0000000 )

[...]

      isym = 16     inv.  90 deg rotation - cart. axis [0,0,1]

 cryst.   s(16) = (     0         -1          0      )    f =( -0.5000000 )
                  (     1          0          0      )       (  0.5000000 )
                  (     0          0         -1      )       ( -0.5000000 )

 cart.    s(16) = (  0.0000000  1.0000000  0.0000000 )    f =( -0.5000000 )
                  ( -1.0000000  0.0000000  0.0000000 )       (  0.5000000 )
                  (  0.0000000  0.0000000 -1.0000000 )       ( -0.9847089 )

   Cartesian axes

     site n.     atom                  positions (alat units)
         1           Li  tau(   1) = (   0.0000000   0.0000000   0.6626244  )
         2           Li  tau(   2) = (   0.5000000   0.5000000   1.6473334  )
         3           Li  tau(   3) = (   0.0000000   0.0000000   1.3067934  )
         4           Li  tau(   4) = (   0.5000000   0.5000000   0.3220845  )
         5           Pt  tau(   5) = (   0.5000000   0.5000000   0.9847089  )
         6           Pt  tau(   6) = (   0.0000000   0.0000000   0.0000000  )
         7           F   tau(   7) = (   0.3077050   0.6922950   1.3014799  )
         8           F   tau(   8) = (   0.1922950   0.1922950   1.6526468  )
         9           F   tau(   9) = (   0.7048900   0.2951100   0.0000000  )
        10           F   tau(  10) = (   0.7951100   0.7951100   0.9847089  )
        11           F   tau(  11) = (   0.2951100   0.7048900   0.0000000  )
        12           F   tau(  12) = (   0.2048900   0.2048900   0.9847089  )
        13           F   tau(  13) = (   0.1922950   0.1922950   0.3167710  )
        14           F   tau(  14) = (   0.3077050   0.6922950   0.6679379  )
        15           F   tau(  15) = (   0.8077050   0.8077050   1.6526468  )
        16           F   tau(  16) = (   0.6922950   0.3077050   1.3014799  )
        17           F   tau(  17) = (   0.8077050   0.8077050   0.3167710  )
        18           F   tau(  18) = (   0.6922950   0.3077050   0.6679379  )

   Crystallographic axes

     site n.     atom                  positions (cryst. coord.)
         1           Li  tau(   1) = (  0.0000000  0.0000000  0.3364570  )
         2           Li  tau(   2) = (  0.5000000  0.5000000  0.8364570  )
         3           Li  tau(   3) = (  0.0000000  0.0000000  0.6635430  )
         4           Li  tau(   4) = (  0.5000000  0.5000000  0.1635430  )
         5           Pt  tau(   5) = (  0.5000000  0.5000000  0.5000000  )
         6           Pt  tau(   6) = (  0.0000000  0.0000000  0.0000000  )
         7           F   tau(   7) = (  0.3077050  0.6922950  0.6608450  )
         8           F   tau(   8) = (  0.1922950  0.1922950  0.8391550  )
         9           F   tau(   9) = (  0.7048900  0.2951100  0.0000000  )
        10           F   tau(  10) = (  0.7951100  0.7951100  0.5000000  )
        11           F   tau(  11) = (  0.2951100  0.7048900  0.0000000  )
        12           F   tau(  12) = (  0.2048900  0.2048900  0.5000000  )
        13           F   tau(  13) = (  0.1922950  0.1922950  0.1608450  )
        14           F   tau(  14) = (  0.3077050  0.6922950  0.3391550  )
        15           F   tau(  15) = (  0.8077050  0.8077050  0.8391550  )
        16           F   tau(  16) = (  0.6922950  0.3077050  0.6608450  )
        17           F   tau(  17) = (  0.8077050  0.8077050  0.1608450  )
        18           F   tau(  18) = (  0.6922950  0.3077050  0.3391550  )

     number of k points=     6
                       cart. coord. in units 2pi/alat
        k(    1) = (   0.0000000   0.0000000   0.0000000), wk =   0.0740741
        k(    2) = (   0.0000000   0.0000000   0.1692548), wk =   0.1481481
        k(    3) = (   0.0000000   0.3333333   0.0000000), wk =   0.2962963
        k(    4) = (   0.0000000   0.3333333   0.1692548), wk =   0.5925926
        k(    5) = (   0.3333333   0.3333333   0.0000000), wk =   0.2962963
        k(    6) = (   0.3333333   0.3333333   0.1692548), wk =   0.5925926

                       cryst. coord.
        k(    1) = (   0.0000000   0.0000000   0.0000000), wk =   0.0740741
        k(    2) = (   0.0000000   0.0000000   0.3333333), wk =   0.1481481
        k(    3) = (   0.0000000   0.3333333   0.0000000), wk =   0.2962963
        k(    4) = (   0.0000000   0.3333333   0.3333333), wk =   0.5925926
        k(    5) = (   0.3333333   0.3333333   0.0000000), wk =   0.2962963
        k(    6) = (   0.3333333   0.3333333   0.3333333), wk =   0.5925926

     Initial potential from superposition of free atoms

     starting charge     125.1970, renormalised to     128.0000

     negative rho (up, down):  3.595E-01 0.000E+00
     Starting wfcs are   92 randomized atomic wfcs

     Self-consistent Calculation

     iteration #  1     ecut=    30.00 Ry     beta= 0.70
     Davidson diagonalization with overlap

     ethr =  1.00E-02,  avg # of iterations =  2.0

     negative rho (up, down):  3.242E-01 0.000E+00

     total energy              =   -1059.73597322 Ry
     estimated scf accuracy    <       6.86820860 Ry

[...]

     total energy              =   -1063.40748878 Ry
     estimated scf accuracy    <       0.00000113 Ry

     iteration # 10     ecut=    30.00 Ry     beta= 0.70
     Davidson diagonalization with overlap

     ethr =  8.81E-10,  avg # of iterations =  6.0

     negative rho (up, down):  3.413E-01 0.000E+00

     End of self-consistent calculation

          k = 0.0000 0.0000 0.0000 (  3887 PWs)   bands (ev):

   -50.2435 -50.2435 -50.1167 -50.1167 -50.0054 -50.0054 -39.4824 -39.4787
   -39.4774 -39.4767 -19.2604 -19.1218 -18.7576 -18.7444 -18.6730 -18.6730
   -18.6674 -18.5382 -18.5382 -18.5255 -18.4564 -18.4564  -3.3226  -3.2585
    -2.9738  -2.9738  -2.7983  -2.6353  -1.8897  -1.6877  -1.6766  -1.5652
    -1.5652  -1.5454  -1.1184  -0.7924  -0.7056  -0.7056  -0.5341  -0.5341
    -0.3473  -0.0744   0.0354   0.0354   0.0787   0.1348   0.4321   0.4321
     0.6602   0.8076   0.8076   0.9073   0.9442   0.9442   1.0296   1.0781
     1.0781   1.4262   2.5579   2.7395   2.7466   2.9186   3.0230   3.0230

     occupation numbers
     1.0000   1.0000   1.0000   1.0000   1.0000   1.0000   1.0000   1.0000
     1.0000   1.0000   1.0000   1.0000   1.0000   1.0000   1.0000   1.0000
     1.0000   1.0000   1.0000   1.0000   1.0000   1.0000   1.0000   1.0000
     1.0000   1.0000   1.0000   1.0000   1.0000   1.0000   1.0000   1.0000
     1.0000   1.0000   1.0000   1.0000   1.0000   1.0000   1.0000   1.0000
     1.0000   1.0000   1.0000   1.0000   1.0000   1.0000   1.0000   1.0000
     1.0000   1.0000   1.0000   1.0000   1.0000   1.0000   1.0000   1.0000
     1.0000   1.0000   1.0000   1.0000   1.0000   1.0000   1.0000   1.0000

[...]

          k = 0.3333 0.3333 0.1693 (  3909 PWs)   bands (ev):

   -50.2435 -50.2434 -50.1168 -50.1168 -50.0055 -50.0054 -39.4812 -39.4810
   -39.4767 -39.4767 -19.0446 -19.0101 -18.8424 -18.8022 -18.6987 -18.6951
   -18.6257 -18.6098 -18.6019 -18.5568 -18.4889 -18.4550  -3.3474  -3.1098
    -2.9927  -2.9771  -2.6834  -2.5083  -2.0050  -1.9639  -1.8240  -1.7385
    -1.3850  -1.2486  -1.1634  -1.1182  -0.8850  -0.6596  -0.6416  -0.4981
    -0.0916   0.0280   0.1485   0.1588   0.2861   0.3513   0.4201   0.4275
     0.5930   0.6348   0.8065   0.8376   0.8668   0.9147   0.9781   0.9891
     1.0560   1.1992   2.6568   2.6863   2.7686   2.7701   2.9638   2.9934

     occupation numbers
     1.0000   1.0000   1.0000   1.0000   1.0000   1.0000   1.0000   1.0000
     1.0000   1.0000   1.0000   1.0000   1.0000   1.0000   1.0000   1.0000
     1.0000   1.0000   1.0000   1.0000   1.0000   1.0000   1.0000   1.0000
     1.0000   1.0000   1.0000   1.0000   1.0000   1.0000   1.0000   1.0000
     1.0000   1.0000   1.0000   1.0000   1.0000   1.0000   1.0000   1.0000
     1.0000   1.0000   1.0000   1.0000   1.0000   1.0000   1.0000   1.0000
     1.0000   1.0000   1.0000   1.0000   1.0000   1.0000   1.0000   1.0000
     1.0000   1.0000   1.0000   1.0000   1.0000   1.0000   1.0000   1.0000

     highest occupied level (ev):     3.0299

!    total energy              =   -1063.40748901 Ry
     estimated scf accuracy    <       0.00000070 Ry

     The total energy is the sum of the following terms:
     one-electron contribution =    -527.38154542 Ry
     hartree contribution      =     323.06232228 Ry
     xc contribution           =    -239.34098810 Ry
     ewald contribution        =    -619.74727778 Ry

     convergence has been achieved in  10 iterations

     Writing all to output data dir calculations_bands/myprefix.save/

     General routines

     Parallel routines

   This run was terminated on:   4: 4:33   7Jun2023

   JOB DONE.