     Program PWSCF v.7.0 starts on  5Jun2023 at  7: 6:10

     K-points division:     npool     =       2
     R & G space division:  proc/nbgrp/npool/nimage =       4

     Reading input from espresso_9507.pwi
Warning: card &CELL ignored
Warning: card / ignored

     Current dimensions of program PWSCF are:
     Max number of different atomic species (ntypx) = 10
     Max number of k-points (npk) =  40000
     Max angular momentum in pseudopotentials (lmaxx) =  4
     file C.pbe-n-kjpaw_psl.1.0.0.UPF: wavefunction(s)  2S 2P renormalized
     Message from routine setup:
     using ibrav=0 with symmetry is DISCOURAGED, use correct ibrav instead

     Using Slab Decomposition

     bravais-lattice index     =            0
     lattice parameter (alat)  =       9.6773  a.u.
     unit-cell volume          =     713.7061 (a.u.)^3
     number of atoms/cell      =           10
     number of atomic types    =            3
     number of electrons       =       102.00
     number of Kohn-Sham states=           64
     kinetic-energy cutoff     =      30.0000  Ry
     charge density cutoff     =     240.0000  Ry
     scf convergence threshold =      1.0E-06
     mixing beta               =       0.7000
     number of iterations used =            8  plain     mixing
     Exchange-correlation= SLA  PW   PBX  PBC
                           (   1   4   3   4   0   0   0)

     celldm(1)=   9.677320  celldm(2)=   0.000000  celldm(3)=   0.000000
     celldm(4)=   0.000000  celldm(5)=   0.000000  celldm(6)=   0.000000

     crystal axes: (cart. coord. in units of alat)
               a(1) = (   1.000000   0.000000   0.000000 )
               a(2) = (  -0.831431   0.555627   0.000000 )
               a(3) = (   0.000000   0.000000   1.417329 )

     reciprocal axes: (cart. coord. in units 2 pi/alat)
               b(1) = (  1.000000  1.496383  0.000000 )
               b(2) = (  0.000000  1.799768  0.000000 )
               b(3) = (  0.000000  0.000000  0.705553 )

     PseudoPot. # 1 for Cr read from file:
     /home/pragov/projects/rrg-bengioy-ad/pragov/crystal_structure_design/SSSP/cr_pbe_v1.5.uspp.F.UPF
     MD5 check sum: 0d52af634a40206e4dee301ad30da4bf
     Pseudo is Ultrasoft + core correction, Zval = 14.0
     Generated by new atomic code, or converted to UPF format
     Using radial grid of  857 points,  6 beta functions with:
                l(1) =   0
                l(2) =   0
                l(3) =   1
                l(4) =   1
                l(5) =   2
                l(6) =   2
     Q(r) pseudized with  8 coefficients,  rinner =    0.950   0.950   0.950
                                                       0.950   0.950

     PseudoPot. # 2 for P  read from file:
     /home/pragov/projects/rrg-bengioy-ad/pragov/crystal_structure_design/SSSP/P.pbe-n-rrkjus_psl.1.0.0.UPF
     MD5 check sum: 8b930f418f0a4573dca56cd030ffe088
     Pseudo is Ultrasoft + core correction, Zval =  5.0
     Generated using "atomic" code by A. Dal Corso  v.5.1
     Using radial grid of 1147 points,  6 beta functions with:
                l(1) =   0
                l(2) =   0
                l(3) =   1
                l(4) =   1
                l(5) =   2
                l(6) =   2
     Q(r) pseudized with 0 coefficients

     PseudoPot. # 3 for C  read from file:
     /home/pragov/projects/rrg-bengioy-ad/pragov/crystal_structure_design/SSSP/C.pbe-n-kjpaw_psl.1.0.0.UPF
     MD5 check sum: 5d2aebdfa2cae82b50a7e79e9516da0f
     Pseudo is Projector augmented-wave + core cor, Zval =  4.0
     Generated using "atomic" code by A. Dal Corso  v.5.1
     Shape of augmentation charge: PSQ
     Using radial grid of 1073 points,  4 beta functions with:
                l(1) =   0
                l(2) =   0
                l(3) =   1
                l(4) =   1
     Q(r) pseudized with 0 coefficients

     atomic species   valence    mass     pseudopotential
        Cr            14.00    51.99610     Cr( 1.00)
        P              5.00    30.97376     P ( 1.00)
        C              4.00    12.01100     C ( 1.00)

      4 Sym. Ops., with inversion, found ( 2 have fractional translation)

                                    s                        frac. trans.

      isym =  1     identity

 cryst.   s( 1) = (     1          0          0      )
                  (     0          1          0      )
                  (     0          0          1      )

 cart.    s( 1) = (  1.0000000  0.0000000  0.0000000 )
                  (  0.0000000  1.0000000  0.0000000 )
                  (  0.0000000  0.0000000  1.0000000 )

      isym =  2     180 deg rotation - cart. axis [0,0,1]

 cryst.   s( 2) = (    -1          0          0      )    f =(  0.0000000 )
                  (     0         -1          0      )       (  0.0000000 )
                  (     0          0          1      )       ( -0.5000000 )

 cart.    s( 2) = ( -1.0000000 -0.0000000  0.0000000 )    f =(  0.0000000 )
                  (  0.0000000 -1.0000000  0.0000000 )       (  0.0000000 )
                  (  0.0000000  0.0000000  1.0000000 )       ( -0.7086643 )

      isym =  3     inversion

 cryst.   s( 3) = (    -1          0          0      )
                  (     0         -1          0      )
                  (     0          0         -1      )

 cart.    s( 3) = ( -1.0000000 -0.0000000  0.0000000 )
                  (  0.0000000 -1.0000000  0.0000000 )
                  (  0.0000000  0.0000000 -1.0000000 )

      isym =  4     inv. 180 deg rotation - cart. axis [0,0,1]

 cryst.   s( 4) = (     1          0          0      )    f =(  0.0000000 )
                  (     0          1          0      )       (  0.0000000 )
                  (     0          0         -1      )       (  0.5000000 )

 cart.    s( 4) = (  1.0000000  0.0000000  0.0000000 )    f =(  0.0000000 )
                  (  0.0000000  1.0000000  0.0000000 )       (  0.0000000 )
                  (  0.0000000  0.0000000 -1.0000000 )       (  0.7086643 )

   Cartesian axes

     site n.     atom                  positions (alat units)
         1           Cr  tau(   1) = (   0.3215316   0.2058366   0.6299671  )
         2           Cr  tau(   2) = (  -0.1529630   0.3497907   0.7873614  )
         3           Cr  tau(   3) = (   0.3215316   0.2058366   0.0786972  )
         4           Cr  tau(   4) = (  -0.1529630   0.3497907   1.3386314  )
         5           Cr  tau(   5) = (   0.8902533   0.0332954   0.3543321  )
         6           Cr  tau(   6) = (  -0.7216848   0.5223319   1.0629964  )
         7           P   tau(   7) = (  -0.3614221   0.4130339   0.3543321  )
         8           P   tau(   8) = (   0.5299906   0.1425934   1.0629964  )
         9           C   tau(   9) = (   0.0000000   0.0000000   0.7086643  )
        10           C   tau(  10) = (   0.0000000   0.0000000   0.0000000  )

   Crystallographic axes

     site n.     atom                  positions (cryst. coord.)
         1           Cr  tau(   1) = (  0.6295420  0.3704580  0.4444750  )
         2           Cr  tau(   2) = (  0.3704580  0.6295420  0.5555250  )
         3           Cr  tau(   3) = (  0.6295420  0.3704580  0.0555250  )
         4           Cr  tau(   4) = (  0.3704580  0.6295420  0.9444750  )
         5           Cr  tau(   5) = (  0.9400760  0.0599240  0.2500000  )
         6           Cr  tau(   6) = (  0.0599240  0.9400760  0.7500000  )
         7           P   tau(   7) = (  0.2566350  0.7433650  0.2500000  )
         8           P   tau(   8) = (  0.7433650  0.2566350  0.7500000  )
         9           C   tau(   9) = (  0.0000000  0.0000000  0.5000000  )
        10           C   tau(  10) = (  0.0000000  0.0000000  0.0000000  )

     number of k points=    10
                       cart. coord. in units 2pi/alat
        k(    1) = (   0.0000000   0.0000000   0.0000000), wk =   0.0740741
        k(    2) = (   0.0000000   0.0000000   0.2351842), wk =   0.1481481
        k(    3) = (   0.0000000   0.5999225   0.0000000), wk =   0.1481481
        k(    4) = (   0.0000000   0.5999225   0.2351842), wk =   0.2962963
        k(    5) = (   0.3333333   0.4987945   0.0000000), wk =   0.1481481
        k(    6) = (   0.3333333   0.4987945   0.2351842), wk =   0.2962963
        k(    7) = (   0.3333333   1.0987170   0.0000000), wk =   0.1481481
        k(    8) = (   0.3333333   1.0987170   0.2351842), wk =   0.2962963
        k(    9) = (   0.3333333  -0.1011281   0.0000000), wk =   0.1481481
        k(   10) = (   0.3333333  -0.1011281   0.2351842), wk =   0.2962963

                       cryst. coord.
        k(    1) = (   0.0000000   0.0000000   0.0000000), wk =   0.0740741
        k(    2) = (   0.0000000   0.0000000   0.3333333), wk =   0.1481481
        k(    3) = (   0.0000000   0.3333333   0.0000000), wk =   0.1481481
        k(    4) = (   0.0000000   0.3333333   0.3333333), wk =   0.2962963
        k(    5) = (   0.3333333   0.0000000   0.0000000), wk =   0.1481481
        k(    6) = (   0.3333333   0.0000000   0.3333333), wk =   0.2962963
        k(    7) = (   0.3333333   0.3333333   0.0000000), wk =   0.1481481
        k(    8) = (   0.3333333   0.3333333   0.3333333), wk =   0.2962963
        k(    9) = (   0.3333333  -0.3333333   0.0000000), wk =   0.1481481
        k(   10) = (   0.3333333  -0.3333333   0.3333333), wk =   0.2962963

     Check: negative core charge=   -0.000020

     Initial potential from superposition of free atoms

     starting charge      95.9995, renormalised to     102.0000

     negative rho (up, down):  5.146E-03 0.000E+00
     Starting wfcs are   76 randomized atomic wfcs
     Checking if some PAW data can be deallocated...

     Self-consistent Calculation

     iteration #  1     ecut=    30.00 Ry     beta= 0.70
     Davidson diagonalization with overlap

     ethr =  1.00E-02,  avg # of iterations =  4.1

     negative rho (up, down):  2.165E-02 0.000E+00

     total energy              =   -1109.18210079 Ry
     estimated scf accuracy    <      15.08122429 Ry

[...]

     total energy              =   -1117.98604517 Ry
     estimated scf accuracy    <       0.00000313 Ry

     iteration # 18     ecut=    30.00 Ry     beta= 0.70
     Davidson diagonalization with overlap

     ethr =  3.07E-09,  avg # of iterations =  2.0

     negative rho (up, down):  5.419E-03 0.000E+00

     End of self-consistent calculation

          k = 0.0000 0.0000 0.0000 (  1963 PWs)   bands (ev):

   -54.3994 -54.3732 -54.3494 -54.3402 -54.3177 -54.3007 -25.9859 -25.9443
   -25.8223 -25.7922 -25.7633 -25.7585 -25.7510 -25.7487 -25.7437 -25.6840
   -25.6767 -25.6735 -25.6403 -25.6076 -25.5287 -25.5154 -25.5141 -25.4478
     3.4127   5.0617   5.5278   6.2213  10.2440  11.4928  11.5918  11.6855
    12.5397  12.9851  12.9933  13.4144  13.5032  13.5035  14.8263  15.0438
    15.1118  15.4881  15.5883  15.7154  16.3151  16.4868  16.7071  16.7337
    16.8815  17.0310  17.0342  17.0594  17.6062  17.7350  17.7370  17.8191
    18.3369  18.3723  18.5989  18.7278  18.7456  18.9103  19.7665  20.6609

     occupation numbers
     1.0000   1.0000   1.0000   1.0000   1.0000   1.0000   1.0000   1.0000
     1.0000   1.0000   1.0000   1.0000   1.0000   1.0000   1.0000   1.0000
     1.0000   1.0000   1.0000   1.0000   1.0000   1.0000   1.0000   1.0000
     1.0000   1.0000   1.0000   1.0000   1.0000   1.0000   1.0000   1.0000
     1.0000   1.0000   1.0000   1.0000   1.0000   1.0000   1.0000   1.0000
     1.0000   1.0000   1.0000   1.0000   1.0000   1.0000   1.0000   1.0000
     1.0000   1.0000   1.0000   0.0000   0.0000   0.0000   0.0000   0.0000
     0.0000   0.0000   0.0000   0.0000   0.0000   0.0000   0.0000   0.0000

[...]

          k = 0.3333-0.1011 0.2352 (  1972 PWs)   bands (ev):

   -54.3861 -54.3738 -54.3557 -54.3507 -54.3116 -54.3031 -25.9665 -25.9423
   -25.8023 -25.7872 -25.7832 -25.7576 -25.7438 -25.7357 -25.7307 -25.7212
   -25.6984 -25.6641 -25.6308 -25.6157 -25.5538 -25.5125 -25.4869 -25.4755
     4.1834   4.7482   5.4613   5.6768  10.2017  10.6125  11.4874  12.2407
    12.8784  13.0237  13.0259  13.1843  13.5161  13.8821  14.4635  14.6747
    15.3129  15.5499  15.8602  15.8661  16.3424  16.4498  16.5496  16.5860
    16.8589  17.1434  17.2363  17.3702  17.4699  17.5829  17.7884  18.0524
    18.2387  18.2459  18.4785  18.5357  19.0241  19.0951  20.0274  20.4196

     occupation numbers
     1.0000   1.0000   1.0000   1.0000   1.0000   1.0000   1.0000   1.0000
     1.0000   1.0000   1.0000   1.0000   1.0000   1.0000   1.0000   1.0000
     1.0000   1.0000   1.0000   1.0000   1.0000   1.0000   1.0000   1.0000
     1.0000   1.0000   1.0000   1.0000   1.0000   1.0000   1.0000   1.0000
     1.0000   1.0000   1.0000   1.0000   1.0000   1.0000   1.0000   1.0000
     1.0000   1.0000   1.0000   1.0000   1.0000   1.0000   1.0000   1.0000
     1.0000   1.0000   1.0000   0.0000   0.0000   0.0000   0.0000   0.0000
     0.0000   0.0000   0.0000   0.0000   0.0000   0.0000   0.0000   0.0000

     highest occupied, lowest unoccupied level (ev):    17.8003   17.0449

!    total energy              =   -1117.98604517 Ry
     estimated scf accuracy    <       0.00000025 Ry

     The total energy is the sum of the following terms:
     one-electron contribution =    -422.64208092 Ry
     hartree contribution      =     268.92857038 Ry
     xc contribution           =    -153.27024478 Ry
     ewald contribution        =    -798.65071521 Ry
     one-center paw contrib.   =     -12.35157463 Ry
      -> PAW hartree energy AE =       0.00000000 Ry
      -> PAW hartree energy PS =       0.00000000 Ry
      -> PAW xc energy AE      =       0.00000000 Ry
      -> PAW xc energy PS      =       0.00000000 Ry
      -> total E_H with PAW    =     268.92857038 Ry
      -> total E_XC with PAW   =    -153.27024478 Ry

     convergence has been achieved in  18 iterations

     Writing all to output data dir calculations_bands/myprefix.save/

     General routines

     Parallel routines

     PAW routines

   This run was terminated on:   7: 7:11   5Jun2023

   JOB DONE.