     Program PWSCF v.7.0 starts on  6Jun2023 at 17:51:54

     K-points division:     npool     =       2
     R & G space division:  proc/nbgrp/npool/nimage =       4

     Reading input from espresso_19628.pwi
Warning: card &CELL ignored
Warning: card / ignored

     Current dimensions of program PWSCF are:
     Max number of different atomic species (ntypx) = 10
     Max number of k-points (npk) =  40000
     Max angular momentum in pseudopotentials (lmaxx) =  4
     file O.pbe-n-kjpaw_psl.0.1.UPF: wavefunction(s)  2P renormalized
     Message from routine setup:
     using ibrav=0 with symmetry is DISCOURAGED, use correct ibrav instead

     Using Slab Decomposition

     bravais-lattice index     =            0
     lattice parameter (alat)  =      12.6788  a.u.
     unit-cell volume          =    1442.4266 (a.u.)^3
     number of atoms/cell      =           10
     number of atomic types    =            3
     number of electrons       =       100.00
     number of Kohn-Sham states=           64
     kinetic-energy cutoff     =      30.0000  Ry
     charge density cutoff     =     240.0000  Ry
     scf convergence threshold =      1.0E-06
     mixing beta               =       0.7000
     number of iterations used =            8  plain     mixing
     Exchange-correlation= SLA  PW   PBX  PBC
                           (   1   4   3   4   0   0   0)

     celldm(1)=  12.678760  celldm(2)=   0.000000  celldm(3)=   0.000000
     celldm(4)=   0.000000  celldm(5)=   0.000000  celldm(6)=   0.000000

     crystal axes: (cart. coord. in units of alat)
               a(1) = (   1.000000   0.000000   0.000000 )
               a(2) = (  -0.001765   0.999998   0.000000 )
               a(3) = (  -0.497007  -0.502106   0.707724 )

     reciprocal axes: (cart. coord. in units 2 pi/alat)
               b(1) = (  1.000000  0.001765  0.703513 )
               b(2) = (  0.000000  1.000002  0.709467 )
               b(3) = (  0.000000  0.000000  1.412980 )

     PseudoPot. # 1 for Ca read from file:
     /home/pragov/projects/rrg-bengioy-ad/pragov/crystal_structure_design/SSSP/Ca_pbe_v1.uspp.F.UPF
     MD5 check sum: 403a4c14b9e4d4dfdc3024c9a3812218
     Pseudo is Ultrasoft + core correction, Zval = 10.0
     Generated by new atomic code, or converted to UPF format
     Using radial grid of  845 points,  6 beta functions with:
                l(1) =   0
                l(2) =   0
                l(3) =   1
                l(4) =   1
                l(5) =   2
                l(6) =   2
     Q(r) pseudized with  8 coefficients,  rinner =    1.500   1.500   1.500
                                                       1.500   1.500

     PseudoPot. # 2 for Ge read from file:
     /home/pragov/projects/rrg-bengioy-ad/pragov/crystal_structure_design/SSSP/ge_pbe_v1.4.uspp.F.UPF
     MD5 check sum: 9c9eaa91e581c3f09632fb3098b2c6b2
     Pseudo is Ultrasoft + core correction, Zval = 14.0
     Generated by new atomic code, or converted to UPF format
     Using radial grid of  873 points,  6 beta functions with:
                l(1) =   0
                l(2) =   0
                l(3) =   1
                l(4) =   1
                l(5) =   2
                l(6) =   2
     Q(r) pseudized with  8 coefficients,  rinner =    1.400   1.400   1.400
                                                       1.400   1.400

     PseudoPot. # 3 for O  read from file:
     /home/pragov/projects/rrg-bengioy-ad/pragov/crystal_structure_design/SSSP/O.pbe-n-kjpaw_psl.0.1.UPF
     MD5 check sum: 0234752ac141de4415c5fc33072bef88
     Pseudo is Projector augmented-wave + core cor, Zval =  6.0
     Generated using "atomic" code by A. Dal Corso  v.5.0.99 svn rev. 10869
     Shape of augmentation charge: BESSEL
     Using radial grid of 1095 points,  4 beta functions with:
                l(1) =   0
                l(2) =   0
                l(3) =   1
                l(4) =   1
     Q(r) pseudized with 0 coefficients

     atomic species   valence    mass     pseudopotential
        Ca            10.00    40.07800     Ca( 1.00)
        Ge            14.00    72.63000     Ge( 1.00)
        O              6.00    15.99900     O ( 1.00)

      2 Sym. Ops., with inversion, found

                                    s                        frac. trans.

      isym =  1     identity

 cryst.   s( 1) = (     1          0          0      )
                  (     0          1          0      )
                  (     0          0          1      )

 cart.    s( 1) = (  1.0000000 -0.0000000  0.0000000 )
                  (  0.0000000  1.0000000 -0.0000000 )
                  (  0.0000000  0.0000000  1.0000000 )

      isym =  2     inversion

 cryst.   s( 2) = (    -1          0          0      )
                  (     0         -1          0      )
                  (     0          0         -1      )

 cart.    s( 2) = ( -1.0000000  0.0000000 -0.0000000 )
                  (  0.0000000 -1.0000000  0.0000000 )
                  (  0.0000000  0.0000000 -1.0000000 )

   Cartesian axes

     site n.     atom                  positions (alat units)
         1           Ca  tau(   1) = (   0.0231544   0.0210844   0.3538621  )
         2           Ca  tau(   2) = (   0.7274599   0.2278616   0.0000000  )
         3           Ca  tau(   3) = (   0.2707753   0.7721368   0.0000000  )
         4           Ca  tau(   4) = (   0.4780741   0.4768077   0.3538621  )
         5           Ca  tau(   5) = (   0.5227787  -0.0227385   0.3844273  )
         6           Ca  tau(   6) = (  -0.0215503   0.5206306   0.3232969  )
         7           Ge  tau(   7) = (   0.2503530   0.2492068   0.0011175  )
         8           Ge  tau(   8) = (   0.2508754   0.2486853   0.7066067  )
         9           O   tau(   9) = (   0.7506142   0.2489460   0.3538621  )
        10           O   tau(  10) = (   0.2514966  -0.2510532   0.3538621  )

   Crystallographic axes

     site n.     atom                  positions (cryst. coord.)
         1           Ca  tau(   1) = (  0.2721380  0.2721380  0.5000000  )
         2           Ca  tau(   2) = (  0.7278620  0.2278620  0.0000000  )
         3           Ca  tau(   3) = (  0.2721380  0.7721380  0.0000000  )
         4           Ca  tau(   4) = (  0.7278620  0.7278620  0.5000000  )
         5           Ca  tau(   5) = (  0.7931880  0.2500000  0.5431880  )
         6           Ca  tau(   6) = (  0.2068120  0.7500000  0.4568120  )
         7           Ge  tau(   7) = (  0.2515790  0.2500000  0.0015790  )
         8           Ge  tau(   8) = (  0.7484210  0.7500000  0.9984210  )
         9           O   tau(   9) = (  1.0000000  0.5000000  0.5000000  )
        10           O   tau(  10) = (  0.5000000  0.0000000  0.5000000  )

     number of k points=    14
                       cart. coord. in units 2pi/alat
        k(    1) = (   0.0000000   0.0000000   0.0000000), wk =   0.0740741
        k(    2) = (   0.0000000   0.0000000   0.4709933), wk =   0.1481481
        k(    3) = (   0.0000000   0.3333339   0.2364891), wk =   0.1481481
        k(    4) = (   0.0000000   0.3333339   0.7074824), wk =   0.1481481
        k(    5) = (   0.0000000   0.3333339  -0.2345042), wk =   0.1481481
        k(    6) = (   0.3333333   0.0005883   0.2345042), wk =   0.1481481
        k(    7) = (   0.3333333   0.0005883   0.7054975), wk =   0.1481481
        k(    8) = (   0.3333333   0.0005883  -0.2364891), wk =   0.1481481
        k(    9) = (   0.3333333   0.3339221   0.4709933), wk =   0.1481481
        k(   10) = (   0.3333333   0.3339221   0.9419865), wk =   0.1481481
        k(   11) = (   0.3333333   0.3339221   0.0000000), wk =   0.1481481
        k(   12) = (   0.3333333  -0.3327456  -0.0019849), wk =   0.1481481
        k(   13) = (   0.3333333  -0.3327456   0.4690084), wk =   0.1481481
        k(   14) = (   0.3333333  -0.3327456  -0.4729782), wk =   0.1481481

                       cryst. coord.
        k(    1) = (   0.0000000   0.0000000   0.0000000), wk =   0.0740741
        k(    2) = (   0.0000000   0.0000000   0.3333333), wk =   0.1481481
        k(    3) = (   0.0000000   0.3333333   0.0000000), wk =   0.1481481
        k(    4) = (   0.0000000   0.3333333   0.3333333), wk =   0.1481481
        k(    5) = (   0.0000000   0.3333333  -0.3333333), wk =   0.1481481
        k(    6) = (   0.3333333  -0.0000000   0.0000000), wk =   0.1481481
        k(    7) = (   0.3333333  -0.0000000   0.3333333), wk =   0.1481481
        k(    8) = (   0.3333333  -0.0000000  -0.3333333), wk =   0.1481481
        k(    9) = (   0.3333333   0.3333333  -0.0000000), wk =   0.1481481
        k(   10) = (   0.3333333   0.3333333   0.3333333), wk =   0.1481481
        k(   11) = (   0.3333333   0.3333333  -0.3333333), wk =   0.1481481
        k(   12) = (   0.3333333  -0.3333333   0.0000000), wk =   0.1481481
        k(   13) = (   0.3333333  -0.3333333   0.3333333), wk =   0.1481481
        k(   14) = (   0.3333333  -0.3333333  -0.3333333), wk =   0.1481481

     Check: negative core charge=   -0.000005

     Initial potential from superposition of free atoms

     starting charge      99.9655, renormalised to     100.0000
     Starting wfcs are   86 randomized atomic wfcs
     Checking if some PAW data can be deallocated...

     Self-consistent Calculation

     iteration #  1     ecut=    30.00 Ry     beta= 0.70
     Davidson diagonalization with overlap

     ethr =  1.00E-02,  avg # of iterations =  2.0

     total energy              =    -960.30231915 Ry
     estimated scf accuracy    <       1.13429588 Ry

[...]

     c_bands:  1 eigenvalues not converged
     ethr =  2.52E-07,  avg # of iterations =  7.9

[...]

     total energy              =    -960.89041755 Ry
     estimated scf accuracy    <       0.00000176 Ry

     iteration # 10     ecut=    30.00 Ry     beta= 0.70
     Davidson diagonalization with overlap

     ethr =  1.76E-09,  avg # of iterations =  2.0

     End of self-consistent calculation

          k = 0.0000 0.0000 0.0000 (  3987 PWs)   bands (ev):

   -32.3526 -32.2912 -32.2868 -32.2746 -32.2578 -32.2484 -14.5812 -14.5785
   -14.5784 -14.5780 -14.5777 -14.5759 -14.5759 -14.5748 -14.5740 -14.5727
   -14.2600 -13.5958 -13.5753 -13.5689 -13.5251 -13.5214 -13.5169 -13.3120
   -13.3058 -13.2921 -13.1911 -13.1779 -13.1731 -13.1713 -13.1644 -13.1638
   -13.1575 -13.1536 -10.0796  -9.0334   0.9302   1.6549   3.5974   3.6219
     3.6278   4.8239   4.8428   4.8481   7.5037   7.5100   7.5190   8.8828
     8.9141   8.9346   9.0878   9.0887   9.8829   9.9190   9.9691  10.1306
    10.1316  10.1526  10.3095  11.8343  11.9566  11.9586  12.2949  12.5547

     occupation numbers
     1.0000   1.0000   1.0000   1.0000   1.0000   1.0000   1.0000   1.0000
     1.0000   1.0000   1.0000   1.0000   1.0000   1.0000   1.0000   1.0000
     1.0000   1.0000   1.0000   1.0000   1.0000   1.0000   1.0000   1.0000
     1.0000   1.0000   1.0000   1.0000   1.0000   1.0000   1.0000   1.0000
     1.0000   1.0000   1.0000   1.0000   1.0000   1.0000   1.0000   1.0000
     1.0000   1.0000   1.0000   1.0000   1.0000   1.0000   1.0000   1.0000
     1.0000   1.0000   0.0000   0.0000   0.0000   0.0000   0.0000   0.0000
     0.0000   0.0000   0.0000   0.0000   0.0000   0.0000   0.0000   0.0000

[...]

          k = 0.3333-0.3327-0.4730 (  4013 PWs)   bands (ev):

   -32.3145 -32.3119 -32.2834 -32.2755 -32.2657 -32.2609 -14.5838 -14.5828
   -14.5823 -14.5823 -14.5802 -14.5785 -14.5778 -14.5767 -14.5764 -14.5761
   -13.8488 -13.8362 -13.4830 -13.4603 -13.4516 -13.4312 -13.4132 -13.4130
   -13.3871 -13.3292 -13.3289 -13.2684 -13.2533 -13.2432 -13.2275 -13.2098
   -13.2038 -13.1682  -9.5052  -9.4939   1.4845   1.4862   3.8397   3.9637
     4.0289   4.3693   4.4376   4.6442   6.3662   6.7560   7.0955   7.5988
     7.8926   8.1327  10.4072  10.5996  10.6967  10.7200  10.9205  11.1392
    11.2170  11.2352  11.6549  11.6666  12.0187  12.1758  12.3429  12.5477

     occupation numbers
     1.0000   1.0000   1.0000   1.0000   1.0000   1.0000   1.0000   1.0000
     1.0000   1.0000   1.0000   1.0000   1.0000   1.0000   1.0000   1.0000
     1.0000   1.0000   1.0000   1.0000   1.0000   1.0000   1.0000   1.0000
     1.0000   1.0000   1.0000   1.0000   1.0000   1.0000   1.0000   1.0000
     1.0000   1.0000   1.0000   1.0000   1.0000   1.0000   1.0000   1.0000
     1.0000   1.0000   1.0000   1.0000   1.0000   1.0000   1.0000   1.0000
     1.0000   1.0000   0.0000   0.0000   0.0000   0.0000   0.0000   0.0000
     0.0000   0.0000   0.0000   0.0000   0.0000   0.0000   0.0000   0.0000

     highest occupied, lowest unoccupied level (ev):     8.9346    9.0878

!    total energy              =    -960.89041772 Ry
     estimated scf accuracy    <       0.00000008 Ry

     The total energy is the sum of the following terms:
     one-electron contribution =    -452.30061357 Ry
     hartree contribution      =     275.25442921 Ry
     xc contribution           =    -203.26675014 Ry
     ewald contribution        =    -561.53517604 Ry
     one-center paw contrib.   =     -19.04230718 Ry
      -> PAW hartree energy AE =       0.00000000 Ry
      -> PAW hartree energy PS =       0.00000000 Ry
      -> PAW xc energy AE      =       0.00000000 Ry
      -> PAW xc energy PS      =       0.00000000 Ry
      -> total E_H with PAW    =     275.25442921 Ry
      -> total E_XC with PAW   =    -203.26675014 Ry

     convergence has been achieved in  10 iterations

     Writing all to output data dir calculations_bands/myprefix.save/

     General routines

     Parallel routines

     PAW routines

   This run was terminated on:  17:52:20   6Jun2023

   JOB DONE.