     Program PWSCF v.7.0 starts on  6Jun2023 at 15:22:21

     K-points division:     npool     =       2
     R & G space division:  proc/nbgrp/npool/nimage =       4

     Reading input from espresso_19233.pwi
Warning: card &CELL ignored
Warning: card / ignored

     Current dimensions of program PWSCF are:
     Max number of different atomic species (ntypx) = 10
     Max number of k-points (npk) =  40000
     Max angular momentum in pseudopotentials (lmaxx) =  4
     file Fe.pbe-spn-kjpaw_psl.0.2.1.UPF: wavefunction(s)  3D renormalized
     Message from routine setup:
     using ibrav=0 with symmetry is DISCOURAGED, use correct ibrav instead

     Using Slab Decomposition

     bravais-lattice index     =            0
     lattice parameter (alat)  =      10.8346  a.u.
     unit-cell volume          =     561.3042 (a.u.)^3
     number of atoms/cell      =            5
     number of atomic types    =            4
     number of electrons       =        54.00
     number of Kohn-Sham states=           64
     kinetic-energy cutoff     =      30.0000  Ry
     charge density cutoff     =     240.0000  Ry
     scf convergence threshold =      1.0E-06
     mixing beta               =       0.7000
     number of iterations used =            8  plain     mixing
     Exchange-correlation= SLA  PW   PBE  PBE
                           (   1   4   3   4   0   0   0)

     celldm(1)=  10.834592  celldm(2)=   0.000000  celldm(3)=   0.000000
     celldm(4)=   0.000000  celldm(5)=   0.000000  celldm(6)=   0.000000

     crystal axes: (cart. coord. in units of alat)
               a(1) = (   1.000000   0.000000   0.000000 )
               a(2) = (   0.488421   0.872608   0.000000 )
               a(3) = (  -0.744210  -0.436304   0.505756 )

     reciprocal axes: (cart. coord. in units 2 pi/alat)
               b(1) = (  1.000000 -0.559725  0.988618 )
               b(2) = (  0.000000  1.145990  0.988618 )
               b(3) = (  0.000000  0.000000  1.977236 )

     PseudoPot. # 1 for Nd read from file:
     /home/pragov/projects/rrg-bengioy-ad/pragov/crystal_structure_design/SSSP/Nd.GGA-PBE-paw-v1.0.UPF
     MD5 check sum: 1d1e94942b6eb1cde76049b71bb7dcb0
     Pseudo is Projector augmented-wave + core cor, Zval = 14.0
     Generated using ATOMPAW code
     Shape of augmentation charge: BESSEL
     Using radial grid of 1105 points,  8 beta functions with:
                l(1) =   0
                l(2) =   0
                l(3) =   1
                l(4) =   1
                l(5) =   2
                l(6) =   2
                l(7) =   3
                l(8) =   3
     Q(r) pseudized with 0 coefficients

     PseudoPot. # 2 for Fe read from file:
     /home/pragov/projects/rrg-bengioy-ad/pragov/crystal_structure_design/SSSP/Fe.pbe-spn-kjpaw_psl.0.2.1.UPF
     MD5 check sum: e86618425769142926afa95317d90200
     Pseudo is Projector augmented-wave + core cor, Zval = 16.0
     Generated using "atomic" code by A. Dal Corso  v.5.0.99 svn rev. 10869
     Shape of augmentation charge: PSQ
     Using radial grid of 1191 points,  6 beta functions with:
                l(1) =   0
                l(2) =   0
                l(3) =   1
                l(4) =   1
                l(5) =   2
                l(6) =   2
     Q(r) pseudized with 0 coefficients

     PseudoPot. # 3 for Si read from file:
     /home/pragov/projects/rrg-bengioy-ad/pragov/crystal_structure_design/SSSP/Si.pbe-n-rrkjus_psl.1.0.0.UPF
     MD5 check sum: 0b0bb1205258b0d07b9f9672cf965d36
     Pseudo is Ultrasoft + core correction, Zval =  4.0
     Generated using "atomic" code by A. Dal Corso  v.5.1
     Using radial grid of 1141 points,  6 beta functions with:
                l(1) =   0
                l(2) =   0
                l(3) =   1
                l(4) =   1
                l(5) =   2
                l(6) =   2
     Q(r) pseudized with 0 coefficients

     PseudoPot. # 4 for Os read from file:
     /home/pragov/projects/rrg-bengioy-ad/pragov/crystal_structure_design/SSSP/Os_pbe_v1.2.uspp.F.UPF
     MD5 check sum: a3fb40a04f0c37c25c34bbc47164c9a8
     Pseudo is Ultrasoft + core correction, Zval = 16.0
     Generated by new atomic code, or converted to UPF format
     Using radial grid of  983 points,  8 beta functions with:
                l(1) =   0
                l(2) =   0
                l(3) =   1
                l(4) =   1
                l(5) =   2
                l(6) =   2
                l(7) =   3
                l(8) =   3
     Q(r) pseudized with  8 coefficients,  rinner =    1.150   1.150   1.150
                                                       1.150   1.150   1.150
                                                       1.150

     atomic species   valence    mass     pseudopotential
        Nd            14.00   144.24200     Nd( 1.00)
        Fe            16.00    55.84500     Fe( 1.00)
        Si             4.00    28.08500     Si( 1.00)
        Os            16.00   190.23000     Os( 1.00)

      2 Sym. Ops. (no inversion) found

                                    s                        frac. trans.

      isym =  1     identity

 cryst.   s( 1) = (     1          0          0      )
                  (     0          1          0      )
                  (     0          0          1      )

 cart.    s( 1) = (  1.0000000  0.0000000 -0.0000000 )
                  (  0.0000000  1.0000000 -0.0000000 )
                  (  0.0000000  0.0000000  1.0000000 )

      isym =  2     180 deg rotation - cart. axis [0,0,1]

 cryst.   s( 2) = (    -1          0          0      )
                  (     0         -1          0      )
                  (     1          1          1      )

 cart.    s( 2) = ( -1.0000000 -0.0000000 -0.0000000 )
                  (  0.0000000 -1.0000000 -0.0000000 )
                  (  0.0000000  0.0000000  1.0000000 )

   Cartesian axes

     site n.     atom                  positions (alat units)
         1           Nd  tau(   1) = (   0.0000000   0.0000000   0.0000000  )
         2           Fe  tau(   2) = (   0.2442105   0.4363041   0.2528782  )
         3           Si  tau(   3) = (   0.9431707   0.5529474   0.0000000  )
         4           Si  tau(   4) = (   0.5452503   0.3196608   0.0000000  )
         5           Os  tau(   5) = (   0.5000000   0.0000000   0.2528782  )

   Crystallographic axes

     site n.     atom                  positions (cryst. coord.)
         1           Nd  tau(   1) = (  0.0000000  0.0000000  0.0000000  )
         2           Fe  tau(   2) = (  0.2500000  0.7500000  0.5000000  )
         3           Si  tau(   3) = (  0.6336720  0.6336720  0.0000000  )
         4           Si  tau(   4) = (  0.3663280  0.3663280  0.0000000  )
         5           Os  tau(   5) = (  0.7500000  0.2500000  0.5000000  )

     number of k points=    10
                       cart. coord. in units 2pi/alat
        k(    1) = (   0.0000000   0.0000000   0.0000000), wk =   0.0740741
        k(    2) = (   0.0000000   0.0000000   0.6590788), wk =   0.1481481
        k(    3) = (   0.0000000   0.3819966   0.3295394), wk =   0.2962963
        k(    4) = (   0.0000000   0.3819966   0.9886182), wk =   0.1481481
        k(    5) = (   0.3333333  -0.1865751   0.3295394), wk =   0.2962963
        k(    6) = (   0.3333333  -0.1865751   0.9886182), wk =   0.1481481
        k(    7) = (   0.3333333   0.1954215   0.6590788), wk =   0.2962963
        k(    8) = (   0.3333333   0.1954215   0.0000000), wk =   0.1481481
        k(    9) = (   0.3333333  -0.5685717  -0.0000000), wk =   0.1481481
        k(   10) = (   0.3333333  -0.5685717   0.6590788), wk =   0.2962963

                       cryst. coord.
        k(    1) = (   0.0000000   0.0000000   0.0000000), wk =   0.0740741
        k(    2) = (   0.0000000   0.0000000   0.3333333), wk =   0.1481481
        k(    3) = (   0.0000000   0.3333333   0.0000000), wk =   0.2962963
        k(    4) = (   0.0000000   0.3333333   0.3333333), wk =   0.1481481
        k(    5) = (   0.3333333   0.0000000  -0.0000000), wk =   0.2962963
        k(    6) = (   0.3333333   0.0000000   0.3333333), wk =   0.1481481
        k(    7) = (   0.3333333   0.3333333  -0.0000000), wk =   0.2962963
        k(    8) = (   0.3333333   0.3333333  -0.3333333), wk =   0.1481481
        k(    9) = (   0.3333333  -0.3333333  -0.0000000), wk =   0.1481481
        k(   10) = (   0.3333333  -0.3333333   0.3333333), wk =   0.2962963

     Check: negative core charge=   -0.000070

     Initial potential from superposition of free atoms

     starting charge      53.4922, renormalised to      54.0000

     negative rho (up, down):  1.254E-01 0.000E+00
     Starting wfcs are   66 randomized atomic wfcs
     Checking if some PAW data can be deallocated...

     Self-consistent Calculation

     iteration #  1     ecut=    30.00 Ry     beta= 0.70
     Davidson diagonalization with overlap

     ethr =  1.00E-02,  avg # of iterations =  6.0

     negative rho (up, down):  1.156E-01 0.000E+00

     total energy              =   -1084.01800285 Ry
     estimated scf accuracy    <       4.20398285 Ry

[...]

     total energy              =   -1087.83898980 Ry
     estimated scf accuracy    <       0.00000427 Ry

     iteration # 33     ecut=    30.00 Ry     beta= 0.70
     Davidson diagonalization with overlap

     ethr =  2.52E-09,  avg # of iterations =  1.0

     negative rho (up, down):  1.217E-01 0.000E+00

     End of self-consistent calculation

          k = 0.0000 0.0000 0.0000 (  1573 PWs)   bands (ev):

   -71.7332 -70.6875 -37.4432 -37.4282 -37.2036 -30.1496 -30.1440 -30.0274
   -21.8892  -3.1812  -3.0646  -3.0435   4.3863   7.7023   9.3372  11.3699
    11.3730  11.7310  13.0310  13.3665  13.3681  13.6621  14.4670  14.6303
    14.6356  14.6392  14.7852  14.7877  14.9178  15.0541  15.2006  15.2134
    15.2539  15.3991  15.9467  18.5162  18.5176  18.5562  19.7284  19.7986
    20.9848  21.6622  21.6645  22.6961  24.5181  24.8470  24.8482  25.5209
    25.8757  25.8765  26.7282  27.4668  29.7315  29.7334  29.9481  30.1925
    30.3771  34.4815  34.7026  35.3037  35.3041  36.9106  37.8763  37.9857

     occupation numbers
     1.0000   1.0000   1.0000   1.0000   1.0000   1.0000   1.0000   1.0000
     1.0000   1.0000   1.0000   1.0000   1.0000   1.0000   1.0000   1.0000
     1.0000   1.0000   1.0000   1.0000   1.0000   1.0000   1.0000   1.0000
     1.0000   1.0000   1.0000   0.0000   0.0000   0.0000   0.0000   0.0000
     0.0000   0.0000   0.0000   0.0000   0.0000   0.0000   0.0000   0.0000
     0.0000   0.0000   0.0000   0.0000   0.0000   0.0000   0.0000   0.0000
     0.0000   0.0000   0.0000   0.0000   0.0000   0.0000   0.0000   0.0000
     0.0000   0.0000   0.0000   0.0000   0.0000   0.0000   0.0000   0.0000

[...]

          k = 0.3333-0.5686 0.6591 (  1565 PWs)   bands (ev):

   -71.7324 -70.6875 -37.4324 -37.4162 -37.2140 -30.1526 -30.1452 -30.0283
   -21.8780  -3.2781  -3.2039  -3.0240   6.3199   6.5007  10.3187  11.0716
    11.3930  11.4194  11.7471  12.7122  12.7315  13.6296  13.7677  14.0664
    14.1001  14.6534  14.9119  15.0357  15.0604  15.1265  15.2074  15.2889
    16.0242  16.7165  17.0724  17.6787  18.6047  18.6569  19.1503  19.7210
    20.1468  20.4621  21.8909  23.9214  24.3702  24.7070  25.6438  26.3952
    26.6894  27.5783  27.8188  28.7059  28.8033  29.2142  30.9969  31.5201
    32.0208  33.5368  33.8871  34.8633  34.8994  36.3239  36.4364  37.6688

     occupation numbers
     1.0000   1.0000   1.0000   1.0000   1.0000   1.0000   1.0000   1.0000
     1.0000   1.0000   1.0000   1.0000   1.0000   1.0000   1.0000   1.0000
     1.0000   1.0000   1.0000   1.0000   1.0000   1.0000   1.0000   1.0000
     1.0000   1.0000   1.0000   0.0000   0.0000   0.0000   0.0000   0.0000
     0.0000   0.0000   0.0000   0.0000   0.0000   0.0000   0.0000   0.0000
     0.0000   0.0000   0.0000   0.0000   0.0000   0.0000   0.0000   0.0000
     0.0000   0.0000   0.0000   0.0000   0.0000   0.0000   0.0000   0.0000
     0.0000   0.0000   0.0000   0.0000   0.0000   0.0000   0.0000   0.0000

     highest occupied, lowest unoccupied level (ev):    14.9994   14.7877

!    total energy              =   -1087.83898981 Ry
     estimated scf accuracy    <       0.00000026 Ry

     The total energy is the sum of the following terms:
     one-electron contribution =    -258.28047919 Ry
     hartree contribution      =     162.85480782 Ry
     xc contribution           =     -98.59500721 Ry
     ewald contribution        =    -387.68189434 Ry
     one-center paw contrib.   =    -506.13641689 Ry
      -> PAW hartree energy AE =      80.62884280 Ry
      -> PAW hartree energy PS =     -80.31537966 Ry
      -> PAW xc energy AE      =    -442.86489772 Ry
      -> PAW xc energy PS      =      12.48785055 Ry
      -> total E_H with PAW    =     163.16827096 Ry
      -> total E_XC with PAW   =    -528.97205437 Ry

     convergence has been achieved in  33 iterations

     Writing all to output data dir calculations_bands/myprefix.save/

     General routines

     Parallel routines

     PAW routines

   This run was terminated on:  15:23: 0   6Jun2023

   JOB DONE.