     Program PWSCF v.7.0 starts on  6Jun2023 at 13:37:52

     K-points division:     npool     =       2
     R & G space division:  proc/nbgrp/npool/nimage =       4

     Reading input from espresso_16820.pwi
Warning: card &CELL ignored
Warning: card / ignored

     Current dimensions of program PWSCF are:
     Max number of different atomic species (ntypx) = 10
     Max number of k-points (npk) =  40000
     Max angular momentum in pseudopotentials (lmaxx) =  4
     Message from routine setup:
     using ibrav=0 with symmetry is DISCOURAGED, use correct ibrav instead

     Using Slab Decomposition

     bravais-lattice index     =            0
     lattice parameter (alat)  =       9.3927  a.u.
     unit-cell volume          =    1695.7465 (a.u.)^3
     number of atoms/cell      =           16
     number of atomic types    =            2
     number of electrons       =        64.00
     number of Kohn-Sham states=           64
     kinetic-energy cutoff     =      30.0000  Ry
     charge density cutoff     =     240.0000  Ry
     scf convergence threshold =      1.0E-06
     mixing beta               =       0.7000
     number of iterations used =            8  plain     mixing
     Exchange-correlation= PBE
                           (   1   4   3   4   0   0   0)

     celldm(1)=   9.392666  celldm(2)=   0.000000  celldm(3)=   0.000000
     celldm(4)=   0.000000  celldm(5)=   0.000000  celldm(6)=   0.000000

     crystal axes: (cart. coord. in units of alat)
               a(1) = (   1.000000   0.000000   0.000000 )
               a(2) = (   0.000000   1.125440   0.000000 )
               a(3) = (   0.000000   0.973161   1.818326 )

     reciprocal axes: (cart. coord. in units 2 pi/alat)
               b(1) = (  1.000000  0.000000  0.000000 )
               b(2) = (  0.000000  0.888541 -0.475544 )
               b(3) = (  0.000000  0.000000  0.549956 )

     PseudoPot. # 1 for Li read from file:
     /home/pragov/projects/rrg-bengioy-ad/pragov/crystal_structure_design/SSSP/li_pbe_v1.4.uspp.F.UPF
     MD5 check sum: e912e257baa3777c20ea3d68f190483c
     Pseudo is Ultrasoft, Zval =  3.0
     Generated by new atomic code, or converted to UPF format
     Using radial grid of  751 points,  5 beta functions with:
                l(1) =   0
                l(2) =   0
                l(3) =   0
                l(4) =   1
                l(5) =   1
     Q(r) pseudized with 10 coefficients,  rinner =    1.150   1.150   1.150

     PseudoPot. # 2 for P  read from file:
     /home/pragov/projects/rrg-bengioy-ad/pragov/crystal_structure_design/SSSP/P.pbe-n-rrkjus_psl.1.0.0.UPF
     MD5 check sum: 8b930f418f0a4573dca56cd030ffe088
     Pseudo is Ultrasoft + core correction, Zval =  5.0
     Generated using "atomic" code by A. Dal Corso  v.5.1
     Using radial grid of 1147 points,  6 beta functions with:
                l(1) =   0
                l(2) =   0
                l(3) =   1
                l(4) =   1
                l(5) =   2
                l(6) =   2
     Q(r) pseudized with 0 coefficients

     atomic species   valence    mass     pseudopotential
        Li             3.00     6.94000     Li( 1.00)
        P              5.00    30.97376     P ( 1.00)

      4 Sym. Ops., with inversion, found ( 2 have fractional translation)

                                    s                        frac. trans.

      isym =  1     identity

 cryst.   s( 1) = (     1          0          0      )
                  (     0          1          0      )
                  (     0          0          1      )

 cart.    s( 1) = (  1.0000000  0.0000000  0.0000000 )
                  (  0.0000000  1.0000000 -0.0000000 )
                  (  0.0000000  0.0000000  1.0000000 )

      isym =  2     180 deg rotation - cart. axis [1,0,0]

 cryst.   s( 2) = (     1          0          0      )    f =(  0.5000000 )
                  (     0         -1          0      )       (  0.0000000 )
                  (     0          0         -1      )       ( -0.5000000 )

 cart.    s( 2) = (  1.0000000  0.0000000  0.0000000 )    f =(  0.5000000 )
                  (  0.0000000 -1.0000000  0.0000000 )       ( -0.4865805 )
                  (  0.0000000  0.0000000 -1.0000000 )       ( -0.9091630 )

      isym =  3     inversion

 cryst.   s( 3) = (    -1          0          0      )
                  (     0         -1          0      )
                  (     0          0         -1      )

 cart.    s( 3) = ( -1.0000000  0.0000000  0.0000000 )
                  (  0.0000000 -1.0000000  0.0000000 )
                  (  0.0000000  0.0000000 -1.0000000 )

      isym =  4     inv. 180 deg rotation - cart. axis [1,0,0]

 cryst.   s( 4) = (    -1          0          0      )    f =(  0.5000000 )
                  (     0          1          0      )       (  0.0000000 )
                  (     0          0          1      )       (  0.5000000 )

 cart.    s( 4) = ( -1.0000000  0.0000000  0.0000000 )    f =(  0.5000000 )
                  (  0.0000000  1.0000000 -0.0000000 )       (  0.4865805 )
                  (  0.0000000  0.0000000  1.0000000 )       (  0.9091630 )

   Cartesian axes

     site n.     atom                  positions (alat units)
         1           Li  tau(   1) = (   0.6117530   0.8969287   1.2195512  )
         2           Li  tau(   2) = (   0.1117530   1.6882533   1.5079377  )
         3           Li  tau(   3) = (   0.3882470   1.2016727   0.5987747  )
         4           Li  tau(   4) = (   0.8882470   0.4103482   0.3103882  )
         5           Li  tau(   5) = (   0.3416840   1.1982629   1.7641653  )
         6           Li  tau(   6) = (   0.8416840   1.3869190   0.9633236  )
         7           Li  tau(   7) = (   0.6583160   0.9003385   0.0541607  )
         8           Li  tau(   8) = (   0.1583160   0.7116824   0.8550023  )
         9           P   tau(   9) = (   0.1050960   1.0444717   1.2857092  )
        10           P   tau(  10) = (   0.6050960   1.5407103   1.4417797  )
        11           P   tau(  11) = (   0.8949040   1.0541298   0.5326168  )
        12           P   tau(  12) = (   0.3949040   0.5578911   0.3765462  )
        13           P   tau(  13) = (   0.8439730   1.2056313   1.6151426  )
        14           P   tau(  14) = (   0.3439730   1.3795506   1.1123463  )
        15           P   tau(  15) = (   0.1560270   0.8929701   0.2031834  )
        16           P   tau(  16) = (   0.6560270   0.7190508   0.7059796  )

   Crystallographic axes

     site n.     atom                  positions (cryst. coord.)
         1           Li  tau(   1) = (  0.6117530  0.2170080  0.6707000  )
         2           Li  tau(   2) = (  0.1117530  0.7829920  0.8293000  )
         3           Li  tau(   3) = (  0.3882470  0.7829920  0.3293000  )
         4           Li  tau(   4) = (  0.8882470  0.2170080  0.1707000  )
         5           Li  tau(   5) = (  0.3416840  0.2257680  0.9702140  )
         6           Li  tau(   6) = (  0.8416840  0.7742320  0.5297860  )
         7           Li  tau(   7) = (  0.6583160  0.7742320  0.0297860  )
         8           Li  tau(   8) = (  0.1583160  0.2257680  0.4702140  )
         9           P   tau(   9) = (  0.1050960  0.3166450  0.7070840  )
        10           P   tau(  10) = (  0.6050960  0.6833550  0.7929160  )
        11           P   tau(  11) = (  0.8949040  0.6833550  0.2929160  )
        12           P   tau(  12) = (  0.3949040  0.3166450  0.2070840  )
        13           P   tau(  13) = (  0.8439730  0.3031820  0.8882580  )
        14           P   tau(  14) = (  0.3439730  0.6968180  0.6117420  )
        15           P   tau(  15) = (  0.1560270  0.6968180  0.1117420  )
        16           P   tau(  16) = (  0.6560270  0.3031820  0.3882580  )

     number of k points=    10
                       cart. coord. in units 2pi/alat
        k(    1) = (   0.0000000   0.0000000   0.0000000), wk =   0.0740741
        k(    2) = (   0.0000000   0.0000000   0.1833188), wk =   0.1481481
        k(    3) = (   0.0000000   0.2961804  -0.1585146), wk =   0.1481481
        k(    4) = (   0.0000000   0.2961804   0.0248042), wk =   0.1481481
        k(    5) = (   0.0000000   0.2961804  -0.3418334), wk =   0.1481481
        k(    6) = (   0.3333333   0.0000000   0.0000000), wk =   0.1481481
        k(    7) = (   0.3333333   0.0000000   0.1833188), wk =   0.2962963
        k(    8) = (   0.3333333   0.2961804  -0.1585146), wk =   0.2962963
        k(    9) = (   0.3333333   0.2961804   0.0248042), wk =   0.2962963
        k(   10) = (   0.3333333   0.2961804  -0.3418334), wk =   0.2962963

                       cryst. coord.
        k(    1) = (   0.0000000   0.0000000   0.0000000), wk =   0.0740741
        k(    2) = (   0.0000000   0.0000000   0.3333333), wk =   0.1481481
        k(    3) = (   0.0000000   0.3333333   0.0000000), wk =   0.1481481
        k(    4) = (   0.0000000   0.3333333   0.3333333), wk =   0.1481481
        k(    5) = (   0.0000000   0.3333333  -0.3333333), wk =   0.1481481
        k(    6) = (   0.3333333   0.0000000   0.0000000), wk =   0.1481481
        k(    7) = (   0.3333333   0.0000000   0.3333333), wk =   0.2962963
        k(    8) = (   0.3333333   0.3333333   0.0000000), wk =   0.2962963
        k(    9) = (   0.3333333   0.3333333   0.3333333), wk =   0.2962963
        k(   10) = (   0.3333333   0.3333333  -0.3333333), wk =   0.2962963

     Initial potential from superposition of free atoms

     starting charge      60.3928, renormalised to      64.0000
     Starting wfcs are   72 randomized atomic wfcs

     Self-consistent Calculation

     iteration #  1     ecut=    30.00 Ry     beta= 0.70
     Davidson diagonalization with overlap

     ethr =  1.00E-02,  avg # of iterations =  6.1

     Threshold (ethr) on eigenvalues was too large:
     Diagonalizing with lowered threshold

     Davidson diagonalization with overlap

[...]

     total energy              =    -228.71893232 Ry
     estimated scf accuracy    <       0.35501218 Ry

[...]

     c_bands:  2 eigenvalues not converged
     ethr =  2.52E-07,  avg # of iterations = 12.1

[...]

     total energy              =    -228.76873872 Ry
     estimated scf accuracy    <       0.00000269 Ry

     iteration #  7     ecut=    30.00 Ry     beta= 0.70
     Davidson diagonalization with overlap

     ethr =  4.20E-09,  avg # of iterations =  2.6

     End of self-consistent calculation

          k = 0.0000 0.0000 0.0000 (  4689 PWs)   bands (ev):

   -40.7487 -40.7473 -40.7383 -40.7381 -40.7225 -40.7221 -40.7203 -40.7200
    -8.1249  -7.8364  -5.5396  -5.1676  -5.0177  -4.8927  -1.4720  -1.2569
    -0.1417   0.4723   0.6755   0.7346   1.4306   1.7509   1.9429   2.1949
     2.7301   3.2138   3.3648   3.6311   4.0876   4.1801   4.3273   5.1585
     6.2693   6.5510   6.9489   7.0651   7.4107   8.2255   8.2305   8.4973
     9.1241   9.2747   9.6934   9.9928  10.0530  10.2080  10.5265  10.8088
    10.8257  11.5895  11.8753  12.0944  12.2511  12.7276  13.1745  13.4516
    13.8219  14.0084  14.4382  14.6078  14.9003  14.9723  15.0941  15.1566

     occupation numbers
     1.0000   1.0000   1.0000   1.0000   1.0000   1.0000   1.0000   1.0000
     1.0000   1.0000   1.0000   1.0000   1.0000   1.0000   1.0000   1.0000
     1.0000   1.0000   1.0000   1.0000   1.0000   1.0000   1.0000   1.0000
     1.0000   1.0000   1.0000   1.0000   1.0000   1.0000   1.0000   1.0000
     0.0000   0.0000   0.0000   0.0000   0.0000   0.0000   0.0000   0.0000
     0.0000   0.0000   0.0000   0.0000   0.0000   0.0000   0.0000   0.0000
     0.0000   0.0000   0.0000   0.0000   0.0000   0.0000   0.0000   0.0000
     0.0000   0.0000   0.0000   0.0000   0.0000   0.0000   0.0000   0.0000

[...]

          k = 0.3333 0.2962-0.3418 (  4708 PWs)   bands (ev):

   -40.7477 -40.7471 -40.7394 -40.7388 -40.7225 -40.7222 -40.7211 -40.7208
    -7.5930  -7.4963  -6.6271  -6.4288  -4.1230  -3.6826  -2.5898  -2.2593
     0.0842   0.4532   0.7042   0.9966   1.3100   1.6362   1.8842   2.3338
     3.0994   3.3040   3.6270   3.7996   4.1625   4.4877   4.8055   5.1053
     6.9080   7.1095   7.5379   7.9272   8.0223   8.3251   8.7021   8.8496
     9.1953   9.4722   9.6214   9.9068  10.2886  10.4461  10.5931  10.8511
    11.1397  11.4222  11.6157  11.8321  12.3596  12.5295  12.6373  12.8968
    13.0766  13.3488  13.4982  13.9554  14.0913  14.2658  14.5125  14.7663

     occupation numbers
     1.0000   1.0000   1.0000   1.0000   1.0000   1.0000   1.0000   1.0000
     1.0000   1.0000   1.0000   1.0000   1.0000   1.0000   1.0000   1.0000
     1.0000   1.0000   1.0000   1.0000   1.0000   1.0000   1.0000   1.0000
     1.0000   1.0000   1.0000   1.0000   1.0000   1.0000   1.0000   1.0000
     0.0000   0.0000   0.0000   0.0000   0.0000   0.0000   0.0000   0.0000
     0.0000   0.0000   0.0000   0.0000   0.0000   0.0000   0.0000   0.0000
     0.0000   0.0000   0.0000   0.0000   0.0000   0.0000   0.0000   0.0000
     0.0000   0.0000   0.0000   0.0000   0.0000   0.0000   0.0000   0.0000

     highest occupied, lowest unoccupied level (ev):     5.4110    6.2693

!    total energy              =    -228.76873967 Ry
     estimated scf accuracy    <       0.00000008 Ry

     The total energy is the sum of the following terms:
     one-electron contribution =     -47.29625628 Ry
     hartree contribution      =      35.65575208 Ry
     xc contribution           =     -62.57427034 Ry
     ewald contribution        =    -154.55396513 Ry

     convergence has been achieved in   7 iterations

     Writing all to output data dir calculations_bands/myprefix.save/

     General routines

     Parallel routines

   This run was terminated on:  13:38: 5   6Jun2023

   JOB DONE.