     Program PWSCF v.7.0 starts on 23Jun2023 at  0:35:43

     K-points division:     npool     =       2
     R & G space division:  proc/nbgrp/npool/nimage =       4

     Reading input from espresso_1545.pwi
Warning: card &CELL ignored
Warning: card / ignored

     Current dimensions of program PWSCF are:
     Max number of different atomic species (ntypx) = 10
     Max number of k-points (npk) =  40000
     Max angular momentum in pseudopotentials (lmaxx) =  4
     Message from routine setup:
     using ibrav=0 with symmetry is DISCOURAGED, use correct ibrav instead

     Using Slab Decomposition

     bravais-lattice index     =            0
     lattice parameter (alat)  =      13.9695  a.u.
     unit-cell volume          =    1898.2590 (a.u.)^3
     number of atoms/cell      =            8
     number of atomic types    =            2
     number of electrons       =       122.00
     number of Kohn-Sham states=           64
     kinetic-energy cutoff     =      30.0000  Ry
     charge density cutoff     =     240.0000  Ry
     scf convergence threshold =      1.0E-06
     mixing beta               =       0.7000
     number of iterations used =            8  plain     mixing
     Exchange-correlation= SLA PW PBX PBC
                           (   1   4   3   4   0   0   0)

     celldm(1)=  13.969478  celldm(2)=   0.000000  celldm(3)=   0.000000
     celldm(4)=   0.000000  celldm(5)=   0.000000  celldm(6)=   0.000000

     crystal axes: (cart. coord. in units of alat)
               a(1) = (   1.000000   0.000000   0.000000 )
               a(2) = (  -0.500000   0.866025   0.000000 )
               a(3) = (   0.000000   0.000000   0.804052 )

     reciprocal axes: (cart. coord. in units 2 pi/alat)
               b(1) = (  1.000000  0.577350  0.000000 )
               b(2) = (  0.000000  1.154700  0.000000 )
               b(3) = (  0.000000  0.000000  1.243700 )

     PseudoPot. # 1 for Pr read from file:
     /home/pragov/projects/rrg-bengioy-ad/pragov/crystal_structure_design/SSSP/Pr.GGA-PBE-paw-v1.0.UPF
     MD5 check sum: b5e1e58e76df433569641143f671cc27
     Pseudo is Projector augmented-wave + core cor, Zval = 13.0
     Generated using ATOMPAW code
     Shape of augmentation charge: BESSEL
     Using radial grid of 1103 points,  8 beta functions with:
                l(1) =   0
                l(2) =   0
                l(3) =   1
                l(4) =   1
                l(5) =   2
                l(6) =   2
                l(7) =   3
                l(8) =   3
     Q(r) pseudized with 0 coefficients

     PseudoPot. # 2 for Er read from file:
     /home/pragov/projects/rrg-bengioy-ad/pragov/crystal_structure_design/SSSP/Er.GGA-PBE-paw-v1.0.UPF
     MD5 check sum: 5952a841f12bc97f67d25f9d1b2e7e35
     Pseudo is Projector augmented-wave + core cor, Zval = 22.0
     Generated using ATOMPAW code
     Shape of augmentation charge: BESSEL
     Using radial grid of 1114 points,  8 beta functions with:
                l(1) =   0
                l(2) =   0
                l(3) =   1
                l(4) =   1
                l(5) =   2
                l(6) =   2
                l(7) =   3
                l(8) =   3
     Q(r) pseudized with 0 coefficients

     atomic species   valence    mass     pseudopotential
        Pr            13.00   140.90766     Pr( 1.00)
        Er            22.00   167.25900     Er( 1.00)

     24 Sym. Ops., with inversion, found (12 have fractional translation)

                                    s                        frac. trans.

      isym =  1     identity

 cryst.   s( 1) = (     1          0          0      )
                  (     0          1          0      )
                  (     0          0          1      )

 cart.    s( 1) = (  1.0000000 -0.0000000  0.0000000 )
                  (  0.0000000  1.0000000  0.0000000 )
                  (  0.0000000  0.0000000  1.0000000 )

      isym =  2     180 deg rotation - cart. axis [0,0,1]

 cryst.   s( 2) = (    -1          0          0      )    f =(  0.0000000 )
                  (     0         -1          0      )       (  0.0000000 )
                  (     0          0          1      )       ( -0.5000000 )

 cart.    s( 2) = ( -1.0000000  0.0000000  0.0000000 )    f =(  0.0000000 )
                  (  0.0000000 -1.0000000  0.0000000 )       (  0.0000000 )
                  (  0.0000000  0.0000000  1.0000000 )       ( -0.4020261 )

[...]

      isym =  4     180 deg rotation - cart. axis [1,0,0]

[...]

      isym =  5      60 deg rotation - cryst. axis [0,0,1]

[...]

 cryst.   s( 8) = (    -1         -1          0      )
                  (     1          0          0      )
                  (     0          0          1      )

 cart.    s( 8) = ( -0.5000001  0.8660254  0.0000000 )
                  ( -0.8660254 -0.4999999  0.0000000 )
                  (  0.0000000  0.0000000  1.0000000 )

[...]

 cryst.   s( 9) = (     0         -1          0      )    f =( -0.0000000 )
                  (    -1          0          0      )       ( -0.0000000 )
                  (     0          0         -1      )       (  0.5000000 )

 cart.    s( 9) = (  0.4999999 -0.8660254  0.0000000 )    f =( -0.0000000 )
                  ( -0.8660254 -0.4999999  0.0000000 )       ( -0.0000000 )
                  (  0.0000000  0.0000000 -1.0000000 )       (  0.4020261 )

[...]

 cryst.   s(10) = (     1          1          0      )    f =(  0.0000000 )
                  (     0         -1          0      )       (  0.0000010 )
                  (     0          0         -1      )       (  0.5000000 )

 cart.    s(10) = (  0.5000001  0.8660253  0.0000000 )    f =( -0.0000005 )
                  (  0.8660254 -0.5000001  0.0000000 )       (  0.0000009 )
                  (  0.0000000  0.0000000 -1.0000000 )       (  0.4020261 )

[...]

 cryst.   s(11) = (    -1         -1          0      )
                  (     0          1          0      )
                  (     0          0         -1      )

 cart.    s(11) = ( -0.5000001 -0.8660253  0.0000000 )
                  ( -0.8660254  0.5000001  0.0000000 )
                  (  0.0000000  0.0000000 -1.0000000 )

      isym = 12     180 deg rotation - cryst. axis [1,1,0]

[...]

      isym = 13     inversion

[...]

      isym = 14     inv. 180 deg rotation - cart. axis [0,0,1]

[...]

      isym = 16     inv. 180 deg rotation - cart. axis [1,0,0]

[...]

      isym = 17     inv.  60 deg rotation - cryst. axis [0,0,1]

[...]

 cryst.   s(22) = (    -1         -1          0      )    f =(  0.0000000 )
                  (     0          1          0      )       (  0.0000010 )
                  (     0          0          1      )       ( -0.5000000 )

 cart.    s(22) = ( -0.5000001 -0.8660253  0.0000000 )    f =( -0.0000005 )
                  ( -0.8660254  0.5000001  0.0000000 )       (  0.0000009 )
                  (  0.0000000  0.0000000  1.0000000 )       ( -0.4020261 )

[...]

      isym = 24     inv. 180 deg rotation - cryst. axis [1,1,0]

 cryst.   s(24) = (     0         -1          0      )
                  (    -1          0          0      )
                  (     0          0          1      )

 cart.    s(24) = (  0.4999999 -0.8660254  0.0000000 )
                  ( -0.8660254 -0.4999999  0.0000000 )
                  (  0.0000000  0.0000000  1.0000000 )

   Cartesian axes

     site n.     atom                  positions (alat units)
         1           Pr  tau(   1) = (   0.0000005   0.2904814   0.2010131  )
         2           Pr  tau(   2) = (   0.2484361   0.7207843   0.2010131  )
         3           Pr  tau(   3) = (  -0.2484349   0.7207843   0.2010131  )
         4           Pr  tau(   4) = (   0.4999995   0.5755441   0.6030392  )
         5           Pr  tau(   5) = (   0.2515640   0.1452411   0.6030392  )
         6           Pr  tau(   6) = (   0.7484350   0.1452411   0.6030392  )
         7           Er  tau(   7) = (  -0.0000005   0.5773506   0.6030392  )
         8           Er  tau(   8) = (   0.5000005   0.2886749   0.2010131  )

   Crystallographic axes

     site n.     atom                  positions (cryst. coord.)
         1           Pr  tau(   1) = (  0.1677100  0.3354190  0.2500000  )
         2           Pr  tau(   2) = (  0.6645810  0.8322900  0.2500000  )
         3           Pr  tau(   3) = (  0.1677100  0.8322900  0.2500000  )
         4           Pr  tau(   4) = (  0.8322900  0.6645810  0.7500000  )
         5           Pr  tau(   5) = (  0.3354190  0.1677100  0.7500000  )
         6           Pr  tau(   6) = (  0.8322900  0.1677100  0.7500000  )
         7           Er  tau(   7) = (  0.3333330  0.6666670  0.7500000  )
         8           Er  tau(   8) = (  0.6666670  0.3333330  0.2500000  )

     number of k points=     6
                       cart. coord. in units 2pi/alat
        k(    1) = (   0.0000000   0.0000000   0.0000000), wk =   0.0740741
        k(    2) = (   0.0000000   0.0000000   0.4145668), wk =   0.1481481
        k(    3) = (   0.0000000   0.3849002   0.0000000), wk =   0.4444444
        k(    4) = (   0.0000000   0.3849002   0.4145668), wk =   0.8888889
        k(    5) = (   0.3333333   0.5773502   0.0000000), wk =   0.1481481
        k(    6) = (   0.3333333   0.5773502   0.4145668), wk =   0.2962963

                       cryst. coord.
        k(    1) = (   0.0000000   0.0000000   0.0000000), wk =   0.0740741
        k(    2) = (   0.0000000   0.0000000   0.3333333), wk =   0.1481481
        k(    3) = (   0.0000000   0.3333333   0.0000000), wk =   0.4444444
        k(    4) = (   0.0000000   0.3333333   0.3333333), wk =   0.8888889
        k(    5) = (   0.3333333   0.3333333   0.0000000), wk =   0.1481481
        k(    6) = (   0.3333333   0.3333333   0.3333333), wk =   0.2962963

     Initial potential from superposition of free atoms

     starting charge     121.9471, renormalised to     122.0000
     Starting wfcs are  256 randomized atomic wfcs
     Checking if some PAW data can be deallocated...

     Self-consistent Calculation

     iteration #  1     ecut=    30.00 Ry     beta= 0.70
     Davidson diagonalization with overlap

     ethr =  1.00E-02,  avg # of iterations =  1.0

     total energy              =   -4807.17851076 Ry
     estimated scf accuracy    <      11.49570984 Ry

[...]

     c_bands:  3 eigenvalues not converged
     c_bands:  2 eigenvalues not converged
     ethr =  7.46E-04,  avg # of iterations = 19.0

[...]

     c_bands:  1 eigenvalues not converged
     ethr =  2.91E-09,  avg # of iterations = 14.5

[...]

     total energy              =   -4821.28872601 Ry
     estimated scf accuracy    <       0.00000350 Ry

     iteration #138     ecut=    30.00 Ry     beta= 0.70
     Davidson diagonalization with overlap

     ethr =  1.79E-09,  avg # of iterations =  1.0

     End of self-consistent calculation

          k = 0.0000 0.0000 0.0000 (  5251 PWs)   bands (ev):

   -36.9353 -36.9352 -24.6530 -24.5562 -24.5562 -24.5496 -24.5057 -24.5057
   -11.2582 -11.2484 -11.2468 -11.2468 -11.2372 -11.2372  -7.1553  -7.0130
    -6.9539  -6.7986  -6.7986  -6.7524  -6.7524  -6.7278  -6.7278  -6.5164
    -6.3466  -6.3465  -6.2581  -6.2581  -6.2357  -6.2357  -6.2336  -6.2216
     7.5162   9.3992  10.0091  10.0512  10.2154  10.2505  10.2506  10.3409
    10.3410  10.6750  10.6751  11.1135  11.1499  11.1578  11.1737  11.1737
    11.1894  11.1894  11.1902  11.1966  11.1975  11.1977  11.1977  11.2293
    11.2293  11.3128  11.3159  11.3377  11.3396  11.3396  11.3569  11.4008

     occupation numbers
     1.0000   1.0000   1.0000   1.0000   1.0000   1.0000   1.0000   1.0000
     1.0000   1.0000   1.0000   1.0000   1.0000   1.0000   1.0000   1.0000
     1.0000   1.0000   1.0000   1.0000   1.0000   1.0000   1.0000   1.0000
     1.0000   1.0000   1.0000   1.0000   1.0000   1.0000   1.0000   1.0000
     1.0000   1.0000   1.0000   1.0000   1.0000   1.0000   1.0000   1.0000
     1.0000   1.0000   1.0000   1.0000   1.0000   1.0000   1.0000   1.0000
     1.0000   1.0000   1.0000   1.0000   1.0000   1.0000   1.0000   1.0000
     1.0000   1.0000   1.0000   1.0000   1.0000   0.0000   0.0000   0.0000

[...]

          k = 0.3333 0.5774 0.4146 (  5265 PWs)   bands (ev):

   -36.9353 -36.9352 -24.5898 -24.5732 -24.5732 -24.5381 -24.5270 -24.5270
   -11.2512 -11.2512 -11.2391 -11.2377 -11.2377 -11.2368  -6.9103  -6.9103
    -6.8824  -6.8453  -6.8314  -6.8314  -6.6146  -6.6146  -6.6018  -6.5778
    -6.4723  -6.4723  -6.4024  -6.3297  -6.3297  -6.3198  -6.2633  -6.2633
     9.4820   9.4821   9.9246  10.4259  10.4259  10.6138  10.8453  10.9111
    10.9111  10.9649  10.9677  10.9929  10.9930  11.0204  11.0204  11.1343
    11.1648  11.1648  11.1723  11.1723  11.1872  11.2069  11.2069  11.2071
    11.2421  11.2421  11.2549  11.2796  11.2944  11.2944  11.3207  11.3207

     occupation numbers
     1.0000   1.0000   1.0000   1.0000   1.0000   1.0000   1.0000   1.0000
     1.0000   1.0000   1.0000   1.0000   1.0000   1.0000   1.0000   1.0000
     1.0000   1.0000   1.0000   1.0000   1.0000   1.0000   1.0000   1.0000
     1.0000   1.0000   1.0000   1.0000   1.0000   1.0000   1.0000   1.0000
     1.0000   1.0000   1.0000   1.0000   1.0000   1.0000   1.0000   1.0000
     1.0000   1.0000   1.0000   1.0000   1.0000   1.0000   1.0000   1.0000
     1.0000   1.0000   1.0000   1.0000   1.0000   1.0000   1.0000   1.0000
     1.0000   1.0000   1.0000   1.0000   1.0000   0.0000   0.0000   0.0000

     highest occupied, lowest unoccupied level (ev):    11.3439   11.2944

!    total energy              =   -4821.28872567 Ry

     total all-electron energy =     -4821.288726 Ry
     estimated scf accuracy    <       0.00000031 Ry

     The total energy is the sum of the following terms:
     one-electron contribution =    -699.17335679 Ry
     hartree contribution      =     398.36666692 Ry
     xc contribution           =    -136.81319540 Ry
     ewald contribution        =    -894.70043149 Ry
     one-center paw contrib.   =   -3488.96840891 Ry
      -> PAW hartree energy AE =      62.97612515 Ry
      -> PAW hartree energy PS =     -62.99570595 Ry
      -> PAW xc energy AE      =    -430.10799509 Ry
      -> PAW xc energy PS      =      10.59406750 Ry
      -> total E_H with PAW    =     398.34708612 Ry
      -> total E_XC with PAW   =    -556.32712298 Ry

     convergence has been achieved in 138 iterations

     Writing all to output data dir calculations_bands/myprefix.save/

     General routines

     Parallel routines

     PAW routines

   This run was terminated on:   0:39:11  23Jun2023

   JOB DONE.