     Program PWSCF v.7.0 starts on  5Jun2023 at 22:38:40

     K-points division:     npool     =       2
     R & G space division:  proc/nbgrp/npool/nimage =       4

     Reading input from espresso_12151.pwi
Warning: card &CELL ignored
Warning: card / ignored

     Current dimensions of program PWSCF are:
     Max number of different atomic species (ntypx) = 10
     Max number of k-points (npk) =  40000
     Max angular momentum in pseudopotentials (lmaxx) =  4
     Message from routine setup:
     using ibrav=0 with symmetry is DISCOURAGED, use correct ibrav instead

     Using Slab Decomposition

     bravais-lattice index     =            0
     lattice parameter (alat)  =      12.8098  a.u.
     unit-cell volume          =    1308.2120 (a.u.)^3
     number of atoms/cell      =            7
     number of atomic types    =            3
     number of electrons       =        44.00
     number of Kohn-Sham states=           64
     kinetic-energy cutoff     =      30.0000  Ry
     charge density cutoff     =     240.0000  Ry
     scf convergence threshold =      1.0E-06
     mixing beta               =       0.7000
     number of iterations used =            8  plain     mixing
     Exchange-correlation=  SLA  PW   PBX  PBC
                           (   1   4   3   4   0   0   0)

     celldm(1)=  12.809785  celldm(2)=   0.000000  celldm(3)=   0.000000
     celldm(4)=   0.000000  celldm(5)=   0.000000  celldm(6)=   0.000000

     crystal axes: (cart. coord. in units of alat)
               a(1) = (   1.000000   0.000000   0.000000 )
               a(2) = (   0.194755   0.980852   0.000000 )
               a(3) = (  -0.597377  -0.490426   0.634526 )

     reciprocal axes: (cart. coord. in units 2 pi/alat)
               b(1) = (  1.000000 -0.198556  0.787990 )
               b(2) = (  0.000000  1.019522  0.787990 )
               b(3) = (  0.000000  0.000000  1.575981 )

     PseudoPot. # 1 for Li read from file:
     /home/pragov/projects/rrg-bengioy-ad/pragov/crystal_structure_design/SSSP/li_pbe_v1.4.uspp.F.UPF
     MD5 check sum: e912e257baa3777c20ea3d68f190483c
     Pseudo is Ultrasoft, Zval =  3.0
     Generated by new atomic code, or converted to UPF format
     Using radial grid of  751 points,  5 beta functions with:
                l(1) =   0
                l(2) =   0
                l(3) =   0
                l(4) =   1
                l(5) =   1
     Q(r) pseudized with 10 coefficients,  rinner =    1.150   1.150   1.150

     PseudoPot. # 2 for W  read from file:
     /home/pragov/projects/rrg-bengioy-ad/pragov/crystal_structure_design/SSSP/W_pbe_v1.2.uspp.F.UPF
     MD5 check sum: 9c083fa34c2a2ea0f02f1f893e16e1c8
     Pseudo is Ultrasoft + core correction, Zval = 14.0
     Generated by new atomic code, or converted to UPF format
     Using radial grid of  923 points,  8 beta functions with:
                l(1) =   0
                l(2) =   0
                l(3) =   0
                l(4) =   1
                l(5) =   1
                l(6) =   2
                l(7) =   2
                l(8) =   3
     Q(r) pseudized with  6 coefficients,  rinner =    1.350   1.350   1.350
                                                       1.350   1.350   1.350
                                                       1.350

     PseudoPot. # 3 for S  read from file:
     /home/pragov/projects/rrg-bengioy-ad/pragov/crystal_structure_design/SSSP/s_pbe_v1.4.uspp.F.UPF
     MD5 check sum: 88d86576ff6df21479756cfb9bdac1df
     Pseudo is Ultrasoft + core correction, Zval =  6.0
     Generated by new atomic code, or converted to UPF format
     Using radial grid of  907 points,  6 beta functions with:
                l(1) =   0
                l(2) =   0
                l(3) =   1
                l(4) =   1
                l(5) =   2
                l(6) =   2
     Q(r) pseudized with  8 coefficients,  rinner =    1.300   1.300   1.300
                                                       1.300   1.300

     atomic species   valence    mass     pseudopotential
        Li             3.00     6.94000     Li( 1.00)
        W             14.00   183.84000     W ( 1.00)
        S              6.00    32.06000     S ( 1.00)

      2 Sym. Ops. (no inversion) found

                                    s                        frac. trans.

      isym =  1     identity

 cryst.   s( 1) = (     1          0          0      )
                  (     0          1          0      )
                  (     0          0          1      )

 cart.    s( 1) = (  1.0000000 -0.0000000 -0.0000000 )
                  (  0.0000000  1.0000000 -0.0000000 )
                  (  0.0000000  0.0000000  1.0000000 )

      isym =  2     inv. 180 deg rotation - cart. axis [0,0,1]

 cryst.   s( 2) = (     1          0          0      )
                  (     0          1          0      )
                  (    -1         -1         -1      )

 cart.    s( 2) = (  1.0000000 -0.0000000  0.0000000 )
                  (  0.0000000  1.0000000  0.0000000 )
                  (  0.0000000  0.0000000 -1.0000000 )

   Cartesian axes

     site n.     atom                  positions (alat units)
         1           Li  tau(   1) = (   0.2013114  -0.2452130   0.3172628  )
         2           Li  tau(   2) = (  -0.2013114   0.2452130   0.3172628  )
         3           W   tau(   3) = (   0.0000000   0.0000000   0.0000000  )
         4           S   tau(   4) = (   0.6868191   0.0917224   0.0000000  )
         5           S   tau(   5) = (   0.1421035   0.1166620   0.2696144  )
         6           S   tau(   6) = (   0.2237272   0.6558045   0.0000000  )
         7           S   tau(   7) = (   0.7394820   0.6070890   0.3649112  )

   Crystallographic axes

     site n.     atom                  positions (cryst. coord.)
         1           Li  tau(   1) = (  0.5000000 -0.0000000  0.5000000  )
         2           Li  tau(   2) = (  0.0000000  0.5000000  0.5000000  )
         3           W   tau(   3) = (  0.0000000  0.0000000  0.0000000  )
         4           S   tau(   4) = (  0.6686070  0.0935130  0.0000000  )
         5           S   tau(   5) = (  0.3313930  0.3313930  0.4249070  )
         6           S   tau(   6) = (  0.0935130  0.6686070  0.0000000  )
         7           S   tau(   7) = (  0.9064870  0.9064870  0.5750930  )

     number of k points=    10
                       cart. coord. in units 2pi/alat
        k(    1) = (   0.0000000   0.0000000   0.0000000), wk =   0.0740741
        k(    2) = (   0.0000000   0.0000000   0.5253268), wk =   0.1481481
        k(    3) = (   0.0000000   0.3398406   0.2626634), wk =   0.2962963
        k(    4) = (   0.0000000   0.3398406   0.7879903), wk =   0.1481481
        k(    5) = (   0.3333333  -0.0661855   0.2626634), wk =   0.2962963
        k(    6) = (   0.3333333  -0.0661855   0.7879903), wk =   0.1481481
        k(    7) = (   0.3333333   0.2736551   0.5253268), wk =   0.2962963
        k(    8) = (   0.3333333   0.2736551   0.0000000), wk =   0.1481481
        k(    9) = (   0.3333333  -0.4060261   0.0000000), wk =   0.1481481
        k(   10) = (   0.3333333  -0.4060261   0.5253268), wk =   0.2962963

                       cryst. coord.
        k(    1) = (   0.0000000   0.0000000   0.0000000), wk =   0.0740741
        k(    2) = (   0.0000000   0.0000000   0.3333333), wk =   0.1481481
        k(    3) = (   0.0000000   0.3333333  -0.0000000), wk =   0.2962963
        k(    4) = (   0.0000000   0.3333333   0.3333333), wk =   0.1481481
        k(    5) = (   0.3333333  -0.0000000  -0.0000000), wk =   0.2962963
        k(    6) = (   0.3333333  -0.0000000   0.3333333), wk =   0.1481481
        k(    7) = (   0.3333333   0.3333333  -0.0000000), wk =   0.2962963
        k(    8) = (   0.3333333   0.3333333  -0.3333333), wk =   0.1481481
        k(    9) = (   0.3333333  -0.3333333   0.0000000), wk =   0.1481481
        k(   10) = (   0.3333333  -0.3333333   0.3333333), wk =   0.2962963

     Check: negative core charge=   -0.000002

     Initial potential from superposition of free atoms

     starting charge      42.9980, renormalised to      44.0000

     negative rho (up, down):  6.472E-02 0.000E+00
     Starting wfcs are   39 randomized atomic wfcs +   25 random wfcs

     Self-consistent Calculation

     iteration #  1     ecut=    30.00 Ry     beta= 0.70
     Davidson diagonalization with overlap

     ethr =  1.00E-02,  avg # of iterations =  7.3

     negative rho (up, down):  6.027E-02 0.000E+00

     total energy              =    -284.24636510 Ry
     estimated scf accuracy    <       1.15654543 Ry

[...]

     total energy              =    -284.90816723 Ry
     estimated scf accuracy    <       0.00000346 Ry

     iteration #  8     ecut=    30.00 Ry     beta= 0.70
     Davidson diagonalization with overlap

     ethr =  7.87E-09,  avg # of iterations =  2.0

     negative rho (up, down):  6.144E-02 0.000E+00

     End of self-consistent calculation

          k = 0.0000 0.0000 0.0000 (  3577 PWs)   bands (ev):

   -72.2741 -42.9904 -42.9904 -36.5612 -36.5612 -36.5026 -10.2591  -9.4546
    -9.4541  -9.3890  -1.5846  -1.5797  -1.0062  -0.9273  -0.9149  -0.9147
    -0.1277  -0.1276   0.2330   0.3095   0.9010   0.9012   3.8456   3.9575
     4.9754   5.2022   5.2022   6.2352   7.9956   9.3974   9.4706   9.4707
    10.4605  10.6774  10.6774  10.9448  11.0613  11.2552  12.3755  12.5704
    12.5705  13.1276  13.1278  13.5784  14.0891  14.6643  14.6644  14.6998
    14.8542  15.1205  15.4817  15.4819  16.3023  16.3661  16.8118  16.9196
    16.9196  17.5944  18.0284  18.0285  18.2118  18.3402  18.3403  19.6921

     occupation numbers
     1.0000   1.0000   1.0000   1.0000   1.0000   1.0000   1.0000   1.0000
     1.0000   1.0000   1.0000   1.0000   1.0000   1.0000   1.0000   1.0000
     1.0000   1.0000   1.0000   1.0000   1.0000   1.0000   0.0000   0.0000
     0.0000   0.0000   0.0000   0.0000   0.0000   0.0000   0.0000   0.0000
     0.0000   0.0000   0.0000   0.0000   0.0000   0.0000   0.0000   0.0000
     0.0000   0.0000   0.0000   0.0000   0.0000   0.0000   0.0000   0.0000
     0.0000   0.0000   0.0000   0.0000   0.0000   0.0000   0.0000   0.0000
     0.0000   0.0000   0.0000   0.0000   0.0000   0.0000   0.0000   0.0000

[...]

          k = 0.3333-0.4060 0.5253 (  3614 PWs)   bands (ev):

   -72.2742 -42.9913 -42.9909 -36.5612 -36.5610 -36.5026 -10.1025  -9.5347
    -9.5036  -9.4417  -1.6941  -1.3924  -1.3729  -1.3708  -1.0796  -0.8666
    -0.0896   0.0329   0.4254   0.8757   0.8798   1.3075   3.6896   4.0218
     4.8462   5.0380   5.3170   7.9871   8.0806   8.6621   8.7937   9.5978
    10.1636  10.2730  10.6399  10.8041  10.8383  10.9492  11.6771  11.8606
    12.1359  12.6354  12.7200  13.4759  13.6864  13.9567  14.1743  14.5298
    14.9882  15.6629  15.8943  16.0058  16.7653  16.9966  17.5707  17.7481
    18.0353  18.1585  18.4492  18.5649  18.9653  19.4483  19.4501  20.0914

     occupation numbers
     1.0000   1.0000   1.0000   1.0000   1.0000   1.0000   1.0000   1.0000
     1.0000   1.0000   1.0000   1.0000   1.0000   1.0000   1.0000   1.0000
     1.0000   1.0000   1.0000   1.0000   1.0000   1.0000   0.0000   0.0000
     0.0000   0.0000   0.0000   0.0000   0.0000   0.0000   0.0000   0.0000
     0.0000   0.0000   0.0000   0.0000   0.0000   0.0000   0.0000   0.0000
     0.0000   0.0000   0.0000   0.0000   0.0000   0.0000   0.0000   0.0000
     0.0000   0.0000   0.0000   0.0000   0.0000   0.0000   0.0000   0.0000
     0.0000   0.0000   0.0000   0.0000   0.0000   0.0000   0.0000   0.0000

     highest occupied, lowest unoccupied level (ev):     1.3119    3.5770

!    total energy              =    -284.90816787 Ry
     estimated scf accuracy    <       0.00000038 Ry

     The total energy is the sum of the following terms:
     one-electron contribution =    -169.09838899 Ry
     hartree contribution      =      89.70783806 Ry
     xc contribution           =     -81.63778346 Ry
     ewald contribution        =    -123.87983348 Ry

     convergence has been achieved in   8 iterations

     Writing all to output data dir calculations_bands/myprefix.save/

     General routines

     Parallel routines

   This run was terminated on:  22:38:51   5Jun2023

   JOB DONE.