     Program PWSCF v.7.0 starts on  2Jun2023 at 16:31:36

     Reading input from espresso_9.pwi
Warning: card &CELL ignored
Warning: card / ignored

     Current dimensions of program PWSCF are:
     Max number of different atomic species (ntypx) = 10
     Max number of k-points (npk) =  40000
     Max angular momentum in pseudopotentials (lmaxx) =  4
     file Al.pbe-n-kjpaw_psl.1.0.0.UPF: wavefunction(s)  3S 3P renormalized
     Message from routine setup:
     using ibrav=0 with symmetry is DISCOURAGED, use correct ibrav instead

     Subspace diagonalization in iterative solution of the eigenvalue problem:
     a serial algorithm will be used

     Using Slab Decomposition

     bravais-lattice index     =            0
     lattice parameter (alat)  =       9.2438  a.u.
     unit-cell volume          =     569.1107 (a.u.)^3
     number of atoms/cell      =            6
     number of atomic types    =            3
     number of electrons       =        94.00
     number of Kohn-Sham states=           64
     kinetic-energy cutoff     =      30.0000  Ry
     charge density cutoff     =     240.0000  Ry
     scf convergence threshold =      1.0E-06
     mixing beta               =       0.7000
     number of iterations used =            8  plain     mixing
     Exchange-correlation=  SLA  PW   PBX  PBC
                           (   1   4   3   4   0   0   0)

     celldm(1)=   9.243815  celldm(2)=   0.000000  celldm(3)=   0.000000
     celldm(4)=   0.000000  celldm(5)=   0.000000  celldm(6)=   0.000000

     crystal axes: (cart. coord. in units of alat)
               a(1) = (   1.000000   0.000000   0.000000 )
               a(2) = (  -0.474701   0.880147   0.000000 )
               a(3) = (   0.000000   0.000000   0.818630 )

     reciprocal axes: (cart. coord. in units 2 pi/alat)
               b(1) = (  1.000000  0.539342  0.000000 )
               b(2) = (  0.000000  1.136173  0.000000 )
               b(3) = (  0.000000  0.000000  1.221553 )

     PseudoPot. # 1 for Tb read from file:
     /home/pragov/projects/rrg-bengioy-ad/pragov/crystal_structure_design/SSSP/Tb.GGA-PBE-paw-v1.0.UPF
     MD5 check sum: f7bf3d58e9b293961564f5b9598c921e
     Pseudo is Projector augmented-wave + core cor, Zval = 19.0
     Generated using ATOMPAW code
     Shape of augmentation charge: BESSEL
     Using radial grid of 1111 points,  8 beta functions with:
                l(1) =   0
                l(2) =   0
                l(3) =   1
                l(4) =   1
                l(5) =   2
                l(6) =   2
                l(7) =   3
                l(8) =   3
     Q(r) pseudized with 0 coefficients

     PseudoPot. # 2 for Al read from file:
     /home/pragov/projects/rrg-bengioy-ad/pragov/crystal_structure_design/SSSP/Al.pbe-n-kjpaw_psl.1.0.0.UPF
     MD5 check sum: cfc449ca30b5f3223ec38ddd88ac046d
     Pseudo is Projector augmented-wave + core cor, Zval =  3.0
     Generated using "atomic" code by A. Dal Corso  v.5.1
     Shape of augmentation charge: PSQ
     Using radial grid of 1135 points,  6 beta functions with:
                l(1) =   0
                l(2) =   0
                l(3) =   1
                l(4) =   1
                l(5) =   2
                l(6) =   2
     Q(r) pseudized with 0 coefficients

     PseudoPot. # 3 for Ni read from file:
     /home/pragov/projects/rrg-bengioy-ad/pragov/crystal_structure_design/SSSP/ni_pbe_v1.4.uspp.F.UPF
     MD5 check sum: 1ee80287db30b12d2bc1f57a5b5d6409
     Pseudo is Ultrasoft + core correction, Zval = 18.0
     Generated by new atomic code, or converted to UPF format
     Using radial grid of  865 points,  6 beta functions with:
                l(1) =   0
                l(2) =   0
                l(3) =   1
                l(4) =   1
                l(5) =   2
                l(6) =   2
     Q(r) pseudized with 10 coefficients,  rinner =    0.980   0.980   0.980
                                                       0.980   0.980

     atomic species   valence    mass     pseudopotential
        Tb            19.00   158.92535     Tb( 1.00)
        Al             3.00    26.98154     Al( 1.00)
        Ni            18.00    58.69340     Ni( 1.00)

      4 Sym. Ops., with inversion, found

                                    s                        frac. trans.

      isym =  1     identity

 cryst.   s( 1) = (     1          0          0      )
                  (     0          1          0      )
                  (     0          0          1      )

 cart.    s( 1) = (  1.0000000 -0.0000000  0.0000000 )
                  (  0.0000000  1.0000000  0.0000000 )
                  (  0.0000000  0.0000000  1.0000000 )

      isym =  2     180 deg rotation - cart. axis [0,0,1]

[...]

      isym =  3     inversion

[...]

      isym =  4     inv. 180 deg rotation - cart. axis [0,0,1]

 cryst.   s( 4) = (     1          0          0      )
                  (     0          1          0      )
                  (     0          0         -1      )

 cart.    s( 4) = (  1.0000000 -0.0000000  0.0000000 )
                  (  0.0000000  1.0000000  0.0000000 )
                  (  0.0000000  0.0000000 -1.0000000 )

   Cartesian axes

     site n.     atom                  positions (alat units)
         1           Tb  tau(   1) = (   0.2626497   0.4400737   0.0000000  )
         2           Al  tau(   2) = (   0.0000000   0.0000000   0.4093150  )
         3           Ni  tau(   3) = (  -0.2294491   0.7337736   0.0000000  )
         4           Ni  tau(   4) = (   0.7547484   0.1463738   0.0000000  )
         5           Ni  tau(   5) = (  -0.2373503   0.4400737   0.4093150  )
         6           Ni  tau(   6) = (   0.5000000   0.0000000   0.4093150  )

   Crystallographic axes

     site n.     atom                  positions (cryst. coord.)
         1           Tb  tau(   1) = (  0.5000000  0.5000000  0.0000000  )
         2           Al  tau(   2) = (  0.0000000  0.0000000  0.5000000  )
         3           Ni  tau(   3) = (  0.1663060  0.8336940  0.0000000  )
         4           Ni  tau(   4) = (  0.8336940  0.1663060  0.0000000  )
         5           Ni  tau(   5) = (  0.0000000  0.5000000  0.5000000  )
         6           Ni  tau(   6) = (  0.5000000  0.0000000  0.5000000  )

     number of k points=    10
                       cart. coord. in units 2pi/alat
        k(    1) = (   0.0000000   0.0000000   0.0000000), wk =   0.0740741
        k(    2) = (   0.0000000   0.0000000   0.4071843), wk =   0.1481481
        k(    3) = (   0.0000000   0.3787245   0.0000000), wk =   0.1481481
        k(    4) = (   0.0000000   0.3787245   0.4071843), wk =   0.2962963
        k(    5) = (   0.3333333   0.1797807   0.0000000), wk =   0.1481481
        k(    6) = (   0.3333333   0.1797807   0.4071843), wk =   0.2962963
        k(    7) = (   0.3333333   0.5585052   0.0000000), wk =   0.1481481
        k(    8) = (   0.3333333   0.5585052   0.4071843), wk =   0.2962963
        k(    9) = (   0.3333333  -0.1989437   0.0000000), wk =   0.1481481
        k(   10) = (   0.3333333  -0.1989437   0.4071843), wk =   0.2962963

                       cryst. coord.
        k(    1) = (   0.0000000   0.0000000   0.0000000), wk =   0.0740741
        k(    2) = (   0.0000000   0.0000000   0.3333333), wk =   0.1481481
        k(    3) = (   0.0000000   0.3333333   0.0000000), wk =   0.1481481
        k(    4) = (   0.0000000   0.3333333   0.3333333), wk =   0.2962963
        k(    5) = (   0.3333333  -0.0000000   0.0000000), wk =   0.1481481
        k(    6) = (   0.3333333  -0.0000000   0.3333333), wk =   0.2962963
        k(    7) = (   0.3333333   0.3333333   0.0000000), wk =   0.1481481
        k(    8) = (   0.3333333   0.3333333   0.3333333), wk =   0.2962963
        k(    9) = (   0.3333333  -0.3333333   0.0000000), wk =   0.1481481
        k(   10) = (   0.3333333  -0.3333333   0.3333333), wk =   0.2962963

     Check: negative core charge=   -0.000008

     Initial potential from superposition of free atoms

     starting charge      85.9933, renormalised to      94.0000
     Starting wfcs are   88 randomized atomic wfcs
     Checking if some PAW data can be deallocated...

     Self-consistent Calculation

     iteration #  1     ecut=    30.00 Ry     beta= 0.70
     Davidson diagonalization with overlap

     ethr =  1.00E-02,  avg # of iterations =  6.0

     total energy              =   -2022.72251152 Ry
     estimated scf accuracy    <     164.17491709 Ry

[...]

     total energy              =   -2140.56295124 Ry
     estimated scf accuracy    <       0.00000409 Ry

     iteration # 78     ecut=    30.00 Ry     beta= 0.70
     Davidson diagonalization with overlap

     ethr =  4.35E-09,  avg # of iterations =  1.0

     End of self-consistent calculation

          k = 0.0000 0.0000 0.0000 (  1605 PWs)   bands (ev):

   -88.0199 -88.0068 -87.9976 -87.9937 -48.4897 -48.4789 -48.4440 -48.4177
   -48.3124 -48.3075 -48.2931 -48.2805 -48.2747 -48.2718 -48.2583 -48.2230
   -28.1574  -5.3169  -5.2516  -5.2093   6.5523  11.2889  11.9051  11.9397
    12.2121  12.3463  12.4552  12.6000  12.8414  13.0872  13.1112  13.2208
    13.3971  13.5279  13.7821  14.2113  14.2464  14.4084  14.5500  14.5553
    14.7972  14.8630  15.0014  15.0676  15.0869  15.1834  15.2375  15.2762
    15.5636  16.0517  16.2422  16.3381  16.5009  17.1278  18.0327  19.2714
    20.3421  21.4006  23.2826  23.3839  24.1638  24.2074  25.2720  25.5943

     occupation numbers
     1.0000   1.0000   1.0000   1.0000   1.0000   1.0000   1.0000   1.0000
     1.0000   1.0000   1.0000   1.0000   1.0000   1.0000   1.0000   1.0000
     1.0000   1.0000   1.0000   1.0000   1.0000   1.0000   1.0000   1.0000
     1.0000   1.0000   1.0000   1.0000   1.0000   1.0000   1.0000   1.0000
     1.0000   1.0000   1.0000   1.0000   1.0000   1.0000   1.0000   1.0000
     1.0000   1.0000   1.0000   1.0000   1.0000   1.0000   1.0000   0.0000
     0.0000   0.0000   0.0000   0.0000   0.0000   0.0000   0.0000   0.0000
     0.0000   0.0000   0.0000   0.0000   0.0000   0.0000   0.0000   0.0000

[...]

          k = 0.3333-0.1989 0.4072 (  1588 PWs)   bands (ev):

   -88.0155 -88.0042 -87.9965 -87.9951 -48.5231 -48.4430 -48.4123 -48.3793
   -48.3424 -48.3296 -48.3083 -48.2895 -48.2667 -48.2558 -48.2258 -48.2222
   -28.1525  -5.3346  -5.3082  -5.2671   8.4838  10.4171  11.1385  11.6145
    11.9385  12.3787  12.5915  12.7054  12.8707  13.1274  13.2131  13.4376
    13.5940  13.6095  13.6859  13.7580  14.3458  14.3488  14.4391  14.4688
    14.6063  14.6816  14.8101  15.0427  15.0681  15.0865  15.1440  15.2855
    15.3547  15.3974  16.0973  16.2243  16.3326  17.0613  19.7656  19.9406
    20.5769  22.1765  22.2392  22.6483  23.9644  24.3968  24.8141  26.3918

     occupation numbers
     1.0000   1.0000   1.0000   1.0000   1.0000   1.0000   1.0000   1.0000
     1.0000   1.0000   1.0000   1.0000   1.0000   1.0000   1.0000   1.0000
     1.0000   1.0000   1.0000   1.0000   1.0000   1.0000   1.0000   1.0000
     1.0000   1.0000   1.0000   1.0000   1.0000   1.0000   1.0000   1.0000
     1.0000   1.0000   1.0000   1.0000   1.0000   1.0000   1.0000   1.0000
     1.0000   1.0000   1.0000   1.0000   1.0000   1.0000   1.0000   0.0000
     0.0000   0.0000   0.0000   0.0000   0.0000   0.0000   0.0000   0.0000
     0.0000   0.0000   0.0000   0.0000   0.0000   0.0000   0.0000   0.0000

     highest occupied, lowest unoccupied level (ev):    15.2375   15.2438

!    total energy              =   -2140.56295112 Ry
     estimated scf accuracy    <       0.00000046 Ry

     The total energy is the sum of the following terms:
     one-electron contribution =   -1089.30407506 Ry
     hartree contribution      =     600.56712566 Ry
     xc contribution           =    -169.93616406 Ry
     ewald contribution        =    -973.72387791 Ry
     one-center paw contrib.   =    -508.16595976 Ry
      -> PAW hartree energy AE =     219.41476746 Ry
      -> PAW hartree energy PS =    -205.97771224 Ry
      -> PAW xc energy AE      =    -547.62556933 Ry
      -> PAW xc energy PS      =      26.02255435 Ry
      -> total E_H with PAW    =     614.00418088 Ry
      -> total E_XC with PAW   =    -691.53917904 Ry

     convergence has been achieved in  78 iterations

     Writing all to output data dir calculations_bands/myprefix.save/

     General routines

     Parallel routines

     PAW routines

   This run was terminated on:  16:41:25   2Jun2023

   JOB DONE.