     Program PWSCF v.7.0 starts on 23Jun2023 at  8:37:15

     K-points division:     npool     =       2
     R & G space division:  proc/nbgrp/npool/nimage =       4

     Reading input from espresso_12219.pwi
Warning: card &CELL ignored
Warning: card / ignored

     Current dimensions of program PWSCF are:
     Max number of different atomic species (ntypx) = 10
     Max number of k-points (npk) =  40000
     Max angular momentum in pseudopotentials (lmaxx) =  4
     Message from routine setup:
     using ibrav=0 with symmetry is DISCOURAGED, use correct ibrav instead

     Using Slab Decomposition

     bravais-lattice index     =            0
     lattice parameter (alat)  =      17.3299  a.u.
     unit-cell volume          =    3519.8936 (a.u.)^3
     number of atoms/cell      =           16
     number of atomic types    =            3
     number of electrons       =       168.00
     number of Kohn-Sham states=           90
     kinetic-energy cutoff     =      30.0000  Ry
     charge density cutoff     =     240.0000  Ry
     scf convergence threshold =      1.0E-06
     mixing beta               =       0.7000
     number of iterations used =            8  plain     mixing
     Exchange-correlation=  SLA  PW   PBX  PBC
                           (   1   4   3   4   0   0   0)

     celldm(1)=  17.329949  celldm(2)=   0.000000  celldm(3)=   0.000000
     celldm(4)=   0.000000  celldm(5)=   0.000000  celldm(6)=   0.000000

     crystal axes: (cart. coord. in units of alat)
               a(1) = (   1.000000   0.000000   0.000000 )
               a(2) = (   0.079435   0.996840   0.000000 )
               a(3) = (  -0.539718  -0.498420   0.678441 )

     reciprocal axes: (cart. coord. in units 2 pi/alat)
               b(1) = (  1.000000 -0.079687  0.736984 )
               b(2) = (  0.000000  1.003170  0.736984 )
               b(3) = (  0.000000  0.000000  1.473967 )

     PseudoPot. # 1 for Tl read from file:
     /home/pragov/projects/rrg-bengioy-ad/pragov/crystal_structure_design/SSSP/Tl_pbe_v1.2.uspp.F.UPF
     MD5 check sum: b76cf1f7e72655a2b2c53cf6385d7059
     Pseudo is Ultrasoft + core correction, Zval = 13.0
     Generated by new atomic code, or converted to UPF format
     Using radial grid of  899 points,  6 beta functions with:
                l(1) =   0
                l(2) =   0
                l(3) =   1
                l(4) =   1
                l(5) =   2
                l(6) =   2
     Q(r) pseudized with  6 coefficients,  rinner =    1.100   1.100   1.100
                                                       1.100   1.100

     PseudoPot. # 2 for Se read from file:
     /home/pragov/projects/rrg-bengioy-ad/pragov/crystal_structure_design/SSSP/Se_pbe_v1.uspp.F.UPF
     MD5 check sum: 1b3568f3a8ae88f9a2a0ad0698632c85
     Pseudo is Ultrasoft + core correction, Zval =  6.0
     Generated by new atomic code, or converted to UPF format
     Using radial grid of  877 points,  6 beta functions with:
                l(1) =   0
                l(2) =   0
                l(3) =   1
                l(4) =   1
                l(5) =   2
                l(6) =   2
     Q(r) pseudized with  8 coefficients,  rinner =    1.300   1.300   1.300
                                                       1.300   1.300

     PseudoPot. # 3 for Br read from file:
     /home/pragov/projects/rrg-bengioy-ad/pragov/crystal_structure_design/SSSP/br_pbe_v1.4.uspp.F.UPF
     MD5 check sum: d3ffb7b29f6225aa16fe06858fb2a80b
     Pseudo is Ultrasoft + core correction, Zval =  7.0
     Generated by new atomic code, or converted to UPF format
     Using radial grid of  879 points,  6 beta functions with:
                l(1) =   0
                l(2) =   0
                l(3) =   1
                l(4) =   1
                l(5) =   2
                l(6) =   2
     Q(r) pseudized with  8 coefficients,  rinner =    1.100   1.100   1.100
                                                       1.100   1.100

     atomic species   valence    mass     pseudopotential
        Tl            13.00   204.38000     Tl( 1.00)
        Se             6.00    78.97100     Se( 1.00)
        Br             7.00    79.90400     Br( 1.00)

      4 Sym. Ops., with inversion, found ( 2 have fractional translation)

                                    s                        frac. trans.

      isym =  1     identity

 cryst.   s( 1) = (     1          0          0      )
                  (     0          1          0      )
                  (     0          0          1      )

 cart.    s( 1) = (  1.0000000  0.0000000  0.0000000 )
                  (  0.0000000  1.0000000  0.0000000 )
                  (  0.0000000  0.0000000  1.0000000 )

      isym =  2     180 deg rotation - cart. axis [0,0,1]

 cryst.   s( 2) = (    -1          0          0      )    f =( -0.5000000 )
                  (     0         -1          0      )       (  0.5000000 )
                  (     1          1          1      )       (  0.0000000 )

 cart.    s( 2) = ( -1.0000000 -0.0000000  0.0000000 )    f =( -0.4602824 )
                  (  0.0000000 -1.0000000  0.0000000 )       (  0.4984200 )
                  (  0.0000000  0.0000000  1.0000000 )       (  0.0000000 )

      isym =  3     inversion

 cryst.   s( 3) = (    -1          0          0      )
                  (     0         -1          0      )
                  (     0          0         -1      )

 cart.    s( 3) = ( -1.0000000 -0.0000000 -0.0000000 )
                  (  0.0000000 -1.0000000 -0.0000000 )
                  (  0.0000000  0.0000000 -1.0000000 )

      isym =  4     inv. 180 deg rotation - cart. axis [0,0,1]

 cryst.   s( 4) = (     1          0          0      )    f =(  0.5000000 )
                  (     0          1          0      )       (  0.5000000 )
                  (    -1         -1         -1      )       ( -0.0000000 )

 cart.    s( 4) = (  1.0000000  0.0000000 -0.0000000 )    f =(  0.5397176 )
                  (  0.0000000  1.0000000 -0.0000000 )       (  0.4984200 )
                  (  0.0000000  0.0000000 -1.0000000 )       ( -0.0000000 )

   Cartesian axes

     site n.     atom                  positions (alat units)
         1           Tl  tau(   1) = (   0.2919455   0.4599559   0.3392206  )
         2           Tl  tau(   2) = (  -0.3830394   0.1080111   0.5386002  )
         3           Tl  tau(   3) = (   0.6169606   0.1080111   0.1398410  )
         4           Tl  tau(   4) = (   0.9227570   0.3904089   0.1398410  )
         5           Tl  tau(   5) = (  -0.0580243  -0.2439337   0.3392206  )
         6           Tl  tau(   6) = (   0.2477721   0.0384641   0.3392206  )
         7           Tl  tau(   7) = (   0.5977419   0.7423538   0.3392206  )
         8           Tl  tau(   8) = (  -0.0772430   0.3904089   0.5386002  )
         9           Tl  tau(   9) = (   0.0000000   0.0000000   0.0000000  )
        10           Tl  tau(  10) = (   0.5397176   0.4984200   0.0000000  )
        11           Se  tau(  11) = (   0.2301412  -0.2492100   0.5541345  )
        12           Se  tau(  12) = (  -0.0843348   0.0913225   0.3392206  )
        13           Se  tau(  13) = (   0.6240524   0.4070975   0.3392206  )
        14           Se  tau(  14) = (   0.3095763   0.7476300   0.1243067  )
        15           Br  tau(  15) = (   0.2698588   0.2492100   0.0000000  )
        16           Br  tau(  16) = (   0.8095763   0.7476300   0.0000000  )

   Crystallographic axes

     site n.     atom                  positions (cryst. coord.)
         1           Tl  tau(   1) = (  0.5052930  0.7114140  0.5000000  )
         2           Tl  tau(   2) = (  0.0052930  0.5052930  0.7938790  )
         3           Tl  tau(   3) = (  0.7114140  0.2114140  0.2061210  )
         4           Tl  tau(   4) = (  0.9947070  0.4947070  0.2061210  )
         5           Tl  tau(   5) = (  0.2114140  0.0052930  0.5000000  )
         6           Tl  tau(   6) = (  0.4947070  0.2885860  0.5000000  )
         7           Tl  tau(   7) = (  0.7885860  0.9947070  0.5000000  )
         8           Tl  tau(   8) = (  0.2885860  0.7885860  0.7938790  )
         9           Tl  tau(   9) = (  0.0000000  0.0000000  0.0000000  )
        10           Tl  tau(  10) = (  0.5000000  0.5000000  0.0000000  )
        11           Se  tau(  11) = (  0.6583880  0.1583880  0.8167760  )
        12           Se  tau(  12) = (  0.1583880  0.3416120  0.5000000  )
        13           Se  tau(  13) = (  0.8416120  0.6583880  0.5000000  )
        14           Se  tau(  14) = (  0.3416120  0.8416120  0.1832240  )
        15           Br  tau(  15) = (  0.2500000  0.2500000  0.0000000  )
        16           Br  tau(  16) = (  0.7500000  0.7500000  0.0000000  )

     number of k points=    10
                       cart. coord. in units 2pi/alat
        k(    1) = (   0.0000000   0.0000000   0.0000000), wk =   0.0740741
        k(    2) = (   0.0000000   0.0000000   0.4913224), wk =   0.1481481
        k(    3) = (   0.0000000   0.3343900   0.2456612), wk =   0.2962963
        k(    4) = (   0.0000000   0.3343900   0.7369836), wk =   0.1481481
        k(    5) = (   0.3333333  -0.0265623   0.2456612), wk =   0.2962963
        k(    6) = (   0.3333333  -0.0265623   0.7369836), wk =   0.1481481
        k(    7) = (   0.3333333   0.3078277   0.4913224), wk =   0.2962963
        k(    8) = (   0.3333333   0.3078277  -0.0000000), wk =   0.1481481
        k(    9) = (   0.3333333  -0.3609523  -0.0000000), wk =   0.1481481
        k(   10) = (   0.3333333  -0.3609523   0.4913224), wk =   0.2962963

                       cryst. coord.
        k(    1) = (   0.0000000   0.0000000   0.0000000), wk =   0.0740741
        k(    2) = (   0.0000000   0.0000000   0.3333333), wk =   0.1481481
        k(    3) = (   0.0000000   0.3333333  -0.0000000), wk =   0.2962963
        k(    4) = (   0.0000000   0.3333333   0.3333333), wk =   0.1481481
        k(    5) = (   0.3333333   0.0000000   0.0000000), wk =   0.2962963
        k(    6) = (   0.3333333   0.0000000   0.3333333), wk =   0.1481481
        k(    7) = (   0.3333333   0.3333333   0.0000000), wk =   0.2962963
        k(    8) = (   0.3333333   0.3333333  -0.3333333), wk =   0.1481481
        k(    9) = (   0.3333333  -0.3333333   0.0000000), wk =   0.1481481
        k(   10) = (   0.3333333  -0.3333333   0.3333333), wk =   0.2962963

     Check: negative core charge=   -0.000005

     Initial potential from superposition of free atoms

     starting charge     167.9510, renormalised to     168.0000

     negative rho (up, down):  5.044E-01 0.000E+00
     Starting wfcs are  114 randomized atomic wfcs

     Self-consistent Calculation

     iteration #  1     ecut=    30.00 Ry     beta= 0.70
     Davidson diagonalization with overlap

     ethr =  1.00E-02,  avg # of iterations =  2.0

     Threshold (ethr) on eigenvalues was too large:
     Diagonalizing with lowered threshold

     Davidson diagonalization with overlap

[...]

     negative rho (up, down):  5.058E-01 0.000E+00

     total energy              =   -1717.88814295 Ry
     estimated scf accuracy    <       0.69457563 Ry

[...]

     total energy              =   -1718.25029365 Ry
     estimated scf accuracy    <       0.00000517 Ry

     iteration # 10     ecut=    30.00 Ry     beta= 0.70
     Davidson diagonalization with overlap

     ethr =  2.04E-09,  avg # of iterations =  2.5

     negative rho (up, down):  5.043E-01 0.000E+00

     End of self-consistent calculation

          k = 0.0000 0.0000 0.0000 (  9835 PWs)   bands (ev):

    -7.9399  -7.9124  -5.6963  -5.6332  -5.4726  -5.4722  -4.5410  -4.4886
    -4.4881  -4.4876  -4.4806  -4.4806  -4.4721  -4.4665  -4.4592  -4.4446
    -4.4445  -4.4273  -4.4158  -4.4139  -4.4085  -4.4084  -4.4078  -4.4076
    -4.4055  -4.3866  -4.3865  -4.3821  -4.3819  -4.3770  -4.3727  -4.3647
    -4.3590  -4.3588  -4.3418  -4.3394  -4.3155  -4.3152  -4.3151  -4.3150
    -4.3098  -4.2572  -4.2569  -4.2142  -4.2036  -4.1824  -4.1824  -4.1758
    -4.1702  -4.1619  -4.1619  -4.1306  -4.1227  -4.0801  -4.0801  -3.8690
     0.3608   0.4619   0.5860   0.9217   0.9231   1.0542   1.0544   1.0872
     1.0873   1.6586   3.7104   3.7725   3.7725   4.4298   4.4299   4.4299
     4.4388   4.4870   4.9280   4.9283   5.2574   5.2577   5.3654   5.3675
     5.6784   5.6786   6.4221   6.6610   7.0676   7.4224   7.9383   7.9383
     7.9468   8.6024

     occupation numbers
     1.0000   1.0000   1.0000   1.0000   1.0000   1.0000   1.0000   1.0000
     1.0000   1.0000   1.0000   1.0000   1.0000   1.0000   1.0000   1.0000
     1.0000   1.0000   1.0000   1.0000   1.0000   1.0000   1.0000   1.0000
     1.0000   1.0000   1.0000   1.0000   1.0000   1.0000   1.0000   1.0000
     1.0000   1.0000   1.0000   1.0000   1.0000   1.0000   1.0000   1.0000
     1.0000   1.0000   1.0000   1.0000   1.0000   1.0000   1.0000   1.0000
     1.0000   1.0000   1.0000   1.0000   1.0000   1.0000   1.0000   1.0000
     1.0000   1.0000   1.0000   1.0000   1.0000   1.0000   1.0000   1.0000
     1.0000   1.0000   1.0000   1.0000   1.0000   1.0000   1.0000   1.0000
     1.0000   1.0000   1.0000   1.0000   1.0000   1.0000   1.0000   1.0000
     1.0000   1.0000   1.0000   1.0000   0.0000   0.0000   0.0000   0.0000
     0.0000   0.0000

[...]

          k = 0.3333-0.3610 0.4913 (  9796 PWs)   bands (ev):

    -7.9316  -7.9186  -5.6420  -5.6190  -5.5123  -5.5017  -4.5058  -4.5013
    -4.4796  -4.4733  -4.4732  -4.4657  -4.4621  -4.4600  -4.4531  -4.4497
    -4.4419  -4.4410  -4.4328  -4.4233  -4.4200  -4.4162  -4.4104  -4.4076
    -4.4071  -4.4057  -4.3919  -4.3690  -4.3636  -4.3599  -4.3559  -4.3550
    -4.3484  -4.3445  -4.3405  -4.3401  -4.3334  -4.3284  -4.3059  -4.3054
    -4.3033  -4.2806  -4.2774  -4.2324  -4.2166  -4.1907  -4.1770  -4.1716
    -4.1678  -4.1657  -4.1635  -4.1572  -4.1304  -4.1131  -4.0152  -3.9266
     0.0520   0.1801   0.4389   0.5523   0.8935   1.3117   1.4631   1.6756
     2.0594   2.1751   3.3135   3.7817   3.7850   3.8258   3.9870   4.2423
     4.5202   4.5571   4.5576   4.5888   4.8476   5.0219   5.1769   5.4191
     5.4491   5.7050   5.7361   5.9034   7.9572   8.1642   8.3319   8.7247
     9.0334   9.1126

     occupation numbers
     1.0000   1.0000   1.0000   1.0000   1.0000   1.0000   1.0000   1.0000
     1.0000   1.0000   1.0000   1.0000   1.0000   1.0000   1.0000   1.0000
     1.0000   1.0000   1.0000   1.0000   1.0000   1.0000   1.0000   1.0000
     1.0000   1.0000   1.0000   1.0000   1.0000   1.0000   1.0000   1.0000
     1.0000   1.0000   1.0000   1.0000   1.0000   1.0000   1.0000   1.0000
     1.0000   1.0000   1.0000   1.0000   1.0000   1.0000   1.0000   1.0000
     1.0000   1.0000   1.0000   1.0000   1.0000   1.0000   1.0000   1.0000
     1.0000   1.0000   1.0000   1.0000   1.0000   1.0000   1.0000   1.0000
     1.0000   1.0000   1.0000   1.0000   1.0000   1.0000   1.0000   1.0000
     1.0000   1.0000   1.0000   1.0000   1.0000   1.0000   1.0000   1.0000
     1.0000   1.0000   1.0000   1.0000   0.0000   0.0000   0.0000   0.0000
     0.0000   0.0000

     highest occupied, lowest unoccupied level (ev):     6.6610    7.0676

!    total energy              =   -1718.25029424 Ry
     estimated scf accuracy    <       0.00000029 Ry

     The total energy is the sum of the following terms:
     one-electron contribution =    -318.50580882 Ry
     hartree contribution      =     275.62283321 Ry
     xc contribution           =    -791.56712215 Ry
     ewald contribution        =    -883.80019647 Ry

     convergence has been achieved in  10 iterations

     Writing all to output data dir calculations_bands/myprefix.save/

     General routines

     Parallel routines

   This run was terminated on:   8:37:53  23Jun2023

   JOB DONE.