     Program PWSCF v.7.0 starts on  3Jun2023 at  2:45:43

     Reading input from espresso_182.pwi
Warning: card &CELL ignored
Warning: card / ignored

     Current dimensions of program PWSCF are:
     Max number of different atomic species (ntypx) = 10
     Max number of k-points (npk) =  40000
     Max angular momentum in pseudopotentials (lmaxx) =  4
     file Al.pbe-n-kjpaw_psl.1.0.0.UPF: wavefunction(s)  3S 3P renormalized
     Message from routine setup:
     using ibrav=0 with symmetry is DISCOURAGED, use correct ibrav instead

     Subspace diagonalization in iterative solution of the eigenvalue problem:
     a serial algorithm will be used

     Using Slab Decomposition

     bravais-lattice index     =            0
     lattice parameter (alat)  =      15.2417  a.u.
     unit-cell volume          =    1429.8292 (a.u.)^3
     number of atoms/cell      =           12
     number of atomic types    =            3
     number of electrons       =        84.00
     number of Kohn-Sham states=           64
     kinetic-energy cutoff     =      30.0000  Ry
     charge density cutoff     =     240.0000  Ry
     scf convergence threshold =      1.0E-06
     mixing beta               =       0.7000
     number of iterations used =            8  plain     mixing
     Exchange-correlation=  SLA  PW   PBX  PBC
                           (   1   4   3   4   0   0   0)

     celldm(1)=  15.241726  celldm(2)=   0.000000  celldm(3)=   0.000000
     celldm(4)=   0.000000  celldm(5)=   0.000000  celldm(6)=   0.000000

     crystal axes: (cart. coord. in units of alat)
               a(1) = (   1.000000   0.000000   0.000000 )
               a(2) = (  -0.869528   0.493884   0.000000 )
               a(3) = (   0.000000   0.000000   0.817630 )

     reciprocal axes: (cart. coord. in units 2 pi/alat)
               b(1) = (  1.000000  1.760590  0.000000 )
               b(2) = (  0.000000  2.024766  0.000000 )
               b(3) = (  0.000000  0.000000  1.223048 )

     PseudoPot. # 1 for Ce read from file:
     /home/pragov/projects/rrg-bengioy-ad/pragov/crystal_structure_design/SSSP/Ce.GGA-PBE-paw-v1.0.UPF
     MD5 check sum: f2b950f613061344c13339c8d844425d
     Pseudo is Projector augmented-wave + core cor, Zval = 12.0
     Generated using ATOMPAW code
     Shape of augmentation charge: BESSEL
     Using radial grid of 1102 points,  8 beta functions with:
                l(1) =   0
                l(2) =   0
                l(3) =   1
                l(4) =   1
                l(5) =   2
                l(6) =   2
                l(7) =   3
                l(8) =   3
     Q(r) pseudized with 0 coefficients

     PseudoPot. # 2 for Al read from file:
     /home/pragov/projects/rrg-bengioy-ad/pragov/crystal_structure_design/SSSP/Al.pbe-n-kjpaw_psl.1.0.0.UPF
     MD5 check sum: cfc449ca30b5f3223ec38ddd88ac046d
     Pseudo is Projector augmented-wave + core cor, Zval =  3.0
     Generated using "atomic" code by A. Dal Corso  v.5.1
     Shape of augmentation charge: PSQ
     Using radial grid of 1135 points,  6 beta functions with:
                l(1) =   0
                l(2) =   0
                l(3) =   1
                l(4) =   1
                l(5) =   2
                l(6) =   2
     Q(r) pseudized with 0 coefficients

     PseudoPot. # 3 for Ni read from file:
     /home/pragov/projects/rrg-bengioy-ad/pragov/crystal_structure_design/SSSP/ni_pbe_v1.4.uspp.F.UPF
     MD5 check sum: 1ee80287db30b12d2bc1f57a5b5d6409
     Pseudo is Ultrasoft + core correction, Zval = 18.0
     Generated by new atomic code, or converted to UPF format
     Using radial grid of  865 points,  6 beta functions with:
                l(1) =   0
                l(2) =   0
                l(3) =   1
                l(4) =   1
                l(5) =   2
                l(6) =   2
     Q(r) pseudized with 10 coefficients,  rinner =    0.980   0.980   0.980
                                                       0.980   0.980

     atomic species   valence    mass     pseudopotential
        Ce            12.00   140.11600     Ce( 1.00)
        Al             3.00    26.98154     Al( 1.00)
        Ni            18.00    58.69340     Ni( 1.00)

      4 Sym. Ops., with inversion, found ( 2 have fractional translation)

                                    s                        frac. trans.

      isym =  1     identity

 cryst.   s( 1) = (     1          0          0      )
                  (     0          1          0      )
                  (     0          0          1      )

 cart.    s( 1) = (  1.0000000  0.0000000  0.0000000 )
                  (  0.0000000  1.0000000  0.0000000 )
                  (  0.0000000  0.0000000  1.0000000 )

      isym =  2     180 deg rotation - cart. axis [0,0,1]

 cryst.   s( 2) = (    -1          0          0      )    f =( -0.0000000 )
                  (     0         -1          0      )       ( -0.0000000 )
                  (     0          0          1      )       ( -0.5000000 )

 cart.    s( 2) = ( -1.0000000 -0.0000000  0.0000000 )    f =( -0.0000000 )
                  (  0.0000000 -1.0000000  0.0000000 )       ( -0.0000000 )
                  (  0.0000000  0.0000000  1.0000000 )       ( -0.4088148 )

      isym =  3     inversion

 cryst.   s( 3) = (    -1          0          0      )
                  (     0         -1          0      )
                  (     0          0         -1      )

 cart.    s( 3) = ( -1.0000000 -0.0000000  0.0000000 )
                  (  0.0000000 -1.0000000  0.0000000 )
                  (  0.0000000  0.0000000 -1.0000000 )

      isym =  4     inv. 180 deg rotation - cart. axis [0,0,1]

 cryst.   s( 4) = (     1          0          0      )    f =(  0.0000000 )
                  (     0          1          0      )       (  0.0000000 )
                  (     0          0         -1      )       (  0.5000000 )

 cart.    s( 4) = (  1.0000000  0.0000000  0.0000000 )    f =(  0.0000000 )
                  (  0.0000000  1.0000000  0.0000000 )       (  0.0000000 )
                  (  0.0000000  0.0000000 -1.0000000 )       (  0.4088148 )

   Cartesian axes

     site n.     atom                  positions (alat units)
         1           Ce  tau(   1) = (   0.7859727   0.0565408   0.2044074  )
         2           Ce  tau(   2) = (  -0.6555004   0.4373433   0.6132222  )
         3           Al  tau(   3) = (   0.0652362   0.2469421   0.0000000  )
         4           Al  tau(   4) = (   0.0652362   0.2469421   0.4088148  )
         5           Al  tau(   5) = (   0.8553303   0.0382182   0.6132222  )
         6           Al  tau(   6) = (  -0.7248580   0.4556659   0.2044074  )
         7           Al  tau(   7) = (  -0.2884654   0.3403815   0.7747335  )
         8           Al  tau(   8) = (   0.4189377   0.1535027   0.0428961  )
         9           Al  tau(   9) = (   0.4189377   0.1535027   0.3659187  )
        10           Al  tau(  10) = (  -0.2884654   0.3403815   0.4517109  )
        11           Ni  tau(  11) = (  -0.4470014   0.3822629   0.2044074  )
        12           Ni  tau(  12) = (   0.5774737   0.1116213   0.6132222  )

   Crystallographic axes

     site n.     atom                  positions (cryst. coord.)
         1           Ce  tau(   1) = (  0.8855180  0.1144820  0.2500000  )
         2           Ce  tau(   2) = (  0.1144820  0.8855180  0.7500000  )
         3           Al  tau(   3) = (  0.5000000  0.5000000  0.0000000  )
         4           Al  tau(   4) = (  0.5000000  0.5000000  0.5000000  )
         5           Al  tau(   5) = (  0.9226170  0.0773830  0.7500000  )
         6           Al  tau(   6) = (  0.0773830  0.9226170  0.2500000  )
         7           Al  tau(   7) = (  0.3108070  0.6891930  0.9475360  )
         8           Al  tau(   8) = (  0.6891930  0.3108070  0.0524640  )
         9           Al  tau(   9) = (  0.6891930  0.3108070  0.4475360  )
        10           Al  tau(  10) = (  0.3108070  0.6891930  0.5524640  )
        11           Ni  tau(  11) = (  0.2260070  0.7739930  0.2500000  )
        12           Ni  tau(  12) = (  0.7739930  0.2260070  0.7500000  )

     number of k points=    10
                       cart. coord. in units 2pi/alat
        k(    1) = (   0.0000000   0.0000000   0.0000000), wk =   0.0740741
        k(    2) = (   0.0000000   0.0000000   0.4076826), wk =   0.1481481
        k(    3) = (   0.0000000   0.6749221   0.0000000), wk =   0.1481481
        k(    4) = (   0.0000000   0.6749221   0.4076826), wk =   0.2962963
        k(    5) = (   0.3333333   0.5868634   0.0000000), wk =   0.1481481
        k(    6) = (   0.3333333   0.5868634   0.4076826), wk =   0.2962963
        k(    7) = (   0.3333333   1.2617855   0.0000000), wk =   0.1481481
        k(    8) = (   0.3333333   1.2617855   0.4076826), wk =   0.2962963
        k(    9) = (   0.3333333  -0.0880586   0.0000000), wk =   0.1481481
        k(   10) = (   0.3333333  -0.0880586   0.4076826), wk =   0.2962963

                       cryst. coord.
        k(    1) = (   0.0000000   0.0000000   0.0000000), wk =   0.0740741
        k(    2) = (   0.0000000   0.0000000   0.3333333), wk =   0.1481481
        k(    3) = (   0.0000000   0.3333333   0.0000000), wk =   0.1481481
        k(    4) = (   0.0000000   0.3333333   0.3333333), wk =   0.2962963
        k(    5) = (   0.3333333  -0.0000000   0.0000000), wk =   0.1481481
        k(    6) = (   0.3333333  -0.0000000   0.3333333), wk =   0.2962963
        k(    7) = (   0.3333333   0.3333333   0.0000000), wk =   0.1481481
        k(    8) = (   0.3333333   0.3333333   0.3333333), wk =   0.2962963
        k(    9) = (   0.3333333  -0.3333333   0.0000000), wk =   0.1481481
        k(   10) = (   0.3333333  -0.3333333   0.3333333), wk =   0.2962963

     Check: negative core charge=   -0.000001

     Initial potential from superposition of free atoms

     starting charge      79.9677, renormalised to      84.0000
     Starting wfcs are  122 randomized atomic wfcs
     Checking if some PAW data can be deallocated...

     Self-consistent Calculation

     iteration #  1     ecut=    30.00 Ry     beta= 0.70
     Davidson diagonalization with overlap

     ethr =  1.00E-02,  avg # of iterations =  4.0

     total energy              =   -1933.96933389 Ry
     estimated scf accuracy    <      46.46572753 Ry

[...]

     c_bands:  1 eigenvalues not converged
     ethr =  8.69E-07,  avg # of iterations = 12.9

[...]

     total energy              =   -1966.79517748 Ry
     estimated scf accuracy    <       0.00000164 Ry

     iteration # 29     ecut=    30.00 Ry     beta= 0.70
     Davidson diagonalization with overlap

     ethr =  1.95E-09,  avg # of iterations =  1.6

     End of self-consistent calculation

          k = 0.0000 0.0000 0.0000 (  3987 PWs)   bands (ev):

   -93.4294 -93.4260 -53.7670 -53.7639 -53.7528 -53.7478 -53.7421 -53.7346
   -23.9879 -23.9849  -6.9899  -6.9539  -6.9073  -6.8971  -6.6150  -6.6102
     0.9305   2.6278   3.7464   4.6014   5.7213   6.2846   6.3801   6.7073
     6.9130   7.2985   7.3916   7.7495   7.8385   7.9640   8.0421   8.1536
     8.2384   8.2714   8.8536   8.9283   9.2249   9.4330  10.3265  10.5021
    10.5483  10.5564  10.6495  10.7868  10.7890  10.8044  10.8079  10.8349
    10.8726  10.9057  10.9332  10.9882  11.0937  11.0960  11.5275  11.5357
    11.6120  11.8660  12.6678  12.8043  13.0148  13.1309  13.2650  13.5298

     occupation numbers
     1.0000   1.0000   1.0000   1.0000   1.0000   1.0000   1.0000   1.0000
     1.0000   1.0000   1.0000   1.0000   1.0000   1.0000   1.0000   1.0000
     1.0000   1.0000   1.0000   1.0000   1.0000   1.0000   1.0000   1.0000
     1.0000   1.0000   1.0000   1.0000   1.0000   1.0000   1.0000   1.0000
     1.0000   1.0000   1.0000   1.0000   1.0000   1.0000   1.0000   1.0000
     1.0000   1.0000   0.0000   0.0000   0.0000   0.0000   0.0000   0.0000
     0.0000   0.0000   0.0000   0.0000   0.0000   0.0000   0.0000   0.0000
     0.0000   0.0000   0.0000   0.0000   0.0000   0.0000   0.0000   0.0000

[...]

          k = 0.3333-0.0881 0.4077 (  3969 PWs)   bands (ev):

   -93.4274 -93.4266 -53.7638 -53.7612 -53.7456 -53.7440 -53.7421 -53.7392
   -23.9869 -23.9858  -6.9858  -6.9709  -6.9101  -6.8963  -6.6146  -6.6103
     1.5991   2.2696   3.3204   3.9493   5.4748   6.2598   6.5623   7.1582
     7.4007   7.4452   7.5840   7.8155   7.8355   7.8849   7.8954   8.0770
     8.3614   8.6389   9.1123   9.2810   9.3275   9.6404   9.9867  10.1567
    10.2979  10.2998  10.5751  10.6350  10.7224  10.7824  10.8692  10.8698
    10.8758  10.9167  10.9269  11.0128  11.0794  11.1120  11.3754  11.5858
    11.6320  11.7076  12.2060  12.4524  12.7193  13.0149  13.1042  13.5770

     occupation numbers
     1.0000   1.0000   1.0000   1.0000   1.0000   1.0000   1.0000   1.0000
     1.0000   1.0000   1.0000   1.0000   1.0000   1.0000   1.0000   1.0000
     1.0000   1.0000   1.0000   1.0000   1.0000   1.0000   1.0000   1.0000
     1.0000   1.0000   1.0000   1.0000   1.0000   1.0000   1.0000   1.0000
     1.0000   1.0000   1.0000   1.0000   1.0000   1.0000   1.0000   1.0000
     1.0000   1.0000   0.0000   0.0000   0.0000   0.0000   0.0000   0.0000
     0.0000   0.0000   0.0000   0.0000   0.0000   0.0000   0.0000   0.0000
     0.0000   0.0000   0.0000   0.0000   0.0000   0.0000   0.0000   0.0000

     highest occupied, lowest unoccupied level (ev):    10.5762   10.4416

!    total energy              =   -1966.79517761 Ry
     estimated scf accuracy    <       0.00000004 Ry

     The total energy is the sum of the following terms:
     one-electron contribution =    -767.68337010 Ry
     hartree contribution      =     425.37296998 Ry
     xc contribution           =    -112.52920643 Ry
     ewald contribution        =    -417.87581093 Ry
     one-center paw contrib.   =   -1094.07976013 Ry
      -> PAW hartree energy AE =      99.59467049 Ry
      -> PAW hartree energy PS =     -99.01728011 Ry
      -> PAW xc energy AE      =   -1127.17148341 Ry
      -> PAW xc energy PS      =      32.51433290 Ry
      -> total E_H with PAW    =     425.95036035 Ry
      -> total E_XC with PAW   =   -1207.18635694 Ry

     convergence has been achieved in  29 iterations

     Writing all to output data dir calculations_bands/myprefix.save/

     General routines

     Parallel routines

     PAW routines

   This run was terminated on:   2:52:57   3Jun2023

   JOB DONE.