     Program PWSCF v.7.0 starts on 23Jun2023 at  5:44:44

     K-points division:     npool     =       2
     R & G space division:  proc/nbgrp/npool/nimage =       4

     Reading input from espresso_2274.pwi
Warning: card &CELL ignored
Warning: card / ignored

     Current dimensions of program PWSCF are:
     Max number of different atomic species (ntypx) = 10
     Max number of k-points (npk) =  40000
     Max angular momentum in pseudopotentials (lmaxx) =  4
     Message from routine setup:
     using ibrav=0 with symmetry is DISCOURAGED, use correct ibrav instead

     Using Slab Decomposition

     bravais-lattice index     =            0
     lattice parameter (alat)  =       6.9971  a.u.
     unit-cell volume          =    1147.6842 (a.u.)^3
     number of atoms/cell      =           12
     number of atomic types    =            3
     number of electrons       =       144.00
     number of Kohn-Sham states=           90
     kinetic-energy cutoff     =      30.0000  Ry
     charge density cutoff     =     240.0000  Ry
     scf convergence threshold =      1.0E-06
     mixing beta               =       0.7000
     number of iterations used =            8  plain     mixing
     Exchange-correlation= PBE
                           (   1   4   3   4   0   0   0)

     celldm(1)=   6.997051  celldm(2)=   0.000000  celldm(3)=   0.000000
     celldm(4)=   0.000000  celldm(5)=   0.000000  celldm(6)=   0.000000

     crystal axes: (cart. coord. in units of alat)
               a(1) = (   1.000000   0.000000   0.000000 )
               a(2) = (   0.000000   1.698913   0.000000 )
               a(3) = (   0.000000   0.000000   1.971996 )

     reciprocal axes: (cart. coord. in units 2 pi/alat)
               b(1) = (  1.000000  0.000000  0.000000 )
               b(2) = (  0.000000  0.588612  0.000000 )
               b(3) = (  0.000000  0.000000  0.507100 )

     PseudoPot. # 1 for Ta read from file:
     /home/pragov/projects/rrg-bengioy-ad/pragov/crystal_structure_design/SSSP/Ta_pbe_v1.uspp.F.UPF
     MD5 check sum: f8bbe9446314a3b8ea5d9f3e3836c939
     Pseudo is Ultrasoft + core correction, Zval = 13.0
     Generated by new atomic code, or converted to UPF format
     Using radial grid of  921 points,  7 beta functions with:
                l(1) =   0
                l(2) =   0
                l(3) =   1
                l(4) =   1
                l(5) =   2
                l(6) =   2
                l(7) =   3
     Q(r) pseudized with  6 coefficients,  rinner =    1.300   1.300   1.300
                                                       1.300   1.300   1.300
                                                       1.300

     PseudoPot. # 2 for Ni read from file:
     /home/pragov/projects/rrg-bengioy-ad/pragov/crystal_structure_design/SSSP/ni_pbe_v1.4.uspp.F.UPF
     MD5 check sum: 1ee80287db30b12d2bc1f57a5b5d6409
     Pseudo is Ultrasoft + core correction, Zval = 18.0
     Generated by new atomic code, or converted to UPF format
     Using radial grid of  865 points,  6 beta functions with:
                l(1) =   0
                l(2) =   0
                l(3) =   1
                l(4) =   1
                l(5) =   2
                l(6) =   2
     Q(r) pseudized with 10 coefficients,  rinner =    0.980   0.980   0.980
                                                       0.980   0.980

     PseudoPot. # 3 for As read from file:
     /home/pragov/projects/rrg-bengioy-ad/pragov/crystal_structure_design/SSSP/As.pbe-n-rrkjus_psl.0.2.UPF
     MD5 check sum: 767315de957beeeb34f87d97bf945c8f
     Pseudo is Ultrasoft + core correction, Zval =  5.0
     Generated using "atomic" code by A. Dal Corso  v.5.0.99 svn rev. 10869
     Using radial grid of 1209 points,  4 beta functions with:
                l(1) =   0
                l(2) =   0
                l(3) =   1
                l(4) =   1
     Q(r) pseudized with 0 coefficients

     atomic species   valence    mass     pseudopotential
        Ta            13.00   180.94788     Ta( 1.00)
        Ni            18.00    58.69340     Ni( 1.00)
        As             5.00    74.92159     As( 1.00)

      8 Sym. Ops., with inversion, found ( 6 have fractional translation)

                                    s                        frac. trans.

      isym =  1     identity

 cryst.   s( 1) = (     1          0          0      )
                  (     0          1          0      )
                  (     0          0          1      )

 cart.    s( 1) = (  1.0000000  0.0000000  0.0000000 )
                  (  0.0000000  1.0000000  0.0000000 )
                  (  0.0000000  0.0000000  1.0000000 )

      isym =  2     180 deg rotation - cart. axis [0,0,1]

 cryst.   s( 2) = (    -1          0          0      )    f =(  0.0000000 )
                  (     0         -1          0      )       (  0.5000000 )
                  (     0          0          1      )       ( -0.5000000 )

 cart.    s( 2) = ( -1.0000000  0.0000000  0.0000000 )    f =(  0.0000000 )
                  (  0.0000000 -1.0000000  0.0000000 )       (  0.8494565 )
                  (  0.0000000  0.0000000  1.0000000 )       ( -0.9859982 )

[...]

      isym =  4     180 deg rotation - cart. axis [1,0,0]

[...]

      isym =  5     inversion

 cryst.   s( 5) = (    -1          0          0      )
                  (     0         -1          0      )
                  (     0          0         -1      )

 cart.    s( 5) = ( -1.0000000  0.0000000  0.0000000 )
                  (  0.0000000 -1.0000000  0.0000000 )
                  (  0.0000000  0.0000000 -1.0000000 )

      isym =  6     inv. 180 deg rotation - cart. axis [0,0,1]

[...]

      isym =  8     inv. 180 deg rotation - cart. axis [1,0,0]

 cryst.   s( 8) = (    -1          0          0      )    f =(  0.5000000 )
                  (     0          1          0      )       (  0.0000000 )
                  (     0          0          1      )       (  0.0000000 )

 cart.    s( 8) = ( -1.0000000  0.0000000  0.0000000 )    f =(  0.5000000 )
                  (  0.0000000  1.0000000  0.0000000 )       (  0.0000000 )
                  (  0.0000000  0.0000000  1.0000000 )       (  0.0000000 )

   Cartesian axes

     site n.     atom                  positions (alat units)
         1           Ta  tau(   1) = (   0.2500000   0.0328791   0.6676056  )
         2           Ta  tau(   2) = (   0.2500000   0.8823355   0.3183926  )
         3           Ta  tau(   3) = (   0.7500000   1.6660339   1.3043909  )
         4           Ta  tau(   4) = (   0.7500000   0.8165774   1.6536039  )
         5           Ni  tau(   5) = (   0.2500000   0.2672526   1.8291549  )
         6           Ni  tau(   6) = (   0.2500000   1.1167091   1.1288398  )
         7           Ni  tau(   7) = (   0.7500000   1.4316604   0.1428416  )
         8           Ni  tau(   8) = (   0.7500000   0.5822039   0.8431567  )
         9           As  tau(   9) = (   0.2500000   0.4860709   1.2301472  )
        10           As  tau(  10) = (   0.2500000   1.3355274   1.7278476  )
        11           As  tau(  11) = (   0.7500000   1.2128421   0.7418493  )
        12           As  tau(  12) = (   0.7500000   0.3633856   0.2441489  )

   Crystallographic axes

     site n.     atom                  positions (cryst. coord.)
         1           Ta  tau(   1) = (  0.2500000  0.0193530  0.3385430  )
         2           Ta  tau(   2) = (  0.2500000  0.5193530  0.1614570  )
         3           Ta  tau(   3) = (  0.7500000  0.9806470  0.6614570  )
         4           Ta  tau(   4) = (  0.7500000  0.4806470  0.8385430  )
         5           Ni  tau(   5) = (  0.2500000  0.1573080  0.9275650  )
         6           Ni  tau(   6) = (  0.2500000  0.6573080  0.5724350  )
         7           Ni  tau(   7) = (  0.7500000  0.8426920  0.0724350  )
         8           Ni  tau(   8) = (  0.7500000  0.3426920  0.4275650  )
         9           As  tau(   9) = (  0.2500000  0.2861070  0.6238080  )
        10           As  tau(  10) = (  0.2500000  0.7861070  0.8761920  )
        11           As  tau(  11) = (  0.7500000  0.7138930  0.3761920  )
        12           As  tau(  12) = (  0.7500000  0.2138930  0.1238080  )

     number of k points=     8
                       cart. coord. in units 2pi/alat
        k(    1) = (   0.0000000   0.0000000   0.0000000), wk =   0.0740741
        k(    2) = (   0.0000000   0.0000000   0.1690334), wk =   0.1481481
        k(    3) = (   0.0000000   0.1962039   0.0000000), wk =   0.1481481
        k(    4) = (   0.0000000   0.1962039   0.1690334), wk =   0.2962963
        k(    5) = (   0.3333333   0.0000000   0.0000000), wk =   0.1481481
        k(    6) = (   0.3333333   0.0000000   0.1690334), wk =   0.2962963
        k(    7) = (   0.3333333   0.1962039   0.0000000), wk =   0.2962963
        k(    8) = (   0.3333333   0.1962039   0.1690334), wk =   0.5925926

                       cryst. coord.
        k(    1) = (   0.0000000   0.0000000   0.0000000), wk =   0.0740741
        k(    2) = (   0.0000000   0.0000000   0.3333333), wk =   0.1481481
        k(    3) = (   0.0000000   0.3333333   0.0000000), wk =   0.1481481
        k(    4) = (   0.0000000   0.3333333   0.3333333), wk =   0.2962963
        k(    5) = (   0.3333333   0.0000000   0.0000000), wk =   0.1481481
        k(    6) = (   0.3333333   0.0000000   0.3333333), wk =   0.2962963
        k(    7) = (   0.3333333   0.3333333   0.0000000), wk =   0.2962963
        k(    8) = (   0.3333333   0.3333333   0.3333333), wk =   0.5925926

     Check: negative core charge=   -0.000002

     Initial potential from superposition of free atoms

     starting charge     135.9946, renormalised to     144.0000

     negative rho (up, down):  3.974E-01 0.000E+00
     Starting wfcs are  120 randomized atomic wfcs

     Self-consistent Calculation

     iteration #  1     ecut=    30.00 Ry     beta= 0.70
     Davidson diagonalization with overlap

     ethr =  1.00E-02,  avg # of iterations =  3.0

     negative rho (up, down):  3.734E-01 0.000E+00

     total energy              =   -1911.64917150 Ry
     estimated scf accuracy    <     134.12335034 Ry

[...]

     total energy              =   -2013.10535347 Ry
     estimated scf accuracy    <       0.00001431 Ry

     iteration # 14     ecut=    30.00 Ry     beta= 0.70
     Davidson diagonalization with overlap

     ethr =  9.94E-09,  avg # of iterations =  1.9

     negative rho (up, down):  3.796E-01 0.000E+00

     End of self-consistent calculation

          k = 0.0000 0.0000 0.0000 (  3129 PWs)   bands (ev):

   -86.1885 -86.1841 -86.1836 -86.1833 -50.8343 -50.8292 -50.8081 -50.8028
   -46.6237 -46.6200 -46.6146 -46.6119 -46.5159 -46.5095 -46.5051 -46.5011
   -46.4716 -46.4680 -46.4638 -46.4627 -17.4440 -17.4332 -17.4287 -17.4237
   -17.4052 -17.3444 -17.2892 -17.2674 -17.2492 -17.2229 -17.1406 -17.1288
     3.1886   4.7127   4.9721   5.2622   9.7248  10.2681  10.8811  11.1516
    11.9729  12.5950  12.7710  12.9866  13.0307  13.1878  13.4121  13.5217
    14.0870  14.2527  14.5152  14.5301  14.8021  14.9624  14.9818  15.0453
    15.2734  15.2852  15.4545  15.5204  15.5327  15.5356  15.7233  15.8617
    16.0874  16.3953  16.5528  16.6103  17.3183  17.4439  17.4643  17.7663
    18.0238  18.1565  18.1689  18.3949  18.5791  18.8225  19.3615  19.4059
    19.6350  19.7932  20.1638  20.2052  21.1318  21.1833  21.3606  21.6603
    22.0837  22.3218

     occupation numbers
     1.0000   1.0000   1.0000   1.0000   1.0000   1.0000   1.0000   1.0000
     1.0000   1.0000   1.0000   1.0000   1.0000   1.0000   1.0000   1.0000
     1.0000   1.0000   1.0000   1.0000   1.0000   1.0000   1.0000   1.0000
     1.0000   1.0000   1.0000   1.0000   1.0000   1.0000   1.0000   1.0000
     1.0000   1.0000   1.0000   1.0000   1.0000   1.0000   1.0000   1.0000
     1.0000   1.0000   1.0000   1.0000   1.0000   1.0000   1.0000   1.0000
     1.0000   1.0000   1.0000   1.0000   1.0000   1.0000   1.0000   1.0000
     1.0000   1.0000   1.0000   1.0000   1.0000   1.0000   1.0000   1.0000
     1.0000   1.0000   1.0000   1.0000   1.0000   1.0000   1.0000   1.0000
     0.0000   0.0000   0.0000   0.0000   0.0000   0.0000   0.0000   0.0000
     0.0000   0.0000   0.0000   0.0000   0.0000   0.0000   0.0000   0.0000
     0.0000   0.0000

[...]

          k = 0.3333 0.1962 0.1690 (  3185 PWs)   bands (ev):

   -86.1898 -86.1884 -86.1875 -86.1868 -50.8251 -50.8238 -50.8117 -50.8104
   -46.6274 -46.6256 -46.6230 -46.6216 -46.5270 -46.5249 -46.5238 -46.5197
   -46.4743 -46.4722 -46.4698 -46.4679 -17.4857 -17.4810 -17.4723 -17.4709
   -17.3637 -17.3486 -17.2947 -17.2805 -17.2257 -17.2239 -17.1479 -17.1460
     4.5942   4.8898   5.1064   5.2038  10.2570  10.3866  10.7403  11.1390
    11.5550  11.9510  12.3357  12.3664  12.7640  12.8630  12.9832  13.0581
    14.2838  14.4250  14.4713  14.5297  14.6425  14.7715  14.8395  14.8891
    15.0001  15.0701  15.2567  15.2688  15.6424  15.6835  15.8146  15.8380
    16.0241  16.1588  16.3096  16.4444  16.8262  16.9758  17.0530  17.2724
    18.1687  18.4702  18.6744  18.8703  19.0826  19.4271  19.5760  19.7904
    20.1084  20.2973  20.6616  20.7561  21.0748  21.2893  21.4739  21.5565
    22.1596  22.6520

     occupation numbers
     1.0000   1.0000   1.0000   1.0000   1.0000   1.0000   1.0000   1.0000
     1.0000   1.0000   1.0000   1.0000   1.0000   1.0000   1.0000   1.0000
     1.0000   1.0000   1.0000   1.0000   1.0000   1.0000   1.0000   1.0000
     1.0000   1.0000   1.0000   1.0000   1.0000   1.0000   1.0000   1.0000
     1.0000   1.0000   1.0000   1.0000   1.0000   1.0000   1.0000   1.0000
     1.0000   1.0000   1.0000   1.0000   1.0000   1.0000   1.0000   1.0000
     1.0000   1.0000   1.0000   1.0000   1.0000   1.0000   1.0000   1.0000
     1.0000   1.0000   1.0000   1.0000   1.0000   1.0000   1.0000   1.0000
     1.0000   1.0000   1.0000   1.0000   1.0000   1.0000   1.0000   1.0000
     0.0000   0.0000   0.0000   0.0000   0.0000   0.0000   0.0000   0.0000
     0.0000   0.0000   0.0000   0.0000   0.0000   0.0000   0.0000   0.0000
     0.0000   0.0000

     highest occupied, lowest unoccupied level (ev):    17.8322   17.9527

!    total energy              =   -2013.10535485 Ry
     estimated scf accuracy    <       0.00000008 Ry

     The total energy is the sum of the following terms:
     one-electron contribution =   -1080.75552259 Ry
     hartree contribution      =     623.70347182 Ry
     xc contribution           =    -349.14796932 Ry
     ewald contribution        =   -1206.90533476 Ry

     convergence has been achieved in  14 iterations

     Writing all to output data dir calculations_bands/myprefix.save/

     General routines

     Parallel routines

   This run was terminated on:   5:45: 3  23Jun2023

   JOB DONE.