     Program PWSCF v.7.0 starts on  6Jun2023 at  6: 4:15

     K-points division:     npool     =       2
     R & G space division:  proc/nbgrp/npool/nimage =       4

     Reading input from espresso_13738.pwi
Warning: card &CELL ignored
Warning: card / ignored

     Current dimensions of program PWSCF are:
     Max number of different atomic species (ntypx) = 10
     Max number of k-points (npk) =  40000
     Max angular momentum in pseudopotentials (lmaxx) =  4
     Message from routine setup:
     using ibrav=0 with symmetry is DISCOURAGED, use correct ibrav instead

     Using Slab Decomposition

     bravais-lattice index     =            0
     lattice parameter (alat)  =      12.2822  a.u.
     unit-cell volume          =    1894.1789 (a.u.)^3
     number of atoms/cell      =            6
     number of atomic types    =            2
     number of electrons       =        48.00
     number of Kohn-Sham states=           64
     kinetic-energy cutoff     =      30.0000  Ry
     charge density cutoff     =     240.0000  Ry
     scf convergence threshold =      1.0E-06
     mixing beta               =       0.7000
     number of iterations used =            8  plain     mixing
     Exchange-correlation= SLA  PW   PBE  PBE
                           (   1   4   3   4   0   0   0)

     celldm(1)=  12.282157  celldm(2)=   0.000000  celldm(3)=   0.000000
     celldm(4)=   0.000000  celldm(5)=   0.000000  celldm(6)=   0.000000

     crystal axes: (cart. coord. in units of alat)
               a(1) = (   1.000000   0.000000   0.000000 )
               a(2) = (  -0.651545   0.758610   0.000000 )
               a(3) = (   0.000000   0.000000   1.347653 )

     reciprocal axes: (cart. coord. in units 2 pi/alat)
               b(1) = (  1.000000  0.858866  0.000000 )
               b(2) = (  0.000000  1.318200  0.000000 )
               b(3) = (  0.000000  0.000000  0.742031 )

     PseudoPot. # 1 for Cs read from file:
     /home/pragov/projects/rrg-bengioy-ad/pragov/crystal_structure_design/SSSP/Cs_pbe_v1.uspp.F.UPF
     MD5 check sum: 3476d69cb178dfad3ffaa59df4e07ca4
     Pseudo is Ultrasoft + core correction, Zval =  9.0
     Generated by new atomic code, or converted to UPF format
     Using radial grid of  905 points,  6 beta functions with:
                l(1) =   0
                l(2) =   0
                l(3) =   1
                l(4) =   1
                l(5) =   2
                l(6) =   2
     Q(r) pseudized with  6 coefficients,  rinner =    1.500   1.500   1.500
                                                       1.500   1.500

     PseudoPot. # 2 for Se read from file:
     /home/pragov/projects/rrg-bengioy-ad/pragov/crystal_structure_design/SSSP/Se_pbe_v1.uspp.F.UPF
     MD5 check sum: 1b3568f3a8ae88f9a2a0ad0698632c85
     Pseudo is Ultrasoft + core correction, Zval =  6.0
     Generated by new atomic code, or converted to UPF format
     Using radial grid of  877 points,  6 beta functions with:
                l(1) =   0
                l(2) =   0
                l(3) =   1
                l(4) =   1
                l(5) =   2
                l(6) =   2
     Q(r) pseudized with  8 coefficients,  rinner =    1.300   1.300   1.300
                                                       1.300   1.300

     atomic species   valence    mass     pseudopotential
        Cs             9.00   132.90545     Cs( 1.00)
        Se             6.00    78.97100     Se( 1.00)

      2 Sym. Ops. (no inversion) found ( 1 have fractional translation)

                                    s                        frac. trans.

      isym =  1     identity

 cryst.   s( 1) = (     1          0          0      )
                  (     0          1          0      )
                  (     0          0          1      )

 cart.    s( 1) = (  1.0000000 -0.0000000  0.0000000 )
                  (  0.0000000  1.0000000  0.0000000 )
                  (  0.0000000  0.0000000  1.0000000 )

      isym =  2     180 deg rotation - cart. axis [0,0,1]

 cryst.   s( 2) = (    -1          0          0      )    f =(  0.0000000 )
                  (     0         -1          0      )       (  0.0000000 )
                  (     0          0          1      )       ( -0.5000000 )

 cart.    s( 2) = ( -1.0000000  0.0000000  0.0000000 )    f =(  0.0000000 )
                  (  0.0000000 -1.0000000  0.0000000 )       (  0.0000000 )
                  (  0.0000000  0.0000000  1.0000000 )       ( -0.6738267 )

   Cartesian axes

     site n.     atom                  positions (alat units)
         1           Cs  tau(   1) = (   0.1481118   0.3913011   0.6180622  )
         2           Cs  tau(   2) = (   0.2003436   0.3673093   1.2918889  )
         3           Cs  tau(   3) = (   0.6823716   0.1458975   0.2387382  )
         4           Cs  tau(   4) = (  -0.3339162   0.6127129   0.9125649  )
         5           Se  tau(   5) = (  -0.4524707   0.6671690   0.3223964  )
         6           Se  tau(   6) = (   0.8009261   0.0914414   0.9962232  )

   Crystallographic axes

     site n.     atom                  positions (cryst. coord.)
         1           Cs  tau(   1) = (  0.4841870  0.5158130  0.4586210  )
         2           Cs  tau(   2) = (  0.5158130  0.4841870  0.9586210  )
         3           Cs  tau(   3) = (  0.8076780  0.1923220  0.1771510  )
         4           Cs  tau(   4) = (  0.1923220  0.8076780  0.6771510  )
         5           Se  tau(   5) = (  0.1205380  0.8794620  0.2392280  )
         6           Se  tau(   6) = (  0.8794620  0.1205380  0.7392280  )

     number of k points=    10
                       cart. coord. in units 2pi/alat
        k(    1) = (   0.0000000   0.0000000   0.0000000), wk =   0.0740741
        k(    2) = (   0.0000000   0.0000000   0.2473435), wk =   0.1481481
        k(    3) = (   0.0000000   0.4393999   0.0000000), wk =   0.1481481
        k(    4) = (   0.0000000   0.4393999   0.2473435), wk =   0.2962963
        k(    5) = (   0.3333333   0.2862886   0.0000000), wk =   0.1481481
        k(    6) = (   0.3333333   0.2862886   0.2473435), wk =   0.2962963
        k(    7) = (   0.3333333   0.7256885   0.0000000), wk =   0.1481481
        k(    8) = (   0.3333333   0.7256885   0.2473435), wk =   0.2962963
        k(    9) = (   0.3333333  -0.1531113   0.0000000), wk =   0.1481481
        k(   10) = (   0.3333333  -0.1531113   0.2473435), wk =   0.2962963

                       cryst. coord.
        k(    1) = (   0.0000000   0.0000000   0.0000000), wk =   0.0740741
        k(    2) = (   0.0000000   0.0000000   0.3333333), wk =   0.1481481
        k(    3) = (   0.0000000   0.3333333   0.0000000), wk =   0.1481481
        k(    4) = (   0.0000000   0.3333333   0.3333333), wk =   0.2962963
        k(    5) = (   0.3333333   0.0000000   0.0000000), wk =   0.1481481
        k(    6) = (   0.3333333   0.0000000   0.3333333), wk =   0.2962963
        k(    7) = (   0.3333333   0.3333333   0.0000000), wk =   0.1481481
        k(    8) = (   0.3333333   0.3333333   0.3333333), wk =   0.2962963
        k(    9) = (   0.3333333  -0.3333333   0.0000000), wk =   0.1481481
        k(   10) = (   0.3333333  -0.3333333   0.3333333), wk =   0.2962963

     Initial potential from superposition of free atoms

     starting charge      47.8423, renormalised to      48.0000
     Starting wfcs are   60 randomized atomic wfcs +    4 random wfcs

     Self-consistent Calculation

     iteration #  1     ecut=    30.00 Ry     beta= 0.70
     Davidson diagonalization with overlap

     ethr =  1.00E-02,  avg # of iterations =  7.0

     total energy              =    -339.65730250 Ry
     estimated scf accuracy    <       0.60163059 Ry

[...]

     total energy              =    -339.91180405 Ry
     estimated scf accuracy    <       0.00000170 Ry

     iteration #  7     ecut=    30.00 Ry     beta= 0.70
     Davidson diagonalization with overlap

     ethr =  3.55E-09,  avg # of iterations =  3.7

     End of self-consistent calculation

          k = 0.0000 0.0000 0.0000 (  5227 PWs)   bands (ev):

   -17.6231 -17.5655 -17.2766 -17.2590  -6.0984  -5.9406  -4.8908  -4.6065
    -4.4606  -4.4560  -4.3998  -4.2571  -4.1748  -4.1564  -4.0133  -4.0062
    -3.9663  -3.8723   3.6377   3.6613   3.6636   4.0111   4.0568   4.2199
     5.8935   7.1306   7.3100   7.7658   7.9771   8.4355   8.5482   8.9472
     9.4682   9.7943   9.8033   9.9811  10.2538  10.2571  10.7873  10.9277
    10.9708  11.1921  11.6000  11.6703  12.3691  12.6475  13.0324  13.1872
    13.3926  13.4702  13.5540  13.7304  13.9266  14.0827  14.4581  15.1422
    15.3775  15.6718  15.6976  15.9235  16.2660  16.3461  16.6910  16.8573

     occupation numbers
     1.0000   1.0000   1.0000   1.0000   1.0000   1.0000   1.0000   1.0000
     1.0000   1.0000   1.0000   1.0000   1.0000   1.0000   1.0000   1.0000
     1.0000   1.0000   1.0000   1.0000   1.0000   1.0000   1.0000   1.0000
     0.0000   0.0000   0.0000   0.0000   0.0000   0.0000   0.0000   0.0000
     0.0000   0.0000   0.0000   0.0000   0.0000   0.0000   0.0000   0.0000
     0.0000   0.0000   0.0000   0.0000   0.0000   0.0000   0.0000   0.0000
     0.0000   0.0000   0.0000   0.0000   0.0000   0.0000   0.0000   0.0000
     0.0000   0.0000   0.0000   0.0000   0.0000   0.0000   0.0000   0.0000

[...]

          k = 0.3333-0.1531 0.2473 (  5232 PWs)   bands (ev):

   -17.5960 -17.5745 -17.2791 -17.2748  -6.1534  -6.0903  -4.7918  -4.7366
    -4.5053  -4.4120  -4.3802  -4.3489  -4.0555  -4.0448  -4.0077  -3.9616
    -3.8514  -3.8334   3.4728   3.5584   3.8765   3.9531   4.0738   4.0833
     7.0602   7.4361   7.7743   8.0223   8.1537   8.1978   8.4328   8.5357
     8.8503   9.0706   9.1431   9.6780   9.7887  10.1396  10.3618  10.4543
    10.9731  11.0068  11.2479  11.7569  11.9537  12.0060  12.5020  12.5572
    13.4701  13.9355  13.9829  14.2574  14.5124  14.8339  15.3249  15.3255
    15.7976  15.9161  16.0860  16.3910  16.4628  16.6575  16.7073  16.9751

     occupation numbers
     1.0000   1.0000   1.0000   1.0000   1.0000   1.0000   1.0000   1.0000
     1.0000   1.0000   1.0000   1.0000   1.0000   1.0000   1.0000   1.0000
     1.0000   1.0000   1.0000   1.0000   1.0000   1.0000   1.0000   1.0000
     0.0000   0.0000   0.0000   0.0000   0.0000   0.0000   0.0000   0.0000
     0.0000   0.0000   0.0000   0.0000   0.0000   0.0000   0.0000   0.0000
     0.0000   0.0000   0.0000   0.0000   0.0000   0.0000   0.0000   0.0000
     0.0000   0.0000   0.0000   0.0000   0.0000   0.0000   0.0000   0.0000
     0.0000   0.0000   0.0000   0.0000   0.0000   0.0000   0.0000   0.0000

     highest occupied, lowest unoccupied level (ev):     4.2199    5.8935

!    total energy              =    -339.91180474 Ry
     estimated scf accuracy    <       0.00000009 Ry

     The total energy is the sum of the following terms:
     one-electron contribution =     -24.85786466 Ry
     hartree contribution      =      29.69506203 Ry
     xc contribution           =    -180.55475330 Ry
     ewald contribution        =    -164.19424881 Ry

     convergence has been achieved in   7 iterations

     Writing all to output data dir calculations_bands/myprefix.save/

     General routines

     Parallel routines

   This run was terminated on:   6: 4:25   6Jun2023

   JOB DONE.