     Program PWSCF v.7.0 starts on  7Jun2023 at  7:49: 0

     K-points division:     npool     =       2
     R & G space division:  proc/nbgrp/npool/nimage =       4

     Reading input from espresso_4269.pwi
Warning: card &CELL ignored
Warning: card / ignored

     Current dimensions of program PWSCF are:
     Max number of different atomic species (ntypx) = 10
     Max number of k-points (npk) =  40000
     Max angular momentum in pseudopotentials (lmaxx) =  4
     Message from routine setup:
     using ibrav=0 with symmetry is DISCOURAGED, use correct ibrav instead

     Using Slab Decomposition

     bravais-lattice index     =            0
     lattice parameter (alat)  =      15.6275  a.u.
     unit-cell volume          =     879.0640 (a.u.)^3
     number of atoms/cell      =            8
     number of atomic types    =            3
     number of electrons       =        72.00
     number of Kohn-Sham states=           64
     kinetic-energy cutoff     =      30.0000  Ry
     charge density cutoff     =     240.0000  Ry
     scf convergence threshold =      1.0E-06
     mixing beta               =       0.7000
     number of iterations used =            8  plain     mixing
     Exchange-correlation= PBE
                           (   1   4   3   4   0   0   0)

     celldm(1)=  15.627535  celldm(2)=   0.000000  celldm(3)=   0.000000
     celldm(4)=   0.000000  celldm(5)=   0.000000  celldm(6)=   0.000000

     crystal axes: (cart. coord. in units of alat)
               a(1) = (   1.000000   0.000000   0.000000 )
               a(2) = (  -0.880498   0.474050   0.000000 )
               a(3) = (   0.000000   0.000000   0.485876 )

     reciprocal axes: (cart. coord. in units 2 pi/alat)
               b(1) = (  1.000000  1.857397  0.000000 )
               b(2) = (  0.000000  2.109484  0.000000 )
               b(3) = (  0.000000  0.000000  2.058139 )

     PseudoPot. # 1 for Y  read from file:
     /home/pragov/projects/rrg-bengioy-ad/pragov/crystal_structure_design/SSSP/Y_pbe_v1.uspp.F.UPF
     MD5 check sum: 2cf71db95cafeb975fc457bd7f14888e
     Pseudo is Ultrasoft + core correction, Zval = 11.0
     Generated by new atomic code, or converted to UPF format
     Using radial grid of  885 points,  6 beta functions with:
                l(1) =   0
                l(2) =   0
                l(3) =   1
                l(4) =   1
                l(5) =   2
                l(6) =   2
     Q(r) pseudized with  6 coefficients,  rinner =    1.200   1.200   1.200
                                                       1.200   1.200

     PseudoPot. # 2 for Co read from file:
     /home/pragov/projects/rrg-bengioy-ad/pragov/crystal_structure_design/SSSP/Co_pbe_v1.2.uspp.F.UPF
     MD5 check sum: 5f91765df6ddd3222702df6e7b74a16d
     Pseudo is Ultrasoft + core correction, Zval = 17.0
     Generated by new atomic code, or converted to UPF format
     Using radial grid of  863 points,  6 beta functions with:
                l(1) =   0
                l(2) =   0
                l(3) =   1
                l(4) =   1
                l(5) =   2
                l(6) =   2
     Q(r) pseudized with  8 coefficients,  rinner =    1.200   1.200   1.200
                                                       1.200   1.200

     PseudoPot. # 3 for Si read from file:
     /home/pragov/projects/rrg-bengioy-ad/pragov/crystal_structure_design/SSSP/Si.pbe-n-rrkjus_psl.1.0.0.UPF
     MD5 check sum: 0b0bb1205258b0d07b9f9672cf965d36
     Pseudo is Ultrasoft + core correction, Zval =  4.0
     Generated using "atomic" code by A. Dal Corso  v.5.1
     Using radial grid of 1141 points,  6 beta functions with:
                l(1) =   0
                l(2) =   0
                l(3) =   1
                l(4) =   1
                l(5) =   2
                l(6) =   2
     Q(r) pseudized with 0 coefficients

     atomic species   valence    mass     pseudopotential
        Y             11.00    88.90584     Y ( 1.00)
        Co            17.00    58.93319     Co( 1.00)
        Si             4.00    28.08500     Si( 1.00)

      4 Sym. Ops., with inversion, found ( 2 have fractional translation)

                                    s                        frac. trans.

      isym =  1     identity

 cryst.   s( 1) = (     1          0          0      )
                  (     0          1          0      )
                  (     0          0          1      )

 cart.    s( 1) = (  1.0000000 -0.0000000  0.0000000 )
                  (  0.0000000  1.0000000  0.0000000 )
                  (  0.0000000  0.0000000  1.0000000 )

      isym =  2     180 deg rotation - cart. axis [0,0,1]

 cryst.   s( 2) = (    -1          0          0      )    f =( -0.0000000 )
                  (     0         -1          0      )       ( -0.0000000 )
                  (     0          0          1      )       (  0.5000000 )

 cart.    s( 2) = ( -1.0000000  0.0000000  0.0000000 )    f =( -0.0000000 )
                  (  0.0000000 -1.0000000  0.0000000 )       ( -0.0000000 )
                  (  0.0000000  0.0000000  1.0000000 )       (  0.2429379 )

      isym =  3     inversion

 cryst.   s( 3) = (    -1          0          0      )
                  (     0         -1          0      )
                  (     0          0         -1      )

 cart.    s( 3) = ( -1.0000000  0.0000000  0.0000000 )
                  (  0.0000000 -1.0000000  0.0000000 )
                  (  0.0000000  0.0000000 -1.0000000 )

      isym =  4     inv. 180 deg rotation - cart. axis [0,0,1]

 cryst.   s( 4) = (     1          0          0      )    f =(  0.0000000 )
                  (     0          1          0      )       (  0.0000000 )
                  (     0          0         -1      )       (  0.5000000 )

 cart.    s( 4) = (  1.0000000 -0.0000000  0.0000000 )    f =(  0.0000000 )
                  (  0.0000000  1.0000000  0.0000000 )       (  0.0000000 )
                  (  0.0000000  0.0000000 -1.0000000 )       (  0.2429379 )

   Cartesian axes

     site n.     atom                  positions (alat units)
         1           Y   tau(   1) = (   0.8007349   0.0502322   0.3644069  )
         2           Y   tau(   2) = (  -0.6812331   0.4238173   0.1214690  )
         3           Co  tau(   3) = (   0.3999838   0.1512564   0.3644069  )
         4           Co  tau(   4) = (  -0.2804820   0.3227931   0.1214690  )
         5           Si  tau(   5) = (   0.1397360   0.2168615   0.3644069  )
         6           Si  tau(   6) = (  -0.0202342   0.2571880   0.1214690  )
         7           Si  tau(   7) = (  -0.4089388   0.3551754   0.3644069  )
         8           Si  tau(   8) = (   0.5284406   0.1188741   0.1214690  )

   Crystallographic axes

     site n.     atom                  positions (cryst. coord.)
         1           Y   tau(   1) = (  0.8940360  0.1059640  0.7500000  )
         2           Y   tau(   2) = (  0.1059640  0.8940360  0.2500000  )
         3           Co  tau(   3) = (  0.6809270  0.3190730  0.7500000  )
         4           Co  tau(   4) = (  0.3190730  0.6809270  0.2500000  )
         5           Si  tau(   5) = (  0.5425340  0.4574660  0.7500000  )
         6           Si  tau(   6) = (  0.4574660  0.5425340  0.2500000  )
         7           Si  tau(   7) = (  0.2507630  0.7492370  0.7500000  )
         8           Si  tau(   8) = (  0.7492370  0.2507630  0.2500000  )

     number of k points=    10
                       cart. coord. in units 2pi/alat
        k(    1) = (   0.0000000   0.0000000   0.0000000), wk =   0.0740741
        k(    2) = (   0.0000000   0.0000000   0.6860462), wk =   0.1481481
        k(    3) = (   0.0000000   0.7031614   0.0000000), wk =   0.1481481
        k(    4) = (   0.0000000   0.7031614   0.6860462), wk =   0.2962963
        k(    5) = (   0.3333333   0.6191323   0.0000000), wk =   0.1481481
        k(    6) = (   0.3333333   0.6191323   0.6860462), wk =   0.2962963
        k(    7) = (   0.3333333   1.3222938   0.0000000), wk =   0.1481481
        k(    8) = (   0.3333333   1.3222938   0.6860462), wk =   0.2962963
        k(    9) = (   0.3333333  -0.0840291   0.0000000), wk =   0.1481481
        k(   10) = (   0.3333333  -0.0840291   0.6860462), wk =   0.2962963

                       cryst. coord.
        k(    1) = (   0.0000000   0.0000000   0.0000000), wk =   0.0740741
        k(    2) = (   0.0000000   0.0000000   0.3333333), wk =   0.1481481
        k(    3) = (   0.0000000   0.3333333   0.0000000), wk =   0.1481481
        k(    4) = (   0.0000000   0.3333333   0.3333333), wk =   0.2962963
        k(    5) = (   0.3333333  -0.0000000   0.0000000), wk =   0.1481481
        k(    6) = (   0.3333333  -0.0000000   0.3333333), wk =   0.2962963
        k(    7) = (   0.3333333   0.3333333   0.0000000), wk =   0.1481481
        k(    8) = (   0.3333333   0.3333333   0.3333333), wk =   0.2962963
        k(    9) = (   0.3333333  -0.3333333   0.0000000), wk =   0.1481481
        k(   10) = (   0.3333333  -0.3333333   0.3333333), wk =   0.2962963

     Check: negative core charge=   -0.000009

     Initial potential from superposition of free atoms

     starting charge      69.9888, renormalised to      72.0000

     negative rho (up, down):  8.748E-02 0.000E+00
     Starting wfcs are   68 randomized atomic wfcs

     Self-consistent Calculation

     iteration #  1     ecut=    30.00 Ry     beta= 0.70
     Davidson diagonalization with overlap

     ethr =  1.00E-02,  avg # of iterations =  5.4

     negative rho (up, down):  8.408E-02 0.000E+00

     total energy              =    -808.72406603 Ry
     estimated scf accuracy    <      13.01766230 Ry

[...]

     total energy              =    -817.98043434 Ry
     estimated scf accuracy    <       0.00000229 Ry

     iteration # 13     ecut=    30.00 Ry     beta= 0.70
     Davidson diagonalization with overlap

     ethr =  3.17E-09,  avg # of iterations =  2.1

     negative rho (up, down):  8.518E-02 0.000E+00

     End of self-consistent calculation

          k = 0.0000 0.0000 0.0000 (  2433 PWs)   bands (ev):

   -82.4229 -82.4224 -45.7635 -45.7572 -45.7041 -45.7006 -45.6275 -45.6202
   -29.7283 -29.7210  -9.9352  -9.8093  -9.7238  -9.7137  -9.6973  -9.6962
     1.0695   2.5047   5.3915   6.9094   8.1551   8.1715   8.1875   9.2101
     9.7950   9.8131  10.2397  10.4398  10.6468  10.8333  11.0049  11.0361
    11.6630  11.7659  12.1036  12.5699  12.6616  13.7961  14.0966  14.7201
    14.7509  15.0118  15.3088  15.3855  15.5566  16.0109  16.0978  17.1247
    17.2186  17.3940  17.9980  18.2825  18.3812  18.4636  20.0421  20.5193
    20.5850  21.3598  22.3726  22.4407  22.5985  23.0923  23.1990  23.2598

     occupation numbers
     1.0000   1.0000   1.0000   1.0000   1.0000   1.0000   1.0000   1.0000
     1.0000   1.0000   1.0000   1.0000   1.0000   1.0000   1.0000   1.0000
     1.0000   1.0000   1.0000   1.0000   1.0000   1.0000   1.0000   1.0000
     1.0000   1.0000   1.0000   1.0000   1.0000   1.0000   1.0000   1.0000
     1.0000   1.0000   1.0000   1.0000   0.0000   0.0000   0.0000   0.0000
     0.0000   0.0000   0.0000   0.0000   0.0000   0.0000   0.0000   0.0000
     0.0000   0.0000   0.0000   0.0000   0.0000   0.0000   0.0000   0.0000
     0.0000   0.0000   0.0000   0.0000   0.0000   0.0000   0.0000   0.0000

[...]

          k = 0.3333-0.0840 0.6860 (  2433 PWs)   bands (ev):

   -82.4228 -82.4226 -45.7619 -45.7600 -45.7051 -45.7000 -45.6238 -45.6229
   -29.7221 -29.7186  -9.8955  -9.8606  -9.7914  -9.7867  -9.7009  -9.6917
     2.1996   3.0862   4.6779   5.4584   7.6187   8.5796   8.6155   9.2304
     9.2477   9.5391   9.6590  10.3954  10.5801  10.7581  10.8490  11.1286
    11.2782  11.5515  12.0102  12.3157  12.8760  13.7706  14.0660  14.6042
    14.9197  15.0894  15.3268  15.5810  15.9973  16.7323  16.8554  17.4120
    17.4523  17.5045  18.5178  18.8238  18.8955  19.4841  19.5290  20.1437
    20.6330  21.6013  22.6859  22.6958  23.3990  23.4967  23.5578  24.6163

     occupation numbers
     1.0000   1.0000   1.0000   1.0000   1.0000   1.0000   1.0000   1.0000
     1.0000   1.0000   1.0000   1.0000   1.0000   1.0000   1.0000   1.0000
     1.0000   1.0000   1.0000   1.0000   1.0000   1.0000   1.0000   1.0000
     1.0000   1.0000   1.0000   1.0000   1.0000   1.0000   1.0000   1.0000
     1.0000   1.0000   1.0000   1.0000   0.0000   0.0000   0.0000   0.0000
     0.0000   0.0000   0.0000   0.0000   0.0000   0.0000   0.0000   0.0000
     0.0000   0.0000   0.0000   0.0000   0.0000   0.0000   0.0000   0.0000
     0.0000   0.0000   0.0000   0.0000   0.0000   0.0000   0.0000   0.0000

     highest occupied, lowest unoccupied level (ev):    12.8984   11.8141

!    total energy              =    -817.98043457 Ry
     estimated scf accuracy    <       0.00000003 Ry

     The total energy is the sum of the following terms:
     one-electron contribution =    -578.05674075 Ry
     hartree contribution      =     322.60291605 Ry
     xc contribution           =    -134.39000082 Ry
     ewald contribution        =    -428.13660906 Ry

     convergence has been achieved in  13 iterations

     Writing all to output data dir calculations_bands/myprefix.save/

     General routines

     Parallel routines

   This run was terminated on:   7:49:14   7Jun2023

   JOB DONE.