     Program PWSCF v.7.0 starts on  7Jun2023 at  9:46:40

     K-points division:     npool     =       2
     R & G space division:  proc/nbgrp/npool/nimage =       4

     Reading input from espresso_9744.pwi
Warning: card &CELL ignored
Warning: card / ignored

     Current dimensions of program PWSCF are:
     Max number of different atomic species (ntypx) = 10
     Max number of k-points (npk) =  40000
     Max angular momentum in pseudopotentials (lmaxx) =  4
     file Ba.pbe-spn-kjpaw_psl.1.0.0.UPF: wavefunction(s)  5S 6S renormalized
     Message from routine setup:
     using ibrav=0 with symmetry is DISCOURAGED, use correct ibrav instead

     Using Slab Decomposition

     bravais-lattice index     =            0
     lattice parameter (alat)  =       7.9378  a.u.
     unit-cell volume          =     786.5486 (a.u.)^3
     number of atoms/cell      =            5
     number of atomic types    =            3
     number of electrons       =        46.00
     number of Kohn-Sham states=           64
     kinetic-energy cutoff     =      30.0000  Ry
     charge density cutoff     =     240.0000  Ry
     scf convergence threshold =      1.0E-06
     mixing beta               =       0.7000
     number of iterations used =            8  plain     mixing
     Exchange-correlation= PBE
                           (   1   4   3   4   0   0   0)

     celldm(1)=   7.937810  celldm(2)=   0.000000  celldm(3)=   0.000000
     celldm(4)=   0.000000  celldm(5)=   0.000000  celldm(6)=   0.000000

     crystal axes: (cart. coord. in units of alat)
               a(1) = (   1.000000   0.000000   0.000000 )
               a(2) = (   0.000000   0.999581   0.000000 )
               a(3) = (  -0.500000  -0.499791   1.573278 )

     reciprocal axes: (cart. coord. in units 2 pi/alat)
               b(1) = (  1.000000  0.000000  0.317808 )
               b(2) = (  0.000000  1.000419  0.317808 )
               b(3) = (  0.000000  0.000000  0.635616 )

     PseudoPot. # 1 for Ba read from file:
     /home/pragov/projects/rrg-bengioy-ad/pragov/crystal_structure_design/SSSP/Ba.pbe-spn-kjpaw_psl.1.0.0.UPF
     MD5 check sum: c432291d3e53af55f19d5e8866385beb
     Pseudo is Projector augmented-wave + core cor, Zval = 10.0
     Generated using "atomic" code by A. Dal Corso  v.5.1
     Shape of augmentation charge: PSQ
     Using radial grid of 1251 points,  7 beta functions with:
                l(1) =   0
                l(2) =   0
                l(3) =   0
                l(4) =   1
                l(5) =   1
                l(6) =   2
                l(7) =   2
     Q(r) pseudized with 0 coefficients

     PseudoPot. # 2 for Ru read from file:
     /home/pragov/projects/rrg-bengioy-ad/pragov/crystal_structure_design/SSSP/Ru_ONCV_PBE-1.0.oncvpsp.upf
     MD5 check sum: be037bb81c227cfb9b1461a9f099f4bd
     Pseudo is Norm-conserving, Zval = 16.0
     Generated using ONCVPSP code by D. R. Hamann
     Using radial grid of 1458 points,  6 beta functions with:
                l(1) =   0
                l(2) =   0
                l(3) =   1
                l(4) =   1
                l(5) =   2
                l(6) =   2

     PseudoPot. # 3 for N  read from file:
     /home/pragov/projects/rrg-bengioy-ad/pragov/crystal_structure_design/SSSP/N.pbe-n-radius_5.UPF
     MD5 check sum: 16739722b17309cd8fe442a2ace49922
     Pseudo is Ultrasoft + core correction, Zval =  5.0
     Generated using "atomic" code by A. Dal Corso  v.5.1
     Using radial grid of 1085 points,  4 beta functions with:
                l(1) =   0
                l(2) =   0
                l(3) =   1
                l(4) =   1
     Q(r) pseudized with 0 coefficients

     atomic species   valence    mass     pseudopotential
        Ba            10.00   137.32700     Ba( 1.00)
        Ru            16.00   101.07000     Ru( 1.00)
        N              5.00    14.00700     N ( 1.00)

      8 Sym. Ops., with inversion, found ( 6 have fractional translation)

                                    s                        frac. trans.

      isym =  1     identity

 cryst.   s( 1) = (     1          0          0      )
                  (     0          1          0      )
                  (     0          0          1      )

 cart.    s( 1) = (  1.0000000  0.0000000  0.0000000 )
                  (  0.0000000  1.0000000  0.0000000 )
                  (  0.0000000  0.0000000  1.0000000 )

      isym =  2     180 deg rotation - cart. axis [0,0,1]

 cryst.   s( 2) = (    -1          0          0      )    f =( -0.5000000 )
                  (     0         -1          0      )       (  0.5000000 )
                  (     1          1          1      )       (  0.0000000 )

 cart.    s( 2) = ( -1.0000000  0.0000000 -0.0000000 )    f =( -0.5000000 )
                  (  0.0000000 -1.0000000  0.0000002 )       (  0.4997906 )
                  (  0.0000000  0.0000000  1.0000000 )       (  0.0000000 )

[...]

      isym =  4     180 deg rotation - cart. axis [1,0,0]

[...]

      isym =  5     inversion

 cryst.   s( 5) = (    -1          0          0      )
                  (     0         -1          0      )
                  (     0          0         -1      )

 cart.    s( 5) = ( -1.0000000  0.0000000 -0.0000000 )
                  (  0.0000000 -1.0000000 -0.0000000 )
                  (  0.0000000  0.0000000 -1.0000000 )

      isym =  6     inv. 180 deg rotation - cart. axis [0,0,1]

[...]

      isym =  8     inv. 180 deg rotation - cart. axis [1,0,0]

 cryst.   s( 8) = (    -1          0          0      )    f =( -0.5000000 )
                  (     0          1          0      )       (  0.0000000 )
                  (     1          0          1      )       (  0.0000000 )

 cart.    s( 8) = ( -1.0000000  0.0000000 -0.0000000 )    f =( -0.5000000 )
                  (  0.0000000  1.0000000  0.0000000 )       (  0.0000000 )
                  (  0.0000000  0.0000000  1.0000000 )       (  0.0000000 )

   Cartesian axes

     site n.     atom                  positions (alat units)
         1           Ba  tau(   1) = (   0.7500000   0.7496860   0.3492519  )
         2           Ba  tau(   2) = (  -0.2500000  -0.2498952   1.2240259  )
         3           Ru  tau(   3) = (   0.2500000   0.2498954   0.7866389  )
         4           N   tau(   4) = (   0.2500000   0.2498953   0.3525432  )
         5           N   tau(   5) = (   0.2500000   0.2498954   1.2207346  )

   Crystallographic axes

     site n.     atom                  positions (cryst. coord.)
         1           Ba  tau(   1) = (  0.8609950  0.8609950  0.2219900  )
         2           Ba  tau(   2) = (  0.1390050  0.1390050  0.7780100  )
         3           Ru  tau(   3) = (  0.5000000  0.5000000  0.5000000  )
         4           N   tau(   4) = (  0.3620410  0.3620410  0.2240820  )
         5           N   tau(   5) = (  0.6379590  0.6379590  0.7759180  )

     number of k points=     8
                       cart. coord. in units 2pi/alat
        k(    1) = (   0.0000000   0.0000000   0.0000000), wk =   0.0740741
        k(    2) = (   0.0000000   0.0000000   0.2118719), wk =   0.1481481
        k(    3) = (   0.0000000   0.3334730   0.1059359), wk =   0.2962963
        k(    4) = (   0.0000000   0.3334730   0.3178078), wk =   0.1481481
        k(    5) = (   0.3333333   0.0000000   0.1059359), wk =   0.2962963
        k(    6) = (   0.3333333   0.0000000   0.3178078), wk =   0.1481481
        k(    7) = (   0.3333333   0.3334730   0.2118719), wk =   0.5925926
        k(    8) = (   0.3333333   0.3334730  -0.0000000), wk =   0.2962963

                       cryst. coord.
        k(    1) = (   0.0000000   0.0000000   0.0000000), wk =   0.0740741
        k(    2) = (   0.0000000   0.0000000   0.3333333), wk =   0.1481481
        k(    3) = (   0.0000000   0.3333333  -0.0000000), wk =   0.2962963
        k(    4) = (   0.0000000   0.3333333   0.3333333), wk =   0.1481481
        k(    5) = (   0.3333333   0.0000000   0.0000000), wk =   0.2962963
        k(    6) = (   0.3333333   0.0000000   0.3333333), wk =   0.1481481
        k(    7) = (   0.3333333   0.3333333   0.0000000), wk =   0.5925926
        k(    8) = (   0.3333333   0.3333333  -0.3333333), wk =   0.2962963

     Check: negative core charge=   -0.000002

     Initial potential from superposition of free atoms

     starting charge      45.9654, renormalised to      46.0000
     Starting wfcs are   28 randomized atomic wfcs +   36 random wfcs
     Checking if some PAW data can be deallocated...

     Self-consistent Calculation

     iteration #  1     ecut=    30.00 Ry     beta= 0.70
     Davidson diagonalization with overlap

     ethr =  1.00E-02,  avg # of iterations =  7.4

     total energy              =   -1100.86859556 Ry
     estimated scf accuracy    <       1.09782616 Ry

[...]

     total energy              =   -1101.39936448 Ry
     estimated scf accuracy    <       0.00000426 Ry

     iteration # 11     ecut=    30.00 Ry     beta= 0.70
     Davidson diagonalization with overlap

     ethr =  9.25E-09,  avg # of iterations =  2.0

     End of self-consistent calculation

          k = 0.0000 0.0000 0.0000 (  2177 PWs)   bands (ev):

   -62.7634 -33.6596 -32.3107 -32.3104 -17.6605 -17.5187  -4.2455  -3.3766
    -3.1736  -2.7320  -2.7314  -2.6136  -2.6132  -2.0970   5.0909   6.1982
     6.1987   8.2555   8.2562   8.2697   8.4907   8.5800   9.0557  11.0907
    11.1212  11.1226  12.6234  12.8248  13.3689  13.9184  13.9217  14.0645
    14.7490  14.7513  15.0614  15.5853  19.0243  19.1643  19.4271  20.6455
    20.7996  20.8018  23.1179  23.6998  23.7040  24.0551  24.1341  24.6597
    24.6656  26.9523  26.9569  27.4106  27.6455  27.9457  27.9530  28.2114
    28.4549  28.6569  30.6756  30.6905  31.3151  31.3292  31.3506  31.7097

     occupation numbers
     1.0000   1.0000   1.0000   1.0000   1.0000   1.0000   1.0000   1.0000
     1.0000   1.0000   1.0000   1.0000   1.0000   1.0000   1.0000   1.0000
     1.0000   1.0000   1.0000   1.0000   1.0000   1.0000   1.0000   0.0000
     0.0000   0.0000   0.0000   0.0000   0.0000   0.0000   0.0000   0.0000
     0.0000   0.0000   0.0000   0.0000   0.0000   0.0000   0.0000   0.0000
     0.0000   0.0000   0.0000   0.0000   0.0000   0.0000   0.0000   0.0000
     0.0000   0.0000   0.0000   0.0000   0.0000   0.0000   0.0000   0.0000
     0.0000   0.0000   0.0000   0.0000   0.0000   0.0000   0.0000   0.0000

[...]

          k = 0.3333 0.3335-0.0000 (  2192 PWs)   bands (ev):

   -62.7633 -33.6592 -32.3125 -32.3121 -17.5804 -17.4967  -4.5468  -3.7008
    -3.1574  -3.0952  -2.9088  -2.6646  -2.4915  -1.8938   5.2797   5.7213
     6.1819   7.4548   8.0584   8.4385   8.7273   9.2492   9.2772  10.4170
    11.1784  12.3336  12.3672  12.9696  13.6327  14.8600  15.3106  15.3572
    15.3693  15.6110  15.9899  17.3379  18.9509  19.2508  19.7276  20.7831
    20.7942  21.1974  21.5582  22.4930  22.7608  23.5255  23.7366  24.0968
    24.3431  24.5695  25.2666  25.9101  26.1120  27.4817  27.5787  27.9021
    27.9084  28.7499  28.9990  29.5005  29.8035  30.4305  31.4484  31.9188

     occupation numbers
     1.0000   1.0000   1.0000   1.0000   1.0000   1.0000   1.0000   1.0000
     1.0000   1.0000   1.0000   1.0000   1.0000   1.0000   1.0000   1.0000
     1.0000   1.0000   1.0000   1.0000   1.0000   1.0000   1.0000   0.0000
     0.0000   0.0000   0.0000   0.0000   0.0000   0.0000   0.0000   0.0000
     0.0000   0.0000   0.0000   0.0000   0.0000   0.0000   0.0000   0.0000
     0.0000   0.0000   0.0000   0.0000   0.0000   0.0000   0.0000   0.0000
     0.0000   0.0000   0.0000   0.0000   0.0000   0.0000   0.0000   0.0000
     0.0000   0.0000   0.0000   0.0000   0.0000   0.0000   0.0000   0.0000

     highest occupied, lowest unoccupied level (ev):     9.4009   10.4170

!    total energy              =   -1101.39936456 Ry
     estimated scf accuracy    <       0.00000035 Ry

     The total energy is the sum of the following terms:
     one-electron contribution =    -142.02180061 Ry
     hartree contribution      =      91.65218191 Ry
     xc contribution           =     -71.02457411 Ry
     ewald contribution        =    -230.09294181 Ry
     one-center paw contrib.   =    -749.91222994 Ry
      -> PAW hartree energy AE =      28.83302914 Ry
      -> PAW hartree energy PS =     -28.72395123 Ry
      -> PAW xc energy AE      =    -394.24447318 Ry
      -> PAW xc energy PS      =      19.17928029 Ry
      -> total E_H with PAW    =      91.76125983 Ry
      -> total E_XC with PAW   =    -446.08976699 Ry

     convergence has been achieved in  11 iterations

     Writing all to output data dir calculations_bands/myprefix.save/

     General routines

     Parallel routines

     PAW routines

   This run was terminated on:   9:46:54   7Jun2023

   JOB DONE.