     Program PWSCF v.7.0 starts on 23Jun2023 at  0:56: 9

     K-points division:     npool     =       2
     R & G space division:  proc/nbgrp/npool/nimage =       4

     Reading input from espresso_19371.pwi
Warning: card &CELL ignored
Warning: card / ignored

     Current dimensions of program PWSCF are:
     Max number of different atomic species (ntypx) = 10
     Max number of k-points (npk) =  40000
     Max angular momentum in pseudopotentials (lmaxx) =  4
     file O.pbe-n-kjpaw_psl.0.1.UPF: wavefunction(s)  2P renormalized
     Message from routine setup:
     using ibrav=0 with symmetry is DISCOURAGED, use correct ibrav instead

     Using Slab Decomposition

     bravais-lattice index     =            0
     lattice parameter (alat)  =       8.0726  a.u.
     unit-cell volume          =    1682.1933 (a.u.)^3
     number of atoms/cell      =           12
     number of atomic types    =            4
     number of electrons       =       122.00
     number of Kohn-Sham states=           64
     kinetic-energy cutoff     =      30.0000  Ry
     charge density cutoff     =     240.0000  Ry
     scf convergence threshold =      1.0E-06
     mixing beta               =       0.7000
     number of iterations used =            8  plain     mixing
     Exchange-correlation= SLA  PW   PBX  PBC
                           (   1   4   3   4   0   0   0)

     celldm(1)=   8.072642  celldm(2)=   0.000000  celldm(3)=   0.000000
     celldm(4)=   0.000000  celldm(5)=   0.000000  celldm(6)=   0.000000

     crystal axes: (cart. coord. in units of alat)
               a(1) = (   1.000000   0.000000   0.000000 )
               a(2) = (   0.500000   1.795928   0.000000 )
               a(3) = (   0.500000   0.261488   1.780492 )

     reciprocal axes: (cart. coord. in units 2 pi/alat)
               b(1) = (  1.000000 -0.278408 -0.239934 )
               b(2) = (  0.000000  0.556815 -0.081775 )
               b(3) = (  0.000000  0.000000  0.561643 )

     PseudoPot. # 1 for Pr read from file:
     /home/pragov/projects/rrg-bengioy-ad/pragov/crystal_structure_design/SSSP/Pr.GGA-PBE-paw-v1.0.UPF
     MD5 check sum: b5e1e58e76df433569641143f671cc27
     Pseudo is Projector augmented-wave + core cor, Zval = 13.0
     Generated using ATOMPAW code
     Shape of augmentation charge: BESSEL
     Using radial grid of 1103 points,  8 beta functions with:
                l(1) =   0
                l(2) =   0
                l(3) =   1
                l(4) =   1
                l(5) =   2
                l(6) =   2
                l(7) =   3
                l(8) =   3
     Q(r) pseudized with 0 coefficients

     PseudoPot. # 2 for P  read from file:
     /home/pragov/projects/rrg-bengioy-ad/pragov/crystal_structure_design/SSSP/P.pbe-n-rrkjus_psl.1.0.0.UPF
     MD5 check sum: 8b930f418f0a4573dca56cd030ffe088
     Pseudo is Ultrasoft + core correction, Zval =  5.0
     Generated using "atomic" code by A. Dal Corso  v.5.1
     Using radial grid of 1147 points,  6 beta functions with:
                l(1) =   0
                l(2) =   0
                l(3) =   1
                l(4) =   1
                l(5) =   2
                l(6) =   2
     Q(r) pseudized with 0 coefficients

     PseudoPot. # 3 for Au read from file:
     /home/pragov/projects/rrg-bengioy-ad/pragov/crystal_structure_design/SSSP/Au_ONCV_PBE-1.0.oncvpsp.upf
     MD5 check sum: d14007822ba0e19f0206237467fc06c2
     Pseudo is Norm-conserving, Zval = 19.0
     Generated using ONCVPSP code by D. R. Hamann
     Using radial grid of 1278 points,  8 beta functions with:
                l(1) =   0
                l(2) =   0
                l(3) =   1
                l(4) =   1
                l(5) =   2
                l(6) =   2
                l(7) =   3
                l(8) =   3

     PseudoPot. # 4 for O  read from file:
     /home/pragov/projects/rrg-bengioy-ad/pragov/crystal_structure_design/SSSP/O.pbe-n-kjpaw_psl.0.1.UPF
     MD5 check sum: 0234752ac141de4415c5fc33072bef88
     Pseudo is Projector augmented-wave + core cor, Zval =  6.0
     Generated using "atomic" code by A. Dal Corso  v.5.0.99 svn rev. 10869
     Shape of augmentation charge: BESSEL
     Using radial grid of 1095 points,  4 beta functions with:
                l(1) =   0
                l(2) =   0
                l(3) =   1
                l(4) =   1
     Q(r) pseudized with 0 coefficients

     atomic species   valence    mass     pseudopotential
        Pr            13.00   140.90766     Pr( 1.00)
        P              5.00    30.97376     P ( 1.00)
        Au            19.00   196.96657     Au( 1.00)
        O              6.00    15.99900     O ( 1.00)

      4 Sym. Ops., with inversion, found

                                    s                        frac. trans.

      isym =  1     identity

 cryst.   s( 1) = (     1          0          0      )
                  (     0          1          0      )
                  (     0          0          1      )

 cart.    s( 1) = (  1.0000000 -0.0000000 -0.0000000 )
                  (  0.0000000  1.0000000  0.0000000 )
                  (  0.0000000  0.0000000  1.0000000 )

      isym =  2     180 deg rotation - cart. axis [1,0,0]

[...]

      isym =  3     inversion

[...]

      isym =  4     inv. 180 deg rotation - cart. axis [1,0,0]

 cryst.   s( 4) = (    -1          0          0      )
                  (    -1          1          0      )
                  (    -1          0          1      )

 cart.    s( 4) = ( -1.0000000 -0.0000000  0.0000000 )
                  (  0.0000000  1.0000000  0.0000000 )
                  (  0.0000000  0.0000000  1.0000000 )

   Cartesian axes

     site n.     atom                  positions (alat units)
         1           Pr  tau(   1) = (   0.5000000   1.2481202   0.0837810  )
         2           Pr  tau(   2) = (   1.5000000   0.8092958   1.6967105  )
         3           Pr  tau(   3) = (   0.5000000   0.5857265   0.6870329  )
         4           Pr  tau(   4) = (   1.5000000   1.4716895   1.0934586  )
         5           P   tau(   5) = (   0.9999995   1.0747810   0.6348770  )
         6           P   tau(   6) = (   1.0000005   0.9826351   1.1456145  )
         7           P   tau(   7) = (   1.0000005   1.9374459   1.3043685  )
         8           P   tau(   8) = (   0.9999995   0.1199701   0.4761230  )
         9           Au  tau(   9) = (   1.0000000   1.6497372   0.5380307  )
        10           Au  tau(  10) = (   1.0000000   0.4076788   1.2424608  )
        11           O   tau(  11) = (   0.4999995   0.6835606   0.1306863  )
        12           O   tau(  12) = (   1.5000005   1.3738554   1.6498052  )

   Crystallographic axes

     site n.     atom                  positions (cryst. coord.)
         1           Pr  tau(   1) = (  0.1324120  0.6881210  0.0470550  )
         2           Pr  tau(   2) = (  0.8675880  0.3118790  0.9529450  )
         3           Pr  tau(   3) = (  0.1720870  0.2699590  0.3858670  )
         4           Pr  tau(   4) = (  0.8279130  0.7300410  0.6141330  )
         5           P   tau(   5) = (  0.5484440  0.5465370  0.3565740  )
         6           P   tau(   6) = (  0.4515560  0.4534630  0.6434260  )
         7           P   tau(   7) = (  0.1476390  0.9721340  0.7325890  )
         8           P   tau(   8) = (  0.8523610  0.0278660  0.2674110  )
         9           Au  tau(   9) = (  0.4116090  0.8746010  0.3021810  )
        10           Au  tau(  10) = (  0.5883910  0.1253990  0.6978190  )
        11           O   tau(  11) = (  0.2783350  0.3699300  0.0733990  )
        12           O   tau(  12) = (  0.7216650  0.6300700  0.9266010  )

     number of k points=    10
                       cart. coord. in units 2pi/alat
        k(    1) = (   0.0000000   0.0000000   0.0000000), wk =   0.0740741
        k(    2) = (   0.0000000   0.0000000   0.1872142), wk =   0.1481481
        k(    3) = (   0.0000000   0.1856051  -0.0272585), wk =   0.1481481
        k(    4) = (   0.0000000   0.1856051   0.1599558), wk =   0.1481481
        k(    5) = (   0.0000000   0.1856051  -0.2144727), wk =   0.1481481
        k(    6) = (   0.3333333  -0.0928025  -0.0799779), wk =   0.2962963
        k(    7) = (   0.3333333  -0.0928025   0.1072363), wk =   0.2962963
        k(    8) = (   0.3333333  -0.0928025  -0.2671921), wk =   0.2962963
        k(    9) = (   0.3333333  -0.2784076  -0.0527194), wk =   0.2962963
        k(   10) = (   0.3333333  -0.2784076  -0.2399336), wk =   0.1481481

                       cryst. coord.
        k(    1) = (   0.0000000   0.0000000   0.0000000), wk =   0.0740741
        k(    2) = (   0.0000000   0.0000000   0.3333333), wk =   0.1481481
        k(    3) = (   0.0000000   0.3333333  -0.0000000), wk =   0.1481481
        k(    4) = (   0.0000000   0.3333333   0.3333333), wk =   0.1481481
        k(    5) = (   0.0000000   0.3333333  -0.3333333), wk =   0.1481481
        k(    6) = (   0.3333333   0.0000000  -0.0000000), wk =   0.2962963
        k(    7) = (   0.3333333   0.0000000   0.3333333), wk =   0.2962963
        k(    8) = (   0.3333333   0.0000000  -0.3333333), wk =   0.2962963
        k(    9) = (   0.3333333  -0.3333333  -0.0000000), wk =   0.2962963
        k(   10) = (   0.3333333  -0.3333333  -0.3333333), wk =   0.1481481

     Check: negative core charge=   -0.000003

     Initial potential from superposition of free atoms

     starting charge     121.9695, renormalised to     122.0000
     Starting wfcs are  172 randomized atomic wfcs
     Checking if some PAW data can be deallocated...

     Self-consistent Calculation

     iteration #  1     ecut=    30.00 Ry     beta= 0.70
     Davidson diagonalization with overlap

     ethr =  1.00E-02,  avg # of iterations =  2.0

     total energy              =   -2716.30902596 Ry
     estimated scf accuracy    <       6.86658307 Ry

[...]

     c_bands:  4 eigenvalues not converged
     c_bands:  2 eigenvalues not converged
     c_bands:  3 eigenvalues not converged
     ethr =  5.63E-03,  avg # of iterations = 17.9

[...]

     negative rho (up, down):  1.869E-01 0.000E+00

[...]

     negative rho (up, down):  1.968E-01 0.000E+00

[...]

     c_bands:  1 eigenvalues not converged
     c_bands:  1 eigenvalues not converged
     ethr =  3.83E-08,  avg # of iterations = 17.1

[...]

     total energy              =   -2722.79553928 Ry
     estimated scf accuracy    <       0.00000132 Ry

     iteration #139     ecut=    30.00 Ry     beta= 0.70
     Davidson diagonalization with overlap

     ethr =  1.08E-09,  avg # of iterations =  1.4

     End of self-consistent calculation

          k = 0.0000 0.0000 0.0000 (  4641 PWs)   bands (ev):

   -95.0916 -95.0916 -46.1873 -46.1872 -46.1776 -46.1776 -45.9673 -45.9658
   -23.8575 -23.7893 -23.7571 -23.7558  -7.9086  -7.4845  -6.1410  -5.9860
    -5.8628  -5.8242  -5.7997  -5.7449  -5.7209  -5.7165  -5.7121  -5.6447
    -4.9320  -4.4182  -0.2343   1.4271   1.5355   2.8503   6.0682   6.1662
     6.2860   6.4184   6.5917   6.8023   6.9723   7.0999   7.2908   7.4659
     7.5695   7.6212   7.6331   7.7758   7.9613   8.0923   8.2128   8.4216
     8.8675   8.8803   9.4660  10.0792  10.8039  11.1195  11.2012  11.5156
    11.8489  12.0101  12.0874  12.1510  12.2033  12.2080  12.2667  12.2673

     occupation numbers
     1.0000   1.0000   1.0000   1.0000   1.0000   1.0000   1.0000   1.0000
     1.0000   1.0000   1.0000   1.0000   1.0000   1.0000   1.0000   1.0000
     1.0000   1.0000   1.0000   1.0000   1.0000   1.0000   1.0000   1.0000
     1.0000   1.0000   1.0000   1.0000   1.0000   1.0000   1.0000   1.0000
     1.0000   1.0000   1.0000   1.0000   1.0000   1.0000   1.0000   1.0000
     1.0000   1.0000   1.0000   1.0000   1.0000   1.0000   1.0000   1.0000
     1.0000   1.0000   1.0000   1.0000   1.0000   1.0000   1.0000   1.0000
     1.0000   1.0000   1.0000   1.0000   1.0000   0.0000   0.0000   0.0000

[...]

          k = 0.3333-0.2784-0.2399 (  4709 PWs)   bands (ev):

   -95.0916 -95.0916 -46.1915 -46.1901 -46.1798 -46.1793 -45.9683 -45.9682
   -23.8252 -23.7924 -23.7569 -23.7484  -8.1379  -7.9841  -6.1328  -6.0253
    -5.9284  -5.9039  -5.8715  -5.8464  -5.7915  -5.7616  -5.7261  -5.7036
    -4.1825  -3.9535  -0.0180   1.7528   1.8197   2.8249   5.7867   6.0120
     6.3324   6.5755   6.7534   6.8422   7.1000   7.2549   7.2857   7.3821
     7.4324   7.7236   7.7557   7.7661   7.9004   8.0935   8.2096   8.4214
     8.5100   9.0473   9.2516   9.8008   9.9946  10.4762  10.5295  10.7453
    10.9152  12.0789  12.1646  12.2122  12.2308  12.2459  12.2606  12.2809

     occupation numbers
     1.0000   1.0000   1.0000   1.0000   1.0000   1.0000   1.0000   1.0000
     1.0000   1.0000   1.0000   1.0000   1.0000   1.0000   1.0000   1.0000
     1.0000   1.0000   1.0000   1.0000   1.0000   1.0000   1.0000   1.0000
     1.0000   1.0000   1.0000   1.0000   1.0000   1.0000   1.0000   1.0000
     1.0000   1.0000   1.0000   1.0000   1.0000   1.0000   1.0000   1.0000
     1.0000   1.0000   1.0000   1.0000   1.0000   1.0000   1.0000   1.0000
     1.0000   1.0000   1.0000   1.0000   1.0000   1.0000   1.0000   1.0000
     1.0000   1.0000   1.0000   1.0000   1.0000   0.0000   0.0000   0.0000

     highest occupied, lowest unoccupied level (ev):    12.2377   12.2080

!    total energy              =   -2722.79553831 Ry
     estimated scf accuracy    <       0.00000081 Ry

     The total energy is the sum of the following terms:
     one-electron contribution =    -397.37631103 Ry
     hartree contribution      =     266.02879711 Ry
     xc contribution           =    -130.79819295 Ry
     ewald contribution        =    -763.44866781 Ry
     one-center paw contrib.   =   -1697.20116363 Ry
      -> PAW hartree energy AE =     124.88272884 Ry
      -> PAW hartree energy PS =    -124.93146010 Ry
      -> PAW xc energy AE      =    -860.14727162 Ry
      -> PAW xc energy PS      =      21.11024429 Ry
      -> total E_H with PAW    =     265.98006584 Ry
      -> total E_XC with PAW   =    -969.83522028 Ry

     convergence has been achieved in 139 iterations

     Writing all to output data dir calculations_bands/myprefix.save/

     General routines

     Parallel routines

     PAW routines

   This run was terminated on:   1: 0:29  23Jun2023

   JOB DONE.