     Program PWSCF v.7.0 starts on  4Jun2023 at 23:20: 1

     K-points division:     npool     =       2
     R & G space division:  proc/nbgrp/npool/nimage =       4

     Reading input from espresso_5284.pwi
Warning: card &CELL ignored
Warning: card / ignored

     Current dimensions of program PWSCF are:
     Max number of different atomic species (ntypx) = 10
     Max number of k-points (npk) =  40000
     Max angular momentum in pseudopotentials (lmaxx) =  4
     file Pb.pbe-dn-kjpaw_psl.0.2.2.UPF: wavefunction(s)  6S renormalized
     Message from routine setup:
     using ibrav=0 with symmetry is DISCOURAGED, use correct ibrav instead

     Using Slab Decomposition

     bravais-lattice index     =            0
     lattice parameter (alat)  =      33.6662  a.u.
     unit-cell volume          =    1988.6045 (a.u.)^3
     number of atoms/cell      =           10
     number of atomic types    =            3
     number of electrons       =       100.00
     number of Kohn-Sham states=           64
     kinetic-energy cutoff     =      30.0000  Ry
     charge density cutoff     =     240.0000  Ry
     scf convergence threshold =      1.0E-06
     mixing beta               =       0.7000
     number of iterations used =            8  plain     mixing
     Exchange-correlation= SLA  PW   PBE  PBE
                           (   1   4   3   4   0   0   0)

     celldm(1)=  33.666205  celldm(2)=   0.000000  celldm(3)=   0.000000
     celldm(4)=   0.000000  celldm(5)=   0.000000  celldm(6)=   0.000000

     crystal axes: (cart. coord. in units of alat)
               a(1) = (   1.000000   0.000000   0.000000 )
               a(2) = (   0.969602   0.244689   0.000000 )
               a(3) = (   0.969602   0.120456   0.212986 )

     reciprocal axes: (cart. coord. in units 2 pi/alat)
               b(1) = (  1.000000 -3.962584 -2.311340 )
               b(2) = (  0.000000  4.086817 -2.311340 )
               b(3) = (  0.000000  0.000000  4.695143 )

     PseudoPot. # 1 for Sn read from file:
     /home/pragov/projects/rrg-bengioy-ad/pragov/crystal_structure_design/SSSP/Sn_pbe_v1.uspp.F.UPF
     MD5 check sum: 4cf58ce39ec5d5d420df3dd08604eb00
     Pseudo is Ultrasoft + core correction, Zval = 14.0
     Generated by new atomic code, or converted to UPF format
     Using radial grid of  891 points,  6 beta functions with:
                l(1) =   0
                l(2) =   0
                l(3) =   1
                l(4) =   1
                l(5) =   2
                l(6) =   2
     Q(r) pseudized with  6 coefficients,  rinner =    1.200   1.200   1.200
                                                       1.200   1.200

     PseudoPot. # 2 for Pb read from file:
     /home/pragov/projects/rrg-bengioy-ad/pragov/crystal_structure_design/SSSP/Pb.pbe-dn-kjpaw_psl.0.2.2.UPF
     MD5 check sum: 9d431e6316058b74ade52399a6cf67da
     Pseudo is Projector augmented-wave + core cor, Zval = 14.0
     Generated using "atomic" code by A. Dal Corso  v.5.0.99 svn rev. 10869
     Shape of augmentation charge: PSQ
     Using radial grid of 1281 points,  6 beta functions with:
                l(1) =   0
                l(2) =   0
                l(3) =   1
                l(4) =   1
                l(5) =   2
                l(6) =   2
     Q(r) pseudized with 0 coefficients

     PseudoPot. # 3 for Se read from file:
     /home/pragov/projects/rrg-bengioy-ad/pragov/crystal_structure_design/SSSP/Se_pbe_v1.uspp.F.UPF
     MD5 check sum: 1b3568f3a8ae88f9a2a0ad0698632c85
     Pseudo is Ultrasoft + core correction, Zval =  6.0
     Generated by new atomic code, or converted to UPF format
     Using radial grid of  877 points,  6 beta functions with:
                l(1) =   0
                l(2) =   0
                l(3) =   1
                l(4) =   1
                l(5) =   2
                l(6) =   2
     Q(r) pseudized with  8 coefficients,  rinner =    1.300   1.300   1.300
                                                       1.300   1.300

     atomic species   valence    mass     pseudopotential
        Sn            14.00   118.71000     Sn( 1.00)
        Pb            14.00   207.20000     Pb( 1.00)
        Se             6.00    78.97100     Se( 1.00)

      2 Sym. Ops., with inversion, found

                                    s                        frac. trans.

      isym =  1     identity

 cryst.   s( 1) = (     1          0          0      )
                  (     0          1          0      )
                  (     0          0          1      )

 cart.    s( 1) = (  1.0000000 -0.0000000 -0.0000000 )
                  (  0.0000000  1.0000000 -0.0000000 )
                  (  0.0000000  0.0000000  1.0000000 )

      isym =  2     inversion

 cryst.   s( 2) = (    -1          0          0      )
                  (     0         -1          0      )
                  (     0          0         -1      )

 cart.    s( 2) = ( -1.0000000  0.0000000  0.0000000 )
                  (  0.0000000 -1.0000000  0.0000000 )
                  (  0.0000000  0.0000000 -1.0000000 )

   Cartesian axes

     site n.     atom                  positions (alat units)
         1           Sn  tau(   1) = (   0.0000000   0.0000000   0.0000000  )
         2           Pb  tau(   2) = (   1.7642038   0.2191720   0.1278410  )
         3           Pb  tau(   3) = (   0.5878876   0.0730350   0.0426006  )
         4           Pb  tau(   4) = (   2.3513155   0.2921106   0.1703854  )
         5           Pb  tau(   5) = (   1.1749993   0.1459735   0.0851450  )
         6           Se  tau(   6) = (   2.0536741   0.2551338   0.1488172  )
         7           Se  tau(   7) = (   1.4696016   0.1825728   0.1064930  )
         8           Se  tau(   8) = (   0.2933971   0.0364496   0.0212607  )
         9           Se  tau(   9) = (   0.8855290   0.1100118   0.0641689  )
        10           Se  tau(  10) = (   2.6458060   0.3286960   0.1917253  )

   Crystallographic axes

     site n.     atom                  positions (cryst. coord.)
         1           Sn  tau(   1) = (  0.0000000  0.0000000  0.0000000  )
         2           Pb  tau(   2) = (  0.6002320  0.6002320  0.6002320  )
         3           Pb  tau(   3) = (  0.2000160  0.2000160  0.2000160  )
         4           Pb  tau(   4) = (  0.7999840  0.7999840  0.7999840  )
         5           Pb  tau(   5) = (  0.3997680  0.3997680  0.3997680  )
         6           Se  tau(   6) = (  0.6987180  0.6987180  0.6987180  )
         7           Se  tau(   7) = (  0.5000000  0.5000000  0.5000000  )
         8           Se  tau(   8) = (  0.0998220  0.0998220  0.0998220  )
         9           Se  tau(   9) = (  0.3012820  0.3012820  0.3012820  )
        10           Se  tau(  10) = (  0.9001780  0.9001780  0.9001780  )

     number of k points=    14
                       cart. coord. in units 2pi/alat
        k(    1) = (   0.0000000   0.0000000   0.0000000), wk =   0.0740741
        k(    2) = (   0.0000000   0.0000000   1.5650478), wk =   0.1481481
        k(    3) = (   0.0000000   1.3622724  -0.7704466), wk =   0.1481481
        k(    4) = (   0.0000000   1.3622724   0.7946012), wk =   0.1481481
        k(    5) = (   0.0000000   1.3622724  -2.3354944), wk =   0.1481481
        k(    6) = (   0.3333333  -1.3208614  -0.7704466), wk =   0.1481481
        k(    7) = (   0.3333333  -1.3208614   0.7946012), wk =   0.1481481
        k(    8) = (   0.3333333  -1.3208614  -2.3354944), wk =   0.1481481
        k(    9) = (   0.3333333   0.0414109  -1.5408931), wk =   0.1481481
        k(   10) = (   0.3333333   0.0414109   0.0241547), wk =   0.1481481
        k(   11) = (   0.3333333   0.0414109  -3.1059409), wk =   0.1481481
        k(   12) = (   0.3333333  -2.6831338  -0.0000000), wk =   0.1481481
        k(   13) = (   0.3333333  -2.6831338   1.5650478), wk =   0.1481481
        k(   14) = (   0.3333333  -2.6831338  -1.5650478), wk =   0.1481481

                       cryst. coord.
        k(    1) = (   0.0000000   0.0000000   0.0000000), wk =   0.0740741
        k(    2) = (   0.0000000   0.0000000   0.3333333), wk =   0.1481481
        k(    3) = (   0.0000000   0.3333333  -0.0000000), wk =   0.1481481
        k(    4) = (   0.0000000   0.3333333   0.3333333), wk =   0.1481481
        k(    5) = (   0.0000000   0.3333333  -0.3333333), wk =   0.1481481
        k(    6) = (   0.3333333   0.0000000  -0.0000000), wk =   0.1481481
        k(    7) = (   0.3333333   0.0000000   0.3333333), wk =   0.1481481
        k(    8) = (   0.3333333   0.0000000  -0.3333333), wk =   0.1481481
        k(    9) = (   0.3333333   0.3333333  -0.0000000), wk =   0.1481481
        k(   10) = (   0.3333333   0.3333333   0.3333333), wk =   0.1481481
        k(   11) = (   0.3333333   0.3333333  -0.3333333), wk =   0.1481481
        k(   12) = (   0.3333333  -0.3333333   0.0000000), wk =   0.1481481
        k(   13) = (   0.3333333  -0.3333333   0.3333333), wk =   0.1481481
        k(   14) = (   0.3333333  -0.3333333  -0.3333333), wk =   0.1481481

     Initial potential from superposition of free atoms

     starting charge      98.9902, renormalised to     100.0000
     Starting wfcs are   65 randomized atomic wfcs
     Checking if some PAW data can be deallocated...

     Self-consistent Calculation

     iteration #  1     ecut=    30.00 Ry     beta= 0.70
     Davidson diagonalization with overlap

     ethr =  1.00E-02,  avg # of iterations =  5.9

     total energy              =   -3690.26640600 Ry
     estimated scf accuracy    <     201.81284525 Ry

[...]

     total energy              =   -3863.83597481 Ry
     estimated scf accuracy    <       0.00000106 Ry

     iteration # 22     ecut=    30.00 Ry     beta= 0.70
     Davidson diagonalization with overlap

     ethr =  1.06E-09,  avg # of iterations =  6.0

     End of self-consistent calculation

          k = 0.0000 0.0000 0.0000 (  5531 PWs)   bands (ev):

   -13.8119 -13.8119 -13.8106 -13.8055 -13.8055  -9.2033  -9.2033  -9.2016
    -9.2016  -9.1920  -9.1920  -9.1848  -9.1848  -9.1805  -9.1803  -9.1769
    -9.1769  -9.1758  -9.1749  -9.1743  -9.1743  -9.1642  -9.1642  -9.1532
    -9.1532  -5.7589  -5.4888  -5.4577  -4.9103  -4.8900  -0.8320  -0.5360
     0.3917   0.7906   1.8056   5.7828   5.7828   5.8654   5.8654   5.8716
     5.8716   5.9015   6.0678   6.0678   6.1182   6.1182   6.4152   6.4231
     7.1790   7.2672   8.2686   8.4373   9.3594   9.3594   9.4450   9.4450
    10.1495  10.3640  10.7930  10.7930  10.8550  10.8550  12.1250  12.1523

     occupation numbers
     1.0000   1.0000   1.0000   1.0000   1.0000   1.0000   1.0000   1.0000
     1.0000   1.0000   1.0000   1.0000   1.0000   1.0000   1.0000   1.0000
     1.0000   1.0000   1.0000   1.0000   1.0000   1.0000   1.0000   1.0000
     1.0000   1.0000   1.0000   1.0000   1.0000   1.0000   1.0000   1.0000
     1.0000   1.0000   1.0000   1.0000   1.0000   1.0000   1.0000   1.0000
     1.0000   1.0000   1.0000   1.0000   1.0000   1.0000   1.0000   1.0000
     1.0000   1.0000   0.0000   0.0000   0.0000   0.0000   0.0000   0.0000
     0.0000   0.0000   0.0000   0.0000   0.0000   0.0000   0.0000   0.0000

[...]

          k = 0.3333-2.6831-1.5650 (  5523 PWs)   bands (ev):

   -13.8172 -13.8100 -13.8069 -13.8052 -13.8039  -9.2572  -9.2409  -9.2190
    -9.1996  -9.1933  -9.1923  -9.1898  -9.1868  -9.1815  -9.1786  -9.1752
    -9.1721  -9.1677  -9.1647  -9.1641  -9.1598  -9.1582  -9.1564  -9.1499
    -9.1487  -5.1115  -5.0772  -4.7609  -4.7345  -4.5052  -0.6634  -0.4791
    -0.2679  -0.0282   0.9673   3.3297   4.0206   4.3793   4.6799   4.8258
     5.0110   5.1479   5.2070   5.4092   5.9372   6.0042   6.0482   6.1095
     6.7182   7.0496   8.9528   9.0256   9.7459   9.8334   9.8775   9.9668
    10.7136  11.2703  11.4666  11.6102  11.7318  11.8203  11.8885  12.5175

     occupation numbers
     1.0000   1.0000   1.0000   1.0000   1.0000   1.0000   1.0000   1.0000
     1.0000   1.0000   1.0000   1.0000   1.0000   1.0000   1.0000   1.0000
     1.0000   1.0000   1.0000   1.0000   1.0000   1.0000   1.0000   1.0000
     1.0000   1.0000   1.0000   1.0000   1.0000   1.0000   1.0000   1.0000
     1.0000   1.0000   1.0000   1.0000   1.0000   1.0000   1.0000   1.0000
     1.0000   1.0000   1.0000   1.0000   1.0000   1.0000   1.0000   1.0000
     1.0000   1.0000   0.0000   0.0000   0.0000   0.0000   0.0000   0.0000
     0.0000   0.0000   0.0000   0.0000   0.0000   0.0000   0.0000   0.0000

     highest occupied, lowest unoccupied level (ev):     7.5049    7.9362

!    total energy              =   -3863.83597564 Ry
     estimated scf accuracy    <       0.00000041 Ry

     The total energy is the sum of the following terms:
     one-electron contribution =    -222.66520130 Ry
     hartree contribution      =     180.12829938 Ry
     xc contribution           =    -373.46341555 Ry
     ewald contribution        =    -533.92084690 Ry
     one-center paw contrib.   =   -2913.91481126 Ry
      -> PAW hartree energy AE =      97.39929955 Ry
      -> PAW hartree energy PS =     -97.18947995 Ry
      -> PAW xc energy AE      =    -772.39165957 Ry
      -> PAW xc energy PS      =      43.70333573 Ry
      -> total E_H with PAW    =     180.33811898 Ry
      -> total E_XC with PAW   =   -1102.15173939 Ry

     convergence has been achieved in  22 iterations

     Writing all to output data dir calculations_bands/myprefix.save/

     General routines

     Parallel routines

     PAW routines

   This run was terminated on:  23:34:25   4Jun2023

   JOB DONE.