     Program PWSCF v.7.0 starts on 23Jun2023 at  5: 3:13

     K-points division:     npool     =       2
     R & G space division:  proc/nbgrp/npool/nimage =       4

     Reading input from espresso_4032.pwi
Warning: card &CELL ignored
Warning: card / ignored

     Current dimensions of program PWSCF are:
     Max number of different atomic species (ntypx) = 10
     Max number of k-points (npk) =  40000
     Max angular momentum in pseudopotentials (lmaxx) =  4
     file O.pbe-n-kjpaw_psl.0.1.UPF: wavefunction(s)  2P renormalized
     Message from routine setup:
     using ibrav=0 with symmetry is DISCOURAGED, use correct ibrav instead

     Using Slab Decomposition

     bravais-lattice index     =            0
     lattice parameter (alat)  =      10.4092  a.u.
     unit-cell volume          =    1743.6758 (a.u.)^3
     number of atoms/cell      =           20
     number of atomic types    =            5
     number of electrons       =       178.00
     number of Kohn-Sham states=           90
     kinetic-energy cutoff     =      30.0000  Ry
     charge density cutoff     =     240.0000  Ry
     scf convergence threshold =      1.0E-06
     mixing beta               =       0.7000
     number of iterations used =            8  plain     mixing
     Exchange-correlation= SLA  PW   PBX  PBC
                           (   1   4   3   4   0   0   0)

     celldm(1)=  10.409178  celldm(2)=   0.000000  celldm(3)=   0.000000
     celldm(4)=   0.000000  celldm(5)=   0.000000  celldm(6)=   0.000000

     crystal axes: (cart. coord. in units of alat)
               a(1) = (   1.000000   0.000000   0.000000 )
               a(2) = (   0.000000   1.000000   0.000000 )
               a(3) = (   0.000000   0.000000   1.546025 )

     reciprocal axes: (cart. coord. in units 2 pi/alat)
               b(1) = (  1.000000  0.000000  0.000000 )
               b(2) = (  0.000000  1.000000  0.000000 )
               b(3) = (  0.000000  0.000000  0.646820 )

     PseudoPot. # 1 for Sr read from file:
     /home/pragov/projects/rrg-bengioy-ad/pragov/crystal_structure_design/SSSP/Sr_pbe_v1.uspp.F.UPF
     MD5 check sum: 6b418c05fbe9db5448babca5e47b7a5b
     Pseudo is Ultrasoft + core correction, Zval = 10.0
     Generated by new atomic code, or converted to UPF format
     Using radial grid of  883 points,  6 beta functions with:
                l(1) =   0
                l(2) =   0
                l(3) =   1
                l(4) =   1
                l(5) =   2
                l(6) =   2
     Q(r) pseudized with  6 coefficients,  rinner =    1.400   1.400   1.400
                                                       1.400   1.400

     PseudoPot. # 2 for Cu read from file:
     /home/pragov/projects/rrg-bengioy-ad/pragov/crystal_structure_design/SSSP/Cu_pbe_v1.2.uspp.F.UPF
     MD5 check sum: 6e991ff952a84172a2a52a1c1e996048
     Pseudo is Ultrasoft + core correction, Zval = 19.0
     Generated by new atomic code, or converted to UPF format
     Using radial grid of  867 points,  6 beta functions with:
                l(1) =   0
                l(2) =   0
                l(3) =   1
                l(4) =   1
                l(5) =   2
                l(6) =   2
     Q(r) pseudized with  8 coefficients,  rinner =    1.150   1.150   1.150
                                                       1.150   1.150

     PseudoPot. # 3 for Mo read from file:
     /home/pragov/projects/rrg-bengioy-ad/pragov/crystal_structure_design/SSSP/Mo_ONCV_PBE-1.0.oncvpsp.upf
     MD5 check sum: 1b5d28e075c9ccadda658a603575cd1f
     Pseudo is Norm-conserving, Zval = 14.0
     Generated using ONCVPSP code by D. R. Hamann
     Using radial grid of 1526 points,  6 beta functions with:
                l(1) =   0
                l(2) =   0
                l(3) =   1
                l(4) =   1
                l(5) =   2
                l(6) =   2

     PseudoPot. # 4 for W  read from file:
     /home/pragov/projects/rrg-bengioy-ad/pragov/crystal_structure_design/SSSP/W_pbe_v1.2.uspp.F.UPF
     MD5 check sum: 9c083fa34c2a2ea0f02f1f893e16e1c8
     Pseudo is Ultrasoft + core correction, Zval = 14.0
     Generated by new atomic code, or converted to UPF format
     Using radial grid of  923 points,  8 beta functions with:
                l(1) =   0
                l(2) =   0
                l(3) =   0
                l(4) =   1
                l(5) =   1
                l(6) =   2
                l(7) =   2
                l(8) =   3
     Q(r) pseudized with  6 coefficients,  rinner =    1.350   1.350   1.350
                                                       1.350   1.350   1.350
                                                       1.350

     PseudoPot. # 5 for O  read from file:
     /home/pragov/projects/rrg-bengioy-ad/pragov/crystal_structure_design/SSSP/O.pbe-n-kjpaw_psl.0.1.UPF
     MD5 check sum: 0234752ac141de4415c5fc33072bef88
     Pseudo is Projector augmented-wave + core cor, Zval =  6.0
     Generated using "atomic" code by A. Dal Corso  v.5.0.99 svn rev. 10869
     Shape of augmentation charge: BESSEL
     Using radial grid of 1095 points,  4 beta functions with:
                l(1) =   0
                l(2) =   0
                l(3) =   1
                l(4) =   1
     Q(r) pseudized with 0 coefficients

     atomic species   valence    mass     pseudopotential
        Sr            10.00    87.62000     Sr( 1.00)
        Cu            19.00    63.54600     Cu( 1.00)
        Mo            14.00    95.95000     Mo( 1.00)
        W             14.00   183.84000     W ( 1.00)
        O              6.00    15.99900     O ( 1.00)

      8 Sym. Ops., with inversion, found

                                    s                        frac. trans.

      isym =  1     identity

 cryst.   s( 1) = (     1          0          0      )
                  (     0          1          0      )
                  (     0          0          1      )

 cart.    s( 1) = (  1.0000000  0.0000000  0.0000000 )
                  (  0.0000000  1.0000000  0.0000000 )
                  (  0.0000000  0.0000000  1.0000000 )

      isym =  2     180 deg rotation - cart. axis [0,0,1]

[...]

      isym =  4      90 deg rotation - cart. axis [0,0,1]

[...]

      isym =  5     inversion

[...]

      isym =  6     inv. 180 deg rotation - cart. axis [0,0,1]

[...]

      isym =  8     inv.  90 deg rotation - cart. axis [0,0,1]

 cryst.   s( 8) = (     0         -1          0      )
                  (     1          0          0      )
                  (     0          0         -1      )

 cart.    s( 8) = (  0.0000000  1.0000000  0.0000000 )
                  ( -1.0000000  0.0000000  0.0000000 )
                  (  0.0000000  0.0000000 -1.0000000 )

   Cartesian axes

     site n.     atom                  positions (alat units)
         1           Sr  tau(   1) = (   0.5000000   0.0000000   0.3881326  )
         2           Sr  tau(   2) = (   0.0000000   0.5000000   1.1578920  )
         3           Sr  tau(   3) = (   0.0000000   0.5000000   0.3881326  )
         4           Sr  tau(   4) = (   0.5000000   0.0000000   1.1578920  )
         5           Cu  tau(   5) = (   0.5000000   0.5000000   0.0000000  )
         6           Cu  tau(   6) = (   0.0000000   0.0000000   0.7730123  )
         7           Mo  tau(   7) = (   0.5000000   0.5000000   0.7730123  )
         8           W   tau(   8) = (   0.0000000   0.0000000   0.0000000  )
         9           O   tau(   9) = (   0.0000000   0.0000000   0.3545931  )
        10           O   tau(  10) = (   0.5000000   0.5000000   1.1269282  )
        11           O   tau(  11) = (   0.5000000   0.5000000   0.4190963  )
        12           O   tau(  12) = (   0.0000000   0.0000000   1.1914314  )
        13           O   tau(  13) = (   0.7034720   0.7899520   0.7730123  )
        14           O   tau(  14) = (   0.2029060   0.2903010   0.0000000  )
        15           O   tau(  15) = (   0.7970940   0.7096990   0.0000000  )
        16           O   tau(  16) = (   0.2965280   0.2100480   0.7730123  )
        17           O   tau(  17) = (   0.7096990   0.2029060   0.0000000  )
        18           O   tau(  18) = (   0.2100480   0.7034720   0.7730123  )
        19           O   tau(  19) = (   0.7899520   0.2965280   0.7730123  )
        20           O   tau(  20) = (   0.2903010   0.7970940   0.0000000  )

   Crystallographic axes

     site n.     atom                  positions (cryst. coord.)
         1           Sr  tau(   1) = (  0.5000000  0.0000000  0.2510520  )
         2           Sr  tau(   2) = (  0.0000000  0.5000000  0.7489480  )
         3           Sr  tau(   3) = (  0.0000000  0.5000000  0.2510520  )
         4           Sr  tau(   4) = (  0.5000000  0.0000000  0.7489480  )
         5           Cu  tau(   5) = (  0.5000000  0.5000000  0.0000000  )
         6           Cu  tau(   6) = (  0.0000000  0.0000000  0.5000000  )
         7           Mo  tau(   7) = (  0.5000000  0.5000000  0.5000000  )
         8           W   tau(   8) = (  0.0000000  0.0000000  0.0000000  )
         9           O   tau(   9) = (  0.0000000  0.0000000  0.2293580  )
        10           O   tau(  10) = (  0.5000000  0.5000000  0.7289200  )
        11           O   tau(  11) = (  0.5000000  0.5000000  0.2710800  )
        12           O   tau(  12) = (  0.0000000  0.0000000  0.7706420  )
        13           O   tau(  13) = (  0.7034720  0.7899520  0.5000000  )
        14           O   tau(  14) = (  0.2029060  0.2903010  0.0000000  )
        15           O   tau(  15) = (  0.7970940  0.7096990  0.0000000  )
        16           O   tau(  16) = (  0.2965280  0.2100480  0.5000000  )
        17           O   tau(  17) = (  0.7096990  0.2029060  0.0000000  )
        18           O   tau(  18) = (  0.2100480  0.7034720  0.5000000  )
        19           O   tau(  19) = (  0.7899520  0.2965280  0.5000000  )
        20           O   tau(  20) = (  0.2903010  0.7970940  0.0000000  )

     number of k points=     6
                       cart. coord. in units 2pi/alat
        k(    1) = (   0.0000000   0.0000000   0.0000000), wk =   0.0740741
        k(    2) = (   0.0000000   0.0000000   0.2156068), wk =   0.1481481
        k(    3) = (   0.0000000   0.3333333   0.0000000), wk =   0.2962963
        k(    4) = (   0.0000000   0.3333333   0.2156068), wk =   0.5925926
        k(    5) = (   0.3333333   0.3333333   0.0000000), wk =   0.2962963
        k(    6) = (   0.3333333   0.3333333   0.2156068), wk =   0.5925926

                       cryst. coord.
        k(    1) = (   0.0000000   0.0000000   0.0000000), wk =   0.0740741
        k(    2) = (   0.0000000   0.0000000   0.3333333), wk =   0.1481481
        k(    3) = (   0.0000000   0.3333333   0.0000000), wk =   0.2962963
        k(    4) = (   0.0000000   0.3333333   0.3333333), wk =   0.5925926
        k(    5) = (   0.3333333   0.3333333   0.0000000), wk =   0.2962963
        k(    6) = (   0.3333333   0.3333333   0.3333333), wk =   0.5925926

     Check: negative core charge=   -0.000013

     Initial potential from superposition of free atoms

     starting charge     175.7640, renormalised to     178.0000

     negative rho (up, down):  3.155E-01 0.000E+00
     Starting wfcs are  149 randomized atomic wfcs
     Checking if some PAW data can be deallocated...

     Self-consistent Calculation

     iteration #  1     ecut=    30.00 Ry     beta= 0.70
     Davidson diagonalization with overlap

     ethr =  1.00E-02,  avg # of iterations =  1.2

     negative rho (up, down):  3.118E-01 0.000E+00

     total energy              =   -1879.98972621 Ry
     estimated scf accuracy    <       8.41453424 Ry

[...]

     total energy              =   -1884.98632561 Ry
     estimated scf accuracy    <       0.00000209 Ry

     iteration # 24     ecut=    30.00 Ry     beta= 0.70
     Davidson diagonalization with overlap

     ethr =  1.17E-09,  avg # of iterations =  5.8

     negative rho (up, down):  3.225E-01 0.000E+00

     End of self-consistent calculation

          k = 0.0000 0.0000 0.0000 (  4793 PWs)   bands (ev):

  -101.8350-101.8009 -65.1546 -59.3654 -59.3654 -59.3215 -59.3215 -58.8813
   -58.8696 -52.3313 -29.3842 -29.3842 -29.3576 -26.4581 -26.4538 -26.4538
   -23.4402 -23.4288 -23.4006 -23.3932  -8.5441  -8.2314  -7.6447  -7.5005
    -7.4231  -7.3083  -7.2800  -7.2800  -7.0474  -7.0474  -6.8335  -6.7344
    -5.6820  -5.6820  -5.4417  -5.3990  -5.3990  -5.3546  -5.3523  -5.3523
    -5.2969  -5.2947  -5.2947  -4.9485   3.6359   3.9545   4.3773   4.4265
     4.5236   5.0140   5.0879   5.3459   5.3459   5.5058   5.5408   5.5408
     6.3345   6.3345   6.4481   6.4481   6.4637   6.7376   7.4407   7.4407
     7.6597   7.7426   7.9551   7.9551   8.0299   8.2627   8.2627   8.2695
     8.2720   8.2720   8.3348   8.6445   8.6445   8.6690   8.7556   8.7556
     8.8158   8.9341   9.2281   9.2281   9.3624   9.3624   9.3698   9.3842
     9.5003   9.5463

     occupation numbers
     1.0000   1.0000   1.0000   1.0000   1.0000   1.0000   1.0000   1.0000
     1.0000   1.0000   1.0000   1.0000   1.0000   1.0000   1.0000   1.0000
     1.0000   1.0000   1.0000   1.0000   1.0000   1.0000   1.0000   1.0000
     1.0000   1.0000   1.0000   1.0000   1.0000   1.0000   1.0000   1.0000
     1.0000   1.0000   1.0000   1.0000   1.0000   1.0000   1.0000   1.0000
     1.0000   1.0000   1.0000   1.0000   1.0000   1.0000   1.0000   1.0000
     1.0000   1.0000   1.0000   1.0000   1.0000   1.0000   1.0000   1.0000
     1.0000   1.0000   1.0000   1.0000   1.0000   1.0000   1.0000   1.0000
     1.0000   1.0000   1.0000   1.0000   1.0000   1.0000   1.0000   1.0000
     1.0000   1.0000   1.0000   1.0000   1.0000   1.0000   1.0000   1.0000
     1.0000   1.0000   1.0000   1.0000   1.0000   1.0000   1.0000   1.0000
     1.0000   0.0000

[...]

          k = 0.3333 0.3333 0.2156 (  4845 PWs)   bands (ev):

  -101.8358-101.8017 -65.1547 -59.3674 -59.3668 -59.3236 -59.3230 -58.8820
   -58.8708 -52.3315 -29.3845 -29.3845 -29.3576 -26.4577 -26.4546 -26.4546
   -23.4213 -23.4174 -23.4116 -23.4082  -8.2924  -8.0688  -7.9518  -7.8239
    -7.5631  -7.4537  -7.3653  -7.2364  -7.2019  -7.1267  -7.0361  -7.0037
    -5.4279  -5.4057  -5.3588  -5.3491  -5.2909  -5.2505  -5.1730  -5.1321
    -5.1031  -5.0752  -5.0679  -5.0580   3.7820   3.8507   4.5961   4.7532
     4.9347   4.9685   5.0799   5.2736   5.3742   5.5688   5.5897   5.6177
     6.0598   6.1350   6.4752   6.5141   6.6155   6.6296   6.8850   7.0426
     7.0576   7.2697   7.3663   7.4495   7.5864   7.7249   7.8000   7.8420
     7.9524   7.9822   8.0872   8.1812   8.2221   8.3387   8.4498   8.6330
     9.0593   9.1236   9.1852   9.2505   9.2691   9.2768   9.8223   9.8894
    10.3726  10.4342

     occupation numbers
     1.0000   1.0000   1.0000   1.0000   1.0000   1.0000   1.0000   1.0000
     1.0000   1.0000   1.0000   1.0000   1.0000   1.0000   1.0000   1.0000
     1.0000   1.0000   1.0000   1.0000   1.0000   1.0000   1.0000   1.0000
     1.0000   1.0000   1.0000   1.0000   1.0000   1.0000   1.0000   1.0000
     1.0000   1.0000   1.0000   1.0000   1.0000   1.0000   1.0000   1.0000
     1.0000   1.0000   1.0000   1.0000   1.0000   1.0000   1.0000   1.0000
     1.0000   1.0000   1.0000   1.0000   1.0000   1.0000   1.0000   1.0000
     1.0000   1.0000   1.0000   1.0000   1.0000   1.0000   1.0000   1.0000
     1.0000   1.0000   1.0000   1.0000   1.0000   1.0000   1.0000   1.0000
     1.0000   1.0000   1.0000   1.0000   1.0000   1.0000   1.0000   1.0000
     1.0000   1.0000   1.0000   1.0000   1.0000   1.0000   1.0000   1.0000
     1.0000   0.0000

     highest occupied, lowest unoccupied level (ev):    10.5283    9.5463

!    total energy              =   -1884.98632541 Ry
     estimated scf accuracy    <       0.00000061 Ry

     The total energy is the sum of the following terms:
     one-electron contribution =    -987.24335522 Ry
     hartree contribution      =     590.11265050 Ry
     xc contribution           =    -296.71597291 Ry
     ewald contribution        =   -1076.84414161 Ry
     one-center paw contrib.   =    -114.29550618 Ry
      -> PAW hartree energy AE =       0.00000000 Ry
      -> PAW hartree energy PS =       0.00000000 Ry
      -> PAW xc energy AE      =       0.00000000 Ry
      -> PAW xc energy PS      =       0.00000000 Ry
      -> total E_H with PAW    =     590.11265050 Ry
      -> total E_XC with PAW   =    -296.71597291 Ry

     convergence has been achieved in  24 iterations

     Writing all to output data dir calculations_bands/myprefix.save/

     General routines

     Parallel routines

     PAW routines

   This run was terminated on:   5: 3:41  23Jun2023

   JOB DONE.