     Program PWSCF v.7.0 starts on  6Jun2023 at 20:11:36

     K-points division:     npool     =       2
     R & G space division:  proc/nbgrp/npool/nimage =       4

     Reading input from espresso_244.pwi
Warning: card &CELL ignored
Warning: card / ignored

     Current dimensions of program PWSCF are:
     Max number of different atomic species (ntypx) = 10
     Max number of k-points (npk) =  40000
     Max angular momentum in pseudopotentials (lmaxx) =  4
     Message from routine setup:
     using ibrav=0 with symmetry is DISCOURAGED, use correct ibrav instead

     Using Slab Decomposition

     bravais-lattice index     =            0
     lattice parameter (alat)  =      11.2202  a.u.
     unit-cell volume          =    1025.1840 (a.u.)^3
     number of atoms/cell      =           10
     number of atomic types    =            3
     number of electrons       =        94.00
     number of Kohn-Sham states=           64
     kinetic-energy cutoff     =      30.0000  Ry
     charge density cutoff     =     240.0000  Ry
     scf convergence threshold =      1.0E-06
     mixing beta               =       0.7000
     number of iterations used =            8  plain     mixing
     Exchange-correlation= PBE
                           (   1   4   3   4   0   0   0)

     celldm(1)=  11.220193  celldm(2)=   0.000000  celldm(3)=   0.000000
     celldm(4)=   0.000000  celldm(5)=   0.000000  celldm(6)=   0.000000

     crystal axes: (cart. coord. in units of alat)
               a(1) = (   1.000000   0.000000   0.000000 )
               a(2) = (   0.652778   0.757549   0.000000 )
               a(3) = (   0.545229   0.249905   0.958054 )

     reciprocal axes: (cart. coord. in units 2 pi/alat)
               b(1) = (  1.000000 -0.861698 -0.344329 )
               b(2) = (  0.000000  1.320047 -0.344329 )
               b(3) = (  0.000000  0.000000  1.043782 )

     PseudoPot. # 1 for Ca read from file:
     /home/pragov/projects/rrg-bengioy-ad/pragov/crystal_structure_design/SSSP/Ca_pbe_v1.uspp.F.UPF
     MD5 check sum: 403a4c14b9e4d4dfdc3024c9a3812218
     Pseudo is Ultrasoft + core correction, Zval = 10.0
     Generated by new atomic code, or converted to UPF format
     Using radial grid of  845 points,  6 beta functions with:
                l(1) =   0
                l(2) =   0
                l(3) =   1
                l(4) =   1
                l(5) =   2
                l(6) =   2
     Q(r) pseudized with  8 coefficients,  rinner =    1.500   1.500   1.500
                                                       1.500   1.500

     PseudoPot. # 2 for Co read from file:
     /home/pragov/projects/rrg-bengioy-ad/pragov/crystal_structure_design/SSSP/Co_pbe_v1.2.uspp.F.UPF
     MD5 check sum: 5f91765df6ddd3222702df6e7b74a16d
     Pseudo is Ultrasoft + core correction, Zval = 17.0
     Generated by new atomic code, or converted to UPF format
     Using radial grid of  863 points,  6 beta functions with:
                l(1) =   0
                l(2) =   0
                l(3) =   1
                l(4) =   1
                l(5) =   2
                l(6) =   2
     Q(r) pseudized with  8 coefficients,  rinner =    1.200   1.200   1.200
                                                       1.200   1.200

     PseudoPot. # 3 for N  read from file:
     /home/pragov/projects/rrg-bengioy-ad/pragov/crystal_structure_design/SSSP/N.pbe-n-radius_5.UPF
     MD5 check sum: 16739722b17309cd8fe442a2ace49922
     Pseudo is Ultrasoft + core correction, Zval =  5.0
     Generated using "atomic" code by A. Dal Corso  v.5.1
     Using radial grid of 1085 points,  4 beta functions with:
                l(1) =   0
                l(2) =   0
                l(3) =   1
                l(4) =   1
     Q(r) pseudized with 0 coefficients

     atomic species   valence    mass     pseudopotential
        Ca            10.00    40.07800     Ca( 1.00)
        Co            17.00    58.93319     Co( 1.00)
        N              5.00    14.00700     N ( 1.00)

      2 Sym. Ops., with inversion, found

                                    s                        frac. trans.

      isym =  1     identity

 cryst.   s( 1) = (     1          0          0      )
                  (     0          1          0      )
                  (     0          0          1      )

 cart.    s( 1) = (  1.0000000  0.0000000 -0.0000000 )
                  (  0.0000000  1.0000000 -0.0000000 )
                  (  0.0000000  0.0000000  1.0000000 )

      isym =  2     inversion

 cryst.   s( 2) = (    -1          0          0      )
                  (     0         -1          0      )
                  (     0          0         -1      )

 cart.    s( 2) = ( -1.0000000 -0.0000000  0.0000000 )
                  (  0.0000000 -1.0000000  0.0000000 )
                  (  0.0000000  0.0000000 -1.0000000 )

   Cartesian axes

     site n.     atom                  positions (alat units)
         1           Ca  tau(   1) = (   0.8536024   0.3912476   0.5752464  )
         2           Ca  tau(   2) = (   1.3444045   0.6162062   0.3828078  )
         3           Ca  tau(   3) = (   2.0051562   0.9190609   0.7401879  )
         4           Ca  tau(   4) = (   0.1928507   0.0883929   0.2178663  )
         5           Co  tau(   5) = (   1.5088915   0.6915986   0.8404847  )
         6           Co  tau(   6) = (   0.6891154   0.3158552   0.1175695  )
         7           N   tau(   7) = (   1.6763980   0.7683750   0.5900455  )
         8           N   tau(   8) = (   0.5216088   0.2390788   0.3680088  )
         9           N   tau(   9) = (   0.9686164   0.4439641   0.1887798  )
        10           N   tau(  10) = (   1.2293905   0.5634896   0.7692745  )

   Crystallographic axes

     site n.     atom                  positions (cryst. coord.)
         1           Ca  tau(   1) = (  0.3183910  0.3183910  0.6004320  )
         2           Ca  tau(   2) = (  0.6816090  0.6816090  0.3995680  )
         3           Ca  tau(   3) = (  0.9583350  0.9583350  0.7725950  )
         4           Ca  tau(   4) = (  0.0416650  0.0416650  0.2274050  )
         5           Co  tau(   5) = (  0.6235390  0.6235390  0.8772830  )
         6           Co  tau(   6) = (  0.3764610  0.3764610  0.1227170  )
         7           N   tau(   7) = (  0.8111210  0.8111210  0.6158790  )
         8           N   tau(   8) = (  0.1888790  0.1888790  0.3841210  )
         9           N   tau(   9) = (  0.5210510  0.5210510  0.1970450  )
        10           N   tau(  10) = (  0.4789490  0.4789490  0.8029550  )

     number of k points=    14
                       cart. coord. in units 2pi/alat
        k(    1) = (   0.0000000   0.0000000   0.0000000), wk =   0.0740741
        k(    2) = (   0.0000000   0.0000000   0.3479274), wk =   0.1481481
        k(    3) = (   0.0000000   0.4400156  -0.1147764), wk =   0.1481481
        k(    4) = (   0.0000000   0.4400156   0.2331510), wk =   0.1481481
        k(    5) = (   0.0000000   0.4400156  -0.4627038), wk =   0.1481481
        k(    6) = (   0.3333333  -0.2872326  -0.1147764), wk =   0.1481481
        k(    7) = (   0.3333333  -0.2872326   0.2331510), wk =   0.1481481
        k(    8) = (   0.3333333  -0.2872326  -0.4627038), wk =   0.1481481
        k(    9) = (   0.3333333   0.1527829  -0.2295528), wk =   0.1481481
        k(   10) = (   0.3333333   0.1527829   0.1183746), wk =   0.1481481
        k(   11) = (   0.3333333   0.1527829  -0.5774802), wk =   0.1481481
        k(   12) = (   0.3333333  -0.7272482  -0.0000000), wk =   0.1481481
        k(   13) = (   0.3333333  -0.7272482   0.3479274), wk =   0.1481481
        k(   14) = (   0.3333333  -0.7272482  -0.3479274), wk =   0.1481481

                       cryst. coord.
        k(    1) = (   0.0000000   0.0000000   0.0000000), wk =   0.0740741
        k(    2) = (   0.0000000   0.0000000   0.3333333), wk =   0.1481481
        k(    3) = (   0.0000000   0.3333333   0.0000000), wk =   0.1481481
        k(    4) = (   0.0000000   0.3333333   0.3333333), wk =   0.1481481
        k(    5) = (   0.0000000   0.3333333  -0.3333333), wk =   0.1481481
        k(    6) = (   0.3333333   0.0000000   0.0000000), wk =   0.1481481
        k(    7) = (   0.3333333   0.0000000   0.3333333), wk =   0.1481481
        k(    8) = (   0.3333333   0.0000000  -0.3333333), wk =   0.1481481
        k(    9) = (   0.3333333   0.3333333  -0.0000000), wk =   0.1481481
        k(   10) = (   0.3333333   0.3333333   0.3333333), wk =   0.1481481
        k(   11) = (   0.3333333   0.3333333  -0.3333333), wk =   0.1481481
        k(   12) = (   0.3333333  -0.3333333  -0.0000000), wk =   0.1481481
        k(   13) = (   0.3333333  -0.3333333   0.3333333), wk =   0.1481481
        k(   14) = (   0.3333333  -0.3333333  -0.3333333), wk =   0.1481481

     Check: negative core charge=   -0.000009

     Initial potential from superposition of free atoms

     starting charge      91.9781, renormalised to      94.0000
     Starting wfcs are   82 randomized atomic wfcs

     Self-consistent Calculation

     iteration #  1     ecut=    30.00 Ry     beta= 0.70
     Davidson diagonalization with overlap

     ethr =  1.00E-02,  avg # of iterations =  2.0

     total energy              =    -967.93036121 Ry
     estimated scf accuracy    <      13.26955115 Ry

[...]

     total energy              =    -977.75729036 Ry
     estimated scf accuracy    <       0.00004660 Ry

     iteration # 12     ecut=    30.00 Ry     beta= 0.70
     Davidson diagonalization with overlap

     ethr =  4.96E-08,  avg # of iterations =  1.9

     End of self-consistent calculation

          k = 0.0000 0.0000 0.0000 (  2841 PWs)   bands (ev):

   -85.4247 -85.3949 -49.1417 -49.1039 -48.8011 -48.6462 -48.1474 -48.1258
   -30.1516 -30.1110 -29.9681 -29.9391 -11.5167 -11.3586 -11.3087 -11.2638
   -11.2222 -11.1974 -11.1768 -11.0777 -11.0270 -11.0252 -10.9378 -10.8736
    -4.8061  -4.2234  -3.0535  -2.9741   4.6222   5.0367   5.4085   5.9190
     6.1795   6.2387   6.7454   6.8082   7.1273   7.3751   7.6804   7.7850
     7.8155   8.4019   8.5591   8.5889   9.3760   9.7438   9.9353  10.1805
    11.1489  11.2449  11.7139  12.8211  12.9401  13.0007  13.0938  13.2058
    13.5848  14.1131  14.4998  14.5151  14.8009  14.9397  15.0986  15.7682

     occupation numbers
     1.0000   1.0000   1.0000   1.0000   1.0000   1.0000   1.0000   1.0000
     1.0000   1.0000   1.0000   1.0000   1.0000   1.0000   1.0000   1.0000
     1.0000   1.0000   1.0000   1.0000   1.0000   1.0000   1.0000   1.0000
     1.0000   1.0000   1.0000   1.0000   1.0000   1.0000   1.0000   1.0000
     1.0000   1.0000   1.0000   1.0000   1.0000   1.0000   1.0000   1.0000
     1.0000   1.0000   1.0000   1.0000   1.0000   1.0000   1.0000   0.0000
     0.0000   0.0000   0.0000   0.0000   0.0000   0.0000   0.0000   0.0000
     0.0000   0.0000   0.0000   0.0000   0.0000   0.0000   0.0000   0.0000

[...]

          k = 0.3333-0.7272-0.3479 (  2853 PWs)   bands (ev):

   -85.4250 -85.3949 -49.1394 -49.1044 -48.8025 -48.6465 -48.1512 -48.1261
   -30.1374 -30.1164 -29.9596 -29.9555 -11.4961 -11.4210 -11.3956 -11.3264
   -11.2432 -11.1810 -11.1058 -11.0753 -11.0686 -11.0165 -10.9157 -10.8874
    -4.5136  -4.0954  -2.8791  -2.8460   4.8145   4.9432   5.0750   5.4679
     5.8600   6.0998   6.4708   6.7905   6.8313   7.1850   7.3991   7.6958
     8.0901   8.4355   8.6050   8.6619   9.6081   9.6997   9.7633   9.9070
    10.5098  10.8881  11.3740  11.4406  12.7827  13.3434  13.7108  14.2088
    14.5032  14.6363  14.8883  15.0016  15.2732  15.4628  15.7694  15.9483

     occupation numbers
     1.0000   1.0000   1.0000   1.0000   1.0000   1.0000   1.0000   1.0000
     1.0000   1.0000   1.0000   1.0000   1.0000   1.0000   1.0000   1.0000
     1.0000   1.0000   1.0000   1.0000   1.0000   1.0000   1.0000   1.0000
     1.0000   1.0000   1.0000   1.0000   1.0000   1.0000   1.0000   1.0000
     1.0000   1.0000   1.0000   1.0000   1.0000   1.0000   1.0000   1.0000
     1.0000   1.0000   1.0000   1.0000   1.0000   1.0000   1.0000   0.0000
     0.0000   0.0000   0.0000   0.0000   0.0000   0.0000   0.0000   0.0000
     0.0000   0.0000   0.0000   0.0000   0.0000   0.0000   0.0000   0.0000

     highest occupied, lowest unoccupied level (ev):    10.1325    9.9070

!    total energy              =    -977.75729443 Ry
     estimated scf accuracy    <       0.00000074 Ry

     The total energy is the sum of the following terms:
     one-electron contribution =    -652.78794515 Ry
     hartree contribution      =     363.78860948 Ry
     xc contribution           =    -134.73847737 Ry
     ewald contribution        =    -554.01948139 Ry

     convergence has been achieved in  12 iterations

     Writing all to output data dir calculations_bands/myprefix.save/

     General routines

     Parallel routines

   This run was terminated on:  20:11:51   6Jun2023

   JOB DONE.