     Program PWSCF v.7.0 starts on  7Jun2023 at 12: 4:46

     K-points division:     npool     =       2
     R & G space division:  proc/nbgrp/npool/nimage =       4

     Reading input from espresso_8765.pwi
Warning: card &CELL ignored
Warning: card / ignored

     Current dimensions of program PWSCF are:
     Max number of different atomic species (ntypx) = 10
     Max number of k-points (npk) =  40000
     Max angular momentum in pseudopotentials (lmaxx) =  4
     Message from routine setup:
     using ibrav=0 with symmetry is DISCOURAGED, use correct ibrav instead

     Using Slab Decomposition

     bravais-lattice index     =            0
     lattice parameter (alat)  =      13.6594  a.u.
     unit-cell volume          =    1285.3719 (a.u.)^3
     number of atoms/cell      =           16
     number of atomic types    =            4
     number of electrons       =        98.00
     number of Kohn-Sham states=           64
     kinetic-energy cutoff     =      30.0000  Ry
     charge density cutoff     =     240.0000  Ry
     scf convergence threshold =      1.0E-06
     mixing beta               =       0.7000
     number of iterations used =            8  plain     mixing
     Exchange-correlation= PBE
                           (   1   4   3   4   0   0   0)

     celldm(1)=  13.659389  celldm(2)=   0.000000  celldm(3)=   0.000000
     celldm(4)=   0.000000  celldm(5)=   0.000000  celldm(6)=   0.000000

     crystal axes: (cart. coord. in units of alat)
               a(1) = (   1.000000   0.000000   0.000000 )
               a(2) = (   0.670342   0.742052   0.000000 )
               a(3) = (   0.670342   0.297801   0.679674 )

     reciprocal axes: (cart. coord. in units 2 pi/alat)
               b(1) = (  1.000000 -0.903362 -0.590460 )
               b(2) = (  0.000000  1.347614 -0.590460 )
               b(3) = (  0.000000  0.000000  1.471294 )

     PseudoPot. # 1 for Sr read from file:
     /home/pragov/projects/rrg-bengioy-ad/pragov/crystal_structure_design/SSSP/Sr_pbe_v1.uspp.F.UPF
     MD5 check sum: 6b418c05fbe9db5448babca5e47b7a5b
     Pseudo is Ultrasoft + core correction, Zval = 10.0
     Generated by new atomic code, or converted to UPF format
     Using radial grid of  883 points,  6 beta functions with:
                l(1) =   0
                l(2) =   0
                l(3) =   1
                l(4) =   1
                l(5) =   2
                l(6) =   2
     Q(r) pseudized with  6 coefficients,  rinner =    1.400   1.400   1.400
                                                       1.400   1.400

     PseudoPot. # 2 for Li read from file:
     /home/pragov/projects/rrg-bengioy-ad/pragov/crystal_structure_design/SSSP/li_pbe_v1.4.uspp.F.UPF
     MD5 check sum: e912e257baa3777c20ea3d68f190483c
     Pseudo is Ultrasoft, Zval =  3.0
     Generated by new atomic code, or converted to UPF format
     Using radial grid of  751 points,  5 beta functions with:
                l(1) =   0
                l(2) =   0
                l(3) =   0
                l(4) =   1
                l(5) =   1
     Q(r) pseudized with 10 coefficients,  rinner =    1.150   1.150   1.150

     PseudoPot. # 3 for Mn read from file:
     /home/pragov/projects/rrg-bengioy-ad/pragov/crystal_structure_design/SSSP/mn_pbe_v1.5.uspp.F.UPF
     MD5 check sum: 82ef2b46521d7a7d9e736dc3972e4928
     Pseudo is Ultrasoft + core correction, Zval = 15.0
     Generated by new atomic code, or converted to UPF format
     Using radial grid of  859 points,  6 beta functions with:
                l(1) =   0
                l(2) =   0
                l(3) =   1
                l(4) =   1
                l(5) =   2
                l(6) =   2
     Q(r) pseudized with  8 coefficients,  rinner =    0.950   0.950   0.950
                                                       0.950   0.950

     PseudoPot. # 4 for N  read from file:
     /home/pragov/projects/rrg-bengioy-ad/pragov/crystal_structure_design/SSSP/N.pbe-n-radius_5.UPF
     MD5 check sum: 16739722b17309cd8fe442a2ace49922
     Pseudo is Ultrasoft + core correction, Zval =  5.0
     Generated using "atomic" code by A. Dal Corso  v.5.1
     Using radial grid of 1085 points,  4 beta functions with:
                l(1) =   0
                l(2) =   0
                l(3) =   1
                l(4) =   1
     Q(r) pseudized with 0 coefficients

     atomic species   valence    mass     pseudopotential
        Sr            10.00    87.62000     Sr( 1.00)
        Li             3.00     6.94000     Li( 1.00)
        Mn            15.00    54.93804     Mn( 1.00)
        N              5.00    14.00700     N ( 1.00)

      2 Sym. Ops., with inversion, found

                                    s                        frac. trans.

      isym =  1     identity

 cryst.   s( 1) = (     1          0          0      )
                  (     0          1          0      )
                  (     0          0          1      )

 cart.    s( 1) = (  1.0000000 -0.0000000 -0.0000000 )
                  (  0.0000000  1.0000000 -0.0000000 )
                  (  0.0000000  0.0000000  1.0000000 )

      isym =  2     inversion

 cryst.   s( 2) = (    -1          0          0      )
                  (     0         -1          0      )
                  (     0          0         -1      )

 cart.    s( 2) = ( -1.0000000  0.0000000  0.0000000 )
                  (  0.0000000 -1.0000000  0.0000000 )
                  (  0.0000000  0.0000000 -1.0000000 )

   Cartesian axes

     site n.     atom                  positions (alat units)
         1           Sr  tau(   1) = (   0.7901306   0.3510169   0.2294334  )
         2           Sr  tau(   2) = (   1.5505533   0.6888360   0.4502404  )
         3           Li  tau(   3) = (   1.2350772   0.4417840   0.6085377  )
         4           Li  tau(   4) = (   1.3730948   0.4240053   0.1604282  )
         5           Li  tau(   5) = (   1.1849331   0.2335130   0.3556943  )
         6           Li  tau(   6) = (   1.1557509   0.8063399   0.3239794  )
         7           Li  tau(   7) = (   0.9675892   0.6158476   0.5192456  )
         8           Li  tau(   8) = (   1.1056068   0.5980689   0.0711360  )
         9           Mn  tau(   9) = (   0.1567860   0.0696525   0.0455266  )
        10           Mn  tau(  10) = (   2.1838979   0.9702004   0.6341472  )
        11           N   tau(  11) = (   1.3644920   0.7327852   0.1395955  )
        12           N   tau(  12) = (   1.1129044   0.3101741   0.0645106  )
        13           N   tau(  13) = (   0.9761920   0.3070677   0.5400783  )
        14           N   tau(  14) = (   0.8822427   0.7027808   0.2582108  )
        15           N   tau(  15) = (   1.2277795   0.7296788   0.6151632  )
        16           N   tau(  16) = (   1.4584412   0.3370721   0.4214630  )

   Crystallographic axes

     site n.     atom                  positions (cryst. coord.)
         1           Sr  tau(   1) = (  0.3375640  0.3375640  0.3375640  )
         2           Sr  tau(   2) = (  0.6624360  0.6624360  0.6624360  )
         3           Li  tau(   3) = (  0.4766690  0.2360370  0.8953380  )
         4           Li  tau(   4) = (  0.8953380  0.4766690  0.2360370  )
         5           Li  tau(   5) = (  0.7639630  0.1046620  0.5233310  )
         6           Li  tau(   6) = (  0.2360370  0.8953380  0.4766690  )
         7           Li  tau(   7) = (  0.1046620  0.5233310  0.7639630  )
         8           Li  tau(   8) = (  0.5233310  0.7639630  0.1046620  )
         9           Mn  tau(   9) = (  0.0669830  0.0669830  0.0669830  )
        10           Mn  tau(  10) = (  0.9330170  0.9330170  0.9330170  )
        11           N   tau(  11) = (  0.6200960  0.9050860  0.2053860  )
        12           N   tau(  12) = (  0.7946140  0.3799040  0.0949140  )
        13           N   tau(  13) = (  0.3799040  0.0949140  0.7946140  )
        14           N   tau(  14) = (  0.0949140  0.7946140  0.3799040  )
        15           N   tau(  15) = (  0.2053860  0.6200960  0.9050860  )
        16           N   tau(  16) = (  0.9050860  0.2053860  0.6200960  )

     number of k points=    14
                       cart. coord. in units 2pi/alat
        k(    1) = (   0.0000000   0.0000000   0.0000000), wk =   0.0740741
        k(    2) = (   0.0000000   0.0000000   0.4904314), wk =   0.1481481
        k(    3) = (   0.0000000   0.4492046  -0.1968200), wk =   0.1481481
        k(    4) = (   0.0000000   0.4492046   0.2936114), wk =   0.1481481
        k(    5) = (   0.0000000   0.4492046  -0.6872514), wk =   0.1481481
        k(    6) = (   0.3333333  -0.3011207  -0.1968200), wk =   0.1481481
        k(    7) = (   0.3333333  -0.3011207   0.2936114), wk =   0.1481481
        k(    8) = (   0.3333333  -0.3011207  -0.6872514), wk =   0.1481481
        k(    9) = (   0.3333333   0.1480839  -0.3936400), wk =   0.1481481
        k(   10) = (   0.3333333   0.1480839   0.0967913), wk =   0.1481481
        k(   11) = (   0.3333333   0.1480839  -0.8840714), wk =   0.1481481
        k(   12) = (   0.3333333  -0.7503254  -0.0000000), wk =   0.1481481
        k(   13) = (   0.3333333  -0.7503254   0.4904314), wk =   0.1481481
        k(   14) = (   0.3333333  -0.7503254  -0.4904314), wk =   0.1481481

                       cryst. coord.
        k(    1) = (   0.0000000   0.0000000   0.0000000), wk =   0.0740741
        k(    2) = (   0.0000000   0.0000000   0.3333333), wk =   0.1481481
        k(    3) = (   0.0000000   0.3333333  -0.0000000), wk =   0.1481481
        k(    4) = (   0.0000000   0.3333333   0.3333333), wk =   0.1481481
        k(    5) = (   0.0000000   0.3333333  -0.3333333), wk =   0.1481481
        k(    6) = (   0.3333333  -0.0000000  -0.0000000), wk =   0.1481481
        k(    7) = (   0.3333333  -0.0000000   0.3333333), wk =   0.1481481
        k(    8) = (   0.3333333  -0.0000000  -0.3333333), wk =   0.1481481
        k(    9) = (   0.3333333   0.3333333  -0.0000000), wk =   0.1481481
        k(   10) = (   0.3333333   0.3333333   0.3333333), wk =   0.1481481
        k(   11) = (   0.3333333   0.3333333  -0.3333333), wk =   0.1481481
        k(   12) = (   0.3333333  -0.3333333  -0.0000000), wk =   0.1481481
        k(   13) = (   0.3333333  -0.3333333   0.3333333), wk =   0.1481481
        k(   14) = (   0.3333333  -0.3333333  -0.3333333), wk =   0.1481481

     Check: negative core charge=   -0.000013

     Initial potential from superposition of free atoms

     starting charge      94.2280, renormalised to      98.0000

     negative rho (up, down):  1.320E-01 0.000E+00
     Starting wfcs are  106 randomized atomic wfcs

     Self-consistent Calculation

     iteration #  1     ecut=    30.00 Ry     beta= 0.70
     Davidson diagonalization with overlap

     ethr =  1.00E-02,  avg # of iterations =  2.0

     negative rho (up, down):  1.273E-01 0.000E+00

     total energy              =    -744.74210302 Ry
     estimated scf accuracy    <      36.37912161 Ry

[...]

     total energy              =    -771.24151221 Ry
     estimated scf accuracy    <       0.00000472 Ry

     iteration # 14     ecut=    30.00 Ry     beta= 0.70
     Davidson diagonalization with overlap

     ethr =  4.81E-09,  avg # of iterations =  2.0

     negative rho (up, down):  1.332E-01 0.000E+00

     End of self-consistent calculation

          k = 0.0000 0.0000 0.0000 (  3585 PWs)   bands (ev):

   -71.7103 -71.6949 -40.6703 -40.6702 -40.6568 -40.6567 -40.0832 -39.9467
   -37.1374 -37.0823 -37.0820 -37.0700 -37.0698 -37.0351 -26.5479 -26.4190
    -9.0401  -9.0401  -8.9047  -8.4925  -8.4439  -8.4439  -5.8881  -5.1923
    -4.9924  -4.9923  -4.9313  -4.9312   3.4509   3.9963   3.9964   4.2615
     4.2626   4.2626   4.3896   4.5162   4.5162   4.9104   4.9104   5.1438
     5.1438   5.3679   5.7361   5.8844   5.8844   6.0146   6.2770   8.3337
     8.3337   8.9752   8.9752   9.1657  10.2284  10.2284  10.2677  10.2677
    11.0240  12.2600  12.7937  12.9443  12.9444  13.1189  13.1191  13.3945

     occupation numbers
     1.0000   1.0000   1.0000   1.0000   1.0000   1.0000   1.0000   1.0000
     1.0000   1.0000   1.0000   1.0000   1.0000   1.0000   1.0000   1.0000
     1.0000   1.0000   1.0000   1.0000   1.0000   1.0000   1.0000   1.0000
     1.0000   1.0000   1.0000   1.0000   1.0000   1.0000   1.0000   1.0000
     1.0000   1.0000   1.0000   1.0000   1.0000   1.0000   1.0000   1.0000
     1.0000   1.0000   1.0000   1.0000   1.0000   1.0000   1.0000   1.0000
     1.0000   0.0000   0.0000   0.0000   0.0000   0.0000   0.0000   0.0000
     0.0000   0.0000   0.0000   0.0000   0.0000   0.0000   0.0000   0.0000

[...]

          k = 0.3333-0.7503-0.4904 (  3558 PWs)   bands (ev):

   -71.7098 -71.6946 -40.6680 -40.6630 -40.6531 -40.6527 -40.0851 -39.9443
   -37.1263 -37.1013 -37.0921 -37.0609 -37.0543 -37.0387 -26.5209 -26.4466
    -9.1082  -8.9889  -8.8109  -8.5892  -8.5296  -8.3571  -5.5311  -5.4785
    -5.1493  -5.0126  -4.9267  -4.8302   3.6542   3.7848   3.8105   4.1030
     4.1695   4.3978   4.4328   4.4720   4.6391   4.8453   4.9438   5.0163
     5.2552   5.2978   5.6609   6.0572   6.3265   6.3718   6.5500   8.4675
     8.5250   8.7701   9.0141   9.2008   9.5529   9.7477  10.1173  10.1277
    11.4605  11.9888  12.1881  12.4821  12.9502  13.1666  13.4856  13.6671

     occupation numbers
     1.0000   1.0000   1.0000   1.0000   1.0000   1.0000   1.0000   1.0000
     1.0000   1.0000   1.0000   1.0000   1.0000   1.0000   1.0000   1.0000
     1.0000   1.0000   1.0000   1.0000   1.0000   1.0000   1.0000   1.0000
     1.0000   1.0000   1.0000   1.0000   1.0000   1.0000   1.0000   1.0000
     1.0000   1.0000   1.0000   1.0000   1.0000   1.0000   1.0000   1.0000
     1.0000   1.0000   1.0000   1.0000   1.0000   1.0000   1.0000   1.0000
     1.0000   0.0000   0.0000   0.0000   0.0000   0.0000   0.0000   0.0000
     0.0000   0.0000   0.0000   0.0000   0.0000   0.0000   0.0000   0.0000

     highest occupied, lowest unoccupied level (ev):     8.6287    8.7701

!    total energy              =    -771.24151256 Ry
     estimated scf accuracy    <       0.00000028 Ry

     The total energy is the sum of the following terms:
     one-electron contribution =    -440.21503456 Ry
     hartree contribution      =     249.74716572 Ry
     xc contribution           =    -142.70476389 Ry
     ewald contribution        =    -438.06887983 Ry

     convergence has been achieved in  14 iterations

     Writing all to output data dir calculations_bands/myprefix.save/

     General routines

     Parallel routines

   This run was terminated on:  12: 5: 6   7Jun2023

   JOB DONE.