     Program PWSCF v.7.0 starts on 23Jun2023 at  8:18:51

     K-points division:     npool     =       2
     R & G space division:  proc/nbgrp/npool/nimage =       4

     Reading input from espresso_492.pwi
Warning: card &CELL ignored
Warning: card / ignored

     Current dimensions of program PWSCF are:
     Max number of different atomic species (ntypx) = 10
     Max number of k-points (npk) =  40000
     Max angular momentum in pseudopotentials (lmaxx) =  4
     file Mg.pbe-n-kjpaw_psl.0.3.0.UPF: wavefunction(s)  3S renormalized
     file O.pbe-n-kjpaw_psl.0.1.UPF: wavefunction(s)  2P renormalized
     Message from routine setup:
     using ibrav=0 with symmetry is DISCOURAGED, use correct ibrav instead

     Using Slab Decomposition

     bravais-lattice index     =            0
     lattice parameter (alat)  =       9.9092  a.u.
     unit-cell volume          =    1477.9452 (a.u.)^3
     number of atoms/cell      =           20
     number of atomic types    =            4
     number of electrons       =       166.00
     number of Kohn-Sham states=           90
     kinetic-energy cutoff     =      30.0000  Ry
     charge density cutoff     =     240.0000  Ry
     scf convergence threshold =      1.0E-06
     mixing beta               =       0.7000
     number of iterations used =            8  plain     mixing
     Exchange-correlation= SLA  PW   PBX  PBC
                           (   1   4   3   4   0   0   0)

     celldm(1)=   9.909166  celldm(2)=   0.000000  celldm(3)=   0.000000
     celldm(4)=   0.000000  celldm(5)=   0.000000  celldm(6)=   0.000000

     crystal axes: (cart. coord. in units of alat)
               a(1) = (   1.000000   0.000000   0.000000 )
               a(2) = (   0.000000   1.046248   0.000000 )
               a(3) = (   0.000000   0.000000   1.451819 )

     reciprocal axes: (cart. coord. in units 2 pi/alat)
               b(1) = (  1.000000  0.000000  0.000000 )
               b(2) = (  0.000000  0.955796  0.000000 )
               b(3) = (  0.000000  0.000000  0.688791 )

     PseudoPot. # 1 for Ho read from file:
     /home/pragov/projects/rrg-bengioy-ad/pragov/crystal_structure_design/SSSP/Ho.GGA-PBE-paw-v1.0.UPF
     MD5 check sum: 3d93cae5f38e6cc822e0e70538981326
     Pseudo is Projector augmented-wave + core cor, Zval = 21.0
     Generated using ATOMPAW code
     Shape of augmentation charge: BESSEL
     Using radial grid of 1114 points,  8 beta functions with:
                l(1) =   0
                l(2) =   0
                l(3) =   1
                l(4) =   1
                l(5) =   2
                l(6) =   2
                l(7) =   3
                l(8) =   3
     Q(r) pseudized with 0 coefficients

     PseudoPot. # 2 for Mg read from file:
     /home/pragov/projects/rrg-bengioy-ad/pragov/crystal_structure_design/SSSP/Mg.pbe-n-kjpaw_psl.0.3.0.UPF
     MD5 check sum: 24ecedc7f3e3cbe212e682f4413594e4
     Pseudo is Projector augmented-wave + core cor, Zval =  2.0
     Generated using "atomic" code by A. Dal Corso  v.5.0.99 svn rev. 10869
     Shape of augmentation charge: PSQ
     Using radial grid of 1129 points,  4 beta functions with:
                l(1) =   0
                l(2) =   0
                l(3) =   1
                l(4) =   1
     Q(r) pseudized with 0 coefficients

     PseudoPot. # 3 for Ti read from file:
     /home/pragov/projects/rrg-bengioy-ad/pragov/crystal_structure_design/SSSP/ti_pbe_v1.4.uspp.F.UPF
     MD5 check sum: 88a00a6731bd790ddea75d31a80cb452
     Pseudo is Ultrasoft + core correction, Zval = 12.0
     Generated by new atomic code, or converted to UPF format
     Using radial grid of  851 points,  6 beta functions with:
                l(1) =   0
                l(2) =   0
                l(3) =   1
                l(4) =   1
                l(5) =   2
                l(6) =   2
     Q(r) pseudized with  6 coefficients,  rinner =    1.000   1.000   1.000
                                                       1.000   1.000

     PseudoPot. # 4 for O  read from file:
     /home/pragov/projects/rrg-bengioy-ad/pragov/crystal_structure_design/SSSP/O.pbe-n-kjpaw_psl.0.1.UPF
     MD5 check sum: 0234752ac141de4415c5fc33072bef88
     Pseudo is Projector augmented-wave + core cor, Zval =  6.0
     Generated using "atomic" code by A. Dal Corso  v.5.0.99 svn rev. 10869
     Shape of augmentation charge: BESSEL
     Using radial grid of 1095 points,  4 beta functions with:
                l(1) =   0
                l(2) =   0
                l(3) =   1
                l(4) =   1
     Q(r) pseudized with 0 coefficients

     atomic species   valence    mass     pseudopotential
        Ho            21.00   164.93033     Ho( 1.00)
        Mg             2.00    24.30500     Mg( 1.00)
        Ti            12.00    47.86700     Ti( 1.00)
        O              6.00    15.99900     O ( 1.00)

      4 Sym. Ops. (no inversion) found ( 2 have fractional translation)

                                    s                        frac. trans.

      isym =  1     identity

 cryst.   s( 1) = (     1          0          0      )
                  (     0          1          0      )
                  (     0          0          1      )

 cart.    s( 1) = (  1.0000000  0.0000000  0.0000000 )
                  (  0.0000000  1.0000000  0.0000000 )
                  (  0.0000000  0.0000000  1.0000000 )

      isym =  2     180 deg rotation - cart. axis [1,0,0]

 cryst.   s( 2) = (     1          0          0      )    f =( -0.5000000 )
                  (     0         -1          0      )       (  0.0000000 )
                  (     0          0         -1      )       (  0.5000000 )

 cart.    s( 2) = (  1.0000000  0.0000000  0.0000000 )    f =( -0.5000000 )
                  (  0.0000000 -1.0000000  0.0000000 )       (  0.0000000 )
                  (  0.0000000  0.0000000 -1.0000000 )       (  0.7259093 )

      isym =  3     inv. 180 deg rotation - cart. axis [0,0,1]

 cryst.   s( 3) = (     1          0          0      )
                  (     0          1          0      )
                  (     0          0         -1      )

 cart.    s( 3) = (  1.0000000  0.0000000  0.0000000 )
                  (  0.0000000  1.0000000  0.0000000 )
                  (  0.0000000  0.0000000 -1.0000000 )

      isym =  4     inv. 180 deg rotation - cart. axis [0,1,0]

 cryst.   s( 4) = (     1          0          0      )    f =( -0.5000000 )
                  (     0         -1          0      )       (  0.0000000 )
                  (     0          0          1      )       ( -0.5000000 )

 cart.    s( 4) = (  1.0000000  0.0000000  0.0000000 )    f =( -0.5000000 )
                  (  0.0000000 -1.0000000  0.0000000 )       (  0.0000000 )
                  (  0.0000000  0.0000000  1.0000000 )       ( -0.7259093 )

   Cartesian axes

     site n.     atom                  positions (alat units)
         1           Ho  tau(   1) = (   0.0159080   0.7128893   0.0000000  )
         2           Ho  tau(   2) = (   0.5159080   0.3333587   0.7259093  )
         3           Mg  tau(   3) = (   0.4882220   0.2094683   0.0000000  )
         4           Mg  tau(   4) = (   0.9882220   0.8367798   0.7259093  )
         5           Ti  tau(   5) = (   0.0012040   0.2527652   1.0892878  )
         6           Ti  tau(   6) = (   0.0012040   0.2527652   0.3625307  )
         7           Ti  tau(   7) = (   0.5012040   0.7934829   0.3633786  )
         8           Ti  tau(   8) = (   0.5012040   0.7934829   1.0884400  )
         9           O   tau(   9) = (   0.1075880   0.2042025   0.7259093  )
        10           O   tau(  10) = (   0.1925600   0.9916642   1.1769646  )
        11           O   tau(  11) = (   0.1925600   0.9916642   0.2748539  )
        12           O   tau(  12) = (   0.3143590   0.4614236   1.1785166  )
        13           O   tau(  13) = (   0.3143590   0.4614236   0.2733019  )
        14           O   tau(  14) = (   0.3717430   0.7445938   0.7259093  )
        15           O   tau(  15) = (   0.6075880   0.8420455   0.0000000  )
        16           O   tau(  16) = (   0.6925600   0.0545838   0.4510553  )
        17           O   tau(  17) = (   0.6925600   0.0545838   1.0007632  )
        18           O   tau(  18) = (   0.8143590   0.5848244   0.9992112  )
        19           O   tau(  19) = (   0.8143590   0.5848244   0.4526073  )
        20           O   tau(  20) = (   0.8717430   0.3016542   0.0000000  )

   Crystallographic axes

     site n.     atom                  positions (cryst. coord.)
         1           Ho  tau(   1) = (  0.0159080  0.6813770  0.0000000  )
         2           Ho  tau(   2) = (  0.5159080  0.3186230  0.5000000  )
         3           Mg  tau(   3) = (  0.4882220  0.2002090  0.0000000  )
         4           Mg  tau(   4) = (  0.9882220  0.7997910  0.5000000  )
         5           Ti  tau(   5) = (  0.0012040  0.2415920  0.7502920  )
         6           Ti  tau(   6) = (  0.0012040  0.2415920  0.2497080  )
         7           Ti  tau(   7) = (  0.5012040  0.7584080  0.2502920  )
         8           Ti  tau(   8) = (  0.5012040  0.7584080  0.7497080  )
         9           O   tau(   9) = (  0.1075880  0.1951760  0.5000000  )
        10           O   tau(  10) = (  0.1925600  0.9478290  0.8106830  )
        11           O   tau(  11) = (  0.1925600  0.9478290  0.1893170  )
        12           O   tau(  12) = (  0.3143590  0.4410270  0.8117520  )
        13           O   tau(  13) = (  0.3143590  0.4410270  0.1882480  )
        14           O   tau(  14) = (  0.3717430  0.7116800  0.5000000  )
        15           O   tau(  15) = (  0.6075880  0.8048240  0.0000000  )
        16           O   tau(  16) = (  0.6925600  0.0521710  0.3106830  )
        17           O   tau(  17) = (  0.6925600  0.0521710  0.6893170  )
        18           O   tau(  18) = (  0.8143590  0.5589730  0.6882480  )
        19           O   tau(  19) = (  0.8143590  0.5589730  0.3117520  )
        20           O   tau(  20) = (  0.8717430  0.2883200  0.0000000  )

     number of k points=     8
                       cart. coord. in units 2pi/alat
        k(    1) = (   0.0000000   0.0000000   0.0000000), wk =   0.0740741
        k(    2) = (   0.0000000   0.0000000   0.2295971), wk =   0.1481481
        k(    3) = (   0.0000000   0.3185988   0.0000000), wk =   0.1481481
        k(    4) = (   0.0000000   0.3185988   0.2295971), wk =   0.2962963
        k(    5) = (   0.3333333   0.0000000   0.0000000), wk =   0.1481481
        k(    6) = (   0.3333333   0.0000000   0.2295971), wk =   0.2962963
        k(    7) = (   0.3333333   0.3185988   0.0000000), wk =   0.2962963
        k(    8) = (   0.3333333   0.3185988   0.2295971), wk =   0.5925926

                       cryst. coord.
        k(    1) = (   0.0000000   0.0000000   0.0000000), wk =   0.0740741
        k(    2) = (   0.0000000   0.0000000   0.3333333), wk =   0.1481481
        k(    3) = (   0.0000000   0.3333333   0.0000000), wk =   0.1481481
        k(    4) = (   0.0000000   0.3333333   0.3333333), wk =   0.2962963
        k(    5) = (   0.3333333   0.0000000   0.0000000), wk =   0.1481481
        k(    6) = (   0.3333333   0.0000000   0.3333333), wk =   0.2962963
        k(    7) = (   0.3333333   0.3333333   0.0000000), wk =   0.2962963
        k(    8) = (   0.3333333   0.3333333   0.3333333), wk =   0.5925926

     Check: negative core charge=   -0.000013

     Initial potential from superposition of free atoms

     starting charge     161.9894, renormalised to     166.0000

     negative rho (up, down):  6.907E-03 0.000E+00
     Starting wfcs are  160 randomized atomic wfcs
     Checking if some PAW data can be deallocated...

     Self-consistent Calculation

     iteration #  1     ecut=    30.00 Ry     beta= 0.70
     Davidson diagonalization with overlap

     ethr =  1.00E-02,  avg # of iterations =  2.0

     total energy              =   -2500.19007767 Ry
     estimated scf accuracy    <     185.49501642 Ry

[...]

     c_bands:  1 eigenvalues not converged
     ethr =  1.00E-02,  avg # of iterations = 27.2

[...]

     negative rho (up, down):  5.060E-04 0.000E+00

[...]

     total energy              =   -2704.99259408 Ry
     estimated scf accuracy    <       0.00000135 Ry

     iteration # 69     ecut=    30.00 Ry     beta= 0.70
     Davidson diagonalization with overlap

     ethr =  8.12E-10,  avg # of iterations =  3.9

     negative rho (up, down):  6.315E-03 0.000E+00

     End of self-consistent calculation

          k = 0.0000 0.0000 0.0000 (  4111 PWs)   bands (ev):

   -46.2180 -46.2162 -46.2139 -46.2119 -34.1034 -34.1033 -22.5597 -22.5547
   -22.5270 -22.5250 -22.5170 -22.5106 -22.4781 -22.4761 -22.4625 -22.4407
   -22.4318 -22.4217  -9.9326  -9.9197  -9.9026  -9.7897  -9.7321  -9.6548
    -7.7283  -6.7875  -6.5982  -6.5863  -6.4573  -6.4068  -6.3097  -6.2234
    -6.1852  -6.1384  -5.8767  -5.8443   5.0093   5.5286   5.6671   5.7045
     5.7282   6.0336   6.1005   6.1192   6.1675   6.2424   6.4546   7.0110
     7.0999   7.1335   7.2368   7.4074   7.4809   7.4946   7.5981   7.7690
     7.7691   8.0665   8.1235   8.2566   8.3677   8.5966   8.6111   8.7817
     8.8459   8.8783   8.9710   9.1906   9.2407   9.4183   9.4848   9.6050
    11.9370  12.1780  12.1893  12.2059  12.2162  12.2470  12.2540  12.2556
    12.2767  12.3074  12.3524  12.3659  12.3897  12.4038  12.5101  12.5474
    12.6182  12.6884

     occupation numbers
     1.0000   1.0000   1.0000   1.0000   1.0000   1.0000   1.0000   1.0000
     1.0000   1.0000   1.0000   1.0000   1.0000   1.0000   1.0000   1.0000
     1.0000   1.0000   1.0000   1.0000   1.0000   1.0000   1.0000   1.0000
     1.0000   1.0000   1.0000   1.0000   1.0000   1.0000   1.0000   1.0000
     1.0000   1.0000   1.0000   1.0000   1.0000   1.0000   1.0000   1.0000
     1.0000   1.0000   1.0000   1.0000   1.0000   1.0000   1.0000   1.0000
     1.0000   1.0000   1.0000   1.0000   1.0000   1.0000   1.0000   1.0000
     1.0000   1.0000   1.0000   1.0000   1.0000   1.0000   1.0000   1.0000
     1.0000   1.0000   1.0000   1.0000   1.0000   1.0000   1.0000   1.0000
     1.0000   1.0000   1.0000   1.0000   1.0000   1.0000   1.0000   1.0000
     1.0000   1.0000   1.0000   0.0000   0.0000   0.0000   0.0000   0.0000
     0.0000   0.0000

[...]

          k = 0.3333 0.3186 0.2296 (  4103 PWs)   bands (ev):

   -46.2160 -46.2151 -46.2149 -46.2139 -34.1034 -34.1034 -22.5475 -22.5458
   -22.5314 -22.5292 -22.5065 -22.5045 -22.4789 -22.4749 -22.4596 -22.4493
   -22.4435 -22.4376 -10.0049  -9.9914  -9.8496  -9.8229  -9.7311  -9.6992
    -6.9692  -6.8213  -6.6991  -6.6532  -6.5900  -6.4639  -6.3519  -6.2920
    -6.1074  -6.0508  -5.9755  -5.9582   5.4451   5.5198   5.7760   5.8189
     5.9408   6.0692   6.1296   6.2240   6.3344   6.5301   6.7160   6.7536
     6.9260   6.9653   7.0660   7.1817   7.3308   7.4011   7.5404   7.7565
     7.7982   7.9489   8.0681   8.1893   8.3147   8.4552   8.5402   8.5945
     8.6473   8.7913   8.8750   8.9527   9.0316   9.0876   9.1632   9.2269
    12.0970  12.1364  12.1959  12.2160  12.2451  12.2544  12.2656  12.2755
    12.3297  12.3411  12.3715  12.3827  12.3950  12.4246  12.7866  13.0013
    13.0996  13.1403

     occupation numbers
     1.0000   1.0000   1.0000   1.0000   1.0000   1.0000   1.0000   1.0000
     1.0000   1.0000   1.0000   1.0000   1.0000   1.0000   1.0000   1.0000
     1.0000   1.0000   1.0000   1.0000   1.0000   1.0000   1.0000   1.0000
     1.0000   1.0000   1.0000   1.0000   1.0000   1.0000   1.0000   1.0000
     1.0000   1.0000   1.0000   1.0000   1.0000   1.0000   1.0000   1.0000
     1.0000   1.0000   1.0000   1.0000   1.0000   1.0000   1.0000   1.0000
     1.0000   1.0000   1.0000   1.0000   1.0000   1.0000   1.0000   1.0000
     1.0000   1.0000   1.0000   1.0000   1.0000   1.0000   1.0000   1.0000
     1.0000   1.0000   1.0000   1.0000   1.0000   1.0000   1.0000   1.0000
     1.0000   1.0000   1.0000   1.0000   1.0000   1.0000   1.0000   1.0000
     1.0000   1.0000   1.0000   0.0000   0.0000   0.0000   0.0000   0.0000
     0.0000   0.0000

     highest occupied, lowest unoccupied level (ev):    12.3786   12.3518

!    total energy              =   -2704.99259075 Ry
     estimated scf accuracy    <       0.00000100 Ry

     The total energy is the sum of the following terms:
     one-electron contribution =    -714.17911369 Ry
     hartree contribution      =     442.90741129 Ry
     xc contribution           =    -225.94869304 Ry
     ewald contribution        =   -1062.46211653 Ry
     one-center paw contrib.   =   -1145.31007877 Ry
      -> PAW hartree energy AE =     595.91296474 Ry
      -> PAW hartree energy PS =    -543.65152259 Ry
      -> PAW xc energy AE      =   -1111.62787490 Ry
      -> PAW xc energy PS      =      59.56277614 Ry
      -> total E_H with PAW    =     495.16885344 Ry
      -> total E_XC with PAW   =   -1278.01379180 Ry

     convergence has been achieved in  69 iterations

     Writing all to output data dir calculations_bands/myprefix.save/

     General routines

     Parallel routines

     PAW routines

   This run was terminated on:   8:21: 9  23Jun2023

   JOB DONE.