     Program PWSCF v.7.0 starts on  7Jun2023 at 10:38: 5

     K-points division:     npool     =       2
     R & G space division:  proc/nbgrp/npool/nimage =       4

     Reading input from espresso_8472.pwi
Warning: card &CELL ignored
Warning: card / ignored

     Current dimensions of program PWSCF are:
     Max number of different atomic species (ntypx) = 10
     Max number of k-points (npk) =  40000
     Max angular momentum in pseudopotentials (lmaxx) =  4
     Message from routine setup:
     using ibrav=0 with symmetry is DISCOURAGED, use correct ibrav instead

     Using Slab Decomposition

     bravais-lattice index     =            0
     lattice parameter (alat)  =       9.5026  a.u.
     unit-cell volume          =     449.3424 (a.u.)^3
     number of atoms/cell      =            4
     number of atomic types    =            2
     number of electrons       =        44.00
     number of Kohn-Sham states=           64
     kinetic-energy cutoff     =      30.0000  Ry
     charge density cutoff     =     240.0000  Ry
     scf convergence threshold =      1.0E-06
     mixing beta               =       0.7000
     number of iterations used =            8  plain     mixing
     Exchange-correlation= PBE
                           (   1   4   3   4   0   0   0)

     celldm(1)=   9.502572  celldm(2)=   0.000000  celldm(3)=   0.000000
     celldm(4)=   0.000000  celldm(5)=   0.000000  celldm(6)=   0.000000

     crystal axes: (cart. coord. in units of alat)
               a(1) = (   1.000000   0.000000   0.000000 )
               a(2) = (   0.366467   0.930431   0.000000 )
               a(3) = (  -0.683233  -0.465216   0.562820 )

     reciprocal axes: (cart. coord. in units 2 pi/alat)
               b(1) = (  1.000000 -0.393868  0.888383 )
               b(2) = (  0.000000  1.074771  0.888383 )
               b(3) = (  0.000000  0.000000  1.776766 )

     PseudoPot. # 1 for Li read from file:
     /home/pragov/projects/rrg-bengioy-ad/pragov/crystal_structure_design/SSSP/li_pbe_v1.4.uspp.F.UPF
     MD5 check sum: e912e257baa3777c20ea3d68f190483c
     Pseudo is Ultrasoft, Zval =  3.0
     Generated by new atomic code, or converted to UPF format
     Using radial grid of  751 points,  5 beta functions with:
                l(1) =   0
                l(2) =   0
                l(3) =   0
                l(4) =   1
                l(5) =   1
     Q(r) pseudized with 10 coefficients,  rinner =    1.150   1.150   1.150

     PseudoPot. # 2 for Ag read from file:
     /home/pragov/projects/rrg-bengioy-ad/pragov/crystal_structure_design/SSSP/Ag_ONCV_PBE-1.0.oncvpsp.upf
     MD5 check sum: 94f47bd0669c641108e45594df92fabc
     Pseudo is Norm-conserving, Zval = 19.0
     Generated using ONCVPSP code by D. R. Hamann
     Using radial grid of 1398 points,  6 beta functions with:
                l(1) =   0
                l(2) =   0
                l(3) =   1
                l(4) =   1
                l(5) =   2
                l(6) =   2

     atomic species   valence    mass     pseudopotential
        Li             3.00     6.94000     Li( 1.00)
        Ag            19.00   107.86820     Ag( 1.00)

      4 Sym. Ops., with inversion, found ( 2 have fractional translation)

                                    s                        frac. trans.

      isym =  1     identity

 cryst.   s( 1) = (     1          0          0      )
                  (     0          1          0      )
                  (     0          0          1      )

 cart.    s( 1) = (  1.0000000  0.0000000 -0.0000000 )
                  (  0.0000000  1.0000000 -0.0000000 )
                  (  0.0000000  0.0000000  1.0000000 )

      isym =  2     180 deg rotation - cart. axis [0,0,1]

 cryst.   s( 2) = (    -1          0          0      )
                  (     0         -1          0      )
                  (     1          1          1      )

 cart.    s( 2) = ( -1.0000000 -0.0000000  0.0000000 )
                  (  0.0000000 -1.0000000  0.0000000 )
                  (  0.0000000  0.0000000  1.0000000 )

      isym =  3     inversion

 cryst.   s( 3) = (    -1          0          0      )    f =(  0.2500000 )
                  (     0         -1          0      )       ( -0.2500000 )
                  (     0          0         -1      )       ( -0.5000000 )

 cart.    s( 3) = ( -1.0000000 -0.0000000  0.0000000 )    f =(  0.5000000 )
                  (  0.0000000 -1.0000000  0.0000000 )       ( -0.0000000 )
                  (  0.0000000  0.0000000 -1.0000000 )       ( -0.2814101 )

      isym =  4     inv. 180 deg rotation - cart. axis [0,0,1]

 cryst.   s( 4) = (     1          0          0      )    f =(  0.2500000 )
                  (     0          1          0      )       ( -0.2500000 )
                  (    -1         -1         -1      )       ( -0.5000000 )

 cart.    s( 4) = (  1.0000000  0.0000000 -0.0000000 )    f =(  0.5000000 )
                  (  0.0000000  1.0000000 -0.0000000 )       ( -0.0000000 )
                  (  0.0000000  0.0000000 -1.0000000 )       ( -0.2814101 )

   Cartesian axes

     site n.     atom                  positions (alat units)
         1           Li  tau(   1) = (   0.1832334   0.4652156   0.2814101  )
         2           Li  tau(   2) = (   0.6832334   0.4652156   0.0000000  )
         3           Ag  tau(   3) = (   0.5000000   0.0000000   0.2814101  )
         4           Ag  tau(   4) = (   0.0000000   0.0000000   0.0000000  )

   Crystallographic axes

     site n.     atom                  positions (cryst. coord.)
         1           Li  tau(   1) = (  0.2500000  0.7500000  0.5000000  )
         2           Li  tau(   2) = (  0.5000000  0.5000000  0.0000000  )
         3           Ag  tau(   3) = (  0.7500000  0.2500000  0.5000000  )
         4           Ag  tau(   4) = (  0.0000000  0.0000000  0.0000000  )

     number of k points=    10
                       cart. coord. in units 2pi/alat
        k(    1) = (   0.0000000   0.0000000   0.0000000), wk =   0.0740741
        k(    2) = (   0.0000000   0.0000000   0.5922554), wk =   0.1481481
        k(    3) = (   0.0000000   0.3582569   0.2961277), wk =   0.2962963
        k(    4) = (   0.0000000   0.3582569   0.8883831), wk =   0.1481481
        k(    5) = (   0.3333333  -0.1312892   0.2961277), wk =   0.2962963
        k(    6) = (   0.3333333  -0.1312892   0.8883831), wk =   0.1481481
        k(    7) = (   0.3333333   0.2269676   0.5922554), wk =   0.2962963
        k(    8) = (   0.3333333   0.2269676  -0.0000000), wk =   0.1481481
        k(    9) = (   0.3333333  -0.4895461   0.0000000), wk =   0.1481481
        k(   10) = (   0.3333333  -0.4895461   0.5922554), wk =   0.2962963

                       cryst. coord.
        k(    1) = (   0.0000000   0.0000000   0.0000000), wk =   0.0740741
        k(    2) = (   0.0000000   0.0000000   0.3333333), wk =   0.1481481
        k(    3) = (   0.0000000   0.3333333  -0.0000000), wk =   0.2962963
        k(    4) = (   0.0000000   0.3333333   0.3333333), wk =   0.1481481
        k(    5) = (   0.3333333   0.0000000   0.0000000), wk =   0.2962963
        k(    6) = (   0.3333333   0.0000000   0.3333333), wk =   0.1481481
        k(    7) = (   0.3333333   0.3333333  -0.0000000), wk =   0.2962963
        k(    8) = (   0.3333333   0.3333333  -0.3333333), wk =   0.1481481
        k(    9) = (   0.3333333  -0.3333333   0.0000000), wk =   0.1481481
        k(   10) = (   0.3333333  -0.3333333   0.3333333), wk =   0.2962963

     Initial potential from superposition of free atoms

     starting charge      43.0979, renormalised to      44.0000
     Starting wfcs are   30 randomized atomic wfcs +   34 random wfcs

     Self-consistent Calculation

     iteration #  1     ecut=    30.00 Ry     beta= 0.70
     Davidson diagonalization with overlap

     ethr =  1.00E-02,  avg # of iterations =  6.3

     total energy              =    -602.73204273 Ry
     estimated scf accuracy    <       0.78058410 Ry

[...]

     total energy              =    -603.14258962 Ry
     estimated scf accuracy    <       0.00012638 Ry

     iteration #  6     ecut=    30.00 Ry     beta= 0.70
     Davidson diagonalization with overlap

     ethr =  2.87E-07,  avg # of iterations =  4.1

     End of self-consistent calculation

          k = 0.0000 0.0000 0.0000 (  1265 PWs)   bands (ev):

   -83.3345 -83.3237 -46.3830 -46.3698 -46.3698 -46.3371 -46.3371 -46.3044
   -36.2208 -36.1980   3.9597   4.7598   5.0450   5.0450   5.1032   5.1888
     5.3431   5.9059   5.9059   6.0631   6.1796  11.3348  14.9474  14.9474
    15.0839  15.0839  15.0979  16.9344  16.9798  19.2279  19.8982  20.9251
    20.9251  25.3019  27.4830  28.1238  28.8219  28.8956  28.8956  30.9632
    30.9632  31.0488  32.2908  32.2908  33.1007  33.1173  35.2500  35.2500
    35.7477  36.9167  37.0828  37.8638  38.2031  38.2031  41.9839  42.4459
    42.4459  42.9208  45.0923  46.8976  48.5361  48.5362  48.9072  49.1271

     occupation numbers
     1.0000   1.0000   1.0000   1.0000   1.0000   1.0000   1.0000   1.0000
     1.0000   1.0000   1.0000   1.0000   1.0000   1.0000   1.0000   1.0000
     1.0000   1.0000   1.0000   1.0000   1.0000   1.0000   0.0000   0.0000
     0.0000   0.0000   0.0000   0.0000   0.0000   0.0000   0.0000   0.0000
     0.0000   0.0000   0.0000   0.0000   0.0000   0.0000   0.0000   0.0000
     0.0000   0.0000   0.0000   0.0000   0.0000   0.0000   0.0000   0.0000
     0.0000   0.0000   0.0000   0.0000   0.0000   0.0000   0.0000   0.0000
     0.0000   0.0000   0.0000   0.0000   0.0000   0.0000   0.0000   0.0000

[...]

          k = 0.3333-0.4895 0.5923 (  1252 PWs)   bands (ev):

   -83.3305 -83.3277 -46.3824 -46.3681 -46.3574 -46.3422 -46.3362 -46.3192
   -36.2124 -36.2057   4.6504   4.7149   4.7255   4.8613   5.4620   5.5303
     5.6010   5.7598   6.2151   6.5787   7.4571   7.8174   9.1583  13.5262
    16.6040  16.7068  18.9965  19.5559  19.6415  20.3859  20.8363  21.2670
    21.5445  22.4796  24.8803  25.2195  25.5220  26.9881  29.3511  29.5391
    30.7584  31.4080  31.8186  32.0098  34.4234  34.6772  35.4757  35.5555
    38.8700  38.8812  39.9929  40.0935  41.3741  41.4279  41.6031  42.1641
    43.0817  43.1003  44.5161  44.6599  44.8184  46.4498  46.6900  46.7999

     occupation numbers
     1.0000   1.0000   1.0000   1.0000   1.0000   1.0000   1.0000   1.0000
     1.0000   1.0000   1.0000   1.0000   1.0000   1.0000   1.0000   1.0000
     1.0000   1.0000   1.0000   1.0000   1.0000   1.0000   0.0000   0.0000
     0.0000   0.0000   0.0000   0.0000   0.0000   0.0000   0.0000   0.0000
     0.0000   0.0000   0.0000   0.0000   0.0000   0.0000   0.0000   0.0000
     0.0000   0.0000   0.0000   0.0000   0.0000   0.0000   0.0000   0.0000
     0.0000   0.0000   0.0000   0.0000   0.0000   0.0000   0.0000   0.0000
     0.0000   0.0000   0.0000   0.0000   0.0000   0.0000   0.0000   0.0000

     highest occupied, lowest unoccupied level (ev):    11.3348    9.1583

!    total energy              =    -603.14261709 Ry
     estimated scf accuracy    <       0.00000087 Ry

     The total energy is the sum of the following terms:
     one-electron contribution =    -362.47396344 Ry
     hartree contribution      =     188.00794373 Ry
     xc contribution           =     -60.84097070 Ry
     ewald contribution        =    -367.83562668 Ry

     convergence has been achieved in   6 iterations

     Writing all to output data dir calculations_bands/myprefix.save/

     General routines

     Parallel routines

   This run was terminated on:  10:38: 9   7Jun2023

   JOB DONE.