     Program PWSCF v.7.0 starts on  5Jun2023 at  1:32:35

     K-points division:     npool     =       2
     R & G space division:  proc/nbgrp/npool/nimage =       4

     Reading input from espresso_10274.pwi
Warning: card &CELL ignored
Warning: card / ignored

     Current dimensions of program PWSCF are:
     Max number of different atomic species (ntypx) = 10
     Max number of k-points (npk) =  40000
     Max angular momentum in pseudopotentials (lmaxx) =  4
     file Fe.pbe-spn-kjpaw_psl.0.2.1.UPF: wavefunction(s)  3D renormalized
     Message from routine setup:
     using ibrav=0 with symmetry is DISCOURAGED, use correct ibrav instead

     Using Slab Decomposition

     bravais-lattice index     =            0
     lattice parameter (alat)  =      11.1033  a.u.
     unit-cell volume          =    1356.6483 (a.u.)^3
     number of atoms/cell      =           12
     number of atomic types    =            3
     number of electrons       =       116.00
     number of Kohn-Sham states=           64
     kinetic-energy cutoff     =      30.0000  Ry
     charge density cutoff     =     240.0000  Ry
     scf convergence threshold =      1.0E-06
     mixing beta               =       0.7000
     number of iterations used =            8  plain     mixing
     Exchange-correlation= SLA  PW   PBE  PBE
                           (   1   4   3   4   0   0   0)

     celldm(1)=  11.103288  celldm(2)=   0.000000  celldm(3)=   0.000000
     celldm(4)=   0.000000  celldm(5)=   0.000000  celldm(6)=   0.000000

     crystal axes: (cart. coord. in units of alat)
               a(1) = (   1.000000   0.000000   0.000000 )
               a(2) = (   0.000000   0.995022   0.000000 )
               a(3) = (   0.000000   0.004255   0.996047 )

     reciprocal axes: (cart. coord. in units 2 pi/alat)
               b(1) = (  1.000000  0.000000  0.000000 )
               b(2) = (  0.000000  1.005003 -0.004293 )
               b(3) = (  0.000000  0.000000  1.003968 )

     PseudoPot. # 1 for Fe read from file:
     /home/pragov/projects/rrg-bengioy-ad/pragov/crystal_structure_design/SSSP/Fe.pbe-spn-kjpaw_psl.0.2.1.UPF
     MD5 check sum: e86618425769142926afa95317d90200
     Pseudo is Projector augmented-wave + core cor, Zval = 16.0
     Generated using "atomic" code by A. Dal Corso  v.5.0.99 svn rev. 10869
     Shape of augmentation charge: PSQ
     Using radial grid of 1191 points,  6 beta functions with:
                l(1) =   0
                l(2) =   0
                l(3) =   1
                l(4) =   1
                l(5) =   2
                l(6) =   2
     Q(r) pseudized with 0 coefficients

     PseudoPot. # 2 for Ni read from file:
     /home/pragov/projects/rrg-bengioy-ad/pragov/crystal_structure_design/SSSP/ni_pbe_v1.4.uspp.F.UPF
     MD5 check sum: 1ee80287db30b12d2bc1f57a5b5d6409
     Pseudo is Ultrasoft + core correction, Zval = 18.0
     Generated by new atomic code, or converted to UPF format
     Using radial grid of  865 points,  6 beta functions with:
                l(1) =   0
                l(2) =   0
                l(3) =   1
                l(4) =   1
                l(5) =   2
                l(6) =   2
     Q(r) pseudized with 10 coefficients,  rinner =    0.980   0.980   0.980
                                                       0.980   0.980

     PseudoPot. # 3 for Se read from file:
     /home/pragov/projects/rrg-bengioy-ad/pragov/crystal_structure_design/SSSP/Se_pbe_v1.uspp.F.UPF
     MD5 check sum: 1b3568f3a8ae88f9a2a0ad0698632c85
     Pseudo is Ultrasoft + core correction, Zval =  6.0
     Generated by new atomic code, or converted to UPF format
     Using radial grid of  877 points,  6 beta functions with:
                l(1) =   0
                l(2) =   0
                l(3) =   1
                l(4) =   1
                l(5) =   2
                l(6) =   2
     Q(r) pseudized with  8 coefficients,  rinner =    1.300   1.300   1.300
                                                       1.300   1.300

     atomic species   valence    mass     pseudopotential
        Fe            16.00    55.84500     Fe( 1.00)
        Ni            18.00    58.69340     Ni( 1.00)
        Se             6.00    78.97100     Se( 1.00)

      4 Sym. Ops., with inversion, found ( 2 have fractional translation)

                                    s                        frac. trans.

      isym =  1     identity

 cryst.   s( 1) = (     1          0          0      )
                  (     0          1          0      )
                  (     0          0          1      )

 cart.    s( 1) = (  1.0000000  0.0000000  0.0000000 )
                  (  0.0000000  1.0000000  0.0000000 )
                  (  0.0000000  0.0000000  1.0000000 )

      isym =  2     180 deg rotation - cart. axis [1,0,0]

 cryst.   s( 2) = (     1          0          0      )    f =(  0.5000000 )
                  (     0         -1          0      )       (  0.5000000 )
                  (     0          0         -1      )       (  0.0000000 )

 cart.    s( 2) = (  1.0000000  0.0000000  0.0000000 )    f =(  0.5000000 )
                  (  0.0000000 -1.0000000 -0.0000000 )       (  0.4975108 )
                  (  0.0000000  0.0000000 -1.0000000 )       (  0.0000000 )

      isym =  3     inversion

 cryst.   s( 3) = (    -1          0          0      )
                  (     0         -1          0      )
                  (     0          0         -1      )

 cart.    s( 3) = ( -1.0000000  0.0000000  0.0000000 )
                  (  0.0000000 -1.0000000 -0.0000000 )
                  (  0.0000000  0.0000000 -1.0000000 )

      isym =  4     inv. 180 deg rotation - cart. axis [1,0,0]

 cryst.   s( 4) = (    -1          0          0      )    f =(  0.5000000 )
                  (     0          1          0      )       ( -0.5000000 )
                  (     0          0          1      )       (  0.0000000 )

 cart.    s( 4) = ( -1.0000000  0.0000000  0.0000000 )    f =(  0.5000000 )
                  (  0.0000000  1.0000000  0.0000000 )       ( -0.4975108 )
                  (  0.0000000  0.0000000  1.0000000 )       (  0.0000000 )

   Cartesian axes

     site n.     atom                  positions (alat units)
         1           Fe  tau(   1) = (   0.5000000   0.0021276   0.4980236  )
         2           Fe  tau(   2) = (   0.0000000   0.4996384   0.4980236  )
         3           Ni  tau(   3) = (   0.5000000   0.4975108   0.0000000  )
         4           Ni  tau(   4) = (   0.0000000   0.0000000   0.0000000  )
         5           Se  tau(   5) = (   0.1202300   0.6147144   0.1299642  )
         6           Se  tau(   6) = (   0.6202300   0.8820732   0.8660830  )
         7           Se  tau(   7) = (   0.8714070   0.1304108   0.3813417  )
         8           Se  tau(   8) = (   0.3714070   0.3713552   0.6147056  )
         9           Se  tau(   9) = (   0.8797700   0.3845624   0.8660830  )
        10           Se  tau(  10) = (   0.3797700   0.1172036   0.1299642  )
        11           Se  tau(  11) = (   0.1285930   0.8688660   0.6147056  )
        12           Se  tau(  12) = (   0.6285930   0.6279216   0.3813417  )

   Crystallographic axes

     site n.     atom                  positions (cryst. coord.)
         1           Fe  tau(   1) = (  0.5000000  0.0000000  0.5000000  )
         2           Fe  tau(   2) = (  0.0000000  0.5000000  0.5000000  )
         3           Ni  tau(   3) = (  0.5000000  0.5000000  0.0000000  )
         4           Ni  tau(   4) = (  0.0000000  0.0000000  0.0000000  )
         5           Se  tau(   5) = (  0.1202300  0.6172320  0.1304800  )
         6           Se  tau(   6) = (  0.6202300  0.8827680  0.8695200  )
         7           Se  tau(   7) = (  0.8714070  0.1294260  0.3828550  )
         8           Se  tau(   8) = (  0.3714070  0.3705740  0.6171450  )
         9           Se  tau(   9) = (  0.8797700  0.3827680  0.8695200  )
        10           Se  tau(  10) = (  0.3797700  0.1172320  0.1304800  )
        11           Se  tau(  11) = (  0.1285930  0.8705740  0.6171450  )
        12           Se  tau(  12) = (  0.6285930  0.6294260  0.3828550  )

     number of k points=    10
                       cart. coord. in units 2pi/alat
        k(    1) = (   0.0000000   0.0000000   0.0000000), wk =   0.0740741
        k(    2) = (   0.0000000   0.0000000   0.3346562), wk =   0.1481481
        k(    3) = (   0.0000000   0.3350011  -0.0014312), wk =   0.1481481
        k(    4) = (   0.0000000   0.3350011   0.3332250), wk =   0.1481481
        k(    5) = (   0.0000000   0.3350011  -0.3360873), wk =   0.1481481
        k(    6) = (   0.3333333   0.0000000   0.0000000), wk =   0.1481481
        k(    7) = (   0.3333333   0.0000000   0.3346562), wk =   0.2962963
        k(    8) = (   0.3333333   0.3350011  -0.0014312), wk =   0.2962963
        k(    9) = (   0.3333333   0.3350011   0.3332250), wk =   0.2962963
        k(   10) = (   0.3333333   0.3350011  -0.3360873), wk =   0.2962963

                       cryst. coord.
        k(    1) = (   0.0000000   0.0000000   0.0000000), wk =   0.0740741
        k(    2) = (   0.0000000   0.0000000   0.3333333), wk =   0.1481481
        k(    3) = (   0.0000000   0.3333333   0.0000000), wk =   0.1481481
        k(    4) = (   0.0000000   0.3333333   0.3333333), wk =   0.1481481
        k(    5) = (   0.0000000   0.3333333  -0.3333333), wk =   0.1481481
        k(    6) = (   0.3333333   0.0000000   0.0000000), wk =   0.1481481
        k(    7) = (   0.3333333   0.0000000   0.3333333), wk =   0.2962963
        k(    8) = (   0.3333333   0.3333333   0.0000000), wk =   0.2962963
        k(    9) = (   0.3333333   0.3333333   0.3333333), wk =   0.2962963
        k(   10) = (   0.3333333   0.3333333  -0.3333333), wk =   0.2962963

     Check: negative core charge=   -0.000053

     Initial potential from superposition of free atoms

     starting charge     111.9986, renormalised to     116.0000
     Starting wfcs are   84 randomized atomic wfcs
     Checking if some PAW data can be deallocated...

     Self-consistent Calculation

     iteration #  1     ecut=    30.00 Ry     beta= 0.70
     Davidson diagonalization with overlap

     ethr =  1.00E-02,  avg # of iterations =  3.9

     negative rho (up, down):  3.019E-03 0.000E+00

     total energy              =   -1645.39709215 Ry
     estimated scf accuracy    <      62.28221891 Ry

[...]

     negative rho (up, down):  7.477E-05 0.000E+00

[...]

     total energy              =   -1693.16408967 Ry
     estimated scf accuracy    <       0.00000468 Ry

     iteration # 20     ecut=    30.00 Ry     beta= 0.70
     Davidson diagonalization with overlap

     ethr =  1.15E-09,  avg # of iterations =  1.5

     End of self-consistent calculation

          k = 0.0000 0.0000 0.0000 (  3775 PWs)   bands (ev):

   -92.5171 -92.5158 -75.8600 -75.8575 -52.9056 -52.9052 -52.8854 -52.8798
   -52.7742 -52.7741 -41.5907 -41.5777 -41.5299 -41.5294 -41.3438 -41.3418
    -5.0980  -3.2008  -3.1142  -3.0279  -1.8453  -1.8140  -1.8026  -0.6783
     4.8204   4.9047   5.0370   5.6278   5.6668   5.7294   6.0070   6.1160
     6.2432   6.5068   6.5284   7.3823   7.4137   7.4900   7.4997   7.6998
     7.7123   9.0250   9.0344   9.0549   9.2003   9.2436   9.2522   9.3466
     9.4278   9.5063   9.6745   9.7783   9.8970   9.9045  10.0746  10.2201
    10.7446  10.8491  11.0078  11.1522  12.6766  12.7722  13.1440  13.2372

     occupation numbers
     1.0000   1.0000   1.0000   1.0000   1.0000   1.0000   1.0000   1.0000
     1.0000   1.0000   1.0000   1.0000   1.0000   1.0000   1.0000   1.0000
     1.0000   1.0000   1.0000   1.0000   1.0000   1.0000   1.0000   1.0000
     1.0000   1.0000   1.0000   1.0000   1.0000   1.0000   1.0000   1.0000
     1.0000   1.0000   1.0000   1.0000   1.0000   1.0000   1.0000   1.0000
     1.0000   1.0000   1.0000   1.0000   1.0000   1.0000   1.0000   1.0000
     1.0000   1.0000   1.0000   1.0000   1.0000   1.0000   1.0000   1.0000
     1.0000   1.0000   0.0000   0.0000   0.0000   0.0000   0.0000   0.0000

[...]

          k = 0.3333 0.3350-0.3361 (  3748 PWs)   bands (ev):

   -92.5150 -92.5146 -75.8560 -75.8553 -52.9019 -52.8995 -52.8788 -52.8782
   -52.7710 -52.7684 -41.5763 -41.5712 -41.5202 -41.5170 -41.3322 -41.3317
    -4.1212  -3.5195  -3.4400  -3.4005  -1.9502  -1.8689  -1.6420  -1.5172
     4.5417   4.8110   4.9432   5.0948   5.8489   5.8967   6.0117   6.9190
     6.9628   7.1847   7.2515   7.4729   7.9262   8.0056   8.0373   8.2353
     8.2744   8.6583   8.8034   8.8612   9.1817   9.2565   9.2873   9.3378
     9.4258   9.5468   9.5787   9.6765   9.8800   9.8907  10.1902  10.2582
    10.9349  11.2403  11.3193  11.5175  12.0478  12.2054  12.5226  12.6579

     occupation numbers
     1.0000   1.0000   1.0000   1.0000   1.0000   1.0000   1.0000   1.0000
     1.0000   1.0000   1.0000   1.0000   1.0000   1.0000   1.0000   1.0000
     1.0000   1.0000   1.0000   1.0000   1.0000   1.0000   1.0000   1.0000
     1.0000   1.0000   1.0000   1.0000   1.0000   1.0000   1.0000   1.0000
     1.0000   1.0000   1.0000   1.0000   1.0000   1.0000   1.0000   1.0000
     1.0000   1.0000   1.0000   1.0000   1.0000   1.0000   1.0000   1.0000
     1.0000   1.0000   1.0000   1.0000   1.0000   1.0000   1.0000   1.0000
     1.0000   1.0000   0.0000   0.0000   0.0000   0.0000   0.0000   0.0000

     highest occupied, lowest unoccupied level (ev):    11.2792   11.0078

!    total energy              =   -1693.16408897 Ry
     estimated scf accuracy    <       0.00000087 Ry

     The total energy is the sum of the following terms:
     one-electron contribution =    -941.06577318 Ry
     hartree contribution      =     529.68476828 Ry
     xc contribution           =    -378.46976687 Ry
     ewald contribution        =    -751.16907493 Ry
     one-center paw contrib.   =    -152.14424228 Ry
      -> PAW hartree energy AE =     428.65853660 Ry
      -> PAW hartree energy PS =    -427.09066219 Ry
      -> PAW xc energy AE      =    -222.69033993 Ry
      -> PAW xc energy PS      =      68.97822325 Ry
      -> total E_H with PAW    =     531.25264268 Ry
      -> total E_XC with PAW   =    -532.18188355 Ry

     convergence has been achieved in  20 iterations

     Writing all to output data dir calculations_bands/myprefix.save/

     General routines

     Parallel routines

     PAW routines

   This run was terminated on:   1:34:55   5Jun2023

   JOB DONE.