     Program PWSCF v.7.0 starts on  6Jun2023 at 14:20:20

     K-points division:     npool     =       2
     R & G space division:  proc/nbgrp/npool/nimage =       4

     Reading input from espresso_16926.pwi
Warning: card &CELL ignored
Warning: card / ignored

     Current dimensions of program PWSCF are:
     Max number of different atomic species (ntypx) = 10
     Max number of k-points (npk) =  40000
     Max angular momentum in pseudopotentials (lmaxx) =  4
     Message from routine setup:
     using ibrav=0 with symmetry is DISCOURAGED, use correct ibrav instead

     Using Slab Decomposition

     bravais-lattice index     =            0
     lattice parameter (alat)  =       9.2669  a.u.
     unit-cell volume          =     580.4846 (a.u.)^3
     number of atoms/cell      =            4
     number of atomic types    =            3
     number of electrons       =        82.00
     number of Kohn-Sham states=           64
     kinetic-energy cutoff     =      30.0000  Ry
     charge density cutoff     =     240.0000  Ry
     scf convergence threshold =      1.0E-06
     mixing beta               =       0.7000
     number of iterations used =            8  plain     mixing
     Exchange-correlation= SLA  PW   PBE  PBE
                           (   1   4   3   4   0   0   0)

     celldm(1)=   9.266929  celldm(2)=   0.000000  celldm(3)=   0.000000
     celldm(4)=   0.000000  celldm(5)=   0.000000  celldm(6)=   0.000000

     crystal axes: (cart. coord. in units of alat)
               a(1) = (   1.000000   0.000000   0.000000 )
               a(2) = (  -0.014196   0.999899   0.000000 )
               a(3) = (   0.485774   0.492719   0.729503 )

     reciprocal axes: (cart. coord. in units 2 pi/alat)
               b(1) = (  1.000000  0.014197 -0.675486 )
               b(2) = (  0.000000  1.000101 -0.675486 )
               b(3) = (  0.000000  0.000000  1.370796 )

     PseudoPot. # 1 for Yb read from file:
     /home/pragov/projects/rrg-bengioy-ad/pragov/crystal_structure_design/SSSP/Yb.GGA-PBE-paw-v1.0.UPF
     MD5 check sum: 43b6465ad8021f06e3edb42ae292e187
     Pseudo is Projector augmented-wave + core cor, Zval = 24.0
     Generated using ATOMPAW code
     Shape of augmentation charge: BESSEL
     Using radial grid of 1117 points,  8 beta functions with:
                l(1) =   0
                l(2) =   0
                l(3) =   1
                l(4) =   1
                l(5) =   2
                l(6) =   2
                l(7) =   3
                l(8) =   3
     Q(r) pseudized with 0 coefficients

     PseudoPot. # 2 for Gd read from file:
     /home/pragov/projects/rrg-bengioy-ad/pragov/crystal_structure_design/SSSP/Gd.GGA-PBE-paw-v1.0.UPF
     MD5 check sum: 3e8e0d208da550914ae52eaf991d13de
     Pseudo is Projector augmented-wave + core cor, Zval = 18.0
     Generated using ATOMPAW code
     Shape of augmentation charge: BESSEL
     Using radial grid of 1110 points,  8 beta functions with:
                l(1) =   0
                l(2) =   0
                l(3) =   1
                l(4) =   1
                l(5) =   2
                l(6) =   2
                l(7) =   3
                l(8) =   3
     Q(r) pseudized with 0 coefficients

     PseudoPot. # 3 for Zn read from file:
     /home/pragov/projects/rrg-bengioy-ad/pragov/crystal_structure_design/SSSP/Zn_pbe_v1.uspp.F.UPF
     MD5 check sum: df62231357ef9e81f77b2b3087fa5675
     Pseudo is Ultrasoft, Zval = 20.0
     Generated by new atomic code, or converted to UPF format
     Using radial grid of  943 points,  6 beta functions with:
                l(1) =   0
                l(2) =   0
                l(3) =   1
                l(4) =   1
                l(5) =   2
                l(6) =   2
     Q(r) pseudized with  8 coefficients,  rinner =    1.100   1.100   1.100
                                                       1.100   1.100

     atomic species   valence    mass     pseudopotential
        Yb            24.00   173.05400     Yb( 1.00)
        Gd            18.00   157.25000     Gd( 1.00)
        Zn            20.00    65.38000     Zn( 1.00)

      2 Sym. Ops., with inversion, found

                                    s                        frac. trans.

      isym =  1     identity

 cryst.   s( 1) = (     1          0          0      )
                  (     0          1          0      )
                  (     0          0          1      )

 cart.    s( 1) = (  1.0000000 -0.0000000  0.0000000 )
                  (  0.0000000  1.0000000  0.0000000 )
                  (  0.0000000  0.0000000  1.0000000 )

      isym =  2     inversion

 cryst.   s( 2) = (    -1          0          0      )
                  (     0         -1          0      )
                  (     0          0         -1      )

 cart.    s( 2) = ( -1.0000000  0.0000000 -0.0000000 )
                  (  0.0000000 -1.0000000 -0.0000000 )
                  (  0.0000000  0.0000000 -1.0000000 )

   Cartesian axes

     site n.     atom                  positions (alat units)
         1           Yb  tau(   1) = (   0.7357892   0.7463093   0.3647515  )
         2           Gd  tau(   2) = (   0.2428870   0.2463597   0.3647515  )
         3           Zn  tau(   3) = (   0.7464014   0.2500238   0.0000000  )
         4           Zn  tau(   4) = (   0.2394030   0.7498754   0.0000000  )

   Crystallographic axes

     site n.     atom                  positions (cryst. coord.)
         1           Yb  tau(   1) = (  0.5000000  0.5000000  0.5000000  )
         2           Gd  tau(   2) = ( -0.0000000  0.0000000  0.5000000  )
         3           Zn  tau(   3) = (  0.7499510  0.2500490  0.0000000  )
         4           Zn  tau(   4) = (  0.2500490  0.7499510  0.0000000  )

     number of k points=    14
                       cart. coord. in units 2pi/alat
        k(    1) = (   0.0000000   0.0000000   0.0000000), wk =   0.0740741
        k(    2) = (   0.0000000   0.0000000   0.4569322), wk =   0.1481481
        k(    3) = (   0.0000000   0.3333669  -0.2251620), wk =   0.1481481
        k(    4) = (   0.0000000   0.3333669   0.2317701), wk =   0.1481481
        k(    5) = (   0.0000000   0.3333669  -0.6820942), wk =   0.1481481
        k(    6) = (   0.3333333   0.0047323  -0.2251620), wk =   0.1481481
        k(    7) = (   0.3333333   0.0047323   0.2317701), wk =   0.1481481
        k(    8) = (   0.3333333   0.0047323  -0.6820942), wk =   0.1481481
        k(    9) = (   0.3333333   0.3380993  -0.4503241), wk =   0.1481481
        k(   10) = (   0.3333333   0.3380993   0.0066081), wk =   0.1481481
        k(   11) = (   0.3333333   0.3380993  -0.9072562), wk =   0.1481481
        k(   12) = (   0.3333333  -0.3286346   0.0000000), wk =   0.1481481
        k(   13) = (   0.3333333  -0.3286346   0.4569322), wk =   0.1481481
        k(   14) = (   0.3333333  -0.3286346  -0.4569322), wk =   0.1481481

                       cryst. coord.
        k(    1) = (   0.0000000   0.0000000   0.0000000), wk =   0.0740741
        k(    2) = (   0.0000000   0.0000000   0.3333333), wk =   0.1481481
        k(    3) = (   0.0000000   0.3333333   0.0000000), wk =   0.1481481
        k(    4) = (   0.0000000   0.3333333   0.3333333), wk =   0.1481481
        k(    5) = (   0.0000000   0.3333333  -0.3333333), wk =   0.1481481
        k(    6) = (   0.3333333  -0.0000000   0.0000000), wk =   0.1481481
        k(    7) = (   0.3333333  -0.0000000   0.3333333), wk =   0.1481481
        k(    8) = (   0.3333333  -0.0000000  -0.3333333), wk =   0.1481481
        k(    9) = (   0.3333333   0.3333333   0.0000000), wk =   0.1481481
        k(   10) = (   0.3333333   0.3333333   0.3333333), wk =   0.1481481
        k(   11) = (   0.3333333   0.3333333  -0.3333333), wk =   0.1481481
        k(   12) = (   0.3333333  -0.3333333   0.0000000), wk =   0.1481481
        k(   13) = (   0.3333333  -0.3333333   0.3333333), wk =   0.1481481
        k(   14) = (   0.3333333  -0.3333333  -0.3333333), wk =   0.1481481

     Initial potential from superposition of free atoms

     starting charge      81.9905, renormalised to      82.0000
     Starting wfcs are   90 randomized atomic wfcs
     Checking if some PAW data can be deallocated...

     Self-consistent Calculation

     iteration #  1     ecut=    30.00 Ry     beta= 0.70
     Davidson diagonalization with overlap

     ethr =  1.00E-02,  avg # of iterations =  6.4

     total energy              =   -2602.50670891 Ry
     estimated scf accuracy    <      12.80878953 Ry

[...]

     total energy              =   -2617.64123788 Ry
     estimated scf accuracy    <       0.00002254 Ry

     iteration #100     ecut=    30.00 Ry     beta= 0.70
     Davidson diagonalization with overlap

     ethr =  2.40E-09,  avg # of iterations =  2.0

     End of self-consistent calculation

          k = 0.0000 0.0000 0.0000 (  1589 PWs)   bands (ev):

  -112.1342-112.1336 -66.2177 -66.2147 -66.2076 -66.2053 -66.1977 -66.1896
   -37.5734 -28.0275  -9.8794  -9.8632  -9.8385  -6.1077  -6.0960  -6.0814
     6.8664   6.8893   6.9016   7.0427   7.0463   7.0470   7.1143   7.1356
     7.1530   7.2482   7.2861  12.3788  12.4414  12.4821  12.9604  13.7874
    13.7887  13.7983  13.8134  13.8263  13.8272  13.9656  14.0820  14.0836
    14.0945  14.4303  14.4622  14.4714  14.7360  14.7623  15.0692  19.1089
    19.5546  19.8174  20.0243  20.1358  20.3261  20.4769  20.6636  20.8068
    21.9737  22.3275  23.2165  25.3169  25.9097  26.0718  26.3400  27.2291

     occupation numbers
     1.0000   1.0000   1.0000   1.0000   1.0000   1.0000   1.0000   1.0000
     1.0000   1.0000   1.0000   1.0000   1.0000   1.0000   1.0000   1.0000
     1.0000   1.0000   1.0000   1.0000   1.0000   1.0000   1.0000   1.0000
     1.0000   1.0000   1.0000   1.0000   1.0000   1.0000   1.0000   1.0000
     1.0000   1.0000   1.0000   1.0000   1.0000   1.0000   1.0000   1.0000
     1.0000   0.0000   0.0000   0.0000   0.0000   0.0000   0.0000   0.0000
     0.0000   0.0000   0.0000   0.0000   0.0000   0.0000   0.0000   0.0000
     0.0000   0.0000   0.0000   0.0000   0.0000   0.0000   0.0000   0.0000

[...]

          k = 0.3333-0.3286-0.4569 (  1616 PWs)   bands (ev):

  -112.1376-112.1364 -66.2231 -66.2185 -66.2162 -66.2142 -66.2120 -66.2093
   -37.5731 -28.0263  -9.8996  -9.8709  -9.8455  -6.1330  -6.1278  -6.1001
     6.9513   6.9650   6.9971   7.0213   7.0648   7.0657   7.0808   7.0828
     7.1575   7.1609   9.6659  10.3801  11.7485  12.9593  13.7116  13.7409
    13.7877  13.7991  13.8126  13.8144  13.8482  14.0867  14.1022  14.1338
    14.1463  14.2915  14.3547  14.4859  14.7333  15.0459  16.1849  16.2362
    17.1674  17.7883  18.5654  18.7395  20.8919  21.4509  21.8354  22.2125
    23.7579  24.1082  24.1316  24.3861  25.9964  26.4563  26.6247  27.5250

     occupation numbers
     1.0000   1.0000   1.0000   1.0000   1.0000   1.0000   1.0000   1.0000
     1.0000   1.0000   1.0000   1.0000   1.0000   1.0000   1.0000   1.0000
     1.0000   1.0000   1.0000   1.0000   1.0000   1.0000   1.0000   1.0000
     1.0000   1.0000   1.0000   1.0000   1.0000   1.0000   1.0000   1.0000
     1.0000   1.0000   1.0000   1.0000   1.0000   1.0000   1.0000   1.0000
     1.0000   0.0000   0.0000   0.0000   0.0000   0.0000   0.0000   0.0000
     0.0000   0.0000   0.0000   0.0000   0.0000   0.0000   0.0000   0.0000
     0.0000   0.0000   0.0000   0.0000   0.0000   0.0000   0.0000   0.0000

     highest occupied, lowest unoccupied level (ev):    14.1579   14.1635

!    total energy              =   -2617.64125151 Ry
     estimated scf accuracy    <       0.00000071 Ry

     The total energy is the sum of the following terms:
     one-electron contribution =   -1203.76978806 Ry
     hartree contribution      =     610.63051809 Ry
     xc contribution           =    -145.13374651 Ry
     ewald contribution        =    -928.99304786 Ry
     one-center paw contrib.   =    -950.37518717 Ry
      -> PAW hartree energy AE =     450.59956175 Ry
      -> PAW hartree energy PS =    -387.50350137 Ry
      -> PAW xc energy AE      =    -584.81206156 Ry
      -> PAW xc energy PS      =      37.21468562 Ry
      -> total E_H with PAW    =     673.72657847 Ry
      -> total E_XC with PAW   =    -692.73112245 Ry

     convergence has been achieved in 100 iterations

     Writing all to output data dir calculations_bands/myprefix.save/

     General routines

     Parallel routines

     PAW routines

   This run was terminated on:  14:22: 8   6Jun2023

   JOB DONE.