     Program PWSCF v.7.0 starts on  6Jun2023 at  0:14:29

     K-points division:     npool     =       2
     R & G space division:  proc/nbgrp/npool/nimage =       4

     Reading input from espresso_12493.pwi
Warning: card &CELL ignored
Warning: card / ignored

     Current dimensions of program PWSCF are:
     Max number of different atomic species (ntypx) = 10
     Max number of k-points (npk) =  40000
     Max angular momentum in pseudopotentials (lmaxx) =  4
     file Al.pbe-n-kjpaw_psl.1.0.0.UPF: wavefunction(s)  3S 3P renormalized
     Message from routine setup:
     using ibrav=0 with symmetry is DISCOURAGED, use correct ibrav instead

     Using Slab Decomposition

     bravais-lattice index     =            0
     lattice parameter (alat)  =      10.8822  a.u.
     unit-cell volume          =    2164.3028 (a.u.)^3
     number of atoms/cell      =           12
     number of atomic types    =            3
     number of electrons       =        64.00
     number of Kohn-Sham states=           64
     kinetic-energy cutoff     =      30.0000  Ry
     charge density cutoff     =     240.0000  Ry
     scf convergence threshold =      1.0E-06
     mixing beta               =       0.7000
     number of iterations used =            8  plain     mixing
     Exchange-correlation=  SLA  PW   PBX  PBC
                           (   1   4   3   4   0   0   0)

     celldm(1)=  10.882215  celldm(2)=   0.000000  celldm(3)=   0.000000
     celldm(4)=   0.000000  celldm(5)=   0.000000  celldm(6)=   0.000000

     crystal axes: (cart. coord. in units of alat)
               a(1) = (   1.000000   0.000000   0.000000 )
               a(2) = (   0.000000   1.000000   0.000000 )
               a(3) = (   0.000000   0.000000   1.679446 )

     reciprocal axes: (cart. coord. in units 2 pi/alat)
               b(1) = (  1.000000  0.000000  0.000000 )
               b(2) = (  0.000000  1.000000  0.000000 )
               b(3) = (  0.000000  0.000000  0.595434 )

     PseudoPot. # 1 for Al read from file:
     /home/pragov/projects/rrg-bengioy-ad/pragov/crystal_structure_design/SSSP/Al.pbe-n-kjpaw_psl.1.0.0.UPF
     MD5 check sum: cfc449ca30b5f3223ec38ddd88ac046d
     Pseudo is Projector augmented-wave + core cor, Zval =  3.0
     Generated using "atomic" code by A. Dal Corso  v.5.1
     Shape of augmentation charge: PSQ
     Using radial grid of 1135 points,  6 beta functions with:
                l(1) =   0
                l(2) =   0
                l(3) =   1
                l(4) =   1
                l(5) =   2
                l(6) =   2
     Q(r) pseudized with 0 coefficients

     PseudoPot. # 2 for P  read from file:
     /home/pragov/projects/rrg-bengioy-ad/pragov/crystal_structure_design/SSSP/P.pbe-n-rrkjus_psl.1.0.0.UPF
     MD5 check sum: 8b930f418f0a4573dca56cd030ffe088
     Pseudo is Ultrasoft + core correction, Zval =  5.0
     Generated using "atomic" code by A. Dal Corso  v.5.1
     Using radial grid of 1147 points,  6 beta functions with:
                l(1) =   0
                l(2) =   0
                l(3) =   1
                l(4) =   1
                l(5) =   2
                l(6) =   2
     Q(r) pseudized with 0 coefficients

     PseudoPot. # 3 for S  read from file:
     /home/pragov/projects/rrg-bengioy-ad/pragov/crystal_structure_design/SSSP/s_pbe_v1.4.uspp.F.UPF
     MD5 check sum: 88d86576ff6df21479756cfb9bdac1df
     Pseudo is Ultrasoft + core correction, Zval =  6.0
     Generated by new atomic code, or converted to UPF format
     Using radial grid of  907 points,  6 beta functions with:
                l(1) =   0
                l(2) =   0
                l(3) =   1
                l(4) =   1
                l(5) =   2
                l(6) =   2
     Q(r) pseudized with  8 coefficients,  rinner =    1.300   1.300   1.300
                                                       1.300   1.300

     atomic species   valence    mass     pseudopotential
        Al             3.00    26.98154     Al( 1.00)
        P              5.00    30.97376     P ( 1.00)
        S              6.00    32.06000     S ( 1.00)

      8 Sym. Ops. (no inversion) found ( 4 have fractional translation)

                                    s                        frac. trans.

      isym =  1     identity

 cryst.   s( 1) = (     1          0          0      )
                  (     0          1          0      )
                  (     0          0          1      )

 cart.    s( 1) = (  1.0000000  0.0000000  0.0000000 )
                  (  0.0000000  1.0000000  0.0000000 )
                  (  0.0000000  0.0000000  1.0000000 )

      isym =  2     180 deg rotation - cart. axis [0,0,1]

[...]

 cryst.   s( 3) = (    -1          0          0      )    f =(  0.0000000 )
                  (     0          1          0      )       (  0.0000000 )
                  (     0          0         -1      )       (  0.5000000 )

 cart.    s( 3) = ( -1.0000000  0.0000000  0.0000000 )    f =(  0.0000000 )
                  (  0.0000000  1.0000000  0.0000000 )       (  0.0000000 )
                  (  0.0000000  0.0000000 -1.0000000 )       (  0.8397232 )

      isym =  4     180 deg rotation - cart. axis [1,0,0]

[...]

      isym =  5     inv. 180 deg rotation - cart. axis [1,1,0]

[...]

 cryst.   s( 6) = (     0          1          0      )    f =(  0.0000000 )
                  (     1          0          0      )       (  0.0000000 )
                  (     0          0          1      )       (  0.5000000 )

 cart.    s( 6) = (  0.0000000  1.0000000  0.0000000 )    f =(  0.0000000 )
                  (  1.0000000  0.0000000  0.0000000 )       (  0.0000000 )
                  (  0.0000000  0.0000000  1.0000000 )       (  0.8397232 )

[...]

      isym =  8     inv.  90 deg rotation - cart. axis [0,0,1]

 cryst.   s( 8) = (     0         -1          0      )
                  (     1          0          0      )
                  (     0          0         -1      )

 cart.    s( 8) = (  0.0000000  1.0000000  0.0000000 )
                  ( -1.0000000  0.0000000  0.0000000 )
                  (  0.0000000  0.0000000 -1.0000000 )

   Cartesian axes

     site n.     atom                  positions (alat units)
         1           Al  tau(   1) = (   0.5000000   0.5000000   1.2595848  )
         2           Al  tau(   2) = (   0.5000000   0.5000000   0.4198616  )
         3           P   tau(   3) = (   0.0000000   0.5000000   1.2595848  )
         4           P   tau(   4) = (   0.5000000   0.0000000   0.4198616  )
         5           S   tau(   5) = (   0.2235120   0.3032430   1.0573459  )
         6           S   tau(   6) = (   0.7764880   0.6967570   1.0573459  )
         7           S   tau(   7) = (   0.2235120   0.6967570   1.4618238  )
         8           S   tau(   8) = (   0.7764880   0.3032430   1.4618238  )
         9           S   tau(   9) = (   0.3032430   0.7764880   0.6221006  )
        10           S   tau(  10) = (   0.6967570   0.2235120   0.6221006  )
        11           S   tau(  11) = (   0.6967570   0.7764880   0.2176227  )
        12           S   tau(  12) = (   0.3032430   0.2235120   0.2176227  )

   Crystallographic axes

     site n.     atom                  positions (cryst. coord.)
         1           Al  tau(   1) = (  0.5000000  0.5000000  0.7500000  )
         2           Al  tau(   2) = (  0.5000000  0.5000000  0.2500000  )
         3           P   tau(   3) = (  0.0000000  0.5000000  0.7500000  )
         4           P   tau(   4) = (  0.5000000  0.0000000  0.2500000  )
         5           S   tau(   5) = (  0.2235120  0.3032430  0.6295800  )
         6           S   tau(   6) = (  0.7764880  0.6967570  0.6295800  )
         7           S   tau(   7) = (  0.2235120  0.6967570  0.8704200  )
         8           S   tau(   8) = (  0.7764880  0.3032430  0.8704200  )
         9           S   tau(   9) = (  0.3032430  0.7764880  0.3704200  )
        10           S   tau(  10) = (  0.6967570  0.2235120  0.3704200  )
        11           S   tau(  11) = (  0.6967570  0.7764880  0.1295800  )
        12           S   tau(  12) = (  0.3032430  0.2235120  0.1295800  )

     number of k points=     6
                       cart. coord. in units 2pi/alat
        k(    1) = (   0.0000000   0.0000000   0.0000000), wk =   0.0740741
        k(    2) = (   0.0000000   0.0000000   0.1984781), wk =   0.1481481
        k(    3) = (   0.0000000   0.3333333   0.0000000), wk =   0.2962963
        k(    4) = (   0.0000000   0.3333333   0.1984781), wk =   0.5925926
        k(    5) = (   0.3333333   0.3333333   0.0000000), wk =   0.2962963
        k(    6) = (   0.3333333   0.3333333   0.1984781), wk =   0.5925926

                       cryst. coord.
        k(    1) = (   0.0000000   0.0000000   0.0000000), wk =   0.0740741
        k(    2) = (   0.0000000   0.0000000   0.3333333), wk =   0.1481481
        k(    3) = (   0.0000000   0.3333333   0.0000000), wk =   0.2962963
        k(    4) = (   0.0000000   0.3333333   0.3333333), wk =   0.5925926
        k(    5) = (   0.3333333   0.3333333   0.0000000), wk =   0.2962963
        k(    6) = (   0.3333333   0.3333333   0.3333333), wk =   0.5925926

     Initial potential from superposition of free atoms

     starting charge      63.9948, renormalised to      64.0000
     Starting wfcs are   48 randomized atomic wfcs +   16 random wfcs
     Checking if some PAW data can be deallocated...

     Self-consistent Calculation

     iteration #  1     ecut=    30.00 Ry     beta= 0.70
     Davidson diagonalization with overlap

     ethr =  1.00E-02,  avg # of iterations =  6.8

     Threshold (ethr) on eigenvalues was too large:
     Diagonalizing with lowered threshold

     Davidson diagonalization with overlap

[...]

     total energy              =    -300.29787781 Ry
     estimated scf accuracy    <       0.46044021 Ry

[...]

     total energy              =    -300.39948905 Ry
     estimated scf accuracy    <       0.00000800 Ry

     iteration #  7     ecut=    30.00 Ry     beta= 0.70
     Davidson diagonalization with overlap

     ethr =  1.25E-08,  avg # of iterations =  3.5

     End of self-consistent calculation

          k = 0.0000 0.0000 0.0000 (  6027 PWs)   bands (ev):

   -13.1160 -13.0202 -10.3433 -10.3433 -10.0481  -9.7952  -9.7952  -9.7426
    -6.2276  -5.8885  -2.6533  -2.6421  -2.6421  -2.3659  -2.3284  -2.2156
    -2.1540  -2.1540  -0.0520   0.1696   0.2039   0.3172   0.3172   0.4071
     0.4071   0.4437   0.6889   1.0901   1.0901   1.4508   1.8984   1.8984
     4.9371   5.3463   5.6673   6.2049   6.2049   6.2835   6.9864   6.9949
     7.1903   7.1903   8.1908   8.4530   8.5783   8.6259   8.6259   8.8480
     8.8480   8.8718   9.0273  10.1877  10.2629  10.7250  10.7250  10.7637
    11.0683  11.1065  11.7099  12.6396  12.8424  12.8425  12.9998  13.3446

     occupation numbers
     1.0000   1.0000   1.0000   1.0000   1.0000   1.0000   1.0000   1.0000
     1.0000   1.0000   1.0000   1.0000   1.0000   1.0000   1.0000   1.0000
     1.0000   1.0000   1.0000   1.0000   1.0000   1.0000   1.0000   1.0000
     1.0000   1.0000   1.0000   1.0000   1.0000   1.0000   1.0000   1.0000
     0.0000   0.0000   0.0000   0.0000   0.0000   0.0000   0.0000   0.0000
     0.0000   0.0000   0.0000   0.0000   0.0000   0.0000   0.0000   0.0000
     0.0000   0.0000   0.0000   0.0000   0.0000   0.0000   0.0000   0.0000
     0.0000   0.0000   0.0000   0.0000   0.0000   0.0000   0.0000   0.0000

[...]

          k = 0.3333 0.3333 0.1985 (  6003 PWs)   bands (ev):

   -12.9570 -12.9432 -10.6663 -10.6208  -9.9131  -9.8769  -9.8403  -9.8127
    -5.6144  -5.5564  -2.8910  -2.7369  -2.7035  -2.6142  -2.5463  -2.3605
    -2.0184  -1.9768  -0.5024  -0.3875   0.2151   0.3516   0.5033   0.5420
     0.8874   0.9113   1.0762   1.1057   1.3202   1.3853   1.7227   1.9280
     5.0463   5.0911   5.8439   5.9228   6.1957   6.2826   6.4659   6.5237
     7.7190   7.7201   8.3070   8.3204   8.5014   8.5136   9.0128   9.0545
     9.4889   9.8477   9.9095  10.0046  10.3223  10.3862  10.6697  10.8204
    11.0957  11.1827  11.4031  11.4032  11.8249  11.8913  12.2318  12.3102

     occupation numbers
     1.0000   1.0000   1.0000   1.0000   1.0000   1.0000   1.0000   1.0000
     1.0000   1.0000   1.0000   1.0000   1.0000   1.0000   1.0000   1.0000
     1.0000   1.0000   1.0000   1.0000   1.0000   1.0000   1.0000   1.0000
     1.0000   1.0000   1.0000   1.0000   1.0000   1.0000   1.0000   1.0000
     0.0000   0.0000   0.0000   0.0000   0.0000   0.0000   0.0000   0.0000
     0.0000   0.0000   0.0000   0.0000   0.0000   0.0000   0.0000   0.0000
     0.0000   0.0000   0.0000   0.0000   0.0000   0.0000   0.0000   0.0000
     0.0000   0.0000   0.0000   0.0000   0.0000   0.0000   0.0000   0.0000

     highest occupied, lowest unoccupied level (ev):     2.0549    4.9371

!    total energy              =    -300.39949172 Ry
     estimated scf accuracy    <       0.00000019 Ry

     The total energy is the sum of the following terms:
     one-electron contribution =     -49.38420346 Ry
     hartree contribution      =      48.43236504 Ry
     xc contribution           =     -81.55427948 Ry
     ewald contribution        =    -148.55106578 Ry
     one-center paw contrib.   =     -69.34230805 Ry
      -> PAW hartree energy AE =       3.15051229 Ry
      -> PAW hartree energy PS =      -3.14204199 Ry
      -> PAW xc energy AE      =     -73.33224360 Ry
      -> PAW xc energy PS      =       3.98146526 Ry
      -> total E_H with PAW    =      48.44083533 Ry
      -> total E_XC with PAW   =    -150.90505782 Ry

     convergence has been achieved in   7 iterations

     Writing all to output data dir calculations_bands/myprefix.save/

     General routines

     Parallel routines

     PAW routines

   This run was terminated on:   0:14:40   6Jun2023

   JOB DONE.