     Program PWSCF v.7.0 starts on  5Jun2023 at 18:45:16

     K-points division:     npool     =       2
     R & G space division:  proc/nbgrp/npool/nimage =       4

     Reading input from espresso_11117.pwi
Warning: card &CELL ignored
Warning: card / ignored

     Current dimensions of program PWSCF are:
     Max number of different atomic species (ntypx) = 10
     Max number of k-points (npk) =  40000
     Max angular momentum in pseudopotentials (lmaxx) =  4
     Message from routine setup:
     using ibrav=0 with symmetry is DISCOURAGED, use correct ibrav instead

     Using Slab Decomposition

     bravais-lattice index     =            0
     lattice parameter (alat)  =      11.1584  a.u.
     unit-cell volume          =     553.8307 (a.u.)^3
     number of atoms/cell      =            5
     number of atomic types    =            3
     number of electrons       =        72.00
     number of Kohn-Sham states=           64
     kinetic-energy cutoff     =      30.0000  Ry
     charge density cutoff     =     240.0000  Ry
     scf convergence threshold =      1.0E-06
     mixing beta               =       0.7000
     number of iterations used =            8  plain     mixing
     Exchange-correlation=  SLA  PW   PBX  PBC
                           (   1   4   3   4   0   0   0)

     celldm(1)=  11.158351  celldm(2)=   0.000000  celldm(3)=   0.000000
     celldm(4)=   0.000000  celldm(5)=   0.000000  celldm(6)=   0.000000

     crystal axes: (cart. coord. in units of alat)
               a(1) = (   1.000000   0.000000   0.000000 )
               a(2) = (   0.546696   0.837331   0.000000 )
               a(3) = (  -0.773348  -0.418666   0.476080 )

     reciprocal axes: (cart. coord. in units 2 pi/alat)
               b(1) = (  1.000000 -0.652903  1.050244 )
               b(2) = (  0.000000  1.194271  1.050244 )
               b(3) = (  0.000000  0.000000  2.100488 )

     PseudoPot. # 1 for Ca read from file:
     /home/pragov/projects/rrg-bengioy-ad/pragov/crystal_structure_design/SSSP/Ca_pbe_v1.uspp.F.UPF
     MD5 check sum: 403a4c14b9e4d4dfdc3024c9a3812218
     Pseudo is Ultrasoft + core correction, Zval = 10.0
     Generated by new atomic code, or converted to UPF format
     Using radial grid of  845 points,  6 beta functions with:
                l(1) =   0
                l(2) =   0
                l(3) =   1
                l(4) =   1
                l(5) =   2
                l(6) =   2
     Q(r) pseudized with  8 coefficients,  rinner =    1.500   1.500   1.500
                                                       1.500   1.500

     PseudoPot. # 2 for Co read from file:
     /home/pragov/projects/rrg-bengioy-ad/pragov/crystal_structure_design/SSSP/Co_pbe_v1.2.uspp.F.UPF
     MD5 check sum: 5f91765df6ddd3222702df6e7b74a16d
     Pseudo is Ultrasoft + core correction, Zval = 17.0
     Generated by new atomic code, or converted to UPF format
     Using radial grid of  863 points,  6 beta functions with:
                l(1) =   0
                l(2) =   0
                l(3) =   1
                l(4) =   1
                l(5) =   2
                l(6) =   2
     Q(r) pseudized with  8 coefficients,  rinner =    1.200   1.200   1.200
                                                       1.200   1.200

     PseudoPot. # 3 for Ge read from file:
     /home/pragov/projects/rrg-bengioy-ad/pragov/crystal_structure_design/SSSP/ge_pbe_v1.4.uspp.F.UPF
     MD5 check sum: 9c9eaa91e581c3f09632fb3098b2c6b2
     Pseudo is Ultrasoft + core correction, Zval = 14.0
     Generated by new atomic code, or converted to UPF format
     Using radial grid of  873 points,  6 beta functions with:
                l(1) =   0
                l(2) =   0
                l(3) =   1
                l(4) =   1
                l(5) =   2
                l(6) =   2
     Q(r) pseudized with  8 coefficients,  rinner =    1.400   1.400   1.400
                                                       1.400   1.400

     atomic species   valence    mass     pseudopotential
        Ca            10.00    40.07800     Ca( 1.00)
        Co            17.00    58.93319     Co( 1.00)
        Ge            14.00    72.63000     Ge( 1.00)

      4 Sym. Ops., with inversion, found

                                    s                        frac. trans.

      isym =  1     identity

 cryst.   s( 1) = (     1          0          0      )
                  (     0          1          0      )
                  (     0          0          1      )

 cart.    s( 1) = (  1.0000000 -0.0000000  0.0000000 )
                  (  0.0000000  1.0000000 -0.0000000 )
                  (  0.0000000  0.0000000  1.0000000 )

      isym =  2     180 deg rotation - cart. axis [0,0,1]

[...]

      isym =  3     inversion

[...]

      isym =  4     inv. 180 deg rotation - cart. axis [0,0,1]

 cryst.   s( 4) = (     1          0          0      )
                  (     0          1          0      )
                  (    -1         -1         -1      )

 cart.    s( 4) = (  1.0000000 -0.0000000 -0.0000000 )
                  (  0.0000000  1.0000000 -0.0000000 )
                  (  0.0000000  0.0000000 -1.0000000 )

   Cartesian axes

     site n.     atom                  positions (alat units)
         1           Ca  tau(   1) = (   0.0000000   0.0000000   0.0000000  )
         2           Co  tau(   2) = (   0.2733480   0.4186656   0.2380399  )
         3           Co  tau(   3) = (   0.5000000   0.0000000   0.2380399  )
         4           Ge  tau(   4) = (   0.5699915   0.3085750   0.0000000  )
         5           Ge  tau(   5) = (   0.9767045   0.5287562   0.0000000  )

   Crystallographic axes

     site n.     atom                  positions (cryst. coord.)
         1           Ca  tau(   1) = (  0.0000000  0.0000000  0.0000000  )
         2           Co  tau(   2) = (  0.2500000  0.7500000  0.5000000  )
         3           Co  tau(   3) = (  0.7500000  0.2500000  0.5000000  )
         4           Ge  tau(   4) = (  0.3685220  0.3685220  0.0000000  )
         5           Ge  tau(   5) = (  0.6314780  0.6314780  0.0000000  )

     number of k points=    10
                       cart. coord. in units 2pi/alat
        k(    1) = (   0.0000000   0.0000000   0.0000000), wk =   0.0740741
        k(    2) = (   0.0000000   0.0000000   0.7001627), wk =   0.1481481
        k(    3) = (   0.0000000   0.3980902   0.3500814), wk =   0.2962963
        k(    4) = (   0.0000000   0.3980902   1.0502441), wk =   0.1481481
        k(    5) = (   0.3333333  -0.2176343   0.3500814), wk =   0.2962963
        k(    6) = (   0.3333333  -0.2176343   1.0502441), wk =   0.1481481
        k(    7) = (   0.3333333   0.1804559   0.7001627), wk =   0.2962963
        k(    8) = (   0.3333333   0.1804559  -0.0000000), wk =   0.1481481
        k(    9) = (   0.3333333  -0.6157245  -0.0000000), wk =   0.1481481
        k(   10) = (   0.3333333  -0.6157245   0.7001627), wk =   0.2962963

                       cryst. coord.
        k(    1) = (   0.0000000   0.0000000   0.0000000), wk =   0.0740741
        k(    2) = (   0.0000000   0.0000000   0.3333333), wk =   0.1481481
        k(    3) = (   0.0000000   0.3333333  -0.0000000), wk =   0.2962963
        k(    4) = (   0.0000000   0.3333333   0.3333333), wk =   0.1481481
        k(    5) = (   0.3333333  -0.0000000   0.0000000), wk =   0.2962963
        k(    6) = (   0.3333333  -0.0000000   0.3333333), wk =   0.1481481
        k(    7) = (   0.3333333   0.3333333  -0.0000000), wk =   0.2962963
        k(    8) = (   0.3333333   0.3333333  -0.3333333), wk =   0.1481481
        k(    9) = (   0.3333333  -0.3333333   0.0000000), wk =   0.1481481
        k(   10) = (   0.3333333  -0.3333333   0.3333333), wk =   0.2962963

     Check: negative core charge=   -0.000012

     Initial potential from superposition of free atoms

     starting charge      69.9928, renormalised to      72.0000
     Starting wfcs are   54 randomized atomic wfcs +   10 random wfcs

     Self-consistent Calculation

     iteration #  1     ecut=    30.00 Ry     beta= 0.70
     Davidson diagonalization with overlap

     ethr =  1.00E-02,  avg # of iterations =  5.0

     total energy              =   -1094.05255244 Ry
     estimated scf accuracy    <       7.74942445 Ry

[...]

     total energy              =   -1099.22957612 Ry
     estimated scf accuracy    <       0.00000773 Ry

     iteration # 16     ecut=    30.00 Ry     beta= 0.70
     Davidson diagonalization with overlap

     ethr =  1.07E-08,  avg # of iterations =  1.0

     End of self-consistent calculation

          k = 0.0000 0.0000 0.0000 (  1573 PWs)   bands (ev):

   -82.2718 -82.2642 -45.5794 -45.5794 -45.5409 -45.5409 -45.5176 -45.5075
   -28.1617 -11.7395 -11.7122 -11.7122 -11.6769 -11.6740 -11.6740 -11.6727
   -11.6510 -11.6406 -11.6353  -9.2096  -9.2096  -9.1680   1.4079   4.8775
     7.3972   9.6134   9.6134   9.8530  10.1070  10.8428  10.8428  11.4572
    11.6361  11.8904  12.1829  12.1829  12.4849  13.5257  15.0878  15.0878
    16.5824  16.8019  17.4493  17.5103  17.5866  18.0276  18.0276  20.4833
    21.5123  22.6733  22.6733  23.8165  23.8165  24.6084  26.0126  26.0126
    26.2795  26.4288  27.4861  27.8972  28.6045  29.8036  31.1564  31.6883

     occupation numbers
     1.0000   1.0000   1.0000   1.0000   1.0000   1.0000   1.0000   1.0000
     1.0000   1.0000   1.0000   1.0000   1.0000   1.0000   1.0000   1.0000
     1.0000   1.0000   1.0000   1.0000   1.0000   1.0000   1.0000   1.0000
     1.0000   1.0000   1.0000   1.0000   1.0000   1.0000   1.0000   1.0000
     1.0000   1.0000   1.0000   1.0000   0.0000   0.0000   0.0000   0.0000
     0.0000   0.0000   0.0000   0.0000   0.0000   0.0000   0.0000   0.0000
     0.0000   0.0000   0.0000   0.0000   0.0000   0.0000   0.0000   0.0000
     0.0000   0.0000   0.0000   0.0000   0.0000   0.0000   0.0000   0.0000

[...]

          k = 0.3333-0.6157 0.7002 (  1530 PWs)   bands (ev):

   -82.2690 -82.2647 -45.5610 -45.5606 -45.5464 -45.5454 -45.5087 -45.5025
   -28.1582 -11.7345 -11.7089 -11.7060 -11.6718 -11.6673 -11.6637 -11.6624
   -11.6460 -11.6404 -11.6256  -9.2805  -9.1999  -9.1659   3.0947   3.2832
     7.7821   9.3121   9.4090   9.9087  10.0518  10.4763  10.5417  11.1560
    11.3839  11.4750  11.4809  13.2650  13.3362  13.5940  15.0024  16.1908
    16.3853  16.4124  16.5344  16.6928  16.7019  17.5912  20.5919  21.1725
    21.7339  22.2453  22.2893  22.7049  23.0950  23.8515  25.0065  25.4107
    27.9204  28.7614  29.3723  30.0475  30.8908  31.0294  31.6620  32.4215

     occupation numbers
     1.0000   1.0000   1.0000   1.0000   1.0000   1.0000   1.0000   1.0000
     1.0000   1.0000   1.0000   1.0000   1.0000   1.0000   1.0000   1.0000
     1.0000   1.0000   1.0000   1.0000   1.0000   1.0000   1.0000   1.0000
     1.0000   1.0000   1.0000   1.0000   1.0000   1.0000   1.0000   1.0000
     1.0000   1.0000   1.0000   1.0000   0.0000   0.0000   0.0000   0.0000
     0.0000   0.0000   0.0000   0.0000   0.0000   0.0000   0.0000   0.0000
     0.0000   0.0000   0.0000   0.0000   0.0000   0.0000   0.0000   0.0000
     0.0000   0.0000   0.0000   0.0000   0.0000   0.0000   0.0000   0.0000

     highest occupied, lowest unoccupied level (ev):    13.2650   12.1557

!    total energy              =   -1099.22957584 Ry
     estimated scf accuracy    <       0.00000074 Ry

     The total energy is the sum of the following terms:
     one-electron contribution =    -740.20909352 Ry
     hartree contribution      =     419.20980983 Ry
     xc contribution           =    -194.01348821 Ry
     ewald contribution        =    -584.21680394 Ry

     convergence has been achieved in  16 iterations

     Writing all to output data dir calculations_bands/myprefix.save/

     General routines

     Parallel routines

   This run was terminated on:  18:45:27   5Jun2023

   JOB DONE.