     Program PWSCF v.7.0 starts on  5Jun2023 at  6:55:34

     K-points division:     npool     =       2
     R & G space division:  proc/nbgrp/npool/nimage =       4

     Reading input from espresso_9504.pwi
Warning: card &CELL ignored
Warning: card / ignored

     Current dimensions of program PWSCF are:
     Max number of different atomic species (ntypx) = 10
     Max number of k-points (npk) =  40000
     Max angular momentum in pseudopotentials (lmaxx) =  4
     file Pb.pbe-dn-kjpaw_psl.0.2.2.UPF: wavefunction(s)  6S renormalized
     Message from routine setup:
     using ibrav=0 with symmetry is DISCOURAGED, use correct ibrav instead

     Using Slab Decomposition

     bravais-lattice index     =            0
     lattice parameter (alat)  =      29.0685  a.u.
     unit-cell volume          =    1934.8117 (a.u.)^3
     number of atoms/cell      =            6
     number of atomic types    =            2
     number of electrons       =        56.00
     number of Kohn-Sham states=           64
     kinetic-energy cutoff     =      30.0000  Ry
     charge density cutoff     =     240.0000  Ry
     scf convergence threshold =      1.0E-06
     mixing beta               =       0.7000
     number of iterations used =            8  plain     mixing
     Exchange-correlation= SLA  PW   PBX  PBC
                           (   1   4   3   4   0   0   0)

     celldm(1)=  29.068457  celldm(2)=   0.000000  celldm(3)=   0.000000
     celldm(4)=   0.000000  celldm(5)=   0.000000  celldm(6)=   0.000000

     crystal axes: (cart. coord. in units of alat)
               a(1) = (   1.000000   0.000000   0.000000 )
               a(2) = (   0.953804   0.300430   0.000000 )
               a(3) = (   0.953804   0.146663   0.262198 )

     reciprocal axes: (cart. coord. in units 2 pi/alat)
               b(1) = (  1.000000 -3.174799 -1.861865 )
               b(2) = (  0.000000  3.328566 -1.861865 )
               b(3) = (  0.000000  0.000000  3.813907 )

     PseudoPot. # 1 for Pb read from file:
     /home/pragov/projects/rrg-bengioy-ad/pragov/crystal_structure_design/SSSP/Pb.pbe-dn-kjpaw_psl.0.2.2.UPF
     MD5 check sum: 9d431e6316058b74ade52399a6cf67da
     Pseudo is Projector augmented-wave + core cor, Zval = 14.0
     Generated using "atomic" code by A. Dal Corso  v.5.0.99 svn rev. 10869
     Shape of augmentation charge: PSQ
     Using radial grid of 1281 points,  6 beta functions with:
                l(1) =   0
                l(2) =   0
                l(3) =   1
                l(4) =   1
                l(5) =   2
                l(6) =   2
     Q(r) pseudized with 0 coefficients

     PseudoPot. # 2 for I  read from file:
     /home/pragov/projects/rrg-bengioy-ad/pragov/crystal_structure_design/SSSP/I.pbe-n-kjpaw_psl.0.2.UPF
     MD5 check sum: d4ef18d9c8f18dc85e5843bca1e50dc0
     Pseudo is Projector augmented-wave + core cor, Zval =  7.0
     Generated using "atomic" code by A. Dal Corso  v.5.0.99 svn rev. 10869
     Shape of augmentation charge: PSQ
     Using radial grid of 1247 points,  4 beta functions with:
                l(1) =   0
                l(2) =   0
                l(3) =   1
                l(4) =   1
     Q(r) pseudized with 0 coefficients

     atomic species   valence    mass     pseudopotential
        Pb            14.00   207.20000     Pb( 1.00)
        I              7.00   126.90447     I ( 1.00)

      2 Sym. Ops., with inversion, found

                                    s                        frac. trans.

      isym =  1     identity

 cryst.   s( 1) = (     1          0          0      )
                  (     0          1          0      )
                  (     0          0          1      )

 cart.    s( 1) = (  1.0000000  0.0000000  0.0000000 )
                  (  0.0000000  1.0000000 -0.0000000 )
                  (  0.0000000  0.0000000  1.0000000 )

      isym =  2     inversion

 cryst.   s( 2) = (    -1          0          0      )
                  (     0         -1          0      )
                  (     0          0         -1      )

 cart.    s( 2) = ( -1.0000000 -0.0000000 -0.0000000 )
                  (  0.0000000 -1.0000000  0.0000000 )
                  (  0.0000000  0.0000000 -1.0000000 )

   Cartesian axes

     site n.     atom                  positions (alat units)
         1           Pb  tau(   1) = (   1.2124260   0.1864306   0.1093325  )
         2           Pb  tau(   2) = (   1.6951819   0.2606623   0.1528658  )
         3           I   tau(   3) = (   2.5451164   0.3913538   0.2295100  )
         4           I   tau(   4) = (   0.3624915   0.0557391   0.0326883  )
         5           I   tau(   5) = (   2.0624681   0.3171386   0.1859864  )
         6           I   tau(   6) = (   0.8451399   0.1299543   0.0762119  )

   Crystallographic axes

     site n.     atom                  positions (cryst. coord.)
         1           Pb  tau(   1) = (  0.4169840  0.4169840  0.4169840  )
         2           Pb  tau(   2) = (  0.5830160  0.5830160  0.5830160  )
         3           I   tau(   3) = (  0.8753300  0.8753300  0.8753300  )
         4           I   tau(   4) = (  0.1246700  0.1246700  0.1246700  )
         5           I   tau(   5) = (  0.7093350  0.7093350  0.7093350  )
         6           I   tau(   6) = (  0.2906650  0.2906650  0.2906650  )

     number of k points=    14
                       cart. coord. in units 2pi/alat
        k(    1) = (   0.0000000   0.0000000   0.0000000), wk =   0.0740741
        k(    2) = (   0.0000000   0.0000000   1.2713024), wk =   0.1481481
        k(    3) = (   0.0000000   1.1095218  -0.6206218), wk =   0.1481481
        k(    4) = (   0.0000000   1.1095218   0.6506806), wk =   0.1481481
        k(    5) = (   0.0000000   1.1095218  -1.8919242), wk =   0.1481481
        k(    6) = (   0.3333333  -1.0582663  -0.6206218), wk =   0.1481481
        k(    7) = (   0.3333333  -1.0582663   0.6506806), wk =   0.1481481
        k(    8) = (   0.3333333  -1.0582663  -1.8919242), wk =   0.1481481
        k(    9) = (   0.3333333   0.0512555  -1.2412435), wk =   0.1481481
        k(   10) = (   0.3333333   0.0512555   0.0300589), wk =   0.1481481
        k(   11) = (   0.3333333   0.0512555  -2.5125459), wk =   0.1481481
        k(   12) = (   0.3333333  -2.1677882   0.0000000), wk =   0.1481481
        k(   13) = (   0.3333333  -2.1677882   1.2713024), wk =   0.1481481
        k(   14) = (   0.3333333  -2.1677882  -1.2713024), wk =   0.1481481

                       cryst. coord.
        k(    1) = (   0.0000000   0.0000000   0.0000000), wk =   0.0740741
        k(    2) = (   0.0000000   0.0000000   0.3333333), wk =   0.1481481
        k(    3) = (   0.0000000   0.3333333   0.0000000), wk =   0.1481481
        k(    4) = (   0.0000000   0.3333333   0.3333333), wk =   0.1481481
        k(    5) = (   0.0000000   0.3333333  -0.3333333), wk =   0.1481481
        k(    6) = (   0.3333333   0.0000000   0.0000000), wk =   0.1481481
        k(    7) = (   0.3333333   0.0000000   0.3333333), wk =   0.1481481
        k(    8) = (   0.3333333   0.0000000  -0.3333333), wk =   0.1481481
        k(    9) = (   0.3333333   0.3333333   0.0000000), wk =   0.1481481
        k(   10) = (   0.3333333   0.3333333   0.3333333), wk =   0.1481481
        k(   11) = (   0.3333333   0.3333333  -0.3333333), wk =   0.1481481
        k(   12) = (   0.3333333  -0.3333333  -0.0000000), wk =   0.1481481
        k(   13) = (   0.3333333  -0.3333333   0.3333333), wk =   0.1481481
        k(   14) = (   0.3333333  -0.3333333  -0.3333333), wk =   0.1481481

     Check: negative core charge=   -0.000001

     Initial potential from superposition of free atoms

     starting charge      55.9950, renormalised to      56.0000
     Starting wfcs are   34 randomized atomic wfcs +   30 random wfcs
     Checking if some PAW data can be deallocated...

     Self-consistent Calculation

     iteration #  1     ecut=    30.00 Ry     beta= 0.70
     Davidson diagonalization with overlap

     ethr =  1.00E-02,  avg # of iterations =  5.9

     Threshold (ethr) on eigenvalues was too large:
     Diagonalizing with lowered threshold

     Davidson diagonalization with overlap

[...]

     total energy              =   -3256.97853247 Ry
     estimated scf accuracy    <       0.13806441 Ry

[...]

     total energy              =   -3257.04008785 Ry
     estimated scf accuracy    <       0.00000124 Ry

     iteration #  8     ecut=    30.00 Ry     beta= 0.70
     Davidson diagonalization with overlap

     ethr =  2.21E-09,  avg # of iterations =  3.8

     End of self-consistent calculation

          k = 0.0000 0.0000 0.0000 (  5407 PWs)   bands (ev):

   -13.5308 -13.5308 -13.5307 -13.5307 -13.5300 -13.5298 -13.5178 -13.5178
   -13.5177 -13.5177  -9.3039  -9.2445  -8.8406  -8.7612  -4.2399  -4.1756
     1.1045   1.5489   1.5489   1.5970   1.6050   1.6050   1.7751   1.7751
     1.7882   1.8423   1.8423   2.2959   4.7559   4.9027   5.7304   5.7304
     5.7646   5.7646   8.5063   9.1888   9.8245  10.1294  10.1684  10.1684
    10.2137  10.2137  10.6623  10.8497  11.1015  11.7474  11.7474  11.9323
    11.9323  12.3929  12.3929  12.4382  12.4382  12.4533  12.8934  14.5318
    14.5318  14.6246  15.2101  15.2101  15.7537  15.8413  16.4291  16.7504

     occupation numbers
     1.0000   1.0000   1.0000   1.0000   1.0000   1.0000   1.0000   1.0000
     1.0000   1.0000   1.0000   1.0000   1.0000   1.0000   1.0000   1.0000
     1.0000   1.0000   1.0000   1.0000   1.0000   1.0000   1.0000   1.0000
     1.0000   1.0000   1.0000   1.0000   0.0000   0.0000   0.0000   0.0000
     0.0000   0.0000   0.0000   0.0000   0.0000   0.0000   0.0000   0.0000
     0.0000   0.0000   0.0000   0.0000   0.0000   0.0000   0.0000   0.0000
     0.0000   0.0000   0.0000   0.0000   0.0000   0.0000   0.0000   0.0000
     0.0000   0.0000   0.0000   0.0000   0.0000   0.0000   0.0000   0.0000

[...]

          k = 0.3333-2.1678-1.2713 (  5367 PWs)   bands (ev):

   -13.5537 -13.5537 -13.5294 -13.5294 -13.5254 -13.5254 -13.5170 -13.5170
   -13.5088 -13.5087  -8.9379  -8.9346  -8.6607  -8.6564  -4.5987  -4.5920
    -0.0738   0.1225   0.7764   0.8152   0.8779   0.9475   1.4765   1.7206
     1.7685   1.8362   2.0150   2.0530   5.3918   5.6561   6.2218   6.3685
     6.4222   6.6969   8.2247   8.6790   9.3702   9.8592  10.3218  10.5486
    10.8015  11.2873  11.4098  11.5489  11.6259  12.5005  12.6877  12.6966
    12.9798  13.0960  13.4001  13.9444  13.9751  14.4054  14.8549  15.1290
    15.5039  15.9745  16.1821  16.4264  16.6234  16.7476  17.0695  17.1500

     occupation numbers
     1.0000   1.0000   1.0000   1.0000   1.0000   1.0000   1.0000   1.0000
     1.0000   1.0000   1.0000   1.0000   1.0000   1.0000   1.0000   1.0000
     1.0000   1.0000   1.0000   1.0000   1.0000   1.0000   1.0000   1.0000
     1.0000   1.0000   1.0000   1.0000   0.0000   0.0000   0.0000   0.0000
     0.0000   0.0000   0.0000   0.0000   0.0000   0.0000   0.0000   0.0000
     0.0000   0.0000   0.0000   0.0000   0.0000   0.0000   0.0000   0.0000
     0.0000   0.0000   0.0000   0.0000   0.0000   0.0000   0.0000   0.0000
     0.0000   0.0000   0.0000   0.0000   0.0000   0.0000   0.0000   0.0000

     highest occupied, lowest unoccupied level (ev):     2.2975    4.7559

!    total energy              =   -3257.04008843 Ry

     total all-electron energy =   -140460.086802 Ry
     estimated scf accuracy    <       0.00000039 Ry

     The total energy is the sum of the following terms:
     one-electron contribution =    -175.98001720 Ry
     hartree contribution      =     118.48672029 Ry
     xc contribution           =    -255.54993141 Ry
     ewald contribution        =    -204.94549486 Ry
     one-center paw contrib.   =   -2739.05136526 Ry
      -> PAW hartree energy AE =      96.80213527 Ry
      -> PAW hartree energy PS =     -96.58958063 Ry
      -> PAW xc energy AE      =    -772.35453151 Ry
      -> PAW xc energy PS      =      43.66574102 Ry
      -> total E_H with PAW    =     118.69927493 Ry
      -> total E_XC with PAW   =    -984.23872190 Ry

     convergence has been achieved in   8 iterations

     Writing all to output data dir calculations_bands/myprefix.save/

     General routines

     Parallel routines

     PAW routines

   This run was terminated on:   6:59:48   5Jun2023

   JOB DONE.