     Program PWSCF v.7.0 starts on  6Jun2023 at 22:36:20

     K-points division:     npool     =       2
     R & G space division:  proc/nbgrp/npool/nimage =       4

     Reading input from espresso_685.pwi
Warning: card &CELL ignored
Warning: card / ignored

     Current dimensions of program PWSCF are:
     Max number of different atomic species (ntypx) = 10
     Max number of k-points (npk) =  40000
     Max angular momentum in pseudopotentials (lmaxx) =  4
     Message from routine setup:
     using ibrav=0 with symmetry is DISCOURAGED, use correct ibrav instead

     Using Slab Decomposition

     bravais-lattice index     =            0
     lattice parameter (alat)  =       6.1486  a.u.
     unit-cell volume          =    2280.0600 (a.u.)^3
     number of atoms/cell      =           12
     number of atomic types    =            3
     number of electrons       =       104.00
     number of Kohn-Sham states=           64
     kinetic-energy cutoff     =      30.0000  Ry
     charge density cutoff     =     240.0000  Ry
     scf convergence threshold =      1.0E-06
     mixing beta               =       0.7000
     number of iterations used =            8  plain     mixing
     Exchange-correlation=  SLA  PW   PBX  PBC
                           (   1   4   3   4   0   0   0)

     celldm(1)=   6.148585  celldm(2)=   0.000000  celldm(3)=   0.000000
     celldm(4)=   0.000000  celldm(5)=   0.000000  celldm(6)=   0.000000

     crystal axes: (cart. coord. in units of alat)
               a(1) = (   1.000000   0.000000   0.000000 )
               a(2) = (  -0.500000   0.866026   0.000000 )
               a(3) = (   0.000000   0.000000  11.326350 )

     reciprocal axes: (cart. coord. in units 2 pi/alat)
               b(1) = (  1.000000  0.577350  0.000000 )
               b(2) = (  0.000000  1.154700  0.000000 )
               b(3) = (  0.000000  0.000000  0.088290 )

     PseudoPot. # 1 for W  read from file:
     /home/pragov/projects/rrg-bengioy-ad/pragov/crystal_structure_design/SSSP/W_pbe_v1.2.uspp.F.UPF
     MD5 check sum: 9c083fa34c2a2ea0f02f1f893e16e1c8
     Pseudo is Ultrasoft + core correction, Zval = 14.0
     Generated by new atomic code, or converted to UPF format
     Using radial grid of  923 points,  8 beta functions with:
                l(1) =   0
                l(2) =   0
                l(3) =   0
                l(4) =   1
                l(5) =   1
                l(6) =   2
                l(7) =   2
                l(8) =   3
     Q(r) pseudized with  6 coefficients,  rinner =    1.350   1.350   1.350
                                                       1.350   1.350   1.350
                                                       1.350

     PseudoPot. # 2 for Se read from file:
     /home/pragov/projects/rrg-bengioy-ad/pragov/crystal_structure_design/SSSP/Se_pbe_v1.uspp.F.UPF
     MD5 check sum: 1b3568f3a8ae88f9a2a0ad0698632c85
     Pseudo is Ultrasoft + core correction, Zval =  6.0
     Generated by new atomic code, or converted to UPF format
     Using radial grid of  877 points,  6 beta functions with:
                l(1) =   0
                l(2) =   0
                l(3) =   1
                l(4) =   1
                l(5) =   2
                l(6) =   2
     Q(r) pseudized with  8 coefficients,  rinner =    1.300   1.300   1.300
                                                       1.300   1.300

     PseudoPot. # 3 for S  read from file:
     /home/pragov/projects/rrg-bengioy-ad/pragov/crystal_structure_design/SSSP/s_pbe_v1.4.uspp.F.UPF
     MD5 check sum: 88d86576ff6df21479756cfb9bdac1df
     Pseudo is Ultrasoft + core correction, Zval =  6.0
     Generated by new atomic code, or converted to UPF format
     Using radial grid of  907 points,  6 beta functions with:
                l(1) =   0
                l(2) =   0
                l(3) =   1
                l(4) =   1
                l(5) =   2
                l(6) =   2
     Q(r) pseudized with  8 coefficients,  rinner =    1.300   1.300   1.300
                                                       1.300   1.300

     atomic species   valence    mass     pseudopotential
        W             14.00   183.84000     W ( 1.00)
        Se             6.00    78.97100     Se( 1.00)
        S              6.00    32.06000     S ( 1.00)

      6 Sym. Ops. (no inversion) found

                                    s                        frac. trans.

      isym =  1     identity

 cryst.   s( 1) = (     1          0          0      )
                  (     0          1          0      )
                  (     0          0          1      )

 cart.    s( 1) = (  1.0000000 -0.0000000  0.0000000 )
                  (  0.0000000  1.0000000  0.0000000 )
                  (  0.0000000  0.0000000  1.0000000 )

      isym =  2     120 deg rotation - cryst. axis [0,0,1]

[...]

      isym =  3     120 deg rotation - cryst. axis [0,0,-1]

[...]

      isym =  4     inv. 180 deg rotation - cart. axis [1,0,0]

[...]

      isym =  5     inv. 180 deg rotation - cryst. axis [0,1,0]

[...]

      isym =  6     inv. 180 deg rotation - cryst. axis [1,1,0]

 cryst.   s( 6) = (     0         -1          0      )
                  (    -1          0          0      )
                  (     0          0          1      )

 cart.    s( 6) = (  0.4999998 -0.8660255  0.0000000 )
                  ( -0.8660255 -0.4999998  0.0000000 )
                  (  0.0000000  0.0000000  1.0000000 )

   Cartesian axes

     site n.     atom                  positions (alat units)
         1           W   tau(   1) = (   0.0000000   0.0000000   1.0637368  )
         2           W   tau(   2) = (   0.0000000   0.0000000   5.3195108  )
         3           W   tau(   3) = (  -0.0000003   0.5773507   3.1917541  )
         4           W   tau(   4) = (  -0.0000003   0.5773507   7.4476187  )
         5           Se  tau(   5) = (   0.0000000   0.0000000   3.7166398  )
         6           Se  tau(   6) = (   0.0000000   0.0000000   7.9729688  )
         7           Se  tau(   7) = (   0.0000000   0.0000000   2.6665965  )
         8           Se  tau(   8) = (   0.0000000   0.0000000   6.9224272  )
         9           S   tau(   9) = (  -0.0000003   0.5773507   0.5870107  )
        10           S   tau(  10) = (  -0.0000003   0.5773507   4.8429660  )
        11           S   tau(  11) = (  -0.0000003   0.5773507   1.5404289  )
        12           S   tau(  12) = (  -0.0000003   0.5773507   5.7960104  )

   Crystallographic axes

     site n.     atom                  positions (cryst. coord.)
         1           W   tau(   1) = (  0.0000000  0.0000000  0.0939170  )
         2           W   tau(   2) = (  0.0000000  0.0000000  0.4696580  )
         3           W   tau(   3) = (  0.3333330  0.6666670  0.2817990  )
         4           W   tau(   4) = (  0.3333330  0.6666670  0.6575480  )
         5           Se  tau(   5) = (  0.0000000  0.0000000  0.3281410  )
         6           Se  tau(   6) = (  0.0000000  0.0000000  0.7039310  )
         7           Se  tau(   7) = (  0.0000000  0.0000000  0.2354330  )
         8           Se  tau(   8) = (  0.0000000  0.0000000  0.6111790  )
         9           S   tau(   9) = (  0.3333330  0.6666670  0.0518270  )
        10           S   tau(  10) = (  0.3333330  0.6666670  0.4275840  )
        11           S   tau(  11) = (  0.3333330  0.6666670  0.1360040  )
        12           S   tau(  12) = (  0.3333330  0.6666670  0.5117280  )

     number of k points=     7
                       cart. coord. in units 2pi/alat
        k(    1) = (   0.0000000   0.0000000   0.0000000), wk =   0.0740741
        k(    2) = (   0.0000000   0.0000000   0.0294299), wk =   0.1481481
        k(    3) = (   0.0000000   0.3849001   0.0000000), wk =   0.4444444
        k(    4) = (   0.0000000   0.3849001   0.0294299), wk =   0.4444444
        k(    5) = (   0.3333333   0.5773501   0.0000000), wk =   0.1481481
        k(    6) = (   0.3333333   0.5773501   0.0294299), wk =   0.2962963
        k(    7) = (   0.0000000  -0.3849001   0.0294299), wk =   0.4444444

                       cryst. coord.
        k(    1) = (   0.0000000   0.0000000   0.0000000), wk =   0.0740741
        k(    2) = (   0.0000000   0.0000000   0.3333333), wk =   0.1481481
        k(    3) = (   0.0000000   0.3333333   0.0000000), wk =   0.4444444
        k(    4) = (   0.0000000   0.3333333   0.3333333), wk =   0.4444444
        k(    5) = (   0.3333333   0.3333333   0.0000000), wk =   0.1481481
        k(    6) = (   0.3333333   0.3333333   0.3333333), wk =   0.2962963
        k(    7) = (   0.0000000  -0.3333333   0.3333333), wk =   0.4444444

     Check: negative core charge=   -0.000002

     Initial potential from superposition of free atoms

     starting charge     103.5982, renormalised to     104.0000

     negative rho (up, down):  2.511E-01 0.000E+00
     Starting wfcs are   84 randomized atomic wfcs

     Self-consistent Calculation

     iteration #  1     ecut=    30.00 Ry     beta= 0.70
     Davidson diagonalization with overlap

     ethr =  1.00E-02,  avg # of iterations =  2.0

     Threshold (ethr) on eigenvalues was too large:
     Diagonalizing with lowered threshold

     Davidson diagonalization with overlap

[...]

     negative rho (up, down):  2.481E-01 0.000E+00

     total energy              =    -907.74983911 Ry
     estimated scf accuracy    <       0.40697771 Ry

[...]

     c_bands:  1 eigenvalues not converged
     ethr =  3.91E-04,  avg # of iterations = 14.7

[...]

     total energy              =    -907.90055996 Ry
     estimated scf accuracy    <       0.00000148 Ry

     iteration # 22     ecut=    30.00 Ry     beta= 0.70
     Davidson diagonalization with overlap

     ethr =  1.42E-09,  avg # of iterations =  4.1

     negative rho (up, down):  2.491E-01 0.000E+00

     End of self-consistent calculation

          k = 0.0000 0.0000 0.0000 (  6409 PWs)   bands (ev):

   -68.8032 -68.7955 -67.8677 -67.8662 -33.0587 -33.0501 -32.8882 -32.8882
   -32.8817 -32.8817 -32.2036 -32.2030 -31.9440 -31.9440 -31.9411 -31.9411
    -9.3228  -9.3214  -8.8637  -8.8558  -7.7500  -7.7155  -7.6699  -7.6386
    -0.9274  -0.8796  -0.2992  -0.2420   2.3195   2.3195   2.3202   2.3203
     2.9467   3.2163   3.4736   3.4737   3.4757   3.4757   3.6713   3.9216
     3.9216   3.9296   3.9296   4.0215   5.0149   5.0150   5.0214   5.0215
     5.2042   5.4191   5.6415   5.7862   7.9565   7.9566   7.9605   7.9605
     8.1746   8.1746   8.1788   8.1789   9.1075   9.1076   9.2170   9.2170

     occupation numbers
     1.0000   1.0000   1.0000   1.0000   1.0000   1.0000   1.0000   1.0000
     1.0000   1.0000   1.0000   1.0000   1.0000   1.0000   1.0000   1.0000
     1.0000   1.0000   1.0000   1.0000   1.0000   1.0000   1.0000   1.0000
     1.0000   1.0000   1.0000   1.0000   1.0000   1.0000   1.0000   1.0000
     1.0000   1.0000   1.0000   1.0000   1.0000   1.0000   1.0000   1.0000
     1.0000   1.0000   1.0000   1.0000   1.0000   1.0000   1.0000   1.0000
     1.0000   1.0000   1.0000   1.0000   0.0000   0.0000   0.0000   0.0000
     0.0000   0.0000   0.0000   0.0000   0.0000   0.0000   0.0000   0.0000

[...]

          k = 0.0000-0.3849 0.0294 (  6297 PWs)   bands (ev):

   -68.7941 -68.7863 -67.8585 -67.8570 -33.0854 -33.0790 -33.0230 -33.0144
   -32.9346 -32.9282 -32.1663 -32.1657 -32.1376 -32.1347 -31.9895 -31.9867
    -7.9956  -7.9951  -7.4258  -7.4162  -7.2492  -7.2434  -6.9223  -6.9170
    -0.3865  -0.3828   0.5424   0.5572   0.7819   0.7960   0.9002   0.9112
     1.5632   1.5733   1.5855   1.5996   2.1320   2.1336   3.4192   3.4436
     3.4454   3.4520   3.5083   3.5145   3.8739   3.9247   4.1867   4.2054
     4.7627   4.7657   5.0171   5.0247   7.6876   7.6914   7.7506   7.8209
     8.1304   8.2401   8.4990   8.5035   8.7104   8.8039   9.3512   9.4387

     occupation numbers
     1.0000   1.0000   1.0000   1.0000   1.0000   1.0000   1.0000   1.0000
     1.0000   1.0000   1.0000   1.0000   1.0000   1.0000   1.0000   1.0000
     1.0000   1.0000   1.0000   1.0000   1.0000   1.0000   1.0000   1.0000
     1.0000   1.0000   1.0000   1.0000   1.0000   1.0000   1.0000   1.0000
     1.0000   1.0000   1.0000   1.0000   1.0000   1.0000   1.0000   1.0000
     1.0000   1.0000   1.0000   1.0000   1.0000   1.0000   1.0000   1.0000
     1.0000   1.0000   1.0000   1.0000   0.0000   0.0000   0.0000   0.0000
     0.0000   0.0000   0.0000   0.0000   0.0000   0.0000   0.0000   0.0000

     highest occupied, lowest unoccupied level (ev):     6.1125    6.8006

!    total energy              =    -907.90055994 Ry
     estimated scf accuracy    <       0.00000037 Ry

     The total energy is the sum of the following terms:
     one-electron contribution =   -3779.07105642 Ry
     hartree contribution      =    1912.48665017 Ry
     xc contribution           =    -317.75299569 Ry
     ewald contribution        =    1276.43684200 Ry

     convergence has been achieved in  22 iterations

     Writing all to output data dir calculations_bands/myprefix.save/

     General routines

     Parallel routines

   This run was terminated on:  22:36:56   6Jun2023

   JOB DONE.