     Program PWSCF v.7.0 starts on  6Jun2023 at 16:30:35

     K-points division:     npool     =       2
     R & G space division:  proc/nbgrp/npool/nimage =       4

     Reading input from espresso_19397.pwi
Warning: card &CELL ignored
Warning: card / ignored

     Current dimensions of program PWSCF are:
     Max number of different atomic species (ntypx) = 10
     Max number of k-points (npk) =  40000
     Max angular momentum in pseudopotentials (lmaxx) =  4
     file In.pbe-dn-rrkjus_psl.0.2.2.UPF: wavefunction(s)  5S renormalized
     Message from routine setup:
     using ibrav=0 with symmetry is DISCOURAGED, use correct ibrav instead

     Using Slab Decomposition

     bravais-lattice index     =            0
     lattice parameter (alat)  =       8.7189  a.u.
     unit-cell volume          =    1133.1977 (a.u.)^3
     number of atoms/cell      =            8
     number of atomic types    =            3
     number of electrons       =       126.00
     number of Kohn-Sham states=           64
     kinetic-energy cutoff     =      30.0000  Ry
     charge density cutoff     =     240.0000  Ry
     scf convergence threshold =      1.0E-06
     mixing beta               =       0.7000
     number of iterations used =            8  plain     mixing
     Exchange-correlation=  SLA  PW   PBX  PBC
                           (   1   4   3   4   0   0   0)

     celldm(1)=   8.718918  celldm(2)=   0.000000  celldm(3)=   0.000000
     celldm(4)=   0.000000  celldm(5)=   0.000000  celldm(6)=   0.000000

     crystal axes: (cart. coord. in units of alat)
               a(1) = (   1.000000   0.000000   0.000000 )
               a(2) = (  -0.500000   0.866025   0.000000 )
               a(3) = (   0.000000   0.000000   1.974182 )

     reciprocal axes: (cart. coord. in units 2 pi/alat)
               b(1) = (  1.000000  0.577351  0.000000 )
               b(2) = (  0.000000  1.154701  0.000000 )
               b(3) = (  0.000000  0.000000  0.506539 )

     PseudoPot. # 1 for Gd read from file:
     /home/pragov/projects/rrg-bengioy-ad/pragov/crystal_structure_design/SSSP/Gd.GGA-PBE-paw-v1.0.UPF
     MD5 check sum: 3e8e0d208da550914ae52eaf991d13de
     Pseudo is Projector augmented-wave + core cor, Zval = 18.0
     Generated using ATOMPAW code
     Shape of augmentation charge: BESSEL
     Using radial grid of 1110 points,  8 beta functions with:
                l(1) =   0
                l(2) =   0
                l(3) =   1
                l(4) =   1
                l(5) =   2
                l(6) =   2
                l(7) =   3
                l(8) =   3
     Q(r) pseudized with 0 coefficients

     PseudoPot. # 2 for In read from file:
     /home/pragov/projects/rrg-bengioy-ad/pragov/crystal_structure_design/SSSP/In.pbe-dn-rrkjus_psl.0.2.2.UPF
     MD5 check sum: 25e7c42c3b55b68f4bf926be2e7201a4
     Pseudo is Ultrasoft + core correction, Zval = 13.0
     Generated using "atomic" code by A. Dal Corso  v.5.0.99 svn rev. 10869
     Using radial grid of 1241 points,  6 beta functions with:
                l(1) =   0
                l(2) =   0
                l(3) =   1
                l(4) =   1
                l(5) =   2
                l(6) =   2
     Q(r) pseudized with 0 coefficients

     PseudoPot. # 3 for Pt read from file:
     /home/pragov/projects/rrg-bengioy-ad/pragov/crystal_structure_design/SSSP/pt_pbe_v1.4.uspp.F.UPF
     MD5 check sum: f09d6de1a584b5a045c4fc126da2d0c4
     Pseudo is Ultrasoft + core correction, Zval = 16.0
     Generated by new atomic code, or converted to UPF format
     Using radial grid of  985 points,  6 beta functions with:
                l(1) =   0
                l(2) =   0
                l(3) =   1
                l(4) =   1
                l(5) =   2
                l(6) =   2
     Q(r) pseudized with  8 coefficients,  rinner =    1.300   1.300   1.300
                                                       1.300   1.300

     atomic species   valence    mass     pseudopotential
        Gd            18.00   157.25000     Gd( 1.00)
        In            13.00   114.81800     In( 1.00)
        Pt            16.00   195.08400     Pt( 1.00)

     24 Sym. Ops., with inversion, found (12 have fractional translation)

                                    s                        frac. trans.

      isym =  1     identity

 cryst.   s( 1) = (     1          0          0      )
                  (     0          1          0      )
                  (     0          0          1      )

 cart.    s( 1) = (  1.0000000 -0.0000000  0.0000000 )
                  (  0.0000000  1.0000000  0.0000000 )
                  (  0.0000000  0.0000000  1.0000000 )

      isym =  2     180 deg rotation - cart. axis [0,0,1]

 cryst.   s( 2) = (    -1          0          0      )    f =( -0.0000000 )
                  (     0         -1          0      )       ( -0.0000000 )
                  (     0          0          1      )       (  0.5000000 )

 cart.    s( 2) = ( -1.0000000  0.0000000  0.0000000 )    f =( -0.0000000 )
                  (  0.0000000 -1.0000000  0.0000000 )       ( -0.0000000 )
                  (  0.0000000  0.0000000  1.0000000 )       (  0.9870912 )

[...]

      isym =  4     180 deg rotation - cart. axis [1,0,0]

[...]

      isym =  5      60 deg rotation - cryst. axis [0,0,1]

[...]

 cryst.   s( 8) = (    -1         -1          0      )
                  (     1          0          0      )
                  (     0          0          1      )

 cart.    s( 8) = ( -0.4999998  0.8660255  0.0000000 )
                  ( -0.8660253 -0.5000002  0.0000000 )
                  (  0.0000000  0.0000000  1.0000000 )

[...]

 cryst.   s( 9) = (     0         -1          0      )    f =( -0.0000000 )
                  (    -1          0          0      )       ( -0.0000000 )
                  (     0          0         -1      )       (  0.5000000 )

 cart.    s( 9) = (  0.5000002 -0.8660253  0.0000000 )    f =( -0.0000000 )
                  ( -0.8660253 -0.5000002  0.0000000 )       ( -0.0000000 )
                  (  0.0000000  0.0000000 -1.0000000 )       (  0.9870912 )

[...]

 cryst.   s(10) = (     1          1          0      )    f =(  0.0000000 )
                  (     0         -1          0      )       (  0.0000010 )
                  (     0          0         -1      )       (  0.5000000 )

 cart.    s(10) = (  0.4999998  0.8660257  0.0000000 )    f =( -0.0000005 )
                  (  0.8660253 -0.4999998  0.0000000 )       (  0.0000009 )
                  (  0.0000000  0.0000000 -1.0000000 )       (  0.9870912 )

[...]

 cryst.   s(11) = (    -1         -1          0      )
                  (     0          1          0      )
                  (     0          0         -1      )

 cart.    s(11) = ( -0.4999998 -0.8660257  0.0000000 )
                  ( -0.8660253  0.4999998  0.0000000 )
                  (  0.0000000  0.0000000 -1.0000000 )

      isym = 12     180 deg rotation - cryst. axis [1,1,0]

[...]

      isym = 13     inversion

[...]

      isym = 14     inv. 180 deg rotation - cart. axis [0,0,1]

[...]

      isym = 16     inv. 180 deg rotation - cart. axis [1,0,0]

[...]

      isym = 17     inv.  60 deg rotation - cryst. axis [0,0,1]

[...]

 cryst.   s(22) = (    -1         -1          0      )    f =( -0.0000000 )
                  (     0          1          0      )       (  0.0000010 )
                  (     0          0          1      )       (  0.5000000 )

 cart.    s(22) = ( -0.4999998 -0.8660257  0.0000000 )    f =( -0.0000005 )
                  ( -0.8660253  0.4999998  0.0000000 )       (  0.0000009 )
                  (  0.0000000  0.0000000  1.0000000 )       (  0.9870912 )

[...]

      isym = 24     inv. 180 deg rotation - cryst. axis [1,1,0]

 cryst.   s(24) = (     0         -1          0      )
                  (    -1          0          0      )
                  (     0          0          1      )

 cart.    s(24) = (  0.5000002 -0.8660253  0.0000000 )
                  ( -0.8660253 -0.5000002  0.0000000 )
                  (  0.0000000  0.0000000  1.0000000 )

   Cartesian axes

     site n.     atom                  positions (alat units)
         1           Gd  tau(   1) = (   0.5000004   0.2886748   1.4806368  )
         2           Gd  tau(   2) = (  -0.0000006   0.5773505   0.4935456  )
         3           In  tau(   3) = (   0.0000000   0.0000000   0.9870912  )
         4           In  tau(   4) = (   0.0000000   0.0000000   0.0000000  )
         5           Pt  tau(   5) = (   0.5000004   0.2886748   0.1782213  )
         6           Pt  tau(   6) = (  -0.0000006   0.5773505   1.7959611  )
         7           Pt  tau(   7) = (  -0.0000006   0.5773505   1.1653125  )
         8           Pt  tau(   8) = (   0.5000004   0.2886748   0.8088699  )

   Crystallographic axes

     site n.     atom                  positions (cryst. coord.)
         1           Gd  tau(   1) = (  0.6666670  0.3333330  0.7500000  )
         2           Gd  tau(   2) = (  0.3333330  0.6666670  0.2500000  )
         3           In  tau(   3) = (  0.0000000  0.0000000  0.5000000  )
         4           In  tau(   4) = (  0.0000000  0.0000000  0.0000000  )
         5           Pt  tau(   5) = (  0.6666670  0.3333330  0.0902760  )
         6           Pt  tau(   6) = (  0.3333330  0.6666670  0.9097240  )
         7           Pt  tau(   7) = (  0.3333330  0.6666670  0.5902760  )
         8           Pt  tau(   8) = (  0.6666670  0.3333330  0.4097240  )

     number of k points=     6
                       cart. coord. in units 2pi/alat
        k(    1) = (   0.0000000   0.0000000   0.0000000), wk =   0.0740741
        k(    2) = (   0.0000000   0.0000000   0.1688463), wk =   0.1481481
        k(    3) = (   0.0000000   0.3849002   0.0000000), wk =   0.4444444
        k(    4) = (   0.0000000   0.3849002   0.1688463), wk =   0.8888889
        k(    5) = (   0.3333333   0.5773504   0.0000000), wk =   0.1481481
        k(    6) = (   0.3333333   0.5773504   0.1688463), wk =   0.2962963

                       cryst. coord.
        k(    1) = (   0.0000000   0.0000000   0.0000000), wk =   0.0740741
        k(    2) = (   0.0000000   0.0000000   0.3333333), wk =   0.1481481
        k(    3) = (   0.0000000   0.3333333   0.0000000), wk =   0.4444444
        k(    4) = (   0.0000000   0.3333333   0.3333333), wk =   0.8888889
        k(    5) = (   0.3333333   0.3333333   0.0000000), wk =   0.1481481
        k(    6) = (   0.3333333   0.3333333   0.3333333), wk =   0.2962963

     Initial potential from superposition of free atoms

     starting charge     123.9822, renormalised to     126.0000

     negative rho (up, down):  7.370E-01 0.000E+00
     Starting wfcs are  130 randomized atomic wfcs
     Checking if some PAW data can be deallocated...

     Self-consistent Calculation

     iteration #  1     ecut=    30.00 Ry     beta= 0.70
     Davidson diagonalization with overlap

     ethr =  1.00E-02,  avg # of iterations =  2.0

     negative rho (up, down):  6.361E-01 0.000E+00

     total energy              =   -2434.54523619 Ry
     estimated scf accuracy    <      61.74482575 Ry

[...]

     c_bands:  1 eigenvalues not converged
     ethr =  1.03E-03,  avg # of iterations = 16.2

[...]

     c_bands:  1 eigenvalues not converged
     ethr =  2.40E-07,  avg # of iterations = 13.7

[...]

     total energy              =   -2499.82420481 Ry
     estimated scf accuracy    <       0.00003933 Ry

     iteration # 82     ecut=    30.00 Ry     beta= 0.70
     Davidson diagonalization with overlap

     ethr =  1.25E-08,  avg # of iterations =  5.2

     negative rho (up, down):  6.849E-01 0.000E+00

     End of self-consistent calculation

          k = 0.0000 0.0000 0.0000 (  3145 PWs)   bands (ev):

   -36.5915 -36.5914 -36.5852 -36.5852 -36.5627 -36.5626 -36.5560 -36.5560
   -36.5101 -36.4902 -36.4386 -36.4185 -26.3215 -26.3195  -4.3455  -4.3354
    -4.3354  -4.3344  -4.3344  -4.3039   1.3620   1.3646   1.3646   1.3686
     1.3686   1.3830   1.4048   1.4048   1.4132   1.4132   7.1091   8.2650
    11.0998  11.4301  11.4302  11.4494  11.6467  11.6467  11.8653  11.8653
    12.2482  12.2483  12.3024  12.5638  12.9335  12.9335  13.4321  13.4322
    13.8481  13.8482  14.3783  14.3783  14.6814  15.5066  15.5172  15.6719
    15.7526  15.7526  15.8229  15.8229  15.8407  15.8407  15.8666  15.8681

     occupation numbers
     1.0000   1.0000   1.0000   1.0000   1.0000   1.0000   1.0000   1.0000
     1.0000   1.0000   1.0000   1.0000   1.0000   1.0000   1.0000   1.0000
     1.0000   1.0000   1.0000   1.0000   1.0000   1.0000   1.0000   1.0000
     1.0000   1.0000   1.0000   1.0000   1.0000   1.0000   1.0000   1.0000
     1.0000   1.0000   1.0000   1.0000   1.0000   1.0000   1.0000   1.0000
     1.0000   1.0000   1.0000   1.0000   1.0000   1.0000   1.0000   1.0000
     1.0000   1.0000   1.0000   1.0000   1.0000   1.0000   1.0000   1.0000
     1.0000   1.0000   1.0000   1.0000   1.0000   1.0000   1.0000   0.0000

[...]

          k = 0.3333 0.5774 0.1688 (  3129 PWs)   bands (ev):

   -36.5946 -36.5914 -36.5798 -36.5798 -36.5739 -36.5739 -36.5569 -36.5537
   -36.4964 -36.4964 -36.4268 -36.4268 -26.3182 -26.3180  -4.3838  -4.3837
    -4.3763  -4.3761  -4.3050  -4.3048   1.3433   1.3433   1.3456   1.3456
     1.3825   1.3922   1.4129   1.4129   1.4294   1.4294   9.3420   9.4768
    10.9042  10.9044  11.1613  11.1614  12.0708  12.0920  12.0920  12.1956
    12.5503  12.5503  12.8812  13.0835  13.1884  13.1884  13.2051  13.2543
    13.2543  13.3631  13.8844  13.8844  14.0760  14.2817  14.4437  14.4437
    15.6250  15.6252  15.7445  15.7505  15.7506  15.7777  15.8174  15.8175

     occupation numbers
     1.0000   1.0000   1.0000   1.0000   1.0000   1.0000   1.0000   1.0000
     1.0000   1.0000   1.0000   1.0000   1.0000   1.0000   1.0000   1.0000
     1.0000   1.0000   1.0000   1.0000   1.0000   1.0000   1.0000   1.0000
     1.0000   1.0000   1.0000   1.0000   1.0000   1.0000   1.0000   1.0000
     1.0000   1.0000   1.0000   1.0000   1.0000   1.0000   1.0000   1.0000
     1.0000   1.0000   1.0000   1.0000   1.0000   1.0000   1.0000   1.0000
     1.0000   1.0000   1.0000   1.0000   1.0000   1.0000   1.0000   1.0000
     1.0000   1.0000   1.0000   1.0000   1.0000   1.0000   1.0000   0.0000

     highest occupied, lowest unoccupied level (ev):    15.8666   15.8175

!    total energy              =   -2499.82420752 Ry
     estimated scf accuracy    <       0.00000092 Ry

     The total energy is the sum of the following terms:
     one-electron contribution =    -425.78085828 Ry
     hartree contribution      =     315.17983573 Ry
     xc contribution           =    -368.40888976 Ry
     ewald contribution        =   -1089.01377441 Ry
     one-center paw contrib.   =    -931.80052081 Ry
      -> PAW hartree energy AE =     184.69006606 Ry
      -> PAW hartree energy PS =    -175.20958161 Ry
      -> PAW xc energy AE      =    -496.80773006 Ry
      -> PAW xc energy PS      =      21.42698521 Ry
      -> total E_H with PAW    =     324.66032018 Ry
      -> total E_XC with PAW   =    -843.78963462 Ry

     convergence has been achieved in  82 iterations

     Writing all to output data dir calculations_bands/myprefix.save/

     General routines

     Parallel routines

     PAW routines

   This run was terminated on:  16:32:10   6Jun2023

   JOB DONE.