     Program PWSCF v.7.0 starts on  5Jun2023 at  4:56: 7

     K-points division:     npool     =       2
     R & G space division:  proc/nbgrp/npool/nimage =       4

     Reading input from espresso_10406.pwi
Warning: card &CELL ignored
Warning: card / ignored

     Current dimensions of program PWSCF are:
     Max number of different atomic species (ntypx) = 10
     Max number of k-points (npk) =  40000
     Max angular momentum in pseudopotentials (lmaxx) =  4
     Message from routine setup:
     using ibrav=0 with symmetry is DISCOURAGED, use correct ibrav instead

     Using Slab Decomposition

     bravais-lattice index     =            0
     lattice parameter (alat)  =       7.7709  a.u.
     unit-cell volume          =    1041.4089 (a.u.)^3
     number of atoms/cell      =            8
     number of atomic types    =            3
     number of electrons       =        70.00
     number of Kohn-Sham states=           64
     kinetic-energy cutoff     =      30.0000  Ry
     charge density cutoff     =     240.0000  Ry
     scf convergence threshold =      1.0E-06
     mixing beta               =       0.7000
     number of iterations used =            8  plain     mixing
     Exchange-correlation= PBE
                           (   1   4   3   4   0   0   0)

     celldm(1)=   7.770871  celldm(2)=   0.000000  celldm(3)=   0.000000
     celldm(4)=   0.000000  celldm(5)=   0.000000  celldm(6)=   0.000000

     crystal axes: (cart. coord. in units of alat)
               a(1) = (   1.000000   0.000000   0.000000 )
               a(2) = (   0.000000   1.110099   0.000000 )
               a(3) = (   0.000000   0.436943   1.999173 )

     reciprocal axes: (cart. coord. in units 2 pi/alat)
               b(1) = (  1.000000  0.000000  0.000000 )
               b(2) = (  0.000000  0.900820 -0.196885 )
               b(3) = (  0.000000  0.000000  0.500207 )

     PseudoPot. # 1 for La read from file:
     /home/pragov/projects/rrg-bengioy-ad/pragov/crystal_structure_design/SSSP/La.GGA-PBE-paw-v1.0.UPF
     MD5 check sum: 436541e95c1ad8901025bd0b0ed42ae2
     Pseudo is Projector augmented-wave + core cor, Zval = 11.0
     Generated using ATOMPAW code
     Shape of augmentation charge: BESSEL
     Using radial grid of 1101 points,  8 beta functions with:
                l(1) =   0
                l(2) =   0
                l(3) =   1
                l(4) =   1
                l(5) =   2
                l(6) =   2
                l(7) =   3
                l(8) =   3
     Q(r) pseudized with 0 coefficients

     PseudoPot. # 2 for Si read from file:
     /home/pragov/projects/rrg-bengioy-ad/pragov/crystal_structure_design/SSSP/Si.pbe-n-rrkjus_psl.1.0.0.UPF
     MD5 check sum: 0b0bb1205258b0d07b9f9672cf965d36
     Pseudo is Ultrasoft + core correction, Zval =  4.0
     Generated using "atomic" code by A. Dal Corso  v.5.1
     Using radial grid of 1141 points,  6 beta functions with:
                l(1) =   0
                l(2) =   0
                l(3) =   1
                l(4) =   1
                l(5) =   2
                l(6) =   2
     Q(r) pseudized with 0 coefficients

     PseudoPot. # 3 for Ru read from file:
     /home/pragov/projects/rrg-bengioy-ad/pragov/crystal_structure_design/SSSP/Ru_ONCV_PBE-1.0.oncvpsp.upf
     MD5 check sum: be037bb81c227cfb9b1461a9f099f4bd
     Pseudo is Norm-conserving, Zval = 16.0
     Generated using ONCVPSP code by D. R. Hamann
     Using radial grid of 1458 points,  6 beta functions with:
                l(1) =   0
                l(2) =   0
                l(3) =   1
                l(4) =   1
                l(5) =   2
                l(6) =   2

     atomic species   valence    mass     pseudopotential
        La            11.00   138.90547     La( 1.00)
        Si             4.00    28.08500     Si( 1.00)
        Ru            16.00   101.07000     Ru( 1.00)

      4 Sym. Ops., with inversion, found ( 2 have fractional translation)

                                    s                        frac. trans.

      isym =  1     identity

 cryst.   s( 1) = (     1          0          0      )
                  (     0          1          0      )
                  (     0          0          1      )

 cart.    s( 1) = (  1.0000000  0.0000000  0.0000000 )
                  (  0.0000000  1.0000000 -0.0000000 )
                  (  0.0000000  0.0000000  1.0000000 )

      isym =  2     180 deg rotation - cart. axis [1,0,0]

 cryst.   s( 2) = (     1          0          0      )    f =( -0.5000000 )
                  (     0         -1          0      )       (  0.0000000 )
                  (     0          0         -1      )       ( -0.0000000 )

 cart.    s( 2) = (  1.0000000  0.0000000  0.0000000 )    f =( -0.5000000 )
                  (  0.0000000 -1.0000000  0.0000000 )       (  0.0000000 )
                  (  0.0000000  0.0000000 -1.0000000 )       ( -0.0000000 )

      isym =  3     inversion

 cryst.   s( 3) = (    -1          0          0      )
                  (     0         -1          0      )
                  (     0          0         -1      )

 cart.    s( 3) = ( -1.0000000  0.0000000  0.0000000 )
                  (  0.0000000 -1.0000000  0.0000000 )
                  (  0.0000000  0.0000000 -1.0000000 )

      isym =  4     inv. 180 deg rotation - cart. axis [1,0,0]

 cryst.   s( 4) = (    -1          0          0      )    f =(  0.5000000 )
                  (     0          1          0      )       (  0.0000000 )
                  (     0          0          1      )       (  0.0000000 )

 cart.    s( 4) = ( -1.0000000  0.0000000  0.0000000 )    f =(  0.5000000 )
                  (  0.0000000  1.0000000 -0.0000000 )       (  0.0000000 )
                  (  0.0000000  0.0000000  1.0000000 )       (  0.0000000 )

   Cartesian axes

     site n.     atom                  positions (alat units)
         1           La  tau(   1) = (   0.2500000   1.1003747   0.4010921  )
         2           La  tau(   2) = (   0.7500000   0.4466674   1.5980809  )
         3           Si  tau(   3) = (   0.2500000   0.4098396   1.0163695  )
         4           Si  tau(   4) = (   0.7500000   1.1372025   0.9828034  )
         5           Si  tau(   5) = (   0.7500000   0.5529428   0.1819447  )
         6           Si  tau(   6) = (   0.2500000   0.9940993   1.8172282  )
         7           Ru  tau(   7) = (   0.7500000   0.5901891   0.7772425  )
         8           Ru  tau(   8) = (   0.2500000   0.9568530   1.2219305  )

   Crystallographic axes

     site n.     atom                  positions (cryst. coord.)
         1           La  tau(   1) = (  0.2500000  0.9122710  0.2006290  )
         2           La  tau(   2) = (  0.7500000  0.0877290  0.7993710  )
         3           Si  tau(   3) = (  0.2500000  0.1690840  0.5083950  )
         4           Si  tau(   4) = (  0.7500000  0.8309160  0.4916050  )
         5           Si  tau(   5) = (  0.7500000  0.4622800  0.0910100  )
         6           Si  tau(   6) = (  0.2500000  0.5377200  0.9089900  )
         7           Ru  tau(   7) = (  0.7500000  0.3786270  0.3887820  )
         8           Ru  tau(   8) = (  0.2500000  0.6213730  0.6112180  )

     number of k points=    10
                       cart. coord. in units 2pi/alat
        k(    1) = (   0.0000000   0.0000000   0.0000000), wk =   0.0740741
        k(    2) = (   0.0000000   0.0000000   0.1667356), wk =   0.1481481
        k(    3) = (   0.0000000   0.3002735  -0.0656283), wk =   0.1481481
        k(    4) = (   0.0000000   0.3002735   0.1011073), wk =   0.1481481
        k(    5) = (   0.0000000   0.3002735  -0.2323640), wk =   0.1481481
        k(    6) = (   0.3333333   0.0000000   0.0000000), wk =   0.1481481
        k(    7) = (   0.3333333   0.0000000   0.1667356), wk =   0.2962963
        k(    8) = (   0.3333333   0.3002735  -0.0656283), wk =   0.2962963
        k(    9) = (   0.3333333   0.3002735   0.1011073), wk =   0.2962963
        k(   10) = (   0.3333333   0.3002735  -0.2323640), wk =   0.2962963

                       cryst. coord.
        k(    1) = (   0.0000000   0.0000000   0.0000000), wk =   0.0740741
        k(    2) = (   0.0000000   0.0000000   0.3333333), wk =   0.1481481
        k(    3) = (   0.0000000   0.3333333   0.0000000), wk =   0.1481481
        k(    4) = (   0.0000000   0.3333333   0.3333333), wk =   0.1481481
        k(    5) = (   0.0000000   0.3333333  -0.3333333), wk =   0.1481481
        k(    6) = (   0.3333333   0.0000000   0.0000000), wk =   0.1481481
        k(    7) = (   0.3333333   0.0000000   0.3333333), wk =   0.2962963
        k(    8) = (   0.3333333   0.3333333   0.0000000), wk =   0.2962963
        k(    9) = (   0.3333333   0.3333333   0.3333333), wk =   0.2962963
        k(   10) = (   0.3333333   0.3333333  -0.3333333), wk =   0.2962963

     Initial potential from superposition of free atoms

     starting charge      69.9796, renormalised to      70.0000
     Starting wfcs are  100 randomized atomic wfcs
     Checking if some PAW data can be deallocated...

     Self-consistent Calculation

     iteration #  1     ecut=    30.00 Ry     beta= 0.70
     Davidson diagonalization with overlap

     ethr =  1.00E-02,  avg # of iterations =  3.1

     total energy              =   -1338.51646322 Ry
     estimated scf accuracy    <       1.45079801 Ry

[...]

     total energy              =   -1339.67411138 Ry
     estimated scf accuracy    <       0.00000175 Ry

     iteration # 13     ecut=    30.00 Ry     beta= 0.70
     Davidson diagonalization with overlap

     ethr =  2.51E-09,  avg # of iterations =  2.0

     End of self-consistent calculation

          k = 0.0000 0.0000 0.0000 (  2919 PWs)   bands (ev):

   -59.3503 -59.3420 -29.4137 -29.3766 -29.3549 -29.3506 -29.3297 -29.3067
   -19.1194 -19.0713  -3.3431  -2.9473  -2.8338  -2.7922  -2.7643  -2.6416
     2.5503   4.0171   6.2763   6.8486   8.4615   8.6400   8.6861  10.0537
    10.2285  10.2846  10.6270  10.6732  11.0812  11.2886  12.0665  12.1433
    12.3524  12.5420  13.1373  13.1926  13.4750  14.5718  14.8027  14.8625
    14.9678  15.2412  15.4053  15.4156  15.5572  15.7203  15.8340  15.8396
    15.8492  15.9162  16.0396  16.0639  16.0869  16.1964  16.7041  16.7663
    16.8034  16.8252  17.2562  17.6621  17.7361  17.8400  17.9880  18.7314

     occupation numbers
     1.0000   1.0000   1.0000   1.0000   1.0000   1.0000   1.0000   1.0000
     1.0000   1.0000   1.0000   1.0000   1.0000   1.0000   1.0000   1.0000
     1.0000   1.0000   1.0000   1.0000   1.0000   1.0000   1.0000   1.0000
     1.0000   1.0000   1.0000   1.0000   1.0000   1.0000   1.0000   1.0000
     1.0000   1.0000   1.0000   0.0000   0.0000   0.0000   0.0000   0.0000
     0.0000   0.0000   0.0000   0.0000   0.0000   0.0000   0.0000   0.0000
     0.0000   0.0000   0.0000   0.0000   0.0000   0.0000   0.0000   0.0000
     0.0000   0.0000   0.0000   0.0000   0.0000   0.0000   0.0000   0.0000

[...]

          k = 0.3333 0.3003-0.2324 (  2885 PWs)   bands (ev):

   -59.3480 -59.3440 -29.4093 -29.3937 -29.3576 -29.3509 -29.3175 -29.3104
   -19.0831 -19.0606  -3.1896  -3.1333  -3.0366  -2.9597  -2.8746  -2.7865
     3.9349   4.7034   5.4896   6.3714   7.8219   8.5630   9.4843   9.6881
    10.1336  10.2198  10.4687  10.6729  10.9125  11.0324  11.4317  11.7138
    11.9114  12.2612  12.3962  12.5391  14.0477  14.3125  14.9741  15.2019
    15.3908  15.5093  15.5718  15.5908  15.6145  15.7003  15.7390  15.8080
    15.8187  15.8355  15.8688  15.8860  16.4731  16.6607  17.0736  17.2002
    17.2606  17.4598  17.9310  18.1826  18.4413  18.6429  19.0751  19.3573

     occupation numbers
     1.0000   1.0000   1.0000   1.0000   1.0000   1.0000   1.0000   1.0000
     1.0000   1.0000   1.0000   1.0000   1.0000   1.0000   1.0000   1.0000
     1.0000   1.0000   1.0000   1.0000   1.0000   1.0000   1.0000   1.0000
     1.0000   1.0000   1.0000   1.0000   1.0000   1.0000   1.0000   1.0000
     1.0000   1.0000   1.0000   0.0000   0.0000   0.0000   0.0000   0.0000
     0.0000   0.0000   0.0000   0.0000   0.0000   0.0000   0.0000   0.0000
     0.0000   0.0000   0.0000   0.0000   0.0000   0.0000   0.0000   0.0000
     0.0000   0.0000   0.0000   0.0000   0.0000   0.0000   0.0000   0.0000

     highest occupied, lowest unoccupied level (ev):    13.4865   12.5391

!    total energy              =   -1339.67411163 Ry
     estimated scf accuracy    <       0.00000005 Ry

     The total energy is the sum of the following terms:
     one-electron contribution =    -245.09821586 Ry
     hartree contribution      =     157.64599624 Ry
     xc contribution           =     -82.19292544 Ry
     ewald contribution        =    -373.86943935 Ry
     one-center paw contrib.   =    -796.15952722 Ry
      -> PAW hartree energy AE =      35.30633024 Ry
      -> PAW hartree energy PS =     -35.34421135 Ry
      -> PAW xc energy AE      =    -405.38963603 Ry
      -> PAW xc energy PS      =       7.34775353 Ry
      -> total E_H with PAW    =     157.60811513 Ry
      -> total E_XC with PAW   =    -480.23480794 Ry

     convergence has been achieved in  13 iterations

     Writing all to output data dir calculations_bands/myprefix.save/

     General routines

     Parallel routines

     PAW routines

   This run was terminated on:   4:58: 5   5Jun2023

   JOB DONE.