     Program PWSCF v.7.0 starts on  7Jun2023 at  6: 9:23

     K-points division:     npool     =       2
     R & G space division:  proc/nbgrp/npool/nimage =       4

     Reading input from espresso_25123.pwi
Warning: card &CELL ignored
Warning: card / ignored

     Current dimensions of program PWSCF are:
     Max number of different atomic species (ntypx) = 10
     Max number of k-points (npk) =  40000
     Max angular momentum in pseudopotentials (lmaxx) =  4
     Message from routine setup:
     using ibrav=0 with symmetry is DISCOURAGED, use correct ibrav instead

     Using Slab Decomposition

     bravais-lattice index     =            0
     lattice parameter (alat)  =      10.5488  a.u.
     unit-cell volume          =     754.2439 (a.u.)^3
     number of atoms/cell      =            8
     number of atomic types    =            3
     number of electrons       =        70.00
     number of Kohn-Sham states=           64
     kinetic-energy cutoff     =      30.0000  Ry
     charge density cutoff     =     240.0000  Ry
     scf convergence threshold =      1.0E-06
     mixing beta               =       0.7000
     number of iterations used =            8  plain     mixing
     Exchange-correlation=  SLA  PW   PBX  PBC
                           (   1   4   3   4   0   0   0)

     celldm(1)=  10.548788  celldm(2)=   0.000000  celldm(3)=   0.000000
     celldm(4)=   0.000000  celldm(5)=   0.000000  celldm(6)=   0.000000

     crystal axes: (cart. coord. in units of alat)
               a(1) = (   1.000000   0.000000   0.000000 )
               a(2) = (   0.558355   0.829602   0.000000 )
               a(3) = (   0.558355   0.297245   0.774523 )

     reciprocal axes: (cart. coord. in units 2 pi/alat)
               b(1) = (  1.000000 -0.673039 -0.462604 )
               b(2) = (  0.000000  1.205397 -0.462604 )
               b(3) = (  0.000000  0.000000  1.291118 )

     PseudoPot. # 1 for Cr read from file:
     /home/pragov/projects/rrg-bengioy-ad/pragov/crystal_structure_design/SSSP/cr_pbe_v1.5.uspp.F.UPF
     MD5 check sum: 0d52af634a40206e4dee301ad30da4bf
     Pseudo is Ultrasoft + core correction, Zval = 14.0
     Generated by new atomic code, or converted to UPF format
     Using radial grid of  857 points,  6 beta functions with:
                l(1) =   0
                l(2) =   0
                l(3) =   1
                l(4) =   1
                l(5) =   2
                l(6) =   2
     Q(r) pseudized with  8 coefficients,  rinner =    0.950   0.950   0.950
                                                       0.950   0.950

     PseudoPot. # 2 for Mo read from file:
     /home/pragov/projects/rrg-bengioy-ad/pragov/crystal_structure_design/SSSP/Mo_ONCV_PBE-1.0.oncvpsp.upf
     MD5 check sum: 1b5d28e075c9ccadda658a603575cd1f
     Pseudo is Norm-conserving, Zval = 14.0
     Generated using ONCVPSP code by D. R. Hamann
     Using radial grid of 1526 points,  6 beta functions with:
                l(1) =   0
                l(2) =   0
                l(3) =   1
                l(4) =   1
                l(5) =   2
                l(6) =   2

     PseudoPot. # 3 for F  read from file:
     /home/pragov/projects/rrg-bengioy-ad/pragov/crystal_structure_design/SSSP/f_pbe_v1.4.uspp.F.UPF
     MD5 check sum: 4c38b6a325caf53ec0e86aed9459de46
     Pseudo is Ultrasoft, Zval =  7.0
     Generated by new atomic code, or converted to UPF format
     Using radial grid of  799 points,  4 beta functions with:
                l(1) =   0
                l(2) =   0
                l(3) =   1
                l(4) =   1
     Q(r) pseudized with  8 coefficients,  rinner =    0.950   0.950   0.950

     atomic species   valence    mass     pseudopotential
        Cr            14.00    51.99610     Cr( 1.00)
        Mo            14.00    95.95000     Mo( 1.00)
        F              7.00    18.99840     F ( 1.00)

      2 Sym. Ops., with inversion, found

                                    s                        frac. trans.

      isym =  1     identity

 cryst.   s( 1) = (     1          0          0      )
                  (     0          1          0      )
                  (     0          0          1      )

 cart.    s( 1) = (  1.0000000  0.0000000  0.0000000 )
                  (  0.0000000  1.0000000  0.0000000 )
                  (  0.0000000  0.0000000  1.0000000 )

      isym =  2     inversion

 cryst.   s( 2) = (    -1          0          0      )
                  (     0         -1          0      )
                  (     0          0         -1      )

 cart.    s( 2) = ( -1.0000000 -0.0000000 -0.0000000 )
                  (  0.0000000 -1.0000000 -0.0000000 )
                  (  0.0000000  0.0000000 -1.0000000 )

   Cartesian axes

     site n.     atom                  positions (alat units)
         1           Cr  tau(   1) = (   0.0000000   0.0000000   0.0000000  )
         2           Mo  tau(   2) = (   1.0583549   0.5634234   0.3872614  )
         3           F   tau(   3) = (   1.3743864   0.5962787   0.1840979  )
         4           F   tau(   4) = (   0.7423233   0.5305681   0.5904249  )
         5           F   tau(   5) = (   1.0294858   0.2019099   0.2837944  )
         6           F   tau(   6) = (   1.0872239   0.9249369   0.4907283  )
         7           F   tau(   7) = (   1.2620695   0.4611142   0.6877011  )
         8           F   tau(   8) = (   0.8546403   0.6657327   0.0868217  )

   Crystallographic axes

     site n.     atom                  positions (cryst. coord.)
         1           Cr  tau(   1) = (  0.0000000  0.0000000  0.0000000  )
         2           Mo  tau(   2) = (  0.5000000  0.5000000  0.5000000  )
         3           F   tau(   3) = (  0.8879030  0.6335880  0.2376920  )
         4           F   tau(   4) = (  0.1120970  0.3664120  0.7623080  )
         5           F   tau(   5) = (  0.7623080  0.1120970  0.3664120  )
         6           F   tau(   6) = (  0.2376920  0.8879030  0.6335880  )
         7           F   tau(   7) = (  0.6335880  0.2376920  0.8879030  )
         8           F   tau(   8) = (  0.3664120  0.7623080  0.1120970  )

     number of k points=    14
                       cart. coord. in units 2pi/alat
        k(    1) = (   0.0000000   0.0000000   0.0000000), wk =   0.0740741
        k(    2) = (   0.0000000   0.0000000   0.4303726), wk =   0.1481481
        k(    3) = (   0.0000000   0.4017990  -0.1542015), wk =   0.1481481
        k(    4) = (   0.0000000   0.4017990   0.2761711), wk =   0.1481481
        k(    5) = (   0.0000000   0.4017990  -0.5845740), wk =   0.1481481
        k(    6) = (   0.3333333  -0.2243464  -0.1542015), wk =   0.1481481
        k(    7) = (   0.3333333  -0.2243464   0.2761711), wk =   0.1481481
        k(    8) = (   0.3333333  -0.2243464  -0.5845740), wk =   0.1481481
        k(    9) = (   0.3333333   0.1774526  -0.3084030), wk =   0.1481481
        k(   10) = (   0.3333333   0.1774526   0.1219696), wk =   0.1481481
        k(   11) = (   0.3333333   0.1774526  -0.7387755), wk =   0.1481481
        k(   12) = (   0.3333333  -0.6261454   0.0000000), wk =   0.1481481
        k(   13) = (   0.3333333  -0.6261454   0.4303726), wk =   0.1481481
        k(   14) = (   0.3333333  -0.6261454  -0.4303726), wk =   0.1481481

                       cryst. coord.
        k(    1) = (   0.0000000   0.0000000   0.0000000), wk =   0.0740741
        k(    2) = (   0.0000000   0.0000000   0.3333333), wk =   0.1481481
        k(    3) = (   0.0000000   0.3333333   0.0000000), wk =   0.1481481
        k(    4) = (   0.0000000   0.3333333   0.3333333), wk =   0.1481481
        k(    5) = (   0.0000000   0.3333333  -0.3333333), wk =   0.1481481
        k(    6) = (   0.3333333   0.0000000   0.0000000), wk =   0.1481481
        k(    7) = (   0.3333333   0.0000000   0.3333333), wk =   0.1481481
        k(    8) = (   0.3333333   0.0000000  -0.3333333), wk =   0.1481481
        k(    9) = (   0.3333333   0.3333333   0.0000000), wk =   0.1481481
        k(   10) = (   0.3333333   0.3333333   0.3333333), wk =   0.1481481
        k(   11) = (   0.3333333   0.3333333  -0.3333333), wk =   0.1481481
        k(   12) = (   0.3333333  -0.3333333  -0.0000000), wk =   0.1481481
        k(   13) = (   0.3333333  -0.3333333   0.3333333), wk =   0.1481481
        k(   14) = (   0.3333333  -0.3333333  -0.3333333), wk =   0.1481481

     Check: negative core charge=   -0.000005

     Initial potential from superposition of free atoms

     starting charge      68.9990, renormalised to      70.0000

     negative rho (up, down):  1.560E-03 0.000E+00
     Starting wfcs are   44 randomized atomic wfcs +   20 random wfcs

     Self-consistent Calculation

     iteration #  1     ecut=    30.00 Ry     beta= 0.70
     Davidson diagonalization with overlap

     ethr =  1.00E-02,  avg # of iterations =  6.0

     negative rho (up, down):  2.309E-04 0.000E+00

     total energy              =    -598.73606835 Ry
     estimated scf accuracy    <       7.70144801 Ry

[...]

     total energy              =    -604.50797012 Ry
     estimated scf accuracy    <       0.00001416 Ry

     iteration # 45     ecut=    30.00 Ry     beta= 0.70
     Davidson diagonalization with overlap

     ethr =  4.78E-09,  avg # of iterations =  1.0

     negative rho (up, down):  1.485E-03 0.000E+00

     End of self-consistent calculation

          k = 0.0000 0.0000 0.0000 (  2109 PWs)   bands (ev):

   -66.4538 -56.3100 -37.8487 -37.7749 -37.7748 -30.4028 -30.3582 -30.3582
   -18.8238 -18.3928 -18.3926 -18.1621 -18.1312 -18.1311  -1.9262  -1.7930
    -1.7929  -0.9088  -0.8655  -0.8655  -0.7222  -0.7221  -0.4745   0.5160
     0.8298   0.9675   0.9675   1.1403   1.1526   1.1527   1.1780   1.1781
     5.5894   5.5981   5.5981   6.2706   6.2706   6.7338   7.4795   7.4796
     9.4473   9.4967   9.4967  15.1151  16.0004  16.6121  16.6121  17.5729
    17.9340  18.0457  18.6029  18.6030  18.7397  19.3064  19.3064  20.1292
    20.1292  24.6199  24.8262  24.8262  25.5274  27.6897  27.8422  27.8422

     occupation numbers
     1.0000   1.0000   1.0000   1.0000   1.0000   1.0000   1.0000   1.0000
     1.0000   1.0000   1.0000   1.0000   1.0000   1.0000   1.0000   1.0000
     1.0000   1.0000   1.0000   1.0000   1.0000   1.0000   1.0000   1.0000
     1.0000   1.0000   1.0000   1.0000   1.0000   1.0000   1.0000   1.0000
     1.0000   1.0000   1.0000   0.0000   0.0000   0.0000   0.0000   0.0000
     0.0000   0.0000   0.0000   0.0000   0.0000   0.0000   0.0000   0.0000
     0.0000   0.0000   0.0000   0.0000   0.0000   0.0000   0.0000   0.0000
     0.0000   0.0000   0.0000   0.0000   0.0000   0.0000   0.0000   0.0000

[...]

          k = 0.3333-0.6261-0.4304 (  2097 PWs)   bands (ev):

   -66.4538 -56.3099 -37.8495 -37.7741 -37.7732 -30.4035 -30.3591 -30.3586
   -18.5912 -18.4502 -18.3387 -18.2543 -18.2142 -18.1958  -2.0025  -1.6036
    -1.5632  -0.8610  -0.8126  -0.7131  -0.4491  -0.3359  -0.1633   0.2564
     0.4717   0.5748   0.6017   0.6838   0.8926   1.0169   1.0624   1.1825
     5.8771   5.9119   6.1299   6.1550   6.4150   6.4364   7.6182   7.6743
     8.7808   8.8986  12.3305  13.3011  13.6734  15.4913  16.2134  17.8960
    18.0021  18.4684  18.8577  19.1545  20.5628  21.1484  21.2370  22.0908
    22.5036  22.8581  23.3011  23.7267  24.2818  24.5705  25.4925  26.1763

     occupation numbers
     1.0000   1.0000   1.0000   1.0000   1.0000   1.0000   1.0000   1.0000
     1.0000   1.0000   1.0000   1.0000   1.0000   1.0000   1.0000   1.0000
     1.0000   1.0000   1.0000   1.0000   1.0000   1.0000   1.0000   1.0000
     1.0000   1.0000   1.0000   1.0000   1.0000   1.0000   1.0000   1.0000
     1.0000   1.0000   1.0000   0.0000   0.0000   0.0000   0.0000   0.0000
     0.0000   0.0000   0.0000   0.0000   0.0000   0.0000   0.0000   0.0000
     0.0000   0.0000   0.0000   0.0000   0.0000   0.0000   0.0000   0.0000
     0.0000   0.0000   0.0000   0.0000   0.0000   0.0000   0.0000   0.0000

     highest occupied, lowest unoccupied level (ev):     6.1299    6.0893

!    total energy              =    -604.50797016 Ry
     estimated scf accuracy    <       0.00000004 Ry

     The total energy is the sum of the following terms:
     one-electron contribution =    -356.72199890 Ry
     hartree contribution      =     206.98849016 Ry
     xc contribution           =     -93.63252694 Ry
     ewald contribution        =    -361.14193449 Ry

     convergence has been achieved in  45 iterations

     Writing all to output data dir calculations_bands/myprefix.save/

     General routines

     Parallel routines

   This run was terminated on:   6:10: 1   7Jun2023

   JOB DONE.