     Program PWSCF v.7.0 starts on  5Jun2023 at  3:52:46

     K-points division:     npool     =       2
     R & G space division:  proc/nbgrp/npool/nimage =       4

     Reading input from espresso_10357.pwi
Warning: card &CELL ignored
Warning: card / ignored

     Current dimensions of program PWSCF are:
     Max number of different atomic species (ntypx) = 10
     Max number of k-points (npk) =  40000
     Max angular momentum in pseudopotentials (lmaxx) =  4
     file O.pbe-n-kjpaw_psl.0.1.UPF: wavefunction(s)  2P renormalized
     Message from routine setup:
     using ibrav=0 with symmetry is DISCOURAGED, use correct ibrav instead

     Using Slab Decomposition

     bravais-lattice index     =            0
     lattice parameter (alat)  =       9.0383  a.u.
     unit-cell volume          =     932.1201 (a.u.)^3
     number of atoms/cell      =           12
     number of atomic types    =            3
     number of electrons       =       116.00
     number of Kohn-Sham states=           64
     kinetic-energy cutoff     =      30.0000  Ry
     charge density cutoff     =     240.0000  Ry
     scf convergence threshold =      1.0E-06
     mixing beta               =       0.7000
     number of iterations used =            8  plain     mixing
     Exchange-correlation= SLA  PW   PBX  PBC
                           (   1   4   3   4   0   0   0)

     celldm(1)=   9.038275  celldm(2)=   0.000000  celldm(3)=   0.000000
     celldm(4)=   0.000000  celldm(5)=   0.000000  celldm(6)=   0.000000

     crystal axes: (cart. coord. in units of alat)
               a(1) = (   1.000000   0.000000   0.000000 )
               a(2) = (  -0.039338   1.031858   0.000000 )
               a(3) = (  -0.098779  -0.005429   1.223476 )

     reciprocal axes: (cart. coord. in units 2 pi/alat)
               b(1) = (  1.000000  0.038124  0.080906 )
               b(2) = (  0.000000  0.969126  0.004300 )
               b(3) = (  0.000000  0.000000  0.817344 )

     PseudoPot. # 1 for Cu read from file:
     /home/pragov/projects/rrg-bengioy-ad/pragov/crystal_structure_design/SSSP/Cu_pbe_v1.2.uspp.F.UPF
     MD5 check sum: 6e991ff952a84172a2a52a1c1e996048
     Pseudo is Ultrasoft + core correction, Zval = 19.0
     Generated by new atomic code, or converted to UPF format
     Using radial grid of  867 points,  6 beta functions with:
                l(1) =   0
                l(2) =   0
                l(3) =   1
                l(4) =   1
                l(5) =   2
                l(6) =   2
     Q(r) pseudized with  8 coefficients,  rinner =    1.150   1.150   1.150
                                                       1.150   1.150

     PseudoPot. # 2 for Re read from file:
     /home/pragov/projects/rrg-bengioy-ad/pragov/crystal_structure_design/SSSP/Re_pbe_v1.2.uspp.F.UPF
     MD5 check sum: 85f993410f3e006da9d71c142b4ad953
     Pseudo is Ultrasoft + core correction, Zval = 15.0
     Generated by new atomic code, or converted to UPF format
     Using radial grid of  981 points,  8 beta functions with:
                l(1) =   0
                l(2) =   0
                l(3) =   1
                l(4) =   1
                l(5) =   2
                l(6) =   2
                l(7) =   3
                l(8) =   3
     Q(r) pseudized with  8 coefficients,  rinner =    1.150   1.150   1.150
                                                       1.150   1.150   1.150
                                                       1.150

     PseudoPot. # 3 for O  read from file:
     /home/pragov/projects/rrg-bengioy-ad/pragov/crystal_structure_design/SSSP/O.pbe-n-kjpaw_psl.0.1.UPF
     MD5 check sum: 0234752ac141de4415c5fc33072bef88
     Pseudo is Projector augmented-wave + core cor, Zval =  6.0
     Generated using "atomic" code by A. Dal Corso  v.5.0.99 svn rev. 10869
     Shape of augmentation charge: BESSEL
     Using radial grid of 1095 points,  4 beta functions with:
                l(1) =   0
                l(2) =   0
                l(3) =   1
                l(4) =   1
     Q(r) pseudized with 0 coefficients

     atomic species   valence    mass     pseudopotential
        Cu            19.00    63.54600     Cu( 1.00)
        Re            15.00   186.20700     Re( 1.00)
        O              6.00    15.99900     O ( 1.00)

      2 Sym. Ops., with inversion, found

                                    s                        frac. trans.

      isym =  1     identity

 cryst.   s( 1) = (     1          0          0      )
                  (     0          1          0      )
                  (     0          0          1      )

 cart.    s( 1) = (  1.0000000  0.0000000  0.0000000 )
                  (  0.0000000  1.0000000  0.0000000 )
                  (  0.0000000  0.0000000  1.0000000 )

      isym =  2     inversion

 cryst.   s( 2) = (    -1          0          0      )
                  (     0         -1          0      )
                  (     0          0         -1      )

 cart.    s( 2) = ( -1.0000000 -0.0000000 -0.0000000 )
                  (  0.0000000 -1.0000000 -0.0000000 )
                  (  0.0000000  0.0000000 -1.0000000 )

   Cartesian axes

     site n.     atom                  positions (alat units)
         1           Cu  tau(   1) = (   0.4126262   0.7722722   0.8153302  )
         2           Cu  tau(   2) = (   0.4492563   0.2541568   0.4081453  )
         3           Re  tau(   3) = (  -0.0755572   0.2568607   1.0089245  )
         4           Re  tau(   4) = (   0.9374398   0.7695683   0.2145511  )
         5           O   tau(   5) = (   0.0880611   0.9738243   1.1012834  )
         6           O   tau(   6) = (   0.1709778   0.4173427   0.7821520  )
         7           O   tau(   7) = (   0.1807576   0.4487901   0.1390615  )
         8           O   tau(   8) = (   0.1899810   0.9163099   0.4549971  )
         9           O   tau(   9) = (   0.6719015   0.1101191   0.7684785  )
        10           O   tau(  10) = (   0.6811249   0.5776389   1.0844141  )
        11           O   tau(  11) = (   0.6909048   0.6090863   0.4413235  )
        12           O   tau(  12) = (   0.7738215   0.0526047   0.1221922  )

   Crystallographic axes

     site n.     atom                  positions (cryst. coord.)
         1           Cu  tau(   1) = (  0.5080330  0.7519350  0.6664050  )
         2           Cu  tau(   2) = (  0.4919670  0.2480650  0.3335950  )
         3           Re  tau(   3) = (  0.0158630  0.2532690  0.8246380  )
         4           Re  tau(   4) = (  0.9841370  0.7467310  0.1753620  )
         5           O   tau(   5) = (  0.2142870  0.9484940  0.9001270  )
         6           O   tau(   6) = (  0.2501690  0.4078210  0.6392870  )
         7           O   tau(   7) = (  0.2091180  0.4355320  0.1136610  )
         8           O   tau(   8) = (  0.2617260  0.8899760  0.3718890  )
         9           O   tau(   9) = (  0.7382740  0.1100240  0.6281110  )
        10           O   tau(  10) = (  0.7908820  0.5644680  0.8863390  )
        11           O   tau(  11) = (  0.7498310  0.5921790  0.3607130  )
        12           O   tau(  12) = (  0.7857130  0.0515060  0.0998730  )

     number of k points=    14
                       cart. coord. in units 2pi/alat
        k(    1) = (   0.0000000   0.0000000   0.0000000), wk =   0.0740741
        k(    2) = (   0.0000000   0.0000000   0.2724479), wk =   0.1481481
        k(    3) = (   0.0000000   0.3230419   0.0014334), wk =   0.1481481
        k(    4) = (   0.0000000   0.3230419   0.2738813), wk =   0.1481481
        k(    5) = (   0.0000000   0.3230419  -0.2710144), wk =   0.1481481
        k(    6) = (   0.3333333   0.0127079   0.0269686), wk =   0.1481481
        k(    7) = (   0.3333333   0.0127079   0.2994165), wk =   0.1481481
        k(    8) = (   0.3333333   0.0127079  -0.2454793), wk =   0.1481481
        k(    9) = (   0.3333333   0.3357498   0.0284020), wk =   0.1481481
        k(   10) = (   0.3333333   0.3357498   0.3008499), wk =   0.1481481
        k(   11) = (   0.3333333   0.3357498  -0.2440459), wk =   0.1481481
        k(   12) = (   0.3333333  -0.3103340   0.0255351), wk =   0.1481481
        k(   13) = (   0.3333333  -0.3103340   0.2979830), wk =   0.1481481
        k(   14) = (   0.3333333  -0.3103340  -0.2469128), wk =   0.1481481

                       cryst. coord.
        k(    1) = (   0.0000000   0.0000000   0.0000000), wk =   0.0740741
        k(    2) = (   0.0000000   0.0000000   0.3333333), wk =   0.1481481
        k(    3) = (   0.0000000   0.3333333   0.0000000), wk =   0.1481481
        k(    4) = (   0.0000000   0.3333333   0.3333333), wk =   0.1481481
        k(    5) = (   0.0000000   0.3333333  -0.3333333), wk =   0.1481481
        k(    6) = (   0.3333333  -0.0000000  -0.0000000), wk =   0.1481481
        k(    7) = (   0.3333333  -0.0000000   0.3333333), wk =   0.1481481
        k(    8) = (   0.3333333  -0.0000000  -0.3333333), wk =   0.1481481
        k(    9) = (   0.3333333   0.3333333  -0.0000000), wk =   0.1481481
        k(   10) = (   0.3333333   0.3333333   0.3333333), wk =   0.1481481
        k(   11) = (   0.3333333   0.3333333  -0.3333333), wk =   0.1481481
        k(   12) = (   0.3333333  -0.3333333  -0.0000000), wk =   0.1481481
        k(   13) = (   0.3333333  -0.3333333   0.3333333), wk =   0.1481481
        k(   14) = (   0.3333333  -0.3333333  -0.3333333), wk =   0.1481481

     Check: negative core charge=   -0.000012

     Initial potential from superposition of free atoms

     starting charge     112.9999, renormalised to     116.0000

     negative rho (up, down):  2.666E-01 0.000E+00
     Starting wfcs are   84 randomized atomic wfcs
     Checking if some PAW data can be deallocated...

     Self-consistent Calculation

     iteration #  1     ecut=    30.00 Ry     beta= 0.70
     Davidson diagonalization with overlap

     ethr =  1.00E-02,  avg # of iterations =  2.0

     negative rho (up, down):  3.132E-01 0.000E+00

     total energy              =   -1517.01250828 Ry
     estimated scf accuracy    <       7.08915286 Ry

[...]

     total energy              =   -1521.55421853 Ry
     estimated scf accuracy    <       0.00000170 Ry

     iteration # 15     ecut=    30.00 Ry     beta= 0.70
     Davidson diagonalization with overlap

     ethr =  1.47E-09,  avg # of iterations =  4.7

     negative rho (up, down):  2.779E-01 0.000E+00

     End of self-consistent calculation

          k = 0.0000 0.0000 0.0000 (  2573 PWs)   bands (ev):

  -101.1100-101.1094 -72.4191 -72.4144 -58.5828 -58.5819 -58.5120 -58.5114
   -58.4440 -58.4438 -34.3366 -34.3337 -34.2741 -34.2395 -34.2217 -34.1545
   -10.1444  -8.9731  -8.9149  -8.8439  -8.7549  -8.6487  -8.3357  -8.1082
     2.1890   2.5290   2.8054   3.1003   3.3023   3.5998   3.8845   4.1722
     4.2942   4.5735   4.7693   5.2855   5.4558   5.6290   6.0009   6.1511
     6.3425   6.4810   6.6868   7.0505   7.2368   7.3071   7.8198   7.8712
     8.8459   8.8886   8.9685   8.9827   9.1178   9.2363   9.3239   9.4386
     9.8000  10.0724  11.0842  11.2507  11.4939  11.6348  11.9696  12.3650

     occupation numbers
     1.0000   1.0000   1.0000   1.0000   1.0000   1.0000   1.0000   1.0000
     1.0000   1.0000   1.0000   1.0000   1.0000   1.0000   1.0000   1.0000
     1.0000   1.0000   1.0000   1.0000   1.0000   1.0000   1.0000   1.0000
     1.0000   1.0000   1.0000   1.0000   1.0000   1.0000   1.0000   1.0000
     1.0000   1.0000   1.0000   1.0000   1.0000   1.0000   1.0000   1.0000
     1.0000   1.0000   1.0000   1.0000   1.0000   1.0000   1.0000   1.0000
     1.0000   1.0000   1.0000   1.0000   1.0000   1.0000   1.0000   1.0000
     1.0000   1.0000   0.0000   0.0000   0.0000   0.0000   0.0000   0.0000

[...]

          k = 0.3333-0.3103-0.2469 (  2582 PWs)   bands (ev):

  -101.1098-101.1097 -72.4180 -72.4156 -58.5833 -58.5824 -58.5121 -58.5101
   -58.4461 -58.4428 -34.3398 -34.3310 -34.2809 -34.2452 -34.2128 -34.1520
    -9.6246  -9.1293  -9.0938  -8.9291  -8.7540  -8.6873  -8.3587  -8.2240
     2.3969   2.6364   2.7551   3.2578   3.2910   3.6095   3.7741   4.0577
     4.3107   4.6239   4.8709   5.0592   5.3440   5.8922   6.0368   6.1719
     6.2867   6.5656   6.7052   6.8825   6.9551   7.3361   7.4107   7.6187
     8.8713   8.9798   9.0999   9.1484   9.2544   9.2998   9.4267   9.5954
     9.6889   9.9921  10.8895  11.2953  11.3405  11.7048  11.9312  12.0734

     occupation numbers
     1.0000   1.0000   1.0000   1.0000   1.0000   1.0000   1.0000   1.0000
     1.0000   1.0000   1.0000   1.0000   1.0000   1.0000   1.0000   1.0000
     1.0000   1.0000   1.0000   1.0000   1.0000   1.0000   1.0000   1.0000
     1.0000   1.0000   1.0000   1.0000   1.0000   1.0000   1.0000   1.0000
     1.0000   1.0000   1.0000   1.0000   1.0000   1.0000   1.0000   1.0000
     1.0000   1.0000   1.0000   1.0000   1.0000   1.0000   1.0000   1.0000
     1.0000   1.0000   1.0000   1.0000   1.0000   1.0000   1.0000   1.0000
     1.0000   1.0000   0.0000   0.0000   0.0000   0.0000   0.0000   0.0000

     highest occupied, lowest unoccupied level (ev):    10.3365   10.7854

!    total energy              =   -1521.55421878 Ry
     estimated scf accuracy    <       0.00000031 Ry

     The total energy is the sum of the following terms:
     one-electron contribution =    -886.41504037 Ry
     hartree contribution      =     500.59606174 Ry
     xc contribution           =    -241.45980151 Ry
     ewald contribution        =    -818.03997653 Ry
     one-center paw contrib.   =     -76.23546210 Ry
      -> PAW hartree energy AE =       0.00000000 Ry
      -> PAW hartree energy PS =       0.00000000 Ry
      -> PAW xc energy AE      =       0.00000000 Ry
      -> PAW xc energy PS      =       0.00000000 Ry
      -> total E_H with PAW    =     500.59606174 Ry
      -> total E_XC with PAW   =    -241.45980151 Ry

     convergence has been achieved in  15 iterations

     Writing all to output data dir calculations_bands/myprefix.save/

     General routines

     Parallel routines

     PAW routines

   This run was terminated on:   3:55: 7   5Jun2023

   JOB DONE.