     Program PWSCF v.7.0 starts on  6Jun2023 at  9:40:41

     K-points division:     npool     =       2
     R & G space division:  proc/nbgrp/npool/nimage =       4

     Reading input from espresso_16155.pwi
Warning: card &CELL ignored
Warning: card / ignored

     Current dimensions of program PWSCF are:
     Max number of different atomic species (ntypx) = 10
     Max number of k-points (npk) =  40000
     Max angular momentum in pseudopotentials (lmaxx) =  4
     file O.pbe-n-kjpaw_psl.0.1.UPF: wavefunction(s)  2P renormalized
     Message from routine setup:
     using ibrav=0 with symmetry is DISCOURAGED, use correct ibrav instead

     Using Slab Decomposition

     bravais-lattice index     =            0
     lattice parameter (alat)  =      13.3077  a.u.
     unit-cell volume          =    1210.9423 (a.u.)^3
     number of atoms/cell      =           15
     number of atomic types    =            3
     number of electrons       =       120.00
     number of Kohn-Sham states=           64
     kinetic-energy cutoff     =      30.0000  Ry
     charge density cutoff     =     240.0000  Ry
     scf convergence threshold =      1.0E-06
     mixing beta               =       0.7000
     number of iterations used =            8  plain     mixing
     Exchange-correlation= SLA  PW   PBX  PBC
                           (   1   4   3   4   0   0   0)

     celldm(1)=  13.307658  celldm(2)=   0.000000  celldm(3)=   0.000000
     celldm(4)=   0.000000  celldm(5)=   0.000000  celldm(6)=   0.000000

     crystal axes: (cart. coord. in units of alat)
               a(1) = (   1.000000   0.000000   0.000000 )
               a(2) = (   0.893030   0.449997   0.000000 )
               a(3) = (   0.205008   0.048733   1.141849 )

     reciprocal axes: (cart. coord. in units 2 pi/alat)
               b(1) = (  1.000000 -1.984523 -0.094843 )
               b(2) = (  0.000000  2.222235 -0.094843 )
               b(3) = (  0.000000  0.000000  0.875773 )

     PseudoPot. # 1 for Hf read from file:
     /home/pragov/projects/rrg-bengioy-ad/pragov/crystal_structure_design/SSSP/Hf-sp.oncvpsp.upf
     MD5 check sum: 417ed15784afe83d2e06dacf143de3f8
     Pseudo is Norm-conserving + core correction, Zval = 12.0
     Generated using ONCVPSP code by D. R. Hamann
     Using radial grid of 1656 points,  8 beta functions with:
                l(1) =   0
                l(2) =   0
                l(3) =   1
                l(4) =   1
                l(5) =   2
                l(6) =   2
                l(7) =   3
                l(8) =   3

     PseudoPot. # 2 for N  read from file:
     /home/pragov/projects/rrg-bengioy-ad/pragov/crystal_structure_design/SSSP/N.pbe-n-radius_5.UPF
     MD5 check sum: 16739722b17309cd8fe442a2ace49922
     Pseudo is Ultrasoft + core correction, Zval =  5.0
     Generated using "atomic" code by A. Dal Corso  v.5.1
     Using radial grid of 1085 points,  4 beta functions with:
                l(1) =   0
                l(2) =   0
                l(3) =   1
                l(4) =   1
     Q(r) pseudized with 0 coefficients

     PseudoPot. # 3 for O  read from file:
     /home/pragov/projects/rrg-bengioy-ad/pragov/crystal_structure_design/SSSP/O.pbe-n-kjpaw_psl.0.1.UPF
     MD5 check sum: 0234752ac141de4415c5fc33072bef88
     Pseudo is Projector augmented-wave + core cor, Zval =  6.0
     Generated using "atomic" code by A. Dal Corso  v.5.0.99 svn rev. 10869
     Shape of augmentation charge: BESSEL
     Using radial grid of 1095 points,  4 beta functions with:
                l(1) =   0
                l(2) =   0
                l(3) =   1
                l(4) =   1
     Q(r) pseudized with 0 coefficients

     atomic species   valence    mass     pseudopotential
        Hf            12.00   178.49000     Hf( 1.00)
        N              5.00    14.00700     N ( 1.00)
        O              6.00    15.99900     O ( 1.00)

      2 Sym. Ops., with inversion, found

                                    s                        frac. trans.

      isym =  1     identity

 cryst.   s( 1) = (     1          0          0      )
                  (     0          1          0      )
                  (     0          0          1      )

 cart.    s( 1) = (  1.0000000 -0.0000000  0.0000000 )
                  (  0.0000000  1.0000000  0.0000000 )
                  (  0.0000000  0.0000000  1.0000000 )

      isym =  2     inversion

 cryst.   s( 2) = (    -1          0          0      )
                  (     0         -1          0      )
                  (     0          0         -1      )

 cart.    s( 2) = ( -1.0000000  0.0000000 -0.0000000 )
                  (  0.0000000 -1.0000000 -0.0000000 )
                  (  0.0000000  0.0000000 -1.0000000 )

   Cartesian axes

     site n.     atom                  positions (alat units)
         1           Hf  tau(   1) = (   2.0015883   0.4758030   0.9236768  )
         2           Hf  tau(   2) = (   0.7992346   0.1899882   0.5419751  )
         3           Hf  tau(   3) = (   0.6023281   0.1431811   0.1510392  )
         4           Hf  tau(   4) = (   1.4957103   0.3555494   0.9908096  )
         5           Hf  tau(   5) = (   1.2988038   0.3087422   0.5998737  )
         6           Hf  tau(   6) = (   0.0964501   0.0229274   0.2181719  )
         7           N   tau(   7) = (   1.0145784   0.2411782   0.7497938  )
         8           N   tau(   8) = (   1.7655583   0.4196957   1.1011201  )
         9           N   tau(   9) = (   1.7118545   0.4069296   0.3259430  )
        10           N   tau(  10) = (   0.3861838   0.0918008   0.8159057  )
        11           N   tau(  11) = (   0.3324801   0.0790347   0.0407286  )
        12           N   tau(  12) = (   1.0834600   0.2575522   0.3920549  )
        13           O   tau(  13) = (   1.6223922   0.3856633   0.7049923  )
        14           O   tau(  14) = (   0.4756461   0.1130671   0.4368565  )
        15           O   tau(  15) = (   0.9465150   0.2249987   0.0000000  )

   Crystallographic axes

     site n.     atom                  positions (cryst. coord.)
         1           Hf  tau(   1) = (  0.9697420  0.9697420  0.8089310  )
         2           Hf  tau(   2) = (  0.3707960  0.3707960  0.4746470  )
         3           Hf  tau(   3) = (  0.3038570  0.3038570  0.1322760  )
         4           Hf  tau(   4) = (  0.6961430  0.6961430  0.8677240  )
         5           Hf  tau(   5) = (  0.6292040  0.6292040  0.5253530  )
         6           Hf  tau(   6) = (  0.0302580  0.0302580  0.1910690  )
         7           N   tau(   7) = (  0.4648420  0.4648420  0.6566490  )
         8           N   tau(   8) = (  0.8282290  0.8282290  0.9643310  )
         9           N   tau(   9) = (  0.8733800  0.8733800  0.2854520  )
        10           N   tau(  10) = (  0.1266200  0.1266200  0.7145480  )
        11           N   tau(  11) = (  0.1717710  0.1717710  0.0356690  )
        12           N   tau(  12) = (  0.5351580  0.5351580  0.3433510  )
        13           O   tau(  13) = (  0.7901710  0.7901710  0.6174130  )
        14           O   tau(  14) = (  0.2098290  0.2098290  0.3825870  )
        15           O   tau(  15) = (  0.5000000  0.5000000  0.0000000  )

     number of k points=    14
                       cart. coord. in units 2pi/alat
        k(    1) = (   0.0000000   0.0000000   0.0000000), wk =   0.0740741
        k(    2) = (   0.0000000   0.0000000   0.2919242), wk =   0.1481481
        k(    3) = (   0.0000000   0.7407452  -0.0316144), wk =   0.1481481
        k(    4) = (   0.0000000   0.7407452   0.2603099), wk =   0.1481481
        k(    5) = (   0.0000000   0.7407452  -0.3235386), wk =   0.1481481
        k(    6) = (   0.3333333  -0.6615076  -0.0316144), wk =   0.1481481
        k(    7) = (   0.3333333  -0.6615076   0.2603099), wk =   0.1481481
        k(    8) = (   0.3333333  -0.6615076  -0.3235386), wk =   0.1481481
        k(    9) = (   0.3333333   0.0792376  -0.0632287), wk =   0.1481481
        k(   10) = (   0.3333333   0.0792376   0.2286955), wk =   0.1481481
        k(   11) = (   0.3333333   0.0792376  -0.3551530), wk =   0.1481481
        k(   12) = (   0.3333333  -1.4022527   0.0000000), wk =   0.1481481
        k(   13) = (   0.3333333  -1.4022527   0.2919242), wk =   0.1481481
        k(   14) = (   0.3333333  -1.4022527  -0.2919242), wk =   0.1481481

                       cryst. coord.
        k(    1) = (   0.0000000   0.0000000   0.0000000), wk =   0.0740741
        k(    2) = (   0.0000000   0.0000000   0.3333333), wk =   0.1481481
        k(    3) = (   0.0000000   0.3333333  -0.0000000), wk =   0.1481481
        k(    4) = (   0.0000000   0.3333333   0.3333333), wk =   0.1481481
        k(    5) = (   0.0000000   0.3333333  -0.3333333), wk =   0.1481481
        k(    6) = (   0.3333333  -0.0000000  -0.0000000), wk =   0.1481481
        k(    7) = (   0.3333333  -0.0000000   0.3333333), wk =   0.1481481
        k(    8) = (   0.3333333  -0.0000000  -0.3333333), wk =   0.1481481
        k(    9) = (   0.3333333   0.3333333  -0.0000000), wk =   0.1481481
        k(   10) = (   0.3333333   0.3333333   0.3333333), wk =   0.1481481
        k(   11) = (   0.3333333   0.3333333  -0.3333333), wk =   0.1481481
        k(   12) = (   0.3333333  -0.3333333  -0.0000000), wk =   0.1481481
        k(   13) = (   0.3333333  -0.3333333   0.3333333), wk =   0.1481481
        k(   14) = (   0.3333333  -0.3333333  -0.3333333), wk =   0.1481481

     Check: negative core charge=   -0.000006

     Initial potential from superposition of free atoms

     starting charge     119.9888, renormalised to     120.0000
     Starting wfcs are   96 randomized atomic wfcs
     Checking if some PAW data can be deallocated...

     Self-consistent Calculation

     iteration #  1     ecut=    30.00 Ry     beta= 0.70
     Davidson diagonalization with overlap

     ethr =  1.00E-02,  avg # of iterations =  2.0

     total energy              =    -921.17445203 Ry
     estimated scf accuracy    <       6.21774755 Ry

[...]

     total energy              =    -924.30427363 Ry
     estimated scf accuracy    <       0.00000659 Ry

     iteration # 13     ecut=    30.00 Ry     beta= 0.70
     Davidson diagonalization with overlap

     ethr =  5.49E-09,  avg # of iterations =  4.0

     End of self-consistent calculation

          k = 0.0000 0.0000 0.0000 (  3373 PWs)   bands (ev):

   -48.1322 -48.1287 -47.8257 -47.8077 -47.6224 -47.6142 -17.0708 -17.0239
   -17.0235 -16.8275 -16.7543 -16.7511 -16.7478 -16.7373 -16.7207 -16.5679
   -16.5362 -16.4558 -16.3971 -16.3911 -16.3892 -16.3714 -16.2728 -16.2634
    -4.9361  -4.6974  -4.4538  -0.7408   0.0595   0.1176   0.2856   0.6871
     1.0505   7.5944   7.9874   8.0313   8.3331   8.5701   9.0474   9.0636
     9.1420   9.1586   9.4867   9.5176   9.7921  10.0785  10.1922  10.3498
    10.4837  10.8510  11.1891  11.3064  11.5585  11.7899  11.8497  11.9533
    12.2190  12.6246  12.8230  13.0183  15.3714  15.7747  15.9188  16.4626

     occupation numbers
     1.0000   1.0000   1.0000   1.0000   1.0000   1.0000   1.0000   1.0000
     1.0000   1.0000   1.0000   1.0000   1.0000   1.0000   1.0000   1.0000
     1.0000   1.0000   1.0000   1.0000   1.0000   1.0000   1.0000   1.0000
     1.0000   1.0000   1.0000   1.0000   1.0000   1.0000   1.0000   1.0000
     1.0000   1.0000   1.0000   1.0000   1.0000   1.0000   1.0000   1.0000
     1.0000   1.0000   1.0000   1.0000   1.0000   1.0000   1.0000   1.0000
     1.0000   1.0000   1.0000   1.0000   1.0000   1.0000   1.0000   1.0000
     1.0000   1.0000   1.0000   1.0000   0.0000   0.0000   0.0000   0.0000

[...]

          k = 0.3333-1.4023-0.2919 (  3361 PWs)   bands (ev):

   -48.1185 -48.1158 -47.8096 -47.7976 -47.6114 -47.5984 -17.0959 -17.0878
   -16.9707 -16.9471 -16.8991 -16.8681 -16.8017 -16.7948 -16.6945 -16.6394
   -16.5906 -16.5776 -16.5753 -16.5334 -16.4576 -16.4347 -16.3871 -16.3853
    -4.6467  -4.5488  -4.4046   0.0340   0.2207   0.3515   0.5820   0.7029
     0.8040   7.9397   8.0786   8.2348   8.5575   8.5764   8.7054   8.7984
     8.9625   9.1102   9.4965   9.5153   9.6382   9.8539   9.9717  10.3559
    10.6677  10.8038  10.9721  11.1599  11.2685  11.6390  11.7543  11.9151
    11.9995  12.3593  12.7185  12.7285  15.8088  15.9601  16.1664  16.9359

     occupation numbers
     1.0000   1.0000   1.0000   1.0000   1.0000   1.0000   1.0000   1.0000
     1.0000   1.0000   1.0000   1.0000   1.0000   1.0000   1.0000   1.0000
     1.0000   1.0000   1.0000   1.0000   1.0000   1.0000   1.0000   1.0000
     1.0000   1.0000   1.0000   1.0000   1.0000   1.0000   1.0000   1.0000
     1.0000   1.0000   1.0000   1.0000   1.0000   1.0000   1.0000   1.0000
     1.0000   1.0000   1.0000   1.0000   1.0000   1.0000   1.0000   1.0000
     1.0000   1.0000   1.0000   1.0000   1.0000   1.0000   1.0000   1.0000
     1.0000   1.0000   1.0000   1.0000   0.0000   0.0000   0.0000   0.0000

     highest occupied, lowest unoccupied level (ev):    13.0355   15.1533

!    total energy              =    -924.30427560 Ry
     estimated scf accuracy    <       0.00000020 Ry

     The total energy is the sum of the following terms:
     one-electron contribution =    -120.51412691 Ry
     hartree contribution      =     126.06390923 Ry
     xc contribution           =    -226.86225097 Ry
     ewald contribution        =    -674.43034301 Ry
     one-center paw contrib.   =     -28.56146394 Ry
      -> PAW hartree energy AE =       0.00000000 Ry
      -> PAW hartree energy PS =       0.00000000 Ry
      -> PAW xc energy AE      =       0.00000000 Ry
      -> PAW xc energy PS      =       0.00000000 Ry
      -> total E_H with PAW    =     126.06390923 Ry
      -> total E_XC with PAW   =    -226.86225097 Ry

     convergence has been achieved in  13 iterations

     Writing all to output data dir calculations_bands/myprefix.save/

     General routines

     Parallel routines

     PAW routines

   This run was terminated on:   9:41: 4   6Jun2023

   JOB DONE.