     Program PWSCF v.7.0 starts on  4Jun2023 at 16:47:54

     K-points division:     npool     =       2
     R & G space division:  proc/nbgrp/npool/nimage =       4

     Reading input from espresso_2607.pwi
Warning: card &CELL ignored
Warning: card / ignored

     Current dimensions of program PWSCF are:
     Max number of different atomic species (ntypx) = 10
     Max number of k-points (npk) =  40000
     Max angular momentum in pseudopotentials (lmaxx) =  4
     file Fe.pbe-spn-kjpaw_psl.0.2.1.UPF: wavefunction(s)  3D renormalized
     Message from routine setup:
     using ibrav=0 with symmetry is DISCOURAGED, use correct ibrav instead

     Using Slab Decomposition

     bravais-lattice index     =            0
     lattice parameter (alat)  =       5.6832  a.u.
     unit-cell volume          =     521.7896 (a.u.)^3
     number of atoms/cell      =            6
     number of atomic types    =            3
     number of electrons       =        60.00
     number of Kohn-Sham states=           64
     kinetic-energy cutoff     =      30.0000  Ry
     charge density cutoff     =     240.0000  Ry
     scf convergence threshold =      1.0E-06
     mixing beta               =       0.7000
     number of iterations used =            8  plain     mixing
     Exchange-correlation= PBE
                           (   1   4   3   4   0   0   0)

     celldm(1)=   5.683151  celldm(2)=   0.000000  celldm(3)=   0.000000
     celldm(4)=   0.000000  celldm(5)=   0.000000  celldm(6)=   0.000000

     crystal axes: (cart. coord. in units of alat)
               a(1) = (   1.000000   0.000000   0.000000 )
               a(2) = (  -0.500000   0.866025   0.000000 )
               a(3) = (   0.000000   0.000000   3.282447 )

     reciprocal axes: (cart. coord. in units 2 pi/alat)
               b(1) = (  1.000000  0.577351  0.000000 )
               b(2) = (  0.000000  1.154702  0.000000 )
               b(3) = (  0.000000  0.000000  0.304651 )

     PseudoPot. # 1 for Na read from file:
     /home/pragov/projects/rrg-bengioy-ad/pragov/crystal_structure_design/SSSP/na_pbe_v1.5.uspp.F.UPF
     MD5 check sum: 44600605ef58000f06b90626533354dc
     Pseudo is Ultrasoft, Zval =  9.0
     Generated by new atomic code, or converted to UPF format
     Using radial grid of  819 points,  5 beta functions with:
                l(1) =   0
                l(2) =   0
                l(3) =   1
                l(4) =   1
                l(5) =   2
     Q(r) pseudized with  8 coefficients,  rinner =    1.250   1.250   1.250
                                                       1.250   1.250

     PseudoPot. # 2 for Fe read from file:
     /home/pragov/projects/rrg-bengioy-ad/pragov/crystal_structure_design/SSSP/Fe.pbe-spn-kjpaw_psl.0.2.1.UPF
     MD5 check sum: e86618425769142926afa95317d90200
     Pseudo is Projector augmented-wave + core cor, Zval = 16.0
     Generated using "atomic" code by A. Dal Corso  v.5.0.99 svn rev. 10869
     Shape of augmentation charge: PSQ
     Using radial grid of 1191 points,  6 beta functions with:
                l(1) =   0
                l(2) =   0
                l(3) =   1
                l(4) =   1
                l(5) =   2
                l(6) =   2
     Q(r) pseudized with 0 coefficients

     PseudoPot. # 3 for N  read from file:
     /home/pragov/projects/rrg-bengioy-ad/pragov/crystal_structure_design/SSSP/N.pbe-n-radius_5.UPF
     MD5 check sum: 16739722b17309cd8fe442a2ace49922
     Pseudo is Ultrasoft + core correction, Zval =  5.0
     Generated using "atomic" code by A. Dal Corso  v.5.1
     Using radial grid of 1085 points,  4 beta functions with:
                l(1) =   0
                l(2) =   0
                l(3) =   1
                l(4) =   1
     Q(r) pseudized with 0 coefficients

     atomic species   valence    mass     pseudopotential
        Na             9.00    22.98977     Na( 1.00)
        Fe            16.00    55.84500     Fe( 1.00)
        N              5.00    14.00700     N ( 1.00)

      4 Sym. Ops. (no inversion) found ( 2 have fractional translation)

                                    s                        frac. trans.

      isym =  1     identity

 cryst.   s( 1) = (     1          0          0      )
                  (     0          1          0      )
                  (     0          0          1      )

 cart.    s( 1) = (  1.0000000 -0.0000000  0.0000000 )
                  (  0.0000000  1.0000000  0.0000000 )
                  (  0.0000000  0.0000000  1.0000000 )

      isym =  2     180 deg rotation - cart. axis [0,0,1]

 cryst.   s( 2) = (    -1          0          0      )    f =(  0.0000000 )
                  (     0         -1          0      )       ( -0.0000000 )
                  (     0          0          1      )       (  0.5000000 )

 cart.    s( 2) = ( -1.0000000  0.0000000  0.0000000 )    f =(  0.0000000 )
                  (  0.0000000 -1.0000000  0.0000000 )       ( -0.0000000 )
                  (  0.0000000  0.0000000  1.0000000 )       (  1.6412233 )

      isym =  3     inv. 180 deg rotation - cart. axis [0,1,0]

 cryst.   s( 3) = (     1          0          0      )    f =(  0.0000010 )
                  (    -1         -1          0      )       ( -0.0000000 )
                  (     0          0          1      )       (  0.5000000 )

 cart.    s( 3) = (  1.0000000  0.0000000  0.0000000 )    f =(  0.0000010 )
                  (  0.0000000 -1.0000000  0.0000000 )       ( -0.0000000 )
                  (  0.0000000  0.0000000  1.0000000 )       (  1.6412233 )

      isym =  4     inv. 180 deg rotation - cart. axis [1,0,0]

 cryst.   s( 4) = (    -1          0          0      )
                  (     1          1          0      )
                  (     0          0          1      )

 cart.    s( 4) = ( -1.0000000 -0.0000000  0.0000000 )
                  (  0.0000000  1.0000000  0.0000000 )
                  (  0.0000000  0.0000000  1.0000000 )

   Cartesian axes

     site n.     atom                  positions (alat units)
         1           Na  tau(   1) = (   0.4999995   0.2886832   2.5000294  )
         2           Na  tau(   2) = (   0.0000005   0.5773413   0.8588062  )
         3           Fe  tau(   3) = (   0.5000005   0.8660202   1.7006159  )
         4           Fe  tau(   4) = (  -0.0000005   0.0000043   0.0593926  )
         5           N   tau(   5) = (   0.0000005   0.5773448   1.8542836  )
         6           N   tau(   6) = (   0.4999995   0.2886798   0.2130603  )

   Crystallographic axes

     site n.     atom                  positions (cryst. coord.)
         1           Na  tau(   1) = (  0.6666710  0.3333430  0.7616360  )
         2           Na  tau(   2) = (  0.3333290  0.6666570  0.2616360  )
         3           Fe  tau(   3) = (  0.9999980  0.9999950  0.5180940  )
         4           Fe  tau(   4) = (  0.0000020  0.0000050  0.0180940  )
         5           N   tau(   5) = (  0.3333310  0.6666610  0.5649090  )
         6           N   tau(   6) = (  0.6666690  0.3333390  0.0649090  )

     number of k points=     8
                       cart. coord. in units 2pi/alat
        k(    1) = (   0.0000000   0.0000000   0.0000000), wk =   0.0740741
        k(    2) = (   0.0000000   0.0000000   0.1015503), wk =   0.1481481
        k(    3) = (   0.0000000   0.3849006   0.0000000), wk =   0.1481481
        k(    4) = (   0.0000000   0.3849006   0.1015503), wk =   0.2962963
        k(    5) = (   0.3333333   0.5773508   0.0000000), wk =   0.1481481
        k(    6) = (   0.3333333   0.5773508   0.1015503), wk =   0.2962963
        k(    7) = (  -0.3333333   0.1924503   0.0000000), wk =   0.2962963
        k(    8) = (  -0.3333333   0.1924503   0.1015503), wk =   0.5925926

                       cryst. coord.
        k(    1) = (   0.0000000   0.0000000   0.0000000), wk =   0.0740741
        k(    2) = (   0.0000000   0.0000000   0.3333333), wk =   0.1481481
        k(    3) = (   0.0000000   0.3333333   0.0000000), wk =   0.1481481
        k(    4) = (   0.0000000   0.3333333   0.3333333), wk =   0.2962963
        k(    5) = (   0.3333333   0.3333333   0.0000000), wk =   0.1481481
        k(    6) = (   0.3333333   0.3333333   0.3333333), wk =   0.2962963
        k(    7) = (  -0.3333333   0.3333333   0.0000000), wk =   0.2962963
        k(    8) = (  -0.3333333   0.3333333   0.3333333), wk =   0.5925926

     Check: negative core charge=   -0.000150

     Initial potential from superposition of free atoms

     starting charge      59.9865, renormalised to      60.0000
     Starting wfcs are   44 randomized atomic wfcs +   20 random wfcs
     Checking if some PAW data can be deallocated...

     Self-consistent Calculation

     iteration #  1     ecut=    30.00 Ry     beta= 0.70
     Davidson diagonalization with overlap

     ethr =  1.00E-02,  avg # of iterations =  6.6

     total energy              =    -888.28837984 Ry
     estimated scf accuracy    <       1.19320168 Ry

[...]

     total energy              =    -888.87512768 Ry
     estimated scf accuracy    <       0.00000142 Ry

     iteration #  9     ecut=    30.00 Ry     beta= 0.70
     Davidson diagonalization with overlap

     ethr =  2.36E-09,  avg # of iterations =  3.0

     End of self-consistent calculation

          k = 0.0000 0.0000 0.0000 (  1389 PWs)   bands (ev):

   -77.8895 -77.8822 -43.7668 -43.7668 -43.7560 -43.7560 -43.0920 -43.0868
   -42.9204 -42.8690 -14.9705 -14.9615 -14.9314 -14.9314 -14.9281 -14.9281
    -6.4419  -6.3850   3.8033   3.9132   3.9132   3.9154   3.9154   4.3357
     6.9744   7.6704   8.4699   8.4699   8.4741   8.4741  10.9455  11.7606
    13.4090  13.4091  13.4297  13.4297  13.5624  16.2927  17.0703  19.7243
    23.1672  25.0229  25.0230  25.8313  25.8314  26.3439  27.1471  27.1471
    27.2328  27.7735  27.7736  28.1763  28.4691  28.4692  29.1435  29.1875
    29.1876  31.1488  31.1488  32.1044  32.3351  32.3351  32.7584  33.5456

     occupation numbers
     1.0000   1.0000   1.0000   1.0000   1.0000   1.0000   1.0000   1.0000
     1.0000   1.0000   1.0000   1.0000   1.0000   1.0000   1.0000   1.0000
     1.0000   1.0000   1.0000   1.0000   1.0000   1.0000   1.0000   1.0000
     1.0000   1.0000   1.0000   1.0000   1.0000   1.0000   0.0000   0.0000
     0.0000   0.0000   0.0000   0.0000   0.0000   0.0000   0.0000   0.0000
     0.0000   0.0000   0.0000   0.0000   0.0000   0.0000   0.0000   0.0000
     0.0000   0.0000   0.0000   0.0000   0.0000   0.0000   0.0000   0.0000
     0.0000   0.0000   0.0000   0.0000   0.0000   0.0000   0.0000   0.0000

[...]

          k = 0.3333 0.5774 0.1016 (  1470 PWs)   bands (ev):

[...]

          k =-0.3333 0.1925 0.0000 (  1438 PWs)   bands (ev):

[...]

          k =-0.3333 0.1925 0.1016 (  1439 PWs)   bands (ev):

   -77.8886 -77.8877 -43.8665 -43.8564 -43.7956 -43.7942 -43.0721 -43.0711
   -42.9194 -42.9051 -15.1003 -15.0997 -14.9688 -14.9676 -14.9348 -14.9340
    -5.5010  -5.4896   3.3328   3.3632   4.8750   4.9749   4.9775   4.9947
     7.7773   8.0217   8.3215   8.3219   8.9532   9.1124  10.4992  10.5925
    11.7761  11.7808  11.8754  12.0287  15.9744  16.2722  17.2774  17.8569
    19.9176  20.3779  21.7089  21.8500  23.4149  23.5920  23.6319  23.7762
    25.7754  26.3618  26.7525  26.7525  28.0076  29.2672  31.4120  31.8429
    32.1856  32.4706  33.3396  34.5832  34.7870  35.7568  35.9917  37.9452

     occupation numbers
     1.0000   1.0000   1.0000   1.0000   1.0000   1.0000   1.0000   1.0000
     1.0000   1.0000   1.0000   1.0000   1.0000   1.0000   1.0000   1.0000
     1.0000   1.0000   1.0000   1.0000   1.0000   1.0000   1.0000   1.0000
     1.0000   1.0000   1.0000   1.0000   1.0000   1.0000   0.0000   0.0000
     0.0000   0.0000   0.0000   0.0000   0.0000   0.0000   0.0000   0.0000
     0.0000   0.0000   0.0000   0.0000   0.0000   0.0000   0.0000   0.0000
     0.0000   0.0000   0.0000   0.0000   0.0000   0.0000   0.0000   0.0000
     0.0000   0.0000   0.0000   0.0000   0.0000   0.0000   0.0000   0.0000

     highest occupied, lowest unoccupied level (ev):     9.1743    9.6370

!    total energy              =    -888.87512862 Ry
     estimated scf accuracy    <       0.00000005 Ry

     The total energy is the sum of the following terms:
     one-electron contribution =    -506.82932802 Ry
     hartree contribution      =     276.87688213 Ry
     xc contribution           =    -108.97240903 Ry
     ewald contribution        =    -397.79811364 Ry
     one-center paw contrib.   =    -152.15216007 Ry
      -> PAW hartree energy AE =       0.00000000 Ry
      -> PAW hartree energy PS =       0.00000000 Ry
      -> PAW xc energy AE      =       0.00000000 Ry
      -> PAW xc energy PS      =       0.00000000 Ry
      -> total E_H with PAW    =     276.87688213 Ry
      -> total E_XC with PAW   =    -108.97240903 Ry

     convergence has been achieved in   9 iterations

     Writing all to output data dir calculations_bands/myprefix.save/

     General routines

     Parallel routines

     PAW routines

   This run was terminated on:  16:48: 2   4Jun2023

   JOB DONE.