     Program PWSCF v.7.0 starts on  6Jun2023 at 14:32:44

     K-points division:     npool     =       2
     R & G space division:  proc/nbgrp/npool/nimage =       4

     Reading input from espresso_16976.pwi
Warning: card &CELL ignored
Warning: card / ignored

     Current dimensions of program PWSCF are:
     Max number of different atomic species (ntypx) = 10
     Max number of k-points (npk) =  40000
     Max angular momentum in pseudopotentials (lmaxx) =  4
     file O.pbe-n-kjpaw_psl.0.1.UPF: wavefunction(s)  2P renormalized
     Message from routine setup:
     using ibrav=0 with symmetry is DISCOURAGED, use correct ibrav instead

     Using Slab Decomposition

     bravais-lattice index     =            0
     lattice parameter (alat)  =      10.2695  a.u.
     unit-cell volume          =    1180.6659 (a.u.)^3
     number of atoms/cell      =           14
     number of atomic types    =            4
     number of electrons       =        96.00
     number of Kohn-Sham states=           64
     kinetic-energy cutoff     =      30.0000  Ry
     charge density cutoff     =     240.0000  Ry
     scf convergence threshold =      1.0E-06
     mixing beta               =       0.7000
     number of iterations used =            8  plain     mixing
     Exchange-correlation= SLA  PW   PBX  PBC
                           (   1   4   3   4   0   0   0)

     celldm(1)=  10.269494  celldm(2)=   0.000000  celldm(3)=   0.000000
     celldm(4)=   0.000000  celldm(5)=   0.000000  celldm(6)=   0.000000

     crystal axes: (cart. coord. in units of alat)
               a(1) = (   1.000000   0.000000   0.000000 )
               a(2) = (   0.000000   0.933334   0.000000 )
               a(3) = (   0.000000   0.904141   1.167999 )

     reciprocal axes: (cart. coord. in units 2 pi/alat)
               b(1) = (  1.000000  0.000000  0.000000 )
               b(2) = (  0.000000  1.071427 -0.829385 )
               b(3) = (  0.000000  0.000000  0.856165 )

     PseudoPot. # 1 for Li read from file:
     /home/pragov/projects/rrg-bengioy-ad/pragov/crystal_structure_design/SSSP/li_pbe_v1.4.uspp.F.UPF
     MD5 check sum: e912e257baa3777c20ea3d68f190483c
     Pseudo is Ultrasoft, Zval =  3.0
     Generated by new atomic code, or converted to UPF format
     Using radial grid of  751 points,  5 beta functions with:
                l(1) =   0
                l(2) =   0
                l(3) =   0
                l(4) =   1
                l(5) =   1
     Q(r) pseudized with 10 coefficients,  rinner =    1.150   1.150   1.150

     PseudoPot. # 2 for Co read from file:
     /home/pragov/projects/rrg-bengioy-ad/pragov/crystal_structure_design/SSSP/Co_pbe_v1.2.uspp.F.UPF
     MD5 check sum: 5f91765df6ddd3222702df6e7b74a16d
     Pseudo is Ultrasoft + core correction, Zval = 17.0
     Generated by new atomic code, or converted to UPF format
     Using radial grid of  863 points,  6 beta functions with:
                l(1) =   0
                l(2) =   0
                l(3) =   1
                l(4) =   1
                l(5) =   2
                l(6) =   2
     Q(r) pseudized with  8 coefficients,  rinner =    1.200   1.200   1.200
                                                       1.200   1.200

     PseudoPot. # 3 for Si read from file:
     /home/pragov/projects/rrg-bengioy-ad/pragov/crystal_structure_design/SSSP/Si.pbe-n-rrkjus_psl.1.0.0.UPF
     MD5 check sum: 0b0bb1205258b0d07b9f9672cf965d36
     Pseudo is Ultrasoft + core correction, Zval =  4.0
     Generated using "atomic" code by A. Dal Corso  v.5.1
     Using radial grid of 1141 points,  6 beta functions with:
                l(1) =   0
                l(2) =   0
                l(3) =   1
                l(4) =   1
                l(5) =   2
                l(6) =   2
     Q(r) pseudized with 0 coefficients

     PseudoPot. # 4 for O  read from file:
     /home/pragov/projects/rrg-bengioy-ad/pragov/crystal_structure_design/SSSP/O.pbe-n-kjpaw_psl.0.1.UPF
     MD5 check sum: 0234752ac141de4415c5fc33072bef88
     Pseudo is Projector augmented-wave + core cor, Zval =  6.0
     Generated using "atomic" code by A. Dal Corso  v.5.0.99 svn rev. 10869
     Shape of augmentation charge: BESSEL
     Using radial grid of 1095 points,  4 beta functions with:
                l(1) =   0
                l(2) =   0
                l(3) =   1
                l(4) =   1
     Q(r) pseudized with 0 coefficients

     atomic species   valence    mass     pseudopotential
        Li             3.00     6.94000     Li( 1.00)
        Co            17.00    58.93319     Co( 1.00)
        Si             4.00    28.08500     Si( 1.00)
        O              6.00    15.99900     O ( 1.00)

      2 Sym. Ops. (no inversion) found ( 1 have fractional translation)

                                    s                        frac. trans.

      isym =  1     identity

 cryst.   s( 1) = (     1          0          0      )
                  (     0          1          0      )
                  (     0          0          1      )

 cart.    s( 1) = (  1.0000000  0.0000000  0.0000000 )
                  (  0.0000000  1.0000000 -0.0000000 )
                  (  0.0000000  0.0000000  1.0000000 )

      isym =  2     inv. 180 deg rotation - cart. axis [1,0,0]

 cryst.   s( 2) = (    -1          0          0      )    f =(  0.0000000 )
                  (     0          1          0      )       ( -0.0000000 )
                  (     0          0          1      )       ( -0.5000000 )

 cart.    s( 2) = ( -1.0000000  0.0000000  0.0000000 )    f =(  0.0000000 )
                  (  0.0000000  1.0000000 -0.0000000 )       ( -0.4520704 )
                  (  0.0000000  0.0000000  1.0000000 )       ( -0.5839997 )

   Cartesian axes

     site n.     atom                  positions (alat units)
         1           Li  tau(   1) = (   0.1564720   0.9082807   0.8582320  )
         2           Li  tau(   2) = (   0.8435280   0.4562103   0.2742322  )
         3           Co  tau(   3) = (   0.6808440   0.9024696   1.1568952  )
         4           Co  tau(   4) = (   0.3191560   0.4503992   0.5728955  )
         5           Si  tau(   5) = (   0.1801760   0.9177345   0.2767084  )
         6           Si  tau(   6) = (   0.8198240   1.3698050   0.8607081  )
         7           O   tau(   7) = (   0.1714530   0.6173434   0.3137971  )
         8           O   tau(   8) = (   0.7198220   1.4937079   1.1179565  )
         9           O   tau(   9) = (   0.6524330   0.4982531   0.6146445  )
        10           O   tau(  10) = (   0.0990290   1.4790763   0.8161875  )
        11           O   tau(  11) = (   0.8285470   1.0694139   0.8977968  )
        12           O   tau(  12) = (   0.2801780   1.0416374   0.5339568  )
        13           O   tau(  13) = (   0.3475670   0.0461826   0.0306448  )
        14           O   tau(  14) = (   0.9009710   1.0270058   0.2321878  )

   Crystallographic axes

     site n.     atom                  positions (cryst. coord.)
         1           Li  tau(   1) = (  0.1564720  0.2613520  0.7347880  )
         2           Li  tau(   2) = (  0.8435280  0.2613520  0.2347880  )
         3           Co  tau(   3) = (  0.6808440  0.0074190  0.9904930  )
         4           Co  tau(   4) = (  0.3191560  0.0074190  0.4904930  )
         5           Si  tau(   5) = (  0.1801760  0.7537880  0.2369080  )
         6           Si  tau(   6) = (  0.8198240  0.7537880  0.7369080  )
         7           O   tau(   7) = (  0.1714530  0.4011800  0.2686620  )
         8           O   tau(   8) = (  0.7198220  0.6731830  0.9571550  )
         9           O   tau(   9) = (  0.6524330  0.0240650  0.5262370  )
        10           O   tau(  10) = (  0.0990290  0.9077890  0.6987910  )
        11           O   tau(  11) = (  0.8285470  0.4011800  0.7686620  )
        12           O   tau(  12) = (  0.2801780  0.6731830  0.4571550  )
        13           O   tau(  13) = (  0.3475670  0.0240650  0.0262370  )
        14           O   tau(  14) = (  0.9009710  0.9077890  0.1987910  )

     number of k points=    10
                       cart. coord. in units 2pi/alat
        k(    1) = (   0.0000000   0.0000000   0.0000000), wk =   0.0740741
        k(    2) = (   0.0000000   0.0000000   0.2853883), wk =   0.1481481
        k(    3) = (   0.0000000   0.3571424  -0.2764617), wk =   0.1481481
        k(    4) = (   0.0000000   0.3571424   0.0089266), wk =   0.1481481
        k(    5) = (   0.0000000   0.3571424  -0.5618499), wk =   0.1481481
        k(    6) = (   0.3333333   0.0000000   0.0000000), wk =   0.1481481
        k(    7) = (   0.3333333   0.0000000   0.2853883), wk =   0.2962963
        k(    8) = (   0.3333333   0.3571424  -0.2764617), wk =   0.2962963
        k(    9) = (   0.3333333   0.3571424   0.0089266), wk =   0.2962963
        k(   10) = (   0.3333333   0.3571424  -0.5618499), wk =   0.2962963

                       cryst. coord.
        k(    1) = (   0.0000000   0.0000000   0.0000000), wk =   0.0740741
        k(    2) = (   0.0000000   0.0000000   0.3333333), wk =   0.1481481
        k(    3) = (   0.0000000   0.3333333   0.0000000), wk =   0.1481481
        k(    4) = (   0.0000000   0.3333333   0.3333333), wk =   0.1481481
        k(    5) = (   0.0000000   0.3333333  -0.3333333), wk =   0.1481481
        k(    6) = (   0.3333333   0.0000000   0.0000000), wk =   0.1481481
        k(    7) = (   0.3333333   0.0000000   0.3333333), wk =   0.2962963
        k(    8) = (   0.3333333   0.3333333   0.0000000), wk =   0.2962963
        k(    9) = (   0.3333333   0.3333333   0.3333333), wk =   0.2962963
        k(   10) = (   0.3333333   0.3333333  -0.3333333), wk =   0.2962963

     Check: negative core charge=   -0.000016

     Initial potential from superposition of free atoms

     starting charge      93.0974, renormalised to      96.0000
     Starting wfcs are   76 randomized atomic wfcs
     Checking if some PAW data can be deallocated...

     Self-consistent Calculation

     iteration #  1     ecut=    30.00 Ry     beta= 0.70
     Davidson diagonalization with overlap

     ethr =  1.00E-02,  avg # of iterations =  3.8

     total energy              =    -966.05959318 Ry
     estimated scf accuracy    <      21.21871188 Ry

[...]

     total energy              =    -982.11429932 Ry
     estimated scf accuracy    <       0.00000739 Ry

     iteration # 16     ecut=    30.00 Ry     beta= 0.70
     Davidson diagonalization with overlap

     ethr =  7.70E-09,  avg # of iterations =  2.0

     End of self-consistent calculation

          k = 0.0000 0.0000 0.0000 (  3279 PWs)   bands (ev):

   -90.6417 -90.6415 -54.2209 -54.2189 -53.7712 -53.7705 -53.6800 -53.6798
   -39.3988 -39.3987 -15.3092 -14.9399 -14.0526 -13.8551 -13.7918 -13.7533
   -13.7314 -13.6742  -3.0496  -2.8558  -1.5332  -1.2301  -1.0792  -1.0705
    -0.8357  -0.7970   0.1517   0.3010   0.3287   0.5008   0.5621   0.8662
     0.9300   1.1703   1.3423   1.3567   1.4693   1.6316   2.0119   2.1774
     2.3449   2.7909   4.2297   4.2352   4.2756   4.4015   4.7325   4.9966
     5.0564   5.0891   5.2289   5.3438   8.1779  12.0782  12.3002  12.5290
    12.6366  13.2843  13.3257  13.3744  13.6684  14.4307  14.5108  14.5744

     occupation numbers
     1.0000   1.0000   1.0000   1.0000   1.0000   1.0000   1.0000   1.0000
     1.0000   1.0000   1.0000   1.0000   1.0000   1.0000   1.0000   1.0000
     1.0000   1.0000   1.0000   1.0000   1.0000   1.0000   1.0000   1.0000
     1.0000   1.0000   1.0000   1.0000   1.0000   1.0000   1.0000   1.0000
     1.0000   1.0000   1.0000   1.0000   1.0000   1.0000   1.0000   1.0000
     1.0000   1.0000   1.0000   1.0000   1.0000   1.0000   1.0000   1.0000
     0.0000   0.0000   0.0000   0.0000   0.0000   0.0000   0.0000   0.0000
     0.0000   0.0000   0.0000   0.0000   0.0000   0.0000   0.0000   0.0000

[...]

          k = 0.3333 0.3571-0.5618 (  3280 PWs)   bands (ev):

   -90.6417 -90.6415 -54.2218 -54.2211 -53.7711 -53.7689 -53.6805 -53.6797
   -39.3989 -39.3987 -15.0783 -14.9987 -14.0387 -13.9511 -13.8491 -13.7920
   -13.7512 -13.7087  -2.9329  -2.8834  -1.5076  -1.2981  -1.0562  -1.0036
    -0.9194  -0.8057  -0.0741   0.2016   0.4112   0.5065   0.5692   0.7139
     1.0162   1.2045   1.3692   1.4406   1.5011   1.7732   2.0328   2.3008
     2.4367   2.7775   4.0888   4.1457   4.2216   4.3069   4.8408   4.9246
     5.0981   5.1568   5.2392   5.2939  10.2888  11.0766  11.7635  11.9582
    12.3194  12.6138  12.8925  13.1323  13.9704  14.1255  14.7484  15.1038

     occupation numbers
     1.0000   1.0000   1.0000   1.0000   1.0000   1.0000   1.0000   1.0000
     1.0000   1.0000   1.0000   1.0000   1.0000   1.0000   1.0000   1.0000
     1.0000   1.0000   1.0000   1.0000   1.0000   1.0000   1.0000   1.0000
     1.0000   1.0000   1.0000   1.0000   1.0000   1.0000   1.0000   1.0000
     1.0000   1.0000   1.0000   1.0000   1.0000   1.0000   1.0000   1.0000
     1.0000   1.0000   1.0000   1.0000   1.0000   1.0000   1.0000   1.0000
     0.0000   0.0000   0.0000   0.0000   0.0000   0.0000   0.0000   0.0000
     0.0000   0.0000   0.0000   0.0000   0.0000   0.0000   0.0000   0.0000

     highest occupied, lowest unoccupied level (ev):     5.0198    5.0226

!    total energy              =    -982.11430036 Ry
     estimated scf accuracy    <       0.00000062 Ry

     The total energy is the sum of the following terms:
     one-electron contribution =    -724.77223694 Ry
     hartree contribution      =     399.45951502 Ry
     xc contribution           =    -144.17006013 Ry
     ewald contribution        =    -436.47974087 Ry
     one-center paw contrib.   =     -76.15177745 Ry
      -> PAW hartree energy AE =       0.00000000 Ry
      -> PAW hartree energy PS =       0.00000000 Ry
      -> PAW xc energy AE      =       0.00000000 Ry
      -> PAW xc energy PS      =       0.00000000 Ry
      -> total E_H with PAW    =     399.45951502 Ry
      -> total E_XC with PAW   =    -144.17006013 Ry

     convergence has been achieved in  16 iterations

     Writing all to output data dir calculations_bands/myprefix.save/

     General routines

     Parallel routines

     PAW routines

   This run was terminated on:  14:33: 5   6Jun2023

   JOB DONE.