     Program PWSCF v.7.0 starts on  3Jun2023 at  1:52: 7

     Reading input from espresso_155.pwi
Warning: card &CELL ignored
Warning: card / ignored

     Current dimensions of program PWSCF are:
     Max number of different atomic species (ntypx) = 10
     Max number of k-points (npk) =  40000
     Max angular momentum in pseudopotentials (lmaxx) =  4
     Message from routine setup:
     using ibrav=0 with symmetry is DISCOURAGED, use correct ibrav instead

     Subspace diagonalization in iterative solution of the eigenvalue problem:
     a serial algorithm will be used

     Using Slab Decomposition

     bravais-lattice index     =            0
     lattice parameter (alat)  =      12.5965  a.u.
     unit-cell volume          =     941.2649 (a.u.)^3
     number of atoms/cell      =            4
     number of atomic types    =            2
     number of electrons       =        54.00
     number of Kohn-Sham states=           64
     kinetic-energy cutoff     =      30.0000  Ry
     charge density cutoff     =     240.0000  Ry
     scf convergence threshold =      1.0E-06
     mixing beta               =       0.7000
     number of iterations used =            8  plain     mixing
     Exchange-correlation=  SLA  PW   PBX  PBC
                           (   1   4   3   4   0   0   0)

     celldm(1)=  12.596525  celldm(2)=   0.000000  celldm(3)=   0.000000
     celldm(4)=   0.000000  celldm(5)=   0.000000  celldm(6)=   0.000000

     crystal axes: (cart. coord. in units of alat)
               a(1) = (   1.000000   0.000000   0.000000 )
               a(2) = (   0.446188   0.894939   0.000000 )
               a(3) = (  -0.723094  -0.447470   0.526218 )

     reciprocal axes: (cart. coord. in units 2 pi/alat)
               b(1) = (  1.000000 -0.498568  0.950176 )
               b(2) = (  0.000000  1.117394  0.950176 )
               b(3) = (  0.000000  0.000000  1.900351 )

     PseudoPot. # 1 for Hg read from file:
     /home/pragov/projects/rrg-bengioy-ad/pragov/crystal_structure_design/SSSP/Hg_ONCV_PBE-1.0.oncvpsp.upf
     MD5 check sum: dd5a8773074bfcf4280086d4d95875c4
     Pseudo is Norm-conserving, Zval = 20.0
     Generated using ONCVPSP code by D. R. Hamann
     Using radial grid of 1262 points,  8 beta functions with:
                l(1) =   0
                l(2) =   0
                l(3) =   1
                l(4) =   1
                l(5) =   2
                l(6) =   2
                l(7) =   3
                l(8) =   3

     PseudoPot. # 2 for Br read from file:
     /home/pragov/projects/rrg-bengioy-ad/pragov/crystal_structure_design/SSSP/br_pbe_v1.4.uspp.F.UPF
     MD5 check sum: d3ffb7b29f6225aa16fe06858fb2a80b
     Pseudo is Ultrasoft + core correction, Zval =  7.0
     Generated by new atomic code, or converted to UPF format
     Using radial grid of  879 points,  6 beta functions with:
                l(1) =   0
                l(2) =   0
                l(3) =   1
                l(4) =   1
                l(5) =   2
                l(6) =   2
     Q(r) pseudized with  8 coefficients,  rinner =    1.100   1.100   1.100
                                                       1.100   1.100

     atomic species   valence    mass     pseudopotential
        Hg            20.00   200.59200     Hg( 1.00)
        Br             7.00    79.90400     Br( 1.00)

      4 Sym. Ops., with inversion, found

                                    s                        frac. trans.

      isym =  1     identity

 cryst.   s( 1) = (     1          0          0      )
                  (     0          1          0      )
                  (     0          0          1      )

 cart.    s( 1) = (  1.0000000  0.0000000 -0.0000000 )
                  (  0.0000000  1.0000000 -0.0000000 )
                  (  0.0000000  0.0000000  1.0000000 )

      isym =  2     180 deg rotation - cart. axis [0,0,1]

[...]

      isym =  3     inversion

[...]

      isym =  4     inv. 180 deg rotation - cart. axis [0,0,1]

 cryst.   s( 4) = (     1          0          0      )
                  (     0          1          0      )
                  (    -1         -1         -1      )

 cart.    s( 4) = (  1.0000000  0.0000000  0.0000000 )
                  (  0.0000000  1.0000000  0.0000000 )
                  (  0.0000000  0.0000000 -1.0000000 )

   Cartesian axes

     site n.     atom                  positions (alat units)
         1           Hg  tau(   1) = (   1.2785099   0.7911754   0.0000000  )
         2           Hg  tau(   2) = (   0.1676783   0.1037637   0.0000000  )
         3           Br  tau(   3) = (   0.9498622   0.5877996   0.0000000  )
         4           Br  tau(   4) = (   0.4963260   0.3071395   0.0000000  )

   Crystallographic axes

     site n.     atom                  positions (cryst. coord.)
         1           Hg  tau(   1) = (  0.8840550  0.8840550  0.0000000  )
         2           Hg  tau(   2) = (  0.1159450  0.1159450  0.0000000  )
         3           Br  tau(   3) = (  0.6568040  0.6568040  0.0000000  )
         4           Br  tau(   4) = (  0.3431960  0.3431960  0.0000000  )

     number of k points=    10
                       cart. coord. in units 2pi/alat
        k(    1) = (   0.0000000   0.0000000   0.0000000), wk =   0.0740741
        k(    2) = (   0.0000000   0.0000000   0.6334505), wk =   0.1481481
        k(    3) = (   0.0000000   0.3724648   0.3167252), wk =   0.2962963
        k(    4) = (   0.0000000   0.3724648   0.9501757), wk =   0.1481481
        k(    5) = (   0.3333333  -0.1661894   0.3167252), wk =   0.2962963
        k(    6) = (   0.3333333  -0.1661894   0.9501757), wk =   0.1481481
        k(    7) = (   0.3333333   0.2062754   0.6334505), wk =   0.2962963
        k(    8) = (   0.3333333   0.2062754   0.0000000), wk =   0.1481481
        k(    9) = (   0.3333333  -0.5386542  -0.0000000), wk =   0.1481481
        k(   10) = (   0.3333333  -0.5386542   0.6334505), wk =   0.2962963

                       cryst. coord.
        k(    1) = (   0.0000000   0.0000000   0.0000000), wk =   0.0740741
        k(    2) = (   0.0000000   0.0000000   0.3333333), wk =   0.1481481
        k(    3) = (   0.0000000   0.3333333   0.0000000), wk =   0.2962963
        k(    4) = (   0.0000000   0.3333333   0.3333333), wk =   0.1481481
        k(    5) = (   0.3333333   0.0000000  -0.0000000), wk =   0.2962963
        k(    6) = (   0.3333333   0.0000000   0.3333333), wk =   0.1481481
        k(    7) = (   0.3333333   0.3333333   0.0000000), wk =   0.2962963
        k(    8) = (   0.3333333   0.3333333  -0.3333333), wk =   0.1481481
        k(    9) = (   0.3333333  -0.3333333   0.0000000), wk =   0.1481481
        k(   10) = (   0.3333333  -0.3333333   0.3333333), wk =   0.2962963

     Check: negative core charge=   -0.000001

     Initial potential from superposition of free atoms

     starting charge      53.9998, renormalised to      54.0000
     Starting wfcs are   28 randomized atomic wfcs +   36 random wfcs

     Self-consistent Calculation

     iteration #  1     ecut=    30.00 Ry     beta= 0.70
     Davidson diagonalization with overlap

     ethr =  1.00E-02,  avg # of iterations =  7.2

     Threshold (ethr) on eigenvalues was too large:
     Diagonalizing with lowered threshold

     Davidson diagonalization with overlap

[...]

     total energy              =    -713.55736717 Ry
     estimated scf accuracy    <       0.24084109 Ry

[...]

     total energy              =    -713.66919108 Ry
     estimated scf accuracy    <       0.00000240 Ry

     iteration #  7     ecut=    30.00 Ry     beta= 0.70
     Davidson diagonalization with overlap

     ethr =  4.44E-09,  avg # of iterations =  2.0

     End of self-consistent calculation

          k = 0.0000 0.0000 0.0000 (  2599 PWs)   bands (ev):

  -110.4212-110.4160 -58.4344 -58.3255 -58.2155 -58.2154 -58.2076 -58.2076
    -9.5251  -9.1201  -2.5607  -1.4840  -1.4840  -0.9359  -0.8848  -0.7796
    -0.7216  -0.6875  -0.6875  -0.5355   1.1883   1.6355   1.9181   2.8731
     2.8731   3.3063   3.3063   7.2545   9.6390   9.6390  10.7627  11.5749
    12.4107  12.8201  12.8201  14.1032  14.4864  14.6083  16.9591  16.9591
    17.0042  17.0042  17.1554  17.8969  18.4471  19.1087  19.6948  20.2585
    20.2585  20.3328  21.0015  23.3100  23.3100  24.1005  24.1005  24.2800
    25.6892  26.0603  26.0603  26.1190  26.3216  27.4132  29.0679  29.2365

     occupation numbers
     1.0000   1.0000   1.0000   1.0000   1.0000   1.0000   1.0000   1.0000
     1.0000   1.0000   1.0000   1.0000   1.0000   1.0000   1.0000   1.0000
     1.0000   1.0000   1.0000   1.0000   1.0000   1.0000   1.0000   1.0000
     1.0000   1.0000   1.0000   0.0000   0.0000   0.0000   0.0000   0.0000
     0.0000   0.0000   0.0000   0.0000   0.0000   0.0000   0.0000   0.0000
     0.0000   0.0000   0.0000   0.0000   0.0000   0.0000   0.0000   0.0000
     0.0000   0.0000   0.0000   0.0000   0.0000   0.0000   0.0000   0.0000
     0.0000   0.0000   0.0000   0.0000   0.0000   0.0000   0.0000   0.0000

[...]

          k = 0.3333-0.5387 0.6335 (  2618 PWs)   bands (ev):

  -110.4211-110.4161 -58.4500 -58.3310 -58.2135 -58.2119 -58.2105 -58.2087
    -9.3197  -9.2937  -2.5559  -1.6086  -1.5903  -0.9149  -0.9086  -0.8106
    -0.7975  -0.7270  -0.5806  -0.5665   0.4213   1.4541   2.5969   2.8734
     3.5263   3.6148   3.7491   7.2407   8.4668   9.7303   9.9808  10.5476
    11.2535  12.7801  13.2084  13.9682  15.4543  16.1974  16.7324  17.2009
    17.5609  17.7992  18.3452  18.7464  19.0105  19.0860  19.1122  19.1133
    20.4820  20.9509  23.1610  23.6067  23.6660  24.4996  24.6301  24.9223
    24.9928  25.1286  25.3584  26.4107  26.6145  26.9840  27.0306  27.2103

     occupation numbers
     1.0000   1.0000   1.0000   1.0000   1.0000   1.0000   1.0000   1.0000
     1.0000   1.0000   1.0000   1.0000   1.0000   1.0000   1.0000   1.0000
     1.0000   1.0000   1.0000   1.0000   1.0000   1.0000   1.0000   1.0000
     1.0000   1.0000   1.0000   0.0000   0.0000   0.0000   0.0000   0.0000
     0.0000   0.0000   0.0000   0.0000   0.0000   0.0000   0.0000   0.0000
     0.0000   0.0000   0.0000   0.0000   0.0000   0.0000   0.0000   0.0000
     0.0000   0.0000   0.0000   0.0000   0.0000   0.0000   0.0000   0.0000
     0.0000   0.0000   0.0000   0.0000   0.0000   0.0000   0.0000   0.0000

     highest occupied, lowest unoccupied level (ev):     3.9100    6.2242

!    total energy              =    -713.66919166 Ry
     estimated scf accuracy    <       0.00000008 Ry

     The total energy is the sum of the following terms:
     one-electron contribution =    -491.36510719 Ry
     hartree contribution      =     246.35160678 Ry
     xc contribution           =    -106.98194125 Ry
     ewald contribution        =    -361.67375000 Ry

     convergence has been achieved in   7 iterations

     Writing all to output data dir calculations_bands/myprefix.save/

     General routines

     Parallel routines

   This run was terminated on:   1:54:26   3Jun2023

   JOB DONE.