     Program PWSCF v.7.0 starts on  7Jun2023 at  2:37:42

     K-points division:     npool     =       2
     R & G space division:  proc/nbgrp/npool/nimage =       4

     Reading input from espresso_1311.pwi
Warning: card &CELL ignored
Warning: card / ignored

     Current dimensions of program PWSCF are:
     Max number of different atomic species (ntypx) = 10
     Max number of k-points (npk) =  40000
     Max angular momentum in pseudopotentials (lmaxx) =  4
     Message from routine setup:
     using ibrav=0 with symmetry is DISCOURAGED, use correct ibrav instead

     Using Slab Decomposition

     bravais-lattice index     =            0
     lattice parameter (alat)  =      16.3948  a.u.
     unit-cell volume          =     892.9070 (a.u.)^3
     number of atoms/cell      =            6
     number of atomic types    =            2
     number of electrons       =        92.00
     number of Kohn-Sham states=           64
     kinetic-energy cutoff     =      30.0000  Ry
     charge density cutoff     =     240.0000  Ry
     scf convergence threshold =      1.0E-06
     mixing beta               =       0.7000
     number of iterations used =            8  plain     mixing
     Exchange-correlation=  SLA  PW   PBX  PBC
                           (   1   4   3   4   0   0   0)

     celldm(1)=  16.394813  celldm(2)=   0.000000  celldm(3)=   0.000000
     celldm(4)=   0.000000  celldm(5)=   0.000000  celldm(6)=   0.000000

     crystal axes: (cart. coord. in units of alat)
               a(1) = (   1.000000   0.000000   0.000000 )
               a(2) = (   0.785555   0.618791   0.000000 )
               a(3) = (  -0.892778  -0.309396   0.327448 )

     reciprocal axes: (cart. coord. in units 2 pi/alat)
               b(1) = (  1.000000 -1.269500  1.526959 )
               b(2) = (  0.000000  1.616054  1.526959 )
               b(3) = (  0.000000  0.000000  3.053918 )

     PseudoPot. # 1 for Gd read from file:
     /home/pragov/projects/rrg-bengioy-ad/pragov/crystal_structure_design/SSSP/Gd.GGA-PBE-paw-v1.0.UPF
     MD5 check sum: 3e8e0d208da550914ae52eaf991d13de
     Pseudo is Projector augmented-wave + core cor, Zval = 18.0
     Generated using ATOMPAW code
     Shape of augmentation charge: BESSEL
     Using radial grid of 1110 points,  8 beta functions with:
                l(1) =   0
                l(2) =   0
                l(3) =   1
                l(4) =   1
                l(5) =   2
                l(6) =   2
                l(7) =   3
                l(8) =   3
     Q(r) pseudized with 0 coefficients

     PseudoPot. # 2 for Ge read from file:
     /home/pragov/projects/rrg-bengioy-ad/pragov/crystal_structure_design/SSSP/ge_pbe_v1.4.uspp.F.UPF
     MD5 check sum: 9c9eaa91e581c3f09632fb3098b2c6b2
     Pseudo is Ultrasoft + core correction, Zval = 14.0
     Generated by new atomic code, or converted to UPF format
     Using radial grid of  873 points,  6 beta functions with:
                l(1) =   0
                l(2) =   0
                l(3) =   1
                l(4) =   1
                l(5) =   2
                l(6) =   2
     Q(r) pseudized with  8 coefficients,  rinner =    1.400   1.400   1.400
                                                       1.400   1.400

     atomic species   valence    mass     pseudopotential
        Gd            18.00   157.25000     Gd( 1.00)
        Ge            14.00    72.63000     Ge( 1.00)

      4 Sym. Ops., with inversion, found ( 2 have fractional translation)

                                    s                        frac. trans.

      isym =  1     identity

 cryst.   s( 1) = (     1          0          0      )
                  (     0          1          0      )
                  (     0          0          1      )

 cart.    s( 1) = (  1.0000000  0.0000000 -0.0000000 )
                  (  0.0000000  1.0000000  0.0000000 )
                  (  0.0000000  0.0000000  1.0000000 )

      isym =  2     180 deg rotation - cart. axis [0,0,1]

 cryst.   s( 2) = (    -1          0          0      )
                  (     0         -1          0      )
                  (     1          1          1      )

 cart.    s( 2) = ( -1.0000000 -0.0000000  0.0000000 )
                  (  0.0000000 -1.0000000  0.0000000 )
                  (  0.0000000  0.0000000  1.0000000 )

      isym =  3     inversion

 cryst.   s( 3) = (    -1          0          0      )    f =(  0.2500000 )
                  (     0         -1          0      )       ( -0.2500000 )
                  (     0          0         -1      )       ( -0.5000000 )

 cart.    s( 3) = ( -1.0000000 -0.0000000  0.0000000 )    f =(  0.5000000 )
                  (  0.0000000 -1.0000000 -0.0000000 )       ( -0.0000000 )
                  (  0.0000000  0.0000000 -1.0000000 )       ( -0.1637241 )

      isym =  4     inv. 180 deg rotation - cart. axis [0,0,1]

 cryst.   s( 4) = (     1          0          0      )    f =(  0.2500000 )
                  (     0          1          0      )       ( -0.2500000 )
                  (    -1         -1         -1      )       ( -0.5000000 )

 cart.    s( 4) = (  1.0000000  0.0000000 -0.0000000 )    f =(  0.5000000 )
                  (  0.0000000  1.0000000 -0.0000000 )       ( -0.0000000 )
                  (  0.0000000  0.0000000 -1.0000000 )       ( -0.1637241 )

   Cartesian axes

     site n.     atom                  positions (alat units)
         1           Gd  tau(   1) = (   0.5000000   0.0000000   0.1637241  )
         2           Gd  tau(   2) = (   0.0000000   0.0000000   0.0000000  )
         3           Ge  tau(   3) = (   0.2527812   0.2608794   0.1637241  )
         4           Ge  tau(   4) = (   1.0327742   0.3579120   0.0000000  )
         5           Ge  tau(   5) = (   0.5327742   0.3579120   0.1637241  )
         6           Ge  tau(   6) = (   0.7527812   0.2608794   0.0000000  )

   Crystallographic axes

     site n.     atom                  positions (cryst. coord.)
         1           Gd  tau(   1) = (  0.7500000  0.2500000  0.5000000  )
         2           Gd  tau(   2) = (  0.0000000  0.0000000  0.0000000  )
         3           Ge  tau(   3) = (  0.1715950  0.6715950  0.5000000  )
         4           Ge  tau(   4) = (  0.5784050  0.5784050  0.0000000  )
         5           Ge  tau(   5) = (  0.3284050  0.8284050  0.5000000  )
         6           Ge  tau(   6) = (  0.4215950  0.4215950  0.0000000  )

     number of k points=    10
                       cart. coord. in units 2pi/alat
        k(    1) = (   0.0000000   0.0000000   0.0000000), wk =   0.0740741
        k(    2) = (   0.0000000   0.0000000   1.0179727), wk =   0.1481481
        k(    3) = (   0.0000000   0.5386845   0.5089864), wk =   0.2962963
        k(    4) = (   0.0000000   0.5386845   1.5269591), wk =   0.1481481
        k(    5) = (   0.3333333  -0.4231665   0.5089864), wk =   0.2962963
        k(    6) = (   0.3333333  -0.4231665   1.5269591), wk =   0.1481481
        k(    7) = (   0.3333333   0.1155180   1.0179727), wk =   0.2962963
        k(    8) = (   0.3333333   0.1155180  -0.0000000), wk =   0.1481481
        k(    9) = (   0.3333333  -0.9618510   0.0000000), wk =   0.1481481
        k(   10) = (   0.3333333  -0.9618510   1.0179727), wk =   0.2962963

                       cryst. coord.
        k(    1) = (   0.0000000   0.0000000   0.0000000), wk =   0.0740741
        k(    2) = (   0.0000000   0.0000000   0.3333333), wk =   0.1481481
        k(    3) = (   0.0000000   0.3333333   0.0000000), wk =   0.2962963
        k(    4) = (   0.0000000   0.3333333   0.3333333), wk =   0.1481481
        k(    5) = (   0.3333333   0.0000000  -0.0000000), wk =   0.2962963
        k(    6) = (   0.3333333   0.0000000   0.3333333), wk =   0.1481481
        k(    7) = (   0.3333333   0.3333333  -0.0000000), wk =   0.2962963
        k(    8) = (   0.3333333   0.3333333  -0.3333333), wk =   0.1481481
        k(    9) = (   0.3333333  -0.3333333  -0.0000000), wk =   0.1481481
        k(   10) = (   0.3333333  -0.3333333   0.3333333), wk =   0.2962963

     Check: negative core charge=   -0.000001

     Initial potential from superposition of free atoms

     starting charge      91.9862, renormalised to      92.0000
     Starting wfcs are  100 randomized atomic wfcs
     Checking if some PAW data can be deallocated...

     Self-consistent Calculation

     iteration #  1     ecut=    30.00 Ry     beta= 0.70
     Davidson diagonalization with overlap

     ethr =  1.00E-02,  avg # of iterations =  2.2

     total energy              =   -2200.29736208 Ry
     estimated scf accuracy    <      17.89892900 Ry

[...]

     total energy              =   -2221.67074069 Ry
     estimated scf accuracy    <       0.00000163 Ry

     iteration # 54     ecut=    30.00 Ry     beta= 0.70
     Davidson diagonalization with overlap

     ethr =  1.77E-09,  avg # of iterations =  1.0

     End of self-consistent calculation

          k = 0.0000 0.0000 0.0000 (  2471 PWs)   bands (ev):

   -30.1535 -30.1513 -12.4953 -12.4938 -12.4937 -12.4050 -12.3713 -12.3512
   -12.3512 -12.3435 -12.3404 -12.3358 -12.3292 -12.2922 -12.2921 -12.2486
   -12.2482 -12.2405 -12.2404 -12.2378 -12.2315 -12.2308  -8.2510  -8.1403
    -8.0970  -8.0965  -8.0963  -8.0958   0.4933   2.2611   3.4051   8.6375
     8.7940  10.1241  10.1247  10.9369  10.9382  11.8890  11.9188  11.9582
    11.9585  11.9775  11.9788  12.0340  12.0431  12.0576  12.0818  12.0842
    12.1412  12.1488  12.1857  12.2962  12.4093  13.1117  14.4993  14.7260
    14.7267  14.9372  14.9379  15.6630  15.9961  16.4970  16.5233  17.1728

     occupation numbers
     1.0000   1.0000   1.0000   1.0000   1.0000   1.0000   1.0000   1.0000
     1.0000   1.0000   1.0000   1.0000   1.0000   1.0000   1.0000   1.0000
     1.0000   1.0000   1.0000   1.0000   1.0000   1.0000   1.0000   1.0000
     1.0000   1.0000   1.0000   1.0000   1.0000   1.0000   1.0000   1.0000
     1.0000   1.0000   1.0000   1.0000   1.0000   1.0000   1.0000   1.0000
     1.0000   1.0000   1.0000   1.0000   1.0000   1.0000   0.0000   0.0000
     0.0000   0.0000   0.0000   0.0000   0.0000   0.0000   0.0000   0.0000
     0.0000   0.0000   0.0000   0.0000   0.0000   0.0000   0.0000   0.0000

[...]

          k = 0.3333-0.9619 1.0180 (  2478 PWs)   bands (ev):

   -30.1475 -30.1471 -12.4963 -12.4760 -12.4711 -12.4309 -12.3957 -12.3551
   -12.3452 -12.3417 -12.3360 -12.3350 -12.3046 -12.3020 -12.2933 -12.2685
   -12.2573 -12.2529 -12.2331 -12.2330 -12.2311 -12.2223  -8.2839  -8.2604
    -8.1782  -8.1617  -8.0784  -8.0683   1.5624   2.0659   4.6716   5.9931
     7.5932   9.3297   9.9038  10.1726  11.4747  11.7314  11.8750  11.8891
    11.9196  11.9616  11.9754  11.9774  12.0005  12.0203  12.1131  12.1775
    12.2125  12.2217  12.3528  12.4040  12.6067  13.1517  13.8310  14.4675
    14.7359  15.4319  15.8309  16.2729  16.3631  16.7004  16.7480  16.9504

     occupation numbers
     1.0000   1.0000   1.0000   1.0000   1.0000   1.0000   1.0000   1.0000
     1.0000   1.0000   1.0000   1.0000   1.0000   1.0000   1.0000   1.0000
     1.0000   1.0000   1.0000   1.0000   1.0000   1.0000   1.0000   1.0000
     1.0000   1.0000   1.0000   1.0000   1.0000   1.0000   1.0000   1.0000
     1.0000   1.0000   1.0000   1.0000   1.0000   1.0000   1.0000   1.0000
     1.0000   1.0000   1.0000   1.0000   1.0000   1.0000   0.0000   0.0000
     0.0000   0.0000   0.0000   0.0000   0.0000   0.0000   0.0000   0.0000
     0.0000   0.0000   0.0000   0.0000   0.0000   0.0000   0.0000   0.0000

     highest occupied, lowest unoccupied level (ev):    12.0576   12.0463

!    total energy              =   -2221.67074031 Ry
     estimated scf accuracy    <       0.00000084 Ry

     The total energy is the sum of the following terms:
     one-electron contribution =    -670.44905347 Ry
     hartree contribution      =     419.88895832 Ry
     xc contribution           =    -278.49052938 Ry
     ewald contribution        =    -760.92464596 Ry
     one-center paw contrib.   =    -931.69546983 Ry
      -> PAW hartree energy AE =     185.24693982 Ry
      -> PAW hartree energy PS =    -175.70964444 Ry
      -> PAW xc energy AE      =    -496.84789935 Ry
      -> PAW xc energy PS      =      21.46286906 Ry
      -> total E_H with PAW    =     429.42625371 Ry
      -> total E_XC with PAW   =    -753.87555967 Ry

     convergence has been achieved in  54 iterations

     Writing all to output data dir calculations_bands/myprefix.save/

     General routines

     Parallel routines

     PAW routines

   This run was terminated on:   2:39: 0   7Jun2023

   JOB DONE.