     Program PWSCF v.7.0 starts on 23Jun2023 at  5:15:47

     K-points division:     npool     =       2
     R & G space division:  proc/nbgrp/npool/nimage =       4

     Reading input from espresso_194.pwi
Warning: card &CELL ignored
Warning: card / ignored

     Current dimensions of program PWSCF are:
     Max number of different atomic species (ntypx) = 10
     Max number of k-points (npk) =  40000
     Max angular momentum in pseudopotentials (lmaxx) =  4
     file Al.pbe-n-kjpaw_psl.1.0.0.UPF: wavefunction(s)  3S 3P renormalized
     file C.pbe-n-kjpaw_psl.1.0.0.UPF: wavefunction(s)  2S 2P renormalized
     Message from routine setup:
     using ibrav=0 with symmetry is DISCOURAGED, use correct ibrav instead

     Using Slab Decomposition

     bravais-lattice index     =            0
     lattice parameter (alat)  =      15.7575  a.u.
     unit-cell volume          =    2285.5482 (a.u.)^3
     number of atoms/cell      =           18
     number of atomic types    =            3
     number of electrons       =       146.00
     number of Kohn-Sham states=           90
     kinetic-energy cutoff     =      30.0000  Ry
     charge density cutoff     =     240.0000  Ry
     scf convergence threshold =      1.0E-06
     mixing beta               =       0.7000
     number of iterations used =            8  plain     mixing
     Exchange-correlation= SLA  PW   PBX  PBC
                           (   1   4   3   4   0   0   0)

     celldm(1)=  15.757527  celldm(2)=   0.000000  celldm(3)=   0.000000
     celldm(4)=   0.000000  celldm(5)=   0.000000  celldm(6)=   0.000000

     crystal axes: (cart. coord. in units of alat)
               a(1) = (   1.000000   0.000000   0.000000 )
               a(2) = (  -0.500000   0.866025   0.000000 )
               a(3) = (   0.000000   0.000000   0.674521 )

     reciprocal axes: (cart. coord. in units 2 pi/alat)
               b(1) = (  1.000000  0.577350  0.000000 )
               b(2) = (  0.000000  1.154701  0.000000 )
               b(3) = (  0.000000  0.000000  1.482533 )

     PseudoPot. # 1 for Zr read from file:
     /home/pragov/projects/rrg-bengioy-ad/pragov/crystal_structure_design/SSSP/Zr_pbe_v1.uspp.F.UPF
     MD5 check sum: 5db81b1e868ab7776c4564c113de050b
     Pseudo is Ultrasoft + core correction, Zval = 12.0
     Generated by new atomic code, or converted to UPF format
     Using radial grid of  887 points,  6 beta functions with:
                l(1) =   0
                l(2) =   0
                l(3) =   1
                l(4) =   1
                l(5) =   2
                l(6) =   2
     Q(r) pseudized with  6 coefficients,  rinner =    1.200   1.200   1.200
                                                       1.200   1.200

     PseudoPot. # 2 for Al read from file:
     /home/pragov/projects/rrg-bengioy-ad/pragov/crystal_structure_design/SSSP/Al.pbe-n-kjpaw_psl.1.0.0.UPF
     MD5 check sum: cfc449ca30b5f3223ec38ddd88ac046d
     Pseudo is Projector augmented-wave + core cor, Zval =  3.0
     Generated using "atomic" code by A. Dal Corso  v.5.1
     Shape of augmentation charge: PSQ
     Using radial grid of 1135 points,  6 beta functions with:
                l(1) =   0
                l(2) =   0
                l(3) =   1
                l(4) =   1
                l(5) =   2
                l(6) =   2
     Q(r) pseudized with 0 coefficients

     PseudoPot. # 3 for C  read from file:
     /home/pragov/projects/rrg-bengioy-ad/pragov/crystal_structure_design/SSSP/C.pbe-n-kjpaw_psl.1.0.0.UPF
     MD5 check sum: 5d2aebdfa2cae82b50a7e79e9516da0f
     Pseudo is Projector augmented-wave + core cor, Zval =  4.0
     Generated using "atomic" code by A. Dal Corso  v.5.1
     Shape of augmentation charge: PSQ
     Using radial grid of 1073 points,  4 beta functions with:
                l(1) =   0
                l(2) =   0
                l(3) =   1
                l(4) =   1
     Q(r) pseudized with 0 coefficients

     atomic species   valence    mass     pseudopotential
        Zr            12.00    91.22400     Zr( 1.00)
        Al             3.00    26.98154     Al( 1.00)
        C              4.00    12.01100     C ( 1.00)

     24 Sym. Ops., with inversion, found (12 have fractional translation)

                                    s                        frac. trans.

      isym =  1     identity

 cryst.   s( 1) = (     1          0          0      )
                  (     0          1          0      )
                  (     0          0          1      )

 cart.    s( 1) = (  1.0000000 -0.0000000  0.0000000 )
                  (  0.0000000  1.0000000  0.0000000 )
                  (  0.0000000  0.0000000  1.0000000 )

      isym =  2     180 deg rotation - cart. axis [0,0,1]

 cryst.   s( 2) = (    -1          0          0      )    f =(  0.0000000 )
                  (     0         -1          0      )       (  0.0000000 )
                  (     0          0          1      )       (  0.5000000 )

 cart.    s( 2) = ( -1.0000000  0.0000000  0.0000000 )    f =(  0.0000000 )
                  (  0.0000000 -1.0000000  0.0000000 )       (  0.0000000 )
                  (  0.0000000  0.0000000  1.0000000 )       (  0.3372606 )

[...]

      isym =  4     180 deg rotation - cart. axis [1,0,0]

[...]

      isym =  5      60 deg rotation - cryst. axis [0,0,1]

[...]

 cryst.   s( 6) = (     0         -1          0      )    f =( -0.0000000 )
                  (     1          1          0      )       (  0.0000010 )
                  (     0          0          1      )       (  0.5000000 )

 cart.    s( 6) = (  0.5000000  0.8660254  0.0000000 )    f =( -0.0000005 )
                  ( -0.8660254  0.5000000  0.0000000 )       (  0.0000009 )
                  (  0.0000000  0.0000000  1.0000000 )       (  0.3372606 )

[...]

 cryst.   s( 9) = (     0         -1          0      )
                  (    -1          0          0      )
                  (     0          0         -1      )

 cart.    s( 9) = (  0.5000000 -0.8660254  0.0000000 )
                  ( -0.8660254 -0.5000000  0.0000000 )
                  (  0.0000000  0.0000000 -1.0000000 )

[...]

 cryst.   s(10) = (     1          1          0      )
                  (     0         -1          0      )
                  (     0          0         -1      )

 cart.    s(10) = (  0.5000000  0.8660255  0.0000000 )
                  (  0.8660254 -0.5000000  0.0000000 )
                  (  0.0000000  0.0000000 -1.0000000 )

[...]

 cryst.   s(11) = (    -1         -1          0      )    f =(  0.0000000 )
                  (     0          1          0      )       (  0.0000010 )
                  (     0          0         -1      )       ( -0.5000000 )

 cart.    s(11) = ( -0.5000000 -0.8660255  0.0000000 )    f =( -0.0000005 )
                  ( -0.8660254  0.5000000  0.0000000 )       (  0.0000009 )
                  (  0.0000000  0.0000000 -1.0000000 )       ( -0.3372606 )

      isym = 12     180 deg rotation - cryst. axis [1,1,0]

[...]

      isym = 13     inversion

[...]

      isym = 14     inv. 180 deg rotation - cart. axis [0,0,1]

[...]

      isym = 16     inv. 180 deg rotation - cart. axis [1,0,0]

[...]

      isym = 17     inv.  60 deg rotation - cryst. axis [0,0,1]

[...]

 cryst.   s(22) = (    -1         -1          0      )
                  (     0          1          0      )
                  (     0          0          1      )

 cart.    s(22) = ( -0.5000000 -0.8660255  0.0000000 )
                  ( -0.8660254  0.5000000  0.0000000 )
                  (  0.0000000  0.0000000  1.0000000 )

[...]

      isym = 24     inv. 180 deg rotation - cryst. axis [1,1,0]

 cryst.   s(24) = (     0         -1          0      )    f =( -0.0000000 )
                  (    -1          0          0      )       ( -0.0000000 )
                  (     0          0          1      )       (  0.5000000 )

 cart.    s(24) = (  0.5000000 -0.8660254  0.0000000 )    f =( -0.0000000 )
                  ( -0.8660254 -0.5000000  0.0000000 )       ( -0.0000000 )
                  (  0.0000000  0.0000000  1.0000000 )       (  0.3372606 )

   Cartesian axes

     site n.     atom                  positions (alat units)
         1           Zr  tau(   1) = (   0.5000005   0.2886748   0.0000000  )
         2           Zr  tau(   2) = (  -0.0000005   0.5773505   0.0000000  )
         3           Zr  tau(   3) = (   0.2238600   0.0000000   0.1686303  )
         4           Zr  tau(   4) = (  -0.1119300   0.1938684   0.1686303  )
         5           Zr  tau(   5) = (   0.3880700   0.6721569   0.1686303  )
         6           Zr  tau(   6) = (   0.5000005   0.2886748   0.3372606  )
         7           Zr  tau(   7) = (  -0.0000005   0.5773505   0.3372606  )
         8           Zr  tau(   8) = (   0.7761400   0.0000000   0.5058909  )
         9           Zr  tau(   9) = (   0.6119300   0.6721569   0.5058909  )
        10           Zr  tau(  10) = (   0.1119300   0.1938684   0.5058909  )
        11           Al  tau(  11) = (   0.5998380   0.0000000   0.1686303  )
        12           Al  tau(  12) = (   0.7000810   0.5194749   0.1686303  )
        13           Al  tau(  13) = (   0.2000810   0.3465504   0.1686303  )
        14           Al  tau(  14) = (   0.4001620   0.0000000   0.5058909  )
        15           Al  tau(  15) = (  -0.2000810   0.3465504   0.5058909  )
        16           Al  tau(  16) = (   0.2999190   0.5194749   0.5058909  )
        17           C   tau(  17) = (   0.0000000   0.0000000   0.0000000  )
        18           C   tau(  18) = (   0.0000000   0.0000000   0.3372606  )

   Crystallographic axes

     site n.     atom                  positions (cryst. coord.)
         1           Zr  tau(   1) = (  0.6666670  0.3333330  0.0000000  )
         2           Zr  tau(   2) = (  0.3333330  0.6666670  0.0000000  )
         3           Zr  tau(   3) = (  0.2238600  0.0000000  0.2500000  )
         4           Zr  tau(   4) = (  0.0000000  0.2238600  0.2500000  )
         5           Zr  tau(   5) = (  0.7761400  0.7761400  0.2500000  )
         6           Zr  tau(   6) = (  0.6666670  0.3333330  0.5000000  )
         7           Zr  tau(   7) = (  0.3333330  0.6666670  0.5000000  )
         8           Zr  tau(   8) = (  0.7761400  0.0000000  0.7500000  )
         9           Zr  tau(   9) = (  1.0000000  0.7761400  0.7500000  )
        10           Zr  tau(  10) = (  0.2238600  0.2238600  0.7500000  )
        11           Al  tau(  11) = (  0.5998380  0.0000000  0.2500000  )
        12           Al  tau(  12) = (  1.0000000  0.5998380  0.2500000  )
        13           Al  tau(  13) = (  0.4001620  0.4001620  0.2500000  )
        14           Al  tau(  14) = (  0.4001620  0.0000000  0.7500000  )
        15           Al  tau(  15) = ( -0.0000000  0.4001620  0.7500000  )
        16           Al  tau(  16) = (  0.5998380  0.5998380  0.7500000  )
        17           C   tau(  17) = (  0.0000000  0.0000000  0.0000000  )
        18           C   tau(  18) = (  0.0000000  0.0000000  0.5000000  )

     number of k points=     6
                       cart. coord. in units 2pi/alat
        k(    1) = (   0.0000000   0.0000000   0.0000000), wk =   0.0740741
        k(    2) = (   0.0000000   0.0000000   0.4941777), wk =   0.1481481
        k(    3) = (   0.0000000   0.3849002   0.0000000), wk =   0.4444444
        k(    4) = (   0.0000000   0.3849002   0.4941777), wk =   0.8888889
        k(    5) = (   0.3333333   0.5773503   0.0000000), wk =   0.1481481
        k(    6) = (   0.3333333   0.5773503   0.4941777), wk =   0.2962963

                       cryst. coord.
        k(    1) = (   0.0000000   0.0000000   0.0000000), wk =   0.0740741
        k(    2) = (   0.0000000   0.0000000   0.3333333), wk =   0.1481481
        k(    3) = (   0.0000000   0.3333333   0.0000000), wk =   0.4444444
        k(    4) = (   0.0000000   0.3333333   0.3333333), wk =   0.8888889
        k(    5) = (   0.3333333   0.3333333   0.0000000), wk =   0.1481481
        k(    6) = (   0.3333333   0.3333333   0.3333333), wk =   0.2962963

     Check: negative core charge=   -0.000006

     Initial potential from superposition of free atoms

     starting charge     145.9647, renormalised to     146.0000

     negative rho (up, down):  6.091E-01 0.000E+00
     Starting wfcs are  162 randomized atomic wfcs
     Checking if some PAW data can be deallocated...

     Self-consistent Calculation

     iteration #  1     ecut=    30.00 Ry     beta= 0.70
     Davidson diagonalization with overlap

     ethr =  1.00E-02,  avg # of iterations =  2.0

     negative rho (up, down):  6.206E-01 0.000E+00

     total energy              =   -1264.73184643 Ry
     estimated scf accuracy    <       2.30460184 Ry

[...]

     total energy              =   -1266.09932158 Ry
     estimated scf accuracy    <       0.00000222 Ry

     iteration # 11     ecut=    30.00 Ry     beta= 0.70
     Davidson diagonalization with overlap

     ethr =  1.52E-09,  avg # of iterations =  3.2

     negative rho (up, down):  6.290E-01 0.000E+00

     End of self-consistent calculation

          k = 0.0000 0.0000 0.0000 (  6349 PWs)   bands (ev):

   -36.5504 -36.5010 -36.5009 -36.4958 -36.4749 -36.4748 -36.4531 -36.4517
   -36.2535 -36.2533 -15.1873 -15.1830 -14.8936 -14.8336 -14.7296 -14.7176
   -14.7176 -14.6561 -14.6560 -14.6541 -14.6540 -14.5916 -14.5916 -14.5501
   -14.5334 -14.5334 -14.4432 -14.4431 -14.4180 -14.4023 -14.4022 -14.3965
   -14.3965 -14.3586 -14.3564 -14.3564 -14.3436 -14.3436 -13.6612 -13.6610
     1.6720   2.6582   4.9412   6.5192   6.5194   7.0508   7.0509   7.3245
     8.2234   8.3852   8.6734   8.6735   9.1888   9.2566   9.2566   9.6869
     9.6869   9.7340  10.2688  10.2689  10.3491  10.3493  10.7230  10.7230
    10.8587  10.9121  10.9122  11.1085  11.3083  11.3946  11.3948  11.4189
    11.8145  11.8145  11.8349  12.0865  12.0866  12.5082  13.1852  13.1852
    13.6064  14.4197  14.4197  14.5200  14.5201  14.6883  14.6883  14.9263
    14.9264  15.2620

     occupation numbers
     1.0000   1.0000   1.0000   1.0000   1.0000   1.0000   1.0000   1.0000
     1.0000   1.0000   1.0000   1.0000   1.0000   1.0000   1.0000   1.0000
     1.0000   1.0000   1.0000   1.0000   1.0000   1.0000   1.0000   1.0000
     1.0000   1.0000   1.0000   1.0000   1.0000   1.0000   1.0000   1.0000
     1.0000   1.0000   1.0000   1.0000   1.0000   1.0000   1.0000   1.0000
     1.0000   1.0000   1.0000   1.0000   1.0000   1.0000   1.0000   1.0000
     1.0000   1.0000   1.0000   1.0000   1.0000   1.0000   1.0000   1.0000
     1.0000   1.0000   1.0000   1.0000   1.0000   1.0000   1.0000   1.0000
     1.0000   1.0000   1.0000   1.0000   1.0000   1.0000   1.0000   1.0000
     1.0000   0.0000   0.0000   0.0000   0.0000   0.0000   0.0000   0.0000
     0.0000   0.0000   0.0000   0.0000   0.0000   0.0000   0.0000   0.0000
     0.0000   0.0000

[...]

          k = 0.3333 0.5774 0.4942 (  6360 PWs)   bands (ev):

   -36.5355 -36.5091 -36.4950 -36.4949 -36.4817 -36.4816 -36.4036 -36.4034
   -36.3043 -36.3041 -14.8882 -14.8515 -14.8372 -14.8371 -14.7532 -14.7532
   -14.7033 -14.7032 -14.6599 -14.5924 -14.5572 -14.5571 -14.5349 -14.5010
   -14.5009 -14.4848 -14.4478 -14.4478 -14.4381 -14.4336 -14.4121 -14.4121
   -14.4007 -14.4004 -14.4004 -14.3847 -14.3780 -14.3779 -14.0667 -14.0665
     1.9306   2.3877   5.8940   5.8942   6.5655   6.9314   7.1631   7.1633
     8.1885   8.3289   8.3289   8.8778   8.8778   9.4510   9.7973   9.7974
     9.8478  10.0277  10.1295  10.1295  10.4113  10.5971  10.5971  10.9212
    10.9213  11.0491  11.1905  11.1905  11.7347  11.7915  11.7916  12.0247
    12.0248  12.1268  12.2629  12.2999  12.3000  12.3429  13.0950  13.0950
    13.1534  13.6331  13.8887  13.8888  13.9167  14.0460  14.0460  14.5320
    14.5320  14.7462

     occupation numbers
     1.0000   1.0000   1.0000   1.0000   1.0000   1.0000   1.0000   1.0000
     1.0000   1.0000   1.0000   1.0000   1.0000   1.0000   1.0000   1.0000
     1.0000   1.0000   1.0000   1.0000   1.0000   1.0000   1.0000   1.0000
     1.0000   1.0000   1.0000   1.0000   1.0000   1.0000   1.0000   1.0000
     1.0000   1.0000   1.0000   1.0000   1.0000   1.0000   1.0000   1.0000
     1.0000   1.0000   1.0000   1.0000   1.0000   1.0000   1.0000   1.0000
     1.0000   1.0000   1.0000   1.0000   1.0000   1.0000   1.0000   1.0000
     1.0000   1.0000   1.0000   1.0000   1.0000   1.0000   1.0000   1.0000
     1.0000   1.0000   1.0000   1.0000   1.0000   1.0000   1.0000   1.0000
     1.0000   0.0000   0.0000   0.0000   0.0000   0.0000   0.0000   0.0000
     0.0000   0.0000   0.0000   0.0000   0.0000   0.0000   0.0000   0.0000
     0.0000   0.0000

     highest occupied, lowest unoccupied level (ev):    12.0248   11.8145

!    total energy              =   -1266.09932199 Ry
     estimated scf accuracy    <       0.00000006 Ry

     The total energy is the sum of the following terms:
     one-electron contribution =    -271.01731080 Ry
     hartree contribution      =     192.36338767 Ry
     xc contribution           =    -202.65132772 Ry
     ewald contribution        =    -764.25577770 Ry
     one-center paw contrib.   =    -220.53829344 Ry
      -> PAW hartree energy AE =       0.00000000 Ry
      -> PAW hartree energy PS =       0.00000000 Ry
      -> PAW xc energy AE      =       0.00000000 Ry
      -> PAW xc energy PS      =       0.00000000 Ry
      -> total E_H with PAW    =     192.36338767 Ry
      -> total E_XC with PAW   =    -202.65132772 Ry

     convergence has been achieved in  11 iterations

     Writing all to output data dir calculations_bands/myprefix.save/

     General routines

     Parallel routines

     PAW routines

   This run was terminated on:   5:16: 6  23Jun2023

   JOB DONE.