     Program PWSCF v.7.0 starts on  6Jun2023 at 13: 2:18

     K-points division:     npool     =       2
     R & G space division:  proc/nbgrp/npool/nimage =       4

     Reading input from espresso_16710.pwi
Warning: card &CELL ignored
Warning: card / ignored

     Current dimensions of program PWSCF are:
     Max number of different atomic species (ntypx) = 10
     Max number of k-points (npk) =  40000
     Max angular momentum in pseudopotentials (lmaxx) =  4
     file Ba.pbe-spn-kjpaw_psl.1.0.0.UPF: wavefunction(s)  5S 6S renormalized
     Message from routine setup:
     using ibrav=0 with symmetry is DISCOURAGED, use correct ibrav instead

     Using Slab Decomposition

     bravais-lattice index     =            0
     lattice parameter (alat)  =       9.2974  a.u.
     unit-cell volume          =    1792.7143 (a.u.)^3
     number of atoms/cell      =            8
     number of atomic types    =            3
     number of electrons       =       116.00
     number of Kohn-Sham states=           64
     kinetic-energy cutoff     =      30.0000  Ry
     charge density cutoff     =     240.0000  Ry
     scf convergence threshold =      1.0E-06
     mixing beta               =       0.7000
     number of iterations used =            8  plain     mixing
     Exchange-correlation= PBE
                           (   1   4   3   4   0   0   0)

     celldm(1)=   9.297390  celldm(2)=   0.000000  celldm(3)=   0.000000
     celldm(4)=   0.000000  celldm(5)=   0.000000  celldm(6)=   0.000000

     crystal axes: (cart. coord. in units of alat)
               a(1) = (   1.000000   0.000000   0.000000 )
               a(2) = (   0.000000   1.311248   0.000000 )
               a(3) = (   0.000000   0.027919   1.701151 )

     reciprocal axes: (cart. coord. in units 2 pi/alat)
               b(1) = (  1.000000  0.000000  0.000000 )
               b(2) = (  0.000000  0.762632 -0.012516 )
               b(3) = (  0.000000  0.000000  0.587837 )

     PseudoPot. # 1 for Ba read from file:
     /home/pragov/projects/rrg-bengioy-ad/pragov/crystal_structure_design/SSSP/Ba.pbe-spn-kjpaw_psl.1.0.0.UPF
     MD5 check sum: c432291d3e53af55f19d5e8866385beb
     Pseudo is Projector augmented-wave + core cor, Zval = 10.0
     Generated using "atomic" code by A. Dal Corso  v.5.1
     Shape of augmentation charge: PSQ
     Using radial grid of 1251 points,  7 beta functions with:
                l(1) =   0
                l(2) =   0
                l(3) =   0
                l(4) =   1
                l(5) =   1
                l(6) =   2
                l(7) =   2
     Q(r) pseudized with 0 coefficients

     PseudoPot. # 2 for Sr read from file:
     /home/pragov/projects/rrg-bengioy-ad/pragov/crystal_structure_design/SSSP/Sr_pbe_v1.uspp.F.UPF
     MD5 check sum: 6b418c05fbe9db5448babca5e47b7a5b
     Pseudo is Ultrasoft + core correction, Zval = 10.0
     Generated by new atomic code, or converted to UPF format
     Using radial grid of  883 points,  6 beta functions with:
                l(1) =   0
                l(2) =   0
                l(3) =   1
                l(4) =   1
                l(5) =   2
                l(6) =   2
     Q(r) pseudized with  6 coefficients,  rinner =    1.400   1.400   1.400
                                                       1.400   1.400

     PseudoPot. # 3 for Ag read from file:
     /home/pragov/projects/rrg-bengioy-ad/pragov/crystal_structure_design/SSSP/Ag_ONCV_PBE-1.0.oncvpsp.upf
     MD5 check sum: 94f47bd0669c641108e45594df92fabc
     Pseudo is Norm-conserving, Zval = 19.0
     Generated using ONCVPSP code by D. R. Hamann
     Using radial grid of 1398 points,  6 beta functions with:
                l(1) =   0
                l(2) =   0
                l(3) =   1
                l(4) =   1
                l(5) =   2
                l(6) =   2

     atomic species   valence    mass     pseudopotential
        Ba            10.00   137.32700     Ba( 1.00)
        Sr            10.00    87.62000     Sr( 1.00)
        Ag            19.00   107.86820     Ag( 1.00)

      2 Sym. Ops. (no inversion) found ( 1 have fractional translation)

                                    s                        frac. trans.

      isym =  1     identity

 cryst.   s( 1) = (     1          0          0      )
                  (     0          1          0      )
                  (     0          0          1      )

 cart.    s( 1) = (  1.0000000  0.0000000  0.0000000 )
                  (  0.0000000  1.0000000 -0.0000000 )
                  (  0.0000000  0.0000000  1.0000000 )

      isym =  2     inv. 180 deg rotation - cart. axis [1,0,0]

 cryst.   s( 2) = (    -1          0          0      )    f =(  0.5000000 )
                  (     0          1          0      )       (  0.0000000 )
                  (     0          0          1      )       (  0.0000000 )

 cart.    s( 2) = ( -1.0000000  0.0000000  0.0000000 )    f =(  0.5000000 )
                  (  0.0000000  1.0000000 -0.0000000 )       (  0.0000000 )
                  (  0.0000000  0.0000000  1.0000000 )       (  0.0000000 )

   Cartesian axes

     site n.     atom                  positions (alat units)
         1           Ba  tau(   1) = (   0.2500000   1.1605479   1.1554782  )
         2           Sr  tau(   2) = (   0.2500000   0.8328183   0.3059997  )
         3           Sr  tau(   3) = (   0.7500000   0.1842786   0.5375281  )
         4           Sr  tau(   4) = (   0.7500000   0.5051557   1.3983550  )
         5           Ag  tau(   5) = (   0.2500000   0.5087008   0.9043202  )
         6           Ag  tau(   6) = (   0.2500000   0.1650603   0.0672159  )
         7           Ag  tau(   7) = (   0.7500000   0.8209868   0.7814648  )
         8           Ag  tau(   8) = (   0.7500000   1.1791199   1.6542439  )

   Crystallographic axes

     site n.     atom                  positions (cryst. coord.)
         1           Ba  tau(   1) = (  0.2500000  0.8706090  0.6792330  )
         2           Sr  tau(   2) = (  0.2500000  0.6313040  0.1798780  )
         3           Sr  tau(   3) = (  0.7500000  0.1338090  0.3159790  )
         4           Sr  tau(   4) = (  0.7500000  0.3677460  0.8220050  )
         5           Ag  tau(   5) = (  0.2500000  0.3766330  0.5315930  )
         6           Ag  tau(   6) = (  0.2500000  0.1250390  0.0395120  )
         7           Ag  tau(   7) = (  0.7500000  0.6163300  0.4593740  )
         8           Ag  tau(   8) = (  0.7500000  0.8785300  0.9724260  )

     number of k points=    10
                       cart. coord. in units 2pi/alat
        k(    1) = (   0.0000000   0.0000000   0.0000000), wk =   0.0740741
        k(    2) = (   0.0000000   0.0000000   0.1959457), wk =   0.1481481
        k(    3) = (   0.0000000   0.2542107  -0.0041720), wk =   0.1481481
        k(    4) = (   0.0000000   0.2542107   0.1917737), wk =   0.1481481
        k(    5) = (   0.0000000   0.2542107  -0.2001177), wk =   0.1481481
        k(    6) = (   0.3333333   0.0000000   0.0000000), wk =   0.1481481
        k(    7) = (   0.3333333   0.0000000   0.1959457), wk =   0.2962963
        k(    8) = (   0.3333333   0.2542107  -0.0041720), wk =   0.2962963
        k(    9) = (   0.3333333   0.2542107   0.1917737), wk =   0.2962963
        k(   10) = (   0.3333333   0.2542107  -0.2001177), wk =   0.2962963

                       cryst. coord.
        k(    1) = (   0.0000000   0.0000000   0.0000000), wk =   0.0740741
        k(    2) = (   0.0000000   0.0000000   0.3333333), wk =   0.1481481
        k(    3) = (   0.0000000   0.3333333   0.0000000), wk =   0.1481481
        k(    4) = (   0.0000000   0.3333333   0.3333333), wk =   0.1481481
        k(    5) = (   0.0000000   0.3333333  -0.3333333), wk =   0.1481481
        k(    6) = (   0.3333333   0.0000000   0.0000000), wk =   0.1481481
        k(    7) = (   0.3333333   0.0000000   0.3333333), wk =   0.2962963
        k(    8) = (   0.3333333   0.3333333   0.0000000), wk =   0.2962963
        k(    9) = (   0.3333333   0.3333333   0.3333333), wk =   0.2962963
        k(   10) = (   0.3333333   0.3333333  -0.3333333), wk =   0.2962963

     Check: negative core charge=   -0.000003

     Initial potential from superposition of free atoms

     starting charge     115.8809, renormalised to     116.0000

     negative rho (up, down):  1.921E-01 0.000E+00
     Starting wfcs are   84 randomized atomic wfcs
     Checking if some PAW data can be deallocated...

     Self-consistent Calculation

     iteration #  1     ecut=    30.00 Ry     beta= 0.70
     Davidson diagonalization with overlap

     ethr =  1.00E-02,  avg # of iterations =  4.5

     Threshold (ethr) on eigenvalues was too large:
     Diagonalizing with lowered threshold

     Davidson diagonalization with overlap

[...]

     negative rho (up, down):  2.851E-01 0.000E+00

     total energy              =   -1794.94457001 Ry
     estimated scf accuracy    <       0.72435849 Ry

[...]

     total energy              =   -1795.16208631 Ry
     estimated scf accuracy    <       0.00000146 Ry

     iteration # 13     ecut=    30.00 Ry     beta= 0.70
     Davidson diagonalization with overlap

     ethr =  1.26E-09,  avg # of iterations =  2.0

     negative rho (up, down):  2.016E-01 0.000E+00

     End of self-consistent calculation

          k = 0.0000 0.0000 0.0000 (  4957 PWs)   bands (ev):

   -84.1938 -84.1787 -84.1624 -84.1587 -47.2254 -47.2199 -47.2190 -47.2047
   -47.2021 -47.1961 -47.1933 -47.1921 -47.1827 -47.1780 -47.1757 -47.1537
   -26.8378 -26.7739 -26.7548 -19.0260  -8.9053  -8.8678  -8.8365  -8.8330
    -8.7942  -8.7880  -8.7607  -8.7262  -8.7113  -4.3181  -4.2786  -4.2163
     4.0703   4.2305   4.2502   4.2681   4.3111   4.3180   4.3300   4.4164
     4.5125   4.5472   4.5774   4.7267   4.8025   4.8387   4.9837   4.9930
     5.0061   5.0411   5.0489   5.0712   5.1061   6.2425   7.4034   7.7462
     8.9726   8.9827   9.4211   9.8863  10.2432  10.5436  11.1613  11.1969

     occupation numbers
     1.0000   1.0000   1.0000   1.0000   1.0000   1.0000   1.0000   1.0000
     1.0000   1.0000   1.0000   1.0000   1.0000   1.0000   1.0000   1.0000
     1.0000   1.0000   1.0000   1.0000   1.0000   1.0000   1.0000   1.0000
     1.0000   1.0000   1.0000   1.0000   1.0000   1.0000   1.0000   1.0000
     1.0000   1.0000   1.0000   1.0000   1.0000   1.0000   1.0000   1.0000
     1.0000   1.0000   1.0000   1.0000   1.0000   1.0000   1.0000   1.0000
     1.0000   1.0000   1.0000   1.0000   1.0000   1.0000   1.0000   1.0000
     1.0000   1.0000   0.0000   0.0000   0.0000   0.0000   0.0000   0.0000

[...]

          k = 0.3333 0.2542-0.2001 (  4975 PWs)   bands (ev):

   -84.1937 -84.1789 -84.1616 -84.1596 -47.2259 -47.2234 -47.2198 -47.2054
   -47.2026 -47.1959 -47.1936 -47.1890 -47.1869 -47.1791 -47.1725 -47.1590
   -26.8372 -26.7717 -26.7561 -19.0228  -8.8988  -8.8706  -8.8557  -8.8296
    -8.8126  -8.7790  -8.7714  -8.7371  -8.7199  -4.3188  -4.3024  -4.2695
     4.1465   4.1563   4.2804   4.2882   4.3391   4.3603   4.4454   4.4696
     4.5975   4.6328   4.6912   4.7108   4.8526   4.8636   4.9074   4.9256
     4.9976   5.0063   5.1480   5.2129   5.8693   6.3015   7.5174   7.6894
     8.2169   8.5689   9.4660   9.7377  10.0011  10.2060  10.5172  10.7494

     occupation numbers
     1.0000   1.0000   1.0000   1.0000   1.0000   1.0000   1.0000   1.0000
     1.0000   1.0000   1.0000   1.0000   1.0000   1.0000   1.0000   1.0000
     1.0000   1.0000   1.0000   1.0000   1.0000   1.0000   1.0000   1.0000
     1.0000   1.0000   1.0000   1.0000   1.0000   1.0000   1.0000   1.0000
     1.0000   1.0000   1.0000   1.0000   1.0000   1.0000   1.0000   1.0000
     1.0000   1.0000   1.0000   1.0000   1.0000   1.0000   1.0000   1.0000
     1.0000   1.0000   1.0000   1.0000   1.0000   1.0000   1.0000   1.0000
     1.0000   1.0000   0.0000   0.0000   0.0000   0.0000   0.0000   0.0000

     highest occupied, lowest unoccupied level (ev):     9.6199    8.9184

!    total energy              =   -1795.16208642 Ry
     estimated scf accuracy    <       0.00000067 Ry

     The total energy is the sum of the following terms:
     one-electron contribution =    -915.32556694 Ry
     hartree contribution      =     481.96614395 Ry
     xc contribution           =    -182.80138788 Ry
     ewald contribution        =    -804.04675972 Ry
     one-center paw contrib.   =    -374.95451583 Ry
      -> PAW hartree energy AE =      28.68699771 Ry
      -> PAW hartree energy PS =     -28.58071300 Ry
      -> PAW xc energy AE      =    -394.22092674 Ry
      -> PAW xc energy PS      =      19.16012620 Ry
      -> total E_H with PAW    =     482.07242867 Ry
      -> total E_XC with PAW   =    -557.86218842 Ry

     convergence has been achieved in  13 iterations

     Writing all to output data dir calculations_bands/myprefix.save/

     General routines

     Parallel routines

     PAW routines

   This run was terminated on:  13: 2:38   6Jun2023

   JOB DONE.