     Program PWSCF v.7.0 starts on  5Jun2023 at 22:52: 4

     K-points division:     npool     =       2
     R & G space division:  proc/nbgrp/npool/nimage =       4

     Reading input from espresso_12200.pwi
Warning: card &CELL ignored
Warning: card / ignored

     Current dimensions of program PWSCF are:
     Max number of different atomic species (ntypx) = 10
     Max number of k-points (npk) =  40000
     Max angular momentum in pseudopotentials (lmaxx) =  4
     file Mg.pbe-n-kjpaw_psl.0.3.0.UPF: wavefunction(s)  3S renormalized
     Message from routine setup:
     using ibrav=0 with symmetry is DISCOURAGED, use correct ibrav instead

     Using Slab Decomposition

     bravais-lattice index     =            0
     lattice parameter (alat)  =      12.4901  a.u.
     unit-cell volume          =    2661.0182 (a.u.)^3
     number of atoms/cell      =           16
     number of atomic types    =            2
     number of electrons       =        40.00
     number of Kohn-Sham states=           64
     kinetic-energy cutoff     =      30.0000  Ry
     charge density cutoff     =     240.0000  Ry
     scf convergence threshold =      1.0E-06
     mixing beta               =       0.7000
     number of iterations used =            8  plain     mixing
     Exchange-correlation= SLA  PW   PBX  PBC
                           (   1   4   3   4   0   0   0)

     celldm(1)=  12.490081  celldm(2)=   0.000000  celldm(3)=   0.000000
     celldm(4)=   0.000000  celldm(5)=   0.000000  celldm(6)=   0.000000

     crystal axes: (cart. coord. in units of alat)
               a(1) = (   1.000000   0.000000   0.000000 )
               a(2) = (  -0.500000   0.866025   0.000000 )
               a(3) = (   0.000000   0.000000   1.576963 )

     reciprocal axes: (cart. coord. in units 2 pi/alat)
               b(1) = (  1.000000  0.577350  0.000000 )
               b(2) = (  0.000000  1.154701  0.000000 )
               b(3) = (  0.000000  0.000000  0.634130 )

     PseudoPot. # 1 for Sr read from file:
     /home/pragov/projects/rrg-bengioy-ad/pragov/crystal_structure_design/SSSP/Sr_pbe_v1.uspp.F.UPF
     MD5 check sum: 6b418c05fbe9db5448babca5e47b7a5b
     Pseudo is Ultrasoft + core correction, Zval = 10.0
     Generated by new atomic code, or converted to UPF format
     Using radial grid of  883 points,  6 beta functions with:
                l(1) =   0
                l(2) =   0
                l(3) =   1
                l(4) =   1
                l(5) =   2
                l(6) =   2
     Q(r) pseudized with  6 coefficients,  rinner =    1.400   1.400   1.400
                                                       1.400   1.400

     PseudoPot. # 2 for Mg read from file:
     /home/pragov/projects/rrg-bengioy-ad/pragov/crystal_structure_design/SSSP/Mg.pbe-n-kjpaw_psl.0.3.0.UPF
     MD5 check sum: 24ecedc7f3e3cbe212e682f4413594e4
     Pseudo is Projector augmented-wave + core cor, Zval =  2.0
     Generated using "atomic" code by A. Dal Corso  v.5.0.99 svn rev. 10869
     Shape of augmentation charge: PSQ
     Using radial grid of 1129 points,  4 beta functions with:
                l(1) =   0
                l(2) =   0
                l(3) =   1
                l(4) =   1
     Q(r) pseudized with 0 coefficients

     atomic species   valence    mass     pseudopotential
        Sr            10.00    87.62000     Sr( 1.00)
        Mg             2.00    24.30500     Mg( 1.00)

     12 Sym. Ops. (no inversion) found

                                    s                        frac. trans.

      isym =  1     identity

 cryst.   s( 1) = (     1          0          0      )
                  (     0          1          0      )
                  (     0          0          1      )

 cart.    s( 1) = (  1.0000000 -0.0000000  0.0000000 )
                  (  0.0000000  1.0000000  0.0000000 )
                  (  0.0000000  0.0000000  1.0000000 )

      isym =  2     180 deg rotation - cart. axis [0,1,0]

[...]

      isym =  3     120 deg rotation - cryst. axis [0,0,1]

[...]

      isym =  6     180 deg rotation - cryst. axis [2,1,0]

[...]

      isym =  7     inv. 180 deg rotation - cart. axis [0,0,1]

[...]

      isym =  8     inv. 180 deg rotation - cart. axis [1,0,0]

[...]

      isym =  9     inv.  60 deg rotation - cryst. axis [0,0,1]

 cryst.   s( 9) = (    -1         -1          0      )
                  (     1          0          0      )
                  (     0          0         -1      )

 cart.    s( 9) = ( -0.4999999  0.8660254  0.0000000 )
                  ( -0.8660254 -0.5000001  0.0000000 )
                  (  0.0000000  0.0000000 -1.0000000 )

[...]

 cryst.   s(10) = (     0          1          0      )
                  (    -1         -1          0      )
                  (     0          0         -1      )

 cart.    s(10) = ( -0.5000001 -0.8660254  0.0000000 )
                  (  0.8660254 -0.4999999  0.0000000 )
                  (  0.0000000  0.0000000 -1.0000000 )

[...]

      isym = 12     inv. 180 deg rotation - cryst. axis [1,1,0]

 cryst.   s(12) = (     0         -1          0      )
                  (    -1          0          0      )
                  (     0          0          1      )

 cart.    s(12) = (  0.5000001 -0.8660254  0.0000000 )
                  ( -0.8660254 -0.5000001  0.0000000 )
                  (  0.0000000  0.0000000  1.0000000 )

   Cartesian axes

     site n.     atom                  positions (alat units)
         1           Sr  tau(   1) = (   0.0000000   0.0000000   0.7884813  )
         2           Mg  tau(   2) = (   0.0000000   0.0000000   0.0000000  )
         3           Mg  tau(   3) = (  -0.2428970   0.4371142   0.7884813  )
         4           Mg  tau(   4) = (   0.7487685   0.4323017   0.0000000  )
         5           Mg  tau(   5) = (   0.2428960   0.4371142   0.7884813  )
         6           Mg  tau(   6) = (   0.2512315   0.4323017   0.0000000  )
         7           Mg  tau(   7) = (  -0.0000006   0.8578232   0.7884813  )
         8           Mg  tau(   8) = (   0.5000000   0.0014220   0.0000000  )
         9           Mg  tau(   9) = (  -0.0000000   0.2950219   0.3791523  )
        10           Mg  tau(  10) = (  -0.0000000   0.2950219   1.1978104  )
        11           Mg  tau(  11) = (  -0.2445036   0.7185144   0.3791523  )
        12           Mg  tau(  12) = (  -0.2445036   0.7185144   1.1978104  )
        13           Mg  tau(  13) = (   0.2445034   0.7185144   0.3791523  )
        14           Mg  tau(  14) = (   0.2445034   0.7185144   1.1978104  )
        15           Mg  tau(  15) = (   0.5000005   0.2886748   0.3999461  )
        16           Mg  tau(  16) = (   0.5000005   0.2886748   1.1770166  )

   Crystallographic axes

     site n.     atom                  positions (cryst. coord.)
         1           Sr  tau(   1) = (  0.0000000  0.0000000  0.5000000  )
         2           Mg  tau(   2) = (  0.0000000  0.0000000  0.0000000  )
         3           Mg  tau(   3) = (  0.0094710  0.5047360  0.5000000  )
         4           Mg  tau(   4) = (  0.9983580  0.4991790  0.0000000  )
         5           Mg  tau(   5) = (  0.4952640  0.5047360  0.5000000  )
         6           Mg  tau(   6) = (  0.5008210  0.4991790  0.0000000  )
         7           Mg  tau(   7) = (  0.4952640  0.9905290  0.5000000  )
         8           Mg  tau(   8) = (  0.5008210  0.0016420  0.0000000  )
         9           Mg  tau(   9) = (  0.1703310  0.3406620  0.2404320  )
        10           Mg  tau(  10) = (  0.1703310  0.3406620  0.7595680  )
        11           Mg  tau(  11) = (  0.1703310  0.8296690  0.2404320  )
        12           Mg  tau(  12) = (  0.1703310  0.8296690  0.7595680  )
        13           Mg  tau(  13) = (  0.6593380  0.8296690  0.2404320  )
        14           Mg  tau(  14) = (  0.6593380  0.8296690  0.7595680  )
        15           Mg  tau(  15) = (  0.6666670  0.3333330  0.2536180  )
        16           Mg  tau(  16) = (  0.6666670  0.3333330  0.7463820  )

     number of k points=     6
                       cart. coord. in units 2pi/alat
        k(    1) = (   0.0000000   0.0000000   0.0000000), wk =   0.0740741
        k(    2) = (   0.0000000   0.0000000   0.2113768), wk =   0.1481481
        k(    3) = (   0.0000000   0.3849002   0.0000000), wk =   0.4444444
        k(    4) = (   0.0000000   0.3849002   0.2113768), wk =   0.8888889
        k(    5) = (   0.3333333   0.5773503   0.0000000), wk =   0.1481481
        k(    6) = (   0.3333333   0.5773503   0.2113768), wk =   0.2962963

                       cryst. coord.
        k(    1) = (   0.0000000   0.0000000   0.0000000), wk =   0.0740741
        k(    2) = (   0.0000000   0.0000000   0.3333333), wk =   0.1481481
        k(    3) = (   0.0000000   0.3333333   0.0000000), wk =   0.4444444
        k(    4) = (   0.0000000   0.3333333   0.3333333), wk =   0.8888889
        k(    5) = (   0.3333333   0.3333333   0.0000000), wk =   0.1481481
        k(    6) = (   0.3333333   0.3333333   0.3333333), wk =   0.2962963

     Initial potential from superposition of free atoms

     starting charge      39.9525, renormalised to      40.0000

     negative rho (up, down):  6.486E-02 0.000E+00
     Starting wfcs are   73 randomized atomic wfcs
     Checking if some PAW data can be deallocated...

     Self-consistent Calculation

     iteration #  1     ecut=    30.00 Ry     beta= 0.70
     Davidson diagonalization with overlap

     ethr =  1.00E-02,  avg # of iterations =  6.8

     Threshold (ethr) on eigenvalues was too large:
     Diagonalizing with lowered threshold

     Davidson diagonalization with overlap

[...]

     negative rho (up, down):  6.635E-02 0.000E+00

     total energy              =    -574.19157018 Ry
     estimated scf accuracy    <       0.22160111 Ry

[...]

     total energy              =    -574.31051467 Ry
     estimated scf accuracy    <       0.00000104 Ry

     iteration #  8     ecut=    30.00 Ry     beta= 0.70
     Davidson diagonalization with overlap

     ethr =  2.60E-09,  avg # of iterations =  5.0

     negative rho (up, down):  6.762E-02 0.000E+00

     End of self-consistent calculation

          k = 0.0000 0.0000 0.0000 (  7403 PWs)   bands (ev):

   -31.5299 -13.6845 -13.6563 -13.6563  -2.7779  -1.4030  -1.2775   1.4715
     1.4715   1.6410   1.8549   1.8740   1.8740   2.4519   2.6362   2.6717
     2.6717   2.7846   2.8880   2.8880   2.9604   2.9604   2.9928   3.3712
     3.5167   3.5167   4.6104   5.8470   5.8471   6.4924   6.4924   6.6486
     6.7032   6.7032   7.0787   7.3064   7.3731   7.3731   7.4807   8.4535
     9.3566   9.4912   9.4912   9.8651  10.0034  10.0034  10.2293  10.2293
    10.6440  10.9602  11.1645  11.3158  11.3158  11.4210  11.4210  11.5517
    11.7990  11.9504  11.9504  12.2115  12.2115  12.8022  12.8022  13.2271

     occupation numbers
     1.0000   1.0000   1.0000   1.0000   1.0000   1.0000   1.0000   1.0000
     1.0000   1.0000   1.0000   1.0000   1.0000   1.0000   1.0000   1.0000
     1.0000   1.0000   1.0000   1.0000   0.0000   0.0000   0.0000   0.0000
     0.0000   0.0000   0.0000   0.0000   0.0000   0.0000   0.0000   0.0000
     0.0000   0.0000   0.0000   0.0000   0.0000   0.0000   0.0000   0.0000
     0.0000   0.0000   0.0000   0.0000   0.0000   0.0000   0.0000   0.0000
     0.0000   0.0000   0.0000   0.0000   0.0000   0.0000   0.0000   0.0000
     0.0000   0.0000   0.0000   0.0000   0.0000   0.0000   0.0000   0.0000

[...]

          k = 0.3333 0.5774 0.2114 (  7404 PWs)   bands (ev):

   -31.5299 -13.6843 -13.6592 -13.6590  -1.2063  -1.1126  -1.0040  -0.7136
    -0.6406  -0.2508   1.0206   1.0961   1.5345   2.2806   2.3619   2.6939
     3.2344   3.3169   3.3320   3.6145   3.7239   3.8570   5.2111   5.2200
     5.2882   5.6134   5.7874   6.1304   6.2791   6.3209   7.0152   7.1107
     7.1604   7.2870   7.3179   7.4511   7.5210   7.7207   7.7224   7.9227
     8.1188   8.1637   8.3175   8.3324   8.4278   8.9870   9.0913   9.3209
     9.5735   9.6078   9.7327   9.9997  10.2012  10.2861  10.7170  10.7941
    11.0069  11.1451  11.2424  11.4742  11.5687  11.9470  12.0423  12.3561

     occupation numbers
     1.0000   1.0000   1.0000   1.0000   1.0000   1.0000   1.0000   1.0000
     1.0000   1.0000   1.0000   1.0000   1.0000   1.0000   1.0000   1.0000
     1.0000   1.0000   1.0000   1.0000   0.0000   0.0000   0.0000   0.0000
     0.0000   0.0000   0.0000   0.0000   0.0000   0.0000   0.0000   0.0000
     0.0000   0.0000   0.0000   0.0000   0.0000   0.0000   0.0000   0.0000
     0.0000   0.0000   0.0000   0.0000   0.0000   0.0000   0.0000   0.0000
     0.0000   0.0000   0.0000   0.0000   0.0000   0.0000   0.0000   0.0000
     0.0000   0.0000   0.0000   0.0000   0.0000   0.0000   0.0000   0.0000

     highest occupied, lowest unoccupied level (ev):     3.8781    2.9604

!    total energy              =    -574.31051718 Ry
     estimated scf accuracy    <       0.00000052 Ry

     The total energy is the sum of the following terms:
     one-electron contribution =     -23.28980819 Ry
     hartree contribution      =      23.55266471 Ry
     xc contribution           =     -42.03887517 Ry
     ewald contribution        =     -63.10631267 Ry
     one-center paw contrib.   =    -469.42818586 Ry
      -> PAW hartree energy AE =       0.73477024 Ry
      -> PAW hartree energy PS =      -0.73293231 Ry
      -> PAW xc energy AE      =     -32.57811077 Ry
      -> PAW xc energy PS      =       1.28332277 Ry
      -> total E_H with PAW    =      23.55450264 Ry
      -> total E_XC with PAW   =     -73.33366317 Ry

     convergence has been achieved in   8 iterations

     Writing all to output data dir calculations_bands/myprefix.save/

     General routines

     Parallel routines

     PAW routines

   This run was terminated on:  22:52:15   5Jun2023

   JOB DONE.