     Program PWSCF v.7.0 starts on  7Jun2023 at  4:30:18

     K-points division:     npool     =       2
     R & G space division:  proc/nbgrp/npool/nimage =       4

     Reading input from espresso_1579.pwi
Warning: card &CELL ignored
Warning: card / ignored

     Current dimensions of program PWSCF are:
     Max number of different atomic species (ntypx) = 10
     Max number of k-points (npk) =  40000
     Max angular momentum in pseudopotentials (lmaxx) =  4
     Message from routine setup:
     using ibrav=0 with symmetry is DISCOURAGED, use correct ibrav instead

     Using Slab Decomposition

     bravais-lattice index     =            0
     lattice parameter (alat)  =       9.1361  a.u.
     unit-cell volume          =    2541.1626 (a.u.)^3
     number of atoms/cell      =           12
     number of atomic types    =            3
     number of electrons       =        96.00
     number of Kohn-Sham states=           64
     kinetic-energy cutoff     =      30.0000  Ry
     charge density cutoff     =     240.0000  Ry
     scf convergence threshold =      1.0E-06
     mixing beta               =       0.7000
     number of iterations used =            8  plain     mixing
     Exchange-correlation=  SLA  PW   PBX  PBC
                           (   1   4   3   4   0   0   0)

     celldm(1)=   9.136142  celldm(2)=   0.000000  celldm(3)=   0.000000
     celldm(4)=   0.000000  celldm(5)=   0.000000  celldm(6)=   0.000000

     crystal axes: (cart. coord. in units of alat)
               a(1) = (   1.000000   0.000000   0.000000 )
               a(2) = (   0.000000   1.599340   0.000000 )
               a(3) = (   0.000000   0.000000   2.083547 )

     reciprocal axes: (cart. coord. in units 2 pi/alat)
               b(1) = (  1.000000  0.000000  0.000000 )
               b(2) = (  0.000000  0.625258  0.000000 )
               b(3) = (  0.000000  0.000000  0.479951 )

     PseudoPot. # 1 for Sr read from file:
     /home/pragov/projects/rrg-bengioy-ad/pragov/crystal_structure_design/SSSP/Sr_pbe_v1.uspp.F.UPF
     MD5 check sum: 6b418c05fbe9db5448babca5e47b7a5b
     Pseudo is Ultrasoft + core correction, Zval = 10.0
     Generated by new atomic code, or converted to UPF format
     Using radial grid of  883 points,  6 beta functions with:
                l(1) =   0
                l(2) =   0
                l(3) =   1
                l(4) =   1
                l(5) =   2
                l(6) =   2
     Q(r) pseudized with  6 coefficients,  rinner =    1.400   1.400   1.400
                                                       1.400   1.400

     PseudoPot. # 2 for Br read from file:
     /home/pragov/projects/rrg-bengioy-ad/pragov/crystal_structure_design/SSSP/br_pbe_v1.4.uspp.F.UPF
     MD5 check sum: d3ffb7b29f6225aa16fe06858fb2a80b
     Pseudo is Ultrasoft + core correction, Zval =  7.0
     Generated by new atomic code, or converted to UPF format
     Using radial grid of  879 points,  6 beta functions with:
                l(1) =   0
                l(2) =   0
                l(3) =   1
                l(4) =   1
                l(5) =   2
                l(6) =   2
     Q(r) pseudized with  8 coefficients,  rinner =    1.100   1.100   1.100
                                                       1.100   1.100

     PseudoPot. # 3 for Cl read from file:
     /home/pragov/projects/rrg-bengioy-ad/pragov/crystal_structure_design/SSSP/cl_pbe_v1.4.uspp.F.UPF
     MD5 check sum: fc6f6913ecf08c9257cb748ef0700058
     Pseudo is Ultrasoft + core correction, Zval =  7.0
     Generated by new atomic code, or converted to UPF format
     Using radial grid of  909 points,  6 beta functions with:
                l(1) =   0
                l(2) =   0
                l(3) =   1
                l(4) =   1
                l(5) =   2
                l(6) =   2
     Q(r) pseudized with  8 coefficients,  rinner =    1.300   1.300   1.300
                                                       1.300   1.300

     atomic species   valence    mass     pseudopotential
        Sr            10.00    87.62000     Sr( 1.00)
        Br             7.00    79.90400     Br( 1.00)
        Cl             7.00    35.45000     Cl( 1.00)

      8 Sym. Ops., with inversion, found ( 6 have fractional translation)

                                    s                        frac. trans.

      isym =  1     identity

 cryst.   s( 1) = (     1          0          0      )
                  (     0          1          0      )
                  (     0          0          1      )

 cart.    s( 1) = (  1.0000000  0.0000000  0.0000000 )
                  (  0.0000000  1.0000000  0.0000000 )
                  (  0.0000000  0.0000000  1.0000000 )

      isym =  2     180 deg rotation - cart. axis [0,0,1]

 cryst.   s( 2) = (    -1          0          0      )    f =(  0.0000000 )
                  (     0         -1          0      )       (  0.5000000 )
                  (     0          0          1      )       (  0.5000000 )

 cart.    s( 2) = ( -1.0000000  0.0000000  0.0000000 )    f =(  0.0000000 )
                  (  0.0000000 -1.0000000  0.0000000 )       (  0.7996698 )
                  (  0.0000000  0.0000000  1.0000000 )       (  1.0417734 )

[...]

      isym =  4     180 deg rotation - cart. axis [1,0,0]

[...]

      isym =  5     inversion

 cryst.   s( 5) = (    -1          0          0      )
                  (     0         -1          0      )
                  (     0          0         -1      )

 cart.    s( 5) = ( -1.0000000  0.0000000  0.0000000 )
                  (  0.0000000 -1.0000000  0.0000000 )
                  (  0.0000000  0.0000000 -1.0000000 )

      isym =  6     inv. 180 deg rotation - cart. axis [0,0,1]

[...]

      isym =  8     inv. 180 deg rotation - cart. axis [1,0,0]

 cryst.   s( 8) = (    -1          0          0      )    f =(  0.5000000 )
                  (     0          1          0      )       (  0.0000000 )
                  (     0          0          1      )       (  0.0000000 )

 cart.    s( 8) = ( -1.0000000  0.0000000  0.0000000 )    f =(  0.5000000 )
                  (  0.0000000  1.0000000  0.0000000 )       (  0.0000000 )
                  (  0.0000000  0.0000000  1.0000000 )       (  0.0000000 )

   Cartesian axes

     site n.     atom                  positions (alat units)
         1           Sr  tau(   1) = (   0.2500000   1.1621761   1.9130898  )
         2           Sr  tau(   2) = (   0.7500000   0.4371635   0.1704571  )
         3           Sr  tau(   3) = (   0.7500000   1.2368333   0.8713164  )
         4           Sr  tau(   4) = (   0.2500000   0.3625063   1.2122305  )
         5           Br  tau(   5) = (   0.2500000   1.0176006   1.2580748  )
         6           Br  tau(   6) = (   0.7500000   0.5817390   0.8254721  )
         7           Br  tau(   7) = (   0.7500000   1.3814088   0.2163013  )
         8           Br  tau(   8) = (   0.2500000   0.2179308   1.8672456  )
         9           Cl  tau(   9) = (   0.2500000   0.7748736   0.2944969  )
        10           Cl  tau(  10) = (   0.7500000   0.8244660   1.7890500  )
        11           Cl  tau(  11) = (   0.7500000   0.0247962   1.3362703  )
        12           Cl  tau(  12) = (   0.2500000   1.5745434   0.7472766  )

   Crystallographic axes

     site n.     atom                  positions (cryst. coord.)
         1           Sr  tau(   1) = (  0.2500000  0.7266600  0.9181890  )
         2           Sr  tau(   2) = (  0.7500000  0.2733400  0.0818110  )
         3           Sr  tau(   3) = (  0.7500000  0.7733400  0.4181890  )
         4           Sr  tau(   4) = (  0.2500000  0.2266600  0.5818110  )
         5           Br  tau(   5) = (  0.2500000  0.6362630  0.6038140  )
         6           Br  tau(   6) = (  0.7500000  0.3637370  0.3961860  )
         7           Br  tau(   7) = (  0.7500000  0.8637370  0.1038140  )
         8           Br  tau(   8) = (  0.2500000  0.1362630  0.8961860  )
         9           Cl  tau(   9) = (  0.2500000  0.4844960  0.1413440  )
        10           Cl  tau(  10) = (  0.7500000  0.5155040  0.8586560  )
        11           Cl  tau(  11) = (  0.7500000  0.0155040  0.6413440  )
        12           Cl  tau(  12) = (  0.2500000  0.9844960  0.3586560  )

     number of k points=     8
                       cart. coord. in units 2pi/alat
        k(    1) = (   0.0000000   0.0000000   0.0000000), wk =   0.0740741
        k(    2) = (   0.0000000   0.0000000   0.1599836), wk =   0.1481481
        k(    3) = (   0.0000000   0.2084194   0.0000000), wk =   0.1481481
        k(    4) = (   0.0000000   0.2084194   0.1599836), wk =   0.2962963
        k(    5) = (   0.3333333   0.0000000   0.0000000), wk =   0.1481481
        k(    6) = (   0.3333333   0.0000000   0.1599836), wk =   0.2962963
        k(    7) = (   0.3333333   0.2084194   0.0000000), wk =   0.2962963
        k(    8) = (   0.3333333   0.2084194   0.1599836), wk =   0.5925926

                       cryst. coord.
        k(    1) = (   0.0000000   0.0000000   0.0000000), wk =   0.0740741
        k(    2) = (   0.0000000   0.0000000   0.3333333), wk =   0.1481481
        k(    3) = (   0.0000000   0.3333333   0.0000000), wk =   0.1481481
        k(    4) = (   0.0000000   0.3333333   0.3333333), wk =   0.2962963
        k(    5) = (   0.3333333   0.0000000   0.0000000), wk =   0.1481481
        k(    6) = (   0.3333333   0.0000000   0.3333333), wk =   0.2962963
        k(    7) = (   0.3333333   0.3333333   0.0000000), wk =   0.2962963
        k(    8) = (   0.3333333   0.3333333   0.3333333), wk =   0.5925926

     Check: negative core charge=   -0.000002

     Initial potential from superposition of free atoms

     starting charge      95.8653, renormalised to      96.0000

     negative rho (up, down):  3.120E-01 0.000E+00
     Starting wfcs are   84 randomized atomic wfcs

     Self-consistent Calculation

     iteration #  1     ecut=    30.00 Ry     beta= 0.70
     Davidson diagonalization with overlap

     ethr =  1.00E-02,  avg # of iterations =  3.6

     Threshold (ethr) on eigenvalues was too large:
     Diagonalizing with lowered threshold

     Davidson diagonalization with overlap

[...]

     negative rho (up, down):  3.194E-01 0.000E+00

     total energy              =    -602.97551920 Ry
     estimated scf accuracy    <       0.51722729 Ry

[...]

     total energy              =    -603.15091621 Ry
     estimated scf accuracy    <       0.00000150 Ry

     iteration #  7     ecut=    30.00 Ry     beta= 0.70
     Davidson diagonalization with overlap

     ethr =  1.56E-09,  avg # of iterations =  3.9

     negative rho (up, down):  3.235E-01 0.000E+00

     End of self-consistent calculation

          k = 0.0000 0.0000 0.0000 (  7031 PWs)   bands (ev):

   -30.2893 -30.2886 -30.2858 -30.2856 -12.4739 -12.4449 -12.4107 -12.3617
   -12.3377 -12.3002 -12.2889 -12.2846 -12.2818 -12.2706 -12.2662 -12.2654
   -10.1198  -9.8393  -9.7836  -9.7620  -9.5547  -9.5273  -9.4900  -9.4434
     0.7760   0.9775   1.0110   1.0864   1.2540   1.3310   1.3927   1.4487
     1.4999   1.5866   1.8249   1.8441   1.8586   1.8730   1.9912   2.1570
     2.1804   2.5860   2.6060   2.6180   2.7104   2.7209   2.8791   2.9020
     7.6339   8.2217   8.4831   8.6716   8.9349   9.0727   9.2342   9.4355
     9.5955   9.6789   9.7346   9.9038  10.0169  10.0714  10.1475  10.3120

     occupation numbers
     1.0000   1.0000   1.0000   1.0000   1.0000   1.0000   1.0000   1.0000
     1.0000   1.0000   1.0000   1.0000   1.0000   1.0000   1.0000   1.0000
     1.0000   1.0000   1.0000   1.0000   1.0000   1.0000   1.0000   1.0000
     1.0000   1.0000   1.0000   1.0000   1.0000   1.0000   1.0000   1.0000
     1.0000   1.0000   1.0000   1.0000   1.0000   1.0000   1.0000   1.0000
     1.0000   1.0000   1.0000   1.0000   1.0000   1.0000   1.0000   1.0000
     0.0000   0.0000   0.0000   0.0000   0.0000   0.0000   0.0000   0.0000
     0.0000   0.0000   0.0000   0.0000   0.0000   0.0000   0.0000   0.0000

[...]

          k = 0.3333 0.2084 0.1600 (  7052 PWs)   bands (ev):

   -30.2871 -30.2870 -30.2858 -30.2858 -12.4728 -12.4714 -12.4265 -12.4235
   -12.3424 -12.3408 -12.3075 -12.3002 -12.2925 -12.2904 -12.2799 -12.2798
    -9.8000  -9.7609  -9.7230  -9.7174  -9.5948  -9.5870  -9.5299  -9.5225
     0.7128   0.7492   0.9021   0.9300   1.1422   1.1530   1.2227   1.3883
     1.5375   1.5692   1.8150   1.8325   1.9400   2.0472   2.1412   2.1902
     2.4256   2.4631   2.5544   2.6004   2.6866   2.7167   2.8473   2.8673
     8.5419   8.6408   8.8524   8.9307   9.2282   9.3119   9.5436   9.5754
     9.6979   9.8032   9.9681  10.0993  10.1417  10.1912  10.3192  10.3617

     occupation numbers
     1.0000   1.0000   1.0000   1.0000   1.0000   1.0000   1.0000   1.0000
     1.0000   1.0000   1.0000   1.0000   1.0000   1.0000   1.0000   1.0000
     1.0000   1.0000   1.0000   1.0000   1.0000   1.0000   1.0000   1.0000
     1.0000   1.0000   1.0000   1.0000   1.0000   1.0000   1.0000   1.0000
     1.0000   1.0000   1.0000   1.0000   1.0000   1.0000   1.0000   1.0000
     1.0000   1.0000   1.0000   1.0000   1.0000   1.0000   1.0000   1.0000
     0.0000   0.0000   0.0000   0.0000   0.0000   0.0000   0.0000   0.0000
     0.0000   0.0000   0.0000   0.0000   0.0000   0.0000   0.0000   0.0000

     highest occupied, lowest unoccupied level (ev):     2.9157    7.6339

!    total energy              =    -603.15091717 Ry
     estimated scf accuracy    <       0.00000045 Ry

     The total energy is the sum of the following terms:
     one-electron contribution =    -110.75541584 Ry
     hartree contribution      =      88.93216174 Ry
     xc contribution           =    -215.78543020 Ry
     ewald contribution        =    -365.54223288 Ry

     convergence has been achieved in   7 iterations

     Writing all to output data dir calculations_bands/myprefix.save/

     General routines

     Parallel routines

   This run was terminated on:   4:30:30   7Jun2023

   JOB DONE.