     Program PWSCF v.7.0 starts on  6Jun2023 at 13:18:35

     K-points division:     npool     =       2
     R & G space division:  proc/nbgrp/npool/nimage =       4

     Reading input from espresso_16772.pwi
Warning: card &CELL ignored
Warning: card / ignored

     Current dimensions of program PWSCF are:
     Max number of different atomic species (ntypx) = 10
     Max number of k-points (npk) =  40000
     Max angular momentum in pseudopotentials (lmaxx) =  4
     Message from routine setup:
     using ibrav=0 with symmetry is DISCOURAGED, use correct ibrav instead

     Using Slab Decomposition

     bravais-lattice index     =            0
     lattice parameter (alat)  =      16.3609  a.u.
     unit-cell volume          =    1020.3329 (a.u.)^3
     number of atoms/cell      =            8
     number of atomic types    =            3
     number of electrons       =       120.00
     number of Kohn-Sham states=           64
     kinetic-energy cutoff     =      30.0000  Ry
     charge density cutoff     =     240.0000  Ry
     scf convergence threshold =      1.0E-06
     mixing beta               =       0.7000
     number of iterations used =            8  plain     mixing
     Exchange-correlation=  SLA  PW   PBX  PBC
                           (   1   4   3   4   0   0   0)

     celldm(1)=  16.360931  celldm(2)=   0.000000  celldm(3)=   0.000000
     celldm(4)=   0.000000  celldm(5)=   0.000000  celldm(6)=   0.000000

     crystal axes: (cart. coord. in units of alat)
               a(1) = (   1.000000   0.000000   0.000000 )
               a(2) = (  -0.880352   0.474322   0.000000 )
               a(3) = (   0.000000   0.000000   0.491185 )

     reciprocal axes: (cart. coord. in units 2 pi/alat)
               b(1) = (  1.000000  1.856022  0.000000 )
               b(2) = (  0.000000  2.108274  0.000000 )
               b(3) = (  0.000000  0.000000  2.035894 )

     PseudoPot. # 1 for Nd read from file:
     /home/pragov/projects/rrg-bengioy-ad/pragov/crystal_structure_design/SSSP/Nd.GGA-PBE-paw-v1.0.UPF
     MD5 check sum: 1d1e94942b6eb1cde76049b71bb7dcb0
     Pseudo is Projector augmented-wave + core cor, Zval = 14.0
     Generated using ATOMPAW code
     Shape of augmentation charge: BESSEL
     Using radial grid of 1105 points,  8 beta functions with:
                l(1) =   0
                l(2) =   0
                l(3) =   1
                l(4) =   1
                l(5) =   2
                l(6) =   2
                l(7) =   3
                l(8) =   3
     Q(r) pseudized with 0 coefficients

     PseudoPot. # 2 for Ni read from file:
     /home/pragov/projects/rrg-bengioy-ad/pragov/crystal_structure_design/SSSP/ni_pbe_v1.4.uspp.F.UPF
     MD5 check sum: 1ee80287db30b12d2bc1f57a5b5d6409
     Pseudo is Ultrasoft + core correction, Zval = 18.0
     Generated by new atomic code, or converted to UPF format
     Using radial grid of  865 points,  6 beta functions with:
                l(1) =   0
                l(2) =   0
                l(3) =   1
                l(4) =   1
                l(5) =   2
                l(6) =   2
     Q(r) pseudized with 10 coefficients,  rinner =    0.980   0.980   0.980
                                                       0.980   0.980

     PseudoPot. # 3 for Ge read from file:
     /home/pragov/projects/rrg-bengioy-ad/pragov/crystal_structure_design/SSSP/ge_pbe_v1.4.uspp.F.UPF
     MD5 check sum: 9c9eaa91e581c3f09632fb3098b2c6b2
     Pseudo is Ultrasoft + core correction, Zval = 14.0
     Generated by new atomic code, or converted to UPF format
     Using radial grid of  873 points,  6 beta functions with:
                l(1) =   0
                l(2) =   0
                l(3) =   1
                l(4) =   1
                l(5) =   2
                l(6) =   2
     Q(r) pseudized with  8 coefficients,  rinner =    1.400   1.400   1.400
                                                       1.400   1.400

     atomic species   valence    mass     pseudopotential
        Nd            14.00   144.24200     Nd( 1.00)
        Ni            18.00    58.69340     Ni( 1.00)
        Ge            14.00    72.63000     Ge( 1.00)

      4 Sym. Ops., with inversion, found ( 2 have fractional translation)

                                    s                        frac. trans.

      isym =  1     identity

 cryst.   s( 1) = (     1          0          0      )
                  (     0          1          0      )
                  (     0          0          1      )

 cart.    s( 1) = (  1.0000000  0.0000000  0.0000000 )
                  (  0.0000000  1.0000000  0.0000000 )
                  (  0.0000000  0.0000000  1.0000000 )

      isym =  2     180 deg rotation - cart. axis [0,0,1]

 cryst.   s( 2) = (    -1          0          0      )    f =(  0.0000000 )
                  (     0         -1          0      )       (  0.0000000 )
                  (     0          0          1      )       ( -0.5000000 )

 cart.    s( 2) = ( -1.0000000 -0.0000000  0.0000000 )    f =(  0.0000000 )
                  (  0.0000000 -1.0000000  0.0000000 )       (  0.0000000 )
                  (  0.0000000  0.0000000  1.0000000 )       ( -0.2455924 )

      isym =  3     inversion

 cryst.   s( 3) = (    -1          0          0      )
                  (     0         -1          0      )
                  (     0          0         -1      )

 cart.    s( 3) = ( -1.0000000 -0.0000000  0.0000000 )
                  (  0.0000000 -1.0000000  0.0000000 )
                  (  0.0000000  0.0000000 -1.0000000 )

      isym =  4     inv. 180 deg rotation - cart. axis [0,0,1]

 cryst.   s( 4) = (     1          0          0      )    f =(  0.0000000 )
                  (     0          1          0      )       (  0.0000000 )
                  (     0          0         -1      )       ( -0.5000000 )

 cart.    s( 4) = (  1.0000000  0.0000000  0.0000000 )    f =(  0.0000000 )
                  (  0.0000000  1.0000000  0.0000000 )       (  0.0000000 )
                  (  0.0000000  0.0000000 -1.0000000 )       ( -0.2455924 )

   Cartesian axes

     site n.     atom                  positions (alat units)
         1           Nd  tau(   1) = (  -0.6761228   0.4228047   0.3683886  )
         2           Nd  tau(   2) = (   0.7957713   0.0515170   0.1227962  )
         3           Ni  tau(   3) = (  -0.2807902   0.3230814   0.3683886  )
         4           Ni  tau(   4) = (   0.4004386   0.1512403   0.1227962  )
         5           Ge  tau(   5) = (   0.5284473   0.1189499   0.3683886  )
         6           Ge  tau(   6) = (  -0.0193480   0.2571322   0.3683886  )
         7           Ge  tau(   7) = (  -0.4087989   0.3553718   0.1227962  )
         8           Ge  tau(   8) = (   0.1389964   0.2171895   0.1227962  )

   Crystallographic axes

     site n.     atom                  positions (cryst. coord.)
         1           Nd  tau(   1) = (  0.1086120  0.8913880  0.7500000  )
         2           Nd  tau(   2) = (  0.8913880  0.1086120  0.2500000  )
         3           Ni  tau(   3) = (  0.3188560  0.6811440  0.7500000  )
         4           Ni  tau(   4) = (  0.6811440  0.3188560  0.2500000  )
         5           Ge  tau(   5) = (  0.7492210  0.2507790  0.7500000  )
         6           Ge  tau(   6) = (  0.4578950  0.5421050  0.7500000  )
         7           Ge  tau(   7) = (  0.2507790  0.7492210  0.2500000  )
         8           Ge  tau(   8) = (  0.5421050  0.4578950  0.2500000  )

     number of k points=    10
                       cart. coord. in units 2pi/alat
        k(    1) = (   0.0000000   0.0000000   0.0000000), wk =   0.0740741
        k(    2) = (   0.0000000   0.0000000   0.6786312), wk =   0.1481481
        k(    3) = (   0.0000000   0.7027579   0.0000000), wk =   0.1481481
        k(    4) = (   0.0000000   0.7027579   0.6786312), wk =   0.2962963
        k(    5) = (   0.3333333   0.6186740   0.0000000), wk =   0.1481481
        k(    6) = (   0.3333333   0.6186740   0.6786312), wk =   0.2962963
        k(    7) = (   0.3333333   1.3214319   0.0000000), wk =   0.1481481
        k(    8) = (   0.3333333   1.3214319   0.6786312), wk =   0.2962963
        k(    9) = (   0.3333333  -0.0840839   0.0000000), wk =   0.1481481
        k(   10) = (   0.3333333  -0.0840839   0.6786312), wk =   0.2962963

                       cryst. coord.
        k(    1) = (   0.0000000   0.0000000   0.0000000), wk =   0.0740741
        k(    2) = (   0.0000000   0.0000000   0.3333333), wk =   0.1481481
        k(    3) = (   0.0000000   0.3333333   0.0000000), wk =   0.1481481
        k(    4) = (   0.0000000   0.3333333   0.3333333), wk =   0.2962963
        k(    5) = (   0.3333333  -0.0000000   0.0000000), wk =   0.1481481
        k(    6) = (   0.3333333  -0.0000000   0.3333333), wk =   0.2962963
        k(    7) = (   0.3333333   0.3333333   0.0000000), wk =   0.1481481
        k(    8) = (   0.3333333   0.3333333   0.3333333), wk =   0.2962963
        k(    9) = (   0.3333333  -0.3333333   0.0000000), wk =   0.1481481
        k(   10) = (   0.3333333  -0.3333333   0.3333333), wk =   0.2962963

     Check: negative core charge=   -0.000003

     Initial potential from superposition of free atoms

     starting charge     115.9841, renormalised to     120.0000
     Starting wfcs are  126 randomized atomic wfcs
     Checking if some PAW data can be deallocated...

     Self-consistent Calculation

     iteration #  1     ecut=    30.00 Ry     beta= 0.70
     Davidson diagonalization with overlap

     ethr =  1.00E-02,  avg # of iterations =  2.4

     total energy              =   -2591.07508552 Ry
     estimated scf accuracy    <      33.00080255 Ry

[...]

     c_bands:  1 eigenvalues not converged
     c_bands:  1 eigenvalues not converged
     ethr =  1.24E-06,  avg # of iterations = 15.0

[...]

     c_bands:  1 eigenvalues not converged
     c_bands:  1 eigenvalues not converged
     c_bands:  1 eigenvalues not converged
     ethr =  6.28E-09,  avg # of iterations = 18.9

[...]

     total energy              =   -2615.70205628 Ry
     estimated scf accuracy    <       0.00000137 Ry

     iteration # 81     ecut=    30.00 Ry     beta= 0.70
     Davidson diagonalization with overlap

     ethr =  1.00E-09,  avg # of iterations =  1.3

     End of self-consistent calculation

          k = 0.0000 0.0000 0.0000 (  2799 PWs)   bands (ev):

   -90.3513 -90.3488 -50.6984 -50.6915 -50.6798 -50.6775 -50.6689 -50.6588
   -23.7753 -23.7670 -11.1847 -11.1708 -11.1066 -11.1030 -11.0999 -11.0842
   -11.0740 -11.0740 -11.0537 -11.0519 -11.0353 -11.0012 -10.9827 -10.9809
   -10.9217 -10.8992 -10.8924 -10.8896 -10.8677 -10.8618  -5.2388  -5.0243
    -4.9748  -4.9632  -4.9513  -4.9213   1.9162   3.2677   6.1543   6.8611
     9.1837   9.2484   9.2530  10.1278  10.6919  10.9752  11.0802  11.0820
    11.1754  11.3447  11.5074  11.9441  11.9717  12.1645  12.4079  12.8960
    13.0209  13.1742  13.2330  13.2374  13.2440  13.3001  13.3723  13.4182

     occupation numbers
     1.0000   1.0000   1.0000   1.0000   1.0000   1.0000   1.0000   1.0000
     1.0000   1.0000   1.0000   1.0000   1.0000   1.0000   1.0000   1.0000
     1.0000   1.0000   1.0000   1.0000   1.0000   1.0000   1.0000   1.0000
     1.0000   1.0000   1.0000   1.0000   1.0000   1.0000   1.0000   1.0000
     1.0000   1.0000   1.0000   1.0000   1.0000   1.0000   1.0000   1.0000
     1.0000   1.0000   1.0000   1.0000   1.0000   1.0000   1.0000   1.0000
     1.0000   1.0000   1.0000   1.0000   1.0000   1.0000   1.0000   1.0000
     1.0000   1.0000   1.0000   1.0000   0.0000   0.0000   0.0000   0.0000

[...]

          k = 0.3333-0.0841 0.6786 (  2820 PWs)   bands (ev):

   -90.3521 -90.3500 -50.6971 -50.6928 -50.6898 -50.6825 -50.6676 -50.6620
   -23.7675 -23.7638 -11.1549 -11.1535 -11.1210 -11.0973 -11.0967 -11.0863
   -11.0826 -11.0822 -11.0746 -11.0651 -11.0466 -11.0241 -10.9742 -10.9508
   -10.9449 -10.9123 -10.8855 -10.8830 -10.8637 -10.8562  -5.1719  -5.1468
    -5.0624  -5.0270  -4.9534  -4.9372   2.9284   3.8104   5.0794   5.8547
     8.9121   9.6901   9.8423   9.9615  10.2931  10.4481  10.5866  11.1429
    11.1856  11.3804  11.3937  11.7890  11.8403  12.0458  12.5977  12.7862
    13.0342  13.1858  13.2277  13.2782  13.3132  13.3196  13.3594  13.3735

     occupation numbers
     1.0000   1.0000   1.0000   1.0000   1.0000   1.0000   1.0000   1.0000
     1.0000   1.0000   1.0000   1.0000   1.0000   1.0000   1.0000   1.0000
     1.0000   1.0000   1.0000   1.0000   1.0000   1.0000   1.0000   1.0000
     1.0000   1.0000   1.0000   1.0000   1.0000   1.0000   1.0000   1.0000
     1.0000   1.0000   1.0000   1.0000   1.0000   1.0000   1.0000   1.0000
     1.0000   1.0000   1.0000   1.0000   1.0000   1.0000   1.0000   1.0000
     1.0000   1.0000   1.0000   1.0000   1.0000   1.0000   1.0000   1.0000
     1.0000   1.0000   1.0000   1.0000   0.0000   0.0000   0.0000   0.0000

     highest occupied, lowest unoccupied level (ev):    13.2821   13.2440

!    total energy              =   -2615.70205639 Ry
     estimated scf accuracy    <       0.00000061 Ry

     The total energy is the sum of the following terms:
     one-electron contribution =   -1146.08100968 Ry
     hartree contribution      =     676.78074536 Ry
     xc contribution           =    -332.13605738 Ry
     ewald contribution        =    -954.15575379 Ry
     one-center paw contrib.   =    -860.10998089 Ry
      -> PAW hartree energy AE =      80.82073740 Ry
      -> PAW hartree energy PS =     -80.45337987 Ry
      -> PAW xc energy AE      =    -442.92541457 Ry
      -> PAW xc energy PS      =      12.50306662 Ry
      -> total E_H with PAW    =     677.14810289 Ry
      -> total E_XC with PAW   =    -762.55840533 Ry

     convergence has been achieved in  81 iterations

     Writing all to output data dir calculations_bands/myprefix.save/

     General routines

     Parallel routines

     PAW routines

   This run was terminated on:  13:20:48   6Jun2023

   JOB DONE.