     Program PWSCF v.7.0 starts on  5Jun2023 at  7:27:16

     K-points division:     npool     =       2
     R & G space division:  proc/nbgrp/npool/nimage =       4

     Reading input from espresso_9519.pwi
Warning: card &CELL ignored
Warning: card / ignored

     Current dimensions of program PWSCF are:
     Max number of different atomic species (ntypx) = 10
     Max number of k-points (npk) =  40000
     Max angular momentum in pseudopotentials (lmaxx) =  4
     file Pb.pbe-dn-kjpaw_psl.0.2.2.UPF: wavefunction(s)  6S renormalized
     Message from routine setup:
     using ibrav=0 with symmetry is DISCOURAGED, use correct ibrav instead

     Using Slab Decomposition

     bravais-lattice index     =            0
     lattice parameter (alat)  =      10.8647  a.u.
     unit-cell volume          =     631.8945 (a.u.)^3
     number of atoms/cell      =            4
     number of atomic types    =            2
     number of electrons       =        50.00
     number of Kohn-Sham states=           64
     kinetic-energy cutoff     =      30.0000  Ry
     charge density cutoff     =     240.0000  Ry
     scf convergence threshold =      1.0E-06
     mixing beta               =       0.7000
     number of iterations used =            8  plain     mixing
     Exchange-correlation= SLA  PW   PBX  PBC
                           (   1   4   3   4   0   0   0)

     celldm(1)=  10.864703  celldm(2)=   0.000000  celldm(3)=   0.000000
     celldm(4)=   0.000000  celldm(5)=   0.000000  celldm(6)=   0.000000

     crystal axes: (cart. coord. in units of alat)
               a(1) = (   1.000000   0.000000   0.000000 )
               a(2) = (   0.414028   0.910264   0.000000 )
               a(3) = (  -0.707014  -0.455132   0.541282 )

     reciprocal axes: (cart. coord. in units 2 pi/alat)
               b(1) = (  1.000000 -0.454844  0.923733 )
               b(2) = (  0.000000  1.098582  0.923733 )
               b(3) = (  0.000000  0.000000  1.847466 )

     PseudoPot. # 1 for Zr read from file:
     /home/pragov/projects/rrg-bengioy-ad/pragov/crystal_structure_design/SSSP/Zr_pbe_v1.uspp.F.UPF
     MD5 check sum: 5db81b1e868ab7776c4564c113de050b
     Pseudo is Ultrasoft + core correction, Zval = 12.0
     Generated by new atomic code, or converted to UPF format
     Using radial grid of  887 points,  6 beta functions with:
                l(1) =   0
                l(2) =   0
                l(3) =   1
                l(4) =   1
                l(5) =   2
                l(6) =   2
     Q(r) pseudized with  6 coefficients,  rinner =    1.200   1.200   1.200
                                                       1.200   1.200

     PseudoPot. # 2 for Pb read from file:
     /home/pragov/projects/rrg-bengioy-ad/pragov/crystal_structure_design/SSSP/Pb.pbe-dn-kjpaw_psl.0.2.2.UPF
     MD5 check sum: 9d431e6316058b74ade52399a6cf67da
     Pseudo is Projector augmented-wave + core cor, Zval = 14.0
     Generated using "atomic" code by A. Dal Corso  v.5.0.99 svn rev. 10869
     Shape of augmentation charge: PSQ
     Using radial grid of 1281 points,  6 beta functions with:
                l(1) =   0
                l(2) =   0
                l(3) =   1
                l(4) =   1
                l(5) =   2
                l(6) =   2
     Q(r) pseudized with 0 coefficients

     atomic species   valence    mass     pseudopotential
        Zr            12.00    91.22400     Zr( 1.00)
        Pb            14.00   207.20000     Pb( 1.00)

      4 Sym. Ops., with inversion, found

                                    s                        frac. trans.

      isym =  1     identity

 cryst.   s( 1) = (     1          0          0      )
                  (     0          1          0      )
                  (     0          0          1      )

 cart.    s( 1) = (  1.0000000  0.0000000 -0.0000000 )
                  (  0.0000000  1.0000000  0.0000000 )
                  (  0.0000000  0.0000000  1.0000000 )

      isym =  2     180 deg rotation - cart. axis [0,0,1]

[...]

      isym =  3     inversion

[...]

      isym =  4     inv. 180 deg rotation - cart. axis [0,0,1]

 cryst.   s( 4) = (     1          0          0      )
                  (     0          1          0      )
                  (    -1         -1         -1      )

 cart.    s( 4) = (  1.0000000  0.0000000 -0.0000000 )
                  (  0.0000000  1.0000000 -0.0000000 )
                  (  0.0000000  0.0000000 -1.0000000 )

   Cartesian axes

     site n.     atom                  positions (alat units)
         1           Zr  tau(   1) = (   0.5000000   0.0000000   0.2706409  )
         2           Zr  tau(   2) = (   0.2070139   0.4551321   0.2706409  )
         3           Zr  tau(   3) = (   0.7070139   0.4551321   0.0000000  )
         4           Pb  tau(   4) = (   0.0000000   0.0000000   0.0000000  )

   Crystallographic axes

     site n.     atom                  positions (cryst. coord.)
         1           Zr  tau(   1) = (  0.7500000  0.2500000  0.5000000  )
         2           Zr  tau(   2) = (  0.2500000  0.7500000  0.5000000  )
         3           Zr  tau(   3) = (  0.5000000  0.5000000  0.0000000  )
         4           Pb  tau(   4) = (  0.0000000  0.0000000  0.0000000  )

     number of k points=    10
                       cart. coord. in units 2pi/alat
        k(    1) = (   0.0000000   0.0000000   0.0000000), wk =   0.0740741
        k(    2) = (   0.0000000   0.0000000   0.6158221), wk =   0.1481481
        k(    3) = (   0.0000000   0.3661940   0.3079110), wk =   0.2962963
        k(    4) = (   0.0000000   0.3661940   0.9237331), wk =   0.1481481
        k(    5) = (   0.3333333  -0.1516145   0.3079110), wk =   0.2962963
        k(    6) = (   0.3333333  -0.1516145   0.9237331), wk =   0.1481481
        k(    7) = (   0.3333333   0.2145795   0.6158221), wk =   0.2962963
        k(    8) = (   0.3333333   0.2145795  -0.0000000), wk =   0.1481481
        k(    9) = (   0.3333333  -0.5178086  -0.0000000), wk =   0.1481481
        k(   10) = (   0.3333333  -0.5178086   0.6158221), wk =   0.2962963

                       cryst. coord.
        k(    1) = (   0.0000000   0.0000000   0.0000000), wk =   0.0740741
        k(    2) = (   0.0000000   0.0000000   0.3333333), wk =   0.1481481
        k(    3) = (   0.0000000   0.3333333  -0.0000000), wk =   0.2962963
        k(    4) = (   0.0000000   0.3333333   0.3333333), wk =   0.1481481
        k(    5) = (   0.3333333   0.0000000  -0.0000000), wk =   0.2962963
        k(    6) = (   0.3333333   0.0000000   0.3333333), wk =   0.1481481
        k(    7) = (   0.3333333   0.3333333  -0.0000000), wk =   0.2962963
        k(    8) = (   0.3333333   0.3333333  -0.3333333), wk =   0.1481481
        k(    9) = (   0.3333333  -0.3333333  -0.0000000), wk =   0.1481481
        k(   10) = (   0.3333333  -0.3333333   0.3333333), wk =   0.2962963

     Check: negative core charge=   -0.000003

     Initial potential from superposition of free atoms

     starting charge      49.9912, renormalised to      50.0000

     negative rho (up, down):  1.815E-01 0.000E+00
     Starting wfcs are   48 randomized atomic wfcs +   16 random wfcs
     Checking if some PAW data can be deallocated...

     Self-consistent Calculation

     iteration #  1     ecut=    30.00 Ry     beta= 0.70
     Davidson diagonalization with overlap

     ethr =  1.00E-02,  avg # of iterations =  6.4

     Threshold (ethr) on eigenvalues was too large:
     Diagonalizing with lowered threshold

     Davidson diagonalization with overlap

[...]

     negative rho (up, down):  1.836E-01 0.000E+00

     total energy              =   -1167.97822495 Ry
     estimated scf accuracy    <       0.14723038 Ry

[...]

     total energy              =   -1168.03755974 Ry
     estimated scf accuracy    <       0.00000704 Ry

     iteration #  8     ecut=    30.00 Ry     beta= 0.70
     Davidson diagonalization with overlap

     ethr =  1.41E-08,  avg # of iterations =  4.2

     negative rho (up, down):  1.856E-01 0.000E+00

     End of self-consistent calculation

          k = 0.0000 0.0000 0.0000 (  1743 PWs)   bands (ev):

   -34.6153 -34.3637 -34.2449 -12.7976 -12.7568 -12.7567 -12.6093 -12.6093
   -12.3876 -12.2009 -12.0235 -12.0235  -2.3825  -2.3365  -2.2962  -2.2838
    -2.2837   4.4677  11.4224  11.6077  12.5558  12.5559  13.0978  13.8088
    14.3179  14.6915  14.6916  15.1301  16.1953  16.3169  17.7038  17.7038
    17.7074  18.5651  18.5652  18.9800  20.5100  21.9479  22.1682  22.1683
    23.8303  24.3081  24.3081  24.4087  24.6627  24.9577  27.5315  29.4476
    29.4476  30.1866  30.3212  30.3214  31.3193  31.5627  32.8216  33.2677
    33.2678  33.3400  34.6738  36.7998  37.6053  37.6053  38.1392  38.1393

     occupation numbers
     1.0000   1.0000   1.0000   1.0000   1.0000   1.0000   1.0000   1.0000
     1.0000   1.0000   1.0000   1.0000   1.0000   1.0000   1.0000   1.0000
     1.0000   1.0000   1.0000   1.0000   1.0000   1.0000   1.0000   1.0000
     1.0000   0.0000   0.0000   0.0000   0.0000   0.0000   0.0000   0.0000
     0.0000   0.0000   0.0000   0.0000   0.0000   0.0000   0.0000   0.0000
     0.0000   0.0000   0.0000   0.0000   0.0000   0.0000   0.0000   0.0000
     0.0000   0.0000   0.0000   0.0000   0.0000   0.0000   0.0000   0.0000
     0.0000   0.0000   0.0000   0.0000   0.0000   0.0000   0.0000   0.0000

[...]

          k = 0.3333-0.5178 0.6158 (  1755 PWs)   bands (ev):

   -34.6043 -34.3423 -34.2769 -12.8535 -12.8026 -12.5644 -12.4893 -12.4141
   -12.4125 -12.3896 -12.1833 -12.1295  -2.3522  -2.3220  -2.2943  -2.2909
    -2.2731   5.4184  10.5448  10.5482  12.5835  12.6236  13.3109  13.3117
    14.3504  14.7997  15.0760  15.7368  16.1552  16.4798  17.1870  17.2343
    18.2754  18.2894  18.4091  18.8697  19.3402  20.6514  22.5155  24.1566
    24.5315  24.6583  25.6699  25.8168  26.1715  26.1861  26.6399  27.4429
    28.5039  29.8049  30.3734  30.7390  31.1038  31.1357  32.4168  33.1087
    33.9492  34.5811  35.4035  35.7475  36.0444  36.2213  36.2338  36.4008

     occupation numbers
     1.0000   1.0000   1.0000   1.0000   1.0000   1.0000   1.0000   1.0000
     1.0000   1.0000   1.0000   1.0000   1.0000   1.0000   1.0000   1.0000
     1.0000   1.0000   1.0000   1.0000   1.0000   1.0000   1.0000   1.0000
     1.0000   0.0000   0.0000   0.0000   0.0000   0.0000   0.0000   0.0000
     0.0000   0.0000   0.0000   0.0000   0.0000   0.0000   0.0000   0.0000
     0.0000   0.0000   0.0000   0.0000   0.0000   0.0000   0.0000   0.0000
     0.0000   0.0000   0.0000   0.0000   0.0000   0.0000   0.0000   0.0000
     0.0000   0.0000   0.0000   0.0000   0.0000   0.0000   0.0000   0.0000

     highest occupied, lowest unoccupied level (ev):    14.3955   14.4281

!    total energy              =   -1168.03756062 Ry
     estimated scf accuracy    <       0.00000096 Ry

     The total energy is the sum of the following terms:
     one-electron contribution =     -70.73026483 Ry
     hartree contribution      =      63.68335266 Ry
     xc contribution           =     -97.84854365 Ry
     ewald contribution        =    -334.64994797 Ry
     one-center paw contrib.   =    -728.49215682 Ry
      -> PAW hartree energy AE =       0.00000000 Ry
      -> PAW hartree energy PS =       0.00000000 Ry
      -> PAW xc energy AE      =       0.00000000 Ry
      -> PAW xc energy PS      =       0.00000000 Ry
      -> total E_H with PAW    =      63.68335266 Ry
      -> total E_XC with PAW   =     -97.84854365 Ry

     convergence has been achieved in   8 iterations

     Writing all to output data dir calculations_bands/myprefix.save/

     General routines

     Parallel routines

     PAW routines

   This run was terminated on:   7:28:17   5Jun2023

   JOB DONE.