     Program PWSCF v.7.0 starts on  5Jun2023 at 22:16:26

     K-points division:     npool     =       2
     R & G space division:  proc/nbgrp/npool/nimage =       4

     Reading input from espresso_12082.pwi
Warning: card &CELL ignored
Warning: card / ignored

     Current dimensions of program PWSCF are:
     Max number of different atomic species (ntypx) = 10
     Max number of k-points (npk) =  40000
     Max angular momentum in pseudopotentials (lmaxx) =  4
     file Mg.pbe-n-kjpaw_psl.0.3.0.UPF: wavefunction(s)  3S renormalized
     Message from routine setup:
     using ibrav=0 with symmetry is DISCOURAGED, use correct ibrav instead

     Using Slab Decomposition

     bravais-lattice index     =            0
     lattice parameter (alat)  =      14.8135  a.u.
     unit-cell volume          =    1328.3838 (a.u.)^3
     number of atoms/cell      =            9
     number of atomic types    =            3
     number of electrons       =        44.00
     number of Kohn-Sham states=           64
     kinetic-energy cutoff     =      30.0000  Ry
     charge density cutoff     =     240.0000  Ry
     scf convergence threshold =      1.0E-06
     mixing beta               =       0.7000
     number of iterations used =            8  plain     mixing
     Exchange-correlation=  SLA  PW   PBX  PBC
                           (   1   4   3   4   0   0   0)

     celldm(1)=  14.813482  celldm(2)=   0.000000  celldm(3)=   0.000000
     celldm(4)=   0.000000  celldm(5)=   0.000000  celldm(6)=   0.000000

     crystal axes: (cart. coord. in units of alat)
               a(1) = (   1.000000   0.000000   0.000000 )
               a(2) = (   0.499769   0.866159   0.000000 )
               a(3) = (  -0.666913  -0.576745   0.471796 )

     reciprocal axes: (cart. coord. in units 2 pi/alat)
               b(1) = (  1.000000 -0.576994  0.708218 )
               b(2) = (  0.000000  1.154522  1.411341 )
               b(3) = (  0.000000  0.000000  2.119559 )

     PseudoPot. # 1 for Mg read from file:
     /home/pragov/projects/rrg-bengioy-ad/pragov/crystal_structure_design/SSSP/Mg.pbe-n-kjpaw_psl.0.3.0.UPF
     MD5 check sum: 24ecedc7f3e3cbe212e682f4413594e4
     Pseudo is Projector augmented-wave + core cor, Zval =  2.0
     Generated using "atomic" code by A. Dal Corso  v.5.0.99 svn rev. 10869
     Shape of augmentation charge: PSQ
     Using radial grid of 1129 points,  4 beta functions with:
                l(1) =   0
                l(2) =   0
                l(3) =   1
                l(4) =   1
     Q(r) pseudized with 0 coefficients

     PseudoPot. # 2 for Si read from file:
     /home/pragov/projects/rrg-bengioy-ad/pragov/crystal_structure_design/SSSP/Si.pbe-n-rrkjus_psl.1.0.0.UPF
     MD5 check sum: 0b0bb1205258b0d07b9f9672cf965d36
     Pseudo is Ultrasoft + core correction, Zval =  4.0
     Generated using "atomic" code by A. Dal Corso  v.5.1
     Using radial grid of 1141 points,  6 beta functions with:
                l(1) =   0
                l(2) =   0
                l(3) =   1
                l(4) =   1
                l(5) =   2
                l(6) =   2
     Q(r) pseudized with 0 coefficients

     PseudoPot. # 3 for Ge read from file:
     /home/pragov/projects/rrg-bengioy-ad/pragov/crystal_structure_design/SSSP/ge_pbe_v1.4.uspp.F.UPF
     MD5 check sum: 9c9eaa91e581c3f09632fb3098b2c6b2
     Pseudo is Ultrasoft + core correction, Zval = 14.0
     Generated by new atomic code, or converted to UPF format
     Using radial grid of  873 points,  6 beta functions with:
                l(1) =   0
                l(2) =   0
                l(3) =   1
                l(4) =   1
                l(5) =   2
                l(6) =   2
     Q(r) pseudized with  8 coefficients,  rinner =    1.400   1.400   1.400
                                                       1.400   1.400

     atomic species   valence    mass     pseudopotential
        Mg             2.00    24.30500     Mg( 1.00)
        Si             4.00    28.08500     Si( 1.00)
        Ge            14.00    72.63000     Ge( 1.00)

      2 Sym. Ops., with inversion, found

                                    s                        frac. trans.

      isym =  1     identity

 cryst.   s( 1) = (     1          0          0      )
                  (     0          1          0      )
                  (     0          0          1      )

 cart.    s( 1) = (  1.0000000  0.0000000 -0.0000000 )
                  (  0.0000000  1.0000000 -0.0000000 )
                  (  0.0000000  0.0000000  1.0000000 )

      isym =  2     inversion

 cryst.   s( 2) = (    -1          0          0      )
                  (     0         -1          0      )
                  (     0          0         -1      )

 cart.    s( 2) = ( -1.0000000 -0.0000000  0.0000000 )
                  (  0.0000000 -1.0000000  0.0000000 )
                  (  0.0000000  0.0000000 -1.0000000 )

   Cartesian axes

     site n.     atom                  positions (alat units)
         1           Mg  tau(   1) = (   0.8334820   0.2883286   0.1184110  )
         2           Mg  tau(   2) = (   0.3325290   0.0001593   0.1177080  )
         3           Mg  tau(   3) = (   0.3334435   0.5782165   0.1177080  )
         4           Mg  tau(   4) = (  -0.0006268   0.0010852   0.3533853  )
         5           Mg  tau(   5) = (   0.4994118  -0.2888027   0.3540883  )
         6           Mg  tau(   6) = (   0.5003263   0.2892545   0.3540883  )
         7           Si  tau(   7) = (   0.0000000   0.0000000   0.0000000  )
         8           Ge  tau(   8) = (   0.9998477   0.5774405   0.0000000  )
         9           Ge  tau(   9) = (   0.4999208   0.2887185   0.0000000  )

   Crystallographic axes

     site n.     atom                  positions (cryst. coord.)
         1           Mg  tau(   1) = (  0.7509790  0.5000000  0.2509790  )
         2           Mg  tau(   2) = (  0.4158000  0.1663100  0.2494890  )
         3           Mg  tau(   3) = (  0.0831790  0.8336900  0.2494890  )
         4           Mg  tau(   4) = (  0.2490210  0.5000000  0.7490210  )
         5           Mg  tau(   5) = (  0.9168210  0.1663100  0.7505110  )
         6           Mg  tau(   6) = (  0.5842000  0.8336900  0.7505110  )
         7           Si  tau(   7) = (  0.0000000  0.0000000  0.0000000  )
         8           Ge  tau(   8) = (  0.6666680  0.6666680  0.0000000  )
         9           Ge  tau(   9) = (  0.3333320  0.3333320  0.0000000  )

     number of k points=    14
                       cart. coord. in units 2pi/alat
        k(    1) = (   0.0000000   0.0000000   0.0000000), wk =   0.0740741
        k(    2) = (   0.0000000   0.0000000   0.7065196), wk =   0.1481481
        k(    3) = (   0.0000000   0.3848408   0.4704469), wk =   0.1481481
        k(    4) = (   0.0000000   0.3848408   1.1769665), wk =   0.1481481
        k(    5) = (   0.0000000   0.3848408  -0.2360728), wk =   0.1481481
        k(    6) = (   0.3333333  -0.1923313   0.2360728), wk =   0.1481481
        k(    7) = (   0.3333333  -0.1923313   0.9425924), wk =   0.1481481
        k(    8) = (   0.3333333  -0.1923313  -0.4704469), wk =   0.1481481
        k(    9) = (   0.3333333   0.1925095   0.7065196), wk =   0.1481481
        k(   10) = (   0.3333333   0.1925095   1.4130393), wk =   0.1481481
        k(   11) = (   0.3333333   0.1925095  -0.0000000), wk =   0.1481481
        k(   12) = (   0.3333333  -0.5771721  -0.2343741), wk =   0.1481481
        k(   13) = (   0.3333333  -0.5771721   0.4721455), wk =   0.1481481
        k(   14) = (   0.3333333  -0.5771721  -0.9408938), wk =   0.1481481

                       cryst. coord.
        k(    1) = (   0.0000000   0.0000000   0.0000000), wk =   0.0740741
        k(    2) = (   0.0000000   0.0000000   0.3333333), wk =   0.1481481
        k(    3) = (   0.0000000   0.3333333  -0.0000000), wk =   0.1481481
        k(    4) = (   0.0000000   0.3333333   0.3333333), wk =   0.1481481
        k(    5) = (   0.0000000   0.3333333  -0.3333333), wk =   0.1481481
        k(    6) = (   0.3333333   0.0000000  -0.0000000), wk =   0.1481481
        k(    7) = (   0.3333333   0.0000000   0.3333333), wk =   0.1481481
        k(    8) = (   0.3333333   0.0000000  -0.3333333), wk =   0.1481481
        k(    9) = (   0.3333333   0.3333333  -0.0000000), wk =   0.1481481
        k(   10) = (   0.3333333   0.3333333   0.3333333), wk =   0.1481481
        k(   11) = (   0.3333333   0.3333333  -0.3333333), wk =   0.1481481
        k(   12) = (   0.3333333  -0.3333333   0.0000000), wk =   0.1481481
        k(   13) = (   0.3333333  -0.3333333   0.3333333), wk =   0.1481481
        k(   14) = (   0.3333333  -0.3333333  -0.3333333), wk =   0.1481481

     Initial potential from superposition of free atoms

     starting charge      43.9922, renormalised to      44.0000
     Starting wfcs are   46 randomized atomic wfcs +   18 random wfcs
     Checking if some PAW data can be deallocated...

     Self-consistent Calculation

     iteration #  1     ecut=    30.00 Ry     beta= 0.70
     Davidson diagonalization with overlap

     ethr =  1.00E-02,  avg # of iterations =  6.4

     Threshold (ethr) on eigenvalues was too large:
     Diagonalizing with lowered threshold

     Davidson diagonalization with overlap

[...]

     total energy              =    -640.43611753 Ry
     estimated scf accuracy    <       0.37138037 Ry

[...]

     c_bands:  1 eigenvalues not converged
     ethr =  1.14E-05,  avg # of iterations =  9.6

[...]

     total energy              =    -640.52872186 Ry
     estimated scf accuracy    <       0.00002789 Ry

     iteration #  7     ecut=    30.00 Ry     beta= 0.70
     Davidson diagonalization with overlap

     ethr =  6.34E-08,  avg # of iterations =  2.7

     End of self-consistent calculation

          k = 0.0000 0.0000 0.0000 (  3683 PWs)   bands (ev):

   -18.7276 -18.7241 -18.7204 -18.7178 -18.7174 -18.7131 -18.7088 -18.7072
   -18.7024 -18.6987  -4.5307  -3.1015  -2.5183   1.2006   1.2171   1.2842
     1.2914   3.5608   3.5983   4.9961   5.0047   5.0054   5.8922   6.0269
     6.2579   7.6765   7.6853   7.6959   9.2049   9.3106  10.1322  10.3587
    10.3592  10.4231  10.4513  10.5662  10.5786  10.6344  10.9221  10.9646
    11.0774  12.0726  12.0753  12.0982  14.7353  14.7405  15.4288  15.6146
    15.8197  16.9788  17.0319  17.3317  17.7099  17.8271  17.8682  18.1132
    18.2327  19.3423  19.5103  20.0250  20.0462  20.0611  20.1037  20.7646

     occupation numbers
     1.0000   1.0000   1.0000   1.0000   1.0000   1.0000   1.0000   1.0000
     1.0000   1.0000   1.0000   1.0000   1.0000   1.0000   1.0000   1.0000
     1.0000   1.0000   1.0000   1.0000   1.0000   1.0000   0.0000   0.0000
     0.0000   0.0000   0.0000   0.0000   0.0000   0.0000   0.0000   0.0000
     0.0000   0.0000   0.0000   0.0000   0.0000   0.0000   0.0000   0.0000
     0.0000   0.0000   0.0000   0.0000   0.0000   0.0000   0.0000   0.0000
     0.0000   0.0000   0.0000   0.0000   0.0000   0.0000   0.0000   0.0000
     0.0000   0.0000   0.0000   0.0000   0.0000   0.0000   0.0000   0.0000

[...]

          k = 0.3333-0.5772-0.9409 (  3696 PWs)   bands (ev):

   -18.7284 -18.7251 -18.7206 -18.7186 -18.7183 -18.7156 -18.7057 -18.7041
   -18.7032 -18.7002  -3.5830  -3.3568  -2.6072   1.1974   1.2858   1.4544
     1.5650   3.3335   3.3447   3.3455   3.3675   3.5948   5.8319   5.8320
     5.8331   5.9059   6.0445   9.2109  10.2765  10.4655  10.4832  10.4968
    10.8837  10.9829  11.0941  11.1240  11.4665  11.6246  12.3617  12.5415
    14.6984  14.7428  14.7735  14.7887  14.8273  15.4670  15.4704  15.5348
    15.5876  15.7283  15.9895  16.1910  16.2158  16.4427  17.1234  17.2377
    17.4001  17.4263  18.0796  18.1075  18.6142  18.7930  19.4425  20.0199

     occupation numbers
     1.0000   1.0000   1.0000   1.0000   1.0000   1.0000   1.0000   1.0000
     1.0000   1.0000   1.0000   1.0000   1.0000   1.0000   1.0000   1.0000
     1.0000   1.0000   1.0000   1.0000   1.0000   1.0000   0.0000   0.0000
     0.0000   0.0000   0.0000   0.0000   0.0000   0.0000   0.0000   0.0000
     0.0000   0.0000   0.0000   0.0000   0.0000   0.0000   0.0000   0.0000
     0.0000   0.0000   0.0000   0.0000   0.0000   0.0000   0.0000   0.0000
     0.0000   0.0000   0.0000   0.0000   0.0000   0.0000   0.0000   0.0000
     0.0000   0.0000   0.0000   0.0000   0.0000   0.0000   0.0000   0.0000

     highest occupied, lowest unoccupied level (ev):     5.0054    5.3328

!    total energy              =    -640.52872839 Ry
     estimated scf accuracy    <       0.00000021 Ry

     The total energy is the sum of the following terms:
     one-electron contribution =    -361.26158301 Ry
     hartree contribution      =     210.63169483 Ry
     xc contribution           =    -132.47997691 Ry
     ewald contribution        =    -169.67089132 Ry
     one-center paw contrib.   =    -187.74797199 Ry
      -> PAW hartree energy AE =       1.53272575 Ry
      -> PAW hartree energy PS =      -1.52916394 Ry
      -> PAW xc energy AE      =     -65.18455142 Ry
      -> PAW xc energy PS      =       2.59834061 Ry
      -> total E_H with PAW    =     210.63525665 Ry
      -> total E_XC with PAW   =    -195.06618771 Ry

     convergence has been achieved in   7 iterations

     Writing all to output data dir calculations_bands/myprefix.save/

     General routines

     Parallel routines

     PAW routines

   This run was terminated on:  22:16:42   5Jun2023

   JOB DONE.