     Program PWSCF v.7.0 starts on  6Jun2023 at 11:51:34

     K-points division:     npool     =       2
     R & G space division:  proc/nbgrp/npool/nimage =       4

     Reading input from espresso_16536.pwi
Warning: card &CELL ignored
Warning: card / ignored

     Current dimensions of program PWSCF are:
     Max number of different atomic species (ntypx) = 10
     Max number of k-points (npk) =  40000
     Max angular momentum in pseudopotentials (lmaxx) =  4
     file O.pbe-n-kjpaw_psl.0.1.UPF: wavefunction(s)  2P renormalized
     Message from routine setup:
     using ibrav=0 with symmetry is DISCOURAGED, use correct ibrav instead

     Using Slab Decomposition

     bravais-lattice index     =            0
     lattice parameter (alat)  =      12.4824  a.u.
     unit-cell volume          =     742.9114 (a.u.)^3
     number of atoms/cell      =           12
     number of atomic types    =            4
     number of electrons       =        90.00
     number of Kohn-Sham states=           64
     kinetic-energy cutoff     =      30.0000  Ry
     charge density cutoff     =     240.0000  Ry
     scf convergence threshold =      1.0E-06
     mixing beta               =       0.7000
     number of iterations used =            8  plain     mixing
     Exchange-correlation= SLA  PW   PBX  PBC
                           (   1   4   3   4   0   0   0)

     celldm(1)=  12.482449  celldm(2)=   0.000000  celldm(3)=   0.000000
     celldm(4)=   0.000000  celldm(5)=   0.000000  celldm(6)=   0.000000

     crystal axes: (cart. coord. in units of alat)
               a(1) = (   1.000000   0.000000   0.000000 )
               a(2) = (   0.899373   0.437182   0.000000 )
               a(3) = (   0.200909   0.046244   0.873726 )

     reciprocal axes: (cart. coord. in units 2 pi/alat)
               b(1) = (  1.000000 -2.057204 -0.121064 )
               b(2) = (  0.000000  2.287376 -0.121064 )
               b(3) = (  0.000000  0.000000  1.144524 )

     PseudoPot. # 1 for Li read from file:
     /home/pragov/projects/rrg-bengioy-ad/pragov/crystal_structure_design/SSSP/li_pbe_v1.4.uspp.F.UPF
     MD5 check sum: e912e257baa3777c20ea3d68f190483c
     Pseudo is Ultrasoft, Zval =  3.0
     Generated by new atomic code, or converted to UPF format
     Using radial grid of  751 points,  5 beta functions with:
                l(1) =   0
                l(2) =   0
                l(3) =   0
                l(4) =   1
                l(5) =   1
     Q(r) pseudized with 10 coefficients,  rinner =    1.150   1.150   1.150

     PseudoPot. # 2 for Cr read from file:
     /home/pragov/projects/rrg-bengioy-ad/pragov/crystal_structure_design/SSSP/cr_pbe_v1.5.uspp.F.UPF
     MD5 check sum: 0d52af634a40206e4dee301ad30da4bf
     Pseudo is Ultrasoft + core correction, Zval = 14.0
     Generated by new atomic code, or converted to UPF format
     Using radial grid of  857 points,  6 beta functions with:
                l(1) =   0
                l(2) =   0
                l(3) =   1
                l(4) =   1
                l(5) =   2
                l(6) =   2
     Q(r) pseudized with  8 coefficients,  rinner =    0.950   0.950   0.950
                                                       0.950   0.950

     PseudoPot. # 3 for Co read from file:
     /home/pragov/projects/rrg-bengioy-ad/pragov/crystal_structure_design/SSSP/Co_pbe_v1.2.uspp.F.UPF
     MD5 check sum: 5f91765df6ddd3222702df6e7b74a16d
     Pseudo is Ultrasoft + core correction, Zval = 17.0
     Generated by new atomic code, or converted to UPF format
     Using radial grid of  863 points,  6 beta functions with:
                l(1) =   0
                l(2) =   0
                l(3) =   1
                l(4) =   1
                l(5) =   2
                l(6) =   2
     Q(r) pseudized with  8 coefficients,  rinner =    1.200   1.200   1.200
                                                       1.200   1.200

     PseudoPot. # 4 for O  read from file:
     /home/pragov/projects/rrg-bengioy-ad/pragov/crystal_structure_design/SSSP/O.pbe-n-kjpaw_psl.0.1.UPF
     MD5 check sum: 0234752ac141de4415c5fc33072bef88
     Pseudo is Projector augmented-wave + core cor, Zval =  6.0
     Generated using "atomic" code by A. Dal Corso  v.5.0.99 svn rev. 10869
     Shape of augmentation charge: BESSEL
     Using radial grid of 1095 points,  4 beta functions with:
                l(1) =   0
                l(2) =   0
                l(3) =   1
                l(4) =   1
     Q(r) pseudized with 0 coefficients

     atomic species   valence    mass     pseudopotential
        Li             3.00     6.94000     Li( 1.00)
        Cr            14.00    51.99610     Cr( 1.00)
        Co            17.00    58.93319     Co( 1.00)
        O              6.00    15.99900     O ( 1.00)

      2 Sym. Ops., with inversion, found

                                    s                        frac. trans.

      isym =  1     identity

 cryst.   s( 1) = (     1          0          0      )
                  (     0          1          0      )
                  (     0          0          1      )

 cart.    s( 1) = (  1.0000000 -0.0000000  0.0000000 )
                  (  0.0000000  1.0000000  0.0000000 )
                  (  0.0000000  0.0000000  1.0000000 )

      isym =  2     inversion

 cryst.   s( 2) = (    -1          0          0      )
                  (     0         -1          0      )
                  (     0          0         -1      )

 cart.    s( 2) = ( -1.0000000  0.0000000 -0.0000000 )
                  (  0.0000000 -1.0000000 -0.0000000 )
                  (  0.0000000  0.0000000 -1.0000000 )

   Cartesian axes

     site n.     atom                  positions (alat units)
         1           Li  tau(   1) = (   0.3442980   0.0792477   0.1486679  )
         2           Li  tau(   2) = (   1.0501410   0.2417129   0.4368629  )
         3           Li  tau(   3) = (   1.7559841   0.4041781   0.7250578  )
         4           Cr  tau(   4) = (   0.4500349   0.1035854   0.5839537  )
         5           Cr  tau(   5) = (   1.6502472   0.3798405   0.2897720  )
         6           Co  tau(   6) = (   0.9496865   0.2185911   0.0000000  )
         7           O   tau(   7) = (   1.4373863   0.3308459   0.7899791  )
         8           O   tau(   8) = (   1.9374302   0.4459419   0.2068720  )
         9           O   tau(   9) = (   0.7378950   0.1698427   0.4968869  )
        10           O   tau(  10) = (   0.1628519   0.0374839   0.6668537  )
        11           O   tau(  11) = (   0.6628958   0.1525799   0.0837466  )
        12           O   tau(  12) = (   1.3623870   0.3135832   0.3768388  )

   Crystallographic axes

     site n.     atom                  positions (cryst. coord.)
         1           Li  tau(   1) = (  0.1632710  0.1632710  0.1701540  )
         2           Li  tau(   2) = (  0.5000000  0.5000000  0.5000000  )
         3           Li  tau(   3) = (  0.8367290  0.8367290  0.8298460  )
         4           Cr  tau(   4) = (  0.1662430  0.1662430  0.6683490  )
         5           Cr  tau(   5) = (  0.8337570  0.8337570  0.3316510  )
         6           Co  tau(   6) = (  0.5000000  0.5000000  0.0000000  )
         7           O   tau(   7) = (  0.6611310  0.6611310  0.9041500  )
         8           O   tau(   8) = (  0.9949920  0.9949920  0.2367700  )
         9           O   tau(   9) = (  0.3283390  0.3283390  0.5686990  )
        10           O   tau(  10) = (  0.0050080  0.0050080  0.7632300  )
        11           O   tau(  11) = (  0.3388690  0.3388690  0.0958500  )
        12           O   tau(  12) = (  0.6716610  0.6716610  0.4313010  )

     number of k points=    14
                       cart. coord. in units 2pi/alat
        k(    1) = (   0.0000000   0.0000000   0.0000000), wk =   0.0740741
        k(    2) = (   0.0000000   0.0000000   0.3815080), wk =   0.1481481
        k(    3) = (   0.0000000   0.7624586  -0.0403546), wk =   0.1481481
        k(    4) = (   0.0000000   0.7624586   0.3411534), wk =   0.1481481
        k(    5) = (   0.0000000   0.7624586  -0.4218626), wk =   0.1481481
        k(    6) = (   0.3333333  -0.6857347  -0.0403546), wk =   0.1481481
        k(    7) = (   0.3333333  -0.6857347   0.3411534), wk =   0.1481481
        k(    8) = (   0.3333333  -0.6857347  -0.4218626), wk =   0.1481481
        k(    9) = (   0.3333333   0.0767240  -0.0807092), wk =   0.1481481
        k(   10) = (   0.3333333   0.0767240   0.3007988), wk =   0.1481481
        k(   11) = (   0.3333333   0.0767240  -0.4622172), wk =   0.1481481
        k(   12) = (   0.3333333  -1.4481933  -0.0000000), wk =   0.1481481
        k(   13) = (   0.3333333  -1.4481933   0.3815080), wk =   0.1481481
        k(   14) = (   0.3333333  -1.4481933  -0.3815080), wk =   0.1481481

                       cryst. coord.
        k(    1) = (   0.0000000   0.0000000   0.0000000), wk =   0.0740741
        k(    2) = (   0.0000000   0.0000000   0.3333333), wk =   0.1481481
        k(    3) = (   0.0000000   0.3333333   0.0000000), wk =   0.1481481
        k(    4) = (   0.0000000   0.3333333   0.3333333), wk =   0.1481481
        k(    5) = (   0.0000000   0.3333333  -0.3333333), wk =   0.1481481
        k(    6) = (   0.3333333  -0.0000000   0.0000000), wk =   0.1481481
        k(    7) = (   0.3333333  -0.0000000   0.3333333), wk =   0.1481481
        k(    8) = (   0.3333333  -0.0000000  -0.3333333), wk =   0.1481481
        k(    9) = (   0.3333333   0.3333333  -0.0000000), wk =   0.1481481
        k(   10) = (   0.3333333   0.3333333   0.3333333), wk =   0.1481481
        k(   11) = (   0.3333333   0.3333333  -0.3333333), wk =   0.1481481
        k(   12) = (   0.3333333  -0.3333333   0.0000000), wk =   0.1481481
        k(   13) = (   0.3333333  -0.3333333   0.3333333), wk =   0.1481481
        k(   14) = (   0.3333333  -0.3333333  -0.3333333), wk =   0.1481481

     Check: negative core charge=   -0.000021

     Initial potential from superposition of free atoms

     starting charge      85.6477, renormalised to      90.0000

     negative rho (up, down):  2.387E-03 0.000E+00
     Starting wfcs are   72 randomized atomic wfcs
     Checking if some PAW data can be deallocated...

     Self-consistent Calculation

     iteration #  1     ecut=    30.00 Ry     beta= 0.70
     Davidson diagonalization with overlap

     ethr =  1.00E-02,  avg # of iterations =  3.6

     negative rho (up, down):  1.511E-03 0.000E+00

     total energy              =    -907.05257131 Ry
     estimated scf accuracy    <      46.39210532 Ry

[...]

     total energy              =    -943.04705402 Ry
     estimated scf accuracy    <       0.00002399 Ry

     iteration # 29     ecut=    30.00 Ry     beta= 0.70
     Davidson diagonalization with overlap

     ethr =  2.67E-08,  avg # of iterations =  1.1

     negative rho (up, down):  2.385E-03 0.000E+00

     End of self-consistent calculation

          k = 0.0000 0.0000 0.0000 (  2055 PWs)   bands (ev):

   -85.3729 -62.4142 -62.4043 -48.7353 -48.5763 -48.5562 -35.3982 -35.3895
   -35.3436 -33.8024 -33.7973 -33.7816 -33.7178 -33.6026 -33.5963 -10.0195
    -9.1781  -9.0588  -8.8647  -8.7830  -8.6323   3.0966   3.3738   3.5493
     3.9005   4.0274   4.8410   4.9158   5.1100   5.3298   5.3686   5.4562
     6.1192   6.2126   6.4760   6.5344   7.2800   7.3371   7.3441   8.6034
     8.8390   9.1221   9.3170   9.6827   9.8514  10.3341  10.3387  10.6343
    10.7068  11.2042  11.8991  12.3422  12.3902  12.4325  14.0349  16.4030
    17.3791  17.4125  18.3804  18.9011  21.1056  21.3662  21.5329  22.0361

     occupation numbers
     1.0000   1.0000   1.0000   1.0000   1.0000   1.0000   1.0000   1.0000
     1.0000   1.0000   1.0000   1.0000   1.0000   1.0000   1.0000   1.0000
     1.0000   1.0000   1.0000   1.0000   1.0000   1.0000   1.0000   1.0000
     1.0000   1.0000   1.0000   1.0000   1.0000   1.0000   1.0000   1.0000
     1.0000   1.0000   1.0000   1.0000   1.0000   1.0000   1.0000   1.0000
     1.0000   1.0000   1.0000   1.0000   1.0000   0.0000   0.0000   0.0000
     0.0000   0.0000   0.0000   0.0000   0.0000   0.0000   0.0000   0.0000
     0.0000   0.0000   0.0000   0.0000   0.0000   0.0000   0.0000   0.0000

[...]

          k = 0.3333-1.4482-0.3815 (  2071 PWs)   bands (ev):

   -85.3715 -62.4037 -62.3989 -48.7344 -48.5955 -48.5517 -35.3877 -35.3838
   -35.3367 -33.8967 -33.8876 -33.7564 -33.7167 -33.5918 -33.5886  -9.2582
    -9.0434  -8.9387  -8.8430  -8.6309  -8.5586   3.4540   3.6421   3.7680
     4.0400   4.1055   4.1454   4.5432   4.7186   5.0344   5.1795   5.3187
     5.4753   5.5529   5.7625   5.9465   5.9828   6.2196   6.8206   8.8937
     9.0320   9.2513   9.8569   9.9284  10.2581  10.2971  10.3470  10.4882
    10.8279  10.8997  11.9661  12.1223  12.3487  12.4443  17.0963  17.1361
    18.4512  18.5705  19.7297  20.2058  20.7095  20.8671  21.0191  21.4934

     occupation numbers
     1.0000   1.0000   1.0000   1.0000   1.0000   1.0000   1.0000   1.0000
     1.0000   1.0000   1.0000   1.0000   1.0000   1.0000   1.0000   1.0000
     1.0000   1.0000   1.0000   1.0000   1.0000   1.0000   1.0000   1.0000
     1.0000   1.0000   1.0000   1.0000   1.0000   1.0000   1.0000   1.0000
     1.0000   1.0000   1.0000   1.0000   1.0000   1.0000   1.0000   1.0000
     1.0000   1.0000   1.0000   1.0000   1.0000   0.0000   0.0000   0.0000
     0.0000   0.0000   0.0000   0.0000   0.0000   0.0000   0.0000   0.0000
     0.0000   0.0000   0.0000   0.0000   0.0000   0.0000   0.0000   0.0000

     highest occupied, lowest unoccupied level (ev):    10.3363   10.2244

!    total energy              =    -943.04705719 Ry
     estimated scf accuracy    <       0.00000080 Ry

     The total energy is the sum of the following terms:
     one-electron contribution =    -532.47946974 Ry
     hartree contribution      =     305.79467521 Ry
     xc contribution           =    -132.12938055 Ry
     ewald contribution        =    -527.09343999 Ry
     one-center paw contrib.   =     -57.13944212 Ry
      -> PAW hartree energy AE =       0.00000000 Ry
      -> PAW hartree energy PS =       0.00000000 Ry
      -> PAW xc energy AE      =       0.00000000 Ry
      -> PAW xc energy PS      =       0.00000000 Ry
      -> total E_H with PAW    =     305.79467521 Ry
      -> total E_XC with PAW   =    -132.12938055 Ry

     convergence has been achieved in  29 iterations

     Writing all to output data dir calculations_bands/myprefix.save/

     General routines

     Parallel routines

     PAW routines

   This run was terminated on:  11:52: 2   6Jun2023

   JOB DONE.