     Program PWSCF v.7.0 starts on  7Jun2023 at 10:31: 2

     K-points division:     npool     =       2
     R & G space division:  proc/nbgrp/npool/nimage =       4

     Reading input from espresso_9872.pwi
Warning: card &CELL ignored
Warning: card / ignored

     Current dimensions of program PWSCF are:
     Max number of different atomic species (ntypx) = 10
     Max number of k-points (npk) =  40000
     Max angular momentum in pseudopotentials (lmaxx) =  4
     Message from routine setup:
     using ibrav=0 with symmetry is DISCOURAGED, use correct ibrav instead

     Using Slab Decomposition

     bravais-lattice index     =            0
     lattice parameter (alat)  =      15.0700  a.u.
     unit-cell volume          =    1769.2408 (a.u.)^3
     number of atoms/cell      =           12
     number of atomic types    =            2
     number of electrons       =       114.00
     number of Kohn-Sham states=           64
     kinetic-energy cutoff     =      30.0000  Ry
     charge density cutoff     =     240.0000  Ry
     scf convergence threshold =      1.0E-06
     mixing beta               =       0.7000
     number of iterations used =            8  plain     mixing
     Exchange-correlation= PBE
                           (   1   4   3   4   0   0   0)

     celldm(1)=  15.070024  celldm(2)=   0.000000  celldm(3)=   0.000000
     celldm(4)=   0.000000  celldm(5)=   0.000000  celldm(6)=   0.000000

     crystal axes: (cart. coord. in units of alat)
               a(1) = (   1.000000   0.000000   0.000000 )
               a(2) = (   0.893336   0.449389   0.000000 )
               a(3) = (   0.247759   0.058806   1.150330 )

     reciprocal axes: (cart. coord. in units 2 pi/alat)
               b(1) = (  1.000000 -1.987889 -0.113758 )
               b(2) = (  0.000000  2.225242 -0.113758 )
               b(3) = (  0.000000  0.000000  0.869316 )

     PseudoPot. # 1 for Ge read from file:
     /home/pragov/projects/rrg-bengioy-ad/pragov/crystal_structure_design/SSSP/ge_pbe_v1.4.uspp.F.UPF
     MD5 check sum: 9c9eaa91e581c3f09632fb3098b2c6b2
     Pseudo is Ultrasoft + core correction, Zval = 14.0
     Generated by new atomic code, or converted to UPF format
     Using radial grid of  873 points,  6 beta functions with:
                l(1) =   0
                l(2) =   0
                l(3) =   1
                l(4) =   1
                l(5) =   2
                l(6) =   2
     Q(r) pseudized with  8 coefficients,  rinner =    1.400   1.400   1.400
                                                       1.400   1.400

     PseudoPot. # 2 for P  read from file:
     /home/pragov/projects/rrg-bengioy-ad/pragov/crystal_structure_design/SSSP/P.pbe-n-rrkjus_psl.1.0.0.UPF
     MD5 check sum: 8b930f418f0a4573dca56cd030ffe088
     Pseudo is Ultrasoft + core correction, Zval =  5.0
     Generated using "atomic" code by A. Dal Corso  v.5.1
     Using radial grid of 1147 points,  6 beta functions with:
                l(1) =   0
                l(2) =   0
                l(3) =   1
                l(4) =   1
                l(5) =   2
                l(6) =   2
     Q(r) pseudized with 0 coefficients

     atomic species   valence    mass     pseudopotential
        Ge            14.00    72.63000     Ge( 1.00)
        P              5.00    30.97376     P ( 1.00)

      2 Sym. Ops., with inversion, found

                                    s                        frac. trans.

      isym =  1     identity

 cryst.   s( 1) = (     1          0          0      )
                  (     0          1          0      )
                  (     0          0          1      )

 cart.    s( 1) = (  1.0000000 -0.0000000  0.0000000 )
                  (  0.0000000  1.0000000 -0.0000000 )
                  (  0.0000000  0.0000000  1.0000000 )

      isym =  2     inversion

 cryst.   s( 2) = (    -1          0          0      )
                  (     0         -1          0      )
                  (     0          0         -1      )

 cart.    s( 2) = ( -1.0000000  0.0000000 -0.0000000 )
                  (  0.0000000 -1.0000000  0.0000000 )
                  (  0.0000000  0.0000000 -1.0000000 )

   Cartesian axes

     site n.     atom                  positions (alat units)
         1           Ge  tau(   1) = (   0.9356653   0.2220831   1.0654481  )
         2           Ge  tau(   2) = (   1.2054301   0.2861127   0.0848817  )
         3           Ge  tau(   3) = (   0.6747843   0.1601622   0.9055281  )
         4           Ge  tau(   4) = (   1.4663112   0.3480336   0.2448017  )
         5           Ge  tau(   5) = (   1.9070046   0.4526336   0.6827886  )
         6           Ge  tau(   6) = (   0.2340908   0.0555622   0.4675412  )
         7           P   tau(   7) = (   2.0320174   0.4823058   0.9577220  )
         8           P   tau(   8) = (   0.1090781   0.0258900   0.1926078  )
         9           P   tau(   9) = (   1.4421951   0.3423096   0.9387749  )
        10           P   tau(  10) = (   0.6989003   0.1658862   0.2115548  )
        11           P   tau(  11) = (   0.7828315   0.1858075   0.6314022  )
        12           P   tau(  12) = (   1.3582639   0.3223883   0.5189276  )

   Crystallographic axes

     site n.     atom                  positions (cryst. coord.)
         1           Ge  tau(   1) = (  0.3729860  0.3729860  0.9262110  )
         2           Ge  tau(   2) = (  0.6270140  0.6270140  0.0737890  )
         3           Ge  tau(   3) = (  0.2533890  0.2533890  0.7871900  )
         4           Ge  tau(   4) = (  0.7466110  0.7466110  0.2128100  )
         5           Ge  tau(   5) = (  0.9295470  0.9295470  0.5935590  )
         6           Ge  tau(   6) = (  0.0704530  0.0704530  0.4064410  )
         7           P   tau(   7) = (  0.9642990  0.9642990  0.8325630  )
         8           P   tau(   8) = (  0.0357010  0.0357010  0.1674370  )
         9           P   tau(   9) = (  0.6549290  0.6549290  0.8160920  )
        10           P   tau(  10) = (  0.3450710  0.3450710  0.1839080  )
        11           P   tau(  11) = (  0.3416400  0.3416400  0.5488880  )
        12           P   tau(  12) = (  0.6583600  0.6583600  0.4511120  )

     number of k points=    14
                       cart. coord. in units 2pi/alat
        k(    1) = (   0.0000000   0.0000000   0.0000000), wk =   0.0740741
        k(    2) = (   0.0000000   0.0000000   0.2897720), wk =   0.1481481
        k(    3) = (   0.0000000   0.7417473  -0.0379192), wk =   0.1481481
        k(    4) = (   0.0000000   0.7417473   0.2518528), wk =   0.1481481
        k(    5) = (   0.0000000   0.7417473  -0.3276912), wk =   0.1481481
        k(    6) = (   0.3333333  -0.6626296  -0.0379192), wk =   0.1481481
        k(    7) = (   0.3333333  -0.6626296   0.2518528), wk =   0.1481481
        k(    8) = (   0.3333333  -0.6626296  -0.3276912), wk =   0.1481481
        k(    9) = (   0.3333333   0.0791177  -0.0758383), wk =   0.1481481
        k(   10) = (   0.3333333   0.0791177   0.2139336), wk =   0.1481481
        k(   11) = (   0.3333333   0.0791177  -0.3656103), wk =   0.1481481
        k(   12) = (   0.3333333  -1.4043769   0.0000000), wk =   0.1481481
        k(   13) = (   0.3333333  -1.4043769   0.2897720), wk =   0.1481481
        k(   14) = (   0.3333333  -1.4043769  -0.2897720), wk =   0.1481481

                       cryst. coord.
        k(    1) = (   0.0000000   0.0000000   0.0000000), wk =   0.0740741
        k(    2) = (   0.0000000   0.0000000   0.3333333), wk =   0.1481481
        k(    3) = (   0.0000000   0.3333333   0.0000000), wk =   0.1481481
        k(    4) = (   0.0000000   0.3333333   0.3333333), wk =   0.1481481
        k(    5) = (   0.0000000   0.3333333  -0.3333333), wk =   0.1481481
        k(    6) = (   0.3333333   0.0000000   0.0000000), wk =   0.1481481
        k(    7) = (   0.3333333   0.0000000   0.3333333), wk =   0.1481481
        k(    8) = (   0.3333333   0.0000000  -0.3333333), wk =   0.1481481
        k(    9) = (   0.3333333   0.3333333   0.0000000), wk =   0.1481481
        k(   10) = (   0.3333333   0.3333333   0.3333333), wk =   0.1481481
        k(   11) = (   0.3333333   0.3333333  -0.3333333), wk =   0.1481481
        k(   12) = (   0.3333333  -0.3333333   0.0000000), wk =   0.1481481
        k(   13) = (   0.3333333  -0.3333333   0.3333333), wk =   0.1481481
        k(   14) = (   0.3333333  -0.3333333  -0.3333333), wk =   0.1481481

     Initial potential from superposition of free atoms

     starting charge     113.9938, renormalised to     114.0000
     Starting wfcs are   78 randomized atomic wfcs

     Self-consistent Calculation

     iteration #  1     ecut=    30.00 Ry     beta= 0.70
     Davidson diagonalization with overlap

     ethr =  1.00E-02,  avg # of iterations =  3.1

     Threshold (ethr) on eigenvalues was too large:
     Diagonalizing with lowered threshold

     Davidson diagonalization with overlap

[...]

     total energy              =   -1365.99509669 Ry
     estimated scf accuracy    <       0.26956333 Ry

[...]

     total energy              =   -1366.05017250 Ry
     estimated scf accuracy    <       0.00001708 Ry

     iteration #  9     ecut=    30.00 Ry     beta= 0.70
     Davidson diagonalization with overlap

     ethr =  1.50E-08,  avg # of iterations =  2.1

     End of self-consistent calculation

          k = 0.0000 0.0000 0.0000 (  4891 PWs)   bands (ev):

   -17.8013 -17.7382 -17.7330 -17.7317 -17.7276 -17.7136 -17.7106 -17.6970
   -17.6955 -17.6743 -17.6690 -17.6653 -17.6648 -17.6605 -17.6533 -17.6475
   -17.6436 -17.6369 -17.6295 -17.6263 -17.6210 -17.6192 -17.6112 -17.6093
   -17.5920 -17.5873 -17.5746 -17.5742 -17.5427 -17.5328  -6.4006  -5.4987
    -5.0443  -4.8698  -4.2441  -3.8229  -1.2708  -1.1670  -0.2200   0.5070
     1.6311   2.5571   3.1842   3.9492   4.2614   4.2952   4.3818   4.5467
     4.8404   5.0812   5.4196   5.5698   5.6164   5.6279   5.7366   5.8618
     6.1487   8.1666   8.5420   9.1130   9.1889   9.3740   9.5904   9.9640

     occupation numbers
     1.0000   1.0000   1.0000   1.0000   1.0000   1.0000   1.0000   1.0000
     1.0000   1.0000   1.0000   1.0000   1.0000   1.0000   1.0000   1.0000
     1.0000   1.0000   1.0000   1.0000   1.0000   1.0000   1.0000   1.0000
     1.0000   1.0000   1.0000   1.0000   1.0000   1.0000   1.0000   1.0000
     1.0000   1.0000   1.0000   1.0000   1.0000   1.0000   1.0000   1.0000
     1.0000   1.0000   1.0000   1.0000   1.0000   1.0000   1.0000   1.0000
     1.0000   1.0000   1.0000   1.0000   1.0000   1.0000   1.0000   1.0000
     1.0000   0.0000   0.0000   0.0000   0.0000   0.0000   0.0000   0.0000

[...]

          k = 0.3333-1.4044-0.2898 (  4934 PWs)   bands (ev):

   -17.8000 -17.7411 -17.7380 -17.7299 -17.7284 -17.7202 -17.7061 -17.7000
   -17.6950 -17.6745 -17.6728 -17.6675 -17.6665 -17.6604 -17.6534 -17.6508
   -17.6426 -17.6377 -17.6360 -17.6271 -17.6239 -17.6148 -17.6124 -17.6068
   -17.5927 -17.5897 -17.5783 -17.5775 -17.5370 -17.5348  -5.1190  -4.7097
    -4.4382  -3.9299  -3.3787  -2.9803  -2.1256  -1.5579  -0.3405  -0.1875
     0.3762   0.6556   2.2786   2.6116   2.7948   3.1022   3.4585   3.6172
     3.9351   4.0174   4.2477   4.6064   4.8634   5.1178   5.4588   5.6717
     6.2257   8.4583   8.9646   9.1840   9.3388   9.6634   9.9436  10.2039

     occupation numbers
     1.0000   1.0000   1.0000   1.0000   1.0000   1.0000   1.0000   1.0000
     1.0000   1.0000   1.0000   1.0000   1.0000   1.0000   1.0000   1.0000
     1.0000   1.0000   1.0000   1.0000   1.0000   1.0000   1.0000   1.0000
     1.0000   1.0000   1.0000   1.0000   1.0000   1.0000   1.0000   1.0000
     1.0000   1.0000   1.0000   1.0000   1.0000   1.0000   1.0000   1.0000
     1.0000   1.0000   1.0000   1.0000   1.0000   1.0000   1.0000   1.0000
     1.0000   1.0000   1.0000   1.0000   1.0000   1.0000   1.0000   1.0000
     1.0000   0.0000   0.0000   0.0000   0.0000   0.0000   0.0000   0.0000

     highest occupied, lowest unoccupied level (ev):     7.1282    8.1580

!    total energy              =   -1366.05017523 Ry
     estimated scf accuracy    <       0.00000051 Ry

     The total energy is the sum of the following terms:
     one-electron contribution =    -989.72538248 Ry
     hartree contribution      =     583.40795916 Ry
     xc contribution           =    -375.69113992 Ry
     ewald contribution        =    -584.04161199 Ry

     convergence has been achieved in   9 iterations

     Writing all to output data dir calculations_bands/myprefix.save/

     General routines

     Parallel routines

   This run was terminated on:  10:31:21   7Jun2023

   JOB DONE.