     Program PWSCF v.7.0 starts on  6Jun2023 at 13:31:23

     K-points division:     npool     =       2
     R & G space division:  proc/nbgrp/npool/nimage =       4

     Reading input from espresso_16806.pwi
Warning: card &CELL ignored
Warning: card / ignored

     Current dimensions of program PWSCF are:
     Max number of different atomic species (ntypx) = 10
     Max number of k-points (npk) =  40000
     Max angular momentum in pseudopotentials (lmaxx) =  4
     file Ba.pbe-spn-kjpaw_psl.1.0.0.UPF: wavefunction(s)  5S 6S renormalized
     file Fe.pbe-spn-kjpaw_psl.0.2.1.UPF: wavefunction(s)  3D renormalized
     Message from routine setup:
     using ibrav=0 with symmetry is DISCOURAGED, use correct ibrav instead

     Using Slab Decomposition

     bravais-lattice index     =            0
     lattice parameter (alat)  =      12.8800  a.u.
     unit-cell volume          =    1257.0303 (a.u.)^3
     number of atoms/cell      =           10
     number of atomic types    =            4
     number of electrons       =       104.00
     number of Kohn-Sham states=           64
     kinetic-energy cutoff     =      30.0000  Ry
     charge density cutoff     =     240.0000  Ry
     scf convergence threshold =      1.0E-06
     mixing beta               =       0.7000
     number of iterations used =            8  plain     mixing
     Exchange-correlation= PBE
                           (   1   4   3   4   0   0   0)

     celldm(1)=  12.880041  celldm(2)=   0.000000  celldm(3)=   0.000000
     celldm(4)=   0.000000  celldm(5)=   0.000000  celldm(6)=   0.000000

     crystal axes: (cart. coord. in units of alat)
               a(1) = (   1.000000   0.000000   0.000000 )
               a(2) = (  -0.679327   0.733836   0.000000 )
               a(3) = (   0.000000   0.000000   0.801669 )

     reciprocal axes: (cart. coord. in units 2 pi/alat)
               b(1) = (  1.000000  0.925721  0.000000 )
               b(2) = (  0.000000  1.362703  0.000000 )
               b(3) = (  0.000000  0.000000  1.247397 )

     PseudoPot. # 1 for Ba read from file:
     /home/pragov/projects/rrg-bengioy-ad/pragov/crystal_structure_design/SSSP/Ba.pbe-spn-kjpaw_psl.1.0.0.UPF
     MD5 check sum: c432291d3e53af55f19d5e8866385beb
     Pseudo is Projector augmented-wave + core cor, Zval = 10.0
     Generated using "atomic" code by A. Dal Corso  v.5.1
     Shape of augmentation charge: PSQ
     Using radial grid of 1251 points,  7 beta functions with:
                l(1) =   0
                l(2) =   0
                l(3) =   0
                l(4) =   1
                l(5) =   1
                l(6) =   2
                l(7) =   2
     Q(r) pseudized with 0 coefficients

     PseudoPot. # 2 for Fe read from file:
     /home/pragov/projects/rrg-bengioy-ad/pragov/crystal_structure_design/SSSP/Fe.pbe-spn-kjpaw_psl.0.2.1.UPF
     MD5 check sum: e86618425769142926afa95317d90200
     Pseudo is Projector augmented-wave + core cor, Zval = 16.0
     Generated using "atomic" code by A. Dal Corso  v.5.0.99 svn rev. 10869
     Shape of augmentation charge: PSQ
     Using radial grid of 1191 points,  6 beta functions with:
                l(1) =   0
                l(2) =   0
                l(3) =   1
                l(4) =   1
                l(5) =   2
                l(6) =   2
     Q(r) pseudized with 0 coefficients

     PseudoPot. # 3 for As read from file:
     /home/pragov/projects/rrg-bengioy-ad/pragov/crystal_structure_design/SSSP/As.pbe-n-rrkjus_psl.0.2.UPF
     MD5 check sum: 767315de957beeeb34f87d97bf945c8f
     Pseudo is Ultrasoft + core correction, Zval =  5.0
     Generated using "atomic" code by A. Dal Corso  v.5.0.99 svn rev. 10869
     Using radial grid of 1209 points,  4 beta functions with:
                l(1) =   0
                l(2) =   0
                l(3) =   1
                l(4) =   1
     Q(r) pseudized with 0 coefficients

     PseudoPot. # 4 for P  read from file:
     /home/pragov/projects/rrg-bengioy-ad/pragov/crystal_structure_design/SSSP/P.pbe-n-rrkjus_psl.1.0.0.UPF
     MD5 check sum: 8b930f418f0a4573dca56cd030ffe088
     Pseudo is Ultrasoft + core correction, Zval =  5.0
     Generated using "atomic" code by A. Dal Corso  v.5.1
     Using radial grid of 1147 points,  6 beta functions with:
                l(1) =   0
                l(2) =   0
                l(3) =   1
                l(4) =   1
                l(5) =   2
                l(6) =   2
     Q(r) pseudized with 0 coefficients

     atomic species   valence    mass     pseudopotential
        Ba            10.00   137.32700     Ba( 1.00)
        Fe            16.00    55.84500     Fe( 1.00)
        As             5.00    74.92159     As( 1.00)
        P              5.00    30.97376     P ( 1.00)

      2 Sym. Ops. (no inversion) found

                                    s                        frac. trans.

      isym =  1     identity

 cryst.   s( 1) = (     1          0          0      )
                  (     0          1          0      )
                  (     0          0          1      )

 cart.    s( 1) = (  1.0000000 -0.0000000  0.0000000 )
                  (  0.0000000  1.0000000  0.0000000 )
                  (  0.0000000  0.0000000  1.0000000 )

      isym =  2     inv. 180 deg rotation - cart. axis [0,0,1]

 cryst.   s( 2) = (     1          0          0      )
                  (     0          1          0      )
                  (     0          0         -1      )

 cart.    s( 2) = (  1.0000000 -0.0000000  0.0000000 )
                  (  0.0000000  1.0000000  0.0000000 )
                  (  0.0000000  0.0000000 -1.0000000 )

   Cartesian axes

     site n.     atom                  positions (alat units)
         1           Ba  tau(   1) = (   0.1555773   0.3689975   0.4008346  )
         2           Ba  tau(   2) = (   0.9960015   0.0017473   0.0000000  )
         3           Fe  tau(   3) = (   0.5032421   0.0016365   0.1973966  )
         4           Fe  tau(   4) = (   0.6613380   0.3634270   0.6042725  )
         5           Fe  tau(   5) = (   0.6613380   0.3634270   0.1973966  )
         6           Fe  tau(   6) = (   0.5032421   0.0016365   0.6042725  )
         7           As  tau(   7) = (  -0.4252549   0.6228107   0.4008346  )
         8           P   tau(   8) = (   0.4336251   0.2474956   0.0000000  )
         9           P   tau(   9) = (  -0.1142486   0.4869066   0.0000000  )
        10           P   tau(  10) = (   0.7238179   0.1206866   0.4008346  )

   Crystallographic axes

     site n.     atom                  positions (cryst. coord.)
         1           Ba  tau(   1) = (  0.4971660  0.5028340  0.5000000  )
         2           Ba  tau(   2) = (  0.9976190  0.0023810  0.0000000  )
         3           Fe  tau(   3) = (  0.5047570  0.0022300  0.2462320  )
         4           Fe  tau(   4) = (  0.9977700  0.4952430  0.7537680  )
         5           Fe  tau(   5) = (  0.9977700  0.4952430  0.2462320  )
         6           Fe  tau(   6) = (  0.5047570  0.0022300  0.7537680  )
         7           As  tau(   7) = (  0.1512940  0.8487060  0.5000000  )
         8           P   tau(   8) = (  0.6627370  0.3372630  0.0000000  )
         9           P   tau(   9) = (  0.3364910  0.6635090  0.0000000  )
        10           P   tau(  10) = (  0.8355400  0.1644600  0.5000000  )

     number of k points=    10
                       cart. coord. in units 2pi/alat
        k(    1) = (   0.0000000   0.0000000   0.0000000), wk =   0.0740741
        k(    2) = (   0.0000000   0.0000000   0.4157991), wk =   0.1481481
        k(    3) = (   0.0000000   0.4542343   0.0000000), wk =   0.1481481
        k(    4) = (   0.0000000   0.4542343   0.4157991), wk =   0.2962963
        k(    5) = (   0.3333333   0.3085736   0.0000000), wk =   0.1481481
        k(    6) = (   0.3333333   0.3085736   0.4157991), wk =   0.2962963
        k(    7) = (   0.3333333   0.7628080   0.0000000), wk =   0.1481481
        k(    8) = (   0.3333333   0.7628080   0.4157991), wk =   0.2962963
        k(    9) = (   0.3333333  -0.1456607   0.0000000), wk =   0.1481481
        k(   10) = (   0.3333333  -0.1456607   0.4157991), wk =   0.2962963

                       cryst. coord.
        k(    1) = (   0.0000000   0.0000000   0.0000000), wk =   0.0740741
        k(    2) = (   0.0000000   0.0000000   0.3333333), wk =   0.1481481
        k(    3) = (   0.0000000   0.3333333   0.0000000), wk =   0.1481481
        k(    4) = (   0.0000000   0.3333333   0.3333333), wk =   0.2962963
        k(    5) = (   0.3333333  -0.0000000   0.0000000), wk =   0.1481481
        k(    6) = (   0.3333333  -0.0000000   0.3333333), wk =   0.2962963
        k(    7) = (   0.3333333   0.3333333   0.0000000), wk =   0.1481481
        k(    8) = (   0.3333333   0.3333333   0.3333333), wk =   0.2962963
        k(    9) = (   0.3333333  -0.3333333   0.0000000), wk =   0.1481481
        k(   10) = (   0.3333333  -0.3333333   0.3333333), wk =   0.2962963

     Check: negative core charge=   -0.000111

     Initial potential from superposition of free atoms

     starting charge     103.9635, renormalised to     104.0000
     Starting wfcs are   78 randomized atomic wfcs
     Checking if some PAW data can be deallocated...

     Self-consistent Calculation

     iteration #  1     ecut=    30.00 Ry     beta= 0.70
     Davidson diagonalization with overlap

     ethr =  1.00E-02,  avg # of iterations =  6.6

     negative rho (up, down):  5.520E-02 0.000E+00

     total energy              =   -2247.76831618 Ry
     estimated scf accuracy    <       1.84131407 Ry

[...]

     negative rho (up, down):  1.665E-04 0.000E+00

[...]

     c_bands:  1 eigenvalues not converged
     c_bands:  1 eigenvalues not converged
     ethr =  2.13E-06,  avg # of iterations = 14.1

[...]

     total energy              =   -2248.95780978 Ry
     estimated scf accuracy    <       0.00001136 Ry

     iteration # 14     ecut=    30.00 Ry     beta= 0.70
     Davidson diagonalization with overlap

     ethr =  1.09E-08,  avg # of iterations =  2.0

     End of self-consistent calculation

          k = 0.0000 0.0000 0.0000 (  3487 PWs)   bands (ev):

   -74.8402 -74.8258 -74.8233 -74.8030 -40.6456 -40.6098 -40.6010 -40.5978
   -40.5592 -40.5583 -40.5574 -40.5279 -40.2819 -40.2658 -40.2601 -40.2208
   -16.0982 -15.9326  -1.7927  -1.7797  -1.5791  -1.0881  -0.9987  -0.9983
    -0.2800   1.4850   1.8872   2.0325   6.3245   6.6768   6.9599   8.0570
     8.4136   8.4271   8.6462   8.7658   9.1230   9.2748   9.4055   9.4058
     9.8614  10.1558  10.1671  10.4490  10.8347  11.0110  11.2192  11.2286
    11.4298  11.5125  11.5823  11.7884  12.0800  12.0823  12.4312  12.4758
    12.7285  12.8398  15.0150  15.0158  15.2199  15.5333  15.6547  15.7774

     occupation numbers
     1.0000   1.0000   1.0000   1.0000   1.0000   1.0000   1.0000   1.0000
     1.0000   1.0000   1.0000   1.0000   1.0000   1.0000   1.0000   1.0000
     1.0000   1.0000   1.0000   1.0000   1.0000   1.0000   1.0000   1.0000
     1.0000   1.0000   1.0000   1.0000   1.0000   1.0000   1.0000   1.0000
     1.0000   1.0000   1.0000   1.0000   1.0000   1.0000   1.0000   1.0000
     1.0000   1.0000   1.0000   1.0000   1.0000   1.0000   1.0000   1.0000
     1.0000   1.0000   1.0000   1.0000   0.0000   0.0000   0.0000   0.0000
     0.0000   0.0000   0.0000   0.0000   0.0000   0.0000   0.0000   0.0000

[...]

          k = 0.3333-0.1457 0.4158 (  3487 PWs)   bands (ev):

   -74.8340 -74.8268 -74.8193 -74.8135 -40.6340 -40.6203 -40.6049 -40.6034
   -40.5648 -40.5533 -40.5344 -40.5215 -40.2731 -40.2701 -40.2547 -40.2474
   -16.0562 -15.9732  -1.7276  -1.6068  -1.5984  -1.3463  -1.2110  -1.2102
     0.5994   1.2206   1.6798   1.8854   6.9048   7.1576   7.4894   7.6844
     8.3914   8.4915   8.6169   8.6227   8.7704   8.9671   9.1757   9.2702
     9.5769  10.0347  10.3710  10.6098  10.9812  11.0437  11.1789  11.2816
    11.3577  11.4391  11.5795  11.9511  12.1437  12.4013  12.7843  12.8522
    13.1478  13.1933  13.3358  14.2973  14.3638  15.3047  15.6915  16.2939

     occupation numbers
     1.0000   1.0000   1.0000   1.0000   1.0000   1.0000   1.0000   1.0000
     1.0000   1.0000   1.0000   1.0000   1.0000   1.0000   1.0000   1.0000
     1.0000   1.0000   1.0000   1.0000   1.0000   1.0000   1.0000   1.0000
     1.0000   1.0000   1.0000   1.0000   1.0000   1.0000   1.0000   1.0000
     1.0000   1.0000   1.0000   1.0000   1.0000   1.0000   1.0000   1.0000
     1.0000   1.0000   1.0000   1.0000   1.0000   1.0000   1.0000   1.0000
     1.0000   1.0000   1.0000   1.0000   0.0000   0.0000   0.0000   0.0000
     0.0000   0.0000   0.0000   0.0000   0.0000   0.0000   0.0000   0.0000

     highest occupied, lowest unoccupied level (ev):    12.2127   12.0800

!    total energy              =   -2248.95781067 Ry
     estimated scf accuracy    <       0.00000037 Ry

     The total energy is the sum of the following terms:
     one-electron contribution =    -936.23587233 Ry
     hartree contribution      =     520.53018478 Ry
     xc contribution           =    -202.40509554 Ry
     ewald contribution        =    -576.64492330 Ry
     one-center paw contrib.   =   -1054.20210429 Ry
      -> PAW hartree energy AE =      57.74822703 Ry
      -> PAW hartree energy PS =     -57.53189475 Ry
      -> PAW xc energy AE      =    -788.49590191 Ry
      -> PAW xc energy PS      =      38.36857291 Ry
      -> total E_H with PAW    =     520.74651706 Ry
      -> total E_XC with PAW   =    -952.53242453 Ry

     convergence has been achieved in  14 iterations

     Writing all to output data dir calculations_bands/myprefix.save/

     General routines

     Parallel routines

     PAW routines

   This run was terminated on:  13:31:42   6Jun2023

   JOB DONE.