     Program PWSCF v.7.0 starts on 23Jun2023 at 10:26:25

     K-points division:     npool     =       2
     R & G space division:  proc/nbgrp/npool/nimage =       4

     Reading input from espresso_9414.pwi
Warning: card &CELL ignored
Warning: card / ignored

     Current dimensions of program PWSCF are:
     Max number of different atomic species (ntypx) = 10
     Max number of k-points (npk) =  40000
     Max angular momentum in pseudopotentials (lmaxx) =  4
     Message from routine setup:
     using ibrav=0 with symmetry is DISCOURAGED, use correct ibrav instead

     Using Slab Decomposition

     bravais-lattice index     =            0
     lattice parameter (alat)  =       8.9985  a.u.
     unit-cell volume          =    1503.6285 (a.u.)^3
     number of atoms/cell      =            8
     number of atomic types    =            2
     number of electrons       =       144.00
     number of Kohn-Sham states=           90
     kinetic-energy cutoff     =      30.0000  Ry
     charge density cutoff     =     240.0000  Ry
     scf convergence threshold =      1.0E-06
     mixing beta               =       0.7000
     number of iterations used =            8  plain     mixing
     Exchange-correlation= PBE
                           (   1   4   3   4   0   0   0)

     celldm(1)=   8.998541  celldm(2)=   0.000000  celldm(3)=   0.000000
     celldm(4)=   0.000000  celldm(5)=   0.000000  celldm(6)=   0.000000

     crystal axes: (cart. coord. in units of alat)
               a(1) = (   1.000000   0.000000   0.000000 )
               a(2) = (   0.000000   1.269063   0.000000 )
               a(3) = (   0.000000   0.000000   1.626077 )

     reciprocal axes: (cart. coord. in units 2 pi/alat)
               b(1) = (  1.000000  0.000000  0.000000 )
               b(2) = (  0.000000  0.787983  0.000000 )
               b(3) = (  0.000000  0.000000  0.614977 )

     PseudoPot. # 1 for Eu read from file:
     /home/pragov/projects/rrg-bengioy-ad/pragov/crystal_structure_design/SSSP/Eu.GGA-PBE-paw-v1.0.UPF
     MD5 check sum: acec5fd9176fb57ec8e299eae1ecaf48
     Pseudo is Projector augmented-wave + core cor, Zval = 17.0
     Generated using ATOMPAW code
     Shape of augmentation charge: BESSEL
     Using radial grid of 1109 points,  8 beta functions with:
                l(1) =   0
                l(2) =   0
                l(3) =   1
                l(4) =   1
                l(5) =   2
                l(6) =   2
                l(7) =   3
                l(8) =   3
     Q(r) pseudized with 0 coefficients

     PseudoPot. # 2 for Au read from file:
     /home/pragov/projects/rrg-bengioy-ad/pragov/crystal_structure_design/SSSP/Au_ONCV_PBE-1.0.oncvpsp.upf
     MD5 check sum: d14007822ba0e19f0206237467fc06c2
     Pseudo is Norm-conserving, Zval = 19.0
     Generated using ONCVPSP code by D. R. Hamann
     Using radial grid of 1278 points,  8 beta functions with:
                l(1) =   0
                l(2) =   0
                l(3) =   1
                l(4) =   1
                l(5) =   2
                l(6) =   2
                l(7) =   3
                l(8) =   3

     atomic species   valence    mass     pseudopotential
        Eu            17.00   151.96400     Eu( 1.00)
        Au            19.00   196.96657     Au( 1.00)

      8 Sym. Ops., with inversion, found ( 6 have fractional translation)

                                    s                        frac. trans.

      isym =  1     identity

 cryst.   s( 1) = (     1          0          0      )
                  (     0          1          0      )
                  (     0          0          1      )

 cart.    s( 1) = (  1.0000000  0.0000000  0.0000000 )
                  (  0.0000000  1.0000000  0.0000000 )
                  (  0.0000000  0.0000000  1.0000000 )

      isym =  2     180 deg rotation - cart. axis [0,0,1]

 cryst.   s( 2) = (    -1          0          0      )    f =(  0.5000000 )
                  (     0         -1          0      )       (  0.5000000 )
                  (     0          0          1      )       (  0.5000000 )

 cart.    s( 2) = ( -1.0000000  0.0000000  0.0000000 )    f =(  0.5000000 )
                  (  0.0000000 -1.0000000  0.0000000 )       (  0.6345314 )
                  (  0.0000000  0.0000000  1.0000000 )       (  0.8130385 )

[...]

      isym =  4     180 deg rotation - cart. axis [1,0,0]

[...]

      isym =  5     inversion

 cryst.   s( 5) = (    -1          0          0      )
                  (     0         -1          0      )
                  (     0          0         -1      )

 cart.    s( 5) = ( -1.0000000  0.0000000  0.0000000 )
                  (  0.0000000 -1.0000000  0.0000000 )
                  (  0.0000000  0.0000000 -1.0000000 )

      isym =  6     inv. 180 deg rotation - cart. axis [0,0,1]

[...]

      isym =  8     inv. 180 deg rotation - cart. axis [1,0,0]

 cryst.   s( 8) = (    -1          0          0      )    f =(  0.5000000 )
                  (     0          1          0      )       (  0.0000000 )
                  (     0          0          1      )       (  0.0000000 )

 cart.    s( 8) = ( -1.0000000  0.0000000  0.0000000 )    f =(  0.5000000 )
                  (  0.0000000  1.0000000  0.0000000 )       (  0.0000000 )
                  (  0.0000000  0.0000000  1.0000000 )       (  0.0000000 )

   Cartesian axes

     site n.     atom                  positions (alat units)
         1           Eu  tau(   1) = (   0.2500000   0.4532876   1.1121928  )
         2           Eu  tau(   2) = (   0.2500000   0.1812437   0.2991543  )
         3           Eu  tau(   3) = (   0.7500000   0.8157751   0.5138842  )
         4           Eu  tau(   4) = (   0.7500000   1.0878190   1.3269228  )
         5           Au  tau(   5) = (   0.2500000   1.0816754   0.8779694  )
         6           Au  tau(   6) = (   0.2500000   0.8219186   0.0649309  )
         7           Au  tau(   7) = (   0.7500000   0.1873873   0.7481076  )
         8           Au  tau(   8) = (   0.7500000   0.4471441   1.5611461  )

   Crystallographic axes

     site n.     atom                  positions (cryst. coord.)
         1           Eu  tau(   1) = (  0.2500000  0.3571830  0.6839730  )
         2           Eu  tau(   2) = (  0.2500000  0.1428170  0.1839730  )
         3           Eu  tau(   3) = (  0.7500000  0.6428170  0.3160270  )
         4           Eu  tau(   4) = (  0.7500000  0.8571830  0.8160270  )
         5           Au  tau(   5) = (  0.2500000  0.8523420  0.5399310  )
         6           Au  tau(   6) = (  0.2500000  0.6476580  0.0399310  )
         7           Au  tau(   7) = (  0.7500000  0.1476580  0.4600690  )
         8           Au  tau(   8) = (  0.7500000  0.3523420  0.9600690  )

     number of k points=     8
                       cart. coord. in units 2pi/alat
        k(    1) = (   0.0000000   0.0000000   0.0000000), wk =   0.0740741
        k(    2) = (   0.0000000   0.0000000   0.2049923), wk =   0.1481481
        k(    3) = (   0.0000000   0.2626610   0.0000000), wk =   0.1481481
        k(    4) = (   0.0000000   0.2626610   0.2049923), wk =   0.2962963
        k(    5) = (   0.3333333   0.0000000   0.0000000), wk =   0.1481481
        k(    6) = (   0.3333333   0.0000000   0.2049923), wk =   0.2962963
        k(    7) = (   0.3333333   0.2626610   0.0000000), wk =   0.2962963
        k(    8) = (   0.3333333   0.2626610   0.2049923), wk =   0.5925926

                       cryst. coord.
        k(    1) = (   0.0000000   0.0000000   0.0000000), wk =   0.0740741
        k(    2) = (   0.0000000   0.0000000   0.3333333), wk =   0.1481481
        k(    3) = (   0.0000000   0.3333333   0.0000000), wk =   0.1481481
        k(    4) = (   0.0000000   0.3333333   0.3333333), wk =   0.2962963
        k(    5) = (   0.3333333   0.0000000   0.0000000), wk =   0.1481481
        k(    6) = (   0.3333333   0.0000000   0.3333333), wk =   0.2962963
        k(    7) = (   0.3333333   0.3333333   0.0000000), wk =   0.2962963
        k(    8) = (   0.3333333   0.3333333   0.3333333), wk =   0.5925926

     Initial potential from superposition of free atoms

     starting charge     143.9808, renormalised to     144.0000
     Starting wfcs are  168 randomized atomic wfcs
     Checking if some PAW data can be deallocated...

     Self-consistent Calculation

     iteration #  1     ecut=    30.00 Ry     beta= 0.70
     Davidson diagonalization with overlap

     ethr =  1.00E-02,  avg # of iterations =  2.2

     total energy              =   -3656.00197043 Ry
     estimated scf accuracy    <       8.32756567 Ry

[...]

     total energy              =   -3666.70694923 Ry
     estimated scf accuracy    <       0.00000142 Ry

     iteration # 81     ecut=    30.00 Ry     beta= 0.70
     Davidson diagonalization with overlap

     ethr =  8.30E-10,  avg # of iterations =  9.6

     End of self-consistent calculation

          k = 0.0000 0.0000 0.0000 (  4169 PWs)   bands (ev):

   -93.3639 -93.3638 -93.3623 -93.3623 -44.3795 -44.3783 -44.3691 -44.3687
   -44.3567 -44.3559 -44.3526 -44.3523 -44.3455 -44.3454 -44.3415 -44.3413
   -27.8368 -27.8243 -27.8140 -27.8135  -6.8506  -6.8181  -6.8098  -6.7611
    -6.7438  -6.7161  -6.6764  -6.6375  -6.6045  -6.6020  -6.6020  -6.5944
     6.6885   8.0513   8.1635   8.2528   8.4046   8.4404   8.4801   8.5385
     8.7210   8.7363   8.8373   8.8476   9.1059   9.2648   9.2995   9.4444
     9.4503   9.5145   9.5510   9.6400   9.7010   9.7763  10.7485  10.7788
    12.0274  12.7260  12.8657  13.1037  13.1522  13.1729  13.1846  13.1956
    13.2017  13.2081  13.2230  13.2308  13.2367  13.2474  13.2825  13.3260
    13.3336  13.3653  13.3816  13.4335  13.4503  13.4539  13.4551  13.4728
    13.4948  13.5179  13.5239  13.5248  13.5711  13.5755  13.6641  13.6655
    14.4920  14.6242

     occupation numbers
     1.0000   1.0000   1.0000   1.0000   1.0000   1.0000   1.0000   1.0000
     1.0000   1.0000   1.0000   1.0000   1.0000   1.0000   1.0000   1.0000
     1.0000   1.0000   1.0000   1.0000   1.0000   1.0000   1.0000   1.0000
     1.0000   1.0000   1.0000   1.0000   1.0000   1.0000   1.0000   1.0000
     1.0000   1.0000   1.0000   1.0000   1.0000   1.0000   1.0000   1.0000
     1.0000   1.0000   1.0000   1.0000   1.0000   1.0000   1.0000   1.0000
     1.0000   1.0000   1.0000   1.0000   1.0000   1.0000   1.0000   1.0000
     1.0000   1.0000   1.0000   1.0000   1.0000   1.0000   1.0000   1.0000
     1.0000   1.0000   1.0000   1.0000   1.0000   1.0000   1.0000   1.0000
     0.0000   0.0000   0.0000   0.0000   0.0000   0.0000   0.0000   0.0000
     0.0000   0.0000   0.0000   0.0000   0.0000   0.0000   0.0000   0.0000
     0.0000   0.0000

[...]

          k = 0.3333 0.2627 0.2050 (  4177 PWs)   bands (ev):

   -93.3635 -93.3634 -93.3626 -93.3626 -44.3771 -44.3760 -44.3726 -44.3724
   -44.3565 -44.3558 -44.3527 -44.3525 -44.3437 -44.3430 -44.3409 -44.3402
   -27.8258 -27.8224 -27.8200 -27.8180  -6.8411  -6.8169  -6.8004  -6.7770
    -6.7496  -6.7108  -6.6791  -6.6503  -6.6421  -6.6306  -6.6125  -6.6026
     7.9556   8.0518   8.2456   8.2572   8.4751   8.5304   8.6314   8.6686
     8.7608   8.7708   8.8945   9.0099   9.0773   9.1662   9.2341   9.2865
     9.3455   9.4094   9.4550   9.5276   9.7321   9.9146  10.6556  10.6726
    11.8690  12.3293  12.9796  13.1034  13.1471  13.1780  13.1873  13.1892
    13.1997  13.2091  13.2151  13.2262  13.2343  13.2551  13.2817  13.3321
    13.3716  13.4017  13.4230  13.4399  13.4471  13.4589  13.4650  13.4748
    13.5040  13.5096  13.5255  13.5288  13.5341  13.5424  13.6206  13.7834
    14.1037  14.2297

     occupation numbers
     1.0000   1.0000   1.0000   1.0000   1.0000   1.0000   1.0000   1.0000
     1.0000   1.0000   1.0000   1.0000   1.0000   1.0000   1.0000   1.0000
     1.0000   1.0000   1.0000   1.0000   1.0000   1.0000   1.0000   1.0000
     1.0000   1.0000   1.0000   1.0000   1.0000   1.0000   1.0000   1.0000
     1.0000   1.0000   1.0000   1.0000   1.0000   1.0000   1.0000   1.0000
     1.0000   1.0000   1.0000   1.0000   1.0000   1.0000   1.0000   1.0000
     1.0000   1.0000   1.0000   1.0000   1.0000   1.0000   1.0000   1.0000
     1.0000   1.0000   1.0000   1.0000   1.0000   1.0000   1.0000   1.0000
     1.0000   1.0000   1.0000   1.0000   1.0000   1.0000   1.0000   1.0000
     0.0000   0.0000   0.0000   0.0000   0.0000   0.0000   0.0000   0.0000
     0.0000   0.0000   0.0000   0.0000   0.0000   0.0000   0.0000   0.0000
     0.0000   0.0000

     highest occupied, lowest unoccupied level (ev):    13.3716   13.3336

!    total energy              =   -3666.70709794 Ry
     estimated scf accuracy    <       0.00000085 Ry

     The total energy is the sum of the following terms:
     one-electron contribution =    -873.02723354 Ry
     hartree contribution      =     501.72533907 Ry
     xc contribution           =    -181.41262613 Ry
     ewald contribution        =   -1285.64167030 Ry
     one-center paw contrib.   =   -1828.35090703 Ry
      -> PAW hartree energy AE =     156.53275806 Ry
      -> PAW hartree energy PS =    -149.41513407 Ry
      -> PAW xc energy AE      =    -483.28440370 Ry
      -> PAW xc energy PS      =      19.07905295 Ry
      -> total E_H with PAW    =     508.84296306 Ry
      -> total E_XC with PAW   =    -645.61797689 Ry

     convergence has been achieved in  81 iterations

     Writing all to output data dir calculations_bands/myprefix.save/

     General routines

     Parallel routines

     PAW routines

   This run was terminated on:  10:28:16  23Jun2023

   JOB DONE.