     Program PWSCF v.7.0 starts on  4Jun2023 at 16:13:23

     K-points division:     npool     =       2
     R & G space division:  proc/nbgrp/npool/nimage =       4

     Reading input from espresso_2516.pwi
Warning: card &CELL ignored
Warning: card / ignored

     Current dimensions of program PWSCF are:
     Max number of different atomic species (ntypx) = 10
     Max number of k-points (npk) =  40000
     Max angular momentum in pseudopotentials (lmaxx) =  4
     file Ba.pbe-spn-kjpaw_psl.1.0.0.UPF: wavefunction(s)  5S 6S renormalized
     Message from routine setup:
     using ibrav=0 with symmetry is DISCOURAGED, use correct ibrav instead

     Using Slab Decomposition

     bravais-lattice index     =            0
     lattice parameter (alat)  =      25.1831  a.u.
     unit-cell volume          =    1238.8171 (a.u.)^3
     number of atoms/cell      =            4
     number of atomic types    =            2
     number of electrons       =        40.00
     number of Kohn-Sham states=           64
     kinetic-energy cutoff     =      30.0000  Ry
     charge density cutoff     =     240.0000  Ry
     scf convergence threshold =      1.0E-06
     mixing beta               =       0.7000
     number of iterations used =            8  plain     mixing
     Exchange-correlation= SLA  PW   PBE  PBE
                           (   1   4   3   4   0   0   0)

     celldm(1)=  25.183088  celldm(2)=   0.000000  celldm(3)=   0.000000
     celldm(4)=   0.000000  celldm(5)=   0.000000  celldm(6)=   0.000000

     crystal axes: (cart. coord. in units of alat)
               a(1) = (   1.000000   0.000000   0.000000 )
               a(2) = (   0.954522   0.298142   0.000000 )
               a(3) = (   0.954522   0.145602   0.260170 )

     reciprocal axes: (cart. coord. in units 2 pi/alat)
               b(1) = (  1.000000 -3.201569 -1.877102 )
               b(2) = (  0.000000  3.354109 -1.877102 )
               b(3) = (  0.000000  0.000000  3.843639 )

     PseudoPot. # 1 for Ba read from file:
     /home/pragov/projects/rrg-bengioy-ad/pragov/crystal_structure_design/SSSP/Ba.pbe-spn-kjpaw_psl.1.0.0.UPF
     MD5 check sum: c432291d3e53af55f19d5e8866385beb
     Pseudo is Projector augmented-wave + core cor, Zval = 10.0
     Generated using "atomic" code by A. Dal Corso  v.5.1
     Shape of augmentation charge: PSQ
     Using radial grid of 1251 points,  7 beta functions with:
                l(1) =   0
                l(2) =   0
                l(3) =   0
                l(4) =   1
                l(5) =   1
                l(6) =   2
                l(7) =   2
     Q(r) pseudized with 0 coefficients

     PseudoPot. # 2 for Ca read from file:
     /home/pragov/projects/rrg-bengioy-ad/pragov/crystal_structure_design/SSSP/Ca_pbe_v1.uspp.F.UPF
     MD5 check sum: 403a4c14b9e4d4dfdc3024c9a3812218
     Pseudo is Ultrasoft + core correction, Zval = 10.0
     Generated by new atomic code, or converted to UPF format
     Using radial grid of  845 points,  6 beta functions with:
                l(1) =   0
                l(2) =   0
                l(3) =   1
                l(4) =   1
                l(5) =   2
                l(6) =   2
     Q(r) pseudized with  8 coefficients,  rinner =    1.500   1.500   1.500
                                                       1.500   1.500

     atomic species   valence    mass     pseudopotential
        Ba            10.00   137.32700     Ba( 1.00)
        Ca            10.00    40.07800     Ca( 1.00)

      2 Sym. Ops., with inversion, found

                                    s                        frac. trans.

      isym =  1     identity

 cryst.   s( 1) = (     1          0          0      )
                  (     0          1          0      )
                  (     0          0          1      )

 cart.    s( 1) = (  1.0000000 -0.0000000  0.0000000 )
                  (  0.0000000  1.0000000 -0.0000000 )
                  (  0.0000000  0.0000000  1.0000000 )

      isym =  2     inversion

 cryst.   s( 2) = (    -1          0          0      )
                  (     0         -1          0      )
                  (     0          0         -1      )

 cart.    s( 2) = ( -1.0000000  0.0000000 -0.0000000 )
                  (  0.0000000 -1.0000000  0.0000000 )
                  (  0.0000000  0.0000000 -1.0000000 )

   Cartesian axes

     site n.     atom                  positions (alat units)
         1           Ba  tau(   1) = (   0.0000000   0.0000000   0.0000000  )
         2           Ca  tau(   2) = (   0.7148799   0.1090474   0.0639352  )
         3           Ca  tau(   3) = (   1.4545216   0.2218720   0.1300850  )
         4           Ca  tau(   4) = (   2.1941633   0.3346966   0.1962349  )

   Crystallographic axes

     site n.     atom                  positions (cryst. coord.)
         1           Ba  tau(   1) = (  0.0000000  0.0000000  0.0000000  )
         2           Ca  tau(   2) = (  0.2457440  0.2457440  0.2457440  )
         3           Ca  tau(   3) = (  0.5000000  0.5000000  0.5000000  )
         4           Ca  tau(   4) = (  0.7542560  0.7542560  0.7542560  )

     number of k points=    14
                       cart. coord. in units 2pi/alat
        k(    1) = (   0.0000000   0.0000000   0.0000000), wk =   0.0740741
        k(    2) = (   0.0000000   0.0000000   1.2812131), wk =   0.1481481
        k(    3) = (   0.0000000   1.1180363  -0.6257008), wk =   0.1481481
        k(    4) = (   0.0000000   1.1180363   0.6555123), wk =   0.1481481
        k(    5) = (   0.0000000   1.1180363  -1.9069138), wk =   0.1481481
        k(    6) = (   0.3333333  -1.0671898  -0.6257008), wk =   0.1481481
        k(    7) = (   0.3333333  -1.0671898   0.6555123), wk =   0.1481481
        k(    8) = (   0.3333333  -1.0671898  -1.9069138), wk =   0.1481481
        k(    9) = (   0.3333333   0.0508465  -1.2514015), wk =   0.1481481
        k(   10) = (   0.3333333   0.0508465   0.0298116), wk =   0.1481481
        k(   11) = (   0.3333333   0.0508465  -2.5326146), wk =   0.1481481
        k(   12) = (   0.3333333  -2.1852260  -0.0000000), wk =   0.1481481
        k(   13) = (   0.3333333  -2.1852260   1.2812131), wk =   0.1481481
        k(   14) = (   0.3333333  -2.1852260  -1.2812131), wk =   0.1481481

                       cryst. coord.
        k(    1) = (   0.0000000   0.0000000   0.0000000), wk =   0.0740741
        k(    2) = (   0.0000000   0.0000000   0.3333333), wk =   0.1481481
        k(    3) = (   0.0000000   0.3333333   0.0000000), wk =   0.1481481
        k(    4) = (   0.0000000   0.3333333   0.3333333), wk =   0.1481481
        k(    5) = (   0.0000000   0.3333333  -0.3333333), wk =   0.1481481
        k(    6) = (   0.3333333   0.0000000  -0.0000000), wk =   0.1481481
        k(    7) = (   0.3333333   0.0000000   0.3333333), wk =   0.1481481
        k(    8) = (   0.3333333   0.0000000  -0.3333333), wk =   0.1481481
        k(    9) = (   0.3333333   0.3333333   0.0000000), wk =   0.1481481
        k(   10) = (   0.3333333   0.3333333   0.3333333), wk =   0.1481481
        k(   11) = (   0.3333333   0.3333333  -0.3333333), wk =   0.1481481
        k(   12) = (   0.3333333  -0.3333333   0.0000000), wk =   0.1481481
        k(   13) = (   0.3333333  -0.3333333   0.3333333), wk =   0.1481481
        k(   14) = (   0.3333333  -0.3333333  -0.3333333), wk =   0.1481481

     Initial potential from superposition of free atoms

     starting charge      39.9666, renormalised to      40.0000
     Starting wfcs are   35 randomized atomic wfcs +   29 random wfcs
     Checking if some PAW data can be deallocated...

     Self-consistent Calculation

     iteration #  1     ecut=    30.00 Ry     beta= 0.70
     Davidson diagonalization with overlap

     ethr =  1.00E-02,  avg # of iterations =  6.9

     total energy              =    -660.49006729 Ry
     estimated scf accuracy    <       0.53891553 Ry

[...]

     total energy              =    -660.93301138 Ry
     estimated scf accuracy    <       0.00019830 Ry

     iteration #  9     ecut=    30.00 Ry     beta= 0.70
     Davidson diagonalization with overlap

     ethr =  4.96E-07,  avg # of iterations =  2.3

     End of self-consistent calculation

          k = 0.0000 0.0000 0.0000 (  3451 PWs)   bands (ev):

   -36.6610 -36.6607 -36.5733 -23.0481 -17.6897 -17.6665 -17.5896 -17.5896
   -17.5888 -17.5888 -17.5615 -17.5005 -17.5005  -8.2774  -7.8280  -7.8279
     1.7318   2.7407   3.0992   4.5870   5.8109   6.5463   7.0119   7.5842
     7.5842   7.7140   7.7140   7.7940   7.8721   7.8721   7.8730   7.8730
     8.6890   8.6890   8.7910   8.7910   9.1619   9.1619  10.1995  10.1995
    10.9843  12.1595  12.5227  13.5528  13.8045  14.5500  14.7886  14.7886
    15.0072  15.7185  15.7185  15.8228  16.3254  16.3254  16.5719  16.5719
    17.1048  17.7283  17.7284  17.9550  18.0270  18.2777  18.2777  19.2096

     occupation numbers
     1.0000   1.0000   1.0000   1.0000   1.0000   1.0000   1.0000   1.0000
     1.0000   1.0000   1.0000   1.0000   1.0000   1.0000   1.0000   1.0000
     1.0000   1.0000   1.0000   1.0000   0.0000   0.0000   0.0000   0.0000
     0.0000   0.0000   0.0000   0.0000   0.0000   0.0000   0.0000   0.0000
     0.0000   0.0000   0.0000   0.0000   0.0000   0.0000   0.0000   0.0000
     0.0000   0.0000   0.0000   0.0000   0.0000   0.0000   0.0000   0.0000
     0.0000   0.0000   0.0000   0.0000   0.0000   0.0000   0.0000   0.0000
     0.0000   0.0000   0.0000   0.0000   0.0000   0.0000   0.0000   0.0000

[...]

          k = 0.3333-2.1852-1.2812 (  3421 PWs)   bands (ev):

   -36.6563 -36.6562 -36.5690 -22.9737 -17.6714 -17.6634 -17.6510 -17.6467
   -17.6044 -17.6029 -17.5615 -17.5527 -17.5138  -8.5180  -8.1577  -7.9850
     3.2561   3.7555   4.8342   5.0444   5.7655   6.1050   6.3972   6.5221
     6.5488   6.9882   7.3013   7.7337   7.8231   8.1670   8.5086   8.7798
     8.7808   9.0334   9.1580   9.2034   9.7438   9.9142   9.9813  10.1408
    10.8881  11.0995  11.6474  12.4695  12.5281  12.7133  13.1882  13.7480
    14.5353  14.8359  15.1015  15.3261  15.4344  15.6409  16.6383  16.8650
    16.8728  17.8543  18.0604  18.3522  18.5703  18.8049  19.0818  19.7339

     occupation numbers
     1.0000   1.0000   1.0000   1.0000   1.0000   1.0000   1.0000   1.0000
     1.0000   1.0000   1.0000   1.0000   1.0000   1.0000   1.0000   1.0000
     1.0000   1.0000   1.0000   1.0000   0.0000   0.0000   0.0000   0.0000
     0.0000   0.0000   0.0000   0.0000   0.0000   0.0000   0.0000   0.0000
     0.0000   0.0000   0.0000   0.0000   0.0000   0.0000   0.0000   0.0000
     0.0000   0.0000   0.0000   0.0000   0.0000   0.0000   0.0000   0.0000
     0.0000   0.0000   0.0000   0.0000   0.0000   0.0000   0.0000   0.0000
     0.0000   0.0000   0.0000   0.0000   0.0000   0.0000   0.0000   0.0000

     highest occupied, lowest unoccupied level (ev):     5.5421    5.5618

!    total energy              =    -660.93302076 Ry
     estimated scf accuracy    <       0.00000066 Ry

     The total energy is the sum of the following terms:
     one-electron contribution =    -129.91003403 Ry
     hartree contribution      =      69.45798173 Ry
     xc contribution           =     -55.54823644 Ry
     ewald contribution        =    -169.98321474 Ry
     one-center paw contrib.   =    -374.94951728 Ry
      -> PAW hartree energy AE =      28.71613190 Ry
      -> PAW hartree energy PS =     -28.61815080 Ry
      -> PAW xc energy AE      =    -394.21369918 Ry
      -> PAW xc energy PS      =      19.16620081 Ry
      -> total E_H with PAW    =      69.55596282 Ry
      -> total E_XC with PAW   =    -430.59573481 Ry

     convergence has been achieved in   9 iterations

     Writing all to output data dir calculations_bands/myprefix.save/

     General routines

     Parallel routines

     PAW routines

   This run was terminated on:  16:14: 1   4Jun2023

   JOB DONE.