     Program PWSCF v.7.0 starts on  7Jun2023 at  8:31: 1

     K-points division:     npool     =       2
     R & G space division:  proc/nbgrp/npool/nimage =       4

     Reading input from espresso_7162.pwi
Warning: card &CELL ignored
Warning: card / ignored

     Current dimensions of program PWSCF are:
     Max number of different atomic species (ntypx) = 10
     Max number of k-points (npk) =  40000
     Max angular momentum in pseudopotentials (lmaxx) =  4
     file O.pbe-n-kjpaw_psl.0.1.UPF: wavefunction(s)  2P renormalized
     Message from routine setup:
     using ibrav=0 with symmetry is DISCOURAGED, use correct ibrav instead

     Using Slab Decomposition

     bravais-lattice index     =            0
     lattice parameter (alat)  =      29.6464  a.u.
     unit-cell volume          =    1335.0026 (a.u.)^3
     number of atoms/cell      =           15
     number of atomic types    =            3
     number of electrons       =       120.00
     number of Kohn-Sham states=           64
     kinetic-energy cutoff     =      30.0000  Ry
     charge density cutoff     =     240.0000  Ry
     scf convergence threshold =      1.0E-06
     mixing beta               =       0.7000
     number of iterations used =            8  plain     mixing
     Exchange-correlation= SLA  PW   PBX  PBC
                           (   1   4   3   4   0   0   0)

     celldm(1)=  29.646448  celldm(2)=   0.000000  celldm(3)=   0.000000
     celldm(4)=   0.000000  celldm(5)=   0.000000  celldm(6)=   0.000000

     crystal axes: (cart. coord. in units of alat)
               a(1) = (   1.000000   0.000000   0.000000 )
               a(2) = (   0.970121   0.242623   0.000000 )
               a(3) = (   0.970121   0.119472   0.211170 )

     reciprocal axes: (cart. coord. in units 2 pi/alat)
               b(1) = (  1.000000 -3.998462 -2.331855 )
               b(2) = (  0.000000  4.121614 -2.331855 )
               b(3) = (  0.000000  0.000000  4.735530 )

     PseudoPot. # 1 for Ce read from file:
     /home/pragov/projects/rrg-bengioy-ad/pragov/crystal_structure_design/SSSP/Ce.GGA-PBE-paw-v1.0.UPF
     MD5 check sum: f2b950f613061344c13339c8d844425d
     Pseudo is Projector augmented-wave + core cor, Zval = 12.0
     Generated using ATOMPAW code
     Shape of augmentation charge: BESSEL
     Using radial grid of 1102 points,  8 beta functions with:
                l(1) =   0
                l(2) =   0
                l(3) =   1
                l(4) =   1
                l(5) =   2
                l(6) =   2
                l(7) =   3
                l(8) =   3
     Q(r) pseudized with 0 coefficients

     PseudoPot. # 2 for Zr read from file:
     /home/pragov/projects/rrg-bengioy-ad/pragov/crystal_structure_design/SSSP/Zr_pbe_v1.uspp.F.UPF
     MD5 check sum: 5db81b1e868ab7776c4564c113de050b
     Pseudo is Ultrasoft + core correction, Zval = 12.0
     Generated by new atomic code, or converted to UPF format
     Using radial grid of  887 points,  6 beta functions with:
                l(1) =   0
                l(2) =   0
                l(3) =   1
                l(4) =   1
                l(5) =   2
                l(6) =   2
     Q(r) pseudized with  6 coefficients,  rinner =    1.200   1.200   1.200
                                                       1.200   1.200

     PseudoPot. # 3 for O  read from file:
     /home/pragov/projects/rrg-bengioy-ad/pragov/crystal_structure_design/SSSP/O.pbe-n-kjpaw_psl.0.1.UPF
     MD5 check sum: 0234752ac141de4415c5fc33072bef88
     Pseudo is Projector augmented-wave + core cor, Zval =  6.0
     Generated using "atomic" code by A. Dal Corso  v.5.0.99 svn rev. 10869
     Shape of augmentation charge: BESSEL
     Using radial grid of 1095 points,  4 beta functions with:
                l(1) =   0
                l(2) =   0
                l(3) =   1
                l(4) =   1
     Q(r) pseudized with 0 coefficients

     atomic species   valence    mass     pseudopotential
        Ce            12.00   140.11600     Ce( 1.00)
        Zr            12.00    91.22400     Zr( 1.00)
        O              6.00    15.99900     O ( 1.00)

      2 Sym. Ops., with inversion, found

                                    s                        frac. trans.

      isym =  1     identity

 cryst.   s( 1) = (     1          0          0      )
                  (     0          1          0      )
                  (     0          0          1      )

 cart.    s( 1) = (  1.0000000 -0.0000000  0.0000000 )
                  (  0.0000000  1.0000000 -0.0000000 )
                  (  0.0000000  0.0000000  1.0000000 )

      isym =  2     inversion

 cryst.   s( 2) = (    -1          0          0      )
                  (     0         -1          0      )
                  (     0          0         -1      )

 cart.    s( 2) = ( -1.0000000  0.0000000 -0.0000000 )
                  (  0.0000000 -1.0000000  0.0000000 )
                  (  0.0000000  0.0000000 -1.0000000 )

   Cartesian axes

     site n.     atom                  positions (alat units)
         1           Ce  tau(   1) = (   1.7723038   0.2182620   0.1272877  )
         2           Ce  tau(   2) = (   0.5904327   0.0727127   0.0424052  )
         3           Ce  tau(   3) = (   2.3498083   0.2893825   0.1687644  )
         4           Ce  tau(   4) = (   1.1679373   0.1438333   0.0838818  )
         5           Zr  tau(   5) = (   0.0000000   0.0000000   0.0000000  )
         6           O   tau(   6) = (   0.1366536   0.0168291   0.0098145  )
         7           O   tau(   7) = (   1.3195861   0.1625091   0.0947733  )
         8           O   tau(   8) = (   2.4998929   0.3078657   0.1795436  )
         9           O   tau(   9) = (   1.9195893   0.2364004   0.1378659  )
        10           O   tau(  10) = (   0.7421433   0.0913961   0.0533011  )
        11           O   tau(  11) = (   1.0206518   0.1256949   0.0733037  )
        12           O   tau(  12) = (   2.1980978   0.2706992   0.1578685  )
        13           O   tau(  13) = (   0.4403481   0.0542296   0.0316260  )
        14           O   tau(  14) = (   2.8035875   0.3452662   0.2013551  )
        15           O   tau(  15) = (   1.6206550   0.1995862   0.1163963  )

   Crystallographic axes

     site n.     atom                  positions (cryst. coord.)
         1           Ce  tau(   1) = (  0.6027750  0.6027750  0.6027750  )
         2           Ce  tau(   2) = (  0.2008110  0.2008110  0.2008110  )
         3           Ce  tau(   3) = (  0.7991890  0.7991890  0.7991890  )
         4           Ce  tau(   4) = (  0.3972250  0.3972250  0.3972250  )
         5           Zr  tau(   5) = (  0.0000000  0.0000000  0.0000000  )
         6           O   tau(   6) = (  0.0464770  0.0464770  0.0464770  )
         7           O   tau(   7) = (  0.4488020  0.4488020  0.4488020  )
         8           O   tau(   8) = (  0.8502340  0.8502340  0.8502340  )
         9           O   tau(   9) = (  0.6528680  0.6528680  0.6528680  )
        10           O   tau(  10) = (  0.2524090  0.2524090  0.2524090  )
        11           O   tau(  11) = (  0.3471320  0.3471320  0.3471320  )
        12           O   tau(  12) = (  0.7475910  0.7475910  0.7475910  )
        13           O   tau(  13) = (  0.1497660  0.1497660  0.1497660  )
        14           O   tau(  14) = (  0.9535230  0.9535230  0.9535230  )
        15           O   tau(  15) = (  0.5511980  0.5511980  0.5511980  )

     number of k points=    14
                       cart. coord. in units 2pi/alat
        k(    1) = (   0.0000000   0.0000000   0.0000000), wk =   0.0740741
        k(    2) = (   0.0000000   0.0000000   1.5785101), wk =   0.1481481
        k(    3) = (   0.0000000   1.3738713  -0.7772849), wk =   0.1481481
        k(    4) = (   0.0000000   1.3738713   0.8012252), wk =   0.1481481
        k(    5) = (   0.0000000   1.3738713  -2.3557951), wk =   0.1481481
        k(    6) = (   0.3333333  -1.3328208  -0.7772849), wk =   0.1481481
        k(    7) = (   0.3333333  -1.3328208   0.8012252), wk =   0.1481481
        k(    8) = (   0.3333333  -1.3328208  -2.3557951), wk =   0.1481481
        k(    9) = (   0.3333333   0.0410505  -1.5545699), wk =   0.1481481
        k(   10) = (   0.3333333   0.0410505   0.0239402), wk =   0.1481481
        k(   11) = (   0.3333333   0.0410505  -3.1330800), wk =   0.1481481
        k(   12) = (   0.3333333  -2.7066920  -0.0000000), wk =   0.1481481
        k(   13) = (   0.3333333  -2.7066920   1.5785101), wk =   0.1481481
        k(   14) = (   0.3333333  -2.7066920  -1.5785101), wk =   0.1481481

                       cryst. coord.
        k(    1) = (   0.0000000   0.0000000   0.0000000), wk =   0.0740741
        k(    2) = (   0.0000000   0.0000000   0.3333333), wk =   0.1481481
        k(    3) = (   0.0000000   0.3333333  -0.0000000), wk =   0.1481481
        k(    4) = (   0.0000000   0.3333333   0.3333333), wk =   0.1481481
        k(    5) = (   0.0000000   0.3333333  -0.3333333), wk =   0.1481481
        k(    6) = (   0.3333333  -0.0000000  -0.0000000), wk =   0.1481481
        k(    7) = (   0.3333333  -0.0000000   0.3333333), wk =   0.1481481
        k(    8) = (   0.3333333  -0.0000000  -0.3333333), wk =   0.1481481
        k(    9) = (   0.3333333   0.3333333  -0.0000000), wk =   0.1481481
        k(   10) = (   0.3333333   0.3333333   0.3333333), wk =   0.1481481
        k(   11) = (   0.3333333   0.3333333  -0.3333333), wk =   0.1481481
        k(   12) = (   0.3333333  -0.3333333   0.0000000), wk =   0.1481481
        k(   13) = (   0.3333333  -0.3333333   0.3333333), wk =   0.1481481
        k(   14) = (   0.3333333  -0.3333333  -0.3333333), wk =   0.1481481

     Check: negative core charge=   -0.000012

     Initial potential from superposition of free atoms

     starting charge     119.9699, renormalised to     120.0000

     negative rho (up, down):  6.035E-02 0.000E+00
     Starting wfcs are  181 randomized atomic wfcs
     Checking if some PAW data can be deallocated...

     Self-consistent Calculation

     iteration #  1     ecut=    30.00 Ry     beta= 0.70
     Davidson diagonalization with overlap

     ethr =  1.00E-02,  avg # of iterations =  1.0

     negative rho (up, down):  6.307E-02 0.000E+00

     total energy              =   -2440.24669752 Ry
     estimated scf accuracy    <       7.37967375 Ry

[...]

     c_bands:  3 eigenvalues not converged
     c_bands:  3 eigenvalues not converged
     c_bands:  2 eigenvalues not converged
     c_bands:  4 eigenvalues not converged
     c_bands:  3 eigenvalues not converged
     c_bands:  3 eigenvalues not converged
     c_bands:  3 eigenvalues not converged
     ethr =  2.65E-05,  avg # of iterations = 20.0

[...]

     c_bands:  1 eigenvalues not converged
     c_bands:  1 eigenvalues not converged
     ethr =  1.57E-06,  avg # of iterations =  4.6

[...]

     total energy              =   -2445.66472304 Ry
     estimated scf accuracy    <       0.00000154 Ry

     iteration # 28     ecut=    30.00 Ry     beta= 0.70
     Davidson diagonalization with overlap

     ethr =  1.28E-09,  avg # of iterations =  4.9

     negative rho (up, down):  6.508E-02 0.000E+00

     End of self-consistent calculation

          k = 0.0000 0.0000 0.0000 (  3711 PWs)   bands (ev):

   -37.1479 -21.9079 -21.8587 -21.8057 -21.7660 -15.3062 -15.0061 -15.0061
    -7.7137  -7.2363  -7.0285  -5.9975  -5.9961  -5.7470  -5.6029  -5.2651
    -5.1346  -4.7325  -4.2878  -4.2878  -4.2360  -4.2360  -4.1768  -4.1768
    -4.1219  -4.1219  -3.5768  -3.0721  -2.2969  -2.0058   6.7085   6.7085
     6.7285   7.0715   7.0715   7.1040   7.1040   7.4860   7.4860   7.5518
     7.5518   7.5558   7.6057   8.8105   8.8537   9.4107   9.4711   9.6347
     9.6347   9.6745   9.6849   9.6849   9.7845   9.7897   9.7898   9.9232
     9.9232  10.2061  10.4427  10.4427  12.5343  12.6280  12.6284  12.6980

     occupation numbers
     1.0000   1.0000   1.0000   1.0000   1.0000   1.0000   1.0000   1.0000
     1.0000   1.0000   1.0000   1.0000   1.0000   1.0000   1.0000   1.0000
     1.0000   1.0000   1.0000   1.0000   1.0000   1.0000   1.0000   1.0000
     1.0000   1.0000   1.0000   1.0000   1.0000   1.0000   1.0000   1.0000
     1.0000   1.0000   1.0000   1.0000   1.0000   1.0000   1.0000   1.0000
     1.0000   1.0000   1.0000   1.0000   1.0000   1.0000   1.0000   1.0000
     1.0000   1.0000   1.0000   1.0000   1.0000   1.0000   1.0000   1.0000
     1.0000   1.0000   1.0000   1.0000   0.0000   0.0000   0.0000   0.0000

[...]

          k = 0.3333-2.7067-1.5785 (  3715 PWs)   bands (ev):

   -37.1386 -21.7780 -21.7461 -21.7149 -21.6935 -15.2831 -15.2193 -15.0392
    -7.8305  -7.6055  -7.5175  -7.3869  -6.9834  -6.4512  -5.8762  -5.6345
    -5.4737  -5.4036  -4.5409  -4.4696  -4.3866  -4.3100  -4.1868  -3.8625
    -3.4073  -3.1062  -2.3892  -2.2829  -2.0749  -1.6923   6.9069   7.3125
     7.3679   7.3801   7.6206   7.6498   7.7488   8.0508   8.1602   8.3332
     8.3806   8.5969   8.6112   8.6550   8.6892   8.8443   9.2653   9.3017
     9.3939   9.4016   9.4919   9.7293   9.7868  10.0394  10.1846  10.2300
    10.3068  10.3209  10.3502  10.5538  12.5306  12.5545  12.5955  12.6202

     occupation numbers
     1.0000   1.0000   1.0000   1.0000   1.0000   1.0000   1.0000   1.0000
     1.0000   1.0000   1.0000   1.0000   1.0000   1.0000   1.0000   1.0000
     1.0000   1.0000   1.0000   1.0000   1.0000   1.0000   1.0000   1.0000
     1.0000   1.0000   1.0000   1.0000   1.0000   1.0000   1.0000   1.0000
     1.0000   1.0000   1.0000   1.0000   1.0000   1.0000   1.0000   1.0000
     1.0000   1.0000   1.0000   1.0000   1.0000   1.0000   1.0000   1.0000
     1.0000   1.0000   1.0000   1.0000   1.0000   1.0000   1.0000   1.0000
     1.0000   1.0000   1.0000   1.0000   0.0000   0.0000   0.0000   0.0000

     highest occupied, lowest unoccupied level (ev):    10.7634   12.5055

!    total energy              =   -2445.66472320 Ry
     estimated scf accuracy    <       0.00000009 Ry

     The total energy is the sum of the following terms:
     one-electron contribution =     -83.53971091 Ry
     hartree contribution      =     131.20259534 Ry
     xc contribution           =    -133.85016680 Ry
     ewald contribution        =    -631.59272192 Ry
     one-center paw contrib.   =   -1727.88471891 Ry
      -> PAW hartree energy AE =      85.55105793 Ry
      -> PAW hartree energy PS =     -85.17399792 Ry
      -> PAW xc energy AE      =    -833.59417076 Ry
      -> PAW xc energy PS      =      16.90535415 Ry
      -> total E_H with PAW    =     131.57965535 Ry
      -> total E_XC with PAW   =    -950.53898341 Ry

     convergence has been achieved in  28 iterations

     Writing all to output data dir calculations_bands/myprefix.save/

     General routines

     Parallel routines

     PAW routines

   This run was terminated on:   8:34:37   7Jun2023

   JOB DONE.