     Program PWSCF v.7.0 starts on  3Jun2023 at  3:38:53

     Reading input from espresso_198.pwi
Warning: card &CELL ignored
Warning: card / ignored

     Current dimensions of program PWSCF are:
     Max number of different atomic species (ntypx) = 10
     Max number of k-points (npk) =  40000
     Max angular momentum in pseudopotentials (lmaxx) =  4
     file Fe.pbe-spn-kjpaw_psl.0.2.1.UPF: wavefunction(s)  3D renormalized
     file O.pbe-n-kjpaw_psl.0.1.UPF: wavefunction(s)  2P renormalized

     Subspace diagonalization in iterative solution of the eigenvalue problem:
     a serial algorithm will be used

     Using Slab Decomposition

     bravais-lattice index     =            0
     lattice parameter (alat)  =       9.0842  a.u.
     unit-cell volume          =    1528.0775 (a.u.)^3
     number of atoms/cell      =           20
     number of atomic types    =            5
     number of electrons       =       112.00
     number of Kohn-Sham states=           64
     kinetic-energy cutoff     =      30.0000  Ry
     charge density cutoff     =     240.0000  Ry
     scf convergence threshold =      1.0E-06
     mixing beta               =       0.7000
     number of iterations used =            8  plain     mixing
     Exchange-correlation= SLA  PW   PBX  PBC
                           (   1   4   3   4   0   0   0)

     celldm(1)=   9.084222  celldm(2)=   0.000000  celldm(3)=   0.000000
     celldm(4)=   0.000000  celldm(5)=   0.000000  celldm(6)=   0.000000

     crystal axes: (cart. coord. in units of alat)
               a(1) = (   1.000000   0.000000   0.000000 )
               a(2) = (  -0.000749   1.198133   0.000000 )
               a(3) = (  -0.000151  -0.399641   1.701286 )

     reciprocal axes: (cart. coord. in units 2 pi/alat)
               b(1) = (  1.000000  0.000625  0.000236 )
               b(2) = (  0.000000  0.834632  0.196060 )
               b(3) = (  0.000000  0.000000  0.587791 )

     PseudoPot. # 1 for Li read from file:
     /home/pragov/projects/rrg-bengioy-ad/pragov/crystal_structure_design/SSSP/li_pbe_v1.4.uspp.F.UPF
     MD5 check sum: e912e257baa3777c20ea3d68f190483c
     Pseudo is Ultrasoft, Zval =  3.0
     Generated by new atomic code, or converted to UPF format
     Using radial grid of  751 points,  5 beta functions with:
                l(1) =   0
                l(2) =   0
                l(3) =   0
                l(4) =   1
                l(5) =   1
     Q(r) pseudized with 10 coefficients,  rinner =    1.150   1.150   1.150

     PseudoPot. # 2 for Fe read from file:
     /home/pragov/projects/rrg-bengioy-ad/pragov/crystal_structure_design/SSSP/Fe.pbe-spn-kjpaw_psl.0.2.1.UPF
     MD5 check sum: e86618425769142926afa95317d90200
     Pseudo is Projector augmented-wave + core cor, Zval = 16.0
     Generated using "atomic" code by A. Dal Corso  v.5.0.99 svn rev. 10869
     Shape of augmentation charge: PSQ
     Using radial grid of 1191 points,  6 beta functions with:
                l(1) =   0
                l(2) =   0
                l(3) =   1
                l(4) =   1
                l(5) =   2
                l(6) =   2
     Q(r) pseudized with 0 coefficients

     PseudoPot. # 3 for P  read from file:
     /home/pragov/projects/rrg-bengioy-ad/pragov/crystal_structure_design/SSSP/P.pbe-n-rrkjus_psl.1.0.0.UPF
     MD5 check sum: 8b930f418f0a4573dca56cd030ffe088
     Pseudo is Ultrasoft + core correction, Zval =  5.0
     Generated using "atomic" code by A. Dal Corso  v.5.1
     Using radial grid of 1147 points,  6 beta functions with:
                l(1) =   0
                l(2) =   0
                l(3) =   1
                l(4) =   1
                l(5) =   2
                l(6) =   2
     Q(r) pseudized with 0 coefficients

     PseudoPot. # 4 for H  read from file:
     /home/pragov/projects/rrg-bengioy-ad/pragov/crystal_structure_design/SSSP/H.pbe-rrkjus_psl.1.0.0.UPF
     MD5 check sum: f52b6d4d1c606e5624b1dc7b2218f220
     Pseudo is Ultrasoft, Zval =  1.0
     Generated using "atomic" code by A. Dal Corso  v.5.1
     Using radial grid of  929 points,  2 beta functions with:
                l(1) =   0
                l(2) =   0
     Q(r) pseudized with 0 coefficients

     PseudoPot. # 5 for O  read from file:
     /home/pragov/projects/rrg-bengioy-ad/pragov/crystal_structure_design/SSSP/O.pbe-n-kjpaw_psl.0.1.UPF
     MD5 check sum: 0234752ac141de4415c5fc33072bef88
     Pseudo is Projector augmented-wave + core cor, Zval =  6.0
     Generated using "atomic" code by A. Dal Corso  v.5.0.99 svn rev. 10869
     Shape of augmentation charge: BESSEL
     Using radial grid of 1095 points,  4 beta functions with:
                l(1) =   0
                l(2) =   0
                l(3) =   1
                l(4) =   1
     Q(r) pseudized with 0 coefficients

     atomic species   valence    mass     pseudopotential
        Li             3.00     6.94000     Li( 1.00)
        Fe            16.00    55.84500     Fe( 1.00)
        P              5.00    30.97376     P ( 1.00)
        H              1.00     1.00800     H ( 1.00)
        O              6.00    15.99900     O ( 1.00)

     No symmetry found

                                    s                        frac. trans.

      isym =  1     identity

 cryst.   s( 1) = (     1          0          0      )
                  (     0          1          0      )
                  (     0          0          1      )

 cart.    s( 1) = (  1.0000000  0.0000000 -0.0000000 )
                  (  0.0000000  1.0000000  0.0000000 )
                  (  0.0000000  0.0000000  1.0000000 )

   Cartesian axes

     site n.     atom                  positions (alat units)
         1           Li  tau(   1) = (   0.0841269  -0.0248422   0.7194192  )
         2           Li  tau(   2) = (   0.5842866   0.2267932   0.9820484  )
         3           Fe  tau(   3) = (   0.5080049   0.5954758   0.0451283  )
         4           Fe  tau(   4) = (   0.0067231   0.8016072   1.6560314  )
         5           P   tau(   5) = (   0.5881708  -0.0113159   0.3703546  )
         6           P   tau(   6) = (   0.0883053   0.2105966   1.3314176  )
         7           H   tau(   7) = (   0.6328289  -0.1970775   1.3120706  )
         8           H   tau(   8) = (   0.1312392   0.3958426   0.3868979  )
         9           H   tau(   9) = (   0.0367005   0.7061674   0.3509548  )
        10           H   tau(  10) = (   0.5350019   0.6916643   1.3507051  )
        11           O   tau(  11) = (   0.2665733  -0.0038148   0.3521831  )
        12           O   tau(  12) = (   0.7666631   0.2025560   1.3494121  )
        13           O   tau(  13) = (   0.6872831   0.0034560   0.6733382  )
        14           O   tau(  14) = (   0.1874501   0.1972473   1.0283965  )
        15           O   tau(  15) = (   0.6992445   0.8079784   1.3110005  )
        16           O   tau(  16) = (   0.1999410   0.5883425   0.3901592  )
        17           O   tau(  17) = (   0.7165372   0.2346939   0.1951545  )
        18           O   tau(  18) = (   0.2167704  -0.0358983   1.5056888  )
        19           O   tau(  19) = (   0.2137433   0.4770775   1.4770493  )
        20           O   tau(  20) = (   0.7133462   0.9202293   0.2254425  )

   Crystallographic axes

     site n.     atom                  positions (cryst. coord.)
         1           Li  tau(   1) = (  0.0842810  0.1203150  0.4228680  )
         2           Li  tau(   2) = (  0.5846600  0.3818290  0.5772390  )
         3           Fe  tau(   3) = (  0.5083880  0.5058510  0.0265260  )
         4           Fe  tau(   4) = (  0.0076150  0.9937280  0.9734000  )
         5           P   tau(   5) = (  0.5882510  0.0631670  0.2176910  )
         6           P   tau(   6) = (  0.0887510  0.4368080  0.7825950  )
         7           H   tau(   7) = (  0.6330150  0.0927570  0.7712230  )
         8           H   tau(   8) = (  0.1315780  0.4062380  0.2274150  )
         9           H   tau(   9) = (  0.0372250  0.6581980  0.2062880  )
        10           H   tau(  10) = (  0.5357530  0.8421040  0.7939320  )
        11           O   tau(  11) = (  0.2666540  0.0658650  0.2070100  )
        12           O   tau(  12) = (  0.7671080  0.4336250  0.7931720  )
        13           O   tau(  13) = (  0.6874440  0.1348990  0.3957820  )
        14           O   tau(  14) = (  0.1878160  0.3662560  0.6044820  )
        15           O   tau(  15) = (  0.7000590  0.9313990  0.7705940  )
        16           O   tau(  16) = (  0.2004010  0.5675440  0.2293320  )
        17           O   tau(  17) = (  0.7167300  0.2341450  0.1147100  )
        18           O   tau(  18) = (  0.2171030  0.2652430  0.8850300  )
        19           O   tau(  19) = (  0.2143900  0.6877740  0.8681960  )
        20           O   tau(  20) = (  0.7139750  0.8122530  0.1325130  )

     number of k points=    14
                       cart. coord. in units 2pi/alat
        k(    1) = (   0.0000000   0.0000000   0.0000000), wk =   0.0740741
        k(    2) = (   0.0000000   0.0000000   0.1959303), wk =   0.1481481
        k(    3) = (   0.0000000   0.2782107   0.0653532), wk =   0.1481481
        k(    4) = (   0.0000000   0.2782107   0.2612835), wk =   0.1481481
        k(    5) = (   0.0000000   0.2782107  -0.1305770), wk =   0.1481481
        k(    6) = (   0.3333333   0.0002085   0.0000786), wk =   0.1481481
        k(    7) = (   0.3333333   0.0002085   0.1960089), wk =   0.1481481
        k(    8) = (   0.3333333   0.0002085  -0.1958517), wk =   0.1481481
        k(    9) = (   0.3333333   0.2784192   0.0654318), wk =   0.1481481
        k(   10) = (   0.3333333   0.2784192   0.2613621), wk =   0.1481481
        k(   11) = (   0.3333333   0.2784192  -0.1304984), wk =   0.1481481
        k(   12) = (   0.3333333  -0.2780022  -0.0652746), wk =   0.1481481
        k(   13) = (   0.3333333  -0.2780022   0.1306556), wk =   0.1481481
        k(   14) = (   0.3333333  -0.2780022  -0.2612049), wk =   0.1481481

                       cryst. coord.
        k(    1) = (   0.0000000   0.0000000   0.0000000), wk =   0.0740741
        k(    2) = (   0.0000000   0.0000000   0.3333333), wk =   0.1481481
        k(    3) = (   0.0000000   0.3333333  -0.0000000), wk =   0.1481481
        k(    4) = (   0.0000000   0.3333333   0.3333333), wk =   0.1481481
        k(    5) = (   0.0000000   0.3333333  -0.3333333), wk =   0.1481481
        k(    6) = (   0.3333333  -0.0000000  -0.0000000), wk =   0.1481481
        k(    7) = (   0.3333333  -0.0000000   0.3333333), wk =   0.1481481
        k(    8) = (   0.3333333  -0.0000000  -0.3333333), wk =   0.1481481
        k(    9) = (   0.3333333   0.3333333  -0.0000000), wk =   0.1481481
        k(   10) = (   0.3333333   0.3333333   0.3333333), wk =   0.1481481
        k(   11) = (   0.3333333   0.3333333  -0.3333333), wk =   0.1481481
        k(   12) = (   0.3333333  -0.3333333   0.0000000), wk =   0.1481481
        k(   13) = (   0.3333333  -0.3333333   0.3333333), wk =   0.1481481
        k(   14) = (   0.3333333  -0.3333333  -0.3333333), wk =   0.1481481

     Check: negative core charge=   -0.000070

     Initial potential from superposition of free atoms

     starting charge     111.0973, renormalised to     112.0000
     Starting wfcs are   88 randomized atomic wfcs
     Checking if some PAW data can be deallocated...

     Self-consistent Calculation

     iteration #  1     ecut=    30.00 Ry     beta= 0.70
     Davidson diagonalization with overlap

     ethr =  1.00E-02,  avg # of iterations =  2.0

     negative rho (up, down):  3.019E-05 0.000E+00

     total energy              =   -1134.46662891 Ry
     estimated scf accuracy    <       3.94602129 Ry

[...]

     c_bands:  1 eigenvalues not converged
     ethr =  2.01E-05,  avg # of iterations =  5.8

[...]

     total energy              =   -1136.55365698 Ry
     estimated scf accuracy    <       0.00000103 Ry

     iteration # 19     ecut=    30.00 Ry     beta= 0.70
     Davidson diagonalization with overlap

     ethr =  9.19E-10,  avg # of iterations =  2.0

     negative rho (up, down):  5.844E-03 0.000E+00

     End of self-consistent calculation

          k = 0.0000 0.0000 0.0000 (  4237 PWs)   bands (ev):

   -82.1250 -82.1226 -47.7922 -47.7834 -47.7466 -47.7375 -47.6753 -47.6660
   -40.4320 -40.4185 -17.7369 -17.5800 -16.9162 -16.8766 -15.2378 -15.1852
   -15.0870 -15.0350 -15.0195 -14.9889  -4.9730  -4.8201  -4.6730  -4.5594
    -3.1984  -2.9010  -2.4615  -2.2995  -2.1894  -2.0987  -1.3993  -1.3006
    -0.6840  -0.6310  -0.1826   0.1173   0.1803   0.3282   0.6131   0.6189
     0.6983   0.8166   0.8318   1.0665   1.1511   1.3819   1.5853   1.6514
     1.9868   2.2219   3.8831   3.9729   4.0748   4.1224   4.1733   4.3141
     5.5907   5.6219   5.8536   6.3004   6.8648   9.2639   9.5262  10.7000

     occupation numbers
     1.0000   1.0000   1.0000   1.0000   1.0000   1.0000   1.0000   1.0000
     1.0000   1.0000   1.0000   1.0000   1.0000   1.0000   1.0000   1.0000
     1.0000   1.0000   1.0000   1.0000   1.0000   1.0000   1.0000   1.0000
     1.0000   1.0000   1.0000   1.0000   1.0000   1.0000   1.0000   1.0000
     1.0000   1.0000   1.0000   1.0000   1.0000   1.0000   1.0000   1.0000
     1.0000   1.0000   1.0000   1.0000   1.0000   1.0000   1.0000   1.0000
     1.0000   1.0000   1.0000   1.0000   1.0000   1.0000   1.0000   1.0000
     0.0000   0.0000   0.0000   0.0000   0.0000   0.0000   0.0000   0.0000

[...]

          k = 0.3333-0.2780-0.2612 (  4244 PWs)   bands (ev):

   -82.1253 -82.1227 -47.7957 -47.7903 -47.7397 -47.7346 -47.6794 -47.6668
   -40.4298 -40.4206 -17.5667 -17.5307 -16.9577 -16.9403 -15.2954 -15.2845
   -15.0869 -15.0675 -15.0410 -15.0283  -4.9662  -4.7853  -4.6151  -4.4192
    -2.6923  -2.5052  -2.3847  -2.2598  -2.0293  -1.9582  -1.5361  -1.4624
    -0.8533  -0.7173  -0.2430  -0.1671   0.0666   0.1337   0.2849   0.3447
     0.5291   0.6417   0.7954   0.8575   1.3721   1.5088   1.7183   1.7844
     1.9978   2.0769   3.8997   3.9379   4.0304   4.0868   4.3294   4.3914
     5.5222   5.5676   5.8565   5.9826   8.5344   9.5940   9.8713  10.3070

     occupation numbers
     1.0000   1.0000   1.0000   1.0000   1.0000   1.0000   1.0000   1.0000
     1.0000   1.0000   1.0000   1.0000   1.0000   1.0000   1.0000   1.0000
     1.0000   1.0000   1.0000   1.0000   1.0000   1.0000   1.0000   1.0000
     1.0000   1.0000   1.0000   1.0000   1.0000   1.0000   1.0000   1.0000
     1.0000   1.0000   1.0000   1.0000   1.0000   1.0000   1.0000   1.0000
     1.0000   1.0000   1.0000   1.0000   1.0000   1.0000   1.0000   1.0000
     1.0000   1.0000   1.0000   1.0000   1.0000   1.0000   1.0000   1.0000
     0.0000   0.0000   0.0000   0.0000   0.0000   0.0000   0.0000   0.0000

     highest occupied, lowest unoccupied level (ev):     4.4326    5.5203

!    total energy              =   -1136.55365718 Ry
     estimated scf accuracy    <       0.00000043 Ry

     The total energy is the sum of the following terms:
     one-electron contribution =    -833.42082920 Ry
     hartree contribution      =     461.29256051 Ry
     xc contribution           =    -163.17274747 Ry
     ewald contribution        =    -353.95659980 Ry
     one-center paw contrib.   =    -247.29604120 Ry
      -> PAW hartree energy AE =     726.81470603 Ry
      -> PAW hartree energy PS =    -724.14597472 Ry
      -> PAW xc energy AE      =    -396.19446453 Ry
      -> PAW xc energy PS      =     146.22969202 Ry
      -> total E_H with PAW    =     463.96129182 Ry
      -> total E_XC with PAW   =    -413.13751999 Ry

     convergence has been achieved in  19 iterations

     Writing all to output data dir calculations_bands/myprefix.save/

     General routines

     Parallel routines

     PAW routines

   This run was terminated on:   3:43:55   3Jun2023

   JOB DONE.