     Program PWSCF v.7.0 starts on 23Jun2023 at  7:46:28

     K-points division:     npool     =       2
     R & G space division:  proc/nbgrp/npool/nimage =       4

     Reading input from espresso_16124.pwi
Warning: card &CELL ignored
Warning: card / ignored

     Current dimensions of program PWSCF are:
     Max number of different atomic species (ntypx) = 10
     Max number of k-points (npk) =  40000
     Max angular momentum in pseudopotentials (lmaxx) =  4
     file Fe.pbe-spn-kjpaw_psl.0.2.1.UPF: wavefunction(s)  3D renormalized
     file O.pbe-n-kjpaw_psl.0.1.UPF: wavefunction(s)  2P renormalized

     Using Slab Decomposition

     bravais-lattice index     =            0
     lattice parameter (alat)  =      10.4664  a.u.
     unit-cell volume          =    1644.8810 (a.u.)^3
     number of atoms/cell      =           20
     number of atomic types    =            5
     number of electrons       =       172.00
     number of Kohn-Sham states=           90
     kinetic-energy cutoff     =      30.0000  Ry
     charge density cutoff     =     240.0000  Ry
     scf convergence threshold =      1.0E-06
     mixing beta               =       0.7000
     number of iterations used =            8  plain     mixing
     Exchange-correlation= SLA  PW   PBX  PBC
                           (   1   4   3   4   0   0   0)

     celldm(1)=  10.466387  celldm(2)=   0.000000  celldm(3)=   0.000000
     celldm(4)=   0.000000  celldm(5)=   0.000000  celldm(6)=   0.000000

     crystal axes: (cart. coord. in units of alat)
               a(1) = (   1.000000   0.000000   0.000000 )
               a(2) = (   0.511009   0.873182   0.000000 )
               a(3) = (  -0.016808   0.597004   1.643007 )

     reciprocal axes: (cart. coord. in units 2 pi/alat)
               b(1) = (  1.000000 -0.585226  0.222879 )
               b(2) = (  0.000000  1.145236 -0.416134 )
               b(3) = (  0.000000  0.000000  0.608640 )

     PseudoPot. # 1 for Sr read from file:
     /home/pragov/projects/rrg-bengioy-ad/pragov/crystal_structure_design/SSSP/Sr_pbe_v1.uspp.F.UPF
     MD5 check sum: 6b418c05fbe9db5448babca5e47b7a5b
     Pseudo is Ultrasoft + core correction, Zval = 10.0
     Generated by new atomic code, or converted to UPF format
     Using radial grid of  883 points,  6 beta functions with:
                l(1) =   0
                l(2) =   0
                l(3) =   1
                l(4) =   1
                l(5) =   2
                l(6) =   2
     Q(r) pseudized with  6 coefficients,  rinner =    1.400   1.400   1.400
                                                       1.400   1.400

     PseudoPot. # 2 for La read from file:
     /home/pragov/projects/rrg-bengioy-ad/pragov/crystal_structure_design/SSSP/La.GGA-PBE-paw-v1.0.UPF
     MD5 check sum: 436541e95c1ad8901025bd0b0ed42ae2
     Pseudo is Projector augmented-wave + core cor, Zval = 11.0
     Generated using ATOMPAW code
     Shape of augmentation charge: BESSEL
     Using radial grid of 1101 points,  8 beta functions with:
                l(1) =   0
                l(2) =   0
                l(3) =   1
                l(4) =   1
                l(5) =   2
                l(6) =   2
                l(7) =   3
                l(8) =   3
     Q(r) pseudized with 0 coefficients

     PseudoPot. # 3 for V  read from file:
     /home/pragov/projects/rrg-bengioy-ad/pragov/crystal_structure_design/SSSP/v_pbe_v1.4.uspp.F.UPF
     MD5 check sum: 22b79981416ebb76fdaf5b1b8640f6fb
     Pseudo is Ultrasoft + core correction, Zval = 13.0
     Generated by new atomic code, or converted to UPF format
     Using radial grid of  853 points,  6 beta functions with:
                l(1) =   0
                l(2) =   0
                l(3) =   1
                l(4) =   1
                l(5) =   2
                l(6) =   2
     Q(r) pseudized with  8 coefficients,  rinner =    1.100   1.100   1.100
                                                       1.100   1.100

     PseudoPot. # 4 for Fe read from file:
     /home/pragov/projects/rrg-bengioy-ad/pragov/crystal_structure_design/SSSP/Fe.pbe-spn-kjpaw_psl.0.2.1.UPF
     MD5 check sum: e86618425769142926afa95317d90200
     Pseudo is Projector augmented-wave + core cor, Zval = 16.0
     Generated using "atomic" code by A. Dal Corso  v.5.0.99 svn rev. 10869
     Shape of augmentation charge: PSQ
     Using radial grid of 1191 points,  6 beta functions with:
                l(1) =   0
                l(2) =   0
                l(3) =   1
                l(4) =   1
                l(5) =   2
                l(6) =   2
     Q(r) pseudized with 0 coefficients

     PseudoPot. # 5 for O  read from file:
     /home/pragov/projects/rrg-bengioy-ad/pragov/crystal_structure_design/SSSP/O.pbe-n-kjpaw_psl.0.1.UPF
     MD5 check sum: 0234752ac141de4415c5fc33072bef88
     Pseudo is Projector augmented-wave + core cor, Zval =  6.0
     Generated using "atomic" code by A. Dal Corso  v.5.0.99 svn rev. 10869
     Shape of augmentation charge: BESSEL
     Using radial grid of 1095 points,  4 beta functions with:
                l(1) =   0
                l(2) =   0
                l(3) =   1
                l(4) =   1
     Q(r) pseudized with 0 coefficients

     atomic species   valence    mass     pseudopotential
        Sr            10.00    87.62000     Sr( 1.00)
        La            11.00   138.90547     La( 1.00)
        V             13.00    50.94150     V ( 1.00)
        Fe            16.00    55.84500     Fe( 1.00)
        O              6.00    15.99900     O ( 1.00)

     No symmetry found

                                    s                        frac. trans.

      isym =  1     identity

 cryst.   s( 1) = (     1          0          0      )
                  (     0          1          0      )
                  (     0          0          1      )

 cart.    s( 1) = (  1.0000000  0.0000000  0.0000000 )
                  (  0.0000000  1.0000000  0.0000000 )
                  (  0.0000000  0.0000000  1.0000000 )

   Cartesian axes

     site n.     atom                  positions (alat units)
         1           Sr  tau(   1) = (   0.5002659   0.2932024   0.2058424  )
         2           Sr  tau(   2) = (   0.9917490   0.5917496   1.0272652  )
         3           La  tau(   3) = (   0.5001892   0.8813286   0.6189173  )
         4           La  tau(   4) = (   0.9909347   1.1781739   1.4405586  )
         5           V   tau(   5) = (   0.4920680   0.8847303   1.2333459  )
         6           V   tau(   6) = (   1.0005440   0.5865002   0.4115485  )
         7           Fe  tau(   7) = (   0.4915633   0.2988498   0.8217004  )
         8           Fe  tau(   8) = (   0.9830720   0.5969947   1.6426122  )
         9           O   tau(   9) = (   0.7492186   0.4419920   0.6150694  )
        10           O   tau(  10) = (   0.2403219   0.7404210   1.4361405  )
        11           O   tau(  11) = (   1.0026086   0.8768726   0.6147260  )
        12           O   tau(  12) = (   0.4948238   1.1749490   1.4365233  )
        13           O   tau(  13) = (   0.2387541   0.4462456   0.6109898  )
        14           O   tau(  14) = (   0.7308941   0.7450075   1.4323714  )
        15           O   tau(  15) = (   1.2538219   0.7283709   0.2054744  )
        16           O   tau(  16) = (   0.7462468   1.0275902   1.0280933  )
        17           O   tau(  17) = (   1.0006471   0.2941427   0.2068299  )
        18           O   tau(  18) = (   0.4921233   0.5937199   1.0274393  )
        19           O   tau(  19) = (   0.7655101   0.7235418   0.2072587  )
        20           O   tau(  20) = (   1.2572391   1.0228034   1.0288622  )

   Crystallographic axes

     site n.     atom                  positions (cryst. coord.)
         1           Sr  tau(   1) = (  0.3745540  0.2501280  0.1252840  )
         2           Sr  tau(   2) = (  0.8743970  0.2502130  0.6252350  )
         3           La  tau(   3) = (  0.1223560  0.7517770  0.3766980  )
         4           La  tau(   4) = (  0.6225060  0.7498220  0.8767820  )
         5           V   tau(   5) = (  0.2491870  0.4999880  0.7506640  )
         6           V   tau(   6) = (  0.7490340  0.5004220  0.2504850  )
         7           Fe  tau(   7) = (  0.4998080  0.0003160  0.5001200  )
         8           Fe  tau(   8) = (  0.9997980  0.0001530  0.9997600  )
         9           O   tau(   9) = (  0.6276390  0.2502340  0.3743560  )
        10           O   tau(  10) = (  0.1270930  0.2503300  0.8740930  )
        11           O   tau(  11) = (  0.6264490  0.7484180  0.3741470  )
        12           O   tau(  12) = (  0.1273830  0.7478080  0.8743260  )
        13           O   tau(  13) = (  0.1137760  0.2568030  0.3718730  )
        14           O   tau(  14) = (  0.6141410  0.2571510  0.8717990  )
        15           O   tau(  15) = (  0.8733560  0.7486520  0.1250600  )
        16           O   tau(  16) = (  0.3740140  0.7490090  0.6257390  )
        17           O   tau(  17) = (  0.8746050  0.2507940  0.1258850  )
        18           O   tau(  18) = (  0.3736570  0.2523970  0.6253410  )
        19           O   tau(  19) = (  0.3882680  0.7423790  0.1261460  )
        20           O   tau(  20) = (  0.8879790  0.7432070  0.6262070  )

     number of k points=    14
                       cart. coord. in units 2pi/alat
        k(    1) = (   0.0000000   0.0000000   0.0000000), wk =   0.0740741
        k(    2) = (   0.0000000   0.0000000   0.2028801), wk =   0.1481481
        k(    3) = (   0.0000000   0.3817455  -0.1387114), wk =   0.1481481
        k(    4) = (   0.0000000   0.3817455   0.0641687), wk =   0.1481481
        k(    5) = (   0.0000000   0.3817455  -0.3415915), wk =   0.1481481
        k(    6) = (   0.3333333  -0.1950754   0.0742928), wk =   0.1481481
        k(    7) = (   0.3333333  -0.1950754   0.2771729), wk =   0.1481481
        k(    8) = (   0.3333333  -0.1950754  -0.1285873), wk =   0.1481481
        k(    9) = (   0.3333333   0.1866701  -0.0644186), wk =   0.1481481
        k(   10) = (   0.3333333   0.1866701   0.1384615), wk =   0.1481481
        k(   11) = (   0.3333333   0.1866701  -0.2672987), wk =   0.1481481
        k(   12) = (   0.3333333  -0.5768209   0.2130042), wk =   0.1481481
        k(   13) = (   0.3333333  -0.5768209   0.4158843), wk =   0.1481481
        k(   14) = (   0.3333333  -0.5768209   0.0101241), wk =   0.1481481

                       cryst. coord.
        k(    1) = (   0.0000000   0.0000000   0.0000000), wk =   0.0740741
        k(    2) = (   0.0000000   0.0000000   0.3333333), wk =   0.1481481
        k(    3) = (   0.0000000   0.3333333   0.0000000), wk =   0.1481481
        k(    4) = (   0.0000000   0.3333333   0.3333333), wk =   0.1481481
        k(    5) = (   0.0000000   0.3333333  -0.3333333), wk =   0.1481481
        k(    6) = (   0.3333333   0.0000000  -0.0000000), wk =   0.1481481
        k(    7) = (   0.3333333   0.0000000   0.3333333), wk =   0.1481481
        k(    8) = (   0.3333333   0.0000000  -0.3333333), wk =   0.1481481
        k(    9) = (   0.3333333   0.3333333   0.0000000), wk =   0.1481481
        k(   10) = (   0.3333333   0.3333333   0.3333333), wk =   0.1481481
        k(   11) = (   0.3333333   0.3333333  -0.3333333), wk =   0.1481481
        k(   12) = (   0.3333333  -0.3333333  -0.0000000), wk =   0.1481481
        k(   13) = (   0.3333333  -0.3333333   0.3333333), wk =   0.1481481
        k(   14) = (   0.3333333  -0.3333333  -0.3333333), wk =   0.1481481

     Check: negative core charge=   -0.000065

     Initial potential from superposition of free atoms

     starting charge     171.9123, renormalised to     172.0000

     negative rho (up, down):  1.284E-01 0.000E+00
     Starting wfcs are  184 randomized atomic wfcs
     Checking if some PAW data can be deallocated...

     Self-consistent Calculation

     iteration #  1     ecut=    30.00 Ry     beta= 0.70
     Davidson diagonalization with overlap

     ethr =  1.00E-02,  avg # of iterations =  2.0

     negative rho (up, down):  1.351E-01 0.000E+00

     total energy              =   -2501.31518017 Ry
     estimated scf accuracy    <       7.53697273 Ry

[...]

     c_bands:  2 eigenvalues not converged
     c_bands:  1 eigenvalues not converged
     ethr =  2.79E-08,  avg # of iterations = 12.1

[...]

     total energy              =   -2505.98086390 Ry
     estimated scf accuracy    <       0.00000321 Ry

     iteration # 23     ecut=    30.00 Ry     beta= 0.70
     Davidson diagonalization with overlap

     ethr =  1.08E-09,  avg # of iterations =  2.2

     negative rho (up, down):  1.374E-01 0.000E+00

     End of self-consistent calculation

          k = 0.0000 0.0000 0.0000 (  4549 PWs)   bands (ev):

   -75.2154 -75.2082 -54.1141 -54.1119 -40.7985 -40.7929 -40.7717 -40.7668
   -40.7656 -40.7570 -27.9507 -27.9474 -27.8951 -27.8940 -27.8921 -27.8911
   -22.1053 -22.0998 -20.4988 -20.4949  -7.0994  -7.0171  -6.8039  -6.1952
    -6.0644  -6.0330  -6.0249  -6.0069  -5.9840  -5.9130  -5.8767  -5.8412
    -4.4379  -4.4001  -4.3973  -4.1041  -4.1030  -4.0897  -4.0695  -4.0655
    -4.0233  -3.9690  -3.7993  -3.5068   5.3604   6.1368   6.2804   6.4008
     6.6212   6.6971   6.9348   6.9403   6.9477   7.1694   7.2617   7.3157
     7.3171   7.3590   7.4640   7.4670   7.4959   7.5247   7.6077   7.7873
     7.8192   9.1445   9.1473   9.2588   9.3976   9.4635   9.5724   9.6053
     9.6839  10.0203  10.1669  10.1839  10.1895  10.4327  10.4361  10.4663
    10.8283  10.8698  10.8771  11.6277  11.6839  11.7096  12.4265  12.5199
    12.5538  12.5911

     occupation numbers
     1.0000   1.0000   1.0000   1.0000   1.0000   1.0000   1.0000   1.0000
     1.0000   1.0000   1.0000   1.0000   1.0000   1.0000   1.0000   1.0000
     1.0000   1.0000   1.0000   1.0000   1.0000   1.0000   1.0000   1.0000
     1.0000   1.0000   1.0000   1.0000   1.0000   1.0000   1.0000   1.0000
     1.0000   1.0000   1.0000   1.0000   1.0000   1.0000   1.0000   1.0000
     1.0000   1.0000   1.0000   1.0000   1.0000   1.0000   1.0000   1.0000
     1.0000   1.0000   1.0000   1.0000   1.0000   1.0000   1.0000   1.0000
     1.0000   1.0000   1.0000   1.0000   1.0000   1.0000   1.0000   1.0000
     1.0000   1.0000   1.0000   1.0000   1.0000   1.0000   1.0000   1.0000
     1.0000   1.0000   1.0000   1.0000   1.0000   1.0000   1.0000   1.0000
     1.0000   1.0000   1.0000   1.0000   1.0000   1.0000   0.0000   0.0000
     0.0000   0.0000

[...]

          k = 0.3333-0.5768 0.0101 (  4563 PWs)   bands (ev):

   -75.2148 -75.2120 -54.1141 -54.1120 -40.7919 -40.7907 -40.7879 -40.7870
   -40.7676 -40.7627 -27.9509 -27.9480 -27.8949 -27.8946 -27.8932 -27.8926
   -22.1030 -22.0982 -20.4939 -20.4931  -7.1228  -7.0801  -6.9406  -6.8994
    -6.3329  -6.2898  -6.1553  -6.0797  -5.9965  -5.9479  -5.9135  -5.8683
    -4.1283  -4.0664  -4.0446  -4.0142  -3.9024  -3.8704  -3.7965  -3.7797
    -3.6432  -3.6234  -3.6047  -3.5509   5.7766   5.8816   6.2656   6.2983
     6.5664   6.6007   6.7135   6.7465   6.8652   6.9005   7.0758   7.1025
     7.2926   7.3248   7.3499   7.4233   7.4836   7.6246   7.8942   7.9353
     8.4886   8.5240   8.6207   8.7393   8.8891   8.9177   9.0060   9.1117
     9.1510   9.2712   9.2852   9.3264   9.4333   9.6703   9.9021  10.0295
    11.5220  11.6059  11.6426  11.8096  11.8662  11.9169  12.5166  12.5608
    12.6510  12.6865

     occupation numbers
     1.0000   1.0000   1.0000   1.0000   1.0000   1.0000   1.0000   1.0000
     1.0000   1.0000   1.0000   1.0000   1.0000   1.0000   1.0000   1.0000
     1.0000   1.0000   1.0000   1.0000   1.0000   1.0000   1.0000   1.0000
     1.0000   1.0000   1.0000   1.0000   1.0000   1.0000   1.0000   1.0000
     1.0000   1.0000   1.0000   1.0000   1.0000   1.0000   1.0000   1.0000
     1.0000   1.0000   1.0000   1.0000   1.0000   1.0000   1.0000   1.0000
     1.0000   1.0000   1.0000   1.0000   1.0000   1.0000   1.0000   1.0000
     1.0000   1.0000   1.0000   1.0000   1.0000   1.0000   1.0000   1.0000
     1.0000   1.0000   1.0000   1.0000   1.0000   1.0000   1.0000   1.0000
     1.0000   1.0000   1.0000   1.0000   1.0000   1.0000   1.0000   1.0000
     1.0000   1.0000   1.0000   1.0000   1.0000   1.0000   0.0000   0.0000
     0.0000   0.0000

     highest occupied, lowest unoccupied level (ev):    11.9285   12.4265

!    total energy              =   -2505.98086354 Ry
     estimated scf accuracy    <       0.00000049 Ry

     The total energy is the sum of the following terms:
     one-electron contribution =    -590.23609662 Ry
     hartree contribution      =     399.99391681 Ry
     xc contribution           =    -251.76314867 Ry
     ewald contribution        =   -1001.37550647 Ry
     one-center paw contrib.   =   -1062.60002858 Ry
      -> PAW hartree energy AE =      34.06747784 Ry
      -> PAW hartree energy PS =     -34.11742551 Ry
      -> PAW xc energy AE      =    -405.23520417 Ry
      -> PAW xc energy PS      =       7.19911421 Ry
      -> total E_H with PAW    =     399.94396914 Ry
      -> total E_XC with PAW   =    -649.79923863 Ry

     convergence has been achieved in  23 iterations

     Writing all to output data dir calculations_bands/myprefix.save/

     General routines

     Parallel routines

     PAW routines

   This run was terminated on:   7:47:35  23Jun2023

   JOB DONE.