     Program PWSCF v.7.0 starts on  6Jun2023 at 10:37:53

     K-points division:     npool     =       2
     R & G space division:  proc/nbgrp/npool/nimage =       4

     Reading input from espresso_16325.pwi
Warning: card &CELL ignored
Warning: card / ignored

     Current dimensions of program PWSCF are:
     Max number of different atomic species (ntypx) = 10
     Max number of k-points (npk) =  40000
     Max angular momentum in pseudopotentials (lmaxx) =  4
     Message from routine setup:
     using ibrav=0 with symmetry is DISCOURAGED, use correct ibrav instead

     Using Slab Decomposition

     bravais-lattice index     =            0
     lattice parameter (alat)  =      16.2316  a.u.
     unit-cell volume          =    1013.2762 (a.u.)^3
     number of atoms/cell      =            8
     number of atomic types    =            3
     number of electrons       =       118.00
     number of Kohn-Sham states=           64
     kinetic-energy cutoff     =      30.0000  Ry
     charge density cutoff     =     240.0000  Ry
     scf convergence threshold =      1.0E-06
     mixing beta               =       0.7000
     number of iterations used =            8  plain     mixing
     Exchange-correlation=  SLA  PW   PBX  PBC
                           (   1   4   3   4   0   0   0)

     celldm(1)=  16.231630  celldm(2)=   0.000000  celldm(3)=   0.000000
     celldm(4)=   0.000000  celldm(5)=   0.000000  celldm(6)=   0.000000

     crystal axes: (cart. coord. in units of alat)
               a(1) = (   1.000000   0.000000   0.000000 )
               a(2) = (  -0.876979   0.480528   0.000000 )
               a(3) = (   0.000000   0.000000   0.493086 )

     reciprocal axes: (cart. coord. in units 2 pi/alat)
               b(1) = (  1.000000  1.825033  0.000000 )
               b(2) = (  0.000000  2.081045  0.000000 )
               b(3) = (  0.000000  0.000000  2.028043 )

     PseudoPot. # 1 for Nd read from file:
     /home/pragov/projects/rrg-bengioy-ad/pragov/crystal_structure_design/SSSP/Nd.GGA-PBE-paw-v1.0.UPF
     MD5 check sum: 1d1e94942b6eb1cde76049b71bb7dcb0
     Pseudo is Projector augmented-wave + core cor, Zval = 14.0
     Generated using ATOMPAW code
     Shape of augmentation charge: BESSEL
     Using radial grid of 1105 points,  8 beta functions with:
                l(1) =   0
                l(2) =   0
                l(3) =   1
                l(4) =   1
                l(5) =   2
                l(6) =   2
                l(7) =   3
                l(8) =   3
     Q(r) pseudized with 0 coefficients

     PseudoPot. # 2 for Co read from file:
     /home/pragov/projects/rrg-bengioy-ad/pragov/crystal_structure_design/SSSP/Co_pbe_v1.2.uspp.F.UPF
     MD5 check sum: 5f91765df6ddd3222702df6e7b74a16d
     Pseudo is Ultrasoft + core correction, Zval = 17.0
     Generated by new atomic code, or converted to UPF format
     Using radial grid of  863 points,  6 beta functions with:
                l(1) =   0
                l(2) =   0
                l(3) =   1
                l(4) =   1
                l(5) =   2
                l(6) =   2
     Q(r) pseudized with  8 coefficients,  rinner =    1.200   1.200   1.200
                                                       1.200   1.200

     PseudoPot. # 3 for Ge read from file:
     /home/pragov/projects/rrg-bengioy-ad/pragov/crystal_structure_design/SSSP/ge_pbe_v1.4.uspp.F.UPF
     MD5 check sum: 9c9eaa91e581c3f09632fb3098b2c6b2
     Pseudo is Ultrasoft + core correction, Zval = 14.0
     Generated by new atomic code, or converted to UPF format
     Using radial grid of  873 points,  6 beta functions with:
                l(1) =   0
                l(2) =   0
                l(3) =   1
                l(4) =   1
                l(5) =   2
                l(6) =   2
     Q(r) pseudized with  8 coefficients,  rinner =    1.400   1.400   1.400
                                                       1.400   1.400

     atomic species   valence    mass     pseudopotential
        Nd            14.00   144.24200     Nd( 1.00)
        Co            17.00    58.93319     Co( 1.00)
        Ge            14.00    72.63000     Ge( 1.00)

      4 Sym. Ops., with inversion, found ( 2 have fractional translation)

                                    s                        frac. trans.

      isym =  1     identity

 cryst.   s( 1) = (     1          0          0      )
                  (     0          1          0      )
                  (     0          0          1      )

 cart.    s( 1) = (  1.0000000 -0.0000000  0.0000000 )
                  (  0.0000000  1.0000000  0.0000000 )
                  (  0.0000000  0.0000000  1.0000000 )

      isym =  2     180 deg rotation - cart. axis [0,0,1]

 cryst.   s( 2) = (    -1          0          0      )    f =(  0.0000000 )
                  (     0         -1          0      )       (  0.0000000 )
                  (     0          0          1      )       ( -0.5000000 )

 cart.    s( 2) = ( -1.0000000  0.0000000  0.0000000 )    f =( -0.0000000 )
                  (  0.0000000 -1.0000000  0.0000000 )       (  0.0000000 )
                  (  0.0000000  0.0000000  1.0000000 )       ( -0.2465431 )

      isym =  3     inversion

 cryst.   s( 3) = (    -1          0          0      )
                  (     0         -1          0      )
                  (     0          0         -1      )

 cart.    s( 3) = ( -1.0000000  0.0000000  0.0000000 )
                  (  0.0000000 -1.0000000  0.0000000 )
                  (  0.0000000  0.0000000 -1.0000000 )

      isym =  4     inv. 180 deg rotation - cart. axis [0,0,1]

 cryst.   s( 4) = (     1          0          0      )    f =(  0.0000000 )
                  (     0          1          0      )       (  0.0000000 )
                  (     0          0         -1      )       (  0.5000000 )

 cart.    s( 4) = (  1.0000000 -0.0000000  0.0000000 )    f =(  0.0000000 )
                  (  0.0000000  1.0000000  0.0000000 )       (  0.0000000 )
                  (  0.0000000  0.0000000 -1.0000000 )       (  0.2465431 )

   Cartesian axes

     site n.     atom                  positions (alat units)
         1           Nd  tau(   1) = (   0.7982341   0.0516543   0.3698147  )
         2           Nd  tau(   2) = (  -0.6752135   0.4288735   0.1232716  )
         3           Co  tau(   3) = (   0.4054086   0.1522221   0.3698147  )
         4           Co  tau(   4) = (  -0.2823880   0.3283058   0.1232716  )
         5           Ge  tau(   5) = (   0.1474534   0.2182615   0.3698147  )
         6           Ge  tau(   6) = (  -0.0244329   0.2622663   0.1232716  )
         7           Ge  tau(   7) = (  -0.4072522   0.3602724   0.3698147  )
         8           Ge  tau(   8) = (   0.5302728   0.1202555   0.1232716  )

   Crystallographic axes

     site n.     atom                  positions (cryst. coord.)
         1           Nd  tau(   1) = (  0.8925050  0.1074950  0.7500000  )
         2           Nd  tau(   2) = (  0.1074950  0.8925050  0.2500000  )
         3           Co  tau(   3) = (  0.6832190  0.3167810  0.7500000  )
         4           Co  tau(   4) = (  0.3167810  0.6832190  0.2500000  )
         5           Ge  tau(   5) = (  0.5457880  0.4542120  0.7500000  )
         6           Ge  tau(   6) = (  0.4542120  0.5457880  0.2500000  )
         7           Ge  tau(   7) = (  0.2502570  0.7497430  0.7500000  )
         8           Ge  tau(   8) = (  0.7497430  0.2502570  0.2500000  )

     number of k points=    10
                       cart. coord. in units 2pi/alat
        k(    1) = (   0.0000000   0.0000000   0.0000000), wk =   0.0740741
        k(    2) = (   0.0000000   0.0000000   0.6760143), wk =   0.1481481
        k(    3) = (   0.0000000   0.6936816   0.0000000), wk =   0.1481481
        k(    4) = (   0.0000000   0.6936816   0.6760143), wk =   0.2962963
        k(    5) = (   0.3333333   0.6083445   0.0000000), wk =   0.1481481
        k(    6) = (   0.3333333   0.6083445   0.6760143), wk =   0.2962963
        k(    7) = (   0.3333333   1.3020261   0.0000000), wk =   0.1481481
        k(    8) = (   0.3333333   1.3020261   0.6760143), wk =   0.2962963
        k(    9) = (   0.3333333  -0.0853371   0.0000000), wk =   0.1481481
        k(   10) = (   0.3333333  -0.0853371   0.6760143), wk =   0.2962963

                       cryst. coord.
        k(    1) = (   0.0000000   0.0000000   0.0000000), wk =   0.0740741
        k(    2) = (   0.0000000   0.0000000   0.3333333), wk =   0.1481481
        k(    3) = (   0.0000000   0.3333333   0.0000000), wk =   0.1481481
        k(    4) = (   0.0000000   0.3333333   0.3333333), wk =   0.2962963
        k(    5) = (   0.3333333  -0.0000000   0.0000000), wk =   0.1481481
        k(    6) = (   0.3333333  -0.0000000   0.3333333), wk =   0.2962963
        k(    7) = (   0.3333333   0.3333333   0.0000000), wk =   0.1481481
        k(    8) = (   0.3333333   0.3333333   0.3333333), wk =   0.2962963
        k(    9) = (   0.3333333  -0.3333333   0.0000000), wk =   0.1481481
        k(   10) = (   0.3333333  -0.3333333   0.3333333), wk =   0.2962963

     Check: negative core charge=   -0.000007

     Initial potential from superposition of free atoms

     starting charge     115.9841, renormalised to     118.0000
     Starting wfcs are  126 randomized atomic wfcs
     Checking if some PAW data can be deallocated...

     Self-consistent Calculation

     iteration #  1     ecut=    30.00 Ry     beta= 0.70
     Davidson diagonalization with overlap

     ethr =  1.00E-02,  avg # of iterations =  2.0

     total energy              =   -2514.93949238 Ry
     estimated scf accuracy    <      13.76984952 Ry

[...]

     c_bands:  2 eigenvalues not converged
     ethr =  1.11E-06,  avg # of iterations = 15.1

[...]

     c_bands:  1 eigenvalues not converged
     ethr =  2.68E-09,  avg # of iterations = 11.6

[...]

     total energy              =   -2526.31068028 Ry
     estimated scf accuracy    <       0.00000175 Ry

     iteration # 62     ecut=    30.00 Ry     beta= 0.70
     Davidson diagonalization with overlap

     ethr =  1.01E-09,  avg # of iterations =  4.8

     End of self-consistent calculation

          k = 0.0000 0.0000 0.0000 (  2781 PWs)   bands (ev):

   -81.2613 -81.2608 -44.5524 -44.5517 -44.5373 -44.5346 -44.5122 -44.5120
   -23.7046 -23.6946 -10.9847 -10.9410 -10.9111 -10.9081 -10.9024 -10.8914
   -10.8610 -10.8420 -10.8401 -10.8345 -10.8336 -10.8315 -10.8205 -10.8135
   -10.8077 -10.8050 -10.8019 -10.8011 -10.7711 -10.7657  -5.1471  -4.9186
    -4.8897  -4.8842  -4.8568  -4.8422   2.1467   3.4790   6.1534   7.0110
     9.5387   9.5541   9.5873  10.5427  10.9734  11.2258  11.5664  11.7647
    11.8663  12.1165  12.1599  12.2774  12.3718  12.5991  13.0504  13.0636
    13.1775  13.2140  13.2941  13.3469  13.4067  13.4156  13.4164  13.4426

     occupation numbers
     1.0000   1.0000   1.0000   1.0000   1.0000   1.0000   1.0000   1.0000
     1.0000   1.0000   1.0000   1.0000   1.0000   1.0000   1.0000   1.0000
     1.0000   1.0000   1.0000   1.0000   1.0000   1.0000   1.0000   1.0000
     1.0000   1.0000   1.0000   1.0000   1.0000   1.0000   1.0000   1.0000
     1.0000   1.0000   1.0000   1.0000   1.0000   1.0000   1.0000   1.0000
     1.0000   1.0000   1.0000   1.0000   1.0000   1.0000   1.0000   1.0000
     1.0000   1.0000   1.0000   1.0000   1.0000   1.0000   1.0000   1.0000
     1.0000   1.0000   1.0000   0.0000   0.0000   0.0000   0.0000   0.0000

[...]

          k = 0.3333-0.0853 0.6760 (  2801 PWs)   bands (ev):

   -81.2615 -81.2609 -44.5577 -44.5524 -44.5377 -44.5339 -44.5148 -44.5102
   -23.6962 -23.6915 -10.9830 -10.9400 -10.9067 -10.8981 -10.8832 -10.8742
   -10.8715 -10.8587 -10.8413 -10.8311 -10.8283 -10.8265 -10.8234 -10.8117
   -10.8101 -10.8098 -10.8050 -10.8036 -10.8035 -10.7780  -5.0915  -5.0726
    -4.9759  -4.9286  -4.8597  -4.8417   3.1916   3.9857   5.3210   5.9466
     9.1290  10.0278  10.1904  10.2704  10.6208  10.8942  11.1084  11.6102
    11.8925  11.9049  12.0807  12.3022  12.4715  12.5341  12.8894  13.1076
    13.1791  13.2092  13.2346  13.2784  13.3050  13.3272  13.3521  13.3664

     occupation numbers
     1.0000   1.0000   1.0000   1.0000   1.0000   1.0000   1.0000   1.0000
     1.0000   1.0000   1.0000   1.0000   1.0000   1.0000   1.0000   1.0000
     1.0000   1.0000   1.0000   1.0000   1.0000   1.0000   1.0000   1.0000
     1.0000   1.0000   1.0000   1.0000   1.0000   1.0000   1.0000   1.0000
     1.0000   1.0000   1.0000   1.0000   1.0000   1.0000   1.0000   1.0000
     1.0000   1.0000   1.0000   1.0000   1.0000   1.0000   1.0000   1.0000
     1.0000   1.0000   1.0000   1.0000   1.0000   1.0000   1.0000   1.0000
     1.0000   1.0000   1.0000   0.0000   0.0000   0.0000   0.0000   0.0000

     highest occupied, lowest unoccupied level (ev):    13.3056   13.2725

!    total energy              =   -2526.31067957 Ry
     estimated scf accuracy    <       0.00000090 Ry

     The total energy is the sum of the following terms:
     one-electron contribution =   -1042.66947722 Ry
     hartree contribution      =     624.80315747 Ry
     xc contribution           =    -326.40165260 Ry
     ewald contribution        =    -921.93586222 Ry
     one-center paw contrib.   =    -860.10684500 Ry
      -> PAW hartree energy AE =      80.64803223 Ry
      -> PAW hartree energy PS =     -80.30472675 Ry
      -> PAW xc energy AE      =    -442.88391085 Ry
      -> PAW xc energy PS      =      12.48718287 Ry
      -> total E_H with PAW    =     625.14646294 Ry
      -> total E_XC with PAW   =    -756.79838058 Ry

     convergence has been achieved in  62 iterations

     Writing all to output data dir calculations_bands/myprefix.save/

     General routines

     Parallel routines

     PAW routines

   This run was terminated on:  10:39:18   6Jun2023

   JOB DONE.