     Program PWSCF v.7.0 starts on 23Jun2023 at  5:44: 7

     K-points division:     npool     =       2
     R & G space division:  proc/nbgrp/npool/nimage =       4

     Reading input from espresso_2273.pwi
Warning: card &CELL ignored
Warning: card / ignored

     Current dimensions of program PWSCF are:
     Max number of different atomic species (ntypx) = 10
     Max number of k-points (npk) =  40000
     Max angular momentum in pseudopotentials (lmaxx) =  4
     file O.pbe-n-kjpaw_psl.0.1.UPF: wavefunction(s)  2P renormalized
     Message from routine setup:
     using ibrav=0 with symmetry is DISCOURAGED, use correct ibrav instead

     Using Slab Decomposition

     bravais-lattice index     =            0
     lattice parameter (alat)  =       9.6112  a.u.
     unit-cell volume          =     841.8599 (a.u.)^3
     number of atoms/cell      =           14
     number of atomic types    =            3
     number of electrons       =       138.00
     number of Kohn-Sham states=           90
     kinetic-energy cutoff     =      30.0000  Ry
     charge density cutoff     =     240.0000  Ry
     scf convergence threshold =      1.0E-06
     mixing beta               =       0.7000
     number of iterations used =            8  plain     mixing
     Exchange-correlation= SLA  PW   PBX  PBC
                           (   1   4   3   4   0   0   0)

     celldm(1)=   9.611157  celldm(2)=   0.000000  celldm(3)=   0.000000
     celldm(4)=   0.000000  celldm(5)=   0.000000  celldm(6)=   0.000000

     crystal axes: (cart. coord. in units of alat)
               a(1) = (   1.000000   0.000000   0.000000 )
               a(2) = (   0.673855   0.738864   0.000000 )
               a(3) = (   0.178494   0.078790   1.283360 )

     reciprocal axes: (cart. coord. in units 2 pi/alat)
               b(1) = (  1.000000 -0.912015 -0.083092 )
               b(2) = (  0.000000  1.353430 -0.083092 )
               b(3) = (  0.000000  0.000000  0.779205 )

     PseudoPot. # 1 for Li read from file:
     /home/pragov/projects/rrg-bengioy-ad/pragov/crystal_structure_design/SSSP/li_pbe_v1.4.uspp.F.UPF
     MD5 check sum: e912e257baa3777c20ea3d68f190483c
     Pseudo is Ultrasoft, Zval =  3.0
     Generated by new atomic code, or converted to UPF format
     Using radial grid of  751 points,  5 beta functions with:
                l(1) =   0
                l(2) =   0
                l(3) =   0
                l(4) =   1
                l(5) =   1
     Q(r) pseudized with 10 coefficients,  rinner =    1.150   1.150   1.150

     PseudoPot. # 2 for Ni read from file:
     /home/pragov/projects/rrg-bengioy-ad/pragov/crystal_structure_design/SSSP/ni_pbe_v1.4.uspp.F.UPF
     MD5 check sum: 1ee80287db30b12d2bc1f57a5b5d6409
     Pseudo is Ultrasoft + core correction, Zval = 18.0
     Generated by new atomic code, or converted to UPF format
     Using radial grid of  865 points,  6 beta functions with:
                l(1) =   0
                l(2) =   0
                l(3) =   1
                l(4) =   1
                l(5) =   2
                l(6) =   2
     Q(r) pseudized with 10 coefficients,  rinner =    0.980   0.980   0.980
                                                       0.980   0.980

     PseudoPot. # 3 for O  read from file:
     /home/pragov/projects/rrg-bengioy-ad/pragov/crystal_structure_design/SSSP/O.pbe-n-kjpaw_psl.0.1.UPF
     MD5 check sum: 0234752ac141de4415c5fc33072bef88
     Pseudo is Projector augmented-wave + core cor, Zval =  6.0
     Generated using "atomic" code by A. Dal Corso  v.5.0.99 svn rev. 10869
     Shape of augmentation charge: BESSEL
     Using radial grid of 1095 points,  4 beta functions with:
                l(1) =   0
                l(2) =   0
                l(3) =   1
                l(4) =   1
     Q(r) pseudized with 0 coefficients

     atomic species   valence    mass     pseudopotential
        Li             3.00     6.94000     Li( 1.00)
        Ni            18.00    58.69340     Ni( 1.00)
        O              6.00    15.99900     O ( 1.00)

      2 Sym. Ops., with inversion, found

                                    s                        frac. trans.

      isym =  1     identity

 cryst.   s( 1) = (     1          0          0      )
                  (     0          1          0      )
                  (     0          0          1      )

 cart.    s( 1) = (  1.0000000  0.0000000 -0.0000000 )
                  (  0.0000000  1.0000000  0.0000000 )
                  (  0.0000000  0.0000000  1.0000000 )

      isym =  2     inversion

 cryst.   s( 2) = (    -1          0          0      )
                  (     0         -1          0      )
                  (     0          0         -1      )

 cart.    s( 2) = ( -1.0000000 -0.0000000  0.0000000 )
                  (  0.0000000 -1.0000000 -0.0000000 )
                  (  0.0000000  0.0000000 -1.0000000 )

   Cartesian axes

     site n.     atom                  positions (alat units)
         1           Li  tau(   1) = (   1.0884875   0.4804741   1.0026248  )
         2           Li  tau(   2) = (   0.7638616   0.3371795   0.2807350  )
         3           Ni  tau(   3) = (   0.5877560   0.2594440   0.8262450  )
         4           Ni  tau(   4) = (   1.6061957   0.7089980   1.1932333  )
         5           Ni  tau(   5) = (   0.2461534   0.1086556   0.0901265  )
         6           Ni  tau(   6) = (   0.0892471   0.0393950   0.6416799  )
         7           Ni  tau(   7) = (   1.2645931   0.5582096   0.4571148  )
         8           O   tau(   8) = (   1.4382423   0.6348609   0.8185115  )
         9           O   tau(   9) = (   0.2544221   0.1123056   1.0108191  )
        10           O   tau(  10) = (   0.7410866   0.3271263   1.1855986  )
        11           O   tau(  11) = (   1.5979270   0.7053480   0.2725407  )
        12           O   tau(  12) = (   1.1112625   0.4905273   0.0977612  )
        13           O   tau(  13) = (   0.9261746   0.4088268   0.6416799  )
        14           O   tau(  14) = (   0.4141068   0.1827927   0.4648483  )

   Crystallographic axes

     site n.     atom                  positions (cryst. coord.)
         1           Li  tau(   1) = (  0.5669780  0.5669780  0.7812500  )
         2           Li  tau(   2) = (  0.4330220  0.4330220  0.2187500  )
         3           Ni  tau(   3) = (  0.2824850  0.2824850  0.6438140  )
         4           Ni  tau(   4) = (  0.8604310  0.8604310  0.9297730  )
         5           Ni  tau(   5) = (  0.1395690  0.1395690  0.0702270  )
         6           Ni  tau(   6) = (  0.0000000 -0.0000000  0.5000000  )
         7           Ni  tau(   7) = (  0.7175150  0.7175150  0.3561860  )
         8           O   tau(   8) = (  0.7912280  0.7912280  0.6377880  )
         9           O   tau(   9) = (  0.0680070  0.0680070  0.7876350  )
        10           O   tau(  10) = (  0.3442290  0.3442290  0.9238240  )
        11           O   tau(  11) = (  0.9319930  0.9319930  0.2123650  )
        12           O   tau(  12) = (  0.6557710  0.6557710  0.0761760  )
        13           O   tau(  13) = (  0.5000000  0.5000000  0.5000000  )
        14           O   tau(  14) = (  0.2087720  0.2087720  0.3622120  )

     number of k points=    14
                       cart. coord. in units 2pi/alat
        k(    1) = (   0.0000000   0.0000000   0.0000000), wk =   0.0740741
        k(    2) = (   0.0000000   0.0000000   0.2597349), wk =   0.1481481
        k(    3) = (   0.0000000   0.4511432  -0.0276972), wk =   0.1481481
        k(    4) = (   0.0000000   0.4511432   0.2320377), wk =   0.1481481
        k(    5) = (   0.0000000   0.4511432  -0.2874321), wk =   0.1481481
        k(    6) = (   0.3333333  -0.3040051  -0.0276972), wk =   0.1481481
        k(    7) = (   0.3333333  -0.3040051   0.2320377), wk =   0.1481481
        k(    8) = (   0.3333333  -0.3040051  -0.2874321), wk =   0.1481481
        k(    9) = (   0.3333333   0.1471381  -0.0553945), wk =   0.1481481
        k(   10) = (   0.3333333   0.1471381   0.2043404), wk =   0.1481481
        k(   11) = (   0.3333333   0.1471381  -0.3151294), wk =   0.1481481
        k(   12) = (   0.3333333  -0.7551483   0.0000000), wk =   0.1481481
        k(   13) = (   0.3333333  -0.7551483   0.2597349), wk =   0.1481481
        k(   14) = (   0.3333333  -0.7551483  -0.2597349), wk =   0.1481481

                       cryst. coord.
        k(    1) = (   0.0000000   0.0000000   0.0000000), wk =   0.0740741
        k(    2) = (   0.0000000   0.0000000   0.3333333), wk =   0.1481481
        k(    3) = (   0.0000000   0.3333333   0.0000000), wk =   0.1481481
        k(    4) = (   0.0000000   0.3333333   0.3333333), wk =   0.1481481
        k(    5) = (   0.0000000   0.3333333  -0.3333333), wk =   0.1481481
        k(    6) = (   0.3333333  -0.0000000  -0.0000000), wk =   0.1481481
        k(    7) = (   0.3333333  -0.0000000   0.3333333), wk =   0.1481481
        k(    8) = (   0.3333333  -0.0000000  -0.3333333), wk =   0.1481481
        k(    9) = (   0.3333333   0.3333333   0.0000000), wk =   0.1481481
        k(   10) = (   0.3333333   0.3333333   0.3333333), wk =   0.1481481
        k(   11) = (   0.3333333   0.3333333  -0.3333333), wk =   0.1481481
        k(   12) = (   0.3333333  -0.3333333  -0.0000000), wk =   0.1481481
        k(   13) = (   0.3333333  -0.3333333   0.3333333), wk =   0.1481481
        k(   14) = (   0.3333333  -0.3333333  -0.3333333), wk =   0.1481481

     Check: negative core charge=   -0.000019

     Initial potential from superposition of free atoms

     starting charge     127.0985, renormalised to     138.0000
     Starting wfcs are  103 randomized atomic wfcs
     Checking if some PAW data can be deallocated...

     Self-consistent Calculation

     iteration #  1     ecut=    30.00 Ry     beta= 0.70
     Davidson diagonalization with overlap

     ethr =  1.00E-02,  avg # of iterations =  3.6

     total energy              =   -1881.53142764 Ry
     estimated scf accuracy    <     216.36396072 Ry

[...]

     total energy              =   -2035.72319392 Ry
     estimated scf accuracy    <       0.00000628 Ry

     iteration # 29     ecut=    30.00 Ry     beta= 0.70
     Davidson diagonalization with overlap

     ethr =  4.55E-09,  avg # of iterations =  1.0

     End of self-consistent calculation

          k = 0.0000 0.0000 0.0000 (  2347 PWs)   bands (ev):

   -92.5865 -92.4389 -92.4371 -92.3901 -92.3871 -53.1076 -52.9232 -52.9181
   -52.9109 -52.8528 -52.8485 -52.7373 -52.7315 -52.7055 -52.7008 -52.6993
   -52.6503 -52.6463 -52.6164 -52.6106 -32.9554 -32.9496  -8.5629  -7.6431
    -7.5787  -7.0462  -6.9584  -6.8248  -6.7020   4.8966   5.0700   5.1535
     5.4174   5.4321   5.7646   5.8986   5.9535   6.3733   6.5128   6.5309
     6.6466   6.8184   6.9873   7.1788   7.2310   7.4350   8.2094   8.8751
     8.9748   9.0930   9.3600   9.4590   9.4727   9.7540   9.8778   9.9024
     9.9165   9.9171  10.0294  10.0423  10.1747  10.1817  10.2438  10.3398
    10.3456  10.3732  10.4528  10.5996  10.6162  10.6830  10.7114  11.4309
    11.5667  11.8071  12.1934  14.5072  18.7151  19.2133  20.0947  20.6797
    21.4426  21.7340  22.3697  22.3797  22.6308  22.7917  22.8318  23.1494
    23.2725  23.4258

     occupation numbers
     1.0000   1.0000   1.0000   1.0000   1.0000   1.0000   1.0000   1.0000
     1.0000   1.0000   1.0000   1.0000   1.0000   1.0000   1.0000   1.0000
     1.0000   1.0000   1.0000   1.0000   1.0000   1.0000   1.0000   1.0000
     1.0000   1.0000   1.0000   1.0000   1.0000   1.0000   1.0000   1.0000
     1.0000   1.0000   1.0000   1.0000   1.0000   1.0000   1.0000   1.0000
     1.0000   1.0000   1.0000   1.0000   1.0000   1.0000   1.0000   1.0000
     1.0000   1.0000   1.0000   1.0000   1.0000   1.0000   1.0000   1.0000
     1.0000   1.0000   1.0000   1.0000   1.0000   1.0000   1.0000   1.0000
     1.0000   1.0000   1.0000   1.0000   1.0000   0.0000   0.0000   0.0000
     0.0000   0.0000   0.0000   0.0000   0.0000   0.0000   0.0000   0.0000
     0.0000   0.0000   0.0000   0.0000   0.0000   0.0000   0.0000   0.0000
     0.0000   0.0000

[...]

          k = 0.3333-0.7551-0.2597 (  2336 PWs)   bands (ev):

   -92.5854 -92.4375 -92.4362 -92.3881 -92.3869 -53.1035 -52.9163 -52.9147
   -52.9122 -52.8522 -52.8449 -52.7346 -52.7306 -52.7040 -52.7008 -52.6934
   -52.6499 -52.6405 -52.6122 -52.6065 -32.9542 -32.9492  -7.8646  -7.7552
    -7.3550  -7.1697  -7.1400  -6.9738  -6.8019   4.4854   4.5023   4.8046
     4.9013   5.2046   5.4717   5.6426   6.1510   6.2461   6.3295   6.4285
     6.4858   6.6550   6.6988   6.8405   6.9611   7.1867   7.4664   7.8402
     8.2465   8.5051   9.4381   9.7207   9.8278   9.8785   9.9699   9.9978
    10.1068  10.1422  10.1877  10.2622  10.3093  10.3469  10.4263  10.5376
    10.6687  10.8299  10.9077  11.4560  11.6931  11.7872  11.9198  12.1634
    12.2295  12.4265  12.4338  17.5738  18.4590  18.7186  19.2449  19.5367
    19.8408  21.0109  22.2241  22.4308  22.5403  22.6816  23.0176  23.3852
    23.4797  23.9577

     occupation numbers
     1.0000   1.0000   1.0000   1.0000   1.0000   1.0000   1.0000   1.0000
     1.0000   1.0000   1.0000   1.0000   1.0000   1.0000   1.0000   1.0000
     1.0000   1.0000   1.0000   1.0000   1.0000   1.0000   1.0000   1.0000
     1.0000   1.0000   1.0000   1.0000   1.0000   1.0000   1.0000   1.0000
     1.0000   1.0000   1.0000   1.0000   1.0000   1.0000   1.0000   1.0000
     1.0000   1.0000   1.0000   1.0000   1.0000   1.0000   1.0000   1.0000
     1.0000   1.0000   1.0000   1.0000   1.0000   1.0000   1.0000   1.0000
     1.0000   1.0000   1.0000   1.0000   1.0000   1.0000   1.0000   1.0000
     1.0000   1.0000   1.0000   1.0000   1.0000   0.0000   0.0000   0.0000
     0.0000   0.0000   0.0000   0.0000   0.0000   0.0000   0.0000   0.0000
     0.0000   0.0000   0.0000   0.0000   0.0000   0.0000   0.0000   0.0000
     0.0000   0.0000

     highest occupied, lowest unoccupied level (ev):    11.7512   10.6823

!    total energy              =   -2035.72319376 Ry
     estimated scf accuracy    <       0.00000075 Ry

     The total energy is the sum of the following terms:
     one-electron contribution =   -1285.43848952 Ry
     hartree contribution      =     714.61902375 Ry
     xc contribution           =    -235.99695190 Ry
     ewald contribution        =   -1162.20058573 Ry
     one-center paw contrib.   =     -66.70619036 Ry
      -> PAW hartree energy AE =       0.00000000 Ry
      -> PAW hartree energy PS =       0.00000000 Ry
      -> PAW xc energy AE      =       0.00000000 Ry
      -> PAW xc energy PS      =       0.00000000 Ry
      -> total E_H with PAW    =     714.61902375 Ry
      -> total E_XC with PAW   =    -235.99695190 Ry

     convergence has been achieved in  29 iterations

     Writing all to output data dir calculations_bands/myprefix.save/

     General routines

     Parallel routines

     PAW routines

   This run was terminated on:   5:44:42  23Jun2023

   JOB DONE.