     Program PWSCF v.7.0 starts on  5Jun2023 at  0:10:19

     K-points division:     npool     =       2
     R & G space division:  proc/nbgrp/npool/nimage =       4

     Reading input from espresso_5305.pwi
Warning: card &CELL ignored
Warning: card / ignored

     Current dimensions of program PWSCF are:
     Max number of different atomic species (ntypx) = 10
     Max number of k-points (npk) =  40000
     Max angular momentum in pseudopotentials (lmaxx) =  4
     file O.pbe-n-kjpaw_psl.0.1.UPF: wavefunction(s)  2P renormalized

     Using Slab Decomposition

     bravais-lattice index     =            0
     lattice parameter (alat)  =      14.2347  a.u.
     unit-cell volume          =    2077.0645 (a.u.)^3
     number of atoms/cell      =           19
     number of atomic types    =            4
     number of electrons       =       120.00
     number of Kohn-Sham states=           64
     kinetic-energy cutoff     =      30.0000  Ry
     charge density cutoff     =     240.0000  Ry
     scf convergence threshold =      1.0E-06
     mixing beta               =       0.7000
     number of iterations used =            8  plain     mixing
     Exchange-correlation= SLA  PW   PBX  PBC
                           (   1   4   3   4   0   0   0)

     celldm(1)=  14.234716  celldm(2)=   0.000000  celldm(3)=   0.000000
     celldm(4)=   0.000000  celldm(5)=   0.000000  celldm(6)=   0.000000

     crystal axes: (cart. coord. in units of alat)
               a(1) = (   1.000000   0.000000   0.000000 )
               a(2) = (  -0.038695   0.999251   0.000000 )
               a(3) = (  -0.480653  -0.499626   0.720658 )

     reciprocal axes: (cart. coord. in units 2 pi/alat)
               b(1) = (  1.000000  0.038724  0.693811 )
               b(2) = (  0.000000  1.000749  0.693811 )
               b(3) = (  0.000000  0.000000  1.387621 )

     PseudoPot. # 1 for Rb read from file:
     /home/pragov/projects/rrg-bengioy-ad/pragov/crystal_structure_design/SSSP/Rb_ONCV_PBE-1.0.oncvpsp.upf
     MD5 check sum: 55a5172d6bfbce6759a58e35d43f6aa9
     Pseudo is Norm-conserving, Zval =  9.0
     Generated using ONCVPSP code by D. R. Hamann
     Using radial grid of 2308 points,  6 beta functions with:
                l(1) =   0
                l(2) =   0
                l(3) =   1
                l(4) =   1
                l(5) =   2
                l(6) =   2

     PseudoPot. # 2 for Sr read from file:
     /home/pragov/projects/rrg-bengioy-ad/pragov/crystal_structure_design/SSSP/Sr_pbe_v1.uspp.F.UPF
     MD5 check sum: 6b418c05fbe9db5448babca5e47b7a5b
     Pseudo is Ultrasoft + core correction, Zval = 10.0
     Generated by new atomic code, or converted to UPF format
     Using radial grid of  883 points,  6 beta functions with:
                l(1) =   0
                l(2) =   0
                l(3) =   1
                l(4) =   1
                l(5) =   2
                l(6) =   2
     Q(r) pseudized with  6 coefficients,  rinner =    1.400   1.400   1.400
                                                       1.400   1.400

     PseudoPot. # 3 for P  read from file:
     /home/pragov/projects/rrg-bengioy-ad/pragov/crystal_structure_design/SSSP/P.pbe-n-rrkjus_psl.1.0.0.UPF
     MD5 check sum: 8b930f418f0a4573dca56cd030ffe088
     Pseudo is Ultrasoft + core correction, Zval =  5.0
     Generated using "atomic" code by A. Dal Corso  v.5.1
     Using radial grid of 1147 points,  6 beta functions with:
                l(1) =   0
                l(2) =   0
                l(3) =   1
                l(4) =   1
                l(5) =   2
                l(6) =   2
     Q(r) pseudized with 0 coefficients

     PseudoPot. # 4 for O  read from file:
     /home/pragov/projects/rrg-bengioy-ad/pragov/crystal_structure_design/SSSP/O.pbe-n-kjpaw_psl.0.1.UPF
     MD5 check sum: 0234752ac141de4415c5fc33072bef88
     Pseudo is Projector augmented-wave + core cor, Zval =  6.0
     Generated using "atomic" code by A. Dal Corso  v.5.0.99 svn rev. 10869
     Shape of augmentation charge: BESSEL
     Using radial grid of 1095 points,  4 beta functions with:
                l(1) =   0
                l(2) =   0
                l(3) =   1
                l(4) =   1
     Q(r) pseudized with 0 coefficients

     atomic species   valence    mass     pseudopotential
        Rb             9.00    85.46780     Rb( 1.00)
        Sr            10.00    87.62000     Sr( 1.00)
        P              5.00    30.97376     P ( 1.00)
        O              6.00    15.99900     O ( 1.00)

     No symmetry found

                                    s                        frac. trans.

      isym =  1     identity

 cryst.   s( 1) = (     1          0          0      )
                  (     0          1          0      )
                  (     0          0          1      )

 cart.    s( 1) = (  1.0000000  0.0000000  0.0000000 )
                  (  0.0000000  1.0000000  0.0000000 )
                  (  0.0000000  0.0000000  1.0000000 )

   Cartesian axes

     site n.     atom                  positions (alat units)
         1           Rb  tau(   1) = (   0.1466469   0.6721722   0.3603288  )
         2           Rb  tau(   2) = (  -0.1853418   0.3270789   0.3603288  )
         3           Sr  tau(   3) = (   0.0000000   0.0000000   0.0000000  )
         4           P   tau(   4) = (   0.5007897  -0.0624217   0.0935032  )
         5           P   tau(   5) = (   0.4375954  -0.0016253   0.6271545  )
         6           P   tau(   6) = (   0.3385170   0.2170119   0.3164833  )
         7           P   tau(   7) = (   0.7230979  -0.1529649   0.4041744  )
         8           O   tau(   8) = (   0.4890166   0.1339981   0.1844848  )
         9           O   tau(   9) = (  -0.3656773  -0.0057902   0.5361729  )
        10           O   tau(  10) = (   0.3116070   0.0578072   0.4611438  )
        11           O   tau(  11) = (   0.5263589   0.8132360   0.2595139  )
        12           O   tau(  12) = (   0.1244603   0.4476350   0.6762817  )
        13           O   tau(  13) = (   0.9231364   0.6413128   0.0443759  )
        14           O   tau(  14) = (   0.1652016   0.2357293   0.2206481  )
        15           O   tau(  15) = (  -0.2514922  -0.3254271   0.5000096  )
        16           O   tau(  16) = (   0.2794327   0.8701034   0.0473753  )
        17           O   tau(  17) = (   0.3779865  -0.1867335   0.6732823  )
        18           O   tau(  18) = (   0.4264111   0.3749090   0.4018589  )
        19           O   tau(  19) = (  -0.1225252  -0.0590278   0.3187988  )

   Crystallographic axes

     site n.     atom                  positions (cryst. coord.)
         1           Rb  tau(   1) = (  0.4226760  0.9226760  0.5000000  )
         2           Rb  tau(   2) = (  0.0773240  0.5773240  0.5000000  )
         3           Sr  tau(   3) = (  0.0000000  0.0000000  0.0000000  )
         4           P   tau(   4) = (  0.5632460  0.0024050  0.1297470  )
         5           P   tau(   5) = (  0.8726590  0.4335000  0.8702530  )
         6           P   tau(   6) = (  0.5665000  0.4367540  0.4391590  )
         7           P   tau(   7) = (  0.9975950  0.1273410  0.5608410  )
         8           O   tau(   8) = (  0.6222030  0.2620960  0.2559950  )
         9           O   tau(   9) = (  0.0061010  0.3662080  0.7440050  )
        10           O   tau(  10) = (  0.6337920  0.3777970  0.6398930  )
        11           O   tau(  11) = (  0.7379040  0.9938990  0.3601070  )
        12           O   tau(  12) = (  0.6110060  0.9171820  0.9384230  )
        13           O   tau(  13) = (  0.9787590  0.6725820  0.0615770  )
        14           O   tau(  14) = (  0.3274180  0.3889940  0.3061760  )
        15           O   tau(  15) = (  0.0828180  0.0212410  0.6938240  )
        16           O   tau(  16) = (  0.3459960  0.9036250  0.0657390  )
        17           O   tau(  17) = (  0.8378860  0.2802570  0.9342610  )
        18           O   tau(  18) = (  0.7197430  0.6540040  0.5576280  )
        19           O   tau(  19) = (  0.0963750  0.1621140  0.4423720  )

     number of k points=    14
                       cart. coord. in units 2pi/alat
        k(    1) = (   0.0000000   0.0000000   0.0000000), wk =   0.0740741
        k(    2) = (   0.0000000   0.0000000   0.4625405), wk =   0.1481481
        k(    3) = (   0.0000000   0.3335832   0.2312702), wk =   0.1481481
        k(    4) = (   0.0000000   0.3335832   0.6938107), wk =   0.1481481
        k(    5) = (   0.3333333   0.0129080   0.2312702), wk =   0.1481481
        k(    6) = (   0.3333333   0.0129080   0.6938107), wk =   0.1481481
        k(    7) = (   0.3333333   0.3464911   0.4625405), wk =   0.1481481
        k(    8) = (   0.3333333   0.3464911  -0.0000000), wk =   0.1481481
        k(    9) = (   0.3333333  -0.3206752  -0.0000000), wk =   0.1481481
        k(   10) = (   0.3333333  -0.3206752   0.4625405), wk =   0.1481481
        k(   11) = (   0.0000000  -0.3335832   0.2312702), wk =   0.1481481
        k(   12) = (  -0.3333333  -0.0129080   0.2312702), wk =   0.1481481
        k(   13) = (  -0.3333333  -0.3464911   0.4625405), wk =   0.1481481
        k(   14) = (  -0.3333333   0.3206752   0.4625405), wk =   0.1481481

                       cryst. coord.
        k(    1) = (   0.0000000   0.0000000   0.0000000), wk =   0.0740741
        k(    2) = (   0.0000000   0.0000000   0.3333333), wk =   0.1481481
        k(    3) = (   0.0000000   0.3333333   0.0000000), wk =   0.1481481
        k(    4) = (   0.0000000   0.3333333   0.3333333), wk =   0.1481481
        k(    5) = (   0.3333333   0.0000000   0.0000000), wk =   0.1481481
        k(    6) = (   0.3333333   0.0000000   0.3333333), wk =   0.1481481
        k(    7) = (   0.3333333   0.3333333  -0.0000000), wk =   0.1481481
        k(    8) = (   0.3333333   0.3333333  -0.3333333), wk =   0.1481481
        k(    9) = (   0.3333333  -0.3333333  -0.0000000), wk =   0.1481481
        k(   10) = (   0.3333333  -0.3333333   0.3333333), wk =   0.1481481
        k(   11) = (   0.0000000  -0.3333333   0.3333333), wk =   0.1481481
        k(   12) = (  -0.3333333  -0.0000000   0.3333333), wk =   0.1481481
        k(   13) = (  -0.3333333  -0.3333333   0.6666667), wk =   0.1481481
        k(   14) = (  -0.3333333   0.3333333   0.3333333), wk =   0.1481481

     Check: negative core charge=   -0.000011

     Initial potential from superposition of free atoms

     starting charge     119.9162, renormalised to     120.0000

     negative rho (up, down):  6.441E-02 0.000E+00
     Starting wfcs are   87 randomized atomic wfcs
     Checking if some PAW data can be deallocated...

     Self-consistent Calculation

     iteration #  1     ecut=    30.00 Ry     beta= 0.70
     Davidson diagonalization with overlap

     ethr =  1.00E-02,  avg # of iterations =  2.3

     negative rho (up, down):  6.581E-02 0.000E+00

     total energy              =    -723.08607811 Ry
     estimated scf accuracy    <       4.10996068 Ry

[...]

     total energy              =    -724.99591542 Ry
     estimated scf accuracy    <       0.00000409 Ry

     iteration # 10     ecut=    30.00 Ry     beta= 0.70
     Davidson diagonalization with overlap

     ethr =  3.41E-09,  avg # of iterations =  2.0

     negative rho (up, down):  6.777E-02 0.000E+00

     End of self-consistent calculation

          k = 0.0000 0.0000 0.0000 (  5793 PWs)   bands (ev):

   -29.1269 -21.0026 -20.9539 -18.6671 -17.7125 -17.7124 -16.2521 -16.0764
   -15.2471 -15.2470 -15.1094 -14.7235 -14.6736 -14.6735 -14.5266 -11.1159
   -11.1159 -11.0212  -7.2700  -6.2771  -6.2771  -5.4669  -5.1573  -5.1573
    -5.0427  -5.0427  -4.9815  -4.6798  -2.8940  -2.4548  -2.3728  -1.9799
    -1.9798  -1.6743  -1.5485  -1.5484  -0.6419  -0.4286  -0.3718  -0.3139
    -0.3138   0.4212   0.4213   0.7247   0.7861   1.0239   1.0240   1.4641
     1.6490   1.6814   1.6815   1.7189   2.0661   2.1799   2.1800   2.2123
     2.3895   2.3910   2.4128   2.4128   8.0379   9.9887  10.4312  10.4313

     occupation numbers
     1.0000   1.0000   1.0000   1.0000   1.0000   1.0000   1.0000   1.0000
     1.0000   1.0000   1.0000   1.0000   1.0000   1.0000   1.0000   1.0000
     1.0000   1.0000   1.0000   1.0000   1.0000   1.0000   1.0000   1.0000
     1.0000   1.0000   1.0000   1.0000   1.0000   1.0000   1.0000   1.0000
     1.0000   1.0000   1.0000   1.0000   1.0000   1.0000   1.0000   1.0000
     1.0000   1.0000   1.0000   1.0000   1.0000   1.0000   1.0000   1.0000
     1.0000   1.0000   1.0000   1.0000   1.0000   1.0000   1.0000   1.0000
     1.0000   1.0000   1.0000   1.0000   0.0000   0.0000   0.0000   0.0000

[...]

          k = 0.0000-0.3336 0.2313 (  5763 PWs)   bands (ev):

[...]

          k =-0.3333-0.0129 0.2313 (  5763 PWs)   bands (ev):

[...]

          k =-0.3333 0.3207 0.4625 (  5758 PWs)   bands (ev):

   -29.1269 -20.9986 -20.9562 -18.6665 -17.7294 -17.7178 -16.2529 -16.0780
   -15.2829 -15.2544 -15.1113 -14.6984 -14.6195 -14.5831 -14.5607 -11.1574
   -11.1499 -11.0506  -7.2698  -6.3185  -6.2835  -5.4602  -5.1704  -5.1302
    -5.0857  -5.0798  -5.0090  -4.6755  -2.4857  -2.3684  -2.3323  -2.0633
    -1.9630  -1.5957  -1.5252  -1.3837  -0.7194  -0.5829  -0.3679  -0.2838
    -0.1940   0.2380   0.3739   0.5533   0.6034   0.9779   1.1474   1.3490
     1.6285   1.6626   1.7007   1.7670   2.0969   2.1439   2.1883   2.2811
     2.3366   2.3696   2.3877   2.4866   9.5824   9.8977  10.1513  10.4055

     occupation numbers
     1.0000   1.0000   1.0000   1.0000   1.0000   1.0000   1.0000   1.0000
     1.0000   1.0000   1.0000   1.0000   1.0000   1.0000   1.0000   1.0000
     1.0000   1.0000   1.0000   1.0000   1.0000   1.0000   1.0000   1.0000
     1.0000   1.0000   1.0000   1.0000   1.0000   1.0000   1.0000   1.0000
     1.0000   1.0000   1.0000   1.0000   1.0000   1.0000   1.0000   1.0000
     1.0000   1.0000   1.0000   1.0000   1.0000   1.0000   1.0000   1.0000
     1.0000   1.0000   1.0000   1.0000   1.0000   1.0000   1.0000   1.0000
     1.0000   1.0000   1.0000   1.0000   0.0000   0.0000   0.0000   0.0000

     highest occupied, lowest unoccupied level (ev):     2.4866    8.0379

!    total energy              =    -724.99591554 Ry
     estimated scf accuracy    <       0.00000039 Ry

     The total energy is the sum of the following terms:
     one-electron contribution =    -322.59587080 Ry
     hartree contribution      =     219.00057230 Ry
     xc contribution           =    -141.77996293 Ry
     ewald contribution        =    -365.39732907 Ry
     one-center paw contrib.   =    -114.22332503 Ry
      -> PAW hartree energy AE =       0.00000000 Ry
      -> PAW hartree energy PS =       0.00000000 Ry
      -> PAW xc energy AE      =       0.00000000 Ry
      -> PAW xc energy PS      =       0.00000000 Ry
      -> total E_H with PAW    =     219.00057230 Ry
      -> total E_XC with PAW   =    -141.77996293 Ry

     convergence has been achieved in  10 iterations

     Writing all to output data dir calculations_bands/myprefix.save/

     General routines

     Parallel routines

     PAW routines

   This run was terminated on:   0:12:17   5Jun2023

   JOB DONE.