     Program PWSCF v.7.0 starts on  6Jun2023 at  6:34:21

     K-points division:     npool     =       2
     R & G space division:  proc/nbgrp/npool/nimage =       4

     Reading input from espresso_13820.pwi
Warning: card &CELL ignored
Warning: card / ignored

     Current dimensions of program PWSCF are:
     Max number of different atomic species (ntypx) = 10
     Max number of k-points (npk) =  40000
     Max angular momentum in pseudopotentials (lmaxx) =  4
     Message from routine setup:
     using ibrav=0 with symmetry is DISCOURAGED, use correct ibrav instead

     Using Slab Decomposition

     bravais-lattice index     =            0
     lattice parameter (alat)  =      18.1757  a.u.
     unit-cell volume          =    1546.6170 (a.u.)^3
     number of atoms/cell      =            6
     number of atomic types    =            2
     number of electrons       =        70.00
     number of Kohn-Sham states=           64
     kinetic-energy cutoff     =      30.0000  Ry
     charge density cutoff     =     240.0000  Ry
     scf convergence threshold =      1.0E-06
     mixing beta               =       0.7000
     number of iterations used =            8  plain     mixing
     Exchange-correlation=  SLA  PW   PBX  PBC
                           (   1   4   3   4   0   0   0)

     celldm(1)=  18.175700  celldm(2)=   0.000000  celldm(3)=   0.000000
     celldm(4)=   0.000000  celldm(5)=   0.000000  celldm(6)=   0.000000

     crystal axes: (cart. coord. in units of alat)
               a(1) = (   1.000000   0.000000   0.000000 )
               a(2) = (   0.722443   0.691430   0.000000 )
               a(3) = (  -0.861222  -0.345715   0.372530 )

     reciprocal axes: (cart. coord. in units 2 pi/alat)
               b(1) = (  1.000000 -1.044853  1.342175 )
               b(2) = (  0.000000  1.446277  1.342175 )
               b(3) = (  0.000000  0.000000  2.684349 )

     PseudoPot. # 1 for Sr read from file:
     /home/pragov/projects/rrg-bengioy-ad/pragov/crystal_structure_design/SSSP/Sr_pbe_v1.uspp.F.UPF
     MD5 check sum: 6b418c05fbe9db5448babca5e47b7a5b
     Pseudo is Ultrasoft + core correction, Zval = 10.0
     Generated by new atomic code, or converted to UPF format
     Using radial grid of  883 points,  6 beta functions with:
                l(1) =   0
                l(2) =   0
                l(3) =   1
                l(4) =   1
                l(5) =   2
                l(6) =   2
     Q(r) pseudized with  6 coefficients,  rinner =    1.400   1.400   1.400
                                                       1.400   1.400

     PseudoPot. # 2 for Sb read from file:
     /home/pragov/projects/rrg-bengioy-ad/pragov/crystal_structure_design/SSSP/sb_pbe_v1.4.uspp.F.UPF
     MD5 check sum: 9bc50dfb53373b713f5709b9110fe27f
     Pseudo is Ultrasoft + core correction, Zval = 15.0
     Generated by new atomic code, or converted to UPF format
     Using radial grid of  891 points,  6 beta functions with:
                l(1) =   0
                l(2) =   0
                l(3) =   1
                l(4) =   1
                l(5) =   2
                l(6) =   2
     Q(r) pseudized with  8 coefficients,  rinner =    1.350   1.350   1.350
                                                       1.350   1.350

     atomic species   valence    mass     pseudopotential
        Sr            10.00    87.62000     Sr( 1.00)
        Sb            15.00   121.76000     Sb( 1.00)

      4 Sym. Ops., with inversion, found

                                    s                        frac. trans.

      isym =  1     identity

 cryst.   s( 1) = (     1          0          0      )
                  (     0          1          0      )
                  (     0          0          1      )

 cart.    s( 1) = (  1.0000000  0.0000000  0.0000000 )
                  (  0.0000000  1.0000000  0.0000000 )
                  (  0.0000000  0.0000000  1.0000000 )

      isym =  2     180 deg rotation - cart. axis [0,0,1]

[...]

      isym =  3     inversion

[...]

      isym =  4     inv. 180 deg rotation - cart. axis [0,0,1]

 cryst.   s( 4) = (     1          0          0      )
                  (     0          1          0      )
                  (    -1         -1         -1      )

 cart.    s( 4) = (  1.0000000  0.0000000  0.0000000 )
                  (  0.0000000  1.0000000  0.0000000 )
                  (  0.0000000  0.0000000 -1.0000000 )

   Cartesian axes

     site n.     atom                  positions (alat units)
         1           Sr  tau(   1) = (  -0.0693892   0.1728576   0.1862649  )
         2           Sr  tau(   2) = (   0.0693892  -0.1728576   0.1862649  )
         3           Sr  tau(   3) = (   0.5546853   0.2226641   0.0000000  )
         4           Sr  tau(   4) = (   1.1677579   0.4687662   0.0000000  )
         5           Sb  tau(   5) = (   0.2324403   0.0933071   0.0000000  )
         6           Sb  tau(   6) = (   1.4900029   0.5981231   0.0000000  )

   Crystallographic axes

     site n.     atom                  positions (cryst. coord.)
         1           Sr  tau(   1) = ( -0.0000000  0.5000000  0.5000000  )
         2           Sr  tau(   2) = (  0.5000000 -0.0000000  0.5000000  )
         3           Sr  tau(   3) = (  0.3220340  0.3220340  0.0000000  )
         4           Sr  tau(   4) = (  0.6779660  0.6779660  0.0000000  )
         5           Sb  tau(   5) = (  0.1349480  0.1349480  0.0000000  )
         6           Sb  tau(   6) = (  0.8650520  0.8650520  0.0000000  )

     number of k points=    10
                       cart. coord. in units 2pi/alat
        k(    1) = (   0.0000000   0.0000000   0.0000000), wk =   0.0740741
        k(    2) = (   0.0000000   0.0000000   0.8947832), wk =   0.1481481
        k(    3) = (   0.0000000   0.4820925   0.4473916), wk =   0.2962963
        k(    4) = (   0.0000000   0.4820925   1.3421747), wk =   0.1481481
        k(    5) = (   0.3333333  -0.3482844   0.4473916), wk =   0.2962963
        k(    6) = (   0.3333333  -0.3482844   1.3421747), wk =   0.1481481
        k(    7) = (   0.3333333   0.1338080   0.8947832), wk =   0.2962963
        k(    8) = (   0.3333333   0.1338080   0.0000000), wk =   0.1481481
        k(    9) = (   0.3333333  -0.8303769   0.0000000), wk =   0.1481481
        k(   10) = (   0.3333333  -0.8303769   0.8947832), wk =   0.2962963

                       cryst. coord.
        k(    1) = (   0.0000000   0.0000000   0.0000000), wk =   0.0740741
        k(    2) = (   0.0000000   0.0000000   0.3333333), wk =   0.1481481
        k(    3) = (   0.0000000   0.3333333  -0.0000000), wk =   0.2962963
        k(    4) = (   0.0000000   0.3333333   0.3333333), wk =   0.1481481
        k(    5) = (   0.3333333  -0.0000000  -0.0000000), wk =   0.2962963
        k(    6) = (   0.3333333  -0.0000000   0.3333333), wk =   0.1481481
        k(    7) = (   0.3333333   0.3333333  -0.0000000), wk =   0.2962963
        k(    8) = (   0.3333333   0.3333333  -0.3333333), wk =   0.1481481
        k(    9) = (   0.3333333  -0.3333333  -0.0000000), wk =   0.1481481
        k(   10) = (   0.3333333  -0.3333333   0.3333333), wk =   0.2962963

     Check: negative core charge=   -0.000005

     Initial potential from superposition of free atoms

     starting charge      67.8654, renormalised to      70.0000

     negative rho (up, down):  2.636E-01 0.000E+00
     Starting wfcs are   70 randomized atomic wfcs

     Self-consistent Calculation

     iteration #  1     ecut=    30.00 Ry     beta= 0.70
     Davidson diagonalization with overlap

     ethr =  1.00E-02,  avg # of iterations =  6.0

     negative rho (up, down):  2.580E-01 0.000E+00

     total energy              =    -650.53980003 Ry
     estimated scf accuracy    <       0.96585954 Ry

[...]

     total energy              =    -650.79375531 Ry
     estimated scf accuracy    <       0.00000964 Ry

     iteration #  8     ecut=    30.00 Ry     beta= 0.70
     Davidson diagonalization with overlap

     ethr =  1.38E-08,  avg # of iterations =  2.0

     negative rho (up, down):  2.683E-01 0.000E+00

     End of self-consistent calculation

          k = 0.0000 0.0000 0.0000 (  4305 PWs)   bands (ev):

   -28.5350 -28.5287 -28.1832 -28.0959 -20.4970 -20.4915 -20.4901 -20.4901
   -20.4885 -20.4876 -20.4871 -20.4871 -20.4821 -20.4821 -10.5519 -10.5519
   -10.5459 -10.5441 -10.5263 -10.5263 -10.4191 -10.4191 -10.2247 -10.1126
    -9.9594  -9.9594  -1.2627  -0.8055   4.3944   6.2613   6.2613   6.3155
     6.4078   6.7303   6.7303   8.3319   8.7018   8.8002   8.8174   9.1701
     9.2653   9.2851   9.2851  10.4571  11.1613  11.6456  12.0090  12.0090
    12.0130  12.1260  12.1260  12.4831  12.4831  12.7085  13.1801  13.1801
    14.0852  14.1446  14.3903  14.6863  15.5884  16.5209  16.5210  16.5577

     occupation numbers
     1.0000   1.0000   1.0000   1.0000   1.0000   1.0000   1.0000   1.0000
     1.0000   1.0000   1.0000   1.0000   1.0000   1.0000   1.0000   1.0000
     1.0000   1.0000   1.0000   1.0000   1.0000   1.0000   1.0000   1.0000
     1.0000   1.0000   1.0000   1.0000   1.0000   1.0000   1.0000   1.0000
     1.0000   1.0000   1.0000   0.0000   0.0000   0.0000   0.0000   0.0000
     0.0000   0.0000   0.0000   0.0000   0.0000   0.0000   0.0000   0.0000
     0.0000   0.0000   0.0000   0.0000   0.0000   0.0000   0.0000   0.0000
     0.0000   0.0000   0.0000   0.0000   0.0000   0.0000   0.0000   0.0000

[...]

          k = 0.3333-0.8304 0.8948 (  4304 PWs)   bands (ev):

   -28.5329 -28.5300 -28.1613 -28.1176 -20.4922 -20.4901 -20.4897 -20.4880
   -20.4877 -20.4874 -20.4860 -20.4853 -20.4848 -20.4808 -10.5734 -10.5696
   -10.5446 -10.5295 -10.5189 -10.5143 -10.3338 -10.3206 -10.2006 -10.1420
   -10.0892 -10.0766  -0.8997  -0.8446   4.6561   4.9220   5.4541   6.1803
     6.2983   6.4560   7.3636   8.6152   9.0918   9.3336   9.3722   9.7221
     9.9419   9.9913  10.2295  10.5447  10.7064  10.9651  11.0630  11.6698
    12.0985  12.1938  12.5583  12.7311  12.8355  12.9627  12.9907  13.2821
    13.5136  13.5504  14.0218  14.5999  14.6826  14.8482  15.9212  16.0914

     occupation numbers
     1.0000   1.0000   1.0000   1.0000   1.0000   1.0000   1.0000   1.0000
     1.0000   1.0000   1.0000   1.0000   1.0000   1.0000   1.0000   1.0000
     1.0000   1.0000   1.0000   1.0000   1.0000   1.0000   1.0000   1.0000
     1.0000   1.0000   1.0000   1.0000   1.0000   1.0000   1.0000   1.0000
     1.0000   1.0000   1.0000   0.0000   0.0000   0.0000   0.0000   0.0000
     0.0000   0.0000   0.0000   0.0000   0.0000   0.0000   0.0000   0.0000
     0.0000   0.0000   0.0000   0.0000   0.0000   0.0000   0.0000   0.0000
     0.0000   0.0000   0.0000   0.0000   0.0000   0.0000   0.0000   0.0000

     highest occupied, lowest unoccupied level (ev):     7.8962    8.0477

!    total energy              =    -650.79375713 Ry
     estimated scf accuracy    <       0.00000075 Ry

     The total energy is the sum of the following terms:
     one-electron contribution =    -281.88769251 Ry
     hartree contribution      =     164.57687729 Ry
     xc contribution           =    -161.09252325 Ry
     ewald contribution        =    -372.39041867 Ry

     convergence has been achieved in   8 iterations

     Writing all to output data dir calculations_bands/myprefix.save/

     General routines

     Parallel routines

   This run was terminated on:   6:34:35   6Jun2023

   JOB DONE.