     Program PWSCF v.7.0 starts on 23Jun2023 at 15: 3:18

     K-points division:     npool     =       2
     R & G space division:  proc/nbgrp/npool/nimage =       4

     Reading input from espresso_9838.pwi
Warning: card &CELL ignored
Warning: card / ignored

     Current dimensions of program PWSCF are:
     Max number of different atomic species (ntypx) = 10
     Max number of k-points (npk) =  40000
     Max angular momentum in pseudopotentials (lmaxx) =  4
     file O.pbe-n-kjpaw_psl.0.1.UPF: wavefunction(s)  2P renormalized

     Using Slab Decomposition

     bravais-lattice index     =            0
     lattice parameter (alat)  =      10.7277  a.u.
     unit-cell volume          =    1651.2704 (a.u.)^3
     number of atoms/cell      =           20
     number of atomic types    =            4
     number of electrons       =       162.00
     number of Kohn-Sham states=           90
     kinetic-energy cutoff     =      30.0000  Ry
     charge density cutoff     =     240.0000  Ry
     scf convergence threshold =      1.0E-06
     mixing beta               =       0.7000
     number of iterations used =            8  plain     mixing
     Exchange-correlation= SLA  PW   PBX  PBC
                           (   1   4   3   4   0   0   0)

     celldm(1)=  10.727675  celldm(2)=   0.000000  celldm(3)=   0.000000
     celldm(4)=   0.000000  celldm(5)=   0.000000  celldm(6)=   0.000000

     crystal axes: (cart. coord. in units of alat)
               a(1) = (   1.000000   0.000000   0.000000 )
               a(2) = (  -0.369050   1.164487   0.000000 )
               a(3) = (   0.369126  -0.191736   1.148595 )

     reciprocal axes: (cart. coord. in units 2 pi/alat)
               b(1) = (  1.000000  0.316921 -0.268468 )
               b(2) = (  0.000000  0.858747  0.143351 )
               b(3) = (  0.000000  0.000000  0.870629 )

     PseudoPot. # 1 for Li read from file:
     /home/pragov/projects/rrg-bengioy-ad/pragov/crystal_structure_design/SSSP/li_pbe_v1.4.uspp.F.UPF
     MD5 check sum: e912e257baa3777c20ea3d68f190483c
     Pseudo is Ultrasoft, Zval =  3.0
     Generated by new atomic code, or converted to UPF format
     Using radial grid of  751 points,  5 beta functions with:
                l(1) =   0
                l(2) =   0
                l(3) =   0
                l(4) =   1
                l(5) =   1
     Q(r) pseudized with 10 coefficients,  rinner =    1.150   1.150   1.150

     PseudoPot. # 2 for V  read from file:
     /home/pragov/projects/rrg-bengioy-ad/pragov/crystal_structure_design/SSSP/v_pbe_v1.4.uspp.F.UPF
     MD5 check sum: 22b79981416ebb76fdaf5b1b8640f6fb
     Pseudo is Ultrasoft + core correction, Zval = 13.0
     Generated by new atomic code, or converted to UPF format
     Using radial grid of  853 points,  6 beta functions with:
                l(1) =   0
                l(2) =   0
                l(3) =   1
                l(4) =   1
                l(5) =   2
                l(6) =   2
     Q(r) pseudized with  8 coefficients,  rinner =    1.100   1.100   1.100
                                                       1.100   1.100

     PseudoPot. # 3 for Cu read from file:
     /home/pragov/projects/rrg-bengioy-ad/pragov/crystal_structure_design/SSSP/Cu_pbe_v1.2.uspp.F.UPF
     MD5 check sum: 6e991ff952a84172a2a52a1c1e996048
     Pseudo is Ultrasoft + core correction, Zval = 19.0
     Generated by new atomic code, or converted to UPF format
     Using radial grid of  867 points,  6 beta functions with:
                l(1) =   0
                l(2) =   0
                l(3) =   1
                l(4) =   1
                l(5) =   2
                l(6) =   2
     Q(r) pseudized with  8 coefficients,  rinner =    1.150   1.150   1.150
                                                       1.150   1.150

     PseudoPot. # 4 for O  read from file:
     /home/pragov/projects/rrg-bengioy-ad/pragov/crystal_structure_design/SSSP/O.pbe-n-kjpaw_psl.0.1.UPF
     MD5 check sum: 0234752ac141de4415c5fc33072bef88
     Pseudo is Projector augmented-wave + core cor, Zval =  6.0
     Generated using "atomic" code by A. Dal Corso  v.5.0.99 svn rev. 10869
     Shape of augmentation charge: BESSEL
     Using radial grid of 1095 points,  4 beta functions with:
                l(1) =   0
                l(2) =   0
                l(3) =   1
                l(4) =   1
     Q(r) pseudized with 0 coefficients

     atomic species   valence    mass     pseudopotential
        Li             3.00     6.94000     Li( 1.00)
        V             13.00    50.94150     V ( 1.00)
        Cu            19.00    63.54600     Cu( 1.00)
        O              6.00    15.99900     O ( 1.00)

     No symmetry found

                                    s                        frac. trans.

      isym =  1     identity

 cryst.   s( 1) = (     1          0          0      )
                  (     0          1          0      )
                  (     0          0          1      )

 cart.    s( 1) = (  1.0000000 -0.0000000  0.0000000 )
                  (  0.0000000  1.0000000  0.0000000 )
                  (  0.0000000  0.0000000  1.0000000 )

   Cartesian axes

     site n.     atom                  positions (alat units)
         1           Li  tau(   1) = (   0.2500257   0.2780703   0.3283040  )
         2           Li  tau(   2) = (   0.7500473   0.7060892   0.8337121  )
         3           V   tau(   3) = (   0.2500746   0.8996275   1.0621963  )
         4           V   tau(   4) = (   0.8981087   0.0927554   0.7164394  )
         5           V   tau(   5) = (   0.6019685   0.6914080   0.2094934  )
         6           V   tau(   6) = (   0.3753474   0.2871008   0.9613509  )
         7           V   tau(   7) = (   0.1247589   0.9009537   0.4414911  )
         8           Cu  tau(   8) = (   0.7499865   0.1034523   0.1224793  )
         9           O   tau(   9) = (   0.9306649  -0.1344457   0.9201301  )
        10           O   tau(  10) = (   0.5694118   0.9297328   0.0188726  )
        11           O   tau(  11) = (   0.8058335  -0.0406578   0.4550273  )
        12           O   tau(  12) = (   0.6941976   0.4555905   0.0348713  )
        13           O   tau(  13) = (   0.0944448   0.2338376   0.0013852  )
        14           O   tau(  14) = (   0.4055607  -0.0370963   0.2308549  )
        15           O   tau(  15) = (   0.6826304   0.2995128   0.7932621  )
        16           O   tau(  16) = (   0.8174688   0.7331427   0.4261114  )
        17           O   tau(  17) = (   0.1831331   0.2241308   0.6813625  )
        18           O   tau(  18) = (   0.3169201   0.6352156   0.3332740  )
        19           O   tau(  19) = (   0.3969490   0.5896021   1.0176171  )
        20           O   tau(  20) = (   0.1031444   0.9067328   0.7491147  )

   Crystallographic axes

     site n.     atom                  positions (cryst. coord.)
         1           Li  tau(   1) = (  0.2500130  0.2858550  0.2858310  )
         2           Li  tau(   2) = (  0.7499970  0.7258660  0.7258540  )
         3           V   tau(   3) = (  0.2500200  0.9248200  0.9247790  )
         4           V   tau(   4) = (  0.7351640  0.1823560  0.6237530  )
         5           V   tau(   5) = (  0.7648480  0.6237760  0.1823910  )
         6           V   tau(   6) = (  0.2082440  0.3843580  0.8369800  )
         7           V   tau(   7) = (  0.2917640  0.8369800  0.3843750  )
         8           Cu  tau(   8) = (  0.7498910  0.1063970  0.1066340  )
         9           O   tau(   9) = (  0.6410310  0.0164470  0.8010920  )
        10           O   tau(  10) = (  0.8589970  0.8011110  0.0164310  )
        11           O   tau(  11) = (  0.6707880  0.0303140  0.3961600  )
        12           O   tau(  12) = (  0.8292220  0.3962360  0.0303600  )
        13           O   tau(  13) = (  0.1681810  0.2010060  0.0012060  )
        14           O   tau(  14) = (  0.3318270  0.0012370  0.2009890  )
        15           O   tau(  15) = (  0.5645870  0.3709210  0.6906370  )
        16           O   tau(  16) = (  0.9354200  0.6906680  0.3709850  )
        17           O   tau(  17) = (  0.0712410  0.2901460  0.5932140  )
        18           O   tau(  18) = (  0.4287600  0.5932650  0.2901580  )
        19           O   tau(  19) = (  0.3106090  0.6521960  0.8859670  )
        20           O   tau(  20) = (  0.1893940  0.8860410  0.6522010  )

     number of k points=    14
                       cart. coord. in units 2pi/alat
        k(    1) = (   0.0000000   0.0000000   0.0000000), wk =   0.0740741
        k(    2) = (   0.0000000   0.0000000   0.2902097), wk =   0.1481481
        k(    3) = (   0.0000000   0.2862491   0.0477838), wk =   0.1481481
        k(    4) = (   0.0000000   0.2862491   0.3379935), wk =   0.1481481
        k(    5) = (   0.0000000   0.2862491  -0.2424259), wk =   0.1481481
        k(    6) = (   0.3333333   0.1056403  -0.0894892), wk =   0.1481481
        k(    7) = (   0.3333333   0.1056403   0.2007205), wk =   0.1481481
        k(    8) = (   0.3333333   0.1056403  -0.3796989), wk =   0.1481481
        k(    9) = (   0.3333333   0.3918895  -0.0417055), wk =   0.1481481
        k(   10) = (   0.3333333   0.3918895   0.2485042), wk =   0.1481481
        k(   11) = (   0.3333333   0.3918895  -0.3319151), wk =   0.1481481
        k(   12) = (   0.3333333  -0.1806088  -0.1372730), wk =   0.1481481
        k(   13) = (   0.3333333  -0.1806088   0.1529367), wk =   0.1481481
        k(   14) = (   0.3333333  -0.1806088  -0.4274827), wk =   0.1481481

                       cryst. coord.
        k(    1) = (   0.0000000   0.0000000   0.0000000), wk =   0.0740741
        k(    2) = (   0.0000000   0.0000000   0.3333333), wk =   0.1481481
        k(    3) = (   0.0000000   0.3333333  -0.0000000), wk =   0.1481481
        k(    4) = (   0.0000000   0.3333333   0.3333333), wk =   0.1481481
        k(    5) = (   0.0000000   0.3333333  -0.3333333), wk =   0.1481481
        k(    6) = (   0.3333333   0.0000000   0.0000000), wk =   0.1481481
        k(    7) = (   0.3333333   0.0000000   0.3333333), wk =   0.1481481
        k(    8) = (   0.3333333   0.0000000  -0.3333333), wk =   0.1481481
        k(    9) = (   0.3333333   0.3333333   0.0000000), wk =   0.1481481
        k(   10) = (   0.3333333   0.3333333   0.3333333), wk =   0.1481481
        k(   11) = (   0.3333333   0.3333333  -0.3333333), wk =   0.1481481
        k(   12) = (   0.3333333  -0.3333333   0.0000000), wk =   0.1481481
        k(   13) = (   0.3333333  -0.3333333   0.3333333), wk =   0.1481481
        k(   14) = (   0.3333333  -0.3333333  -0.3333333), wk =   0.1481481

     Check: negative core charge=   -0.000016

     Initial potential from superposition of free atoms

     starting charge     160.0924, renormalised to     162.0000

     negative rho (up, down):  1.772E-03 0.000E+00
     Starting wfcs are  121 randomized atomic wfcs
     Checking if some PAW data can be deallocated...

     Self-consistent Calculation

     iteration #  1     ecut=    30.00 Ry     beta= 0.70
     Davidson diagonalization with overlap

     ethr =  1.00E-02,  avg # of iterations =  2.0

     negative rho (up, down):  1.517E-02 0.000E+00

     total energy              =   -1648.62245472 Ry
     estimated scf accuracy    <      14.83075507 Ry

[...]

     total energy              =   -1658.62358016 Ry
     estimated scf accuracy    <       0.00000125 Ry

     iteration # 26     ecut=    30.00 Ry     beta= 0.70
     Davidson diagonalization with overlap

     ethr =  7.74E-10,  avg # of iterations =  3.3

     negative rho (up, down):  5.131E-03 0.000E+00

     End of self-consistent calculation

          k = 0.0000 0.0000 0.0000 (  4597 PWs)   bands (ev):

  -103.7740 -61.2388 -61.1905 -61.1270 -58.2643 -58.2639 -58.0740 -58.0736
   -57.7773 -38.1652 -37.8032 -32.2551 -32.2528 -32.1758 -32.1749 -32.1409
   -32.1375 -32.1214 -32.1197 -31.9464 -31.9431 -31.7173 -31.7160 -31.6966
   -31.6805 -31.4000 -12.0446 -11.4239 -11.3398 -11.3183 -11.2279 -11.1089
   -11.0860 -10.9943 -10.9719 -10.8971 -10.8658 -10.8310   0.9194   1.1973
     1.2102   1.5293   1.6622   1.6815   1.7174   1.7737   1.8100   1.8950
     1.9404   2.0425   2.1410   2.1779   2.2411   2.4005   2.4512   2.6161
     2.8756   2.9684   3.1066   3.1249   3.2306   3.3898   3.5117   3.6318
     3.7473   3.8816   4.0553   4.2991   4.3658   4.5000   4.5003   4.6972
     4.8448   4.9012   6.3224   6.3602   6.3770   6.7177   7.0004   7.6276
     7.7623   7.8042   7.9815   8.1109   8.3999   8.4633   8.6470   8.6532
     8.8179   9.0729

     occupation numbers
     1.0000   1.0000   1.0000   1.0000   1.0000   1.0000   1.0000   1.0000
     1.0000   1.0000   1.0000   1.0000   1.0000   1.0000   1.0000   1.0000
     1.0000   1.0000   1.0000   1.0000   1.0000   1.0000   1.0000   1.0000
     1.0000   1.0000   1.0000   1.0000   1.0000   1.0000   1.0000   1.0000
     1.0000   1.0000   1.0000   1.0000   1.0000   1.0000   1.0000   1.0000
     1.0000   1.0000   1.0000   1.0000   1.0000   1.0000   1.0000   1.0000
     1.0000   1.0000   1.0000   1.0000   1.0000   1.0000   1.0000   1.0000
     1.0000   1.0000   1.0000   1.0000   1.0000   1.0000   1.0000   1.0000
     1.0000   1.0000   1.0000   1.0000   1.0000   1.0000   1.0000   1.0000
     1.0000   1.0000   1.0000   1.0000   1.0000   1.0000   1.0000   1.0000
     1.0000   0.0000   0.0000   0.0000   0.0000   0.0000   0.0000   0.0000
     0.0000   0.0000

[...]

          k = 0.3333-0.1806-0.4275 (  4575 PWs)   bands (ev):

  -103.7738 -61.2380 -61.1895 -61.1274 -58.2642 -58.2638 -58.0740 -58.0736
   -57.7773 -38.1650 -37.8030 -32.2539 -32.2520 -32.1762 -32.1743 -32.1401
   -32.1389 -32.1186 -32.1177 -31.9453 -31.9442 -31.7167 -31.7152 -31.6988
   -31.6819 -31.3998 -11.7137 -11.5915 -11.4168 -11.3312 -11.2452 -11.1653
   -11.0964 -10.9919 -10.9440 -10.9261 -10.8750 -10.8448   1.0231   1.1503
     1.4082   1.4591   1.5814   1.6192   1.6654   1.6876   1.8378   1.8844
     1.9576   2.0283   2.0867   2.1572   2.3162   2.4930   2.6462   2.7259
     2.8252   2.9766   3.1543   3.2520   3.3045   3.5250   3.5875   3.7363
     3.8005   3.9203   3.9854   4.0764   4.1683   4.2749   4.4582   4.5833
     4.6885   4.8616   6.3176   6.3542   6.4598   6.9757   7.0679   7.6485
     7.7127   7.7762   7.9755   8.0497   8.2458   8.3905   8.4698   8.6295
     8.7769   8.9093

     occupation numbers
     1.0000   1.0000   1.0000   1.0000   1.0000   1.0000   1.0000   1.0000
     1.0000   1.0000   1.0000   1.0000   1.0000   1.0000   1.0000   1.0000
     1.0000   1.0000   1.0000   1.0000   1.0000   1.0000   1.0000   1.0000
     1.0000   1.0000   1.0000   1.0000   1.0000   1.0000   1.0000   1.0000
     1.0000   1.0000   1.0000   1.0000   1.0000   1.0000   1.0000   1.0000
     1.0000   1.0000   1.0000   1.0000   1.0000   1.0000   1.0000   1.0000
     1.0000   1.0000   1.0000   1.0000   1.0000   1.0000   1.0000   1.0000
     1.0000   1.0000   1.0000   1.0000   1.0000   1.0000   1.0000   1.0000
     1.0000   1.0000   1.0000   1.0000   1.0000   1.0000   1.0000   1.0000
     1.0000   1.0000   1.0000   1.0000   1.0000   1.0000   1.0000   1.0000
     1.0000   0.0000   0.0000   0.0000   0.0000   0.0000   0.0000   0.0000
     0.0000   0.0000

     highest occupied, lowest unoccupied level (ev):     7.7623    7.7710

!    total energy              =   -1658.62357994 Ry
     estimated scf accuracy    <       0.00000050 Ry

     The total energy is the sum of the following terms:
     one-electron contribution =   -1062.11929297 Ry
     hartree contribution      =     591.78056078 Ry
     xc contribution           =    -232.01097737 Ry
     ewald contribution        =    -841.95350571 Ry
     one-center paw contrib.   =    -114.32036467 Ry
      -> PAW hartree energy AE =       0.00000000 Ry
      -> PAW hartree energy PS =       0.00000000 Ry
      -> PAW xc energy AE      =       0.00000000 Ry
      -> PAW xc energy PS      =       0.00000000 Ry
      -> total E_H with PAW    =     591.78056078 Ry
      -> total E_XC with PAW   =    -232.01097737 Ry

     convergence has been achieved in  26 iterations

     Writing all to output data dir calculations_bands/myprefix.save/

     General routines

     Parallel routines

     PAW routines

   This run was terminated on:  15: 4: 2  23Jun2023

   JOB DONE.