     Program PWSCF v.7.0 starts on 23Jun2023 at 16:22: 4

     K-points division:     npool     =       2
     R & G space division:  proc/nbgrp/npool/nimage =       4

     Reading input from espresso_9894.pwi
Warning: card &CELL ignored
Warning: card / ignored

     Current dimensions of program PWSCF are:
     Max number of different atomic species (ntypx) = 10
     Max number of k-points (npk) =  40000
     Max angular momentum in pseudopotentials (lmaxx) =  4
     file Ba.pbe-spn-kjpaw_psl.1.0.0.UPF: wavefunction(s)  5S 6S renormalized
     Message from routine setup:
     using ibrav=0 with symmetry is DISCOURAGED, use correct ibrav instead

     Using Slab Decomposition

     bravais-lattice index     =            0
     lattice parameter (alat)  =       9.0828  a.u.
     unit-cell volume          =    1695.5026 (a.u.)^3
     number of atoms/cell      =           10
     number of atomic types    =            3
     number of electrons       =       152.00
     number of Kohn-Sham states=           90
     kinetic-energy cutoff     =      30.0000  Ry
     charge density cutoff     =     240.0000  Ry
     scf convergence threshold =      1.0E-06
     mixing beta               =       0.7000
     number of iterations used =            8  plain     mixing
     Exchange-correlation= PBE
                           (   1   4   3   4   0   0   0)

     celldm(1)=   9.082842  celldm(2)=   0.000000  celldm(3)=   0.000000
     celldm(4)=   0.000000  celldm(5)=   0.000000  celldm(6)=   0.000000

     crystal axes: (cart. coord. in units of alat)
               a(1) = (   1.000000   0.000000   0.000000 )
               a(2) = (   0.000000   1.000000   0.000000 )
               a(3) = (   0.000000   0.000000   2.262732 )

     reciprocal axes: (cart. coord. in units 2 pi/alat)
               b(1) = (  1.000000  0.000000  0.000000 )
               b(2) = (  0.000000  1.000000  0.000000 )
               b(3) = (  0.000000  0.000000  0.441944 )

     PseudoPot. # 1 for Ba read from file:
     /home/pragov/projects/rrg-bengioy-ad/pragov/crystal_structure_design/SSSP/Ba.pbe-spn-kjpaw_psl.1.0.0.UPF
     MD5 check sum: c432291d3e53af55f19d5e8866385beb
     Pseudo is Projector augmented-wave + core cor, Zval = 10.0
     Generated using "atomic" code by A. Dal Corso  v.5.1
     Shape of augmentation charge: PSQ
     Using radial grid of 1251 points,  7 beta functions with:
                l(1) =   0
                l(2) =   0
                l(3) =   0
                l(4) =   1
                l(5) =   1
                l(6) =   2
                l(7) =   2
     Q(r) pseudized with 0 coefficients

     PseudoPot. # 2 for Sb read from file:
     /home/pragov/projects/rrg-bengioy-ad/pragov/crystal_structure_design/SSSP/sb_pbe_v1.4.uspp.F.UPF
     MD5 check sum: 9bc50dfb53373b713f5709b9110fe27f
     Pseudo is Ultrasoft + core correction, Zval = 15.0
     Generated by new atomic code, or converted to UPF format
     Using radial grid of  891 points,  6 beta functions with:
                l(1) =   0
                l(2) =   0
                l(3) =   1
                l(4) =   1
                l(5) =   2
                l(6) =   2
     Q(r) pseudized with  8 coefficients,  rinner =    1.350   1.350   1.350
                                                       1.350   1.350

     PseudoPot. # 3 for Pd read from file:
     /home/pragov/projects/rrg-bengioy-ad/pragov/crystal_structure_design/SSSP/Pd_ONCV_PBE-1.0.oncvpsp.upf
     MD5 check sum: eb77f42b51d86fb18e25f68156a31cf1
     Pseudo is Norm-conserving, Zval = 18.0
     Generated using ONCVPSP code by D. R. Hamann
     Using radial grid of 1410 points,  6 beta functions with:
                l(1) =   0
                l(2) =   0
                l(3) =   1
                l(4) =   1
                l(5) =   2
                l(6) =   2

     atomic species   valence    mass     pseudopotential
        Ba            10.00   137.32700     Ba( 1.00)
        Sb            15.00   121.76000     Sb( 1.00)
        Pd            18.00   106.42000     Pd( 1.00)

     16 Sym. Ops., with inversion, found ( 8 have fractional translation)

                                    s                        frac. trans.

      isym =  1     identity

 cryst.   s( 1) = (     1          0          0      )
                  (     0          1          0      )
                  (     0          0          1      )

 cart.    s( 1) = (  1.0000000  0.0000000  0.0000000 )
                  (  0.0000000  1.0000000  0.0000000 )
                  (  0.0000000  0.0000000  1.0000000 )

      isym =  2     180 deg rotation - cart. axis [0,0,1]

[...]

 cryst.   s( 3) = (    -1          0          0      )    f =(  0.5000000 )
                  (     0          1          0      )       (  0.5000000 )
                  (     0          0         -1      )       (  0.0000000 )

 cart.    s( 3) = ( -1.0000000  0.0000000  0.0000000 )    f =(  0.5000000 )
                  (  0.0000000  1.0000000  0.0000000 )       (  0.5000000 )
                  (  0.0000000  0.0000000 -1.0000000 )       (  0.0000000 )

[...]

 cryst.   s( 6) = (     0         -1          0      )
                  (    -1          0          0      )
                  (     0          0         -1      )

 cart.    s( 6) = (  0.0000000 -1.0000000  0.0000000 )
                  ( -1.0000000  0.0000000  0.0000000 )
                  (  0.0000000  0.0000000 -1.0000000 )

[...]

      isym =  8      90 deg rotation - cart. axis [0,0,1]

[...]

      isym =  9     inversion

 cryst.   s( 9) = (    -1          0          0      )    f =(  0.5000000 )
                  (     0         -1          0      )       (  0.5000000 )
                  (     0          0         -1      )       (  0.0000000 )

 cart.    s( 9) = ( -1.0000000  0.0000000  0.0000000 )    f =(  0.5000000 )
                  (  0.0000000 -1.0000000  0.0000000 )       (  0.5000000 )
                  (  0.0000000  0.0000000 -1.0000000 )       (  0.0000000 )

      isym = 10     inv. 180 deg rotation - cart. axis [0,0,1]

 cryst.   s(10) = (     1          0          0      )    f =( -0.5000000 )
                  (     0          1          0      )       (  0.5000000 )
                  (     0          0         -1      )       (  0.0000000 )

 cart.    s(10) = (  1.0000000  0.0000000  0.0000000 )    f =( -0.5000000 )
                  (  0.0000000  1.0000000  0.0000000 )       (  0.5000000 )
                  (  0.0000000  0.0000000 -1.0000000 )       (  0.0000000 )

[...]

 cryst.   s(11) = (     1          0          0      )
                  (     0         -1          0      )
                  (     0          0          1      )

 cart.    s(11) = (  1.0000000  0.0000000  0.0000000 )
                  (  0.0000000 -1.0000000  0.0000000 )
                  (  0.0000000  0.0000000  1.0000000 )

[...]

 cryst.   s(14) = (     0          1          0      )    f =( -0.5000000 )
                  (     1          0          0      )       (  0.5000000 )
                  (     0          0          1      )       (  0.0000000 )

 cart.    s(14) = (  0.0000000  1.0000000  0.0000000 )    f =( -0.5000000 )
                  (  1.0000000  0.0000000  0.0000000 )       (  0.5000000 )
                  (  0.0000000  0.0000000  1.0000000 )       (  0.0000000 )

[...]

      isym = 16     inv.  90 deg rotation - cart. axis [0,0,1]

 cryst.   s(16) = (     0         -1          0      )
                  (     1          0          0      )
                  (     0          0         -1      )

 cart.    s(16) = (  0.0000000  1.0000000  0.0000000 )
                  ( -1.0000000  0.0000000  0.0000000 )
                  (  0.0000000  0.0000000 -1.0000000 )

   Cartesian axes

     site n.     atom                  positions (alat units)
         1           Ba  tau(   1) = (   0.0000000   0.5000000   0.5522854  )
         2           Ba  tau(   2) = (   0.5000000   0.0000000   1.7104468  )
         3           Sb  tau(   3) = (   0.0000000   0.0000000   1.1313661  )
         4           Sb  tau(   4) = (   0.5000000   0.5000000   1.1313661  )
         5           Sb  tau(   5) = (   0.0000000   0.5000000   1.9817597  )
         6           Sb  tau(   6) = (   0.5000000   0.0000000   0.2809725  )
         7           Pd  tau(   7) = (   0.0000000   0.0000000   0.0000000  )
         8           Pd  tau(   8) = (   0.5000000   0.5000000   0.0000000  )
         9           Pd  tau(   9) = (   0.0000000   0.5000000   1.4089581  )
        10           Pd  tau(  10) = (   0.5000000   0.0000000   0.8537741  )

   Crystallographic axes

     site n.     atom                  positions (cryst. coord.)
         1           Ba  tau(   1) = (  0.0000000  0.5000000  0.2440790  )
         2           Ba  tau(   2) = (  0.5000000  0.0000000  0.7559210  )
         3           Sb  tau(   3) = (  0.0000000  0.0000000  0.5000000  )
         4           Sb  tau(   4) = (  0.5000000  0.5000000  0.5000000  )
         5           Sb  tau(   5) = (  0.0000000  0.5000000  0.8758260  )
         6           Sb  tau(   6) = (  0.5000000  0.0000000  0.1241740  )
         7           Pd  tau(   7) = (  0.0000000  0.0000000  0.0000000  )
         8           Pd  tau(   8) = (  0.5000000  0.5000000  0.0000000  )
         9           Pd  tau(   9) = (  0.0000000  0.5000000  0.6226800  )
        10           Pd  tau(  10) = (  0.5000000  0.0000000  0.3773200  )

     number of k points=     6
                       cart. coord. in units 2pi/alat
        k(    1) = (   0.0000000   0.0000000   0.0000000), wk =   0.0740741
        k(    2) = (   0.0000000   0.0000000   0.1473145), wk =   0.1481481
        k(    3) = (   0.0000000   0.3333333   0.0000000), wk =   0.2962963
        k(    4) = (   0.0000000   0.3333333   0.1473145), wk =   0.5925926
        k(    5) = (   0.3333333   0.3333333   0.0000000), wk =   0.2962963
        k(    6) = (   0.3333333   0.3333333   0.1473145), wk =   0.5925926

                       cryst. coord.
        k(    1) = (   0.0000000   0.0000000   0.0000000), wk =   0.0740741
        k(    2) = (   0.0000000   0.0000000   0.3333333), wk =   0.1481481
        k(    3) = (   0.0000000   0.3333333   0.0000000), wk =   0.2962963
        k(    4) = (   0.0000000   0.3333333   0.3333333), wk =   0.5925926
        k(    5) = (   0.3333333   0.3333333   0.0000000), wk =   0.2962963
        k(    6) = (   0.3333333   0.3333333   0.3333333), wk =   0.5925926

     Check: negative core charge=   -0.000004

     Initial potential from superposition of free atoms

     starting charge     147.9645, renormalised to     152.0000
     Starting wfcs are   86 randomized atomic wfcs +    4 random wfcs
     Checking if some PAW data can be deallocated...

     Self-consistent Calculation

     iteration #  1     ecut=    30.00 Ry     beta= 0.70
     Davidson diagonalization with overlap

     ethr =  1.00E-02,  avg # of iterations =  6.3

     total energy              =   -2614.07054902 Ry
     estimated scf accuracy    <      13.60103370 Ry

[...]

     total energy              =   -2624.56695239 Ry
     estimated scf accuracy    <       0.00000221 Ry

     iteration # 12     ecut=    30.00 Ry     beta= 0.70
     Davidson diagonalization with overlap

     ethr =  1.45E-09,  avg # of iterations =  2.8

     End of self-consistent calculation

          k = 0.0000 0.0000 0.0000 (  4683 PWs)   bands (ev):

   -72.7798 -72.7783 -72.7692 -72.7692 -38.2136 -38.2131 -38.2012 -38.2012
   -38.1874 -38.1874 -38.1657 -38.1622 -38.1595 -38.1595 -38.1593 -38.1593
   -16.3248 -16.3239 -16.3218 -16.3180 -16.3180 -16.3175 -16.3175 -16.3173
   -16.3155 -16.3108 -16.2885 -16.2541 -16.2160 -16.1718 -16.1718 -16.1600
   -16.1551 -16.1551 -16.1497 -16.1025 -14.8812 -14.8796  -0.4566  -0.2305
    -0.1081  -0.1081  -0.1049  -0.1049   1.8141   2.7806   3.2327   4.7714
     7.9586   8.0413   8.0640   8.0640   8.5745   8.6936   8.6936   8.8573
     9.0593   9.5037   9.5037   9.6790   9.6790   9.7923   9.8724  10.0165
    10.0961  10.3458  10.9635  11.0571  11.1045  11.2309  11.2309  11.3569
    11.6261  11.6261  13.4981  13.7136  13.8121  13.8121  14.2660  14.5546
    14.8464  15.2597  15.2597  15.5536  15.6279  15.6279  16.2079  16.5446
    16.6721  16.8948

     occupation numbers
     1.0000   1.0000   1.0000   1.0000   1.0000   1.0000   1.0000   1.0000
     1.0000   1.0000   1.0000   1.0000   1.0000   1.0000   1.0000   1.0000
     1.0000   1.0000   1.0000   1.0000   1.0000   1.0000   1.0000   1.0000
     1.0000   1.0000   1.0000   1.0000   1.0000   1.0000   1.0000   1.0000
     1.0000   1.0000   1.0000   1.0000   1.0000   1.0000   1.0000   1.0000
     1.0000   1.0000   1.0000   1.0000   1.0000   1.0000   1.0000   1.0000
     1.0000   1.0000   1.0000   1.0000   1.0000   1.0000   1.0000   1.0000
     1.0000   1.0000   1.0000   1.0000   1.0000   1.0000   1.0000   1.0000
     1.0000   1.0000   1.0000   1.0000   1.0000   1.0000   1.0000   1.0000
     1.0000   1.0000   1.0000   1.0000   0.0000   0.0000   0.0000   0.0000
     0.0000   0.0000   0.0000   0.0000   0.0000   0.0000   0.0000   0.0000
     0.0000   0.0000

[...]

          k = 0.3333 0.3333 0.1473 (  4725 PWs)   bands (ev):

   -72.7793 -72.7789 -72.7692 -72.7692 -38.2141 -38.2136 -38.2025 -38.1999
   -38.1907 -38.1865 -38.1648 -38.1641 -38.1610 -38.1602 -38.1599 -38.1590
   -16.3289 -16.3279 -16.3239 -16.3214 -16.3210 -16.3203 -16.3200 -16.3170
   -16.3168 -16.3158 -16.2476 -16.2436 -16.2336 -16.2180 -16.1743 -16.1722
   -16.1608 -16.1559 -16.1299 -16.1167 -14.8692 -14.8690  -0.2917  -0.2763
    -0.2407  -0.2236  -0.2194  -0.2011   2.9293   3.1606   3.3293   3.7022
     7.4470   8.0211   8.1521   8.2982   8.8825   9.0815   9.1127   9.2862
     9.2900   9.3427   9.4293   9.7185   9.7693   9.8135   9.9106   9.9328
     9.9848  10.0929  10.1824  10.2433  10.4541  10.5489  10.8207  10.9123
    11.4361  11.5266  11.5326  12.0533  12.1973  12.4009  14.7695  15.2736
    15.6152  16.1535  16.2559  16.4715  16.9948  17.0361  17.2818  17.6119
    17.7133  17.7855

     occupation numbers
     1.0000   1.0000   1.0000   1.0000   1.0000   1.0000   1.0000   1.0000
     1.0000   1.0000   1.0000   1.0000   1.0000   1.0000   1.0000   1.0000
     1.0000   1.0000   1.0000   1.0000   1.0000   1.0000   1.0000   1.0000
     1.0000   1.0000   1.0000   1.0000   1.0000   1.0000   1.0000   1.0000
     1.0000   1.0000   1.0000   1.0000   1.0000   1.0000   1.0000   1.0000
     1.0000   1.0000   1.0000   1.0000   1.0000   1.0000   1.0000   1.0000
     1.0000   1.0000   1.0000   1.0000   1.0000   1.0000   1.0000   1.0000
     1.0000   1.0000   1.0000   1.0000   1.0000   1.0000   1.0000   1.0000
     1.0000   1.0000   1.0000   1.0000   1.0000   1.0000   1.0000   1.0000
     1.0000   1.0000   1.0000   1.0000   0.0000   0.0000   0.0000   0.0000
     0.0000   0.0000   0.0000   0.0000   0.0000   0.0000   0.0000   0.0000
     0.0000   0.0000

     highest occupied, lowest unoccupied level (ev):    13.7136   12.1834

!    total energy              =   -2624.56695251 Ry
     estimated scf accuracy    <       0.00000032 Ry

     The total energy is the sum of the following terms:
     one-electron contribution =    -945.15153477 Ry
     hartree contribution      =     547.97931260 Ry
     xc contribution           =    -316.15078290 Ry
     ewald contribution        =   -1161.33595069 Ry
     one-center paw contrib.   =    -749.90799675 Ry
      -> PAW hartree energy AE =      57.59097851 Ry
      -> PAW hartree energy PS =     -57.37453311 Ry
      -> PAW xc energy AE      =    -788.46924888 Ry
      -> PAW xc energy PS      =      38.34480673 Ry
      -> total E_H with PAW    =     548.19575800 Ry
      -> total E_XC with PAW   =   -1066.27522505 Ry

     convergence has been achieved in  12 iterations

     Writing all to output data dir calculations_bands/myprefix.save/

     General routines

     Parallel routines

     PAW routines

   This run was terminated on:  16:22:22  23Jun2023

   JOB DONE.