     Program PWSCF v.7.0 starts on  6Jun2023 at 11: 9:59

     K-points division:     npool     =       2
     R & G space division:  proc/nbgrp/npool/nimage =       4

     Reading input from espresso_16404.pwi
Warning: card &CELL ignored
Warning: card / ignored

     Current dimensions of program PWSCF are:
     Max number of different atomic species (ntypx) = 10
     Max number of k-points (npk) =  40000
     Max angular momentum in pseudopotentials (lmaxx) =  4
     Message from routine setup:
     using ibrav=0 with symmetry is DISCOURAGED, use correct ibrav instead

     Using Slab Decomposition

     bravais-lattice index     =            0
     lattice parameter (alat)  =      11.7750  a.u.
     unit-cell volume          =     389.9685 (a.u.)^3
     number of atoms/cell      =            4
     number of atomic types    =            3
     number of electrons       =        32.00
     number of Kohn-Sham states=           64
     kinetic-energy cutoff     =      30.0000  Ry
     charge density cutoff     =     240.0000  Ry
     scf convergence threshold =      1.0E-06
     mixing beta               =       0.7000
     number of iterations used =            8  plain     mixing
     Exchange-correlation= PBE
                           (   1   4   3   4   0   0   0)

     celldm(1)=  11.775024  celldm(2)=   0.000000  celldm(3)=   0.000000
     celldm(4)=   0.000000  celldm(5)=   0.000000  celldm(6)=   0.000000

     crystal axes: (cart. coord. in units of alat)
               a(1) = (   1.000000   0.000000   0.000000 )
               a(2) = (   0.854897   0.518798   0.000000 )
               a(3) = (   0.854897   0.239107   0.460412 )

     reciprocal axes: (cart. coord. in units 2 pi/alat)
               b(1) = (  1.000000 -1.647844 -1.001031 )
               b(2) = (  0.000000  1.927534 -1.001031 )
               b(3) = (  0.000000  0.000000  2.171970 )

     PseudoPot. # 1 for Sr read from file:
     /home/pragov/projects/rrg-bengioy-ad/pragov/crystal_structure_design/SSSP/Sr_pbe_v1.uspp.F.UPF
     MD5 check sum: 6b418c05fbe9db5448babca5e47b7a5b
     Pseudo is Ultrasoft + core correction, Zval = 10.0
     Generated by new atomic code, or converted to UPF format
     Using radial grid of  883 points,  6 beta functions with:
                l(1) =   0
                l(2) =   0
                l(3) =   1
                l(4) =   1
                l(5) =   2
                l(6) =   2
     Q(r) pseudized with  6 coefficients,  rinner =    1.400   1.400   1.400
                                                       1.400   1.400

     PseudoPot. # 2 for Hf read from file:
     /home/pragov/projects/rrg-bengioy-ad/pragov/crystal_structure_design/SSSP/Hf-sp.oncvpsp.upf
     MD5 check sum: 417ed15784afe83d2e06dacf143de3f8
     Pseudo is Norm-conserving + core correction, Zval = 12.0
     Generated using ONCVPSP code by D. R. Hamann
     Using radial grid of 1656 points,  8 beta functions with:
                l(1) =   0
                l(2) =   0
                l(3) =   1
                l(4) =   1
                l(5) =   2
                l(6) =   2
                l(7) =   3
                l(8) =   3

     PseudoPot. # 3 for N  read from file:
     /home/pragov/projects/rrg-bengioy-ad/pragov/crystal_structure_design/SSSP/N.pbe-n-radius_5.UPF
     MD5 check sum: 16739722b17309cd8fe442a2ace49922
     Pseudo is Ultrasoft + core correction, Zval =  5.0
     Generated using "atomic" code by A. Dal Corso  v.5.1
     Using radial grid of 1085 points,  4 beta functions with:
                l(1) =   0
                l(2) =   0
                l(3) =   1
                l(4) =   1
     Q(r) pseudized with 0 coefficients

     atomic species   valence    mass     pseudopotential
        Sr            10.00    87.62000     Sr( 1.00)
        Hf            12.00   178.49000     Hf( 1.00)
        N              5.00    14.00700     N ( 1.00)

      2 Sym. Ops., with inversion, found

                                    s                        frac. trans.

      isym =  1     identity

 cryst.   s( 1) = (     1          0          0      )
                  (     0          1          0      )
                  (     0          0          1      )

 cart.    s( 1) = (  1.0000000  0.0000000  0.0000000 )
                  (  0.0000000  1.0000000 -0.0000000 )
                  (  0.0000000  0.0000000  1.0000000 )

      isym =  2     inversion

 cryst.   s( 2) = (    -1          0          0      )
                  (     0         -1          0      )
                  (     0          0         -1      )

 cart.    s( 2) = ( -1.0000000 -0.0000000 -0.0000000 )
                  (  0.0000000 -1.0000000  0.0000000 )
                  (  0.0000000  0.0000000 -1.0000000 )

   Cartesian axes

     site n.     atom                  positions (alat units)
         1           Sr  tau(   1) = (   0.0000000   0.0000000   0.0000000  )
         2           Hf  tau(   2) = (   1.3548971   0.3789521   0.2302058  )
         3           N   tau(   3) = (   2.0794094   0.5815915   0.3533051  )
         4           N   tau(   4) = (   0.6303849   0.1763128   0.1071065  )

   Crystallographic axes

     site n.     atom                  positions (cryst. coord.)
         1           Sr  tau(   1) = (  0.0000000  0.0000000  0.0000000  )
         2           Hf  tau(   2) = (  0.5000000  0.5000000  0.5000000  )
         3           N   tau(   3) = (  0.7673680  0.7673680  0.7673680  )
         4           N   tau(   4) = (  0.2326320  0.2326320  0.2326320  )

     number of k points=    14
                       cart. coord. in units 2pi/alat
        k(    1) = (   0.0000000   0.0000000   0.0000000), wk =   0.0740741
        k(    2) = (   0.0000000   0.0000000   0.7239898), wk =   0.1481481
        k(    3) = (   0.0000000   0.6425114  -0.3336772), wk =   0.1481481
        k(    4) = (   0.0000000   0.6425114   0.3903127), wk =   0.1481481
        k(    5) = (   0.0000000   0.6425114  -1.0576670), wk =   0.1481481
        k(    6) = (   0.3333333  -0.5492812  -0.3336772), wk =   0.1481481
        k(    7) = (   0.3333333  -0.5492812   0.3903127), wk =   0.1481481
        k(    8) = (   0.3333333  -0.5492812  -1.0576670), wk =   0.1481481
        k(    9) = (   0.3333333   0.0932302  -0.6673543), wk =   0.1481481
        k(   10) = (   0.3333333   0.0932302   0.0566355), wk =   0.1481481
        k(   11) = (   0.3333333   0.0932302  -1.3913441), wk =   0.1481481
        k(   12) = (   0.3333333  -1.1917926  -0.0000000), wk =   0.1481481
        k(   13) = (   0.3333333  -1.1917926   0.7239898), wk =   0.1481481
        k(   14) = (   0.3333333  -1.1917926  -0.7239898), wk =   0.1481481

                       cryst. coord.
        k(    1) = (   0.0000000   0.0000000   0.0000000), wk =   0.0740741
        k(    2) = (   0.0000000   0.0000000   0.3333333), wk =   0.1481481
        k(    3) = (   0.0000000   0.3333333  -0.0000000), wk =   0.1481481
        k(    4) = (   0.0000000   0.3333333   0.3333333), wk =   0.1481481
        k(    5) = (   0.0000000   0.3333333  -0.3333333), wk =   0.1481481
        k(    6) = (   0.3333333   0.0000000   0.0000000), wk =   0.1481481
        k(    7) = (   0.3333333   0.0000000   0.3333333), wk =   0.1481481
        k(    8) = (   0.3333333   0.0000000  -0.3333333), wk =   0.1481481
        k(    9) = (   0.3333333   0.3333333   0.0000000), wk =   0.1481481
        k(   10) = (   0.3333333   0.3333333   0.3333333), wk =   0.1481481
        k(   11) = (   0.3333333   0.3333333  -0.3333333), wk =   0.1481481
        k(   12) = (   0.3333333  -0.3333333  -0.0000000), wk =   0.1481481
        k(   13) = (   0.3333333  -0.3333333   0.3333333), wk =   0.1481481
        k(   14) = (   0.3333333  -0.3333333  -0.3333333), wk =   0.1481481

     Check: negative core charge=   -0.000003

     Initial potential from superposition of free atoms

     starting charge      31.9645, renormalised to      32.0000

     negative rho (up, down):  6.257E-02 0.000E+00
     Starting wfcs are   31 randomized atomic wfcs +   33 random wfcs

     Self-consistent Calculation

     iteration #  1     ecut=    30.00 Ry     beta= 0.70
     Davidson diagonalization with overlap

     ethr =  1.00E-02,  avg # of iterations =  6.9

     negative rho (up, down):  6.387E-02 0.000E+00

     total energy              =    -222.77252437 Ry
     estimated scf accuracy    <       1.68282275 Ry

[...]

     total energy              =    -223.63910387 Ry
     estimated scf accuracy    <       0.00000804 Ry

     iteration #  8     ecut=    30.00 Ry     beta= 0.70
     Davidson diagonalization with overlap

     ethr =  2.51E-08,  avg # of iterations =  1.1

     negative rho (up, down):  6.611E-02 0.000E+00

     End of self-consistent calculation

          k = 0.0000 0.0000 0.0000 (  1093 PWs)   bands (ev):

   -48.7805 -21.5907 -17.6466 -17.2920 -17.2920  -4.0620  -3.0901  -3.0901
    -1.3572   1.1658   7.9610   9.5491   9.5491  12.2449  12.4620  12.4620
    14.7578  15.4123  15.4123  15.9540  17.7617  17.7617  18.7282  19.3600
    19.5534  19.5534  22.9851  22.9851  23.2917  25.8431  26.5522  26.5522
    28.9983  32.9579  32.9579  33.9028  35.4777  36.3386  36.3386  36.8047
    36.9693  39.2271  39.2271  41.4632  41.4632  41.9007  41.9007  42.1633
    42.1633  43.7162  45.0490  45.3183  45.3183  46.2140  46.2140  46.4617
    47.0065  47.0065  48.0872  50.4556  52.7698  54.3312  55.4280  55.4280

     occupation numbers
     1.0000   1.0000   1.0000   1.0000   1.0000   1.0000   1.0000   1.0000
     1.0000   1.0000   1.0000   1.0000   1.0000   1.0000   1.0000   1.0000
     0.0000   0.0000   0.0000   0.0000   0.0000   0.0000   0.0000   0.0000
     0.0000   0.0000   0.0000   0.0000   0.0000   0.0000   0.0000   0.0000
     0.0000   0.0000   0.0000   0.0000   0.0000   0.0000   0.0000   0.0000
     0.0000   0.0000   0.0000   0.0000   0.0000   0.0000   0.0000   0.0000
     0.0000   0.0000   0.0000   0.0000   0.0000   0.0000   0.0000   0.0000
     0.0000   0.0000   0.0000   0.0000   0.0000   0.0000   0.0000   0.0000

[...]

          k = 0.3333-1.1918-0.7240 (  1072 PWs)   bands (ev):

   -48.7482 -21.4401 -17.6231 -17.5700 -17.3594  -4.3413  -3.6829  -3.3359
    -0.2477   0.5612   8.2884   9.3949   9.9446  10.2633  11.6666  11.9768
    13.2075  16.9057  17.1922  17.3886  19.1240  19.3293  19.3852  19.5871
    20.6412  22.1080  22.8167  23.1343  25.0438  26.1163  28.0223  29.4904
    29.7878  29.8154  30.0035  31.6810  33.8469  34.2411  34.5316  35.4021
    36.4626  37.0991  37.8411  39.0822  40.4045  41.5306  41.9342  42.6997
    42.8842  44.6032  44.9413  44.9454  45.9240  46.9524  47.0813  47.7793
    48.7274  48.7463  50.0746  50.1008  50.4959  52.0912  52.5828  52.6284

     occupation numbers
     1.0000   1.0000   1.0000   1.0000   1.0000   1.0000   1.0000   1.0000
     1.0000   1.0000   1.0000   1.0000   1.0000   1.0000   1.0000   1.0000
     0.0000   0.0000   0.0000   0.0000   0.0000   0.0000   0.0000   0.0000
     0.0000   0.0000   0.0000   0.0000   0.0000   0.0000   0.0000   0.0000
     0.0000   0.0000   0.0000   0.0000   0.0000   0.0000   0.0000   0.0000
     0.0000   0.0000   0.0000   0.0000   0.0000   0.0000   0.0000   0.0000
     0.0000   0.0000   0.0000   0.0000   0.0000   0.0000   0.0000   0.0000
     0.0000   0.0000   0.0000   0.0000   0.0000   0.0000   0.0000   0.0000

     highest occupied, lowest unoccupied level (ev):    12.4620   13.2075

!    total energy              =    -223.63910514 Ry
     estimated scf accuracy    <       0.00000055 Ry

     The total energy is the sum of the following terms:
     one-electron contribution =     -28.43985664 Ry
     hartree contribution      =      30.90688865 Ry
     xc contribution           =     -57.87124330 Ry
     ewald contribution        =    -168.23489385 Ry

     convergence has been achieved in   8 iterations

     Writing all to output data dir calculations_bands/myprefix.save/

     General routines

     Parallel routines

   This run was terminated on:  11:10: 8   6Jun2023

   JOB DONE.