     Program PWSCF v.7.0 starts on  6Jun2023 at  6:14:27

     K-points division:     npool     =       2
     R & G space division:  proc/nbgrp/npool/nimage =       4

     Reading input from espresso_13772.pwi
Warning: card &CELL ignored
Warning: card / ignored

     Current dimensions of program PWSCF are:
     Max number of different atomic species (ntypx) = 10
     Max number of k-points (npk) =  40000
     Max angular momentum in pseudopotentials (lmaxx) =  4
     file O.pbe-n-kjpaw_psl.0.1.UPF: wavefunction(s)  2P renormalized

     Using Slab Decomposition

     bravais-lattice index     =            0
     lattice parameter (alat)  =       9.6089  a.u.
     unit-cell volume          =    1201.6734 (a.u.)^3
     number of atoms/cell      =           14
     number of atomic types    =            3
     number of electrons       =       118.00
     number of Kohn-Sham states=           64
     kinetic-energy cutoff     =      30.0000  Ry
     charge density cutoff     =     240.0000  Ry
     scf convergence threshold =      1.0E-06
     mixing beta               =       0.7000
     number of iterations used =            8  plain     mixing
     Exchange-correlation= SLA  PW   PBX  PBC
                           (   1   4   3   4   0   0   0)

     celldm(1)=   9.608939  celldm(2)=   0.000000  celldm(3)=   0.000000
     celldm(4)=   0.000000  celldm(5)=   0.000000  celldm(6)=   0.000000

     crystal axes: (cart. coord. in units of alat)
               a(1) = (   1.000000   0.000000   0.000000 )
               a(2) = (   0.007536   1.195061   0.000000 )
               a(3) = (  -0.278185  -0.595050   1.133366 )

     reciprocal axes: (cart. coord. in units 2 pi/alat)
               b(1) = (  1.000000 -0.006306  0.242140 )
               b(2) = (  0.000000  0.836777  0.439332 )
               b(3) = (  0.000000  0.000000  0.882328 )

     PseudoPot. # 1 for Na read from file:
     /home/pragov/projects/rrg-bengioy-ad/pragov/crystal_structure_design/SSSP/na_pbe_v1.5.uspp.F.UPF
     MD5 check sum: 44600605ef58000f06b90626533354dc
     Pseudo is Ultrasoft, Zval =  9.0
     Generated by new atomic code, or converted to UPF format
     Using radial grid of  819 points,  5 beta functions with:
                l(1) =   0
                l(2) =   0
                l(3) =   1
                l(4) =   1
                l(5) =   2
     Q(r) pseudized with  8 coefficients,  rinner =    1.250   1.250   1.250
                                                       1.250   1.250

     PseudoPot. # 2 for V  read from file:
     /home/pragov/projects/rrg-bengioy-ad/pragov/crystal_structure_design/SSSP/v_pbe_v1.4.uspp.F.UPF
     MD5 check sum: 22b79981416ebb76fdaf5b1b8640f6fb
     Pseudo is Ultrasoft + core correction, Zval = 13.0
     Generated by new atomic code, or converted to UPF format
     Using radial grid of  853 points,  6 beta functions with:
                l(1) =   0
                l(2) =   0
                l(3) =   1
                l(4) =   1
                l(5) =   2
                l(6) =   2
     Q(r) pseudized with  8 coefficients,  rinner =    1.100   1.100   1.100
                                                       1.100   1.100

     PseudoPot. # 3 for O  read from file:
     /home/pragov/projects/rrg-bengioy-ad/pragov/crystal_structure_design/SSSP/O.pbe-n-kjpaw_psl.0.1.UPF
     MD5 check sum: 0234752ac141de4415c5fc33072bef88
     Pseudo is Projector augmented-wave + core cor, Zval =  6.0
     Generated using "atomic" code by A. Dal Corso  v.5.0.99 svn rev. 10869
     Shape of augmentation charge: BESSEL
     Using radial grid of 1095 points,  4 beta functions with:
                l(1) =   0
                l(2) =   0
                l(3) =   1
                l(4) =   1
     Q(r) pseudized with 0 coefficients

     atomic species   valence    mass     pseudopotential
        Na             9.00    22.98977     Na( 1.00)
        V             13.00    50.94150     V ( 1.00)
        O              6.00    15.99900     O ( 1.00)

     No symmetry found

                                    s                        frac. trans.

      isym =  1     identity

 cryst.   s( 1) = (     1          0          0      )
                  (     0          1          0      )
                  (     0          0          1      )

 cart.    s( 1) = (  1.0000000 -0.0000000 -0.0000000 )
                  (  0.0000000  1.0000000 -0.0000000 )
                  (  0.0000000  0.0000000  1.0000000 )

   Cartesian axes

     site n.     atom                  positions (alat units)
         1           Na  tau(   1) = (   0.7524639   0.8333025   0.0006222  )
         2           Na  tau(   2) = (  -0.0232736  -0.2344315   1.1323141  )
         3           V   tau(   3) = (   0.1218030   0.7380181   0.5611249  )
         4           V   tau(   4) = (   0.6182510   0.4499231   0.5661196  )
         5           V   tau(   5) = (   0.1105659   0.1502580   0.5683229  )
         6           V   tau(   6) = (   0.6086413  -0.1377825   0.5714544  )
         7           O   tau(   7) = (  -0.0445947   0.4582075   0.3527839  )
         8           O   tau(   8) = (   0.2931953  -0.1571492   0.7736514  )
         9           O   tau(   9) = (   0.7740243   0.1403228   0.7820213  )
        10           O   tau(  10) = (   0.4354264   0.7577014   0.3586253  )
        11           O   tau(  11) = (   0.2799889   0.4521381   0.7700144  )
        12           O   tau(  12) = (  -0.0749443  -0.1542466   0.3690375  )
        13           O   tau(  13) = (   0.4500982   0.1493875   0.3644621  )
        14           O   tau(  14) = (   0.8038081   0.7544302   0.7630057  )

   Crystallographic axes

     site n.     atom                  positions (cryst. coord.)
         1           Na  tau(   1) = (  0.7473600  0.6975620  0.0005490  )
         2           Na  tau(   2) = (  0.2523830  0.3012950  0.9990720  )
         3           V   tau(   3) = (  0.2530200  0.8640770  0.4950960  )
         4           V   tau(   4) = (  0.7524940  0.6252000  0.4995030  )
         5           V   tau(   5) = (  0.2472320  0.3754150  0.5014470  )
         6           V   tau(   6) = (  0.7478820  0.1357650  0.5042100  )
         7           O   tau(   7) = (  0.0379390  0.5384070  0.3112710  )
         8           O   tau(   8) = (  0.4815180  0.2083910  0.6826140  )
         9           O   tau(   9) = (  0.9624980  0.4609860  0.6899990  )
        10           O   tau(  10) = (  0.5174860  0.7915830  0.3164250  )
        11           O   tau(  11) = (  0.4635890  0.7166310  0.6794050  )
        12           O   tau(  12) = (  0.0153870  0.0330600  0.3256120  )
        13           O   tau(  13) = (  0.5374070  0.2851240  0.3215750  )
        14           O   tau(  14) = (  0.9838050  0.9665030  0.6732210  )

     number of k points=    14
                       cart. coord. in units 2pi/alat
        k(    1) = (   0.0000000   0.0000000   0.0000000), wk =   0.0740741
        k(    2) = (   0.0000000   0.0000000   0.2941092), wk =   0.1481481
        k(    3) = (   0.0000000   0.2789258   0.1464440), wk =   0.1481481
        k(    4) = (   0.0000000   0.2789258   0.4405533), wk =   0.1481481
        k(    5) = (   0.0000000   0.2789258  -0.1476652), wk =   0.1481481
        k(    6) = (   0.3333333  -0.0021019   0.0807133), wk =   0.1481481
        k(    7) = (   0.3333333  -0.0021019   0.3748225), wk =   0.1481481
        k(    8) = (   0.3333333  -0.0021019  -0.2133959), wk =   0.1481481
        k(    9) = (   0.3333333   0.2768239   0.2271573), wk =   0.1481481
        k(   10) = (   0.3333333   0.2768239   0.5212665), wk =   0.1481481
        k(   11) = (   0.3333333   0.2768239  -0.0669519), wk =   0.1481481
        k(   12) = (   0.3333333  -0.2810277  -0.0657308), wk =   0.1481481
        k(   13) = (   0.3333333  -0.2810277   0.2283784), wk =   0.1481481
        k(   14) = (   0.3333333  -0.2810277  -0.3598400), wk =   0.1481481

                       cryst. coord.
        k(    1) = (   0.0000000   0.0000000   0.0000000), wk =   0.0740741
        k(    2) = (   0.0000000   0.0000000   0.3333333), wk =   0.1481481
        k(    3) = (   0.0000000   0.3333333  -0.0000000), wk =   0.1481481
        k(    4) = (   0.0000000   0.3333333   0.3333333), wk =   0.1481481
        k(    5) = (   0.0000000   0.3333333  -0.3333333), wk =   0.1481481
        k(    6) = (   0.3333333   0.0000000  -0.0000000), wk =   0.1481481
        k(    7) = (   0.3333333   0.0000000   0.3333333), wk =   0.1481481
        k(    8) = (   0.3333333   0.0000000  -0.3333333), wk =   0.1481481
        k(    9) = (   0.3333333   0.3333333  -0.0000000), wk =   0.1481481
        k(   10) = (   0.3333333   0.3333333   0.3333333), wk =   0.1481481
        k(   11) = (   0.3333333   0.3333333  -0.3333333), wk =   0.1481481
        k(   12) = (   0.3333333  -0.3333333  -0.0000000), wk =   0.1481481
        k(   13) = (   0.3333333  -0.3333333   0.3333333), wk =   0.1481481
        k(   14) = (   0.3333333  -0.3333333  -0.3333333), wk =   0.1481481

     Check: negative core charge=   -0.000015

     Initial potential from superposition of free atoms

     starting charge     117.9825, renormalised to     118.0000

     negative rho (up, down):  3.703E-03 0.000E+00
     Starting wfcs are   82 randomized atomic wfcs
     Checking if some PAW data can be deallocated...

     Self-consistent Calculation

     iteration #  1     ecut=    30.00 Ry     beta= 0.70
     Davidson diagonalization with overlap

     ethr =  1.00E-02,  avg # of iterations =  2.0

     negative rho (up, down):  7.620E-03 0.000E+00

     total energy              =   -1102.14550087 Ry
     estimated scf accuracy    <       4.45968449 Ry

[...]

     c_bands:  1 eigenvalues not converged
     ethr =  4.67E-07,  avg # of iterations =  5.7

[...]

     total energy              =   -1104.82509731 Ry
     estimated scf accuracy    <       0.00000152 Ry

     iteration # 24     ecut=    30.00 Ry     beta= 0.70
     Davidson diagonalization with overlap

     ethr =  1.28E-09,  avg # of iterations =  6.1

     negative rho (up, down):  6.028E-03 0.000E+00

     End of self-consistent calculation

          k = 0.0000 0.0000 0.0000 (  3295 PWs)   bands (ev):

   -57.6455 -57.6280 -57.3333 -57.3145 -43.5974 -43.5915 -31.7436 -31.6126
   -31.5229 -31.5062 -31.3462 -31.3058 -31.2826 -31.2416 -31.2304 -31.1250
   -30.9508 -30.9242 -15.5371 -15.5237 -15.5194 -15.5151 -15.5028 -15.5009
   -11.9271 -10.9678 -10.8827 -10.8351 -10.7344 -10.7324 -10.5566 -10.4690
     1.0909   1.5161   1.9089   1.9452   1.9958   2.0404   2.4884   2.5385
     2.7943   2.9177   2.9781   3.0850   3.3945   3.5408   3.5757   3.6577
     3.7124   4.2370   4.4142   4.6427   4.6897   4.9862   5.3505   5.3713
     7.6911   7.8202   7.9128   8.3736   8.4152   8.5707   8.7026   8.7481

     occupation numbers
     1.0000   1.0000   1.0000   1.0000   1.0000   1.0000   1.0000   1.0000
     1.0000   1.0000   1.0000   1.0000   1.0000   1.0000   1.0000   1.0000
     1.0000   1.0000   1.0000   1.0000   1.0000   1.0000   1.0000   1.0000
     1.0000   1.0000   1.0000   1.0000   1.0000   1.0000   1.0000   1.0000
     1.0000   1.0000   1.0000   1.0000   1.0000   1.0000   1.0000   1.0000
     1.0000   1.0000   1.0000   1.0000   1.0000   1.0000   1.0000   1.0000
     1.0000   1.0000   1.0000   1.0000   1.0000   1.0000   1.0000   1.0000
     1.0000   1.0000   1.0000   0.0000   0.0000   0.0000   0.0000   0.0000

[...]

          k = 0.3333-0.2810-0.3598 (  3330 PWs)   bands (ev):

   -57.6407 -57.6324 -57.3297 -57.3194 -43.5977 -43.5920 -31.7091 -31.6565
   -31.5040 -31.4871 -31.3398 -31.3016 -31.2898 -31.2591 -31.2365 -31.1440
   -30.9467 -30.9317 -15.5400 -15.5317 -15.5162 -15.5138 -15.5078 -15.5042
   -11.4444 -11.1769 -10.9226 -10.8877 -10.7667 -10.7274 -10.6605 -10.5727
     1.5765   1.6837   1.9097   1.9432   2.1461   2.2172   2.3330   2.4781
     2.7297   2.8965   3.0199   3.1305   3.1945   3.4113   3.5676   3.6409
     3.6928   3.8511   4.4599   4.4967   4.5869   4.7894   4.9717   5.1398
     7.9392   8.1119   8.1773   8.2170   8.3472   8.6189   8.7027   8.7288

     occupation numbers
     1.0000   1.0000   1.0000   1.0000   1.0000   1.0000   1.0000   1.0000
     1.0000   1.0000   1.0000   1.0000   1.0000   1.0000   1.0000   1.0000
     1.0000   1.0000   1.0000   1.0000   1.0000   1.0000   1.0000   1.0000
     1.0000   1.0000   1.0000   1.0000   1.0000   1.0000   1.0000   1.0000
     1.0000   1.0000   1.0000   1.0000   1.0000   1.0000   1.0000   1.0000
     1.0000   1.0000   1.0000   1.0000   1.0000   1.0000   1.0000   1.0000
     1.0000   1.0000   1.0000   1.0000   1.0000   1.0000   1.0000   1.0000
     1.0000   1.0000   1.0000   0.0000   0.0000   0.0000   0.0000   0.0000

     highest occupied, lowest unoccupied level (ev):     8.1998    8.0520

!    total energy              =   -1104.82509722 Ry
     estimated scf accuracy    <       0.00000027 Ry

     The total energy is the sum of the following terms:
     one-electron contribution =    -696.03212404 Ry
     hartree contribution      =     393.22762572 Ry
     xc contribution           =    -166.24865321 Ry
     ewald contribution        =    -559.56992786 Ry
     one-center paw contrib.   =     -76.20201782 Ry
      -> PAW hartree energy AE =       0.00000000 Ry
      -> PAW hartree energy PS =       0.00000000 Ry
      -> PAW xc energy AE      =       0.00000000 Ry
      -> PAW xc energy PS      =       0.00000000 Ry
      -> total E_H with PAW    =     393.22762572 Ry
      -> total E_XC with PAW   =    -166.24865321 Ry

     convergence has been achieved in  24 iterations

     Writing all to output data dir calculations_bands/myprefix.save/

     General routines

     Parallel routines

     PAW routines

   This run was terminated on:   6:14:52   6Jun2023

   JOB DONE.