     Program PWSCF v.7.0 starts on  7Jun2023 at 13:28:48

     K-points division:     npool     =       2
     R & G space division:  proc/nbgrp/npool/nimage =       4

     Reading input from espresso_8998.pwi
Warning: card &CELL ignored
Warning: card / ignored

     Current dimensions of program PWSCF are:
     Max number of different atomic species (ntypx) = 10
     Max number of k-points (npk) =  40000
     Max angular momentum in pseudopotentials (lmaxx) =  4
     file Pb.pbe-dn-kjpaw_psl.0.2.2.UPF: wavefunction(s)  6S renormalized
     file O.pbe-n-kjpaw_psl.0.1.UPF: wavefunction(s)  2P renormalized
     Message from routine setup:
     using ibrav=0 with symmetry is DISCOURAGED, use correct ibrav instead

     Using Slab Decomposition

     bravais-lattice index     =            0
     lattice parameter (alat)  =      13.6545  a.u.
     unit-cell volume          =    1561.7558 (a.u.)^3
     number of atoms/cell      =           10
     number of atomic types    =            4
     number of electrons       =        96.00
     number of Kohn-Sham states=           64
     kinetic-energy cutoff     =      30.0000  Ry
     charge density cutoff     =     240.0000  Ry
     scf convergence threshold =      1.0E-06
     mixing beta               =       0.7000
     number of iterations used =            8  plain     mixing
     Exchange-correlation=  SLA  PW   PBX  PBC
                           (   1   4   3   4   0   0   0)

     celldm(1)=  13.654541  celldm(2)=   0.000000  celldm(3)=   0.000000
     celldm(4)=   0.000000  celldm(5)=   0.000000  celldm(6)=   0.000000

     crystal axes: (cart. coord. in units of alat)
               a(1) = (   1.000000   0.000000   0.000000 )
               a(2) = (  -0.665469   0.746425   0.000000 )
               a(3) = (   0.000000   0.000000   0.821856 )

     reciprocal axes: (cart. coord. in units 2 pi/alat)
               b(1) = (  1.000000  0.891542  0.000000 )
               b(2) = (  0.000000  1.339719  0.000000 )
               b(3) = (  0.000000  0.000000  1.216758 )

     PseudoPot. # 1 for Pb read from file:
     /home/pragov/projects/rrg-bengioy-ad/pragov/crystal_structure_design/SSSP/Pb.pbe-dn-kjpaw_psl.0.2.2.UPF
     MD5 check sum: 9d431e6316058b74ade52399a6cf67da
     Pseudo is Projector augmented-wave + core cor, Zval = 14.0
     Generated using "atomic" code by A. Dal Corso  v.5.0.99 svn rev. 10869
     Shape of augmentation charge: PSQ
     Using radial grid of 1281 points,  6 beta functions with:
                l(1) =   0
                l(2) =   0
                l(3) =   1
                l(4) =   1
                l(5) =   2
                l(6) =   2
     Q(r) pseudized with 0 coefficients

     PseudoPot. # 2 for Br read from file:
     /home/pragov/projects/rrg-bengioy-ad/pragov/crystal_structure_design/SSSP/br_pbe_v1.4.uspp.F.UPF
     MD5 check sum: d3ffb7b29f6225aa16fe06858fb2a80b
     Pseudo is Ultrasoft + core correction, Zval =  7.0
     Generated by new atomic code, or converted to UPF format
     Using radial grid of  879 points,  6 beta functions with:
                l(1) =   0
                l(2) =   0
                l(3) =   1
                l(4) =   1
                l(5) =   2
                l(6) =   2
     Q(r) pseudized with  8 coefficients,  rinner =    1.100   1.100   1.100
                                                       1.100   1.100

     PseudoPot. # 3 for O  read from file:
     /home/pragov/projects/rrg-bengioy-ad/pragov/crystal_structure_design/SSSP/O.pbe-n-kjpaw_psl.0.1.UPF
     MD5 check sum: 0234752ac141de4415c5fc33072bef88
     Pseudo is Projector augmented-wave + core cor, Zval =  6.0
     Generated using "atomic" code by A. Dal Corso  v.5.0.99 svn rev. 10869
     Shape of augmentation charge: BESSEL
     Using radial grid of 1095 points,  4 beta functions with:
                l(1) =   0
                l(2) =   0
                l(3) =   1
                l(4) =   1
     Q(r) pseudized with 0 coefficients

     PseudoPot. # 4 for F  read from file:
     /home/pragov/projects/rrg-bengioy-ad/pragov/crystal_structure_design/SSSP/f_pbe_v1.4.uspp.F.UPF
     MD5 check sum: 4c38b6a325caf53ec0e86aed9459de46
     Pseudo is Ultrasoft, Zval =  7.0
     Generated by new atomic code, or converted to UPF format
     Using radial grid of  799 points,  4 beta functions with:
                l(1) =   0
                l(2) =   0
                l(3) =   1
                l(4) =   1
     Q(r) pseudized with  8 coefficients,  rinner =    0.950   0.950   0.950

     atomic species   valence    mass     pseudopotential
        Pb            14.00   207.20000     Pb( 1.00)
        Br             7.00    79.90400     Br( 1.00)
        O              6.00    15.99900     O ( 1.00)
        F              7.00    18.99840     F ( 1.00)

      4 Sym. Ops., with inversion, found ( 2 have fractional translation)

                                    s                        frac. trans.

      isym =  1     identity

 cryst.   s( 1) = (     1          0          0      )
                  (     0          1          0      )
                  (     0          0          1      )

 cart.    s( 1) = (  1.0000000 -0.0000000  0.0000000 )
                  (  0.0000000  1.0000000  0.0000000 )
                  (  0.0000000  0.0000000  1.0000000 )

      isym =  2     180 deg rotation - cart. axis [0,0,1]

 cryst.   s( 2) = (    -1          0          0      )    f =( -0.5000000 )
                  (     0         -1          0      )       ( -0.5000000 )
                  (     0          0          1      )       (  0.0000000 )

 cart.    s( 2) = ( -1.0000000  0.0000000  0.0000000 )    f =( -0.1672653 )
                  (  0.0000000 -1.0000000  0.0000000 )       ( -0.3732126 )
                  (  0.0000000  0.0000000  1.0000000 )       (  0.0000000 )

      isym =  3     inversion

 cryst.   s( 3) = (    -1          0          0      )
                  (     0         -1          0      )
                  (     0          0         -1      )

 cart.    s( 3) = ( -1.0000000  0.0000000  0.0000000 )
                  (  0.0000000 -1.0000000  0.0000000 )
                  (  0.0000000  0.0000000 -1.0000000 )

      isym =  4     inv. 180 deg rotation - cart. axis [0,0,1]

 cryst.   s( 4) = (     1          0          0      )    f =( -0.5000000 )
                  (     0          1          0      )       ( -0.5000000 )
                  (     0          0         -1      )       ( -0.0000000 )

 cart.    s( 4) = (  1.0000000 -0.0000000  0.0000000 )    f =( -0.1672653 )
                  (  0.0000000  1.0000000  0.0000000 )       ( -0.3732126 )
                  (  0.0000000  0.0000000 -1.0000000 )       ( -0.0000000 )

   Cartesian axes

     site n.     atom                  positions (alat units)
         1           Pb  tau(   1) = (   0.0031366   0.4467713   0.1800711  )
         2           Pb  tau(   2) = (   0.3313940   0.2996539   0.6417847  )
         3           Pb  tau(   3) = (  -0.5013407   0.6728664   0.1800711  )
         4           Pb  tau(   4) = (   0.8358713   0.0735587   0.6417847  )
         5           Br  tau(   5) = (   0.5836326   0.1866063   0.1882502  )
         6           Br  tau(   6) = (  -0.2491021   0.5598188   0.6336056  )
         7           O   tau(   7) = (   0.0836326   0.1866063   0.0000000  )
         8           O   tau(   8) = (   0.2508979   0.5598188   0.0000000  )
         9           F   tau(   9) = (   0.0836326   0.1866063   0.4109279  )
        10           F   tau(  10) = (   0.2508979   0.5598188   0.4109279  )

   Crystallographic axes

     site n.     atom                  positions (cryst. coord.)
         1           Pb  tau(   1) = (  0.4014520  0.5985480  0.2191030  )
         2           Pb  tau(   2) = (  0.5985480  0.4014520  0.7808970  )
         3           Pb  tau(   3) = (  0.0985480  0.9014520  0.2191030  )
         4           Pb  tau(   4) = (  0.9014520  0.0985480  0.7808970  )
         5           Br  tau(   5) = (  0.7500000  0.2500000  0.2290550  )
         6           Br  tau(   6) = (  0.2500000  0.7500000  0.7709450  )
         7           O   tau(   7) = (  0.2500000  0.2500000  0.0000000  )
         8           O   tau(   8) = (  0.7500000  0.7500000  0.0000000  )
         9           F   tau(   9) = (  0.2500000  0.2500000  0.5000000  )
        10           F   tau(  10) = (  0.7500000  0.7500000  0.5000000  )

     number of k points=    10
                       cart. coord. in units 2pi/alat
        k(    1) = (   0.0000000   0.0000000   0.0000000), wk =   0.0740741
        k(    2) = (   0.0000000   0.0000000   0.4055862), wk =   0.1481481
        k(    3) = (   0.0000000   0.4465730   0.0000000), wk =   0.1481481
        k(    4) = (   0.0000000   0.4465730   0.4055862), wk =   0.2962963
        k(    5) = (   0.3333333   0.2971807   0.0000000), wk =   0.1481481
        k(    6) = (   0.3333333   0.2971807   0.4055862), wk =   0.2962963
        k(    7) = (   0.3333333   0.7437537   0.0000000), wk =   0.1481481
        k(    8) = (   0.3333333   0.7437537   0.4055862), wk =   0.2962963
        k(    9) = (   0.3333333  -0.1493923   0.0000000), wk =   0.1481481
        k(   10) = (   0.3333333  -0.1493923   0.4055862), wk =   0.2962963

                       cryst. coord.
        k(    1) = (   0.0000000   0.0000000   0.0000000), wk =   0.0740741
        k(    2) = (   0.0000000   0.0000000   0.3333333), wk =   0.1481481
        k(    3) = (   0.0000000   0.3333333   0.0000000), wk =   0.1481481
        k(    4) = (   0.0000000   0.3333333   0.3333333), wk =   0.2962963
        k(    5) = (   0.3333333  -0.0000000   0.0000000), wk =   0.1481481
        k(    6) = (   0.3333333  -0.0000000   0.3333333), wk =   0.2962963
        k(    7) = (   0.3333333   0.3333333   0.0000000), wk =   0.1481481
        k(    8) = (   0.3333333   0.3333333   0.3333333), wk =   0.2962963
        k(    9) = (   0.3333333  -0.3333333   0.0000000), wk =   0.1481481
        k(   10) = (   0.3333333  -0.3333333   0.3333333), wk =   0.2962963

     Check: negative core charge=   -0.000003

     Initial potential from superposition of free atoms

     starting charge      95.9905, renormalised to      96.0000
     Starting wfcs are   60 randomized atomic wfcs +    4 random wfcs
     Checking if some PAW data can be deallocated...

     Self-consistent Calculation

     iteration #  1     ecut=    30.00 Ry     beta= 0.70
     Davidson diagonalization with overlap

     ethr =  1.00E-02,  avg # of iterations =  7.8

     total energy              =   -3755.71063521 Ry
     estimated scf accuracy    <       1.91961825 Ry

[...]

     c_bands:  1 eigenvalues not converged
     ethr =  2.74E-05,  avg # of iterations =  7.9

[...]

     total energy              =   -3756.79681128 Ry
     estimated scf accuracy    <       0.00001086 Ry

     iteration # 10     ecut=    30.00 Ry     beta= 0.70
     Davidson diagonalization with overlap

     ethr =  1.13E-08,  avg # of iterations =  2.9

     End of self-consistent calculation

          k = 0.0000 0.0000 0.0000 (  4339 PWs)   bands (ev):

   -16.0851 -15.8993 -11.4468 -11.3176  -9.5760  -9.5679  -9.5589  -9.5565
    -9.5500  -9.5226  -9.5084  -9.4952  -9.4918  -9.4912  -9.4698  -9.4684
    -9.4567  -9.4561  -9.4442  -9.4356  -9.4045  -9.3866  -9.1387  -8.3968
    -7.4713  -7.2090  -1.3520  -1.3015  -1.2183   0.2803   1.9247   1.9590
     2.1951   2.3516   2.8564   3.1426   3.4773   3.6394   4.1825   4.3778
     4.4709   4.5410   4.5432   4.7523   4.8311   4.9457   5.1014   5.4467
     8.0815   8.7269  10.0066  10.5977  10.6139  11.4330  11.4791  11.7298
    11.8195  12.2134  12.3317  13.3503  13.5611  14.0878  14.8607  16.3613

     occupation numbers
     1.0000   1.0000   1.0000   1.0000   1.0000   1.0000   1.0000   1.0000
     1.0000   1.0000   1.0000   1.0000   1.0000   1.0000   1.0000   1.0000
     1.0000   1.0000   1.0000   1.0000   1.0000   1.0000   1.0000   1.0000
     1.0000   1.0000   1.0000   1.0000   1.0000   1.0000   1.0000   1.0000
     1.0000   1.0000   1.0000   1.0000   1.0000   1.0000   1.0000   1.0000
     1.0000   1.0000   1.0000   1.0000   1.0000   1.0000   1.0000   1.0000
     0.0000   0.0000   0.0000   0.0000   0.0000   0.0000   0.0000   0.0000
     0.0000   0.0000   0.0000   0.0000   0.0000   0.0000   0.0000   0.0000

[...]

          k = 0.3333-0.1494 0.4056 (  4339 PWs)   bands (ev):

   -16.0832 -15.8984 -11.4466 -11.3203  -9.5865  -9.5709  -9.5695  -9.5467
    -9.5455  -9.5175  -9.5102  -9.5015  -9.4933  -9.4895  -9.4793  -9.4766
    -9.4681  -9.4508  -9.4439  -9.4095  -9.3976  -9.3741  -9.1614  -8.4004
    -7.4327  -7.2516  -1.3777  -1.2235  -0.8599  -0.0688   1.7018   2.0182
     2.2025   2.4729   2.7896   3.1057   3.5474   3.5782   3.8094   4.2546
     4.2572   4.4545   4.6994   4.7715   4.9477   5.0458   5.1551   5.5085
     9.3915   9.4631  10.0966  10.2578  10.5887  11.1075  11.1377  11.4942
    11.7244  11.8188  11.8374  12.7703  14.3747  14.6993  14.7271  16.0689

     occupation numbers
     1.0000   1.0000   1.0000   1.0000   1.0000   1.0000   1.0000   1.0000
     1.0000   1.0000   1.0000   1.0000   1.0000   1.0000   1.0000   1.0000
     1.0000   1.0000   1.0000   1.0000   1.0000   1.0000   1.0000   1.0000
     1.0000   1.0000   1.0000   1.0000   1.0000   1.0000   1.0000   1.0000
     1.0000   1.0000   1.0000   1.0000   1.0000   1.0000   1.0000   1.0000
     1.0000   1.0000   1.0000   1.0000   1.0000   1.0000   1.0000   1.0000
     0.0000   0.0000   0.0000   0.0000   0.0000   0.0000   0.0000   0.0000
     0.0000   0.0000   0.0000   0.0000   0.0000   0.0000   0.0000   0.0000

     highest occupied, lowest unoccupied level (ev):     5.6772    8.0815

!    total energy              =   -3756.79681304 Ry
     estimated scf accuracy    <       0.00000064 Ry

     The total energy is the sum of the following terms:
     one-electron contribution =    -300.17696392 Ry
     hartree contribution      =     219.58759734 Ry
     xc contribution           =    -263.34910290 Ry
     ewald contribution        =    -479.87247959 Ry
     one-center paw contrib.   =   -2932.98586397 Ry
      -> PAW hartree energy AE =     192.92586538 Ry
      -> PAW hartree energy PS =    -192.50895291 Ry
      -> PAW xc energy AE      =   -1544.68348964 Ry
      -> PAW xc energy PS      =      87.30496600 Ry
      -> total E_H with PAW    =     220.00450981 Ry
      -> total E_XC with PAW   =   -1720.72762654 Ry

     convergence has been achieved in  10 iterations

     Writing all to output data dir calculations_bands/myprefix.save/

     General routines

     Parallel routines

     PAW routines

   This run was terminated on:  13:29: 2   7Jun2023

   JOB DONE.