     Program PWSCF v.7.0 starts on 23Jun2023 at  4:58:48

     K-points division:     npool     =       2
     R & G space division:  proc/nbgrp/npool/nimage =       4

     Reading input from espresso_2220.pwi
Warning: card &CELL ignored
Warning: card / ignored

     Current dimensions of program PWSCF are:
     Max number of different atomic species (ntypx) = 10
     Max number of k-points (npk) =  40000
     Max angular momentum in pseudopotentials (lmaxx) =  4
     Message from routine setup:
     using ibrav=0 with symmetry is DISCOURAGED, use correct ibrav instead

     Using Slab Decomposition

     bravais-lattice index     =            0
     lattice parameter (alat)  =       8.9541  a.u.
     unit-cell volume          =    1024.5201 (a.u.)^3
     number of atoms/cell      =           12
     number of atomic types    =            2
     number of electrons       =       168.00
     number of Kohn-Sham states=           90
     kinetic-energy cutoff     =      30.0000  Ry
     charge density cutoff     =     240.0000  Ry
     scf convergence threshold =      1.0E-06
     mixing beta               =       0.7000
     number of iterations used =            8  plain     mixing
     Exchange-correlation=  SLA  PW   PBX  PBC
                           (   1   4   3   4   0   0   0)

     celldm(1)=   8.954150  celldm(2)=   0.000000  celldm(3)=   0.000000
     celldm(4)=   0.000000  celldm(5)=   0.000000  celldm(6)=   0.000000

     crystal axes: (cart. coord. in units of alat)
               a(1) = (   1.000000   0.000000   0.000000 )
               a(2) = (  -0.500000   0.866025   0.000000 )
               a(3) = (   0.000000   0.000000   1.647847 )

     reciprocal axes: (cart. coord. in units 2 pi/alat)
               b(1) = (  1.000000  0.577350  0.000000 )
               b(2) = (  0.000000  1.154701  0.000000 )
               b(3) = (  0.000000  0.000000  0.606853 )

     PseudoPot. # 1 for Ti read from file:
     /home/pragov/projects/rrg-bengioy-ad/pragov/crystal_structure_design/SSSP/ti_pbe_v1.4.uspp.F.UPF
     MD5 check sum: 88a00a6731bd790ddea75d31a80cb452
     Pseudo is Ultrasoft + core correction, Zval = 12.0
     Generated by new atomic code, or converted to UPF format
     Using radial grid of  851 points,  6 beta functions with:
                l(1) =   0
                l(2) =   0
                l(3) =   1
                l(4) =   1
                l(5) =   2
                l(6) =   2
     Q(r) pseudized with  6 coefficients,  rinner =    1.000   1.000   1.000
                                                       1.000   1.000

     PseudoPot. # 2 for Mn read from file:
     /home/pragov/projects/rrg-bengioy-ad/pragov/crystal_structure_design/SSSP/mn_pbe_v1.5.uspp.F.UPF
     MD5 check sum: 82ef2b46521d7a7d9e736dc3972e4928
     Pseudo is Ultrasoft + core correction, Zval = 15.0
     Generated by new atomic code, or converted to UPF format
     Using radial grid of  859 points,  6 beta functions with:
                l(1) =   0
                l(2) =   0
                l(3) =   1
                l(4) =   1
                l(5) =   2
                l(6) =   2
     Q(r) pseudized with  8 coefficients,  rinner =    0.950   0.950   0.950
                                                       0.950   0.950

     atomic species   valence    mass     pseudopotential
        Ti            12.00    47.86700     Ti( 1.00)
        Mn            15.00    54.93804     Mn( 1.00)

     24 Sym. Ops., with inversion, found (12 have fractional translation)

                                    s                        frac. trans.

      isym =  1     identity

 cryst.   s( 1) = (     1          0          0      )
                  (     0          1          0      )
                  (     0          0          1      )

 cart.    s( 1) = (  1.0000000  0.0000000  0.0000000 )
                  (  0.0000000  1.0000000  0.0000000 )
                  (  0.0000000  0.0000000  1.0000000 )

      isym =  2     180 deg rotation - cart. axis [0,0,1]

 cryst.   s( 2) = (    -1          0          0      )    f =(  0.0000000 )
                  (     0         -1          0      )       (  0.0000000 )
                  (     0          0          1      )       (  0.5000000 )

 cart.    s( 2) = ( -1.0000000 -0.0000000  0.0000000 )    f =(  0.0000000 )
                  (  0.0000000 -1.0000000  0.0000000 )       (  0.0000000 )
                  (  0.0000000  0.0000000  1.0000000 )       (  0.8239233 )

[...]

      isym =  4     180 deg rotation - cart. axis [1,0,0]

[...]

      isym =  5      60 deg rotation - cryst. axis [0,0,1]

[...]

 cryst.   s( 8) = (    -1         -1          0      )
                  (     1          0          0      )
                  (     0          0          1      )

 cart.    s( 8) = ( -0.5000000  0.8660254  0.0000000 )
                  ( -0.8660254 -0.5000000  0.0000000 )
                  (  0.0000000  0.0000000  1.0000000 )

[...]

 cryst.   s( 9) = (     0         -1          0      )    f =(  0.0000000 )
                  (    -1          0          0      )       (  0.0000000 )
                  (     0          0         -1      )       (  0.5000000 )

 cart.    s( 9) = (  0.5000000 -0.8660254  0.0000000 )    f =(  0.0000000 )
                  ( -0.8660254 -0.5000000  0.0000000 )       (  0.0000000 )
                  (  0.0000000  0.0000000 -1.0000000 )       (  0.8239233 )

[...]

 cryst.   s(10) = (     1          1          0      )    f =(  0.0000000 )
                  (     0         -1          0      )       ( -0.0000010 )
                  (     0          0         -1      )       (  0.5000000 )

 cart.    s(10) = (  0.5000000  0.8660254  0.0000000 )    f =(  0.0000005 )
                  (  0.8660254 -0.5000000  0.0000000 )       ( -0.0000009 )
                  (  0.0000000  0.0000000 -1.0000000 )       (  0.8239233 )

[...]

 cryst.   s(11) = (    -1         -1          0      )
                  (     0          1          0      )
                  (     0          0         -1      )

 cart.    s(11) = ( -0.5000000 -0.8660254  0.0000000 )
                  ( -0.8660254  0.5000000  0.0000000 )
                  (  0.0000000  0.0000000 -1.0000000 )

      isym = 12     180 deg rotation - cryst. axis [1,1,0]

[...]

      isym = 13     inversion

[...]

      isym = 14     inv. 180 deg rotation - cart. axis [0,0,1]

[...]

      isym = 16     inv. 180 deg rotation - cart. axis [1,0,0]

[...]

      isym = 17     inv.  60 deg rotation - cryst. axis [0,0,1]

[...]

 cryst.   s(22) = (    -1         -1          0      )    f =(  0.0000000 )
                  (     0          1          0      )       ( -0.0000010 )
                  (     0          0          1      )       (  0.5000000 )

 cart.    s(22) = ( -0.5000000 -0.8660254  0.0000000 )    f =(  0.0000005 )
                  ( -0.8660254  0.5000000  0.0000000 )       ( -0.0000009 )
                  (  0.0000000  0.0000000  1.0000000 )       (  0.8239233 )

[...]

      isym = 24     inv. 180 deg rotation - cryst. axis [1,1,0]

 cryst.   s(24) = (     0         -1          0      )
                  (    -1          0          0      )
                  (     0          0          1      )

 cart.    s(24) = (  0.5000000 -0.8660254  0.0000000 )
                  ( -0.8660254 -0.5000000  0.0000000 )
                  (  0.0000000  0.0000000  1.0000000 )

   Cartesian axes

     site n.     atom                  positions (alat units)
         1           Ti  tau(   1) = (  -0.0000005   0.5773505   0.7202144  )
         2           Ti  tau(   2) = (   0.5000005   0.2886748   1.5441376  )
         3           Ti  tau(   3) = (   0.5000005   0.2886748   0.9276321  )
         4           Ti  tau(   4) = (  -0.0000005   0.5773505   0.1037089  )
         5           Mn  tau(   5) = (   0.2417480   0.7169235   1.2358849  )
         6           Mn  tau(   6) = (   0.2582520   0.1491019   0.4119616  )
         7           Mn  tau(   7) = (   0.7417480   0.1491019   0.4119616  )
         8           Mn  tau(   8) = (  -0.0000000   0.2982037   1.2358849  )
         9           Mn  tau(   9) = (  -0.2417480   0.7169235   1.2358849  )
        10           Mn  tau(  10) = (   0.5000000   0.5678217   0.4119616  )
        11           Mn  tau(  11) = (   0.0000000   0.0000000   0.8239233  )
        12           Mn  tau(  12) = (   0.0000000   0.0000000   0.0000000  )

   Crystallographic axes

     site n.     atom                  positions (cryst. coord.)
         1           Ti  tau(   1) = (  0.3333330  0.6666670  0.4370640  )
         2           Ti  tau(   2) = (  0.6666670  0.3333330  0.9370640  )
         3           Ti  tau(   3) = (  0.6666670  0.3333330  0.5629360  )
         4           Ti  tau(   4) = (  0.3333330  0.6666670  0.0629360  )
         5           Mn  tau(   5) = (  0.6556640  0.8278320  0.7500000  )
         6           Mn  tau(   6) = (  0.3443360  0.1721680  0.2500000  )
         7           Mn  tau(   7) = (  0.8278320  0.1721680  0.2500000  )
         8           Mn  tau(   8) = (  0.1721680  0.3443360  0.7500000  )
         9           Mn  tau(   9) = (  0.1721680  0.8278320  0.7500000  )
        10           Mn  tau(  10) = (  0.8278320  0.6556640  0.2500000  )
        11           Mn  tau(  11) = (  0.0000000  0.0000000  0.5000000  )
        12           Mn  tau(  12) = (  0.0000000  0.0000000  0.0000000  )

     number of k points=     6
                       cart. coord. in units 2pi/alat
        k(    1) = (   0.0000000   0.0000000   0.0000000), wk =   0.0740741
        k(    2) = (   0.0000000   0.0000000   0.2022842), wk =   0.1481481
        k(    3) = (   0.0000000   0.3849002   0.0000000), wk =   0.4444444
        k(    4) = (   0.0000000   0.3849002   0.2022842), wk =   0.8888889
        k(    5) = (   0.3333333   0.5773503   0.0000000), wk =   0.1481481
        k(    6) = (   0.3333333   0.5773503   0.2022842), wk =   0.2962963

                       cryst. coord.
        k(    1) = (   0.0000000   0.0000000   0.0000000), wk =   0.0740741
        k(    2) = (   0.0000000   0.0000000   0.3333333), wk =   0.1481481
        k(    3) = (   0.0000000   0.3333333   0.0000000), wk =   0.4444444
        k(    4) = (   0.0000000   0.3333333   0.3333333), wk =   0.8888889
        k(    5) = (   0.3333333   0.3333333   0.0000000), wk =   0.1481481
        k(    6) = (   0.3333333   0.3333333   0.3333333), wk =   0.2962963

     Check: negative core charge=   -0.000039

     Initial potential from superposition of free atoms

     starting charge     159.9991, renormalised to     168.0000

     negative rho (up, down):  5.949E-03 0.000E+00
     Starting wfcs are  144 randomized atomic wfcs

     Self-consistent Calculation

     iteration #  1     ecut=    30.00 Ry     beta= 0.70
     Davidson diagonalization with overlap

     ethr =  1.00E-02,  avg # of iterations =  2.5

     total energy              =   -2080.65350597 Ry
     estimated scf accuracy    <     113.28421324 Ry

[...]

     negative rho (up, down):  9.134E-04 0.000E+00

[...]

     c_bands:  1 eigenvalues not converged
     ethr =  4.15E-04,  avg # of iterations =  7.3

[...]

     total energy              =   -2166.70526342 Ry
     estimated scf accuracy    <       0.00000280 Ry

     iteration # 42     ecut=    30.00 Ry     beta= 0.70
     Davidson diagonalization with overlap

     ethr =  1.67E-09,  avg # of iterations =  5.2

     negative rho (up, down):  4.705E-03 0.000E+00

     End of self-consistent calculation

          k = 0.0000 0.0000 0.0000 (  2839 PWs)   bands (ev):

   -61.8461 -61.8264 -61.6870 -61.6870 -61.6863 -61.6863 -61.6657 -61.6443
   -39.2753 -39.2570 -39.2144 -39.1951 -31.1305 -31.0397 -30.7646 -30.6566
   -30.6566 -30.6273 -30.6273 -30.5629 -30.5629 -30.5360 -30.4121 -30.4121
   -30.3637 -30.3637 -30.3617 -30.2275 -30.2275 -30.2025 -30.1875 -30.1850
   -30.1850 -30.1826 -30.1659 -30.1659 -15.5998 -15.5956 -15.5927 -15.5927
   -15.5775 -15.5775 -15.4314 -15.4205 -15.3906 -15.3905 -15.3738 -15.3738
    10.0123  12.0756  12.8084  13.0543  13.6323  13.6658  14.0085  14.0085
    14.2808  14.2808  14.3390  14.5328  14.6801  14.6801  15.1813  15.1813
    15.2852  15.2852  15.4279  15.6792  15.6792  15.7572  15.7572  16.3456
    16.3456  16.5937  16.7844  16.7844  17.0548  17.0549  17.4384  17.5071
    17.5644  17.5644  17.6459  17.6459  17.8303  17.8826  17.8826  17.8888
    17.8890  17.9308

     occupation numbers
     1.0000   1.0000   1.0000   1.0000   1.0000   1.0000   1.0000   1.0000
     1.0000   1.0000   1.0000   1.0000   1.0000   1.0000   1.0000   1.0000
     1.0000   1.0000   1.0000   1.0000   1.0000   1.0000   1.0000   1.0000
     1.0000   1.0000   1.0000   1.0000   1.0000   1.0000   1.0000   1.0000
     1.0000   1.0000   1.0000   1.0000   1.0000   1.0000   1.0000   1.0000
     1.0000   1.0000   1.0000   1.0000   1.0000   1.0000   1.0000   1.0000
     1.0000   1.0000   1.0000   1.0000   1.0000   1.0000   1.0000   1.0000
     1.0000   1.0000   1.0000   1.0000   1.0000   1.0000   1.0000   1.0000
     1.0000   1.0000   1.0000   1.0000   1.0000   1.0000   1.0000   1.0000
     1.0000   1.0000   1.0000   1.0000   1.0000   1.0000   1.0000   1.0000
     1.0000   1.0000   1.0000   1.0000   0.0000   0.0000   0.0000   0.0000
     0.0000   0.0000

[...]

          k = 0.3333 0.5774 0.2023 (  2841 PWs)   bands (ev):

   -61.7811 -61.7811 -61.7602 -61.7433 -61.6871 -61.6871 -61.6533 -61.6358
   -39.2457 -39.2457 -39.2260 -39.2260 -30.8054 -30.8053 -30.7829 -30.7549
   -30.6037 -30.5732 -30.5731 -30.5167 -30.5078 -30.5078 -30.4971 -30.4970
   -30.3625 -30.3625 -30.3559 -30.3246 -30.2875 -30.2875 -30.2616 -30.2615
   -30.2403 -30.2403 -30.2097 -30.1769 -15.6229 -15.6228 -15.6228 -15.6117
   -15.5325 -15.5325 -15.4496 -15.4495 -15.3845 -15.3845 -15.3588 -15.3491
    12.6895  13.1818  13.2239  13.2239  13.6441  13.6442  14.0868  14.0868
    14.5591  14.5851  15.0140  15.0140  15.0552  15.1651  15.1926  15.1927
    15.2961  15.2962  15.4305  15.4305  15.5738  15.5773  15.5802  15.5802
    15.8543  15.8543  16.0855  16.2341  16.2341  16.2807  16.5523  16.5523
    16.7615  16.9448  17.1013  17.1013  17.1864  17.4795  17.7006  17.7006
    18.0233  18.0233

     occupation numbers
     1.0000   1.0000   1.0000   1.0000   1.0000   1.0000   1.0000   1.0000
     1.0000   1.0000   1.0000   1.0000   1.0000   1.0000   1.0000   1.0000
     1.0000   1.0000   1.0000   1.0000   1.0000   1.0000   1.0000   1.0000
     1.0000   1.0000   1.0000   1.0000   1.0000   1.0000   1.0000   1.0000
     1.0000   1.0000   1.0000   1.0000   1.0000   1.0000   1.0000   1.0000
     1.0000   1.0000   1.0000   1.0000   1.0000   1.0000   1.0000   1.0000
     1.0000   1.0000   1.0000   1.0000   1.0000   1.0000   1.0000   1.0000
     1.0000   1.0000   1.0000   1.0000   1.0000   1.0000   1.0000   1.0000
     1.0000   1.0000   1.0000   1.0000   1.0000   1.0000   1.0000   1.0000
     1.0000   1.0000   1.0000   1.0000   1.0000   1.0000   1.0000   1.0000
     1.0000   1.0000   1.0000   1.0000   0.0000   0.0000   0.0000   0.0000
     0.0000   0.0000

     highest occupied, lowest unoccupied level (ev):    17.7583   17.1864

!    total energy              =   -2166.70526321 Ry
     estimated scf accuracy    <       0.00000039 Ry

     The total energy is the sum of the following terms:
     one-electron contribution =    -895.95269858 Ry
     hartree contribution      =     535.49591656 Ry
     xc contribution           =    -284.03938574 Ry
     ewald contribution        =   -1522.20909545 Ry

     convergence has been achieved in  42 iterations

     Writing all to output data dir calculations_bands/myprefix.save/

     General routines

     Parallel routines

   This run was terminated on:   4:59:14  23Jun2023

   JOB DONE.