     Program PWSCF v.7.0 starts on  6Jun2023 at 10:45:24

     K-points division:     npool     =       2
     R & G space division:  proc/nbgrp/npool/nimage =       4

     Reading input from espresso_16345.pwi
Warning: card &CELL ignored
Warning: card / ignored

     Current dimensions of program PWSCF are:
     Max number of different atomic species (ntypx) = 10
     Max number of k-points (npk) =  40000
     Max angular momentum in pseudopotentials (lmaxx) =  4
     Message from routine setup:
     using ibrav=0 with symmetry is DISCOURAGED, use correct ibrav instead

     Using Slab Decomposition

     bravais-lattice index     =            0
     lattice parameter (alat)  =       9.5986  a.u.
     unit-cell volume          =     726.8818 (a.u.)^3
     number of atoms/cell      =            8
     number of atomic types    =            2
     number of electrons       =       116.00
     number of Kohn-Sham states=           64
     kinetic-energy cutoff     =      30.0000  Ry
     charge density cutoff     =     240.0000  Ry
     scf convergence threshold =      1.0E-06
     mixing beta               =       0.7000
     number of iterations used =            8  plain     mixing
     Exchange-correlation= PBE
                           (   1   4   3   4   0   0   0)

     celldm(1)=   9.598560  celldm(2)=   0.000000  celldm(3)=   0.000000
     celldm(4)=   0.000000  celldm(5)=   0.000000  celldm(6)=   0.000000

     crystal axes: (cart. coord. in units of alat)
               a(1) = (   1.000000   0.000000   0.000000 )
               a(2) = (  -0.840005   0.542578   0.000000 )
               a(3) = (   0.000000   0.000000   1.514898 )

     reciprocal axes: (cart. coord. in units 2 pi/alat)
               b(1) = (  1.000000  1.548174  0.000000 )
               b(2) = (  0.000000  1.843053  0.000000 )
               b(3) = (  0.000000  0.000000  0.660111 )

     PseudoPot. # 1 for Be read from file:
     /home/pragov/projects/rrg-bengioy-ad/pragov/crystal_structure_design/SSSP/be_pbe_v1.4.uspp.F.UPF
     MD5 check sum: 5ecff1440924c7c98ad504bef30f5264
     Pseudo is Ultrasoft, Zval =  4.0
     Generated by new atomic code, or converted to UPF format
     Using radial grid of  769 points,  6 beta functions with:
                l(1) =   0
                l(2) =   0
                l(3) =   0
                l(4) =   1
                l(5) =   1
                l(6) =   2
     Q(r) pseudized with 10 coefficients,  rinner =    1.000   1.000   1.000
                                                       1.000   1.000

     PseudoPot. # 2 for Pd read from file:
     /home/pragov/projects/rrg-bengioy-ad/pragov/crystal_structure_design/SSSP/Pd_ONCV_PBE-1.0.oncvpsp.upf
     MD5 check sum: eb77f42b51d86fb18e25f68156a31cf1
     Pseudo is Norm-conserving, Zval = 18.0
     Generated using ONCVPSP code by D. R. Hamann
     Using radial grid of 1410 points,  6 beta functions with:
                l(1) =   0
                l(2) =   0
                l(3) =   1
                l(4) =   1
                l(5) =   2
                l(6) =   2

     atomic species   valence    mass     pseudopotential
        Be             4.00     9.01218     Be( 1.00)
        Pd            18.00   106.42000     Pd( 1.00)

      4 Sym. Ops., with inversion, found ( 2 have fractional translation)

                                    s                        frac. trans.

      isym =  1     identity

 cryst.   s( 1) = (     1          0          0      )
                  (     0          1          0      )
                  (     0          0          1      )

 cart.    s( 1) = (  1.0000000  0.0000000  0.0000000 )
                  (  0.0000000  1.0000000  0.0000000 )
                  (  0.0000000  0.0000000  1.0000000 )

      isym =  2     180 deg rotation - cart. axis [0,0,1]

 cryst.   s( 2) = (    -1          0          0      )    f =( -0.0000000 )
                  (     0         -1          0      )       ( -0.0000000 )
                  (     0          0          1      )       (  0.5000000 )

 cart.    s( 2) = ( -1.0000000 -0.0000000  0.0000000 )    f =( -0.0000000 )
                  (  0.0000000 -1.0000000  0.0000000 )       ( -0.0000000 )
                  (  0.0000000  0.0000000  1.0000000 )       (  0.7574488 )

      isym =  3     inversion

 cryst.   s( 3) = (    -1          0          0      )
                  (     0         -1          0      )
                  (     0          0         -1      )

 cart.    s( 3) = ( -1.0000000 -0.0000000  0.0000000 )
                  (  0.0000000 -1.0000000  0.0000000 )
                  (  0.0000000  0.0000000 -1.0000000 )

      isym =  4     inv. 180 deg rotation - cart. axis [0,0,1]

 cryst.   s( 4) = (     1          0          0      )    f =(  0.0000000 )
                  (     0          1          0      )       (  0.0000000 )
                  (     0          0         -1      )       (  0.5000000 )

 cart.    s( 4) = (  1.0000000  0.0000000  0.0000000 )    f =(  0.0000000 )
                  (  0.0000000  1.0000000  0.0000000 )       (  0.0000000 )
                  (  0.0000000  0.0000000 -1.0000000 )       (  0.7574488 )

   Cartesian axes

     site n.     atom                  positions (alat units)
         1           Be  tau(   1) = (  -0.3745815   0.4053346   1.1361733  )
         2           Be  tau(   2) = (   0.5345762   0.1372435   0.3787244  )
         3           Pd  tau(   3) = (   0.2037708   0.2347909   1.1361733  )
         4           Pd  tau(   4) = (  -0.0437762   0.3077872   0.3787244  )
         5           Pd  tau(   5) = (   0.7490637   0.0739957   1.4223253  )
         6           Pd  tau(   6) = (  -0.5890691   0.4685824   0.0925724  )
         7           Pd  tau(   7) = (  -0.5890691   0.4685824   0.6648765  )
         8           Pd  tau(   8) = (   0.7490637   0.0739957   0.8500212  )

   Crystallographic axes

     site n.     atom                  positions (cryst. coord.)
         1           Be  tau(   1) = (  0.2529470  0.7470530  0.7500000  )
         2           Be  tau(   2) = (  0.7470530  0.2529470  0.2500000  )
         3           Pd  tau(   3) = (  0.5672680  0.4327320  0.7500000  )
         4           Pd  tau(   4) = (  0.4327320  0.5672680  0.2500000  )
         5           Pd  tau(   5) = (  0.8636220  0.1363780  0.9388920  )
         6           Pd  tau(   6) = (  0.1363780  0.8636220  0.0611080  )
         7           Pd  tau(   7) = (  0.1363780  0.8636220  0.4388920  )
         8           Pd  tau(   8) = (  0.8636220  0.1363780  0.5611080  )

     number of k points=    10
                       cart. coord. in units 2pi/alat
        k(    1) = (   0.0000000   0.0000000   0.0000000), wk =   0.0740741
        k(    2) = (   0.0000000   0.0000000   0.2200369), wk =   0.1481481
        k(    3) = (   0.0000000   0.6143509   0.0000000), wk =   0.1481481
        k(    4) = (   0.0000000   0.6143509   0.2200369), wk =   0.2962963
        k(    5) = (   0.3333333   0.5160580   0.0000000), wk =   0.1481481
        k(    6) = (   0.3333333   0.5160580   0.2200369), wk =   0.2962963
        k(    7) = (   0.3333333   1.1304089   0.0000000), wk =   0.1481481
        k(    8) = (   0.3333333   1.1304089   0.2200369), wk =   0.2962963
        k(    9) = (   0.3333333  -0.0982928   0.0000000), wk =   0.1481481
        k(   10) = (   0.3333333  -0.0982928   0.2200369), wk =   0.2962963

                       cryst. coord.
        k(    1) = (   0.0000000   0.0000000   0.0000000), wk =   0.0740741
        k(    2) = (   0.0000000   0.0000000   0.3333333), wk =   0.1481481
        k(    3) = (   0.0000000   0.3333333   0.0000000), wk =   0.1481481
        k(    4) = (   0.0000000   0.3333333   0.3333333), wk =   0.2962963
        k(    5) = (   0.3333333  -0.0000000   0.0000000), wk =   0.1481481
        k(    6) = (   0.3333333  -0.0000000   0.3333333), wk =   0.2962963
        k(    7) = (   0.3333333   0.3333333   0.0000000), wk =   0.1481481
        k(    8) = (   0.3333333   0.3333333   0.3333333), wk =   0.2962963
        k(    9) = (   0.3333333  -0.3333333   0.0000000), wk =   0.1481481
        k(   10) = (   0.3333333  -0.3333333   0.3333333), wk =   0.2962963

     Initial potential from superposition of free atoms

     starting charge     115.9976, renormalised to     116.0000
     Starting wfcs are   70 randomized atomic wfcs

     Self-consistent Calculation

     iteration #  1     ecut=    30.00 Ry     beta= 0.70
     Davidson diagonalization with overlap

     ethr =  1.00E-02,  avg # of iterations =  3.4

     Threshold (ethr) on eigenvalues was too large:
     Diagonalizing with lowered threshold

     Davidson diagonalization with overlap

[...]

     total energy              =   -1574.67370880 Ry
     estimated scf accuracy    <       0.13081075 Ry

[...]

     total energy              =   -1574.69559204 Ry
     estimated scf accuracy    <       0.00000112 Ry

     iteration # 12     ecut=    30.00 Ry     beta= 0.70
     Davidson diagonalization with overlap

     ethr =  9.64E-10,  avg # of iterations =  1.0

     End of self-consistent calculation

          k = 0.0000 0.0000 0.0000 (  2025 PWs)   bands (ev):

   -81.9057 -81.9044 -67.5736 -67.5678 -67.5522 -67.5480 -67.4501 -67.4484
   -33.0993 -33.0752 -33.0268 -33.0145 -32.9931 -32.9723 -32.9562 -32.9020
   -32.8743 -32.8534 -32.8461 -32.8371 -32.8342 -32.8151 -32.7936 -32.7720
   -32.7535 -32.7392   9.8612  11.7182  12.3787  12.4684  13.1093  13.4551
    13.5563  13.6544  13.6953  13.8931  14.3499  14.4381  14.5164  14.7960
    14.8557  15.0213  15.1093  15.1261  15.1633  15.1882  15.3871  15.5891
    15.6917  15.8507  16.0142  16.1494  16.2823  16.5899  16.6390  16.7583
    17.1349  17.1524  17.1541  17.5492  19.3132  19.9164  20.9442  21.5040

     occupation numbers
     1.0000   1.0000   1.0000   1.0000   1.0000   1.0000   1.0000   1.0000
     1.0000   1.0000   1.0000   1.0000   1.0000   1.0000   1.0000   1.0000
     1.0000   1.0000   1.0000   1.0000   1.0000   1.0000   1.0000   1.0000
     1.0000   1.0000   1.0000   1.0000   1.0000   1.0000   1.0000   1.0000
     1.0000   1.0000   1.0000   1.0000   1.0000   1.0000   1.0000   1.0000
     1.0000   1.0000   1.0000   1.0000   1.0000   1.0000   1.0000   1.0000
     1.0000   1.0000   1.0000   1.0000   1.0000   1.0000   1.0000   1.0000
     1.0000   1.0000   0.0000   0.0000   0.0000   0.0000   0.0000   0.0000

[...]

          k = 0.3333-0.0983 0.2200 (  2010 PWs)   bands (ev):

   -81.9039 -81.9016 -67.5678 -67.5654 -67.5554 -67.5531 -67.4497 -67.4489
   -33.0692 -33.0655 -33.0402 -33.0243 -32.9744 -32.9615 -32.9517 -32.9304
   -32.8737 -32.8601 -32.8584 -32.8494 -32.8139 -32.8087 -32.7875 -32.7819
   -32.7514 -32.7446  10.8177  11.4498  12.2779  12.4368  12.6241  12.9493
    13.2723  13.5457  13.8339  13.9678  14.4031  14.6840  14.7356  14.8029
    14.9247  14.9911  15.0004  15.1336  15.1566  15.3006  15.4889  15.8163
    15.8834  15.9534  16.0084  16.1727  16.3501  16.4198  16.6203  16.7064
    17.0802  17.2102  17.2842  17.4823  17.8658  18.7627  21.5675  22.5456

     occupation numbers
     1.0000   1.0000   1.0000   1.0000   1.0000   1.0000   1.0000   1.0000
     1.0000   1.0000   1.0000   1.0000   1.0000   1.0000   1.0000   1.0000
     1.0000   1.0000   1.0000   1.0000   1.0000   1.0000   1.0000   1.0000
     1.0000   1.0000   1.0000   1.0000   1.0000   1.0000   1.0000   1.0000
     1.0000   1.0000   1.0000   1.0000   1.0000   1.0000   1.0000   1.0000
     1.0000   1.0000   1.0000   1.0000   1.0000   1.0000   1.0000   1.0000
     1.0000   1.0000   1.0000   1.0000   1.0000   1.0000   1.0000   1.0000
     1.0000   1.0000   0.0000   0.0000   0.0000   0.0000   0.0000   0.0000

     highest occupied, lowest unoccupied level (ev):    17.5784   17.0771

!    total energy              =   -1574.69559155 Ry
     estimated scf accuracy    <       0.00000074 Ry

     The total energy is the sum of the following terms:
     one-electron contribution =    -550.49610253 Ry
     hartree contribution      =     328.31040224 Ry
     xc contribution           =    -158.76575734 Ry
     ewald contribution        =   -1193.74413392 Ry

     convergence has been achieved in  12 iterations

     Writing all to output data dir calculations_bands/myprefix.save/

     General routines

     Parallel routines

   This run was terminated on:  10:45:34   6Jun2023

   JOB DONE.