     Program PWSCF v.7.0 starts on  5Jun2023 at 21: 0:24

     K-points division:     npool     =       2
     R & G space division:  proc/nbgrp/npool/nimage =       4

     Reading input from espresso_11514.pwi
Warning: card &CELL ignored
Warning: card / ignored

     Current dimensions of program PWSCF are:
     Max number of different atomic species (ntypx) = 10
     Max number of k-points (npk) =  40000
     Max angular momentum in pseudopotentials (lmaxx) =  4
     file C.pbe-n-kjpaw_psl.1.0.0.UPF: wavefunction(s)  2S 2P renormalized
     Message from routine setup:
     using ibrav=0 with symmetry is DISCOURAGED, use correct ibrav instead

     Using Slab Decomposition

     bravais-lattice index     =            0
     lattice parameter (alat)  =       7.0988  a.u.
     unit-cell volume          =     329.2764 (a.u.)^3
     number of atoms/cell      =            4
     number of atomic types    =            3
     number of electrons       =        44.00
     number of Kohn-Sham states=           64
     kinetic-energy cutoff     =      30.0000  Ry
     charge density cutoff     =     240.0000  Ry
     scf convergence threshold =      1.0E-06
     mixing beta               =       0.7000
     number of iterations used =            8  plain     mixing
     Exchange-correlation= SLA  PW   PBX  PBC
                           (   1   4   3   4   0   0   0)

     celldm(1)=   7.098813  celldm(2)=   0.000000  celldm(3)=   0.000000
     celldm(4)=   0.000000  celldm(5)=   0.000000  celldm(6)=   0.000000

     crystal axes: (cart. coord. in units of alat)
               a(1) = (   1.000000   0.000000   0.000000 )
               a(2) = (  -0.278167   0.960533   0.000000 )
               a(3) = (   0.000000   0.000000   0.958277 )

     reciprocal axes: (cart. coord. in units 2 pi/alat)
               b(1) = (  1.000000  0.289596  0.000000 )
               b(2) = (  0.000000  1.041089  0.000000 )
               b(3) = (  0.000000  0.000000  1.043539 )

     PseudoPot. # 1 for Tb read from file:
     /home/pragov/projects/rrg-bengioy-ad/pragov/crystal_structure_design/SSSP/Tb.GGA-PBE-paw-v1.0.UPF
     MD5 check sum: f7bf3d58e9b293961564f5b9598c921e
     Pseudo is Projector augmented-wave + core cor, Zval = 19.0
     Generated using ATOMPAW code
     Shape of augmentation charge: BESSEL
     Using radial grid of 1111 points,  8 beta functions with:
                l(1) =   0
                l(2) =   0
                l(3) =   1
                l(4) =   1
                l(5) =   2
                l(6) =   2
                l(7) =   3
                l(8) =   3
     Q(r) pseudized with 0 coefficients

     PseudoPot. # 2 for Co read from file:
     /home/pragov/projects/rrg-bengioy-ad/pragov/crystal_structure_design/SSSP/Co_pbe_v1.2.uspp.F.UPF
     MD5 check sum: 5f91765df6ddd3222702df6e7b74a16d
     Pseudo is Ultrasoft + core correction, Zval = 17.0
     Generated by new atomic code, or converted to UPF format
     Using radial grid of  863 points,  6 beta functions with:
                l(1) =   0
                l(2) =   0
                l(3) =   1
                l(4) =   1
                l(5) =   2
                l(6) =   2
     Q(r) pseudized with  8 coefficients,  rinner =    1.200   1.200   1.200
                                                       1.200   1.200

     PseudoPot. # 3 for C  read from file:
     /home/pragov/projects/rrg-bengioy-ad/pragov/crystal_structure_design/SSSP/C.pbe-n-kjpaw_psl.1.0.0.UPF
     MD5 check sum: 5d2aebdfa2cae82b50a7e79e9516da0f
     Pseudo is Projector augmented-wave + core cor, Zval =  4.0
     Generated using "atomic" code by A. Dal Corso  v.5.1
     Shape of augmentation charge: PSQ
     Using radial grid of 1073 points,  4 beta functions with:
                l(1) =   0
                l(2) =   0
                l(3) =   1
                l(4) =   1
     Q(r) pseudized with 0 coefficients

     atomic species   valence    mass     pseudopotential
        Tb            19.00   158.92535     Tb( 1.00)
        Co            17.00    58.93319     Co( 1.00)
        C              4.00    12.01100     C ( 1.00)

      2 Sym. Ops. (no inversion) found

                                    s                        frac. trans.

      isym =  1     identity

 cryst.   s( 1) = (     1          0          0      )
                  (     0          1          0      )
                  (     0          0          1      )

 cart.    s( 1) = (  1.0000000  0.0000000  0.0000000 )
                  (  0.0000000  1.0000000  0.0000000 )
                  (  0.0000000  0.0000000  1.0000000 )

      isym =  2     inv. 180 deg rotation - cart. axis [0,0,1]

 cryst.   s( 2) = (     1          0          0      )
                  (     0          1          0      )
                  (     0          0         -1      )

 cart.    s( 2) = (  1.0000000  0.0000000  0.0000000 )
                  (  0.0000000  1.0000000  0.0000000 )
                  (  0.0000000  0.0000000 -1.0000000 )

   Cartesian axes

     site n.     atom                  positions (alat units)
         1           Tb  tau(   1) = (   0.9948861   0.0038431   0.0000000  )
         2           Co  tau(   2) = (   0.2067852   0.5960952   0.4791386  )
         3           C   tau(   3) = (   0.4931952   0.1511754   0.4791386  )
         4           C   tau(   4) = (   0.7138149   0.4447507   0.4791386  )

   Crystallographic axes

     site n.     atom                  positions (cryst. coord.)
         1           Tb  tau(   1) = (  0.9959990  0.0040010  0.0000000  )
         2           Co  tau(   2) = (  0.3794120  0.6205880  0.5000000  )
         3           C   tau(   3) = (  0.5369750  0.1573870  0.5000000  )
         4           C   tau(   4) = (  0.8426130  0.4630250  0.5000000  )

     number of k points=    10
                       cart. coord. in units 2pi/alat
        k(    1) = (   0.0000000   0.0000000   0.0000000), wk =   0.0740741
        k(    2) = (   0.0000000   0.0000000   0.3478465), wk =   0.1481481
        k(    3) = (   0.0000000   0.3470296   0.0000000), wk =   0.1481481
        k(    4) = (   0.0000000   0.3470296   0.3478465), wk =   0.2962963
        k(    5) = (   0.3333333   0.0965320   0.0000000), wk =   0.1481481
        k(    6) = (   0.3333333   0.0965320   0.3478465), wk =   0.2962963
        k(    7) = (   0.3333333   0.4435616   0.0000000), wk =   0.1481481
        k(    8) = (   0.3333333   0.4435616   0.3478465), wk =   0.2962963
        k(    9) = (   0.3333333  -0.2504976   0.0000000), wk =   0.1481481
        k(   10) = (   0.3333333  -0.2504976   0.3478465), wk =   0.2962963

                       cryst. coord.
        k(    1) = (   0.0000000   0.0000000   0.0000000), wk =   0.0740741
        k(    2) = (   0.0000000   0.0000000   0.3333333), wk =   0.1481481
        k(    3) = (   0.0000000   0.3333333   0.0000000), wk =   0.1481481
        k(    4) = (   0.0000000   0.3333333   0.3333333), wk =   0.2962963
        k(    5) = (   0.3333333   0.0000000   0.0000000), wk =   0.1481481
        k(    6) = (   0.3333333   0.0000000   0.3333333), wk =   0.2962963
        k(    7) = (   0.3333333   0.3333333   0.0000000), wk =   0.1481481
        k(    8) = (   0.3333333   0.3333333   0.3333333), wk =   0.2962963
        k(    9) = (   0.3333333  -0.3333333   0.0000000), wk =   0.1481481
        k(   10) = (   0.3333333  -0.3333333   0.3333333), wk =   0.2962963

     Check: negative core charge=   -0.000025

     Initial potential from superposition of free atoms

     starting charge      42.9955, renormalised to      44.0000
     Starting wfcs are   53 randomized atomic wfcs +   11 random wfcs
     Checking if some PAW data can be deallocated...

     Self-consistent Calculation

     iteration #  1     ecut=    30.00 Ry     beta= 0.70
     Davidson diagonalization with overlap

     ethr =  1.00E-02,  avg # of iterations =  6.5

     total energy              =   -1058.09724453 Ry
     estimated scf accuracy    <       7.07223400 Ry

[...]

     total energy              =   -1063.78569567 Ry
     estimated scf accuracy    <       0.00000131 Ry

     iteration # 39     ecut=    30.00 Ry     beta= 0.70
     Davidson diagonalization with overlap

     ethr =  2.99E-09,  avg # of iterations =  1.0

     End of self-consistent calculation

          k = 0.0000 0.0000 0.0000 (   925 PWs)   bands (ev):

   -79.9434 -43.4123 -43.2808 -42.9292 -28.3716  -5.4357  -5.3527  -5.3408
    -0.2103   7.2641   9.0349  10.5162  11.7041  12.4293  13.4435  13.6762
    13.7668  14.7444  14.8570  14.8802  14.9412  15.0106  15.1530  15.2238
    15.3732  16.7905  16.9005  17.8832  20.1306  20.2179  20.3642  21.6407
    22.0539  24.1433  26.8870  28.4414  28.4988  31.0092  31.2354  32.7119
    35.2205  36.3170  36.8649  37.0902  37.2242  39.5435  39.7669  42.4259
    44.3627  44.3965  44.7259  45.0758  45.5162  46.7179  46.8711  47.5984
    49.6834  50.1300  51.0724  52.2101  54.0040  54.2679  54.6535  55.3979

     occupation numbers
     1.0000   1.0000   1.0000   1.0000   1.0000   1.0000   1.0000   1.0000
     1.0000   1.0000   1.0000   1.0000   1.0000   1.0000   1.0000   1.0000
     1.0000   1.0000   1.0000   1.0000   1.0000   1.0000   0.0000   0.0000
     0.0000   0.0000   0.0000   0.0000   0.0000   0.0000   0.0000   0.0000
     0.0000   0.0000   0.0000   0.0000   0.0000   0.0000   0.0000   0.0000
     0.0000   0.0000   0.0000   0.0000   0.0000   0.0000   0.0000   0.0000
     0.0000   0.0000   0.0000   0.0000   0.0000   0.0000   0.0000   0.0000
     0.0000   0.0000   0.0000   0.0000   0.0000   0.0000   0.0000   0.0000

[...]

          k = 0.3333-0.2505 0.3478 (   924 PWs)   bands (ev):

   -79.9434 -43.4118 -43.2859 -42.9283 -28.3328  -5.7260  -5.5851  -5.5323
     0.5126   7.5345   8.6898   9.9230  10.8814  12.4980  13.0298  13.6146
    13.9398  14.4410  14.7771  14.7865  14.8240  14.9889  15.0769  15.1081
    15.2365  16.7527  17.1597  19.2655  20.5480  21.7359  22.2952  22.9647
    23.7945  26.1434  27.0406  28.4011  28.9950  29.4958  30.4110  32.4153
    32.9092  34.6776  35.3049  35.7039  38.0112  38.8651  39.2710  41.5593
    41.5656  42.5478  42.7467  43.6939  45.2965  45.7692  47.4048  47.5980
    48.7500  48.8936  49.5845  51.3355  51.5243  53.0073  54.2811  54.7366

     occupation numbers
     1.0000   1.0000   1.0000   1.0000   1.0000   1.0000   1.0000   1.0000
     1.0000   1.0000   1.0000   1.0000   1.0000   1.0000   1.0000   1.0000
     1.0000   1.0000   1.0000   1.0000   1.0000   1.0000   0.0000   0.0000
     0.0000   0.0000   0.0000   0.0000   0.0000   0.0000   0.0000   0.0000
     0.0000   0.0000   0.0000   0.0000   0.0000   0.0000   0.0000   0.0000
     0.0000   0.0000   0.0000   0.0000   0.0000   0.0000   0.0000   0.0000
     0.0000   0.0000   0.0000   0.0000   0.0000   0.0000   0.0000   0.0000
     0.0000   0.0000   0.0000   0.0000   0.0000   0.0000   0.0000   0.0000

     highest occupied, lowest unoccupied level (ev):    15.0403   15.0659

!    total energy              =   -1063.78569406 Ry
     estimated scf accuracy    <       0.00000088 Ry

     The total energy is the sum of the following terms:
     one-electron contribution =    -304.67648776 Ry
     hartree contribution      =     181.49738895 Ry
     xc contribution           =     -66.99910051 Ry
     ewald contribution        =    -387.78510399 Ry
     one-center paw contrib.   =    -485.82239075 Ry
      -> PAW hartree energy AE =     217.63134621 Ry
      -> PAW hartree energy PS =    -204.25319079 Ry
      -> PAW xc energy AE      =    -510.78455259 Ry
      -> PAW xc energy PS      =      23.92697534 Ry
      -> total E_H with PAW    =     194.87554437 Ry
      -> total E_XC with PAW   =    -553.85667776 Ry

     convergence has been achieved in  39 iterations

     Writing all to output data dir calculations_bands/myprefix.save/

     General routines

     Parallel routines

     PAW routines

   This run was terminated on:  21: 0:57   5Jun2023

   JOB DONE.