     Program PWSCF v.7.0 starts on 23Jun2023 at  9:47:54

     K-points division:     npool     =       2
     R & G space division:  proc/nbgrp/npool/nimage =       4

     Reading input from espresso_12325.pwi
Warning: card &CELL ignored
Warning: card / ignored

     Current dimensions of program PWSCF are:
     Max number of different atomic species (ntypx) = 10
     Max number of k-points (npk) =  40000
     Max angular momentum in pseudopotentials (lmaxx) =  4
     file In.pbe-dn-rrkjus_psl.0.2.2.UPF: wavefunction(s)  5S renormalized
     Message from routine setup:
     using ibrav=0 with symmetry is DISCOURAGED, use correct ibrav instead

     Using Slab Decomposition

     bravais-lattice index     =            0
     lattice parameter (alat)  =      16.4852  a.u.
     unit-cell volume          =    1845.1297 (a.u.)^3
     number of atoms/cell      =           12
     number of atomic types    =            3
     number of electrons       =       164.00
     number of Kohn-Sham states=           90
     kinetic-energy cutoff     =      30.0000  Ry
     charge density cutoff     =     240.0000  Ry
     scf convergence threshold =      1.0E-06
     mixing beta               =       0.7000
     number of iterations used =            8  plain     mixing
     Exchange-correlation=  SLA  PW   PBX  PBC
                           (   1   4   3   4   0   0   0)

     celldm(1)=  16.485248  celldm(2)=   0.000000  celldm(3)=   0.000000
     celldm(4)=   0.000000  celldm(5)=   0.000000  celldm(6)=   0.000000

     crystal axes: (cart. coord. in units of alat)
               a(1) = (   1.000000   0.000000   0.000000 )
               a(2) = (  -0.866301   0.499522   0.000000 )
               a(3) = (   0.000000   0.000000   0.824491 )

     reciprocal axes: (cart. coord. in units 2 pi/alat)
               b(1) = (  1.000000  1.734260  0.000000 )
               b(2) = (  0.000000  2.001913  0.000000 )
               b(3) = (  0.000000  0.000000  1.212870 )

     PseudoPot. # 1 for Ce read from file:
     /home/pragov/projects/rrg-bengioy-ad/pragov/crystal_structure_design/SSSP/Ce.GGA-PBE-paw-v1.0.UPF
     MD5 check sum: f2b950f613061344c13339c8d844425d
     Pseudo is Projector augmented-wave + core cor, Zval = 12.0
     Generated using ATOMPAW code
     Shape of augmentation charge: BESSEL
     Using radial grid of 1102 points,  8 beta functions with:
                l(1) =   0
                l(2) =   0
                l(3) =   1
                l(4) =   1
                l(5) =   2
                l(6) =   2
                l(7) =   3
                l(8) =   3
     Q(r) pseudized with 0 coefficients

     PseudoPot. # 2 for In read from file:
     /home/pragov/projects/rrg-bengioy-ad/pragov/crystal_structure_design/SSSP/In.pbe-dn-rrkjus_psl.0.2.2.UPF
     MD5 check sum: 25e7c42c3b55b68f4bf926be2e7201a4
     Pseudo is Ultrasoft + core correction, Zval = 13.0
     Generated using "atomic" code by A. Dal Corso  v.5.0.99 svn rev. 10869
     Using radial grid of 1241 points,  6 beta functions with:
                l(1) =   0
                l(2) =   0
                l(3) =   1
                l(4) =   1
                l(5) =   2
                l(6) =   2
     Q(r) pseudized with 0 coefficients

     PseudoPot. # 3 for Ni read from file:
     /home/pragov/projects/rrg-bengioy-ad/pragov/crystal_structure_design/SSSP/ni_pbe_v1.4.uspp.F.UPF
     MD5 check sum: 1ee80287db30b12d2bc1f57a5b5d6409
     Pseudo is Ultrasoft + core correction, Zval = 18.0
     Generated by new atomic code, or converted to UPF format
     Using radial grid of  865 points,  6 beta functions with:
                l(1) =   0
                l(2) =   0
                l(3) =   1
                l(4) =   1
                l(5) =   2
                l(6) =   2
     Q(r) pseudized with 10 coefficients,  rinner =    0.980   0.980   0.980
                                                       0.980   0.980

     atomic species   valence    mass     pseudopotential
        Ce            12.00   140.11600     Ce( 1.00)
        In            13.00   114.81800     In( 1.00)
        Ni            18.00    58.69340     Ni( 1.00)

      4 Sym. Ops., with inversion, found ( 2 have fractional translation)

                                    s                        frac. trans.

      isym =  1     identity

 cryst.   s( 1) = (     1          0          0      )
                  (     0          1          0      )
                  (     0          0          1      )

 cart.    s( 1) = (  1.0000000 -0.0000000  0.0000000 )
                  (  0.0000000  1.0000000  0.0000000 )
                  (  0.0000000  0.0000000  1.0000000 )

      isym =  2     180 deg rotation - cart. axis [0,0,1]

 cryst.   s( 2) = (    -1          0          0      )    f =(  0.0000000 )
                  (     0         -1          0      )       (  0.0000000 )
                  (     0          0          1      )       (  0.5000000 )

 cart.    s( 2) = ( -1.0000000  0.0000000  0.0000000 )    f =( -0.0000000 )
                  (  0.0000000 -1.0000000  0.0000000 )       (  0.0000000 )
                  (  0.0000000  0.0000000  1.0000000 )       (  0.4122453 )

      isym =  3     inversion

 cryst.   s( 3) = (    -1          0          0      )
                  (     0         -1          0      )
                  (     0          0         -1      )

 cart.    s( 3) = ( -1.0000000  0.0000000  0.0000000 )
                  (  0.0000000 -1.0000000  0.0000000 )
                  (  0.0000000  0.0000000 -1.0000000 )

      isym =  4     inv. 180 deg rotation - cart. axis [0,0,1]

 cryst.   s( 4) = (     1          0          0      )    f =(  0.0000000 )
                  (     0          1          0      )       (  0.0000000 )
                  (     0          0         -1      )       (  0.5000000 )

 cart.    s( 4) = (  1.0000000 -0.0000000  0.0000000 )    f =(  0.0000000 )
                  (  0.0000000  1.0000000  0.0000000 )       (  0.0000000 )
                  (  0.0000000  0.0000000 -1.0000000 )       (  0.4122453 )

   Cartesian axes

     site n.     atom                  positions (alat units)
         1           Ce  tau(   1) = (   0.7812956   0.0585370   0.6183679  )
         2           Ce  tau(   2) = (  -0.6475967   0.4409852   0.2061226  )
         3           In  tau(   3) = (   0.0668494   0.2497611   0.0000000  )
         4           In  tau(   4) = (   0.0668494   0.2497611   0.4122453  )
         5           In  tau(   5) = (  -0.7284430   0.4626240   0.6183679  )
         6           In  tau(   6) = (   0.8621419   0.0368982   0.2061226  )
         7           In  tau(   7) = (   0.4177215   0.1558489   0.7865351  )
         8           In  tau(   8) = (  -0.2840226   0.3436732   0.0379554  )
         9           In  tau(   9) = (   0.4177215   0.1558489   0.4502007  )
        10           In  tau(  10) = (  -0.2840226   0.3436732   0.3742898  )
        11           Ni  tau(  11) = (  -0.4457022   0.3869474   0.6183679  )
        12           Ni  tau(  12) = (   0.5794011   0.1125748   0.2061226  )

   Crystallographic axes

     site n.     atom                  positions (cryst. coord.)
         1           Ce  tau(   1) = (  0.8828140  0.1171860  0.7500000  )
         2           Ce  tau(   2) = (  0.1171860  0.8828140  0.2500000  )
         3           In  tau(   3) = (  0.5000000  0.5000000  0.0000000  )
         4           In  tau(   4) = (  0.5000000  0.5000000  0.5000000  )
         5           In  tau(   5) = (  0.0738670  0.9261330  0.7500000  )
         6           In  tau(   6) = (  0.9261330  0.0738670  0.2500000  )
         7           In  tau(   7) = (  0.6880040  0.3119960  0.9539650  )
         8           In  tau(   8) = (  0.3119960  0.6880040  0.0460350  )
         9           In  tau(   9) = (  0.6880040  0.3119960  0.5460350  )
        10           In  tau(  10) = (  0.3119960  0.6880040  0.4539650  )
        11           Ni  tau(  11) = (  0.2253650  0.7746350  0.7500000  )
        12           Ni  tau(  12) = (  0.7746350  0.2253650  0.2500000  )

     number of k points=    10
                       cart. coord. in units 2pi/alat
        k(    1) = (   0.0000000   0.0000000   0.0000000), wk =   0.0740741
        k(    2) = (   0.0000000   0.0000000   0.4042901), wk =   0.1481481
        k(    3) = (   0.0000000   0.6673044   0.0000000), wk =   0.1481481
        k(    4) = (   0.0000000   0.6673044   0.4042901), wk =   0.2962963
        k(    5) = (   0.3333333   0.5780865   0.0000000), wk =   0.1481481
        k(    6) = (   0.3333333   0.5780865   0.4042901), wk =   0.2962963
        k(    7) = (   0.3333333   1.2453909   0.0000000), wk =   0.1481481
        k(    8) = (   0.3333333   1.2453909   0.4042901), wk =   0.2962963
        k(    9) = (   0.3333333  -0.0892179   0.0000000), wk =   0.1481481
        k(   10) = (   0.3333333  -0.0892179   0.4042901), wk =   0.2962963

                       cryst. coord.
        k(    1) = (   0.0000000   0.0000000   0.0000000), wk =   0.0740741
        k(    2) = (   0.0000000   0.0000000   0.3333333), wk =   0.1481481
        k(    3) = (   0.0000000   0.3333333   0.0000000), wk =   0.1481481
        k(    4) = (   0.0000000   0.3333333   0.3333333), wk =   0.2962963
        k(    5) = (   0.3333333   0.0000000   0.0000000), wk =   0.1481481
        k(    6) = (   0.3333333   0.0000000   0.3333333), wk =   0.2962963
        k(    7) = (   0.3333333   0.3333333   0.0000000), wk =   0.1481481
        k(    8) = (   0.3333333   0.3333333   0.3333333), wk =   0.2962963
        k(    9) = (   0.3333333  -0.3333333   0.0000000), wk =   0.1481481
        k(   10) = (   0.3333333  -0.3333333   0.3333333), wk =   0.2962963

     Check: negative core charge=   -0.000001

     Initial potential from superposition of free atoms

     starting charge     159.9563, renormalised to     164.0000
     Starting wfcs are  162 randomized atomic wfcs
     Checking if some PAW data can be deallocated...

     Self-consistent Calculation

     iteration #  1     ecut=    30.00 Ry     beta= 0.70
     Davidson diagonalization with overlap

     ethr =  1.00E-02,  avg # of iterations =  2.6

     total energy              =   -2789.42536729 Ry
     estimated scf accuracy    <      28.64797456 Ry

[...]

     c_bands:  2 eigenvalues not converged
     c_bands:  2 eigenvalues not converged
     c_bands:  4 eigenvalues not converged
     c_bands:  2 eigenvalues not converged
     ethr =  2.49E-06,  avg # of iterations = 18.9

[...]

     c_bands:  1 eigenvalues not converged
     ethr =  3.43E-07,  avg # of iterations = 11.7

[...]

     total energy              =   -2809.27443692 Ry
     estimated scf accuracy    <       0.00000934 Ry

     iteration # 24     ecut=    30.00 Ry     beta= 0.70
     Davidson diagonalization with overlap

     ethr =  5.70E-09,  avg # of iterations =  9.4

     End of self-consistent calculation

          k = 0.0000 0.0000 0.0000 (  5131 PWs)   bands (ev):

   -90.9273 -90.9252 -51.3029 -51.2985 -51.2701 -51.2571 -51.2408 -51.2403
   -22.5494 -22.5486  -5.4513  -5.4367  -5.4305  -5.4129  -5.2907  -5.2854
    -2.4027  -2.3575  -2.3539  -2.3264  -2.3095  -2.2461  -2.2265  -2.2173
    -2.2076  -2.1919  -2.1696  -2.1605  -2.1343  -2.1163  -2.0828  -2.0799
    -2.0597  -2.0467  -2.0437  -2.0376  -2.0238  -2.0162  -2.0129  -2.0113
    -1.9990  -1.9812  -1.9584  -1.9527  -1.9444  -1.9162  -1.9041  -1.8771
    -1.8615  -1.8240  -1.7920  -1.7776  -1.7729  -1.7629  -1.7564  -1.7046
     2.9790   4.7181   5.3612   6.0973   7.3909   8.1197   8.4508   8.5268
     9.0314   9.9528  10.0173  10.1496  10.3859  10.6092  10.6501  10.6532
    10.7433  10.7441  10.9421  11.0724  11.3802  11.4181  12.2258  12.3899
    12.4367  12.4608  12.4879  12.5811  12.5901  12.5920  12.6154  12.6562
    12.6594  12.6717

     occupation numbers
     1.0000   1.0000   1.0000   1.0000   1.0000   1.0000   1.0000   1.0000
     1.0000   1.0000   1.0000   1.0000   1.0000   1.0000   1.0000   1.0000
     1.0000   1.0000   1.0000   1.0000   1.0000   1.0000   1.0000   1.0000
     1.0000   1.0000   1.0000   1.0000   1.0000   1.0000   1.0000   1.0000
     1.0000   1.0000   1.0000   1.0000   1.0000   1.0000   1.0000   1.0000
     1.0000   1.0000   1.0000   1.0000   1.0000   1.0000   1.0000   1.0000
     1.0000   1.0000   1.0000   1.0000   1.0000   1.0000   1.0000   1.0000
     1.0000   1.0000   1.0000   1.0000   1.0000   1.0000   1.0000   1.0000
     1.0000   1.0000   1.0000   1.0000   1.0000   1.0000   1.0000   1.0000
     1.0000   1.0000   1.0000   1.0000   1.0000   1.0000   1.0000   1.0000
     1.0000   1.0000   0.0000   0.0000   0.0000   0.0000   0.0000   0.0000
     0.0000   0.0000

[...]

          k = 0.3333-0.0892 0.4043 (  5142 PWs)   bands (ev):

   -90.9270 -90.9261 -51.2984 -51.2957 -51.2685 -51.2651 -51.2445 -51.2426
   -22.5491 -22.5489  -5.4531  -5.4484  -5.4225  -5.4163  -5.2914  -5.2845
    -2.3714  -2.3383  -2.3322  -2.3148  -2.2969  -2.2946  -2.2573  -2.2165
    -2.2109  -2.1955  -2.1835  -2.1581  -2.1426  -2.1369  -2.0939  -2.0870
    -2.0794  -2.0547  -2.0541  -2.0356  -2.0137  -2.0011  -1.9772  -1.9663
    -1.9657  -1.9544  -1.9357  -1.9334  -1.9304  -1.9185  -1.9002  -1.8750
    -1.8698  -1.8629  -1.8346  -1.8100  -1.7845  -1.7808  -1.7408  -1.7052
     3.5671   4.1399   5.1048   5.6468   7.2722   8.2219   8.5871   9.2881
     9.9463  10.0430  10.0470  10.1831  10.2956  10.4332  10.5055  10.5322
    10.7509  10.9149  11.2404  11.2809  11.3155  11.7198  11.8917  11.9857
    12.2415  12.3140  12.4864  12.4954  12.5266  12.5730  12.6499  12.6557
    12.6599  12.6863

     occupation numbers
     1.0000   1.0000   1.0000   1.0000   1.0000   1.0000   1.0000   1.0000
     1.0000   1.0000   1.0000   1.0000   1.0000   1.0000   1.0000   1.0000
     1.0000   1.0000   1.0000   1.0000   1.0000   1.0000   1.0000   1.0000
     1.0000   1.0000   1.0000   1.0000   1.0000   1.0000   1.0000   1.0000
     1.0000   1.0000   1.0000   1.0000   1.0000   1.0000   1.0000   1.0000
     1.0000   1.0000   1.0000   1.0000   1.0000   1.0000   1.0000   1.0000
     1.0000   1.0000   1.0000   1.0000   1.0000   1.0000   1.0000   1.0000
     1.0000   1.0000   1.0000   1.0000   1.0000   1.0000   1.0000   1.0000
     1.0000   1.0000   1.0000   1.0000   1.0000   1.0000   1.0000   1.0000
     1.0000   1.0000   1.0000   1.0000   1.0000   1.0000   1.0000   1.0000
     1.0000   1.0000   0.0000   0.0000   0.0000   0.0000   0.0000   0.0000
     0.0000   0.0000

     highest occupied, lowest unoccupied level (ev):    12.4879   12.3273

!    total energy              =   -2809.27444027 Ry
     estimated scf accuracy    <       0.00000049 Ry

     The total energy is the sum of the following terms:
     one-electron contribution =   -1016.24220771 Ry
     hartree contribution      =     642.68711348 Ry
     xc contribution           =    -473.24760043 Ry
     ewald contribution        =   -1145.75791537 Ry
     one-center paw contrib.   =    -816.71383024 Ry
      -> PAW hartree energy AE =      88.03178200 Ry
      -> PAW hartree energy PS =     -87.44795225 Ry
      -> PAW xc energy AE      =    -834.42104901 Ry
      -> PAW xc energy PS      =      17.12338903 Ry
      -> total E_H with PAW    =     643.27094322 Ry
      -> total E_XC with PAW   =   -1290.54526041 Ry

     convergence has been achieved in  24 iterations

     Writing all to output data dir calculations_bands/myprefix.save/

     General routines

     Parallel routines

     PAW routines

   This run was terminated on:   9:49: 4  23Jun2023

   JOB DONE.