     Program PWSCF v.7.0 starts on 23Jun2023 at  5:53:11

     K-points division:     npool     =       2
     R & G space division:  proc/nbgrp/npool/nimage =       4

     Reading input from espresso_5241.pwi
Warning: card &CELL ignored
Warning: card / ignored

     Current dimensions of program PWSCF are:
     Max number of different atomic species (ntypx) = 10
     Max number of k-points (npk) =  40000
     Max angular momentum in pseudopotentials (lmaxx) =  4
     Message from routine setup:
     using ibrav=0 with symmetry is DISCOURAGED, use correct ibrav instead

     Using Slab Decomposition

     bravais-lattice index     =            0
     lattice parameter (alat)  =      13.8409  a.u.
     unit-cell volume          =    1398.9984 (a.u.)^3
     number of atoms/cell      =            9
     number of atomic types    =            3
     number of electrons       =       174.00
     number of Kohn-Sham states=           90
     kinetic-energy cutoff     =      30.0000  Ry
     charge density cutoff     =     240.0000  Ry
     scf convergence threshold =      1.0E-06
     mixing beta               =       0.7000
     number of iterations used =            8  plain     mixing
     Exchange-correlation= SLA  PW   PBE  PBE
                           (   1   4   3   4   0   0   0)

     celldm(1)=  13.840906  celldm(2)=   0.000000  celldm(3)=   0.000000
     celldm(4)=   0.000000  celldm(5)=   0.000000  celldm(6)=   0.000000

     crystal axes: (cart. coord. in units of alat)
               a(1) = (   1.000000   0.000000   0.000000 )
               a(2) = (  -0.500000   0.866025   0.000000 )
               a(3) = (   0.000000   0.000000   0.609246 )

     reciprocal axes: (cart. coord. in units 2 pi/alat)
               b(1) = (  1.000000  0.577350  0.000000 )
               b(2) = (  0.000000  1.154701  0.000000 )
               b(3) = (  0.000000  0.000000  1.641372 )

     PseudoPot. # 1 for Lu read from file:
     /home/pragov/projects/rrg-bengioy-ad/pragov/crystal_structure_design/SSSP/Lu.GGA-PBE-paw-v1.0.UPF
     MD5 check sum: 9ceca61ee0c17e9380a83635bfffa61d
     Pseudo is Projector augmented-wave + core cor, Zval = 25.0
     Generated using ATOMPAW code
     Shape of augmentation charge: BESSEL
     Using radial grid of 1118 points,  8 beta functions with:
                l(1) =   0
                l(2) =   0
                l(3) =   1
                l(4) =   1
                l(5) =   2
                l(6) =   2
                l(7) =   3
                l(8) =   3
     Q(r) pseudized with 0 coefficients

     PseudoPot. # 2 for Ag read from file:
     /home/pragov/projects/rrg-bengioy-ad/pragov/crystal_structure_design/SSSP/Ag_ONCV_PBE-1.0.oncvpsp.upf
     MD5 check sum: 94f47bd0669c641108e45594df92fabc
     Pseudo is Norm-conserving, Zval = 19.0
     Generated using ONCVPSP code by D. R. Hamann
     Using radial grid of 1398 points,  6 beta functions with:
                l(1) =   0
                l(2) =   0
                l(3) =   1
                l(4) =   1
                l(5) =   2
                l(6) =   2

     PseudoPot. # 3 for Sn read from file:
     /home/pragov/projects/rrg-bengioy-ad/pragov/crystal_structure_design/SSSP/Sn_pbe_v1.uspp.F.UPF
     MD5 check sum: 4cf58ce39ec5d5d420df3dd08604eb00
     Pseudo is Ultrasoft + core correction, Zval = 14.0
     Generated by new atomic code, or converted to UPF format
     Using radial grid of  891 points,  6 beta functions with:
                l(1) =   0
                l(2) =   0
                l(3) =   1
                l(4) =   1
                l(5) =   2
                l(6) =   2
     Q(r) pseudized with  6 coefficients,  rinner =    1.200   1.200   1.200
                                                       1.200   1.200

     atomic species   valence    mass     pseudopotential
        Lu            25.00   174.96680     Lu( 1.00)
        Ag            19.00   107.86820     Ag( 1.00)
        Sn            14.00   118.71000     Sn( 1.00)

     12 Sym. Ops. (no inversion) found

                                    s                        frac. trans.

      isym =  1     identity

 cryst.   s( 1) = (     1          0          0      )
                  (     0          1          0      )
                  (     0          0          1      )

 cart.    s( 1) = (  1.0000000  0.0000000  0.0000000 )
                  (  0.0000000  1.0000000  0.0000000 )
                  (  0.0000000  0.0000000  1.0000000 )

      isym =  2     180 deg rotation - cart. axis [1,0,0]

[...]

      isym =  3     120 deg rotation - cryst. axis [0,0,1]

[...]

      isym =  6     180 deg rotation - cryst. axis [1,1,0]

[...]

      isym =  7     inv. 180 deg rotation - cart. axis [0,0,1]

[...]

      isym =  8     inv. 180 deg rotation - cart. axis [0,1,0]

[...]

      isym =  9     inv.  60 deg rotation - cryst. axis [0,0,1]

 cryst.   s( 9) = (    -1         -1          0      )
                  (     1          0          0      )
                  (     0          0         -1      )

 cart.    s( 9) = ( -0.5000000  0.8660254  0.0000000 )
                  ( -0.8660254 -0.5000000  0.0000000 )
                  (  0.0000000  0.0000000 -1.0000000 )

[...]

 cryst.   s(10) = (     0          1          0      )
                  (    -1         -1          0      )
                  (     0          0         -1      )

 cart.    s(10) = ( -0.5000000 -0.8660254  0.0000000 )
                  (  0.8660254 -0.5000000  0.0000000 )
                  (  0.0000000  0.0000000 -1.0000000 )

[...]

      isym = 12     inv. 180 deg rotation - cryst. axis [2,1,0]

 cryst.   s(12) = (    -1         -1          0      )
                  (     0          1          0      )
                  (     0          0          1      )

 cart.    s(12) = ( -0.5000000 -0.8660254  0.0000000 )
                  ( -0.8660254  0.5000000  0.0000000 )
                  (  0.0000000  0.0000000  1.0000000 )

   Cartesian axes

     site n.     atom                  positions (alat units)
         1           Lu  tau(   1) = (   0.7839300   0.3742442   0.0000000  )
         2           Lu  tau(   2) = (   0.2839300   0.4917812   0.0000000  )
         3           Lu  tau(   3) = (   0.4321400   0.0000000   0.0000000  )
         4           Ag  tau(   4) = (   0.1233325   0.2136182   0.3046232  )
         5           Ag  tau(   5) = (   0.7533350   0.0000000   0.3046232  )
         6           Ag  tau(   6) = (   0.6233325   0.6524072   0.3046232  )
         7           Sn  tau(   7) = (  -0.0000005   0.5773506   0.3046232  )
         8           Sn  tau(   8) = (   0.0000000   0.0000000   0.0000000  )
         9           Sn  tau(   9) = (   0.5000005   0.2886748   0.3046232  )

   Crystallographic axes

     site n.     atom                  positions (cryst. coord.)
         1           Lu  tau(   1) = (  1.0000000  0.4321400  0.0000000  )
         2           Lu  tau(   2) = (  0.5678600  0.5678600  0.0000000  )
         3           Lu  tau(   3) = (  0.4321400  0.0000000  0.0000000  )
         4           Ag  tau(   4) = (  0.2466650  0.2466650  0.5000000  )
         5           Ag  tau(   5) = (  0.7533350  0.0000000  0.5000000  )
         6           Ag  tau(   6) = (  1.0000000  0.7533350  0.5000000  )
         7           Sn  tau(   7) = (  0.3333330  0.6666670  0.5000000  )
         8           Sn  tau(   8) = (  0.0000000  0.0000000  0.0000000  )
         9           Sn  tau(   9) = (  0.6666670  0.3333330  0.5000000  )

     number of k points=     6
                       cart. coord. in units 2pi/alat
        k(    1) = (   0.0000000   0.0000000   0.0000000), wk =   0.0740741
        k(    2) = (   0.0000000   0.0000000   0.5471240), wk =   0.1481481
        k(    3) = (   0.0000000   0.3849002   0.0000000), wk =   0.4444444
        k(    4) = (   0.0000000   0.3849002   0.5471240), wk =   0.8888889
        k(    5) = (   0.3333333   0.5773503   0.0000000), wk =   0.1481481
        k(    6) = (   0.3333333   0.5773503   0.5471240), wk =   0.2962963

                       cryst. coord.
        k(    1) = (   0.0000000   0.0000000   0.0000000), wk =   0.0740741
        k(    2) = (   0.0000000   0.0000000   0.3333333), wk =   0.1481481
        k(    3) = (   0.0000000   0.3333333   0.0000000), wk =   0.4444444
        k(    4) = (   0.0000000   0.3333333   0.3333333), wk =   0.8888889
        k(    5) = (   0.3333333   0.3333333   0.0000000), wk =   0.1481481
        k(    6) = (   0.3333333   0.3333333   0.3333333), wk =   0.2962963

     Check: negative core charge=   -0.000001

     Initial potential from superposition of free atoms

     starting charge     170.9877, renormalised to     174.0000
     Starting wfcs are  153 randomized atomic wfcs
     Checking if some PAW data can be deallocated...

     Self-consistent Calculation

     iteration #  1     ecut=    30.00 Ry     beta= 0.70
     Davidson diagonalization with overlap

     ethr =  1.00E-02,  avg # of iterations =  2.2

     total energy              =   -4588.91421009 Ry
     estimated scf accuracy    <       3.79543111 Ry

[...]

     total energy              =   -4591.76311950 Ry
     estimated scf accuracy    <       0.00001570 Ry

     iteration #  9     ecut=    30.00 Ry     beta= 0.70
     Davidson diagonalization with overlap

     ethr =  9.03E-09,  avg # of iterations =  3.8

     End of self-consistent calculation

          k = 0.0000 0.0000 0.0000 (  3831 PWs)   bands (ev):

   -78.8249 -78.8239 -78.8238 -41.8840 -41.8655 -41.8654 -41.8424 -41.8420
   -41.8419 -41.8145 -41.8141 -41.8140 -41.7597 -41.7552 -41.7550 -12.4538
   -12.4483 -12.4482 -12.4116 -12.3986 -12.3984 -12.3955 -12.3163 -12.3162
    -6.2216  -6.2038  -6.2038  -6.1507  -6.1507  -5.9806  -5.9806  -5.9708
    -5.9708  -5.9527  -5.9527  -5.9395  -5.9395  -5.9310  -5.9160   5.4402
     6.9871   7.4621   9.2299   9.4496   9.4497   9.4705   9.5903   9.5904
     9.6267   9.6267   9.6665   9.6666   9.6666   9.6708   9.6708   9.6722
     9.6753   9.6753   9.6758   9.6773   9.6860   9.6939   9.7034   9.7051
     9.7052   9.7111   9.7111   9.8412   9.8412   9.9449   9.9450  10.0146
    10.0146  10.0712  10.1855  10.1856  10.3949  11.0934  11.0935  11.2824
    11.8331  11.8332  13.7031  14.1106  14.4879  15.5723  15.5724  15.8204
    15.8204  16.1584

     occupation numbers
     1.0000   1.0000   1.0000   1.0000   1.0000   1.0000   1.0000   1.0000
     1.0000   1.0000   1.0000   1.0000   1.0000   1.0000   1.0000   1.0000
     1.0000   1.0000   1.0000   1.0000   1.0000   1.0000   1.0000   1.0000
     1.0000   1.0000   1.0000   1.0000   1.0000   1.0000   1.0000   1.0000
     1.0000   1.0000   1.0000   1.0000   1.0000   1.0000   1.0000   1.0000
     1.0000   1.0000   1.0000   1.0000   1.0000   1.0000   1.0000   1.0000
     1.0000   1.0000   1.0000   1.0000   1.0000   1.0000   1.0000   1.0000
     1.0000   1.0000   1.0000   1.0000   1.0000   1.0000   1.0000   1.0000
     1.0000   1.0000   1.0000   1.0000   1.0000   1.0000   1.0000   1.0000
     1.0000   1.0000   1.0000   1.0000   1.0000   1.0000   1.0000   1.0000
     1.0000   1.0000   1.0000   1.0000   1.0000   1.0000   1.0000   0.0000
     0.0000   0.0000

[...]

          k = 0.3333 0.5774 0.5471 (  3873 PWs)   bands (ev):

   -78.8250 -78.8239 -78.8238 -41.8881 -41.8683 -41.8682 -41.8438 -41.8429
   -41.8428 -41.8218 -41.8217 -41.8141 -41.7572 -41.7570 -41.7553 -12.4374
   -12.4326 -12.4325 -12.4194 -12.4192 -12.4097 -12.3718 -12.3717 -12.3288
    -6.2129  -6.2056  -6.2056  -6.1494  -6.1494  -5.9809  -5.9750  -5.9750
    -5.9693  -5.9511  -5.9477  -5.9477  -5.9429  -5.9166  -5.9166   6.8074
     7.0064   7.0064   8.9567   9.4257   9.4258   9.6316   9.6318   9.6318
     9.6489   9.6523   9.6523   9.6646   9.6647   9.6665   9.6749   9.6750
     9.6769   9.6792   9.6855   9.6855   9.6897   9.6897   9.6968   9.6970
     9.7117   9.7117   9.7519   9.7519   9.7633   9.8581  10.0050  10.0051
    10.1285  10.1906  10.1911  10.1912  10.2171  10.2171  11.4059  11.8196
    11.8196  12.6334  12.6334  12.9606  13.7527  13.7528  14.6815  16.1455
    16.1456  16.1714

     occupation numbers
     1.0000   1.0000   1.0000   1.0000   1.0000   1.0000   1.0000   1.0000
     1.0000   1.0000   1.0000   1.0000   1.0000   1.0000   1.0000   1.0000
     1.0000   1.0000   1.0000   1.0000   1.0000   1.0000   1.0000   1.0000
     1.0000   1.0000   1.0000   1.0000   1.0000   1.0000   1.0000   1.0000
     1.0000   1.0000   1.0000   1.0000   1.0000   1.0000   1.0000   1.0000
     1.0000   1.0000   1.0000   1.0000   1.0000   1.0000   1.0000   1.0000
     1.0000   1.0000   1.0000   1.0000   1.0000   1.0000   1.0000   1.0000
     1.0000   1.0000   1.0000   1.0000   1.0000   1.0000   1.0000   1.0000
     1.0000   1.0000   1.0000   1.0000   1.0000   1.0000   1.0000   1.0000
     1.0000   1.0000   1.0000   1.0000   1.0000   1.0000   1.0000   1.0000
     1.0000   1.0000   1.0000   1.0000   1.0000   1.0000   1.0000   0.0000
     0.0000   0.0000

     highest occupied, lowest unoccupied level (ev):    15.5724   14.9418

!    total energy              =   -4591.76312451 Ry
     estimated scf accuracy    <       0.00000016 Ry

     The total energy is the sum of the following terms:
     one-electron contribution =   -1790.40131682 Ry
     hartree contribution      =     875.39255950 Ry
     xc contribution           =    -348.17393478 Ry
     ewald contribution        =   -1856.01025768 Ry
     one-center paw contrib.   =   -1472.57017473 Ry
      -> PAW hartree energy AE =     980.68711773 Ry
      -> PAW hartree energy PS =    -843.74348364 Ry
      -> PAW xc energy AE      =   -1198.61874260 Ry
      -> PAW xc energy PS      =      79.96165868 Ry
      -> total E_H with PAW    =    1012.33619360 Ry
      -> total E_XC with PAW   =   -1466.83101869 Ry

     convergence has been achieved in   9 iterations

     Writing all to output data dir calculations_bands/myprefix.save/

     General routines

     Parallel routines

     PAW routines

   This run was terminated on:   5:53:28  23Jun2023

   JOB DONE.