     Program PWSCF v.7.0 starts on  7Jun2023 at  2:53:15

     K-points division:     npool     =       2
     R & G space division:  proc/nbgrp/npool/nimage =       4

     Reading input from espresso_1335.pwi
Warning: card &CELL ignored
Warning: card / ignored

     Current dimensions of program PWSCF are:
     Max number of different atomic species (ntypx) = 10
     Max number of k-points (npk) =  40000
     Max angular momentum in pseudopotentials (lmaxx) =  4
     file In.pbe-dn-rrkjus_psl.0.2.2.UPF: wavefunction(s)  5S renormalized
     Message from routine setup:
     using ibrav=0 with symmetry is DISCOURAGED, use correct ibrav instead

     Using Slab Decomposition

     bravais-lattice index     =            0
     lattice parameter (alat)  =      12.0998  a.u.
     unit-cell volume          =    1739.4807 (a.u.)^3
     number of atoms/cell      =            8
     number of atomic types    =            4
     number of electrons       =        88.00
     number of Kohn-Sham states=           64
     kinetic-energy cutoff     =      30.0000  Ry
     charge density cutoff     =     240.0000  Ry
     scf convergence threshold =      1.0E-06
     mixing beta               =       0.7000
     number of iterations used =            8  plain     mixing
     Exchange-correlation= SLA  PW   PBE  PBE
                           (   1   4   3   4   0   0   0)

     celldm(1)=  12.099777  celldm(2)=   0.000000  celldm(3)=   0.000000
     celldm(4)=   0.000000  celldm(5)=   0.000000  celldm(6)=   0.000000

     crystal axes: (cart. coord. in units of alat)
               a(1) = (   1.000000   0.000000   0.000000 )
               a(2) = (   0.000000   1.008459   0.000000 )
               a(3) = (   0.500000   0.504229   0.973709 )

     reciprocal axes: (cart. coord. in units 2 pi/alat)
               b(1) = (  1.000000  0.000000 -0.513500 )
               b(2) = (  0.000000  0.991612 -0.513500 )
               b(3) = (  0.000000  0.000000  1.027000 )

     PseudoPot. # 1 for In read from file:
     /home/pragov/projects/rrg-bengioy-ad/pragov/crystal_structure_design/SSSP/In.pbe-dn-rrkjus_psl.0.2.2.UPF
     MD5 check sum: 25e7c42c3b55b68f4bf926be2e7201a4
     Pseudo is Ultrasoft + core correction, Zval = 13.0
     Generated using "atomic" code by A. Dal Corso  v.5.0.99 svn rev. 10869
     Using radial grid of 1241 points,  6 beta functions with:
                l(1) =   0
                l(2) =   0
                l(3) =   1
                l(4) =   1
                l(5) =   2
                l(6) =   2
     Q(r) pseudized with 0 coefficients

     PseudoPot. # 2 for Ag read from file:
     /home/pragov/projects/rrg-bengioy-ad/pragov/crystal_structure_design/SSSP/Ag_ONCV_PBE-1.0.oncvpsp.upf
     MD5 check sum: 94f47bd0669c641108e45594df92fabc
     Pseudo is Norm-conserving, Zval = 19.0
     Generated using ONCVPSP code by D. R. Hamann
     Using radial grid of 1398 points,  6 beta functions with:
                l(1) =   0
                l(2) =   0
                l(3) =   1
                l(4) =   1
                l(5) =   2
                l(6) =   2

     PseudoPot. # 3 for Te read from file:
     /home/pragov/projects/rrg-bengioy-ad/pragov/crystal_structure_design/SSSP/Te_pbe_v1.uspp.F.UPF
     MD5 check sum: c319670d6894cc26e93307826a071b75
     Pseudo is Ultrasoft + core correction, Zval =  6.0
     Generated by new atomic code, or converted to UPF format
     Using radial grid of  891 points,  5 beta functions with:
                l(1) =   0
                l(2) =   0
                l(3) =   1
                l(4) =   1
                l(5) =   2
     Q(r) pseudized with  6 coefficients,  rinner =    1.800   1.800   1.800
                                                       1.800   1.800

     PseudoPot. # 4 for Se read from file:
     /home/pragov/projects/rrg-bengioy-ad/pragov/crystal_structure_design/SSSP/Se_pbe_v1.uspp.F.UPF
     MD5 check sum: 1b3568f3a8ae88f9a2a0ad0698632c85
     Pseudo is Ultrasoft + core correction, Zval =  6.0
     Generated by new atomic code, or converted to UPF format
     Using radial grid of  877 points,  6 beta functions with:
                l(1) =   0
                l(2) =   0
                l(3) =   1
                l(4) =   1
                l(5) =   2
                l(6) =   2
     Q(r) pseudized with  8 coefficients,  rinner =    1.300   1.300   1.300
                                                       1.300   1.300

     atomic species   valence    mass     pseudopotential
        In            13.00   114.81800     In( 1.00)
        Ag            19.00   107.86820     Ag( 1.00)
        Te             6.00   127.60000     Te( 1.00)
        Se             6.00    78.97100     Se( 1.00)

      2 Sym. Ops. (no inversion) found

                                    s                        frac. trans.

      isym =  1     identity

 cryst.   s( 1) = (     1          0          0      )
                  (     0          1          0      )
                  (     0          0          1      )

 cart.    s( 1) = (  1.0000000  0.0000000  0.0000000 )
                  (  0.0000000  1.0000000  0.0000000 )
                  (  0.0000000  0.0000000  1.0000000 )

      isym =  2     180 deg rotation - cart. axis [0,0,1]

 cryst.   s( 2) = (    -1          0          0      )
                  (     0         -1          0      )
                  (    -1         -1          1      )

 cart.    s( 2) = ( -1.0000000  0.0000000 -0.0000003 )
                  (  0.0000000 -1.0000000 -0.0000003 )
                  (  0.0000000  0.0000000  1.0000000 )

   Cartesian axes

     site n.     atom                  positions (alat units)
         1           In  tau(   1) = (   0.5000004   1.0084594   0.5039443  )
         2           In  tau(   2) = (   0.9999993   1.0084583   0.9566198  )
         3           Ag  tau(   3) = (   1.0000004   0.5042299   0.4990017  )
         4           Ag  tau(   4) = (   0.4999993   0.5042288   0.9615623  )
         5           Te  tau(   5) = (   0.2456970   0.2521147   0.2434273  )
         6           Te  tau(   6) = (   0.7543030   0.7563442   0.2434273  )
         7           Se  tau(   7) = (   0.7499999   1.2544653   0.7302820  )
         8           Se  tau(   8) = (   1.2499999   0.7624523   0.7302820  )

   Crystallographic axes

     site n.     atom                  positions (cryst. coord.)
         1           In  tau(   1) = (  0.2412250  0.7412250  0.5175510  )
         2           In  tau(   2) = (  0.5087750  0.5087750  0.9824490  )
         3           Ag  tau(   3) = (  0.7437630  0.2437630  0.5124750  )
         4           Ag  tau(   4) = (  0.0062370  0.0062370  0.9875250  )
         5           Te  tau(   5) = (  0.1206970  0.1250000  0.2500000  )
         6           Te  tau(   6) = (  0.6293030  0.6250000  0.2500000  )
         7           Se  tau(   7) = (  0.3750000  0.8689430  0.7500000  )
         8           Se  tau(   8) = (  0.8750000  0.3810570  0.7500000  )

     number of k points=    10
                       cart. coord. in units 2pi/alat
        k(    1) = (   0.0000000   0.0000000   0.0000000), wk =   0.0740741
        k(    2) = (   0.0000000   0.0000000   0.3423335), wk =   0.1481481
        k(    3) = (   0.0000000   0.3305373  -0.1711667), wk =   0.2962963
        k(    4) = (   0.0000000   0.3305373  -0.5135002), wk =   0.1481481
        k(    5) = (   0.3333333   0.0000000  -0.1711667), wk =   0.2962963
        k(    6) = (   0.3333333   0.0000000  -0.5135002), wk =   0.1481481
        k(    7) = (   0.3333333   0.3305373  -0.3423334), wk =   0.2962963
        k(    8) = (   0.3333333   0.3305373   0.0000001), wk =   0.1481481
        k(    9) = (  -0.3333333   0.3305373   0.3423335), wk =   0.2962963
        k(   10) = (  -0.3333333   0.3305373  -0.0000000), wk =   0.1481481

                       cryst. coord.
        k(    1) = (   0.0000000   0.0000000   0.0000000), wk =   0.0740741
        k(    2) = (   0.0000000   0.0000000   0.3333333), wk =   0.1481481
        k(    3) = (   0.0000000   0.3333333   0.0000000), wk =   0.2962963
        k(    4) = (   0.0000000   0.3333333  -0.3333333), wk =   0.1481481
        k(    5) = (   0.3333333   0.0000000  -0.0000000), wk =   0.2962963
        k(    6) = (   0.3333333   0.0000000  -0.3333333), wk =   0.1481481
        k(    7) = (   0.3333333   0.3333333   0.0000000), wk =   0.2962963
        k(    8) = (   0.3333333   0.3333333   0.3333333), wk =   0.1481481
        k(    9) = (  -0.3333333   0.3333333   0.3333333), wk =   0.2962963
        k(   10) = (  -0.3333333   0.3333333  -0.0000000), wk =   0.1481481

     Initial potential from superposition of free atoms

     starting charge      87.9914, renormalised to      88.0000
     Starting wfcs are   54 randomized atomic wfcs +   10 random wfcs

     Self-consistent Calculation

     iteration #  1     ecut=    30.00 Ry     beta= 0.70
     Davidson diagonalization with overlap

     ethr =  1.00E-02,  avg # of iterations =  5.9

     Threshold (ethr) on eigenvalues was too large:
     Diagonalizing with lowered threshold

     Davidson diagonalization with overlap

[...]

     total energy              =   -1004.07148730 Ry
     estimated scf accuracy    <       0.40962394 Ry

[...]

     total energy              =   -1004.24043512 Ry
     estimated scf accuracy    <       0.00000248 Ry

     iteration #  8     ecut=    30.00 Ry     beta= 0.70
     Davidson diagonalization with overlap

     ethr =  2.81E-09,  avg # of iterations =  3.4

     End of self-consistent calculation

          k = 0.0000 0.0000 0.0000 (  4837 PWs)   bands (ev):

   -86.4010 -86.4010 -49.4596 -49.4581 -49.4471 -49.4466 -49.4249 -49.4233
    -8.9410  -8.9095  -8.8401  -8.7816  -8.7764  -8.7557  -8.7169  -8.7108
    -8.7064  -8.6991  -6.9381  -6.4175  -5.0747  -4.6483  -0.2394   0.8646
     1.6651   1.7676   1.8037   1.8484   2.0010   2.0858   2.1934   2.2121
     2.3941   2.4636   2.6622   2.7301   2.9134   3.3968   3.6915   3.8779
     3.9808   5.6255   5.6450   5.6596   5.6917   7.9721   8.1443   9.6369
     9.6719   9.7587  10.0464  10.1309  10.2280  10.6334  11.7344  11.8575
    12.3645  12.6540  13.9423  14.2853  14.6518  14.6898  14.7241  14.9872

     occupation numbers
     1.0000   1.0000   1.0000   1.0000   1.0000   1.0000   1.0000   1.0000
     1.0000   1.0000   1.0000   1.0000   1.0000   1.0000   1.0000   1.0000
     1.0000   1.0000   1.0000   1.0000   1.0000   1.0000   1.0000   1.0000
     1.0000   1.0000   1.0000   1.0000   1.0000   1.0000   1.0000   1.0000
     1.0000   1.0000   1.0000   1.0000   1.0000   1.0000   1.0000   1.0000
     1.0000   1.0000   1.0000   1.0000   0.0000   0.0000   0.0000   0.0000
     0.0000   0.0000   0.0000   0.0000   0.0000   0.0000   0.0000   0.0000
     0.0000   0.0000   0.0000   0.0000   0.0000   0.0000   0.0000   0.0000

[...]

          k = 0.3333 0.3305 0.0000 (  4817 PWs)   bands (ev):

[...]

          k =-0.3333 0.3305 0.3423 (  4817 PWs)   bands (ev):

[...]

          k =-0.3333 0.3305-0.0000 (  4817 PWs)   bands (ev):

   -86.4010 -86.4010 -49.4575 -49.4562 -49.4474 -49.4471 -49.4226 -49.4214
    -8.9311  -8.9148  -8.8309  -8.7967  -8.7773  -8.7691  -8.7121  -8.7076
    -8.7072  -8.7016  -6.7428  -6.5450  -4.9911  -4.8556   0.0218   0.4651
     1.5876   1.7593   1.8018   1.8716   1.9187   2.0095   2.0455   2.1999
     2.2882   2.4339   2.5191   3.0419   3.2888   3.6376   3.8985   4.2804
     4.4990   4.5954   5.0158   5.4596   7.1349   7.4742   8.7263   8.8922
     9.8241  10.2087  10.2677  10.5615  10.7810  11.1291  11.5725  11.9496
    12.1765  12.6701  12.8630  13.1037  13.4482  13.6918  14.5191  14.8149

     occupation numbers
     1.0000   1.0000   1.0000   1.0000   1.0000   1.0000   1.0000   1.0000
     1.0000   1.0000   1.0000   1.0000   1.0000   1.0000   1.0000   1.0000
     1.0000   1.0000   1.0000   1.0000   1.0000   1.0000   1.0000   1.0000
     1.0000   1.0000   1.0000   1.0000   1.0000   1.0000   1.0000   1.0000
     1.0000   1.0000   1.0000   1.0000   1.0000   1.0000   1.0000   1.0000
     1.0000   1.0000   1.0000   1.0000   0.0000   0.0000   0.0000   0.0000
     0.0000   0.0000   0.0000   0.0000   0.0000   0.0000   0.0000   0.0000
     0.0000   0.0000   0.0000   0.0000   0.0000   0.0000   0.0000   0.0000

     highest occupied, lowest unoccupied level (ev):     5.6596    5.6917

!    total energy              =   -1004.24043590 Ry
     estimated scf accuracy    <       0.00000004 Ry

     The total energy is the sum of the following terms:
     one-electron contribution =    -595.93369676 Ry
     hartree contribution      =     332.12992456 Ry
     xc contribution           =    -237.61468990 Ry
     ewald contribution        =    -502.82197379 Ry

     convergence has been achieved in   8 iterations

     Writing all to output data dir calculations_bands/myprefix.save/

     General routines

     Parallel routines

   This run was terminated on:   2:53:31   7Jun2023

   JOB DONE.