     Program PWSCF v.7.0 starts on  6Jun2023 at 23:15:13

     K-points division:     npool     =       2
     R & G space division:  proc/nbgrp/npool/nimage =       4

     Reading input from espresso_803.pwi
Warning: card &CELL ignored
Warning: card / ignored

     Current dimensions of program PWSCF are:
     Max number of different atomic species (ntypx) = 10
     Max number of k-points (npk) =  40000
     Max angular momentum in pseudopotentials (lmaxx) =  4
     Message from routine setup:
     no reason to have ecutrho>4*ecutwfc

     Using Slab Decomposition

     bravais-lattice index     =            0
     lattice parameter (alat)  =      17.8955  a.u.
     unit-cell volume          =     450.3081 (a.u.)^3
     number of atoms/cell      =            4
     number of atomic types    =            3
     number of electrons       =        74.00
     number of Kohn-Sham states=           64
     kinetic-energy cutoff     =      30.0000  Ry
     charge density cutoff     =     240.0000  Ry
     scf convergence threshold =      1.0E-06
     mixing beta               =       0.7000
     number of iterations used =            8  plain     mixing
     Exchange-correlation= PBE
                           (   1   4   3   4   0   0   0)

     celldm(1)=  17.895469  celldm(2)=   0.000000  celldm(3)=   0.000000
     celldm(4)=   0.000000  celldm(5)=   0.000000  celldm(6)=   0.000000

     crystal axes: (cart. coord. in units of alat)
               a(1) = (   1.000000   0.000000   0.000000 )
               a(2) = (   0.953922   0.300055   0.000000 )
               a(3) = (   0.953922   0.146490   0.261866 )

     reciprocal axes: (cart. coord. in units 2 pi/alat)
               b(1) = (  1.000000 -3.179155 -1.864344 )
               b(2) = (  0.000000  3.332720 -1.864344 )
               b(3) = (  0.000000  0.000000  3.818744 )

     PseudoPot. # 1 for Ag read from file:
     /home/pragov/projects/rrg-bengioy-ad/pragov/crystal_structure_design/SSSP/Ag_ONCV_PBE-1.0.oncvpsp.upf
     MD5 check sum: 94f47bd0669c641108e45594df92fabc
     Pseudo is Norm-conserving, Zval = 19.0
     Generated using ONCVPSP code by D. R. Hamann
     Using radial grid of 1398 points,  6 beta functions with:
                l(1) =   0
                l(2) =   0
                l(3) =   1
                l(4) =   1
                l(5) =   2
                l(6) =   2

     PseudoPot. # 2 for Pd read from file:
     /home/pragov/projects/rrg-bengioy-ad/pragov/crystal_structure_design/SSSP/Pd_ONCV_PBE-1.0.oncvpsp.upf
     MD5 check sum: eb77f42b51d86fb18e25f68156a31cf1
     Pseudo is Norm-conserving, Zval = 18.0
     Generated using ONCVPSP code by D. R. Hamann
     Using radial grid of 1410 points,  6 beta functions with:
                l(1) =   0
                l(2) =   0
                l(3) =   1
                l(4) =   1
                l(5) =   2
                l(6) =   2

     PseudoPot. # 3 for Au read from file:
     /home/pragov/projects/rrg-bengioy-ad/pragov/crystal_structure_design/SSSP/Au_ONCV_PBE-1.0.oncvpsp.upf
     MD5 check sum: d14007822ba0e19f0206237467fc06c2
     Pseudo is Norm-conserving, Zval = 19.0
     Generated using ONCVPSP code by D. R. Hamann
     Using radial grid of 1278 points,  8 beta functions with:
                l(1) =   0
                l(2) =   0
                l(3) =   1
                l(4) =   1
                l(5) =   2
                l(6) =   2
                l(7) =   3
                l(8) =   3

     atomic species   valence    mass     pseudopotential
        Ag            19.00   107.86820     Ag( 1.00)
        Pd            18.00   106.42000     Pd( 1.00)
        Au            19.00   196.96657     Au( 1.00)

     No symmetry found

                                    s                        frac. trans.

      isym =  1     identity

 cryst.   s( 1) = (     1          0          0      )
                  (     0          1          0      )
                  (     0          0          1      )

 cart.    s( 1) = (  1.0000000 -0.0000000 -0.0000000 )
                  (  0.0000000  1.0000000 -0.0000000 )
                  (  0.0000000  0.0000000  1.0000000 )

   Cartesian axes

     site n.     atom                  positions (alat units)
         1           Ag  tau(   1) = (   2.9021181   0.4456655   0.2613506  )
         2           Pd  tau(   2) = (   1.4592403   0.2240891   0.1314121  )
         3           Pd  tau(   3) = (   0.7226224   0.1109699   0.0650758  )
         4           Au  tau(   4) = (   2.1856284   0.3356373   0.1968270  )

   Crystallographic axes

     site n.     atom                  positions (cryst. coord.)
         1           Ag  tau(   1) = (  0.9980310  0.9980310  0.9980310  )
         2           Pd  tau(   2) = (  0.5018290  0.5018290  0.5018290  )
         3           Pd  tau(   3) = (  0.2485080  0.2485080  0.2485080  )
         4           Au  tau(   4) = (  0.7516320  0.7516320  0.7516320  )

     number of k points=    14
                       cart. coord. in units 2pi/alat
        k(    1) = (   0.0000000   0.0000000   0.0000000), wk =   0.0740741
        k(    2) = (   0.0000000   0.0000000   1.2729147), wk =   0.1481481
        k(    3) = (   0.0000000   1.1109068  -0.6214481), wk =   0.1481481
        k(    4) = (   0.0000000   1.1109068   0.6514665), wk =   0.1481481
        k(    5) = (   0.0000000   1.1109068  -1.8943628), wk =   0.1481481
        k(    6) = (   0.3333333  -1.0597183  -0.6214481), wk =   0.1481481
        k(    7) = (   0.3333333  -1.0597183   0.6514665), wk =   0.1481481
        k(    8) = (   0.3333333  -1.0597183  -1.8943628), wk =   0.1481481
        k(    9) = (   0.3333333   0.0511885  -1.2428963), wk =   0.1481481
        k(   10) = (   0.3333333   0.0511885   0.0300184), wk =   0.1481481
        k(   11) = (   0.3333333   0.0511885  -2.5158110), wk =   0.1481481
        k(   12) = (   0.3333333  -2.1706251  -0.0000000), wk =   0.1481481
        k(   13) = (   0.3333333  -2.1706251   1.2729147), wk =   0.1481481
        k(   14) = (   0.3333333  -2.1706251  -1.2729147), wk =   0.1481481

                       cryst. coord.
        k(    1) = (   0.0000000   0.0000000   0.0000000), wk =   0.0740741
        k(    2) = (   0.0000000   0.0000000   0.3333333), wk =   0.1481481
        k(    3) = (   0.0000000   0.3333333   0.0000000), wk =   0.1481481
        k(    4) = (   0.0000000   0.3333333   0.3333333), wk =   0.1481481
        k(    5) = (   0.0000000   0.3333333  -0.3333333), wk =   0.1481481
        k(    6) = (   0.3333333   0.0000000  -0.0000000), wk =   0.1481481
        k(    7) = (   0.3333333   0.0000000   0.3333333), wk =   0.1481481
        k(    8) = (   0.3333333   0.0000000  -0.3333333), wk =   0.1481481
        k(    9) = (   0.3333333   0.3333333  -0.0000000), wk =   0.1481481
        k(   10) = (   0.3333333   0.3333333   0.3333333), wk =   0.1481481
        k(   11) = (   0.3333333   0.3333333  -0.3333333), wk =   0.1481481
        k(   12) = (   0.3333333  -0.3333333   0.0000000), wk =   0.1481481
        k(   13) = (   0.3333333  -0.3333333   0.3333333), wk =   0.1481481
        k(   14) = (   0.3333333  -0.3333333  -0.3333333), wk =   0.1481481

     Initial potential from superposition of free atoms

     starting charge      73.9989, renormalised to      74.0000
     Starting wfcs are   40 randomized atomic wfcs +   24 random wfcs

     Self-consistent Calculation

     iteration #  1     ecut=    30.00 Ry     beta= 0.70
     Davidson diagonalization with overlap

     ethr =  1.00E-02,  avg # of iterations =  6.4

     total energy              =   -1065.11597698 Ry
     estimated scf accuracy    <       2.77643580 Ry

[...]

     total energy              =   -1067.46937785 Ry
     estimated scf accuracy    <       0.00000165 Ry

     iteration # 16     ecut=    30.00 Ry     beta= 0.70
     Davidson diagonalization with overlap

     ethr =  2.23E-09,  avg # of iterations =  1.0

     End of self-consistent calculation

          k = 0.0000 0.0000 0.0000 (  1261 PWs)   bands (ev):

   -87.3316 -74.5696 -67.2125 -67.1599 -38.5046 -38.1828 -38.1828 -37.6618
   -37.5022 -37.5022 -32.8401 -32.6495 -32.3779 -32.3779 -32.3504 -32.3504
    10.4766  12.0682  12.5734  13.0660  13.9823  13.9823  14.1317  14.5554
    14.5554  14.6625  15.0547  15.0547  15.2430  15.4524  15.4524  15.6614
    15.6614  16.2388  16.2388  16.5441  16.5441  17.3934  17.3934  18.6805
    23.3270  30.8484  31.1991  34.0590  34.7829  35.5357  35.9609  37.0335
    37.0336  38.5143  38.5143  39.1041  39.2712  39.2712  39.5940  39.5940
    41.8439  42.0265  42.2692  42.2692  43.1833  43.1833  43.2586  43.2586

     occupation numbers
     1.0000   1.0000   1.0000   1.0000   1.0000   1.0000   1.0000   1.0000
     1.0000   1.0000   1.0000   1.0000   1.0000   1.0000   1.0000   1.0000
     1.0000   1.0000   1.0000   1.0000   1.0000   1.0000   1.0000   1.0000
     1.0000   1.0000   1.0000   1.0000   1.0000   1.0000   1.0000   1.0000
     1.0000   1.0000   1.0000   1.0000   1.0000   0.0000   0.0000   0.0000
     0.0000   0.0000   0.0000   0.0000   0.0000   0.0000   0.0000   0.0000
     0.0000   0.0000   0.0000   0.0000   0.0000   0.0000   0.0000   0.0000
     0.0000   0.0000   0.0000   0.0000   0.0000   0.0000   0.0000   0.0000

[...]

          k = 0.3333-2.1706-1.2729 (  1244 PWs)   bands (ev):

   -87.3255 -74.5609 -67.1972 -67.1477 -38.4874 -38.3038 -38.2125 -37.6488
   -37.5883 -37.5226 -32.8037 -32.6654 -32.5011 -32.4790 -32.4188 -32.3751
    12.4083  12.7555  13.0267  13.3465  13.5872  13.9362  14.1880  14.4381
    14.6987  15.0245  15.2685  15.5464  15.5474  15.7564  16.0253  16.0850
    16.5955  16.7091  17.1024  17.2897  17.4085  17.5168  20.6217  21.0481
    25.8369  27.1377  27.7280  28.9330  29.4695  31.4041  31.8499  33.3240
    33.9562  34.9409  35.7370  35.9725  36.7191  37.1857  38.4375  38.7709
    39.0785  41.0536  42.6535  42.7668  43.3606  43.8053  45.1476  46.7103

     occupation numbers
     1.0000   1.0000   1.0000   1.0000   1.0000   1.0000   1.0000   1.0000
     1.0000   1.0000   1.0000   1.0000   1.0000   1.0000   1.0000   1.0000
     1.0000   1.0000   1.0000   1.0000   1.0000   1.0000   1.0000   1.0000
     1.0000   1.0000   1.0000   1.0000   1.0000   1.0000   1.0000   1.0000
     1.0000   1.0000   1.0000   1.0000   1.0000   0.0000   0.0000   0.0000
     0.0000   0.0000   0.0000   0.0000   0.0000   0.0000   0.0000   0.0000
     0.0000   0.0000   0.0000   0.0000   0.0000   0.0000   0.0000   0.0000
     0.0000   0.0000   0.0000   0.0000   0.0000   0.0000   0.0000   0.0000

     highest occupied, lowest unoccupied level (ev):    21.8563   17.3129

!    total energy              =   -1067.46937782 Ry
     estimated scf accuracy    <       0.00000015 Ry

     The total energy is the sum of the following terms:
     one-electron contribution =    -367.20479275 Ry
     hartree contribution      =     220.44897540 Ry
     xc contribution           =    -101.73033402 Ry
     ewald contribution        =    -818.98322645 Ry

     convergence has been achieved in  16 iterations

     Writing all to output data dir calculations_bands/myprefix.save/

     General routines

     Parallel routines

   This run was terminated on:  23:15:34   6Jun2023

   JOB DONE.