     Program PWSCF v.7.0 starts on 23Jun2023 at  4:50:35

     K-points division:     npool     =       2
     R & G space division:  proc/nbgrp/npool/nimage =       4

     Reading input from espresso_1204.pwi
Warning: card &CELL ignored
Warning: card / ignored

     Current dimensions of program PWSCF are:
     Max number of different atomic species (ntypx) = 10
     Max number of k-points (npk) =  40000
     Max angular momentum in pseudopotentials (lmaxx) =  4
     Message from routine setup:
     using ibrav=0 with symmetry is DISCOURAGED, use correct ibrav instead

     Using Slab Decomposition

     bravais-lattice index     =            0
     lattice parameter (alat)  =      10.0015  a.u.
     unit-cell volume          =    1298.4080 (a.u.)^3
     number of atoms/cell      =           12
     number of atomic types    =            3
     number of electrons       =       180.00
     number of Kohn-Sham states=           90
     kinetic-energy cutoff     =      30.0000  Ry
     charge density cutoff     =     240.0000  Ry
     scf convergence threshold =      1.0E-06
     mixing beta               =       0.7000
     number of iterations used =            8  plain     mixing
     Exchange-correlation=  SLA  PW   PBX  PBC
                           (   1   4   3   4   0   0   0)

     celldm(1)=  10.001514  celldm(2)=   0.000000  celldm(3)=   0.000000
     celldm(4)=   0.000000  celldm(5)=   0.000000  celldm(6)=   0.000000

     crystal axes: (cart. coord. in units of alat)
               a(1) = (   1.000000   0.000000   0.000000 )
               a(2) = (  -0.500000   0.866025   0.000000 )
               a(3) = (   0.000000   0.000000   1.498591 )

     reciprocal axes: (cart. coord. in units 2 pi/alat)
               b(1) = (  1.000000  0.577350  0.000000 )
               b(2) = (  0.000000  1.154700  0.000000 )
               b(3) = (  0.000000  0.000000  0.667293 )

     PseudoPot. # 1 for Lu read from file:
     /home/pragov/projects/rrg-bengioy-ad/pragov/crystal_structure_design/SSSP/Lu.GGA-PBE-paw-v1.0.UPF
     MD5 check sum: 9ceca61ee0c17e9380a83635bfffa61d
     Pseudo is Projector augmented-wave + core cor, Zval = 25.0
     Generated using ATOMPAW code
     Shape of augmentation charge: BESSEL
     Using radial grid of 1118 points,  8 beta functions with:
                l(1) =   0
                l(2) =   0
                l(3) =   1
                l(4) =   1
                l(5) =   2
                l(6) =   2
                l(7) =   3
                l(8) =   3
     Q(r) pseudized with 0 coefficients

     PseudoPot. # 2 for B  read from file:
     /home/pragov/projects/rrg-bengioy-ad/pragov/crystal_structure_design/SSSP/b_pbe_v1.4.uspp.F.UPF
     MD5 check sum: cc6de2960df11db49a60e589f9ebb39b
     Pseudo is Ultrasoft + core correction, Zval =  3.0
     Generated by new atomic code, or converted to UPF format
     Using radial grid of  781 points,  4 beta functions with:
                l(1) =   0
                l(2) =   0
                l(3) =   1
                l(4) =   1
     Q(r) pseudized with  8 coefficients,  rinner =    1.100   1.100   1.100

     PseudoPot. # 3 for Pt read from file:
     /home/pragov/projects/rrg-bengioy-ad/pragov/crystal_structure_design/SSSP/pt_pbe_v1.4.uspp.F.UPF
     MD5 check sum: f09d6de1a584b5a045c4fc126da2d0c4
     Pseudo is Ultrasoft + core correction, Zval = 16.0
     Generated by new atomic code, or converted to UPF format
     Using radial grid of  985 points,  6 beta functions with:
                l(1) =   0
                l(2) =   0
                l(3) =   1
                l(4) =   1
                l(5) =   2
                l(6) =   2
     Q(r) pseudized with  8 coefficients,  rinner =    1.300   1.300   1.300
                                                       1.300   1.300

     atomic species   valence    mass     pseudopotential
        Lu            25.00   174.96680     Lu( 1.00)
        B              3.00    10.81000     B ( 1.00)
        Pt            16.00   195.08400     Pt( 1.00)

     12 Sym. Ops. (no inversion) found ( 8 have fractional translation)

                                    s                        frac. trans.

      isym =  1     identity

 cryst.   s( 1) = (     1          0          0      )
                  (     0          1          0      )
                  (     0          0          1      )

 cart.    s( 1) = (  1.0000000 -0.0000000  0.0000000 )
                  (  0.0000000  1.0000000  0.0000000 )
                  (  0.0000000  0.0000000  1.0000000 )

      isym =  2     180 deg rotation - cart. axis [0,0,1]

[...]

      isym =  4     180 deg rotation - cart. axis [1,0,0]

 cryst.   s( 4) = (     1          0          0      )
                  (    -1         -1          0      )
                  (     0          0         -1      )

 cart.    s( 4) = (  1.0000000 -0.0000002  0.0000000 )
                  (  0.0000000 -1.0000000  0.0000000 )
                  (  0.0000000  0.0000000 -1.0000000 )

      isym =  5      60 deg rotation - cryst. axis [0,0,1]

 cryst.   s( 5) = (     1          1          0      )    f =( -0.0000000 )
                  (    -1          0          0      )       ( -0.0000000 )
                  (     0          0          1      )       ( -0.3333330 )

 cart.    s( 5) = (  0.5000001 -0.8660254  0.0000000 )    f =( -0.0000000 )
                  (  0.8660255  0.4999999  0.0000000 )       ( -0.0000000 )
                  (  0.0000000  0.0000000  1.0000000 )       ( -0.4995300 )

[...]

 cryst.   s( 9) = (     0         -1          0      )    f =( -0.0000000 )
                  (    -1          0          0      )       ( -0.0000000 )
                  (     0          0         -1      )       (  0.3333340 )

 cart.    s( 9) = (  0.4999999 -0.8660255  0.0000000 )    f =( -0.0000000 )
                  ( -0.8660255 -0.4999999  0.0000000 )       ( -0.0000000 )
                  (  0.0000000  0.0000000 -1.0000000 )       (  0.4995315 )

[...]

 cryst.   s(10) = (     1          1          0      )    f =( -0.0000000 )
                  (     0         -1          0      )       ( -0.0000000 )
                  (     0          0         -1      )       ( -0.3333330 )

 cart.    s(10) = (  0.5000001  0.8660253  0.0000000 )    f =( -0.0000000 )
                  (  0.8660255 -0.5000001  0.0000000 )       ( -0.0000000 )
                  (  0.0000000  0.0000000 -1.0000000 )       ( -0.4995300 )

[...]

      isym = 12     180 deg rotation - cryst. axis [1,1,0]

 cryst.   s(12) = (     0          1          0      )    f =(  0.0000000 )
                  (     1          0          0      )       ( -0.0000000 )
                  (     0          0         -1      )       (  0.3333340 )

 cart.    s(12) = ( -0.4999999  0.8660255  0.0000000 )    f =(  0.0000000 )
                  (  0.8660255  0.4999999  0.0000000 )       ( -0.0000000 )
                  (  0.0000000  0.0000000 -1.0000000 )       (  0.4995315 )

   Cartesian axes

     site n.     atom                  positions (alat units)
         1           Lu  tau(   1) = (   0.2500000   0.4330127   1.2488256  )
         2           Lu  tau(   2) = (   0.5000000   0.0000000   0.7492957  )
         3           Lu  tau(   3) = (  -0.2500000   0.4330127   0.2497657  )
         4           B   tau(   4) = (   0.2500000   0.4330127   0.4995300  )
         5           B   tau(   5) = (   0.5000000   0.0000000   0.0000000  )
         6           B   tau(   6) = (  -0.2500000   0.4330127   0.9990614  )
         7           Pt  tau(   7) = (  -0.2724694   0.7346607   1.2488256  )
         8           Pt  tau(   8) = (   0.0000000   0.2627296   0.7492957  )
         9           Pt  tau(   9) = (   0.2724696   0.7346607   0.2497657  )
        10           Pt  tau(  10) = (   0.7724695   0.1313648   1.2488256  )
        11           Pt  tau(  11) = (   0.5000001   0.6032958   0.7492957  )
        12           Pt  tau(  12) = (   0.2275305   0.1313648   0.2497657  )

   Crystallographic axes

     site n.     atom                  positions (cryst. coord.)
         1           Lu  tau(   1) = (  0.5000000  0.5000000  0.8333330  )
         2           Lu  tau(   2) = (  0.5000000  0.0000000  0.5000000  )
         3           Lu  tau(   3) = (  0.0000000  0.5000000  0.1666670  )
         4           B   tau(   4) = (  0.5000000  0.5000000  0.3333330  )
         5           B   tau(   5) = (  0.5000000  0.0000000  0.0000000  )
         6           B   tau(   6) = (  0.0000000  0.5000000  0.6666670  )
         7           Pt  tau(   7) = (  0.1516870  0.8483130  0.8333330  )
         8           Pt  tau(   8) = (  0.1516870  0.3033740  0.5000000  )
         9           Pt  tau(   9) = (  0.6966260  0.8483130  0.1666670  )
        10           Pt  tau(  10) = (  0.8483130  0.1516870  0.8333330  )
        11           Pt  tau(  11) = (  0.8483130  0.6966260  0.5000000  )
        12           Pt  tau(  12) = (  0.3033740  0.1516870  0.1666670  )

     number of k points=     6
                       cart. coord. in units 2pi/alat
        k(    1) = (   0.0000000   0.0000000   0.0000000), wk =   0.0740741
        k(    2) = (   0.0000000   0.0000000   0.2224311), wk =   0.1481481
        k(    3) = (   0.0000000   0.3849002   0.0000000), wk =   0.4444444
        k(    4) = (   0.0000000   0.3849002   0.2224311), wk =   0.8888889
        k(    5) = (   0.3333333   0.5773502   0.0000000), wk =   0.1481481
        k(    6) = (   0.3333333   0.5773502   0.2224311), wk =   0.2962963

                       cryst. coord.
        k(    1) = (   0.0000000   0.0000000   0.0000000), wk =   0.0740741
        k(    2) = (   0.0000000   0.0000000   0.3333333), wk =   0.1481481
        k(    3) = (   0.0000000   0.3333333   0.0000000), wk =   0.4444444
        k(    4) = (   0.0000000   0.3333333   0.3333333), wk =   0.8888889
        k(    5) = (   0.3333333   0.3333333   0.0000000), wk =   0.1481481
        k(    6) = (   0.3333333   0.3333333   0.3333333), wk =   0.2962963

     Initial potential from superposition of free atoms

     starting charge     176.9878, renormalised to     180.0000

     negative rho (up, down):  1.118E+00 0.000E+00
     Starting wfcs are  180 randomized atomic wfcs
     Checking if some PAW data can be deallocated...

     Self-consistent Calculation

     iteration #  1     ecut=    30.00 Ry     beta= 0.70
     Davidson diagonalization with overlap

     ethr =  1.00E-02,  avg # of iterations =  2.0

     negative rho (up, down):  1.013E+00 0.000E+00

     total energy              =   -4519.69198587 Ry
     estimated scf accuracy    <       9.07583238 Ry

[...]

     total energy              =   -4524.64702014 Ry
     estimated scf accuracy    <       0.00000223 Ry

     iteration # 10     ecut=    30.00 Ry     beta= 0.70
     Davidson diagonalization with overlap

     ethr =  1.24E-09,  avg # of iterations =  6.2

     negative rho (up, down):  1.042E+00 0.000E+00

     End of self-consistent calculation

          k = 0.0000 0.0000 0.0000 (  3561 PWs)   bands (ev):

   -37.9225 -37.9182 -37.9179 -35.0457 -35.0404 -35.0401 -34.9693 -34.9689
   -34.9614 -34.8181 -34.8065 -34.8062 -34.6810 -34.6806 -34.6766 -34.6330
   -34.6326 -34.6282 -34.6156 -34.6152 -34.6104  -8.6364  -8.6340  -8.6337
    -8.5824  -8.5823  -8.5489  -8.5481  -8.5481  -8.5282   7.4986   9.5002
     9.5005  11.6440  11.6445  11.8617  11.8617  12.3396  13.1394  13.1396
    13.1801  13.3049  13.3052  13.3165  13.4928  13.4930  13.5005  13.5007
    13.5021  13.5022  13.5036  13.5039  13.5114  13.5289  13.5291  13.5304
    13.5357  13.5360  13.5422  13.5426  13.5427  13.5481  13.5687  13.8242
    13.8244  14.1042  14.1408  14.1553  14.1554  14.4512  14.5658  14.5680
    14.5682  14.8052  14.8054  14.9094  14.9095  15.1799  15.2885  15.6492
    15.6493  15.9446  15.9448  16.6920  16.8828  17.5631  17.5632  17.7187
    17.9900  18.3698

     occupation numbers
     1.0000   1.0000   1.0000   1.0000   1.0000   1.0000   1.0000   1.0000
     1.0000   1.0000   1.0000   1.0000   1.0000   1.0000   1.0000   1.0000
     1.0000   1.0000   1.0000   1.0000   1.0000   1.0000   1.0000   1.0000
     1.0000   1.0000   1.0000   1.0000   1.0000   1.0000   1.0000   1.0000
     1.0000   1.0000   1.0000   1.0000   1.0000   1.0000   1.0000   1.0000
     1.0000   1.0000   1.0000   1.0000   1.0000   1.0000   1.0000   1.0000
     1.0000   1.0000   1.0000   1.0000   1.0000   1.0000   1.0000   1.0000
     1.0000   1.0000   1.0000   1.0000   1.0000   1.0000   1.0000   1.0000
     1.0000   1.0000   1.0000   1.0000   1.0000   1.0000   1.0000   1.0000
     1.0000   1.0000   1.0000   1.0000   1.0000   1.0000   1.0000   1.0000
     1.0000   1.0000   1.0000   1.0000   1.0000   1.0000   1.0000   1.0000
     1.0000   1.0000

[...]

          k = 0.3333 0.5774 0.2224 (  3600 PWs)   bands (ev):

   -37.9221 -37.9198 -37.9187 -35.0511 -35.0465 -35.0165 -34.9924 -34.9610
   -34.9601 -34.8054 -34.8013 -34.7939 -34.6940 -34.6897 -34.6872 -34.6296
   -34.6279 -34.6264 -34.6172 -34.6145 -34.6132  -8.6506  -8.6496  -8.6227
    -8.5903  -8.5722  -8.5498  -8.5448  -8.5417  -8.5376   8.5767   9.2934
     9.2948  11.5569  11.6270  12.1369  12.2013  12.4873  12.5505  12.7219
    12.9524  13.1298  13.1963  13.3798  13.3856  13.4762  13.4897  13.4902
    13.4944  13.5039  13.5084  13.5112  13.5137  13.5168  13.5238  13.5241
    13.5270  13.5339  13.5391  13.5462  13.5464  13.5656  13.5724  13.5816
    13.6082  13.8945  14.0113  14.0548  14.1126  14.2903  14.3319  14.8097
    14.8750  14.9107  14.9897  15.1857  15.2504  15.3664  15.5105  15.7815
    15.7913  15.9271  16.0600  16.1029  16.2227  16.3606  16.3938  16.6965
    17.5537  17.6548

     occupation numbers
     1.0000   1.0000   1.0000   1.0000   1.0000   1.0000   1.0000   1.0000
     1.0000   1.0000   1.0000   1.0000   1.0000   1.0000   1.0000   1.0000
     1.0000   1.0000   1.0000   1.0000   1.0000   1.0000   1.0000   1.0000
     1.0000   1.0000   1.0000   1.0000   1.0000   1.0000   1.0000   1.0000
     1.0000   1.0000   1.0000   1.0000   1.0000   1.0000   1.0000   1.0000
     1.0000   1.0000   1.0000   1.0000   1.0000   1.0000   1.0000   1.0000
     1.0000   1.0000   1.0000   1.0000   1.0000   1.0000   1.0000   1.0000
     1.0000   1.0000   1.0000   1.0000   1.0000   1.0000   1.0000   1.0000
     1.0000   1.0000   1.0000   1.0000   1.0000   1.0000   1.0000   1.0000
     1.0000   1.0000   1.0000   1.0000   1.0000   1.0000   1.0000   1.0000
     1.0000   1.0000   1.0000   1.0000   1.0000   1.0000   1.0000   1.0000
     1.0000   1.0000

     highest occupied level (ev):    18.3698

!    total energy              =   -4524.64702055 Ry
     estimated scf accuracy    <       0.00000013 Ry

     The total energy is the sum of the following terms:
     one-electron contribution =   -1389.23811636 Ry
     hartree contribution      =     706.30519054 Ry
     xc contribution           =    -474.68265593 Ry
     ewald contribution        =   -1894.40432798 Ry
     one-center paw contrib.   =   -1472.62711084 Ry
      -> PAW hartree energy AE =     980.14554032 Ry
      -> PAW hartree energy PS =    -843.23954832 Ry
      -> PAW xc energy AE      =   -1198.60631107 Ry
      -> PAW xc energy PS      =      79.94891184 Ry
      -> total E_H with PAW    =     843.21118255 Ry
      -> total E_XC with PAW   =   -1593.34005515 Ry

     convergence has been achieved in  10 iterations

     Writing all to output data dir calculations_bands/myprefix.save/

     General routines

     Parallel routines

     PAW routines

   This run was terminated on:   4:50:56  23Jun2023

   JOB DONE.