     Program PWSCF v.7.0 starts on  6Jun2023 at  6:47:15

     K-points division:     npool     =       2
     R & G space division:  proc/nbgrp/npool/nimage =       4

     Reading input from espresso_13849.pwi
Warning: card &CELL ignored
Warning: card / ignored

     Current dimensions of program PWSCF are:
     Max number of different atomic species (ntypx) = 10
     Max number of k-points (npk) =  40000
     Max angular momentum in pseudopotentials (lmaxx) =  4
     Message from routine setup:
     using ibrav=0 with symmetry is DISCOURAGED, use correct ibrav instead

     Using Slab Decomposition

     bravais-lattice index     =            0
     lattice parameter (alat)  =      10.3053  a.u.
     unit-cell volume          =     482.0253 (a.u.)^3
     number of atoms/cell      =            5
     number of atomic types    =            3
     number of electrons       =        64.00
     number of Kohn-Sham states=           64
     kinetic-energy cutoff     =      30.0000  Ry
     charge density cutoff     =     240.0000  Ry
     scf convergence threshold =      1.0E-06
     mixing beta               =       0.7000
     number of iterations used =            8  plain     mixing
     Exchange-correlation= PBE
                           (   1   4   3   4   0   0   0)

     celldm(1)=  10.305309  celldm(2)=   0.000000  celldm(3)=   0.000000
     celldm(4)=   0.000000  celldm(5)=   0.000000  celldm(6)=   0.000000

     crystal axes: (cart. coord. in units of alat)
               a(1) = (   1.000000   0.000000   0.000000 )
               a(2) = (   0.489662   0.871912   0.000000 )
               a(3) = (  -0.744831  -0.435956   0.505143 )

     reciprocal axes: (cart. coord. in units 2 pi/alat)
               b(1) = (  1.000000 -0.561596  0.989820 )
               b(2) = (  0.000000  1.146904  0.989820 )
               b(3) = (  0.000000  0.000000  1.979639 )

     PseudoPot. # 1 for Gd read from file:
     /home/pragov/projects/rrg-bengioy-ad/pragov/crystal_structure_design/SSSP/Gd.GGA-PBE-paw-v1.0.UPF
     MD5 check sum: 3e8e0d208da550914ae52eaf991d13de
     Pseudo is Projector augmented-wave + core cor, Zval = 18.0
     Generated using ATOMPAW code
     Shape of augmentation charge: BESSEL
     Using radial grid of 1110 points,  8 beta functions with:
                l(1) =   0
                l(2) =   0
                l(3) =   1
                l(4) =   1
                l(5) =   2
                l(6) =   2
                l(7) =   3
                l(8) =   3
     Q(r) pseudized with 0 coefficients

     PseudoPot. # 2 for Ni read from file:
     /home/pragov/projects/rrg-bengioy-ad/pragov/crystal_structure_design/SSSP/ni_pbe_v1.4.uspp.F.UPF
     MD5 check sum: 1ee80287db30b12d2bc1f57a5b5d6409
     Pseudo is Ultrasoft + core correction, Zval = 18.0
     Generated by new atomic code, or converted to UPF format
     Using radial grid of  865 points,  6 beta functions with:
                l(1) =   0
                l(2) =   0
                l(3) =   1
                l(4) =   1
                l(5) =   2
                l(6) =   2
     Q(r) pseudized with 10 coefficients,  rinner =    0.980   0.980   0.980
                                                       0.980   0.980

     PseudoPot. # 3 for P  read from file:
     /home/pragov/projects/rrg-bengioy-ad/pragov/crystal_structure_design/SSSP/P.pbe-n-rrkjus_psl.1.0.0.UPF
     MD5 check sum: 8b930f418f0a4573dca56cd030ffe088
     Pseudo is Ultrasoft + core correction, Zval =  5.0
     Generated using "atomic" code by A. Dal Corso  v.5.1
     Using radial grid of 1147 points,  6 beta functions with:
                l(1) =   0
                l(2) =   0
                l(3) =   1
                l(4) =   1
                l(5) =   2
                l(6) =   2
     Q(r) pseudized with 0 coefficients

     atomic species   valence    mass     pseudopotential
        Gd            18.00   157.25000     Gd( 1.00)
        Ni            18.00    58.69340     Ni( 1.00)
        P              5.00    30.97376     P ( 1.00)

      4 Sym. Ops., with inversion, found

                                    s                        frac. trans.

      isym =  1     identity

 cryst.   s( 1) = (     1          0          0      )
                  (     0          1          0      )
                  (     0          0          1      )

 cart.    s( 1) = (  1.0000000  0.0000000  0.0000000 )
                  (  0.0000000  1.0000000 -0.0000000 )
                  (  0.0000000  0.0000000  1.0000000 )

      isym =  2     180 deg rotation - cart. axis [0,0,1]

[...]

      isym =  3     inversion

[...]

      isym =  4     inv. 180 deg rotation - cart. axis [0,0,1]

 cryst.   s( 4) = (     1          0          0      )
                  (     0          1          0      )
                  (    -1         -1         -1      )

 cart.    s( 4) = (  1.0000000  0.0000000  0.0000000 )
                  (  0.0000000  1.0000000  0.0000000 )
                  (  0.0000000  0.0000000 -1.0000000 )

   Cartesian axes

     site n.     atom                  positions (alat units)
         1           Gd  tau(   1) = (   0.0000000   0.0000000   0.0000000  )
         2           Ni  tau(   2) = (   0.2448310   0.4359561   0.2525713  )
         3           Ni  tau(   3) = (   0.5000000  -0.0000000   0.2525713  )
         4           P   tau(   4) = (   0.9294374   0.5440079   0.0000000  )
         5           P   tau(   5) = (   0.5602247   0.3279044   0.0000000  )

   Crystallographic axes

     site n.     atom                  positions (cryst. coord.)
         1           Gd  tau(   1) = (  0.0000000  0.0000000  0.0000000  )
         2           Ni  tau(   2) = (  0.2500000  0.7500000  0.5000000  )
         3           Ni  tau(   3) = (  0.7500000  0.2500000  0.5000000  )
         4           P   tau(   4) = (  0.6239250  0.6239250  0.0000000  )
         5           P   tau(   5) = (  0.3760750  0.3760750  0.0000000  )

     number of k points=    10
                       cart. coord. in units 2pi/alat
        k(    1) = (   0.0000000   0.0000000   0.0000000), wk =   0.0740741
        k(    2) = (   0.0000000   0.0000000   0.6598798), wk =   0.1481481
        k(    3) = (   0.0000000   0.3823015   0.3299399), wk =   0.2962963
        k(    4) = (   0.0000000   0.3823015   0.9898197), wk =   0.1481481
        k(    5) = (   0.3333333  -0.1871985   0.3299399), wk =   0.2962963
        k(    6) = (   0.3333333  -0.1871985   0.9898197), wk =   0.1481481
        k(    7) = (   0.3333333   0.1951029   0.6598798), wk =   0.2962963
        k(    8) = (   0.3333333   0.1951029   0.0000000), wk =   0.1481481
        k(    9) = (   0.3333333  -0.5695000  -0.0000000), wk =   0.1481481
        k(   10) = (   0.3333333  -0.5695000   0.6598798), wk =   0.2962963

                       cryst. coord.
        k(    1) = (   0.0000000   0.0000000   0.0000000), wk =   0.0740741
        k(    2) = (   0.0000000   0.0000000   0.3333333), wk =   0.1481481
        k(    3) = (   0.0000000   0.3333333  -0.0000000), wk =   0.2962963
        k(    4) = (   0.0000000   0.3333333   0.3333333), wk =   0.1481481
        k(    5) = (   0.3333333  -0.0000000   0.0000000), wk =   0.2962963
        k(    6) = (   0.3333333  -0.0000000   0.3333333), wk =   0.1481481
        k(    7) = (   0.3333333   0.3333333  -0.0000000), wk =   0.2962963
        k(    8) = (   0.3333333   0.3333333  -0.3333333), wk =   0.1481481
        k(    9) = (   0.3333333  -0.3333333   0.0000000), wk =   0.1481481
        k(   10) = (   0.3333333  -0.3333333   0.3333333), wk =   0.2962963

     Check: negative core charge=   -0.000005

     Initial potential from superposition of free atoms

     starting charge      59.9945, renormalised to      64.0000
     Starting wfcs are   66 randomized atomic wfcs
     Checking if some PAW data can be deallocated...

     Self-consistent Calculation

     iteration #  1     ecut=    30.00 Ry     beta= 0.70
     Davidson diagonalization with overlap

     ethr =  1.00E-02,  avg # of iterations =  6.0

     total energy              =   -1330.27852864 Ry
     estimated scf accuracy    <      82.21235027 Ry

[...]

     total energy              =   -1398.14775955 Ry
     estimated scf accuracy    <       0.00000173 Ry

     iteration # 83     ecut=    30.00 Ry     beta= 0.70
     Davidson diagonalization with overlap

     ethr =  2.19E-09,  avg # of iterations =  1.1

     End of self-consistent calculation

          k = 0.0000 0.0000 0.0000 (  1331 PWs)   bands (ev):

   -87.9538 -87.9444 -48.3138 -48.3104 -48.2865 -48.2854 -48.2716 -48.2704
   -26.2686  -4.3621  -4.2304  -4.2269   2.1122   6.0143   8.4426  11.4522
    11.4529  12.2715  12.2720  12.4728  12.6688  13.7509  13.7555  14.2288
    14.2601  14.2604  14.9688  15.1977  15.3273  15.3355  15.5212  15.7709
    15.7972  15.8045  15.8632  16.7926  16.7979  19.3342  19.4330  19.6006
    19.6851  20.4476  22.3417  22.3437  23.3691  24.7801  24.7805  25.2427
    25.2431  26.7016  26.9810  26.9931  29.0706  29.0714  29.3500  29.9439
    31.6987  35.1750  35.6438  38.1974  38.1985  39.0892  39.1445  39.3292

     occupation numbers
     1.0000   1.0000   1.0000   1.0000   1.0000   1.0000   1.0000   1.0000
     1.0000   1.0000   1.0000   1.0000   1.0000   1.0000   1.0000   1.0000
     1.0000   1.0000   1.0000   1.0000   1.0000   1.0000   1.0000   1.0000
     1.0000   1.0000   1.0000   1.0000   1.0000   1.0000   1.0000   1.0000
     0.0000   0.0000   0.0000   0.0000   0.0000   0.0000   0.0000   0.0000
     0.0000   0.0000   0.0000   0.0000   0.0000   0.0000   0.0000   0.0000
     0.0000   0.0000   0.0000   0.0000   0.0000   0.0000   0.0000   0.0000
     0.0000   0.0000   0.0000   0.0000   0.0000   0.0000   0.0000   0.0000

[...]

          k = 0.3333-0.5695 0.6599 (  1356 PWs)   bands (ev):

   -87.9544 -87.9507 -48.3306 -48.3272 -48.2904 -48.2867 -48.2822 -48.2770
   -26.2596  -4.5137  -4.3711  -4.1978   3.6200   4.6076   9.2945  10.8932
    11.2491  11.3967  11.7935  12.7860  12.8416  13.3360  13.5796  13.7931
    13.8682  14.8428  15.0139  15.3091  15.5069  15.6641  15.7325  15.8151
    15.8191  16.1607  16.1623  17.4539  17.7504  18.4099  18.5032  18.7354
    19.1689  19.3303  20.2259  23.9344  24.5055  24.9402  25.2592  26.2720
    26.3435  28.0393  28.1754  28.3545  28.7178  30.1145  30.8262  31.8363
    32.5127  33.4035  35.1683  36.7684  36.9265  36.9338  36.9865  39.1528

     occupation numbers
     1.0000   1.0000   1.0000   1.0000   1.0000   1.0000   1.0000   1.0000
     1.0000   1.0000   1.0000   1.0000   1.0000   1.0000   1.0000   1.0000
     1.0000   1.0000   1.0000   1.0000   1.0000   1.0000   1.0000   1.0000
     1.0000   1.0000   1.0000   1.0000   1.0000   1.0000   1.0000   1.0000
     0.0000   0.0000   0.0000   0.0000   0.0000   0.0000   0.0000   0.0000
     0.0000   0.0000   0.0000   0.0000   0.0000   0.0000   0.0000   0.0000
     0.0000   0.0000   0.0000   0.0000   0.0000   0.0000   0.0000   0.0000
     0.0000   0.0000   0.0000   0.0000   0.0000   0.0000   0.0000   0.0000

     highest occupied, lowest unoccupied level (ev):    15.8151   15.7555

!    total energy              =   -1398.14775899 Ry
     estimated scf accuracy    <       0.00000065 Ry

     The total energy is the sum of the following terms:
     one-electron contribution =    -596.87296163 Ry
     hartree contribution      =     341.31760768 Ry
     xc contribution           =    -102.85606543 Ry
     ewald contribution        =    -573.79945673 Ry
     one-center paw contrib.   =    -465.93688289 Ry
      -> PAW hartree energy AE =     185.52808150 Ry
      -> PAW hartree energy PS =    -176.14010105 Ry
      -> PAW xc energy AE      =    -496.80202406 Ry
      -> PAW xc energy PS      =      21.47716072 Ry
      -> total E_H with PAW    =     350.70558813 Ry
      -> total E_XC with PAW   =    -578.18092877 Ry

     convergence has been achieved in  83 iterations

     Writing all to output data dir calculations_bands/myprefix.save/

     General routines

     Parallel routines

     PAW routines

   This run was terminated on:   6:48:40   6Jun2023

   JOB DONE.