     Program PWSCF v.7.0 starts on  7Jun2023 at  6:45:30

     K-points division:     npool     =       2
     R & G space division:  proc/nbgrp/npool/nimage =       4

     Reading input from espresso_25209.pwi
Warning: card &CELL ignored
Warning: card / ignored

     Current dimensions of program PWSCF are:
     Max number of different atomic species (ntypx) = 10
     Max number of k-points (npk) =  40000
     Max angular momentum in pseudopotentials (lmaxx) =  4
     file Nb.pbe-spn-kjpaw_psl.0.3.0.UPF: wavefunction(s)  4S 4P renormalized
     file O.pbe-n-kjpaw_psl.0.1.UPF: wavefunction(s)  2P renormalized

     Using Slab Decomposition

     bravais-lattice index     =            0
     lattice parameter (alat)  =      10.7403  a.u.
     unit-cell volume          =     521.0686 (a.u.)^3
     number of atoms/cell      =            6
     number of atomic types    =            3
     number of electrons       =        50.00
     number of Kohn-Sham states=           64
     kinetic-energy cutoff     =      30.0000  Ry
     charge density cutoff     =     240.0000  Ry
     scf convergence threshold =      1.0E-06
     mixing beta               =       0.7000
     number of iterations used =            8  plain     mixing
     Exchange-correlation= SLA  PW   PBX  PBC
                           (   1   4   3   4   0   0   0)

     celldm(1)=  10.740260  celldm(2)=   0.000000  celldm(3)=   0.000000
     celldm(4)=   0.000000  celldm(5)=   0.000000  celldm(6)=   0.000000

     crystal axes: (cart. coord. in units of alat)
               a(1) = (   1.000000   0.000000   0.000000 )
               a(2) = (   0.517081   0.855938   0.000000 )
               a(3) = (  -0.758551  -0.427955   0.491369 )

     reciprocal axes: (cart. coord. in units 2 pi/alat)
               b(1) = (  1.000000 -0.604110  1.017603 )
               b(2) = (  0.000000  1.168309  1.017530 )
               b(3) = (  0.000000  0.000000  2.035129 )

     PseudoPot. # 1 for Nb read from file:
     /home/pragov/projects/rrg-bengioy-ad/pragov/crystal_structure_design/SSSP/Nb.pbe-spn-kjpaw_psl.0.3.0.UPF
     MD5 check sum: 411d72ad547312f8017e2943ceca08cc
     Pseudo is Projector augmented-wave + core cor, Zval = 13.0
     Generated using "atomic" code by A. Dal Corso  v.5.0.99 svn rev. 10869
     Shape of augmentation charge: PSQ
     Using radial grid of 1227 points,  6 beta functions with:
                l(1) =   0
                l(2) =   0
                l(3) =   1
                l(4) =   1
                l(5) =   2
                l(6) =   2
     Q(r) pseudized with 0 coefficients

     PseudoPot. # 2 for V  read from file:
     /home/pragov/projects/rrg-bengioy-ad/pragov/crystal_structure_design/SSSP/v_pbe_v1.4.uspp.F.UPF
     MD5 check sum: 22b79981416ebb76fdaf5b1b8640f6fb
     Pseudo is Ultrasoft + core correction, Zval = 13.0
     Generated by new atomic code, or converted to UPF format
     Using radial grid of  853 points,  6 beta functions with:
                l(1) =   0
                l(2) =   0
                l(3) =   1
                l(4) =   1
                l(5) =   2
                l(6) =   2
     Q(r) pseudized with  8 coefficients,  rinner =    1.100   1.100   1.100
                                                       1.100   1.100

     PseudoPot. # 3 for O  read from file:
     /home/pragov/projects/rrg-bengioy-ad/pragov/crystal_structure_design/SSSP/O.pbe-n-kjpaw_psl.0.1.UPF
     MD5 check sum: 0234752ac141de4415c5fc33072bef88
     Pseudo is Projector augmented-wave + core cor, Zval =  6.0
     Generated using "atomic" code by A. Dal Corso  v.5.0.99 svn rev. 10869
     Shape of augmentation charge: BESSEL
     Using radial grid of 1095 points,  4 beta functions with:
                l(1) =   0
                l(2) =   0
                l(3) =   1
                l(4) =   1
     Q(r) pseudized with 0 coefficients

     atomic species   valence    mass     pseudopotential
        Nb            13.00    92.90637     Nb( 1.00)
        V             13.00    50.94150     V ( 1.00)
        O              6.00    15.99900     O ( 1.00)

     No symmetry found

                                    s                        frac. trans.

      isym =  1     identity

 cryst.   s( 1) = (     1          0          0      )
                  (     0          1          0      )
                  (     0          0          1      )

 cart.    s( 1) = (  1.0000000  0.0000000 -0.0000000 )
                  (  0.0000000  1.0000000 -0.0000000 )
                  (  0.0000000  0.0000000  1.0000000 )

   Cartesian axes

     site n.     atom                  positions (alat units)
         1           Nb  tau(   1) = (   0.9999980   0.0000000   0.0000000  )
         2           V   tau(   2) = (   0.4999994   0.0000063   0.2456847  )
         3           O   tau(   3) = (   0.1756053  -0.1830142   0.2456852  )
         4           O   tau(   4) = (   0.3112138   0.1755893   0.0000005  )
         5           O   tau(   5) = (   0.8243835   0.1830269   0.2456842  )
         6           O   tau(   6) = (   0.4473156   0.2523977   0.4913689  )

   Crystallographic axes

     site n.     atom                  positions (cryst. coord.)
         1           Nb  tau(   1) = (  0.9999980  0.0000000  0.0000000  )
         2           V   tau(   2) = (  0.7500050  0.2499990  0.5000000  )
         3           O   tau(   3) = (  0.5361760  0.0361750  0.5000010  )
         4           O   tau(   4) = (  0.2051390  0.2051430  0.0000010  )
         5           O   tau(   5) = (  0.9638240  0.4638230  0.4999990  )
         6           O   tau(   6) = (  0.7948580  0.7948610  0.9999990  )

     number of k points=    14
                       cart. coord. in units 2pi/alat
        k(    1) = (   0.0000000   0.0000000   0.0000000), wk =   0.0740741
        k(    2) = (   0.0000000   0.0000000   0.6783763), wk =   0.1481481
        k(    3) = (   0.0000000   0.3894362   0.3391767), wk =   0.1481481
        k(    4) = (   0.0000000   0.3894362   1.0175531), wk =   0.1481481
        k(    5) = (   0.0000000   0.3894362  -0.3391996), wk =   0.1481481
        k(    6) = (   0.3333333  -0.2013700   0.3392010), wk =   0.1481481
        k(    7) = (   0.3333333  -0.2013700   1.0175773), wk =   0.1481481
        k(    8) = (   0.3333333  -0.2013700  -0.3391754), wk =   0.1481481
        k(    9) = (   0.3333333   0.1880661   0.6783777), wk =   0.1481481
        k(   10) = (   0.3333333   0.1880661   1.3567540), wk =   0.1481481
        k(   11) = (   0.3333333   0.1880661   0.0000014), wk =   0.1481481
        k(   12) = (   0.3333333  -0.5908062   0.0000242), wk =   0.1481481
        k(   13) = (   0.3333333  -0.5908062   0.6784005), wk =   0.1481481
        k(   14) = (   0.3333333  -0.5908062  -0.6783521), wk =   0.1481481

                       cryst. coord.
        k(    1) = (   0.0000000   0.0000000   0.0000000), wk =   0.0740741
        k(    2) = (   0.0000000   0.0000000   0.3333333), wk =   0.1481481
        k(    3) = (   0.0000000   0.3333333  -0.0000000), wk =   0.1481481
        k(    4) = (   0.0000000   0.3333333   0.3333333), wk =   0.1481481
        k(    5) = (   0.0000000   0.3333333  -0.3333333), wk =   0.1481481
        k(    6) = (   0.3333333  -0.0000000  -0.0000000), wk =   0.1481481
        k(    7) = (   0.3333333  -0.0000000   0.3333333), wk =   0.1481481
        k(    8) = (   0.3333333  -0.0000000  -0.3333333), wk =   0.1481481
        k(    9) = (   0.3333333   0.3333333  -0.0000000), wk =   0.1481481
        k(   10) = (   0.3333333   0.3333333   0.3333333), wk =   0.1481481
        k(   11) = (   0.3333333   0.3333333  -0.3333333), wk =   0.1481481
        k(   12) = (   0.3333333  -0.3333333   0.0000000), wk =   0.1481481
        k(   13) = (   0.3333333  -0.3333333   0.3333333), wk =   0.1481481
        k(   14) = (   0.3333333  -0.3333333  -0.3333333), wk =   0.1481481

     Check: negative core charge=   -0.000020

     Initial potential from superposition of free atoms

     starting charge      49.9966, renormalised to      50.0000

     negative rho (up, down):  9.513E-04 0.000E+00
     Starting wfcs are   36 randomized atomic wfcs +   28 random wfcs
     Checking if some PAW data can be deallocated...

     Self-consistent Calculation

     iteration #  1     ecut=    30.00 Ry     beta= 0.70
     Davidson diagonalization with overlap

     ethr =  1.00E-02,  avg # of iterations =  6.1

     negative rho (up, down):  1.736E-03 0.000E+00

     total energy              =    -644.80642663 Ry
     estimated scf accuracy    <       2.61363250 Ry

[...]

     total energy              =    -646.20945607 Ry
     estimated scf accuracy    <       0.00000656 Ry

     iteration # 15     ecut=    30.00 Ry     beta= 0.70
     Davidson diagonalization with overlap

     ethr =  1.31E-08,  avg # of iterations =  1.0

     negative rho (up, down):  1.526E-03 0.000E+00

     End of self-consistent calculation

          k = 0.0000 0.0000 0.0000 (  1461 PWs)   bands (ev):

   -55.8519 -47.4338 -29.7963 -29.6033 -29.6027 -23.6380 -23.4910 -23.4908
   -10.5450 -10.0051  -9.7567  -8.9485   3.1406   3.3208   3.3221   3.8049
     4.9022   5.0877   5.0891   5.9894   5.9909   6.1012   6.4361   6.4376
     8.9708   9.7518  10.3938  10.3941  11.2344  11.2346  11.2931  11.3884
    13.2559  13.3772  14.8449  18.4310  19.8041  21.7745  22.1689  22.1694
    23.4729  23.4738  23.8277  23.9717  26.5008  26.6823  28.2275  29.0885
    29.0888  30.8286  30.8289  31.0597  31.2334  31.2340  31.7576  32.1753
    33.0008  34.9643  34.9654  38.7283  39.5554  39.5566  39.9944  40.3116

     occupation numbers
     1.0000   1.0000   1.0000   1.0000   1.0000   1.0000   1.0000   1.0000
     1.0000   1.0000   1.0000   1.0000   1.0000   1.0000   1.0000   1.0000
     1.0000   1.0000   1.0000   1.0000   1.0000   1.0000   1.0000   1.0000
     1.0000   0.0000   0.0000   0.0000   0.0000   0.0000   0.0000   0.0000
     0.0000   0.0000   0.0000   0.0000   0.0000   0.0000   0.0000   0.0000
     0.0000   0.0000   0.0000   0.0000   0.0000   0.0000   0.0000   0.0000
     0.0000   0.0000   0.0000   0.0000   0.0000   0.0000   0.0000   0.0000
     0.0000   0.0000   0.0000   0.0000   0.0000   0.0000   0.0000   0.0000

[...]

          k = 0.3333-0.5908-0.6784 (  1436 PWs)   bands (ev):

   -55.8514 -47.4315 -29.7933 -29.6186 -29.6025 -23.6399 -23.6029 -23.4873
   -10.2167  -9.5369  -9.4735  -9.1421   2.1988   3.2832   3.4609   3.7167
     4.0980   4.4579   4.6599   5.4429   5.6681   5.9361   6.0643   6.4104
     9.8181   9.9019  10.2541  10.8070  10.9294  11.4537  11.5846  12.2242
    13.9053  15.3163  16.7408  17.2941  18.7760  21.4923  22.3083  22.4626
    22.8759  23.9733  24.2803  25.1080  25.5219  26.3940  27.4477  28.1194
    29.3551  30.0912  30.6070  30.7609  31.3965  32.4134  33.5215  33.7998
    34.7316  35.3355  36.1909  37.2198  38.6486  38.9426  39.1163  39.3997

     occupation numbers
     1.0000   1.0000   1.0000   1.0000   1.0000   1.0000   1.0000   1.0000
     1.0000   1.0000   1.0000   1.0000   1.0000   1.0000   1.0000   1.0000
     1.0000   1.0000   1.0000   1.0000   1.0000   1.0000   1.0000   1.0000
     1.0000   0.0000   0.0000   0.0000   0.0000   0.0000   0.0000   0.0000
     0.0000   0.0000   0.0000   0.0000   0.0000   0.0000   0.0000   0.0000
     0.0000   0.0000   0.0000   0.0000   0.0000   0.0000   0.0000   0.0000
     0.0000   0.0000   0.0000   0.0000   0.0000   0.0000   0.0000   0.0000
     0.0000   0.0000   0.0000   0.0000   0.0000   0.0000   0.0000   0.0000

     highest occupied, lowest unoccupied level (ev):     9.8781    9.5422

!    total energy              =    -646.20945640 Ry
     estimated scf accuracy    <       0.00000074 Ry

     The total energy is the sum of the following terms:
     one-electron contribution =    -172.77480703 Ry
     hartree contribution      =     109.76546487 Ry
     xc contribution           =     -77.95039076 Ry
     ewald contribution        =    -258.66855668 Ry
     one-center paw contrib.   =    -246.58116680 Ry
      -> PAW hartree energy AE =      65.32325602 Ry
      -> PAW hartree energy PS =     -64.95637404 Ry
      -> PAW xc energy AE      =    -235.54327293 Ry
      -> PAW xc energy PS      =      26.68632208 Ry
      -> total E_H with PAW    =     110.13234684 Ry
      -> total E_XC with PAW   =    -286.80734162 Ry

     convergence has been achieved in  15 iterations

     Writing all to output data dir calculations_bands/myprefix.save/

     General routines

     Parallel routines

     PAW routines

   This run was terminated on:   6:45:46   7Jun2023

   JOB DONE.