     Program PWSCF v.7.0 starts on 23Jun2023 at  6: 4:20

     K-points division:     npool     =       2
     R & G space division:  proc/nbgrp/npool/nimage =       4

     Reading input from espresso_5348.pwi
Warning: card &CELL ignored
Warning: card / ignored

     Current dimensions of program PWSCF are:
     Max number of different atomic species (ntypx) = 10
     Max number of k-points (npk) =  40000
     Max angular momentum in pseudopotentials (lmaxx) =  4
     file Nb.pbe-spn-kjpaw_psl.0.3.0.UPF: wavefunction(s)  4S 4P renormalized
     Message from routine setup:
     using ibrav=0 with symmetry is DISCOURAGED, use correct ibrav instead

     Using Slab Decomposition

     bravais-lattice index     =            0
     lattice parameter (alat)  =       9.2597  a.u.
     unit-cell volume          =    1135.3407 (a.u.)^3
     number of atoms/cell      =           12
     number of atomic types    =            3
     number of electrons       =       176.00
     number of Kohn-Sham states=           90
     kinetic-energy cutoff     =      30.0000  Ry
     charge density cutoff     =     240.0000  Ry
     scf convergence threshold =      1.0E-06
     mixing beta               =       0.7000
     number of iterations used =            8  plain     mixing
     Exchange-correlation=  SLA  PW   PBX  PBC
                           (   1   4   3   4   0   0   0)

     celldm(1)=   9.259688  celldm(2)=   0.000000  celldm(3)=   0.000000
     celldm(4)=   0.000000  celldm(5)=   0.000000  celldm(6)=   0.000000

     crystal axes: (cart. coord. in units of alat)
               a(1) = (   1.000000   0.000000   0.000000 )
               a(2) = (  -0.500228   0.865894   0.000000 )
               a(3) = (   0.000000   0.000000   1.651477 )

     reciprocal axes: (cart. coord. in units 2 pi/alat)
               b(1) = (  1.000000  0.577701  0.000000 )
               b(2) = (  0.000000  1.154876  0.000000 )
               b(3) = (  0.000000  0.000000  0.605519 )

     PseudoPot. # 1 for Nb read from file:
     /home/pragov/projects/rrg-bengioy-ad/pragov/crystal_structure_design/SSSP/Nb.pbe-spn-kjpaw_psl.0.3.0.UPF
     MD5 check sum: 411d72ad547312f8017e2943ceca08cc
     Pseudo is Projector augmented-wave + core cor, Zval = 13.0
     Generated using "atomic" code by A. Dal Corso  v.5.0.99 svn rev. 10869
     Shape of augmentation charge: PSQ
     Using radial grid of 1227 points,  6 beta functions with:
                l(1) =   0
                l(2) =   0
                l(3) =   1
                l(4) =   1
                l(5) =   2
                l(6) =   2
     Q(r) pseudized with 0 coefficients

     PseudoPot. # 2 for V  read from file:
     /home/pragov/projects/rrg-bengioy-ad/pragov/crystal_structure_design/SSSP/v_pbe_v1.4.uspp.F.UPF
     MD5 check sum: 22b79981416ebb76fdaf5b1b8640f6fb
     Pseudo is Ultrasoft + core correction, Zval = 13.0
     Generated by new atomic code, or converted to UPF format
     Using radial grid of  853 points,  6 beta functions with:
                l(1) =   0
                l(2) =   0
                l(3) =   1
                l(4) =   1
                l(5) =   2
                l(6) =   2
     Q(r) pseudized with  8 coefficients,  rinner =    1.100   1.100   1.100
                                                       1.100   1.100

     PseudoPot. # 3 for Ni read from file:
     /home/pragov/projects/rrg-bengioy-ad/pragov/crystal_structure_design/SSSP/ni_pbe_v1.4.uspp.F.UPF
     MD5 check sum: 1ee80287db30b12d2bc1f57a5b5d6409
     Pseudo is Ultrasoft + core correction, Zval = 18.0
     Generated by new atomic code, or converted to UPF format
     Using radial grid of  865 points,  6 beta functions with:
                l(1) =   0
                l(2) =   0
                l(3) =   1
                l(4) =   1
                l(5) =   2
                l(6) =   2
     Q(r) pseudized with 10 coefficients,  rinner =    0.980   0.980   0.980
                                                       0.980   0.980

     atomic species   valence    mass     pseudopotential
        Nb            13.00    92.90637     Nb( 1.00)
        V             13.00    50.94150     V ( 1.00)
        Ni            18.00    58.69340     Ni( 1.00)

      2 Sym. Ops. (no inversion) found

                                    s                        frac. trans.

      isym =  1     identity

 cryst.   s( 1) = (     1          0          0      )
                  (     0          1          0      )
                  (     0          0          1      )

 cart.    s( 1) = (  1.0000000  0.0000000  0.0000000 )
                  (  0.0000000  1.0000000  0.0000000 )
                  (  0.0000000  0.0000000  1.0000000 )

      isym =  2     inv. 180 deg rotation - cart. axis [0,0,1]

 cryst.   s( 2) = (     1          0          0      )
                  (     0          1          0      )
                  (     0          0         -1      )

 cart.    s( 2) = (  1.0000000  0.0000000  0.0000000 )
                  (  0.0000000  1.0000000  0.0000000 )
                  (  0.0000000  0.0000000 -1.0000000 )

   Cartesian axes

     site n.     atom                  positions (alat units)
         1           Nb  tau(   1) = (  -0.0139424   0.5852222   0.3030741  )
         2           Nb  tau(   2) = (   0.4893015   0.2947624   0.5030201  )
         3           Nb  tau(   3) = (   0.4893015   0.2947624   1.1484569  )
         4           Nb  tau(   4) = (  -0.0139424   0.5852222   1.3484029  )
         5           V   tau(   5) = (   0.7630961   0.1367350   0.0000000  )
         6           V   tau(   6) = (  -0.0005785   0.2930298   0.8257385  )
         7           V   tau(   7) = (   0.2457503   0.7198133   0.8257385  )
         8           V   tau(   8) = (  -0.2405727   0.7160276   0.8257385  )
         9           Ni  tau(   9) = (  -0.4993920   0.8654116   0.4047209  )
        10           Ni  tau(  10) = (  -0.4993920   0.8654116   1.2467561  )
        11           Ni  tau(  11) = (   0.5115061   0.5643611   0.0000000  )
        12           Ni  tau(  12) = (   0.2669650   0.1406749   0.0000000  )

   Crystallographic axes

     site n.     atom                  positions (cryst. coord.)
         1           Nb  tau(   1) = (  0.3241410  0.6758590  0.1835170  )
         2           Nb  tau(   2) = (  0.6595860  0.3404140  0.3045880  )
         3           Nb  tau(   3) = (  0.6595860  0.3404140  0.6954120  )
         4           Nb  tau(   4) = (  0.3241410  0.6758590  0.8164830  )
         5           V   tau(   5) = (  0.8420880  0.1579120  0.0000000  )
         6           V   tau(   6) = (  0.1687050  0.3384130  0.5000000  )
         7           V   tau(   7) = (  0.6615870  0.8312950  0.5000000  )
         8           V   tau(   8) = (  0.1730770  0.8269230  0.5000000  )
         9           Ni  tau(   9) = (  0.0005570  0.9994430  0.2450660  )
        10           Ni  tau(  10) = (  0.0005570  0.9994430  0.7549340  )
        11           Ni  tau(  11) = (  0.8375380  0.6517670  0.0000000  )
        12           Ni  tau(  12) = (  0.3482330  0.1624620  0.0000000  )

     number of k points=    10
                       cart. coord. in units 2pi/alat
        k(    1) = (   0.0000000   0.0000000   0.0000000), wk =   0.0740741
        k(    2) = (   0.0000000   0.0000000   0.2018395), wk =   0.1481481
        k(    3) = (   0.0000000   0.3849586   0.0000000), wk =   0.1481481
        k(    4) = (   0.0000000   0.3849586   0.2018395), wk =   0.2962963
        k(    5) = (   0.3333333   0.1925669   0.0000000), wk =   0.1481481
        k(    6) = (   0.3333333   0.1925669   0.2018395), wk =   0.2962963
        k(    7) = (   0.3333333   0.5775256   0.0000000), wk =   0.1481481
        k(    8) = (   0.3333333   0.5775256   0.2018395), wk =   0.2962963
        k(    9) = (   0.3333333  -0.1923917   0.0000000), wk =   0.1481481
        k(   10) = (   0.3333333  -0.1923917   0.2018395), wk =   0.2962963

                       cryst. coord.
        k(    1) = (   0.0000000   0.0000000   0.0000000), wk =   0.0740741
        k(    2) = (   0.0000000   0.0000000   0.3333333), wk =   0.1481481
        k(    3) = (   0.0000000   0.3333333   0.0000000), wk =   0.1481481
        k(    4) = (   0.0000000   0.3333333   0.3333333), wk =   0.2962963
        k(    5) = (   0.3333333   0.0000000   0.0000000), wk =   0.1481481
        k(    6) = (   0.3333333   0.0000000   0.3333333), wk =   0.2962963
        k(    7) = (   0.3333333   0.3333333   0.0000000), wk =   0.1481481
        k(    8) = (   0.3333333   0.3333333   0.3333333), wk =   0.2962963
        k(    9) = (   0.3333333  -0.3333333   0.0000000), wk =   0.1481481
        k(   10) = (   0.3333333  -0.3333333   0.3333333), wk =   0.2962963

     Check: negative core charge=   -0.000019

     Initial potential from superposition of free atoms

     starting charge     167.9866, renormalised to     176.0000

     negative rho (up, down):  1.569E-03 0.000E+00
     Starting wfcs are  132 randomized atomic wfcs
     Checking if some PAW data can be deallocated...

     Self-consistent Calculation

     iteration #  1     ecut=    30.00 Ry     beta= 0.70
     Davidson diagonalization with overlap

     ethr =  1.00E-02,  avg # of iterations =  2.4

     negative rho (up, down):  9.851E-03 0.000E+00

     total energy              =   -3149.21532267 Ry
     estimated scf accuracy    <     182.25944392 Ry

[...]

     total energy              =   -3289.93002653 Ry
     estimated scf accuracy    <       0.00000151 Ry

     iteration # 45     ecut=    30.00 Ry     beta= 0.70
     Davidson diagonalization with overlap

     ethr =  6.24E-10,  avg # of iterations =  5.0

     negative rho (up, down):  2.380E-03 0.000E+00

     End of self-consistent calculation

          k = 0.0000 0.0000 0.0000 (  3099 PWs)   bands (ev):

   -86.0444 -86.0379 -86.0031 -85.9929 -46.5225 -46.4967 -46.4662 -46.4205
   -46.3703 -46.3201 -46.2790 -46.2777 -46.2771 -46.2698 -46.2049 -46.1931
   -46.1880 -46.0407 -45.8106 -45.7948 -36.8828 -36.8533 -36.7604 -36.7409
   -20.5882 -20.3146 -20.2541 -20.2333 -20.0918 -20.0685 -19.8734 -19.6917
   -19.6692 -19.4017 -19.2465 -19.2137 -13.0788 -13.0663 -13.0612 -13.0562
   -13.0389 -12.9400 -12.7530 -12.7190 -12.7110 -12.7098 -12.6923 -12.6888
    10.3731  12.7863  12.7938  13.7890  13.8408  14.0812  14.0866  14.1780
    14.5923  14.6206  14.7953  14.8103  14.8145  14.9752  15.1273  15.1798
    15.3262  15.4361  15.6348  15.6877  15.6954  15.7946  15.8454  16.1929
    16.2461  16.2995  16.3471  16.3916  16.5782  16.6092  16.6619  16.8656
    16.9359  16.9546  16.9886  17.3053  17.4925  17.5787  17.6229  17.6543
    17.8806  17.9675

     occupation numbers
     1.0000   1.0000   1.0000   1.0000   1.0000   1.0000   1.0000   1.0000
     1.0000   1.0000   1.0000   1.0000   1.0000   1.0000   1.0000   1.0000
     1.0000   1.0000   1.0000   1.0000   1.0000   1.0000   1.0000   1.0000
     1.0000   1.0000   1.0000   1.0000   1.0000   1.0000   1.0000   1.0000
     1.0000   1.0000   1.0000   1.0000   1.0000   1.0000   1.0000   1.0000
     1.0000   1.0000   1.0000   1.0000   1.0000   1.0000   1.0000   1.0000
     1.0000   1.0000   1.0000   1.0000   1.0000   1.0000   1.0000   1.0000
     1.0000   1.0000   1.0000   1.0000   1.0000   1.0000   1.0000   1.0000
     1.0000   1.0000   1.0000   1.0000   1.0000   1.0000   1.0000   1.0000
     1.0000   1.0000   1.0000   1.0000   1.0000   1.0000   1.0000   1.0000
     1.0000   1.0000   1.0000   1.0000   1.0000   1.0000   1.0000   1.0000
     0.0000   0.0000

[...]

          k = 0.3333-0.1924 0.2018 (  3147 PWs)   bands (ev):

   -86.0446 -86.0437 -86.0061 -85.9954 -46.5769 -46.4907 -46.4579 -46.4350
   -46.3586 -46.3237 -46.2979 -46.2925 -46.2813 -46.2728 -46.2118 -46.1916
   -46.1855 -45.9993 -45.8398 -45.8112 -36.8701 -36.8410 -36.7702 -36.7576
   -20.3990 -20.3236 -20.2537 -20.2372 -20.0172 -19.9070 -19.8421 -19.7036
   -19.6910 -19.5253 -19.5078 -19.2984 -13.1010 -13.0974 -13.0871 -13.0462
   -13.0158 -12.9044 -12.8017 -12.7600 -12.6964 -12.6835 -12.6726 -12.6543
    11.5832  12.6384  13.4751  13.8770  13.9686  14.1648  14.1828  14.3650
    14.4602  14.6397  14.8307  14.9442  14.9913  15.0573  15.1280  15.2061
    15.2621  15.3884  15.5367  15.6486  15.6787  15.8125  15.8916  16.0254
    16.1308  16.1354  16.2662  16.3834  16.4853  16.5601  16.6354  16.7283
    16.8696  16.9136  16.9671  17.1571  17.3294  17.4432  17.5257  17.7779
    17.9408  18.1182

     occupation numbers
     1.0000   1.0000   1.0000   1.0000   1.0000   1.0000   1.0000   1.0000
     1.0000   1.0000   1.0000   1.0000   1.0000   1.0000   1.0000   1.0000
     1.0000   1.0000   1.0000   1.0000   1.0000   1.0000   1.0000   1.0000
     1.0000   1.0000   1.0000   1.0000   1.0000   1.0000   1.0000   1.0000
     1.0000   1.0000   1.0000   1.0000   1.0000   1.0000   1.0000   1.0000
     1.0000   1.0000   1.0000   1.0000   1.0000   1.0000   1.0000   1.0000
     1.0000   1.0000   1.0000   1.0000   1.0000   1.0000   1.0000   1.0000
     1.0000   1.0000   1.0000   1.0000   1.0000   1.0000   1.0000   1.0000
     1.0000   1.0000   1.0000   1.0000   1.0000   1.0000   1.0000   1.0000
     1.0000   1.0000   1.0000   1.0000   1.0000   1.0000   1.0000   1.0000
     1.0000   1.0000   1.0000   1.0000   1.0000   1.0000   1.0000   1.0000
     0.0000   0.0000

     highest occupied, lowest unoccupied level (ev):    17.9233   17.8335

!    total energy              =   -3289.93002585 Ry
     estimated scf accuracy    <       0.00000086 Ry

     The total energy is the sum of the following terms:
     one-electron contribution =   -1222.79537476 Ry
     hartree contribution      =     715.37056585 Ry
     xc contribution           =    -336.09567138 Ry
     ewald contribution        =   -1612.46791601 Ry
     one-center paw contrib.   =    -833.94162955 Ry
      -> PAW hartree energy AE =     136.11453556 Ry
      -> PAW hartree energy PS =    -135.37702690 Ry
      -> PAW xc energy AE      =    -471.62711930 Ry
      -> PAW xc energy PS      =      53.91879587 Ry
      -> total E_H with PAW    =     716.10807451 Ry
      -> total E_XC with PAW   =    -753.80399481 Ry

     convergence has been achieved in  45 iterations

     Writing all to output data dir calculations_bands/myprefix.save/

     General routines

     Parallel routines

     PAW routines

   This run was terminated on:   6: 5:17  23Jun2023

   JOB DONE.