     Program PWSCF v.7.0 starts on  4Jun2023 at 19:59:43

     K-points division:     npool     =       2
     R & G space division:  proc/nbgrp/npool/nimage =       4

     Reading input from espresso_9113.pwi
Warning: card &CELL ignored
Warning: card / ignored

     Current dimensions of program PWSCF are:
     Max number of different atomic species (ntypx) = 10
     Max number of k-points (npk) =  40000
     Max angular momentum in pseudopotentials (lmaxx) =  4
     Message from routine setup:
     using ibrav=0 with symmetry is DISCOURAGED, use correct ibrav instead

     Using Slab Decomposition

     bravais-lattice index     =            0
     lattice parameter (alat)  =       6.5746  a.u.
     unit-cell volume          =    2266.0856 (a.u.)^3
     number of atoms/cell      =            9
     number of atomic types    =            3
     number of electrons       =        78.00
     number of Kohn-Sham states=           64
     kinetic-energy cutoff     =      30.0000  Ry
     charge density cutoff     =     240.0000  Ry
     scf convergence threshold =      1.0E-06
     mixing beta               =       0.7000
     number of iterations used =            8  plain     mixing
     Exchange-correlation= SLA  PW   PBE  PBE
                           (   1   4   3   4   0   0   0)

     celldm(1)=   6.574614  celldm(2)=   0.000000  celldm(3)=   0.000000
     celldm(4)=   0.000000  celldm(5)=   0.000000  celldm(6)=   0.000000

     crystal axes: (cart. coord. in units of alat)
               a(1) = (   1.000000   0.000000   0.000000 )
               a(2) = (  -0.500000   0.866025   0.000000 )
               a(3) = (   0.000000   0.000000   9.207355 )

     reciprocal axes: (cart. coord. in units 2 pi/alat)
               b(1) = (  1.000000  0.577350  0.000000 )
               b(2) = (  0.000000  1.154701  0.000000 )
               b(3) = (  0.000000  0.000000  0.108609 )

     PseudoPot. # 1 for Te read from file:
     /home/pragov/projects/rrg-bengioy-ad/pragov/crystal_structure_design/SSSP/Te_pbe_v1.uspp.F.UPF
     MD5 check sum: c319670d6894cc26e93307826a071b75
     Pseudo is Ultrasoft + core correction, Zval =  6.0
     Generated by new atomic code, or converted to UPF format
     Using radial grid of  891 points,  5 beta functions with:
                l(1) =   0
                l(2) =   0
                l(3) =   1
                l(4) =   1
                l(5) =   2
     Q(r) pseudized with  6 coefficients,  rinner =    1.800   1.800   1.800
                                                       1.800   1.800

     PseudoPot. # 2 for Mo read from file:
     /home/pragov/projects/rrg-bengioy-ad/pragov/crystal_structure_design/SSSP/Mo_ONCV_PBE-1.0.oncvpsp.upf
     MD5 check sum: 1b5d28e075c9ccadda658a603575cd1f
     Pseudo is Norm-conserving, Zval = 14.0
     Generated using ONCVPSP code by D. R. Hamann
     Using radial grid of 1526 points,  6 beta functions with:
                l(1) =   0
                l(2) =   0
                l(3) =   1
                l(4) =   1
                l(5) =   2
                l(6) =   2

     PseudoPot. # 3 for Se read from file:
     /home/pragov/projects/rrg-bengioy-ad/pragov/crystal_structure_design/SSSP/Se_pbe_v1.uspp.F.UPF
     MD5 check sum: 1b3568f3a8ae88f9a2a0ad0698632c85
     Pseudo is Ultrasoft + core correction, Zval =  6.0
     Generated by new atomic code, or converted to UPF format
     Using radial grid of  877 points,  6 beta functions with:
                l(1) =   0
                l(2) =   0
                l(3) =   1
                l(4) =   1
                l(5) =   2
                l(6) =   2
     Q(r) pseudized with  8 coefficients,  rinner =    1.300   1.300   1.300
                                                       1.300   1.300

     atomic species   valence    mass     pseudopotential
        Te             6.00   127.60000     Te( 1.00)
        Mo            14.00    95.95000     Mo( 1.00)
        Se             6.00    78.97100     Se( 1.00)

      6 Sym. Ops. (no inversion) found

                                    s                        frac. trans.

      isym =  1     identity

 cryst.   s( 1) = (     1          0          0      )
                  (     0          1          0      )
                  (     0          0          1      )

 cart.    s( 1) = (  1.0000000  0.0000000  0.0000000 )
                  (  0.0000000  1.0000000  0.0000000 )
                  (  0.0000000  0.0000000  1.0000000 )

      isym =  2     120 deg rotation - cryst. axis [0,0,1]

[...]

      isym =  3     120 deg rotation - cryst. axis [0,0,-1]

[...]

      isym =  4     inv. 180 deg rotation - cart. axis [1,0,0]

[...]

      isym =  5     inv. 180 deg rotation - cryst. axis [0,1,0]

[...]

      isym =  6     inv. 180 deg rotation - cryst. axis [1,1,0]

 cryst.   s( 6) = (     0         -1          0      )
                  (    -1          0          0      )
                  (     0          0          1      )

 cart.    s( 6) = (  0.5000000 -0.8660254  0.0000000 )
                  ( -0.8660254 -0.5000000  0.0000000 )
                  (  0.0000000  0.0000000  1.0000000 )

   Cartesian axes

     site n.     atom                  positions (alat units)
         1           Te  tau(   1) = (   0.0000000   0.0000000   3.7233992  )
         2           Te  tau(   2) = (  -0.0000005   0.5773506   4.7960561  )
         3           Te  tau(   3) = (  -0.0000005   0.5773506   5.8537511  )
         4           Te  tau(   4) = (   0.0000000   0.0000000   2.6654189  )
         5           Mo  tau(   5) = (   0.0000000   0.0000000   1.0649688  )
         6           Mo  tau(   6) = (   0.0000000   0.0000000   5.3252581  )
         7           Mo  tau(   7) = (  -0.0000005   0.5773506   3.1947221  )
         8           Se  tau(   8) = (  -0.0000005   0.5773506   0.5979809  )
         9           Se  tau(   9) = (  -0.0000005   0.5773506   1.5315423  )

   Crystallographic axes

     site n.     atom                  positions (cryst. coord.)
         1           Te  tau(   1) = (  0.0000000  0.0000000  0.4043940  )
         2           Te  tau(   2) = (  0.3333330  0.6666670  0.5208940  )
         3           Te  tau(   3) = (  0.3333330  0.6666670  0.6357690  )
         4           Te  tau(   4) = (  0.0000000  0.0000000  0.2894880  )
         5           Mo  tau(   5) = (  0.0000000  0.0000000  0.1156650  )
         6           Mo  tau(   6) = (  0.0000000  0.0000000  0.5783700  )
         7           Mo  tau(   7) = (  0.3333330  0.6666670  0.3469750  )
         8           Se  tau(   8) = (  0.3333330  0.6666670  0.0649460  )
         9           Se  tau(   9) = (  0.3333330  0.6666670  0.1663390  )

     number of k points=     7
                       cart. coord. in units 2pi/alat
        k(    1) = (   0.0000000   0.0000000   0.0000000), wk =   0.0740741
        k(    2) = (   0.0000000   0.0000000   0.0362029), wk =   0.1481481
        k(    3) = (   0.0000000   0.3849002   0.0000000), wk =   0.4444444
        k(    4) = (   0.0000000   0.3849002   0.0362029), wk =   0.4444444
        k(    5) = (   0.3333333   0.5773502   0.0000000), wk =   0.1481481
        k(    6) = (   0.3333333   0.5773502   0.0362029), wk =   0.2962963
        k(    7) = (   0.0000000  -0.3849002   0.0362029), wk =   0.4444444

                       cryst. coord.
        k(    1) = (   0.0000000   0.0000000   0.0000000), wk =   0.0740741
        k(    2) = (   0.0000000   0.0000000   0.3333333), wk =   0.1481481
        k(    3) = (   0.0000000   0.3333333   0.0000000), wk =   0.4444444
        k(    4) = (   0.0000000   0.3333333   0.3333333), wk =   0.4444444
        k(    5) = (   0.3333333   0.3333333   0.0000000), wk =   0.1481481
        k(    6) = (   0.3333333   0.3333333   0.3333333), wk =   0.2962963
        k(    7) = (   0.0000000  -0.3333333   0.3333333), wk =   0.4444444

     Initial potential from superposition of free atoms

     starting charge      77.9960, renormalised to      78.0000

     negative rho (up, down):  1.054E-04 0.000E+00
     Starting wfcs are   54 randomized atomic wfcs +   10 random wfcs

     Self-consistent Calculation

     iteration #  1     ecut=    30.00 Ry     beta= 0.70
     Davidson diagonalization with overlap

     ethr =  1.00E-02,  avg # of iterations =  6.7

     negative rho (up, down):  4.405E-06 0.000E+00

     total energy              =    -603.56994591 Ry
     estimated scf accuracy    <       1.83704651 Ry

[...]

     total energy              =    -604.88086515 Ry
     estimated scf accuracy    <       0.00002221 Ry

     iteration # 24     ecut=    30.00 Ry     beta= 0.70
     Davidson diagonalization with overlap

     ethr =  2.85E-08,  avg # of iterations =  2.0

     negative rho (up, down):  4.155E-05 0.000E+00

     End of self-consistent calculation

          k = 0.0000 0.0000 0.0000 (  6285 PWs)   bands (ev):

   -56.9767 -55.9092 -55.9085 -31.0757 -30.9650 -30.9650 -30.1604 -30.1599
   -29.8796 -29.8796 -29.8784 -29.8784  -9.8875  -8.8596  -8.2377  -8.1467
    -7.3998  -7.2659  -1.1058  -0.7135  -0.2768   1.6136   1.6136   2.0221
     2.5233   2.5234   2.5508   3.1662   3.2413   3.2413   3.2442   3.2442
     3.8471   3.9512   3.9512   3.9591   3.9591   4.1792   4.3968   6.3864
     6.3864   6.6880   6.6880   7.8548   7.8548   7.8885   7.8886   8.0912
     8.0912   8.1564   8.1565   8.5382   8.7857   9.2565  10.1636  10.4993
    11.0945  11.4030  11.6751  11.8309  12.2011  12.8130  13.0623  13.5278

     occupation numbers
     1.0000   1.0000   1.0000   1.0000   1.0000   1.0000   1.0000   1.0000
     1.0000   1.0000   1.0000   1.0000   1.0000   1.0000   1.0000   1.0000
     1.0000   1.0000   1.0000   1.0000   1.0000   1.0000   1.0000   1.0000
     1.0000   1.0000   1.0000   1.0000   1.0000   1.0000   1.0000   1.0000
     1.0000   1.0000   1.0000   1.0000   1.0000   1.0000   1.0000   0.0000
     0.0000   0.0000   0.0000   0.0000   0.0000   0.0000   0.0000   0.0000
     0.0000   0.0000   0.0000   0.0000   0.0000   0.0000   0.0000   0.0000
     0.0000   0.0000   0.0000   0.0000   0.0000   0.0000   0.0000   0.0000

[...]

          k = 0.0000-0.3849 0.0362 (  6298 PWs)   bands (ev):

   -56.9683 -55.9007 -55.9000 -31.0749 -31.0532 -30.9907 -30.1375 -30.1371
   -29.9883 -29.9872 -29.9053 -29.9042  -8.9585  -8.3969  -6.8151  -6.7380
    -6.3616  -6.2720  -0.6889   0.0625   0.1678   0.2210   0.2913   0.6675
     0.8065   0.9887   1.2372   1.4135   2.5245   2.5790   2.7346   2.7568
     2.8263   3.0945   3.1941   3.6352   3.7268   4.1803   4.2207   5.6751
     5.8093   6.0282   6.2356   6.5436   6.6068   6.6783   7.1735   7.4562
     7.6375   8.2197   8.3795  10.0654  10.2398  10.3027  10.4608  10.7681
    10.9639  11.0239  11.1759  11.4802  11.7995  12.0322  12.2386  12.4320

     occupation numbers
     1.0000   1.0000   1.0000   1.0000   1.0000   1.0000   1.0000   1.0000
     1.0000   1.0000   1.0000   1.0000   1.0000   1.0000   1.0000   1.0000
     1.0000   1.0000   1.0000   1.0000   1.0000   1.0000   1.0000   1.0000
     1.0000   1.0000   1.0000   1.0000   1.0000   1.0000   1.0000   1.0000
     1.0000   1.0000   1.0000   1.0000   1.0000   1.0000   1.0000   0.0000
     0.0000   0.0000   0.0000   0.0000   0.0000   0.0000   0.0000   0.0000
     0.0000   0.0000   0.0000   0.0000   0.0000   0.0000   0.0000   0.0000
     0.0000   0.0000   0.0000   0.0000   0.0000   0.0000   0.0000   0.0000

     highest occupied, lowest unoccupied level (ev):     4.8284    4.9411

!    total energy              =    -604.88086727 Ry
     estimated scf accuracy    <       0.00000070 Ry

     The total energy is the sum of the following terms:
     one-electron contribution =   -2596.62882938 Ry
     hartree contribution      =    1313.28639777 Ry
     xc contribution           =    -164.24399811 Ry
     ewald contribution        =     842.70556245 Ry

     convergence has been achieved in  24 iterations

     Writing all to output data dir calculations_bands/myprefix.save/

     General routines

     Parallel routines

   This run was terminated on:  20: 2:30   4Jun2023

   JOB DONE.