     Program PWSCF v.7.0 starts on  6Jun2023 at 17:38:41

     K-points division:     npool     =       2
     R & G space division:  proc/nbgrp/npool/nimage =       4

     Reading input from espresso_19578.pwi
Warning: card &CELL ignored
Warning: card / ignored

     Current dimensions of program PWSCF are:
     Max number of different atomic species (ntypx) = 10
     Max number of k-points (npk) =  40000
     Max angular momentum in pseudopotentials (lmaxx) =  4
     file O.pbe-n-kjpaw_psl.0.1.UPF: wavefunction(s)  2P renormalized
     Message from routine setup:
     using ibrav=0 with symmetry is DISCOURAGED, use correct ibrav instead

     Using Slab Decomposition

     bravais-lattice index     =            0
     lattice parameter (alat)  =       5.7819  a.u.
     unit-cell volume          =     613.6666 (a.u.)^3
     number of atoms/cell      =            9
     number of atomic types    =            3
     number of electrons       =        58.00
     number of Kohn-Sham states=           64
     kinetic-energy cutoff     =      30.0000  Ry
     charge density cutoff     =     240.0000  Ry
     scf convergence threshold =      1.0E-06
     mixing beta               =       0.7000
     number of iterations used =            8  plain     mixing
     Exchange-correlation= SLA  PW   PBX  PBC
                           (   1   4   3   4   0   0   0)

     celldm(1)=   5.781912  celldm(2)=   0.000000  celldm(3)=   0.000000
     celldm(4)=   0.000000  celldm(5)=   0.000000  celldm(6)=   0.000000

     crystal axes: (cart. coord. in units of alat)
               a(1) = (   1.000000   0.000000   0.000000 )
               a(2) = (  -0.000009   1.641061   0.000000 )
               a(3) = (  -0.500164  -0.017209   1.934610 )

     reciprocal axes: (cart. coord. in units 2 pi/alat)
               b(1) = (  1.000000  0.000006  0.258535 )
               b(2) = (  0.000000  0.609362  0.005421 )
               b(3) = (  0.000000  0.000000  0.516900 )

     PseudoPot. # 1 for V  read from file:
     /home/pragov/projects/rrg-bengioy-ad/pragov/crystal_structure_design/SSSP/v_pbe_v1.4.uspp.F.UPF
     MD5 check sum: 22b79981416ebb76fdaf5b1b8640f6fb
     Pseudo is Ultrasoft + core correction, Zval = 13.0
     Generated by new atomic code, or converted to UPF format
     Using radial grid of  853 points,  6 beta functions with:
                l(1) =   0
                l(2) =   0
                l(3) =   1
                l(4) =   1
                l(5) =   2
                l(6) =   2
     Q(r) pseudized with  8 coefficients,  rinner =    1.100   1.100   1.100
                                                       1.100   1.100

     PseudoPot. # 2 for H  read from file:
     /home/pragov/projects/rrg-bengioy-ad/pragov/crystal_structure_design/SSSP/H.pbe-rrkjus_psl.1.0.0.UPF
     MD5 check sum: f52b6d4d1c606e5624b1dc7b2218f220
     Pseudo is Ultrasoft, Zval =  1.0
     Generated using "atomic" code by A. Dal Corso  v.5.1
     Using radial grid of  929 points,  2 beta functions with:
                l(1) =   0
                l(2) =   0
     Q(r) pseudized with 0 coefficients

     PseudoPot. # 3 for O  read from file:
     /home/pragov/projects/rrg-bengioy-ad/pragov/crystal_structure_design/SSSP/O.pbe-n-kjpaw_psl.0.1.UPF
     MD5 check sum: 0234752ac141de4415c5fc33072bef88
     Pseudo is Projector augmented-wave + core cor, Zval =  6.0
     Generated using "atomic" code by A. Dal Corso  v.5.0.99 svn rev. 10869
     Shape of augmentation charge: BESSEL
     Using radial grid of 1095 points,  4 beta functions with:
                l(1) =   0
                l(2) =   0
                l(3) =   1
                l(4) =   1
     Q(r) pseudized with 0 coefficients

     atomic species   valence    mass     pseudopotential
        V             13.00    50.94150     V ( 1.00)
        H              1.00     1.00800     H ( 1.00)
        O              6.00    15.99900     O ( 1.00)

      2 Sym. Ops., with inversion, found

                                    s                        frac. trans.

      isym =  1     identity

 cryst.   s( 1) = (     1          0          0      )
                  (     0          1          0      )
                  (     0          0          1      )

 cart.    s( 1) = (  1.0000000  0.0000000  0.0000000 )
                  (  0.0000000  1.0000000  0.0000000 )
                  (  0.0000000  0.0000000  1.0000000 )

      isym =  2     inversion

 cryst.   s( 2) = (    -1          0          0      )
                  (     0         -1          0      )
                  (     0          0         -1      )

 cart.    s( 2) = ( -1.0000000 -0.0000000 -0.0000000 )
                  (  0.0000000 -1.0000000 -0.0000000 )
                  (  0.0000000  0.0000000 -1.0000000 )

   Cartesian axes

     site n.     atom                  positions (alat units)
         1           V   tau(   1) = (   0.4999470   0.9825307   1.3698218  )
         2           V   tau(   2) = (  -0.0001199   0.6413209   0.5647881  )
         3           H   tau(   3) = (   0.4999496   1.5494455   0.5634048  )
         4           H   tau(   4) = (  -0.0001225   0.0744061   1.3712050  )
         5           O   tau(   5) = (  -0.0000046   0.8205305   0.0000000  )
         6           O   tau(   6) = (   0.4998937   1.0431545   0.7250879  )
         7           O   tau(   7) = (  -0.0000657   0.5806971   1.2095219  )
         8           O   tau(   8) = (  -0.0001010   1.3883891   1.4195122  )
         9           O   tau(   9) = (   0.4999281   0.2354608   0.5150976  )

   Crystallographic axes

     site n.     atom                  positions (cryst. coord.)
         1           V   tau(   1) = (  0.8540990  0.6061420  0.7080610  )
         2           V   tau(   2) = (  0.1459010  0.3938580  0.2919390  )
         3           H   tau(   3) = (  0.6456180  0.9472270  0.2912240  )
         4           H   tau(   4) = (  0.3543820  0.0527730  0.7087760  )
         5           O   tau(   5) = (  0.0000000  0.5000000  0.0000000  )
         6           O   tau(   6) = (  0.6873600  0.6395890  0.3747980  )
         7           O   tau(   7) = (  0.3126410  0.3604110  0.6252020  )
         8           O   tau(   8) = (  0.3669000  0.8537260  0.7337460  )
         9           O   tau(   9) = (  0.6331000  0.1462730  0.2662540  )

     number of k points=    14
                       cart. coord. in units 2pi/alat
        k(    1) = (   0.0000000   0.0000000   0.0000000), wk =   0.0740741
        k(    2) = (   0.0000000   0.0000000   0.1723000), wk =   0.1481481
        k(    3) = (   0.0000000   0.2031206   0.0018069), wk =   0.1481481
        k(    4) = (   0.0000000   0.2031206   0.1741069), wk =   0.1481481
        k(    5) = (   0.0000000   0.2031206  -0.1704932), wk =   0.1481481
        k(    6) = (   0.3333333   0.0000019   0.0861782), wk =   0.1481481
        k(    7) = (   0.3333333   0.0000019   0.2584783), wk =   0.1481481
        k(    8) = (   0.3333333   0.0000019  -0.0861218), wk =   0.1481481
        k(    9) = (   0.3333333   0.2031225   0.0879851), wk =   0.1481481
        k(   10) = (   0.3333333   0.2031225   0.2602851), wk =   0.1481481
        k(   11) = (   0.3333333   0.2031225  -0.0843149), wk =   0.1481481
        k(   12) = (   0.3333333  -0.2031187   0.0843714), wk =   0.1481481
        k(   13) = (   0.3333333  -0.2031187   0.2566714), wk =   0.1481481
        k(   14) = (   0.3333333  -0.2031187  -0.0879287), wk =   0.1481481

                       cryst. coord.
        k(    1) = (   0.0000000   0.0000000   0.0000000), wk =   0.0740741
        k(    2) = (   0.0000000   0.0000000   0.3333333), wk =   0.1481481
        k(    3) = (   0.0000000   0.3333333  -0.0000000), wk =   0.1481481
        k(    4) = (   0.0000000   0.3333333   0.3333333), wk =   0.1481481
        k(    5) = (   0.0000000   0.3333333  -0.3333333), wk =   0.1481481
        k(    6) = (   0.3333333   0.0000000  -0.0000000), wk =   0.1481481
        k(    7) = (   0.3333333   0.0000000   0.3333333), wk =   0.1481481
        k(    8) = (   0.3333333   0.0000000  -0.3333333), wk =   0.1481481
        k(    9) = (   0.3333333   0.3333333  -0.0000000), wk =   0.1481481
        k(   10) = (   0.3333333   0.3333333   0.3333333), wk =   0.1481481
        k(   11) = (   0.3333333   0.3333333  -0.3333333), wk =   0.1481481
        k(   12) = (   0.3333333  -0.3333333  -0.0000000), wk =   0.1481481
        k(   13) = (   0.3333333  -0.3333333   0.3333333), wk =   0.1481481
        k(   14) = (   0.3333333  -0.3333333  -0.3333333), wk =   0.1481481

     Check: negative core charge=   -0.000017

     Initial potential from superposition of free atoms

     starting charge      57.9975, renormalised to      58.0000

     negative rho (up, down):  4.892E-04 0.000E+00
     Starting wfcs are   42 randomized atomic wfcs +   22 random wfcs
     Checking if some PAW data can be deallocated...

     Self-consistent Calculation

     iteration #  1     ecut=    30.00 Ry     beta= 0.70
     Davidson diagonalization with overlap

     ethr =  1.00E-02,  avg # of iterations =  7.3

     negative rho (up, down):  4.546E-03 0.000E+00

     total energy              =    -499.30908707 Ry
     estimated scf accuracy    <       2.79691305 Ry

[...]

     total energy              =    -500.95294414 Ry
     estimated scf accuracy    <       0.00000467 Ry

     iteration # 11     ecut=    30.00 Ry     beta= 0.70
     Davidson diagonalization with overlap

     ethr =  8.05E-09,  avg # of iterations =  1.0

     negative rho (up, down):  2.209E-03 0.000E+00

     End of self-consistent calculation

          k = 0.0000 0.0000 0.0000 (  1659 PWs)   bands (ev):

   -58.8045 -58.7915 -32.8005 -32.6665 -32.5944 -32.5723 -32.4391 -32.4366
   -13.5140 -13.0410 -11.8823 -11.2811 -11.2664  -1.7747  -1.7419   0.7532
     1.4562   1.6841   1.9204   2.1198   2.6962   3.0261   3.6066   3.8128
     3.8317   4.4332   4.4753   4.8982   6.8155   6.8356   7.0971   7.8114
     8.2216   8.4785   9.8920  10.2838  10.3954  10.4007  11.8902  15.9426
    16.3363  17.4925  18.0541  18.1284  19.4085  20.0878  20.4434  22.5558
    22.6917  23.3364  24.0852  24.2828  25.8166  26.2969  26.6900  26.7019
    26.8039  28.1230  28.6371  28.7617  28.9408  29.4388  29.9950  30.1475

     occupation numbers
     1.0000   1.0000   1.0000   1.0000   1.0000   1.0000   1.0000   1.0000
     1.0000   1.0000   1.0000   1.0000   1.0000   1.0000   1.0000   1.0000
     1.0000   1.0000   1.0000   1.0000   1.0000   1.0000   1.0000   1.0000
     1.0000   1.0000   1.0000   1.0000   1.0000   0.0000   0.0000   0.0000
     0.0000   0.0000   0.0000   0.0000   0.0000   0.0000   0.0000   0.0000
     0.0000   0.0000   0.0000   0.0000   0.0000   0.0000   0.0000   0.0000
     0.0000   0.0000   0.0000   0.0000   0.0000   0.0000   0.0000   0.0000
     0.0000   0.0000   0.0000   0.0000   0.0000   0.0000   0.0000   0.0000

[...]

          k = 0.3333-0.2031-0.0879 (  1703 PWs)   bands (ev):

   -58.7916 -58.7851 -32.7786 -32.7430 -32.6920 -32.6687 -32.4170 -32.4129
   -12.9824 -12.8429 -11.9464 -11.4364 -11.2431  -0.9784  -0.8864   0.7967
     1.0101   1.2186   1.6948   1.9136   2.3634   2.5782   2.9713   3.1136
     3.6050   4.0655   4.1981   4.3638   7.0764   7.2322   7.4877   7.7122
     8.2744   8.3512   9.3552   9.5025   9.9872  11.1330  14.8068  16.0052
    17.4124  17.7227  18.2510  18.4696  19.6464  20.3826  20.7439  21.2206
    21.5918  22.0674  22.8533  22.9582  23.8958  24.4577  25.4925  26.8177
    27.2261  27.4354  28.0499  28.6076  29.5656  30.3978  31.1647  31.9629

     occupation numbers
     1.0000   1.0000   1.0000   1.0000   1.0000   1.0000   1.0000   1.0000
     1.0000   1.0000   1.0000   1.0000   1.0000   1.0000   1.0000   1.0000
     1.0000   1.0000   1.0000   1.0000   1.0000   1.0000   1.0000   1.0000
     1.0000   1.0000   1.0000   1.0000   1.0000   0.0000   0.0000   0.0000
     0.0000   0.0000   0.0000   0.0000   0.0000   0.0000   0.0000   0.0000
     0.0000   0.0000   0.0000   0.0000   0.0000   0.0000   0.0000   0.0000
     0.0000   0.0000   0.0000   0.0000   0.0000   0.0000   0.0000   0.0000
     0.0000   0.0000   0.0000   0.0000   0.0000   0.0000   0.0000   0.0000

     highest occupied, lowest unoccupied level (ev):     7.1467    6.8356

!    total energy              =    -500.95294479 Ry
     estimated scf accuracy    <       0.00000004 Ry

     The total energy is the sum of the following terms:
     one-electron contribution =    -282.69161880 Ry
     hartree contribution      =     163.89421216 Ry
     xc contribution           =     -77.41492148 Ry
     ewald contribution        =    -257.13457899 Ry
     one-center paw contrib.   =     -47.60603769 Ry
      -> PAW hartree energy AE =       0.00000000 Ry
      -> PAW hartree energy PS =       0.00000000 Ry
      -> PAW xc energy AE      =       0.00000000 Ry
      -> PAW xc energy PS      =       0.00000000 Ry
      -> total E_H with PAW    =     163.89421216 Ry
      -> total E_XC with PAW   =     -77.41492148 Ry

     convergence has been achieved in  11 iterations

     Writing all to output data dir calculations_bands/myprefix.save/

     General routines

     Parallel routines

     PAW routines

   This run was terminated on:  17:38:51   6Jun2023

   JOB DONE.