     Program PWSCF v.7.0 starts on  7Jun2023 at  9:55:55

     K-points division:     npool     =       2
     R & G space division:  proc/nbgrp/npool/nimage =       4

     Reading input from espresso_9782.pwi
Warning: card &CELL ignored
Warning: card / ignored

     Current dimensions of program PWSCF are:
     Max number of different atomic species (ntypx) = 10
     Max number of k-points (npk) =  40000
     Max angular momentum in pseudopotentials (lmaxx) =  4
     file Fe.pbe-spn-kjpaw_psl.0.2.1.UPF: wavefunction(s)  3D renormalized
     Message from routine setup:
     using ibrav=0 with symmetry is DISCOURAGED, use correct ibrav instead

     Using Slab Decomposition

     bravais-lattice index     =            0
     lattice parameter (alat)  =      13.8206  a.u.
     unit-cell volume          =    2075.6440 (a.u.)^3
     number of atoms/cell      =           13
     number of atomic types    =            3
     number of electrons       =       112.00
     number of Kohn-Sham states=           64
     kinetic-energy cutoff     =      30.0000  Ry
     charge density cutoff     =     240.0000  Ry
     scf convergence threshold =      1.0E-06
     mixing beta               =       0.7000
     number of iterations used =            8  plain     mixing
     Exchange-correlation= SLA  PW   PBE  PBE
                           (   1   4   3   4   0   0   0)

     celldm(1)=  13.820648  celldm(2)=   0.000000  celldm(3)=   0.000000
     celldm(4)=   0.000000  celldm(5)=   0.000000  celldm(6)=   0.000000

     crystal axes: (cart. coord. in units of alat)
               a(1) = (   1.000000   0.000000   0.000000 )
               a(2) = (   0.470620   0.882336   0.000000 )
               a(3) = (   0.734398   0.440621   0.891115 )

     reciprocal axes: (cart. coord. in units 2 pi/alat)
               b(1) = (  1.000000 -0.533379 -0.560399 )
               b(2) = (  0.000000  1.133355 -0.560399 )
               b(3) = (  0.000000  0.000000  1.122190 )

     PseudoPot. # 1 for Zr read from file:
     /home/pragov/projects/rrg-bengioy-ad/pragov/crystal_structure_design/SSSP/Zr_pbe_v1.uspp.F.UPF
     MD5 check sum: 5db81b1e868ab7776c4564c113de050b
     Pseudo is Ultrasoft + core correction, Zval = 12.0
     Generated by new atomic code, or converted to UPF format
     Using radial grid of  887 points,  6 beta functions with:
                l(1) =   0
                l(2) =   0
                l(3) =   1
                l(4) =   1
                l(5) =   2
                l(6) =   2
     Q(r) pseudized with  6 coefficients,  rinner =    1.200   1.200   1.200
                                                       1.200   1.200

     PseudoPot. # 2 for Fe read from file:
     /home/pragov/projects/rrg-bengioy-ad/pragov/crystal_structure_design/SSSP/Fe.pbe-spn-kjpaw_psl.0.2.1.UPF
     MD5 check sum: e86618425769142926afa95317d90200
     Pseudo is Projector augmented-wave + core cor, Zval = 16.0
     Generated using "atomic" code by A. Dal Corso  v.5.0.99 svn rev. 10869
     Shape of augmentation charge: PSQ
     Using radial grid of 1191 points,  6 beta functions with:
                l(1) =   0
                l(2) =   0
                l(3) =   1
                l(4) =   1
                l(5) =   2
                l(6) =   2
     Q(r) pseudized with 0 coefficients

     PseudoPot. # 3 for Se read from file:
     /home/pragov/projects/rrg-bengioy-ad/pragov/crystal_structure_design/SSSP/Se_pbe_v1.uspp.F.UPF
     MD5 check sum: 1b3568f3a8ae88f9a2a0ad0698632c85
     Pseudo is Ultrasoft + core correction, Zval =  6.0
     Generated by new atomic code, or converted to UPF format
     Using radial grid of  877 points,  6 beta functions with:
                l(1) =   0
                l(2) =   0
                l(3) =   1
                l(4) =   1
                l(5) =   2
                l(6) =   2
     Q(r) pseudized with  8 coefficients,  rinner =    1.300   1.300   1.300
                                                       1.300   1.300

     atomic species   valence    mass     pseudopotential
        Zr            12.00    91.22400     Zr( 1.00)
        Fe            16.00    55.84500     Fe( 1.00)
        Se             6.00    78.97100     Se( 1.00)

      2 Sym. Ops., with inversion, found

                                    s                        frac. trans.

      isym =  1     identity

 cryst.   s( 1) = (     1          0          0      )
                  (     0          1          0      )
                  (     0          0          1      )

 cart.    s( 1) = (  1.0000000  0.0000000  0.0000000 )
                  (  0.0000000  1.0000000  0.0000000 )
                  (  0.0000000  0.0000000  1.0000000 )

      isym =  2     inversion

 cryst.   s( 2) = (    -1          0          0      )
                  (     0         -1          0      )
                  (     0          0         -1      )

 cart.    s( 2) = ( -1.0000000 -0.0000000 -0.0000000 )
                  (  0.0000000 -1.0000000 -0.0000000 )
                  (  0.0000000  0.0000000 -1.0000000 )

   Cartesian axes

     site n.     atom                  positions (alat units)
         1           Zr  tau(   1) = (   0.3656481   0.2193800   0.0044208  )
         2           Zr  tau(   2) = (   1.8393691   1.1035770   0.8866938  )
         3           Zr  tau(   3) = (   1.2385292   0.4347684   0.4455573  )
         4           Zr  tau(   4) = (   0.9664881   0.8881886   0.4455573  )
         5           Fe  tau(   5) = (   0.0000000   0.0000000   0.0000000  )
         6           Se  tau(   6) = (   0.9123467   0.5473859   0.5947772  )
         7           Se  tau(   7) = (   1.6474947   0.9884569   0.5940883  )
         8           Se  tau(   8) = (   0.7756165   0.7665888   0.1478074  )
         9           Se  tau(   9) = (   1.0414094   0.3235828   0.1478074  )
        10           Se  tau(  10) = (   1.1636079   0.9993742   0.7433073  )
        11           Se  tau(  11) = (   1.4294008   0.5563682   0.7433073  )
        12           Se  tau(  12) = (   0.5575226   0.3345000   0.2970263  )
        13           Se  tau(  13) = (   1.2926706   0.7755711   0.2963375  )

   Crystallographic axes

     site n.     atom                  positions (cryst. coord.)
         1           Zr  tau(   1) = (  0.2461580  0.2461580  0.0049610  )
         2           Zr  tau(   2) = (  0.7538420  0.7538420  0.9950390  )
         3           Zr  tau(   3) = (  0.7569430  0.2430570  0.5000000  )
         4           Zr  tau(   4) = (  0.2430570  0.7569430  0.5000000  )
         5           Fe  tau(   5) = (  0.0000000  0.0000000  0.0000000  )
         6           Se  tau(   6) = (  0.2870700  0.2870700  0.6674530  )
         7           Se  tau(   7) = (  0.7873460  0.7873460  0.6666800  )
         8           Se  tau(   8) = (  0.2839030  0.7859860  0.1658680  )
         9           Se  tau(   9) = (  0.7859860  0.2839030  0.1658680  )
        10           Se  tau(  10) = (  0.2140140  0.7160970  0.8341320  )
        11           Se  tau(  11) = (  0.7160970  0.2140140  0.8341320  )
        12           Se  tau(  12) = (  0.2126540  0.2126540  0.3333200  )
        13           Se  tau(  13) = (  0.7129300  0.7129300  0.3325470  )

     number of k points=    14
                       cart. coord. in units 2pi/alat
        k(    1) = (   0.0000000   0.0000000   0.0000000), wk =   0.0740741
        k(    2) = (   0.0000000   0.0000000   0.3740633), wk =   0.1481481
        k(    3) = (   0.0000000   0.3777850  -0.1867997), wk =   0.1481481
        k(    4) = (   0.0000000   0.3777850   0.1872637), wk =   0.1481481
        k(    5) = (   0.0000000   0.3777850  -0.5608630), wk =   0.1481481
        k(    6) = (   0.3333333  -0.1777930  -0.1867997), wk =   0.1481481
        k(    7) = (   0.3333333  -0.1777930   0.1872637), wk =   0.1481481
        k(    8) = (   0.3333333  -0.1777930  -0.5608630), wk =   0.1481481
        k(    9) = (   0.3333333   0.1999919  -0.3735993), wk =   0.1481481
        k(   10) = (   0.3333333   0.1999919   0.0004640), wk =   0.1481481
        k(   11) = (   0.3333333   0.1999919  -0.7476627), wk =   0.1481481
        k(   12) = (   0.3333333  -0.5555780  -0.0000000), wk =   0.1481481
        k(   13) = (   0.3333333  -0.5555780   0.3740633), wk =   0.1481481
        k(   14) = (   0.3333333  -0.5555780  -0.3740633), wk =   0.1481481

                       cryst. coord.
        k(    1) = (   0.0000000   0.0000000   0.0000000), wk =   0.0740741
        k(    2) = (   0.0000000   0.0000000   0.3333333), wk =   0.1481481
        k(    3) = (   0.0000000   0.3333333  -0.0000000), wk =   0.1481481
        k(    4) = (   0.0000000   0.3333333   0.3333333), wk =   0.1481481
        k(    5) = (   0.0000000   0.3333333  -0.3333333), wk =   0.1481481
        k(    6) = (   0.3333333   0.0000000  -0.0000000), wk =   0.1481481
        k(    7) = (   0.3333333   0.0000000   0.3333333), wk =   0.1481481
        k(    8) = (   0.3333333   0.0000000  -0.3333333), wk =   0.1481481
        k(    9) = (   0.3333333   0.3333333   0.0000000), wk =   0.1481481
        k(   10) = (   0.3333333   0.3333333   0.3333333), wk =   0.1481481
        k(   11) = (   0.3333333   0.3333333  -0.3333333), wk =   0.1481481
        k(   12) = (   0.3333333  -0.3333333   0.0000000), wk =   0.1481481
        k(   13) = (   0.3333333  -0.3333333   0.3333333), wk =   0.1481481
        k(   14) = (   0.3333333  -0.3333333  -0.3333333), wk =   0.1481481

     Check: negative core charge=   -0.000024

     Initial potential from superposition of free atoms

     starting charge     111.9904, renormalised to     112.0000

     negative rho (up, down):  2.434E-01 0.000E+00
     Starting wfcs are   97 randomized atomic wfcs
     Checking if some PAW data can be deallocated...

     Self-consistent Calculation

     iteration #  1     ecut=    30.00 Ry     beta= 0.70
     Davidson diagonalization with overlap

     ethr =  1.00E-02,  avg # of iterations =  2.0

     negative rho (up, down):  2.495E-01 0.000E+00

     total energy              =   -1073.01472279 Ry
     estimated scf accuracy    <       3.20269179 Ry

[...]

     total energy              =   -1075.52145575 Ry
     estimated scf accuracy    <       0.00000193 Ry

     iteration # 18     ecut=    30.00 Ry     beta= 0.70
     Davidson diagonalization with overlap

     ethr =  1.72E-09,  avg # of iterations =  2.0

     negative rho (up, down):  2.517E-01 0.000E+00

     End of self-consistent calculation

          k = 0.0000 0.0000 0.0000 (  5749 PWs)   bands (ev):

   -77.9518 -43.6306 -43.5721 -43.5325 -40.9747 -40.9662 -40.9392 -40.9338
   -19.1228 -19.1225 -19.1169 -18.9947 -18.9909 -18.9664 -18.9584 -18.9467
   -18.9413 -18.9240 -18.9145 -18.9100  -5.1343  -4.2482  -4.1201  -4.0716
    -3.9664  -3.8156  -3.7374  -3.6167   2.9440   3.4611   3.5026   3.5375
     4.1783   4.4357   5.0426   5.1066   5.3659   5.4493   5.4962   5.6060
     5.7074   5.7778   5.8591   5.9096   6.5492   6.6121   6.8050   7.0098
     7.2519   7.5751   7.9968   7.9969   8.0031   8.1471   8.1593   8.4244
     8.4572   8.7516   9.0949   9.2694   9.7435   9.7680  10.0284  11.0645

     occupation numbers
     1.0000   1.0000   1.0000   1.0000   1.0000   1.0000   1.0000   1.0000
     1.0000   1.0000   1.0000   1.0000   1.0000   1.0000   1.0000   1.0000
     1.0000   1.0000   1.0000   1.0000   1.0000   1.0000   1.0000   1.0000
     1.0000   1.0000   1.0000   1.0000   1.0000   1.0000   1.0000   1.0000
     1.0000   1.0000   1.0000   1.0000   1.0000   1.0000   1.0000   1.0000
     1.0000   1.0000   1.0000   1.0000   1.0000   1.0000   1.0000   1.0000
     1.0000   1.0000   1.0000   1.0000   1.0000   1.0000   1.0000   1.0000
     0.0000   0.0000   0.0000   0.0000   0.0000   0.0000   0.0000   0.0000

[...]

          k = 0.3333-0.5556-0.3741 (  5779 PWs)   bands (ev):

   -77.9536 -43.6426 -43.5724 -43.5391 -40.9727 -40.9678 -40.9380 -40.9355
   -19.0989 -19.0969 -19.0739 -19.0013 -18.9923 -18.9877 -18.9690 -18.9665
   -18.9495 -18.9421 -18.9184 -18.9163  -4.5230  -4.4574  -4.2920  -4.1001
    -4.0666  -3.9281  -3.8054  -3.7337   3.6063   3.8754   4.2004   4.2982
     4.4903   4.6126   4.7914   4.8324   5.2017   5.2777   5.4097   5.4691
     5.6348   5.7765   5.8423   5.9606   6.0237   6.2116   6.4585   6.4887
     6.5830   6.7363   6.9085   7.2576   7.8306   7.9967   8.0487   8.7229
     9.0421   9.1994   9.2922   9.6672   9.8570  10.2969  10.5598  10.6740

     occupation numbers
     1.0000   1.0000   1.0000   1.0000   1.0000   1.0000   1.0000   1.0000
     1.0000   1.0000   1.0000   1.0000   1.0000   1.0000   1.0000   1.0000
     1.0000   1.0000   1.0000   1.0000   1.0000   1.0000   1.0000   1.0000
     1.0000   1.0000   1.0000   1.0000   1.0000   1.0000   1.0000   1.0000
     1.0000   1.0000   1.0000   1.0000   1.0000   1.0000   1.0000   1.0000
     1.0000   1.0000   1.0000   1.0000   1.0000   1.0000   1.0000   1.0000
     1.0000   1.0000   1.0000   1.0000   1.0000   1.0000   1.0000   1.0000
     0.0000   0.0000   0.0000   0.0000   0.0000   0.0000   0.0000   0.0000

     highest occupied, lowest unoccupied level (ev):     8.9706    8.4572

!    total energy              =   -1075.52145576 Ry
     estimated scf accuracy    <       0.00000021 Ry

     The total energy is the sum of the following terms:
     one-electron contribution =    -382.73521198 Ry
     hartree contribution      =     233.11103165 Ry
     xc contribution           =    -343.61479673 Ry
     ewald contribution        =    -506.21643782 Ry
     one-center paw contrib.   =     -76.06604088 Ry
      -> PAW hartree energy AE =       0.00000000 Ry
      -> PAW hartree energy PS =       0.00000000 Ry
      -> PAW xc energy AE      =       0.00000000 Ry
      -> PAW xc energy PS      =       0.00000000 Ry
      -> total E_H with PAW    =     233.11103165 Ry
      -> total E_XC with PAW   =    -343.61479673 Ry

     convergence has been achieved in  18 iterations

     Writing all to output data dir calculations_bands/myprefix.save/

     General routines

     Parallel routines

     PAW routines

   This run was terminated on:   9:56:30   7Jun2023

   JOB DONE.