     Program PWSCF v.7.0 starts on  7Jun2023 at  8:27:28

     K-points division:     npool     =       2
     R & G space division:  proc/nbgrp/npool/nimage =       4

     Reading input from espresso_4353.pwi
Warning: card &CELL ignored
Warning: card / ignored

     Current dimensions of program PWSCF are:
     Max number of different atomic species (ntypx) = 10
     Max number of k-points (npk) =  40000
     Max angular momentum in pseudopotentials (lmaxx) =  4
     file O.pbe-n-kjpaw_psl.0.1.UPF: wavefunction(s)  2P renormalized
     Message from routine setup:
     using ibrav=0 with symmetry is DISCOURAGED, use correct ibrav instead

     Using Slab Decomposition

     bravais-lattice index     =            0
     lattice parameter (alat)  =      12.1894  a.u.
     unit-cell volume          =     844.1642 (a.u.)^3
     number of atoms/cell      =           10
     number of atomic types    =            3
     number of electrons       =        84.00
     number of Kohn-Sham states=           64
     kinetic-energy cutoff     =      30.0000  Ry
     charge density cutoff     =     240.0000  Ry
     scf convergence threshold =      1.0E-06
     mixing beta               =       0.7000
     number of iterations used =            8  plain     mixing
     Exchange-correlation= SLA  PW   PBX  PBC
                           (   1   4   3   4   0   0   0)

     celldm(1)=  12.189401  celldm(2)=   0.000000  celldm(3)=   0.000000
     celldm(4)=   0.000000  celldm(5)=   0.000000  celldm(6)=   0.000000

     crystal axes: (cart. coord. in units of alat)
               a(1) = (   1.000000   0.000000   0.000000 )
               a(2) = (   0.699009   0.715113   0.000000 )
               a(3) = (   0.699009   0.294213   0.651786 )

     reciprocal axes: (cart. coord. in units 2 pi/alat)
               b(1) = (  1.000000 -0.977481 -0.631221 )
               b(2) = (  0.000000  1.398381 -0.631221 )
               b(3) = (  0.000000  0.000000  1.534245 )

     PseudoPot. # 1 for Ag read from file:
     /home/pragov/projects/rrg-bengioy-ad/pragov/crystal_structure_design/SSSP/Ag_ONCV_PBE-1.0.oncvpsp.upf
     MD5 check sum: 94f47bd0669c641108e45594df92fabc
     Pseudo is Norm-conserving, Zval = 19.0
     Generated using ONCVPSP code by D. R. Hamann
     Using radial grid of 1398 points,  6 beta functions with:
                l(1) =   0
                l(2) =   0
                l(3) =   1
                l(4) =   1
                l(5) =   2
                l(6) =   2

     PseudoPot. # 2 for As read from file:
     /home/pragov/projects/rrg-bengioy-ad/pragov/crystal_structure_design/SSSP/As.pbe-n-rrkjus_psl.0.2.UPF
     MD5 check sum: 767315de957beeeb34f87d97bf945c8f
     Pseudo is Ultrasoft + core correction, Zval =  5.0
     Generated using "atomic" code by A. Dal Corso  v.5.0.99 svn rev. 10869
     Using radial grid of 1209 points,  4 beta functions with:
                l(1) =   0
                l(2) =   0
                l(3) =   1
                l(4) =   1
     Q(r) pseudized with 0 coefficients

     PseudoPot. # 3 for O  read from file:
     /home/pragov/projects/rrg-bengioy-ad/pragov/crystal_structure_design/SSSP/O.pbe-n-kjpaw_psl.0.1.UPF
     MD5 check sum: 0234752ac141de4415c5fc33072bef88
     Pseudo is Projector augmented-wave + core cor, Zval =  6.0
     Generated using "atomic" code by A. Dal Corso  v.5.0.99 svn rev. 10869
     Shape of augmentation charge: BESSEL
     Using radial grid of 1095 points,  4 beta functions with:
                l(1) =   0
                l(2) =   0
                l(3) =   1
                l(4) =   1
     Q(r) pseudized with 0 coefficients

     atomic species   valence    mass     pseudopotential
        Ag            19.00   107.86820     Ag( 1.00)
        As             5.00    74.92159     As( 1.00)
        O              6.00    15.99900     O ( 1.00)

      2 Sym. Ops., with inversion, found

                                    s                        frac. trans.

      isym =  1     identity

 cryst.   s( 1) = (     1          0          0      )
                  (     0          1          0      )
                  (     0          0          1      )

 cart.    s( 1) = (  1.0000000  0.0000000  0.0000000 )
                  (  0.0000000  1.0000000 -0.0000000 )
                  (  0.0000000  0.0000000  1.0000000 )

      isym =  2     inversion

 cryst.   s( 2) = (    -1          0          0      )
                  (     0         -1          0      )
                  (     0          0         -1      )

 cart.    s( 2) = ( -1.0000000 -0.0000000 -0.0000000 )
                  (  0.0000000 -1.0000000  0.0000000 )
                  (  0.0000000  0.0000000 -1.0000000 )

   Cartesian axes

     site n.     atom                  positions (alat units)
         1           Ag  tau(   1) = (   0.3449884   0.1452056   0.0937686  )
         2           Ag  tau(   2) = (   2.0530294   0.8641201   0.5580177  )
         3           As  tau(   3) = (   0.8049019   0.3387832   0.2187740  )
         4           As  tau(   4) = (   1.5931160   0.6705425   0.4330123  )
         5           O   tau(   5) = (   1.0318155   0.1731968   0.2926136  )
         6           O   tau(   6) = (   1.5529143   0.4888604   0.2099958  )
         7           O   tau(   7) = (   1.4350914   0.5076969   0.6143145  )
         8           O   tau(   8) = (   0.9629265   0.5016289   0.0374718  )
         9           O   tau(   9) = (   0.8451035   0.5204654   0.4417906  )
        10           O   tau(  10) = (   1.3662024   0.8361290   0.3591727  )

   Crystallographic axes

     site n.     atom                  positions (cryst. coord.)
         1           Ag  tau(   1) = (  0.1438640  0.1438640  0.1438640  )
         2           Ag  tau(   2) = (  0.8561360  0.8561360  0.8561360  )
         3           As  tau(   3) = (  0.3356530  0.3356530  0.3356530  )
         4           As  tau(   4) = (  0.6643470  0.6643470  0.6643470  )
         5           O   tau(   5) = (  0.6778150  0.0574910  0.4489410  )
         6           O   tau(   6) = (  0.9425090  0.5510590  0.3221850  )
         7           O   tau(   7) = (  0.5510590  0.3221850  0.9425090  )
         8           O   tau(   8) = (  0.4489410  0.6778150  0.0574910  )
         9           O   tau(   9) = (  0.0574910  0.4489410  0.6778150  )
        10           O   tau(  10) = (  0.3221850  0.9425090  0.5510590  )

     number of k points=    14
                       cart. coord. in units 2pi/alat
        k(    1) = (   0.0000000   0.0000000   0.0000000), wk =   0.0740741
        k(    2) = (   0.0000000   0.0000000   0.5114150), wk =   0.1481481
        k(    3) = (   0.0000000   0.4661269  -0.2104072), wk =   0.1481481
        k(    4) = (   0.0000000   0.4661269   0.3010079), wk =   0.1481481
        k(    5) = (   0.0000000   0.4661269  -0.7218222), wk =   0.1481481
        k(    6) = (   0.3333333  -0.3258268  -0.2104072), wk =   0.1481481
        k(    7) = (   0.3333333  -0.3258268   0.3010079), wk =   0.1481481
        k(    8) = (   0.3333333  -0.3258268  -0.7218222), wk =   0.1481481
        k(    9) = (   0.3333333   0.1403000  -0.4208143), wk =   0.1481481
        k(   10) = (   0.3333333   0.1403000   0.0906007), wk =   0.1481481
        k(   11) = (   0.3333333   0.1403000  -0.9322294), wk =   0.1481481
        k(   12) = (   0.3333333  -0.7919537   0.0000000), wk =   0.1481481
        k(   13) = (   0.3333333  -0.7919537   0.5114150), wk =   0.1481481
        k(   14) = (   0.3333333  -0.7919537  -0.5114150), wk =   0.1481481

                       cryst. coord.
        k(    1) = (   0.0000000   0.0000000   0.0000000), wk =   0.0740741
        k(    2) = (   0.0000000   0.0000000   0.3333333), wk =   0.1481481
        k(    3) = (   0.0000000   0.3333333   0.0000000), wk =   0.1481481
        k(    4) = (   0.0000000   0.3333333   0.3333333), wk =   0.1481481
        k(    5) = (   0.0000000   0.3333333  -0.3333333), wk =   0.1481481
        k(    6) = (   0.3333333   0.0000000   0.0000000), wk =   0.1481481
        k(    7) = (   0.3333333   0.0000000   0.3333333), wk =   0.1481481
        k(    8) = (   0.3333333   0.0000000  -0.3333333), wk =   0.1481481
        k(    9) = (   0.3333333   0.3333333   0.0000000), wk =   0.1481481
        k(   10) = (   0.3333333   0.3333333   0.3333333), wk =   0.1481481
        k(   11) = (   0.3333333   0.3333333  -0.3333333), wk =   0.1481481
        k(   12) = (   0.3333333  -0.3333333   0.0000000), wk =   0.1481481
        k(   13) = (   0.3333333  -0.3333333   0.3333333), wk =   0.1481481
        k(   14) = (   0.3333333  -0.3333333  -0.3333333), wk =   0.1481481

     Check: negative core charge=   -0.000009

     Initial potential from superposition of free atoms

     starting charge      83.9989, renormalised to      84.0000
     Starting wfcs are   52 randomized atomic wfcs +   12 random wfcs
     Checking if some PAW data can be deallocated...

     Self-consistent Calculation

     iteration #  1     ecut=    30.00 Ry     beta= 0.70
     Davidson diagonalization with overlap

     ethr =  1.00E-02,  avg # of iterations =  5.5

     total energy              =    -859.20236729 Ry
     estimated scf accuracy    <       1.63495602 Ry

[...]

     total energy              =    -859.90093179 Ry
     estimated scf accuracy    <       0.00001096 Ry

     iteration #  8     ecut=    30.00 Ry     beta= 0.70
     Davidson diagonalization with overlap

     ethr =  1.30E-08,  avg # of iterations =  1.8

     End of self-consistent calculation

          k = 0.0000 0.0000 0.0000 (  2377 PWs)   bands (ev):

   -82.1908 -82.1861 -45.2797 -45.2796 -45.2464 -45.2464 -45.2352 -45.2334
   -13.0298 -10.2264 -10.2263 -10.1604  -9.0389  -9.0388  -3.9704   0.0258
     1.1874   2.1910   2.1910   2.5675   2.5675   5.1108   5.1108   5.1358
     5.1358   5.4650   5.4822   5.6322   6.3574   6.3575   6.4168   6.4169
     6.5571   6.7498   6.7498   6.8715   6.8715   7.7008   7.7542   7.7543
     8.3483   8.3483   8.6054  12.0193  12.9126  14.1156  16.2542  16.2542
    16.7074  16.7074  16.9237  18.0938  18.4245  18.4245  19.5469  19.5762
    19.8487  20.0598  20.0598  22.2611  22.2611  23.3397  24.0193  24.1952

     occupation numbers
     1.0000   1.0000   1.0000   1.0000   1.0000   1.0000   1.0000   1.0000
     1.0000   1.0000   1.0000   1.0000   1.0000   1.0000   1.0000   1.0000
     1.0000   1.0000   1.0000   1.0000   1.0000   1.0000   1.0000   1.0000
     1.0000   1.0000   1.0000   1.0000   1.0000   1.0000   1.0000   1.0000
     1.0000   1.0000   1.0000   1.0000   1.0000   1.0000   1.0000   1.0000
     1.0000   1.0000   0.0000   0.0000   0.0000   0.0000   0.0000   0.0000
     0.0000   0.0000   0.0000   0.0000   0.0000   0.0000   0.0000   0.0000
     0.0000   0.0000   0.0000   0.0000   0.0000   0.0000   0.0000   0.0000

[...]

          k = 0.3333-0.7920-0.5114 (  2344 PWs)   bands (ev):

   -82.1897 -82.1870 -45.2806 -45.2737 -45.2522 -45.2400 -45.2298 -45.2275
   -12.5734 -11.0872 -10.3297  -9.9386  -9.2414  -9.0370  -2.7985  -0.2523
     1.3020   2.1680   2.3737   2.6378   3.2898   4.2442   4.7720   4.9917
     5.1717   5.2643   5.5813   5.7438   5.9741   6.0683   6.1634   6.2566
     6.4345   6.7542   6.9350   7.1038   7.1964   7.3569   7.6630   7.7159
     7.8097   8.1580  11.5301  11.8960  12.3776  13.8680  15.2435  16.0444
    16.3114  16.6819  17.0691  17.3982  18.2374  18.7766  19.1361  20.2082
    20.5187  21.2005  21.3465  22.1517  22.7376  22.9994  23.6669  24.3337

     occupation numbers
     1.0000   1.0000   1.0000   1.0000   1.0000   1.0000   1.0000   1.0000
     1.0000   1.0000   1.0000   1.0000   1.0000   1.0000   1.0000   1.0000
     1.0000   1.0000   1.0000   1.0000   1.0000   1.0000   1.0000   1.0000
     1.0000   1.0000   1.0000   1.0000   1.0000   1.0000   1.0000   1.0000
     1.0000   1.0000   1.0000   1.0000   1.0000   1.0000   1.0000   1.0000
     1.0000   1.0000   0.0000   0.0000   0.0000   0.0000   0.0000   0.0000
     0.0000   0.0000   0.0000   0.0000   0.0000   0.0000   0.0000   0.0000
     0.0000   0.0000   0.0000   0.0000   0.0000   0.0000   0.0000   0.0000

     highest occupied, lowest unoccupied level (ev):     8.3483    8.6054

!    total energy              =    -859.90093413 Ry
     estimated scf accuracy    <       0.00000013 Ry

     The total energy is the sum of the following terms:
     one-electron contribution =    -383.78937574 Ry
     hartree contribution      =     234.09372870 Ry
     xc contribution           =    -117.27423435 Ry
     ewald contribution        =    -535.74026980 Ry
     one-center paw contrib.   =     -57.19078293 Ry
      -> PAW hartree energy AE =       0.00000000 Ry
      -> PAW hartree energy PS =       0.00000000 Ry
      -> PAW xc energy AE      =       0.00000000 Ry
      -> PAW xc energy PS      =       0.00000000 Ry
      -> total E_H with PAW    =     234.09372870 Ry
      -> total E_XC with PAW   =    -117.27423435 Ry

     convergence has been achieved in   8 iterations

     Writing all to output data dir calculations_bands/myprefix.save/

     General routines

     Parallel routines

     PAW routines

   This run was terminated on:   8:27:43   7Jun2023

   JOB DONE.