     Program PWSCF v.7.0 starts on  7Jun2023 at  4:15:39

     K-points division:     npool     =       2
     R & G space division:  proc/nbgrp/npool/nimage =       4

     Reading input from espresso_1538.pwi
Warning: card &CELL ignored
Warning: card / ignored

     Current dimensions of program PWSCF are:
     Max number of different atomic species (ntypx) = 10
     Max number of k-points (npk) =  40000
     Max angular momentum in pseudopotentials (lmaxx) =  4
     Message from routine setup:
     using ibrav=0 with symmetry is DISCOURAGED, use correct ibrav instead

     Using Slab Decomposition

     bravais-lattice index     =            0
     lattice parameter (alat)  =      15.4408  a.u.
     unit-cell volume          =     762.8172 (a.u.)^3
     number of atoms/cell      =           12
     number of atomic types    =            2
     number of electrons       =       124.00
     number of Kohn-Sham states=           64
     kinetic-energy cutoff     =      30.0000  Ry
     charge density cutoff     =     240.0000  Ry
     scf convergence threshold =      1.0E-06
     mixing beta               =       0.7000
     number of iterations used =            8  plain     mixing
     Exchange-correlation=  SLA  PW   PBX  PBC
                           (   1   4   3   4   0   0   0)

     celldm(1)=  15.440805  celldm(2)=   0.000000  celldm(3)=   0.000000
     celldm(4)=   0.000000  celldm(5)=   0.000000  celldm(6)=   0.000000

     crystal axes: (cart. coord. in units of alat)
               a(1) = (   1.000000   0.000000   0.000000 )
               a(2) = (   0.798156   0.477212   0.000000 )
               a(3) = (   0.201844  -0.197973   0.434210 )

     reciprocal axes: (cart. coord. in units 2 pi/alat)
               b(1) = (  1.000000 -1.672540 -1.227429 )
               b(2) = (  0.000000  2.095505  0.955421 )
               b(3) = (  0.000000  0.000000  2.303035 )

     PseudoPot. # 1 for Cr read from file:
     /home/pragov/projects/rrg-bengioy-ad/pragov/crystal_structure_design/SSSP/cr_pbe_v1.5.uspp.F.UPF
     MD5 check sum: 0d52af634a40206e4dee301ad30da4bf
     Pseudo is Ultrasoft + core correction, Zval = 14.0
     Generated by new atomic code, or converted to UPF format
     Using radial grid of  857 points,  6 beta functions with:
                l(1) =   0
                l(2) =   0
                l(3) =   1
                l(4) =   1
                l(5) =   2
                l(6) =   2
     Q(r) pseudized with  8 coefficients,  rinner =    0.950   0.950   0.950
                                                       0.950   0.950

     PseudoPot. # 2 for B  read from file:
     /home/pragov/projects/rrg-bengioy-ad/pragov/crystal_structure_design/SSSP/b_pbe_v1.4.uspp.F.UPF
     MD5 check sum: cc6de2960df11db49a60e589f9ebb39b
     Pseudo is Ultrasoft + core correction, Zval =  3.0
     Generated by new atomic code, or converted to UPF format
     Using radial grid of  781 points,  4 beta functions with:
                l(1) =   0
                l(2) =   0
                l(3) =   1
                l(4) =   1
     Q(r) pseudized with  8 coefficients,  rinner =    1.100   1.100   1.100

     atomic species   valence    mass     pseudopotential
        Cr            14.00    51.99610     Cr( 1.00)
        B              3.00    10.81000     B ( 1.00)

      2 Sym. Ops., with inversion, found ( 1 have fractional translation)

                                    s                        frac. trans.

      isym =  1     identity

 cryst.   s( 1) = (     1          0          0      )
                  (     0          1          0      )
                  (     0          0          1      )

 cart.    s( 1) = (  1.0000000  0.0000000  0.0000000 )
                  (  0.0000000  1.0000000  0.0000000 )
                  (  0.0000000  0.0000000  1.0000000 )

      isym =  2     inversion

 cryst.   s( 2) = (    -1          0          0      )    f =( -0.2500000 )
                  (     0         -1          0      )       ( -0.2500000 )
                  (     0          0         -1      )       ( -0.2500000 )

 cart.    s( 2) = ( -1.0000000 -0.0000000 -0.0000000 )    f =( -0.5000000 )
                  (  0.0000000 -1.0000000 -0.0000000 )       ( -0.0698098 )
                  (  0.0000000  0.0000000 -1.0000000 )       ( -0.1085524 )

   Cartesian axes

     site n.     atom                  positions (alat units)
         1           Cr  tau(   1) = (   0.6325721   0.1258832   0.0724917  )
         2           Cr  tau(   2) = (   1.6655838   0.4211385   0.0360607  )
         3           Cr  tau(   3) = (   1.5668257   0.0976607   0.3975354  )
         4           Cr  tau(   4) = (   0.3344162  -0.1418993   0.3981489  )
         5           Cr  tau(   5) = (   0.9331743   0.2513883   0.1452266  )
         6           Cr  tau(   6) = (   1.4331743   0.3211981   0.2537790  )
         7           Cr  tau(   7) = (   0.3674279   0.0137364   0.1446131  )
         8           Cr  tau(   8) = (   1.0668257   0.0278509   0.2889830  )
         9           B   tau(   9) = (   0.7998592   0.0549670   0.2715447  )
        10           B   tau(  10) = (   1.2998592   0.1247768   0.3800971  )
        11           B   tau(  11) = (   1.2001408   0.2242722   0.1626649  )
        12           B   tau(  12) = (   1.7001408   0.2940820   0.2712173  )

   Crystallographic axes

     site n.     atom                  positions (cryst. coord.)
         1           Cr  tau(   1) = (  0.3330490  0.3330490  0.1669510  )
         2           Cr  tau(   2) = (  0.9169510  0.9169510  0.0830490  )
         3           Cr  tau(   3) = (  0.9155380  0.5844620  0.9155380  )
         4           Cr  tau(   4) = (  0.0830490  0.0830490  0.9169510  )
         5           Cr  tau(   5) = (  0.3344620  0.6655380  0.3344620  )
         6           Cr  tau(   6) = (  0.5844620  0.9155380  0.5844620  )
         7           Cr  tau(   7) = (  0.1669510  0.1669510  0.3330490  )
         8           Cr  tau(   8) = (  0.6655380  0.3344620  0.6655380  )
         9           B   tau(   9) = (  0.3746230  0.3746230  0.6253770  )
        10           B   tau(  10) = (  0.6246230  0.6246230  0.8753770  )
        11           B   tau(  11) = (  0.6253770  0.6253770  0.3746230  )
        12           B   tau(  12) = (  0.8753770  0.8753770  0.6246230  )

     number of k points=    14
                       cart. coord. in units 2pi/alat
        k(    1) = (   0.0000000   0.0000000   0.0000000), wk =   0.0740741
        k(    2) = (   0.0000000   0.0000000   0.7676784), wk =   0.1481481
        k(    3) = (   0.0000000   0.6985018   0.3184736), wk =   0.1481481
        k(    4) = (   0.0000000   0.6985018   1.0861520), wk =   0.1481481
        k(    5) = (   0.0000000   0.6985018  -0.4492048), wk =   0.1481481
        k(    6) = (   0.3333333  -0.5575133  -0.4091429), wk =   0.1481481
        k(    7) = (   0.3333333  -0.5575133   0.3585355), wk =   0.1481481
        k(    8) = (   0.3333333  -0.5575133  -1.1768213), wk =   0.1481481
        k(    9) = (   0.3333333   0.1409884  -0.0906693), wk =   0.1481481
        k(   10) = (   0.3333333   0.1409884   0.6770091), wk =   0.1481481
        k(   11) = (   0.3333333   0.1409884  -0.8583478), wk =   0.1481481
        k(   12) = (   0.3333333  -1.2560151  -0.7276165), wk =   0.1481481
        k(   13) = (   0.3333333  -1.2560151   0.0400619), wk =   0.1481481
        k(   14) = (   0.3333333  -1.2560151  -1.4952949), wk =   0.1481481

                       cryst. coord.
        k(    1) = (   0.0000000   0.0000000   0.0000000), wk =   0.0740741
        k(    2) = (   0.0000000   0.0000000   0.3333333), wk =   0.1481481
        k(    3) = (   0.0000000   0.3333333  -0.0000000), wk =   0.1481481
        k(    4) = (   0.0000000   0.3333333   0.3333333), wk =   0.1481481
        k(    5) = (   0.0000000   0.3333333  -0.3333333), wk =   0.1481481
        k(    6) = (   0.3333333   0.0000000   0.0000000), wk =   0.1481481
        k(    7) = (   0.3333333   0.0000000   0.3333333), wk =   0.1481481
        k(    8) = (   0.3333333   0.0000000  -0.3333333), wk =   0.1481481
        k(    9) = (   0.3333333   0.3333333   0.0000000), wk =   0.1481481
        k(   10) = (   0.3333333   0.3333333   0.3333333), wk =   0.1481481
        k(   11) = (   0.3333333   0.3333333  -0.3333333), wk =   0.1481481
        k(   12) = (   0.3333333  -0.3333333   0.0000000), wk =   0.1481481
        k(   13) = (   0.3333333  -0.3333333   0.3333333), wk =   0.1481481
        k(   14) = (   0.3333333  -0.3333333  -0.3333333), wk =   0.1481481

     Check: negative core charge=   -0.000018

     Initial potential from superposition of free atoms

     starting charge     115.9987, renormalised to     124.0000

     negative rho (up, down):  3.765E-03 0.000E+00
     Starting wfcs are   96 randomized atomic wfcs

     Self-consistent Calculation

     iteration #  1     ecut=    30.00 Ry     beta= 0.70
     Davidson diagonalization with overlap

     ethr =  1.00E-02,  avg # of iterations =  3.2

     negative rho (up, down):  2.517E-02 0.000E+00

     total energy              =   -1416.68526925 Ry
     estimated scf accuracy    <      23.04508606 Ry

[...]

     c_bands:  1 eigenvalues not converged
     ethr =  1.71E-05,  avg # of iterations =  7.9

[...]

     c_bands:  1 eigenvalues not converged
     ethr =  1.71E-05,  avg # of iterations =  6.6

[...]

     total energy              =   -1429.75437563 Ry
     estimated scf accuracy    <       0.00002351 Ry

     iteration # 22     ecut=    30.00 Ry     beta= 0.70
     Davidson diagonalization with overlap

     ethr =  1.90E-08,  avg # of iterations =  4.6

     negative rho (up, down):  5.854E-03 0.000E+00

     End of self-consistent calculation

          k = 0.0000 0.0000 0.0000 (  2091 PWs)   bands (ev):

   -53.3161 -53.2770 -53.1990 -53.1937 -53.1409 -53.1226 -53.1219 -53.0943
   -24.8023 -24.7764 -24.7722 -24.7582 -24.7543 -24.7478 -24.6863 -24.6742
   -24.6620 -24.6512 -24.6455 -24.6232 -24.5895 -24.5626 -24.5163 -24.4949
   -24.3550 -24.3264 -24.2892 -24.2605 -24.2018 -24.1899 -24.1851 -24.1618
     6.9572   8.4049  11.6984  12.4648  12.8906  12.9259  14.0675  14.1891
    14.6853  14.9345  14.9463  15.2150  15.4490  15.6381  15.6466  15.7483
    15.7845  15.9405  16.0886  16.1686  16.1814  16.3217  16.3576  16.4720
    18.0137  18.1163  18.1289  18.1404  18.1488  18.1891  18.3288  18.5335

     occupation numbers
     1.0000   1.0000   1.0000   1.0000   1.0000   1.0000   1.0000   1.0000
     1.0000   1.0000   1.0000   1.0000   1.0000   1.0000   1.0000   1.0000
     1.0000   1.0000   1.0000   1.0000   1.0000   1.0000   1.0000   1.0000
     1.0000   1.0000   1.0000   1.0000   1.0000   1.0000   1.0000   1.0000
     1.0000   1.0000   1.0000   1.0000   1.0000   1.0000   1.0000   1.0000
     1.0000   1.0000   1.0000   1.0000   1.0000   1.0000   1.0000   1.0000
     1.0000   1.0000   1.0000   1.0000   1.0000   1.0000   1.0000   1.0000
     1.0000   1.0000   1.0000   1.0000   1.0000   1.0000   0.0000   0.0000

[...]

          k = 0.3333-1.2560-1.4953 (  2118 PWs)   bands (ev):

   -53.2619 -53.2471 -53.1912 -53.1881 -53.1580 -53.1556 -53.1409 -53.1254
   -24.8554 -24.8391 -24.8249 -24.8184 -24.7753 -24.7639 -24.6514 -24.6404
   -24.6172 -24.5785 -24.5496 -24.5346 -24.5293 -24.5082 -24.4947 -24.4784
   -24.4130 -24.3970 -24.3363 -24.3299 -24.2070 -24.2023 -24.1920 -24.1876
     8.2077   8.7672  10.4171  10.7379  13.1089  13.6365  14.0877  14.1937
    14.5426  14.7934  15.0873  15.2074  15.7885  15.8085  15.8950  15.9482
    16.0178  16.0852  16.1615  16.1937  16.3176  16.5217  16.9663  16.9788
    17.1208  17.1896  17.5315  17.6298  18.3946  18.5080  19.1532  19.1971

     occupation numbers
     1.0000   1.0000   1.0000   1.0000   1.0000   1.0000   1.0000   1.0000
     1.0000   1.0000   1.0000   1.0000   1.0000   1.0000   1.0000   1.0000
     1.0000   1.0000   1.0000   1.0000   1.0000   1.0000   1.0000   1.0000
     1.0000   1.0000   1.0000   1.0000   1.0000   1.0000   1.0000   1.0000
     1.0000   1.0000   1.0000   1.0000   1.0000   1.0000   1.0000   1.0000
     1.0000   1.0000   1.0000   1.0000   1.0000   1.0000   1.0000   1.0000
     1.0000   1.0000   1.0000   1.0000   1.0000   1.0000   1.0000   1.0000
     1.0000   1.0000   1.0000   1.0000   1.0000   1.0000   0.0000   0.0000

     highest occupied, lowest unoccupied level (ev):    18.5624   18.3288

!    total energy              =   -1429.75437717 Ry
     estimated scf accuracy    <       0.00000044 Ry

     The total energy is the sum of the following terms:
     one-electron contribution =    -492.09794616 Ry
     hartree contribution      =     317.46485604 Ry
     xc contribution           =    -191.67117495 Ry
     ewald contribution        =   -1063.45011211 Ry

     convergence has been achieved in  22 iterations

     Writing all to output data dir calculations_bands/myprefix.save/

     General routines

     Parallel routines

   This run was terminated on:   4:16: 6   7Jun2023

   JOB DONE.