     Program PWSCF v.7.0 starts on  7Jun2023 at  1:55:13

     K-points division:     npool     =       2
     R & G space division:  proc/nbgrp/npool/nimage =       4

     Reading input from espresso_1207.pwi
Warning: card &CELL ignored
Warning: card / ignored

     Current dimensions of program PWSCF are:
     Max number of different atomic species (ntypx) = 10
     Max number of k-points (npk) =  40000
     Max angular momentum in pseudopotentials (lmaxx) =  4
     Message from routine setup:
     using ibrav=0 with symmetry is DISCOURAGED, use correct ibrav instead

     Using Slab Decomposition

     bravais-lattice index     =            0
     lattice parameter (alat)  =       9.7290  a.u.
     unit-cell volume          =    1218.9093 (a.u.)^3
     number of atoms/cell      =            8
     number of atomic types    =            2
     number of electrons       =       100.00
     number of Kohn-Sham states=           64
     kinetic-energy cutoff     =      30.0000  Ry
     charge density cutoff     =     240.0000  Ry
     scf convergence threshold =      1.0E-06
     mixing beta               =       0.7000
     number of iterations used =            8  plain     mixing
     Exchange-correlation= SLA  PW   PBE  PBE
                           (   1   4   3   4   0   0   0)

     celldm(1)=   9.728994  celldm(2)=   0.000000  celldm(3)=   0.000000
     celldm(4)=   0.000000  celldm(5)=   0.000000  celldm(6)=   0.000000

     crystal axes: (cart. coord. in units of alat)
               a(1) = (   1.000000   0.000000   0.000000 )
               a(2) = (   0.000000   1.112007   0.000000 )
               a(3) = (   0.000000   0.000000   1.190310 )

     reciprocal axes: (cart. coord. in units 2 pi/alat)
               b(1) = (  1.000000  0.000000  0.000000 )
               b(2) = (  0.000000  0.899275  0.000000 )
               b(3) = (  0.000000  0.000000  0.840117 )

     PseudoPot. # 1 for Zr read from file:
     /home/pragov/projects/rrg-bengioy-ad/pragov/crystal_structure_design/SSSP/Zr_pbe_v1.uspp.F.UPF
     MD5 check sum: 5db81b1e868ab7776c4564c113de050b
     Pseudo is Ultrasoft + core correction, Zval = 12.0
     Generated by new atomic code, or converted to UPF format
     Using radial grid of  887 points,  6 beta functions with:
                l(1) =   0
                l(2) =   0
                l(3) =   1
                l(4) =   1
                l(5) =   2
                l(6) =   2
     Q(r) pseudized with  6 coefficients,  rinner =    1.200   1.200   1.200
                                                       1.200   1.200

     PseudoPot. # 2 for Sn read from file:
     /home/pragov/projects/rrg-bengioy-ad/pragov/crystal_structure_design/SSSP/Sn_pbe_v1.uspp.F.UPF
     MD5 check sum: 4cf58ce39ec5d5d420df3dd08604eb00
     Pseudo is Ultrasoft + core correction, Zval = 14.0
     Generated by new atomic code, or converted to UPF format
     Using radial grid of  891 points,  6 beta functions with:
                l(1) =   0
                l(2) =   0
                l(3) =   1
                l(4) =   1
                l(5) =   2
                l(6) =   2
     Q(r) pseudized with  6 coefficients,  rinner =    1.200   1.200   1.200
                                                       1.200   1.200

     atomic species   valence    mass     pseudopotential
        Zr            12.00    91.22400     Zr( 1.00)
        Sn            14.00   118.71000     Sn( 1.00)

      8 Sym. Ops., with inversion, found ( 4 have fractional translation)

                                    s                        frac. trans.

      isym =  1     identity

 cryst.   s( 1) = (     1          0          0      )
                  (     0          1          0      )
                  (     0          0          1      )

 cart.    s( 1) = (  1.0000000  0.0000000  0.0000000 )
                  (  0.0000000  1.0000000  0.0000000 )
                  (  0.0000000  0.0000000  1.0000000 )

      isym =  2     180 deg rotation - cart. axis [0,0,1]

 cryst.   s( 2) = (    -1          0          0      )    f =(  0.5000000 )
                  (     0         -1          0      )       (  0.0000000 )
                  (     0          0          1      )       (  0.5000000 )

 cart.    s( 2) = ( -1.0000000  0.0000000  0.0000000 )    f =(  0.5000000 )
                  (  0.0000000 -1.0000000  0.0000000 )       (  0.0000000 )
                  (  0.0000000  0.0000000  1.0000000 )       (  0.5951551 )

[...]

      isym =  4     180 deg rotation - cart. axis [1,0,0]

[...]

      isym =  5     inversion

[...]

      isym =  6     inv. 180 deg rotation - cart. axis [0,0,1]

[...]

 cryst.   s( 7) = (     1          0          0      )    f =( -0.5000000 )
                  (     0         -1          0      )       (  0.0000000 )
                  (     0          0          1      )       (  0.5000000 )

 cart.    s( 7) = (  1.0000000  0.0000000  0.0000000 )    f =( -0.5000000 )
                  (  0.0000000 -1.0000000  0.0000000 )       (  0.0000000 )
                  (  0.0000000  0.0000000  1.0000000 )       (  0.5951551 )

      isym =  8     inv. 180 deg rotation - cart. axis [1,0,0]

 cryst.   s( 8) = (    -1          0          0      )
                  (     0          1          0      )
                  (     0          0          1      )

 cart.    s( 8) = ( -1.0000000  0.0000000  0.0000000 )
                  (  0.0000000  1.0000000  0.0000000 )
                  (  0.0000000  0.0000000  1.0000000 )

   Cartesian axes

     site n.     atom                  positions (alat units)
         1           Zr  tau(   1) = (   0.0000000   0.7210707   0.2975740  )
         2           Zr  tau(   2) = (   0.0000000   0.1491790   0.5951551  )
         3           Zr  tau(   3) = (   0.0000000   0.7210707   0.8927362  )
         4           Zr  tau(   4) = (   0.5000000   0.9628277   0.0000000  )
         5           Zr  tau(   5) = (   0.5000000   0.3909360   0.2975811  )
         6           Zr  tau(   6) = (   0.5000000   0.3909360   0.8927291  )
         7           Sn  tau(   7) = (   0.0000000   0.1853637   0.0000000  )
         8           Sn  tau(   8) = (   0.5000000   0.9266430   0.5951551  )

   Crystallographic axes

     site n.     atom                  positions (cryst. coord.)
         1           Zr  tau(   1) = (  0.0000000  0.6484410  0.2499970  )
         2           Zr  tau(   2) = (  0.0000000  0.1341530  0.5000000  )
         3           Zr  tau(   3) = (  0.0000000  0.6484410  0.7500030  )
         4           Zr  tau(   4) = (  0.5000000  0.8658470  0.0000000  )
         5           Zr  tau(   5) = (  0.5000000  0.3515590  0.2500030  )
         6           Zr  tau(   6) = (  0.5000000  0.3515590  0.7499970  )
         7           Sn  tau(   7) = (  0.0000000  0.1666930  0.0000000  )
         8           Sn  tau(   8) = (  0.5000000  0.8333070  0.5000000  )

     number of k points=     8
                       cart. coord. in units 2pi/alat
        k(    1) = (   0.0000000   0.0000000   0.0000000), wk =   0.0740741
        k(    2) = (   0.0000000   0.0000000   0.2800390), wk =   0.1481481
        k(    3) = (   0.0000000   0.2997584   0.0000000), wk =   0.1481481
        k(    4) = (   0.0000000   0.2997584   0.2800390), wk =   0.2962963
        k(    5) = (   0.3333333   0.0000000   0.0000000), wk =   0.1481481
        k(    6) = (   0.3333333   0.0000000   0.2800390), wk =   0.2962963
        k(    7) = (   0.3333333   0.2997584   0.0000000), wk =   0.2962963
        k(    8) = (   0.3333333   0.2997584   0.2800390), wk =   0.5925926

                       cryst. coord.
        k(    1) = (   0.0000000   0.0000000   0.0000000), wk =   0.0740741
        k(    2) = (   0.0000000   0.0000000   0.3333333), wk =   0.1481481
        k(    3) = (   0.0000000   0.3333333   0.0000000), wk =   0.1481481
        k(    4) = (   0.0000000   0.3333333   0.3333333), wk =   0.2962963
        k(    5) = (   0.3333333   0.0000000   0.0000000), wk =   0.1481481
        k(    6) = (   0.3333333   0.0000000   0.3333333), wk =   0.2962963
        k(    7) = (   0.3333333   0.3333333   0.0000000), wk =   0.2962963
        k(    8) = (   0.3333333   0.3333333   0.3333333), wk =   0.5925926

     Check: negative core charge=   -0.000003

     Initial potential from superposition of free atoms

     starting charge      97.9870, renormalised to     100.0000

     negative rho (up, down):  3.718E-01 0.000E+00
     Starting wfcs are   96 randomized atomic wfcs

     Self-consistent Calculation

     iteration #  1     ecut=    30.00 Ry     beta= 0.70
     Davidson diagonalization with overlap

     ethr =  1.00E-02,  avg # of iterations =  2.0

     Threshold (ethr) on eigenvalues was too large:
     Diagonalizing with lowered threshold

     Davidson diagonalization with overlap

[...]

     negative rho (up, down):  3.659E-01 0.000E+00

     total energy              =    -921.38679549 Ry
     estimated scf accuracy    <       0.69979221 Ry

[...]

     c_bands:  1 eigenvalues not converged
     c_bands:  1 eigenvalues not converged
     ethr =  1.14E-05,  avg # of iterations = 10.2

[...]

     total energy              =    -921.58785333 Ry
     estimated scf accuracy    <       0.00000318 Ry

     iteration #  9     ecut=    30.00 Ry     beta= 0.70
     Davidson diagonalization with overlap

     ethr =  3.18E-09,  avg # of iterations =  4.0

     negative rho (up, down):  3.708E-01 0.000E+00

     End of self-consistent calculation

          k = 0.0000 0.0000 0.0000 (  3383 PWs)   bands (ev):

   -34.5053 -34.4802 -34.3383 -34.2877 -34.2822 -34.2104 -12.8241 -12.7812
   -12.7604 -12.6826 -12.6625 -12.6424 -12.6342 -12.5976 -12.5406 -12.3858
   -12.3750 -12.2652 -12.2366 -12.1308 -12.1055 -12.0831 -11.9931 -11.9398
    -6.7101  -6.7080  -6.6895  -6.6839  -6.6732  -6.6706  -6.6696  -6.6687
    -6.6631  -6.6601   5.5224   6.8977  10.8278  11.2566  11.3373  11.7629
    11.7743  12.2650  12.2812  12.3310  13.1029  13.1792  13.2749  13.6005
    13.7986  13.9147  14.7852  14.9786  15.0312  15.0436  15.2811  15.7778
    16.2422  16.5211  16.9024  17.2753  17.3955  17.4895  17.5180  17.5613

     occupation numbers
     1.0000   1.0000   1.0000   1.0000   1.0000   1.0000   1.0000   1.0000
     1.0000   1.0000   1.0000   1.0000   1.0000   1.0000   1.0000   1.0000
     1.0000   1.0000   1.0000   1.0000   1.0000   1.0000   1.0000   1.0000
     1.0000   1.0000   1.0000   1.0000   1.0000   1.0000   1.0000   1.0000
     1.0000   1.0000   1.0000   1.0000   1.0000   1.0000   1.0000   1.0000
     1.0000   1.0000   1.0000   1.0000   1.0000   1.0000   1.0000   1.0000
     1.0000   1.0000   0.0000   0.0000   0.0000   0.0000   0.0000   0.0000
     0.0000   0.0000   0.0000   0.0000   0.0000   0.0000   0.0000   0.0000

[...]

          k = 0.3333 0.2998 0.2800 (  3380 PWs)   bands (ev):

   -34.4853 -34.4821 -34.3214 -34.2853 -34.2835 -34.2476 -12.7913 -12.7729
   -12.7407 -12.6924 -12.6819 -12.5911 -12.5364 -12.4772 -12.4276 -12.4061
   -12.3645 -12.3070 -12.2040 -12.1883 -12.1543 -12.1361 -12.1180 -12.0943
    -6.6978  -6.6977  -6.6902  -6.6895  -6.6748  -6.6732  -6.6692  -6.6670
    -6.6653  -6.6633   6.5905   6.8288  10.3756  10.5107  10.7485  11.4332
    11.9584  12.1325  12.5920  12.7175  13.1332  13.2738  13.6213  13.8065
    14.0616  14.4135  14.5197  14.7515  15.0808  15.1683  15.1937  15.5569
    15.7654  16.0880  16.2838  16.6023  17.0113  17.1395  17.4153  17.7037

     occupation numbers
     1.0000   1.0000   1.0000   1.0000   1.0000   1.0000   1.0000   1.0000
     1.0000   1.0000   1.0000   1.0000   1.0000   1.0000   1.0000   1.0000
     1.0000   1.0000   1.0000   1.0000   1.0000   1.0000   1.0000   1.0000
     1.0000   1.0000   1.0000   1.0000   1.0000   1.0000   1.0000   1.0000
     1.0000   1.0000   1.0000   1.0000   1.0000   1.0000   1.0000   1.0000
     1.0000   1.0000   1.0000   1.0000   1.0000   1.0000   1.0000   1.0000
     1.0000   1.0000   0.0000   0.0000   0.0000   0.0000   0.0000   0.0000
     0.0000   0.0000   0.0000   0.0000   0.0000   0.0000   0.0000   0.0000

     highest occupied, lowest unoccupied level (ev):    14.4135   14.1418

!    total energy              =    -921.58785405 Ry
     estimated scf accuracy    <       0.00000026 Ry

     The total energy is the sum of the following terms:
     one-electron contribution =    -191.30138651 Ry
     hartree contribution      =     148.82141798 Ry
     xc contribution           =    -202.13506043 Ry
     ewald contribution        =    -676.97282509 Ry

     convergence has been achieved in   9 iterations

     Writing all to output data dir calculations_bands/myprefix.save/

     General routines

     Parallel routines

   This run was terminated on:   1:55:22   7Jun2023

   JOB DONE.