     Program PWSCF v.7.0 starts on 23Jun2023 at  4:19:45

     K-points division:     npool     =       2
     R & G space division:  proc/nbgrp/npool/nimage =       4

     Reading input from espresso_3048.pwi
Warning: card &CELL ignored
Warning: card / ignored

     Current dimensions of program PWSCF are:
     Max number of different atomic species (ntypx) = 10
     Max number of k-points (npk) =  40000
     Max angular momentum in pseudopotentials (lmaxx) =  4
     file O.pbe-n-kjpaw_psl.0.1.UPF: wavefunction(s)  2P renormalized

     Using Slab Decomposition

     bravais-lattice index     =            0
     lattice parameter (alat)  =      11.0930  a.u.
     unit-cell volume          =    1116.5399 (a.u.)^3
     number of atoms/cell      =           14
     number of atomic types    =            2
     number of electrons       =       138.00
     number of Kohn-Sham states=           90
     kinetic-energy cutoff     =      30.0000  Ry
     charge density cutoff     =     240.0000  Ry
     scf convergence threshold =      1.0E-06
     mixing beta               =       0.7000
     number of iterations used =            8  plain     mixing
     Exchange-correlation= SLA  PW   PBX  PBC
                           (   1   4   3   4   0   0   0)

     celldm(1)=  11.092958  celldm(2)=   0.000000  celldm(3)=   0.000000
     celldm(4)=   0.000000  celldm(5)=   0.000000  celldm(6)=   0.000000

     crystal axes: (cart. coord. in units of alat)
               a(1) = (   1.000000   0.000000   0.000000 )
               a(2) = (  -0.501895   0.957897   0.000000 )
               a(3) = (   0.000004  -0.521445   0.853913 )

     reciprocal axes: (cart. coord. in units 2 pi/alat)
               b(1) = (  1.000000  0.523955  0.319950 )
               b(2) = (  0.000000  1.043954  0.637495 )
               b(3) = (  0.000000  0.000000  1.171080 )

     PseudoPot. # 1 for Mn read from file:
     /home/pragov/projects/rrg-bengioy-ad/pragov/crystal_structure_design/SSSP/mn_pbe_v1.5.uspp.F.UPF
     MD5 check sum: 82ef2b46521d7a7d9e736dc3972e4928
     Pseudo is Ultrasoft + core correction, Zval = 15.0
     Generated by new atomic code, or converted to UPF format
     Using radial grid of  859 points,  6 beta functions with:
                l(1) =   0
                l(2) =   0
                l(3) =   1
                l(4) =   1
                l(5) =   2
                l(6) =   2
     Q(r) pseudized with  8 coefficients,  rinner =    0.950   0.950   0.950
                                                       0.950   0.950

     PseudoPot. # 2 for O  read from file:
     /home/pragov/projects/rrg-bengioy-ad/pragov/crystal_structure_design/SSSP/O.pbe-n-kjpaw_psl.0.1.UPF
     MD5 check sum: 0234752ac141de4415c5fc33072bef88
     Pseudo is Projector augmented-wave + core cor, Zval =  6.0
     Generated using "atomic" code by A. Dal Corso  v.5.0.99 svn rev. 10869
     Shape of augmentation charge: BESSEL
     Using radial grid of 1095 points,  4 beta functions with:
                l(1) =   0
                l(2) =   0
                l(3) =   1
                l(4) =   1
     Q(r) pseudized with 0 coefficients

     atomic species   valence    mass     pseudopotential
        Mn            15.00    54.93804     Mn( 1.00)
        O              6.00    15.99900     O ( 1.00)

     No symmetry found

                                    s                        frac. trans.

      isym =  1     identity

 cryst.   s( 1) = (     1          0          0      )
                  (     0          1          0      )
                  (     0          0          1      )

 cart.    s( 1) = (  1.0000000  0.0000000 -0.0000000 )
                  (  0.0000000  1.0000000 -0.0000000 )
                  (  0.0000000  0.0000000  1.0000000 )

   Cartesian axes

     site n.     atom                  positions (alat units)
         1           Mn  tau(   1) = (   0.2491126  -0.0866251   0.5326170  )
         2           Mn  tau(   2) = (   0.2489943   0.5230858   0.3212975  )
         3           Mn  tau(   3) = (  -0.0018921   0.4364504   0.8539094  )
         4           Mn  tau(   4) = (  -0.2509429   0.4789468   0.0000009  )
         5           Mn  tau(   5) = (   0.4981079   0.4364489   0.8539119  )
         6           Mn  tau(   6) = (  -0.2509433   0.2182308   0.4269573  )
         7           O   tau(   7) = (   0.5266766   0.0994488   0.6476963  )
         8           O   tau(   8) = (  -0.2529124   0.8306398   0.1827297  )
         9           O   tau(   9) = (   0.7510022  -0.1047876   0.1970549  )
        10           O   tau(  10) = (   0.7510224  -0.3941910   0.6711823  )
        11           O   tau(  11) = (   0.5283027   0.3375822   0.2065863  )
        12           O   tau(  12) = (  -0.0285667   0.3369995   0.2062165  )
        13           O   tau(  13) = (  -0.0301943   0.0988671   0.6473265  )
        14           O   tau(  14) = (  -0.2528933   0.5412379   0.6568579  )

   Crystallographic axes

     site n.     atom                  positions (cryst. coord.)
         1           Mn  tau(   1) = (  0.3741360  0.2491080  0.6237370  )
         2           Mn  tau(   2) = (  0.6258670  0.7509030  0.3762650  )
         3           Mn  tau(   3) = (  0.4999970  0.9999970  0.9999960  )
         4           Mn  tau(   4) = (  0.0000040  0.4999990  0.0000010  )
         5           Mn  tau(   5) = (  0.9999970  0.9999970  0.9999990  )
         6           Mn  tau(   6) = (  0.0000050  0.5000060  0.5000010  )
         7           O   tau(   7) = (  0.7860140  0.5167230  0.7585040  )
         8           O   tau(   8) = (  0.2407700  0.9836390  0.2139910  )
         9           O   tau(   9) = (  0.7591460  0.0162280  0.2307670  )
        10           O   tau(  10) = (  0.7592290  0.0163580  0.7860080  )
        11           O   tau(  11) = (  0.7712780  0.4841180  0.2419290  )
        12           O   tau(  12) = (  0.2139850  0.4832740  0.2414960  )
        13           O   tau(  13) = (  0.2287200  0.5158800  0.7580710  )
        14           O   tau(  14) = (  0.2408530  0.9837710  0.7692330  )

     number of k points=    14
                       cart. coord. in units 2pi/alat
        k(    1) = (   0.0000000   0.0000000   0.0000000), wk =   0.0740741
        k(    2) = (   0.0000000   0.0000000   0.3903599), wk =   0.1481481
        k(    3) = (   0.0000000   0.3479847   0.2124983), wk =   0.1481481
        k(    4) = (   0.0000000   0.3479847   0.6028582), wk =   0.1481481
        k(    5) = (   0.0000000   0.3479847  -0.1778616), wk =   0.1481481
        k(    6) = (   0.3333333   0.1746517   0.1066501), wk =   0.1481481
        k(    7) = (   0.3333333   0.1746517   0.4970100), wk =   0.1481481
        k(    8) = (   0.3333333   0.1746517  -0.2837098), wk =   0.1481481
        k(    9) = (   0.3333333   0.5226364   0.3191484), wk =   0.1481481
        k(   10) = (   0.3333333   0.5226364   0.7095083), wk =   0.1481481
        k(   11) = (   0.3333333   0.5226364  -0.0712115), wk =   0.1481481
        k(   12) = (   0.3333333  -0.1733330  -0.1058482), wk =   0.1481481
        k(   13) = (   0.3333333  -0.1733330   0.2845118), wk =   0.1481481
        k(   14) = (   0.3333333  -0.1733330  -0.4962081), wk =   0.1481481

                       cryst. coord.
        k(    1) = (   0.0000000   0.0000000   0.0000000), wk =   0.0740741
        k(    2) = (   0.0000000   0.0000000   0.3333333), wk =   0.1481481
        k(    3) = (   0.0000000   0.3333333   0.0000000), wk =   0.1481481
        k(    4) = (   0.0000000   0.3333333   0.3333333), wk =   0.1481481
        k(    5) = (   0.0000000   0.3333333  -0.3333333), wk =   0.1481481
        k(    6) = (   0.3333333  -0.0000000  -0.0000000), wk =   0.1481481
        k(    7) = (   0.3333333  -0.0000000   0.3333333), wk =   0.1481481
        k(    8) = (   0.3333333  -0.0000000  -0.3333333), wk =   0.1481481
        k(    9) = (   0.3333333   0.3333333   0.0000000), wk =   0.1481481
        k(   10) = (   0.3333333   0.3333333   0.3333333), wk =   0.1481481
        k(   11) = (   0.3333333   0.3333333  -0.3333333), wk =   0.1481481
        k(   12) = (   0.3333333  -0.3333333  -0.0000000), wk =   0.1481481
        k(   13) = (   0.3333333  -0.3333333   0.3333333), wk =   0.1481481
        k(   14) = (   0.3333333  -0.3333333  -0.3333333), wk =   0.1481481

     Check: negative core charge=   -0.000035

     Initial potential from superposition of free atoms

     starting charge     134.9995, renormalised to     138.0000
     Starting wfcs are  110 randomized atomic wfcs
     Checking if some PAW data can be deallocated...

     Self-consistent Calculation

     iteration #  1     ecut=    30.00 Ry     beta= 0.70
     Davidson diagonalization with overlap

     ethr =  1.00E-02,  avg # of iterations =  2.0

     total energy              =   -1592.25046311 Ry
     estimated scf accuracy    <      10.59377906 Ry

[...]

     total energy              =   -1599.63585152 Ry
     estimated scf accuracy    <       0.00000229 Ry

     iteration # 33     ecut=    30.00 Ry     beta= 0.70
     Davidson diagonalization with overlap

     ethr =  1.66E-09,  avg # of iterations =  1.0

     End of self-consistent calculation

          k = 0.0000 0.0000 0.0000 (  3111 PWs)   bands (ev):

   -69.6160 -69.6132 -69.6072 -69.5983 -69.3259 -69.3256 -38.5362 -38.5138
   -38.4452 -38.4367 -38.3811 -38.3750 -38.3663 -38.3463 -38.2127 -38.1957
   -38.1885 -38.1833 -38.1789 -38.1644 -38.0175 -38.0146 -38.0060 -38.0032
   -10.0279  -9.2484  -9.0835  -8.9511  -8.9281  -8.9221  -8.8782  -8.8657
     2.4991   3.1761   3.2622   3.2643   3.5617   4.0786   4.2340   4.6476
     4.7446   4.9015   4.9083   4.9183   4.9445   5.1150   5.4777   5.4874
     5.6049   5.6301   5.8219   6.5186   6.5306   6.5713   6.6443   6.6574
     8.6031   8.8390   9.3997   9.4737   9.5809   9.5893   9.7034   9.8118
     9.8290   9.8292   9.8932   9.9125   9.9153   9.9729   9.9791   9.9802
    10.2406  10.2415  10.3138  10.7179  10.8052  10.8103  11.2858  11.3110
    11.3142  11.3228  12.3707  12.3751  12.3996  12.4883  12.6422  16.5265
    16.5296  16.7306

     occupation numbers
     1.0000   1.0000   1.0000   1.0000   1.0000   1.0000   1.0000   1.0000
     1.0000   1.0000   1.0000   1.0000   1.0000   1.0000   1.0000   1.0000
     1.0000   1.0000   1.0000   1.0000   1.0000   1.0000   1.0000   1.0000
     1.0000   1.0000   1.0000   1.0000   1.0000   1.0000   1.0000   1.0000
     1.0000   1.0000   1.0000   1.0000   1.0000   1.0000   1.0000   1.0000
     1.0000   1.0000   1.0000   1.0000   1.0000   1.0000   1.0000   1.0000
     1.0000   1.0000   1.0000   1.0000   1.0000   1.0000   1.0000   1.0000
     1.0000   1.0000   1.0000   1.0000   1.0000   1.0000   1.0000   1.0000
     1.0000   1.0000   1.0000   1.0000   1.0000   0.0000   0.0000   0.0000
     0.0000   0.0000   0.0000   0.0000   0.0000   0.0000   0.0000   0.0000
     0.0000   0.0000   0.0000   0.0000   0.0000   0.0000   0.0000   0.0000
     0.0000   0.0000

[...]

          k = 0.3333-0.1733-0.4962 (  3095 PWs)   bands (ev):

   -69.6141 -69.6125 -69.6088 -69.5987 -69.3257 -69.3256 -38.5098 -38.5009
   -38.4624 -38.4538 -38.3772 -38.3702 -38.3638 -38.3527 -38.1961 -38.1913
   -38.1894 -38.1881 -38.1769 -38.1689 -38.0155 -38.0150 -38.0036 -38.0030
    -9.6316  -9.4220  -9.1396  -9.1139  -8.9806  -8.9191  -8.8926  -8.8847
     3.3012   3.5710   3.7624   3.9829   4.0273   4.1388   4.1622   4.3196
     4.3334   4.6030   4.6867   4.8053   4.9349   5.0321   5.2412   5.3205
     5.4323   5.6365   5.7799   5.8935   5.9616   6.0092   6.3147   6.5253
     9.2190   9.3482   9.3593   9.4813   9.4855   9.5841   9.6779   9.6921
     9.7572   9.8342   9.8720   9.9121   9.9305  10.0142  10.0993  10.1916
    10.3267  10.4411  10.4525  10.5017  10.6061  10.6662  10.9985  11.0944
    11.1678  11.3331  11.9300  12.0868  12.1420  12.1537  14.7918  15.6861
    16.1792  17.0814

     occupation numbers
     1.0000   1.0000   1.0000   1.0000   1.0000   1.0000   1.0000   1.0000
     1.0000   1.0000   1.0000   1.0000   1.0000   1.0000   1.0000   1.0000
     1.0000   1.0000   1.0000   1.0000   1.0000   1.0000   1.0000   1.0000
     1.0000   1.0000   1.0000   1.0000   1.0000   1.0000   1.0000   1.0000
     1.0000   1.0000   1.0000   1.0000   1.0000   1.0000   1.0000   1.0000
     1.0000   1.0000   1.0000   1.0000   1.0000   1.0000   1.0000   1.0000
     1.0000   1.0000   1.0000   1.0000   1.0000   1.0000   1.0000   1.0000
     1.0000   1.0000   1.0000   1.0000   1.0000   1.0000   1.0000   1.0000
     1.0000   1.0000   1.0000   1.0000   1.0000   0.0000   0.0000   0.0000
     0.0000   0.0000   0.0000   0.0000   0.0000   0.0000   0.0000   0.0000
     0.0000   0.0000   0.0000   0.0000   0.0000   0.0000   0.0000   0.0000
     0.0000   0.0000

     highest occupied, lowest unoccupied level (ev):    10.0139    9.9613

!    total energy              =   -1599.63585086 Ry
     estimated scf accuracy    <       0.00000074 Ry

     The total energy is the sum of the following terms:
     one-electron contribution =    -836.58825462 Ry
     hartree contribution      =     478.61272254 Ry
     xc contribution           =    -216.86650925 Ry
     ewald contribution        =    -948.56706725 Ry
     one-center paw contrib.   =     -76.22674229 Ry
      -> PAW hartree energy AE =       0.00000000 Ry
      -> PAW hartree energy PS =       0.00000000 Ry
      -> PAW xc energy AE      =       0.00000000 Ry
      -> PAW xc energy PS      =       0.00000000 Ry
      -> total E_H with PAW    =     478.61272254 Ry
      -> total E_XC with PAW   =    -216.86650925 Ry

     convergence has been achieved in  33 iterations

     Writing all to output data dir calculations_bands/myprefix.save/

     General routines

     Parallel routines

     PAW routines

   This run was terminated on:   4:20:22  23Jun2023

   JOB DONE.