     Program PWSCF v.7.0 starts on  7Jun2023 at  5:25:55

     K-points division:     npool     =       2
     R & G space division:  proc/nbgrp/npool/nimage =       4

     Reading input from espresso_1653.pwi
Warning: card &CELL ignored
Warning: card / ignored

     Current dimensions of program PWSCF are:
     Max number of different atomic species (ntypx) = 10
     Max number of k-points (npk) =  40000
     Max angular momentum in pseudopotentials (lmaxx) =  4
     file Ga.pbe-dn-kjpaw_psl.1.0.0.UPF: wavefunction(s)  4S renormalized
     Message from routine setup:
     using ibrav=0 with symmetry is DISCOURAGED, use correct ibrav instead

     Using Slab Decomposition

     bravais-lattice index     =            0
     lattice parameter (alat)  =      10.5427  a.u.
     unit-cell volume          =    2149.0104 (a.u.)^3
     number of atoms/cell      =           12
     number of atomic types    =            3
     number of electrons       =       120.00
     number of Kohn-Sham states=           64
     kinetic-energy cutoff     =      30.0000  Ry
     charge density cutoff     =     240.0000  Ry
     scf convergence threshold =      1.0E-06
     mixing beta               =       0.7000
     number of iterations used =            8  plain     mixing
     Exchange-correlation=  SLA  PW   PBX  PBC
                           (   1   4   3   4   0   0   0)

     celldm(1)=  10.542693  celldm(2)=   0.000000  celldm(3)=   0.000000
     celldm(4)=   0.000000  celldm(5)=   0.000000  celldm(6)=   0.000000

     crystal axes: (cart. coord. in units of alat)
               a(1) = (   1.000000   0.000000   0.000000 )
               a(2) = (   0.000000   1.000000   0.000000 )
               a(3) = (   0.000000   0.000000   1.833934 )

     reciprocal axes: (cart. coord. in units 2 pi/alat)
               b(1) = (  1.000000  0.000000  0.000000 )
               b(2) = (  0.000000  1.000000  0.000000 )
               b(3) = (  0.000000  0.000000  0.545276 )

     PseudoPot. # 1 for Ga read from file:
     /home/pragov/projects/rrg-bengioy-ad/pragov/crystal_structure_design/SSSP/Ga.pbe-dn-kjpaw_psl.1.0.0.UPF
     MD5 check sum: a27b4342b1af7e5f338de752e9ed7044
     Pseudo is Projector augmented-wave + core cor, Zval = 13.0
     Generated using "atomic" code by A. Dal Corso  v.5.1
     Shape of augmentation charge: PSQ
     Using radial grid of 1205 points,  6 beta functions with:
                l(1) =   0
                l(2) =   0
                l(3) =   1
                l(4) =   1
                l(5) =   2
                l(6) =   2
     Q(r) pseudized with 0 coefficients

     PseudoPot. # 2 for Cu read from file:
     /home/pragov/projects/rrg-bengioy-ad/pragov/crystal_structure_design/SSSP/Cu_pbe_v1.2.uspp.F.UPF
     MD5 check sum: 6e991ff952a84172a2a52a1c1e996048
     Pseudo is Ultrasoft + core correction, Zval = 19.0
     Generated by new atomic code, or converted to UPF format
     Using radial grid of  867 points,  6 beta functions with:
                l(1) =   0
                l(2) =   0
                l(3) =   1
                l(4) =   1
                l(5) =   2
                l(6) =   2
     Q(r) pseudized with  8 coefficients,  rinner =    1.150   1.150   1.150
                                                       1.150   1.150

     PseudoPot. # 3 for Cl read from file:
     /home/pragov/projects/rrg-bengioy-ad/pragov/crystal_structure_design/SSSP/cl_pbe_v1.4.uspp.F.UPF
     MD5 check sum: fc6f6913ecf08c9257cb748ef0700058
     Pseudo is Ultrasoft + core correction, Zval =  7.0
     Generated by new atomic code, or converted to UPF format
     Using radial grid of  909 points,  6 beta functions with:
                l(1) =   0
                l(2) =   0
                l(3) =   1
                l(4) =   1
                l(5) =   2
                l(6) =   2
     Q(r) pseudized with  8 coefficients,  rinner =    1.300   1.300   1.300
                                                       1.300   1.300

     atomic species   valence    mass     pseudopotential
        Ga            13.00    69.72300     Ga( 1.00)
        Cu            19.00    63.54600     Cu( 1.00)
        Cl             7.00    35.45000     Cl( 1.00)

      8 Sym. Ops. (no inversion) found ( 4 have fractional translation)

                                    s                        frac. trans.

      isym =  1     identity

 cryst.   s( 1) = (     1          0          0      )
                  (     0          1          0      )
                  (     0          0          1      )

 cart.    s( 1) = (  1.0000000  0.0000000  0.0000000 )
                  (  0.0000000  1.0000000  0.0000000 )
                  (  0.0000000  0.0000000  1.0000000 )

      isym =  2     180 deg rotation - cart. axis [0,0,1]

[...]

 cryst.   s( 3) = (    -1          0          0      )    f =(  0.0000000 )
                  (     0          1          0      )       (  0.0000000 )
                  (     0          0         -1      )       ( -0.5000000 )

 cart.    s( 3) = ( -1.0000000  0.0000000  0.0000000 )    f =(  0.0000000 )
                  (  0.0000000  1.0000000  0.0000000 )       (  0.0000000 )
                  (  0.0000000  0.0000000 -1.0000000 )       ( -0.9169672 )

      isym =  4     180 deg rotation - cart. axis [1,0,0]

[...]

      isym =  5     inv. 180 deg rotation - cart. axis [1,1,0]

[...]

 cryst.   s( 6) = (     0          1          0      )    f =(  0.0000000 )
                  (     1          0          0      )       (  0.0000000 )
                  (     0          0          1      )       ( -0.5000000 )

 cart.    s( 6) = (  0.0000000  1.0000000  0.0000000 )    f =(  0.0000000 )
                  (  1.0000000  0.0000000  0.0000000 )       (  0.0000000 )
                  (  0.0000000  0.0000000  1.0000000 )       ( -0.9169672 )

[...]

      isym =  8     inv.  90 deg rotation - cart. axis [0,0,1]

 cryst.   s( 8) = (     0         -1          0      )
                  (     1          0          0      )
                  (     0          0         -1      )

 cart.    s( 8) = (  0.0000000  1.0000000  0.0000000 )
                  ( -1.0000000  0.0000000  0.0000000 )
                  (  0.0000000  0.0000000 -1.0000000 )

   Cartesian axes

     site n.     atom                  positions (alat units)
         1           Ga  tau(   1) = (   0.5000000   0.0000000   0.4584836  )
         2           Ga  tau(   2) = (   0.0000000   0.5000000   1.3754508  )
         3           Cu  tau(   3) = (   0.0000000   0.0000000   0.0000000  )
         4           Cu  tau(   4) = (   0.0000000   0.0000000   0.9169672  )
         5           Cl  tau(   5) = (   0.7718150   0.7323640   1.1469444  )
         6           Cl  tau(   6) = (   0.7323640   0.2281850   0.6869900  )
         7           Cl  tau(   7) = (   0.2676360   0.7718150   0.6869900  )
         8           Cl  tau(   8) = (   0.7718150   0.2676360   1.6039572  )
         9           Cl  tau(   9) = (   0.2281850   0.7323640   1.6039572  )
        10           Cl  tau(  10) = (   0.2281850   0.2676360   1.1469444  )
        11           Cl  tau(  11) = (   0.2676360   0.2281850   0.2299772  )
        12           Cl  tau(  12) = (   0.7323640   0.7718150   0.2299772  )

   Crystallographic axes

     site n.     atom                  positions (cryst. coord.)
         1           Ga  tau(   1) = (  0.5000000  0.0000000  0.2500000  )
         2           Ga  tau(   2) = (  0.0000000  0.5000000  0.7500000  )
         3           Cu  tau(   3) = (  0.0000000  0.0000000  0.0000000  )
         4           Cu  tau(   4) = (  0.0000000  0.0000000  0.5000000  )
         5           Cl  tau(   5) = (  0.7718150  0.7323640  0.6254010  )
         6           Cl  tau(   6) = (  0.7323640  0.2281850  0.3745990  )
         7           Cl  tau(   7) = (  0.2676360  0.7718150  0.3745990  )
         8           Cl  tau(   8) = (  0.7718150  0.2676360  0.8745990  )
         9           Cl  tau(   9) = (  0.2281850  0.7323640  0.8745990  )
        10           Cl  tau(  10) = (  0.2281850  0.2676360  0.6254010  )
        11           Cl  tau(  11) = (  0.2676360  0.2281850  0.1254010  )
        12           Cl  tau(  12) = (  0.7323640  0.7718150  0.1254010  )

     number of k points=     6
                       cart. coord. in units 2pi/alat
        k(    1) = (   0.0000000   0.0000000   0.0000000), wk =   0.0740741
        k(    2) = (   0.0000000   0.0000000   0.1817586), wk =   0.1481481
        k(    3) = (   0.0000000   0.3333333   0.0000000), wk =   0.2962963
        k(    4) = (   0.0000000   0.3333333   0.1817586), wk =   0.5925926
        k(    5) = (   0.3333333   0.3333333   0.0000000), wk =   0.2962963
        k(    6) = (   0.3333333   0.3333333   0.1817586), wk =   0.5925926

                       cryst. coord.
        k(    1) = (   0.0000000   0.0000000   0.0000000), wk =   0.0740741
        k(    2) = (   0.0000000   0.0000000   0.3333333), wk =   0.1481481
        k(    3) = (   0.0000000   0.3333333   0.0000000), wk =   0.2962963
        k(    4) = (   0.0000000   0.3333333   0.3333333), wk =   0.5925926
        k(    5) = (   0.3333333   0.3333333   0.0000000), wk =   0.2962963
        k(    6) = (   0.3333333   0.3333333   0.3333333), wk =   0.5925926

     Check: negative core charge=   -0.000001

     Initial potential from superposition of free atoms

     starting charge     117.9940, renormalised to     120.0000

     negative rho (up, down):  1.215E-01 0.000E+00
     Starting wfcs are   76 randomized atomic wfcs
     Checking if some PAW data can be deallocated...

     Self-consistent Calculation

     iteration #  1     ecut=    30.00 Ry     beta= 0.70
     Davidson diagonalization with overlap

     ethr =  1.00E-02,  avg # of iterations =  2.3

     negative rho (up, down):  1.203E-01 0.000E+00

     total energy              =   -1628.61280738 Ry
     estimated scf accuracy    <       2.89761364 Ry

[...]

     total energy              =   -1630.24700379 Ry
     estimated scf accuracy    <       0.00012378 Ry

     iteration # 15     ecut=    30.00 Ry     beta= 0.70
     Davidson diagonalization with overlap

     ethr =  1.03E-07,  avg # of iterations =  3.5

     negative rho (up, down):  1.184E-01 0.000E+00

     End of self-consistent calculation

          k = 0.0000 0.0000 0.0000 (  5957 PWs)   bands (ev):

  -107.1692-107.1677 -64.6037 -64.6037 -64.6019 -64.6019 -64.5662 -64.5621
   -13.0290 -12.9667 -12.9667 -12.9571 -12.9571 -12.9490 -12.9060 -12.6805
   -12.3748 -12.3748 -12.3583 -12.3568 -11.6951 -11.5522 -11.5522 -11.5123
   -11.5123 -11.4933  -4.1642  -4.0614  -1.6278  -1.6278  -1.5873  -1.5382
    -1.4490  -1.2381  -1.2381  -0.7961  -0.7653  -0.4500  -0.3035  -0.3035
    -0.3013  -0.2972  -0.0882   0.2603   0.2603   0.4564   0.4564   0.5810
     0.5810   0.6734   2.5147   2.7198   2.7604   2.7946   3.0509   3.0509
     3.0545   3.1571   3.1571   3.2185   4.9593   5.9059   7.5562   7.6389

     occupation numbers
     1.0000   1.0000   1.0000   1.0000   1.0000   1.0000   1.0000   1.0000
     1.0000   1.0000   1.0000   1.0000   1.0000   1.0000   1.0000   1.0000
     1.0000   1.0000   1.0000   1.0000   1.0000   1.0000   1.0000   1.0000
     1.0000   1.0000   1.0000   1.0000   1.0000   1.0000   1.0000   1.0000
     1.0000   1.0000   1.0000   1.0000   1.0000   1.0000   1.0000   1.0000
     1.0000   1.0000   1.0000   1.0000   1.0000   1.0000   1.0000   1.0000
     1.0000   1.0000   1.0000   1.0000   1.0000   1.0000   1.0000   1.0000
     1.0000   1.0000   1.0000   1.0000   0.0000   0.0000   0.0000   0.0000

[...]

          k = 0.3333 0.3333 0.1818 (  5959 PWs)   bands (ev):

  -107.1687-107.1686 -64.6049 -64.6041 -64.6037 -64.6034 -64.5630 -64.5627
   -13.0101 -13.0058 -12.9835 -12.9835 -12.9738 -12.9695 -12.6833 -12.6560
   -12.3742 -12.3741 -12.3578 -12.3577 -11.6353 -11.6284 -11.5720 -11.5658
   -11.5493 -11.5345  -4.0938  -4.0764  -2.3168  -2.0178  -1.6303  -1.5689
    -1.4403  -1.3723  -1.0116  -0.7190  -0.4332  -0.4297  -0.3927  -0.3663
    -0.1377  -0.0648   0.1404   0.1407   0.3752   0.4002   0.4752   0.5084
     0.5752   0.6590   2.6894   2.6900   2.7983   2.8303   2.9986   3.0357
     3.0955   3.1273   3.1688   3.2010   5.6811   5.7320   7.4248   7.7883

     occupation numbers
     1.0000   1.0000   1.0000   1.0000   1.0000   1.0000   1.0000   1.0000
     1.0000   1.0000   1.0000   1.0000   1.0000   1.0000   1.0000   1.0000
     1.0000   1.0000   1.0000   1.0000   1.0000   1.0000   1.0000   1.0000
     1.0000   1.0000   1.0000   1.0000   1.0000   1.0000   1.0000   1.0000
     1.0000   1.0000   1.0000   1.0000   1.0000   1.0000   1.0000   1.0000
     1.0000   1.0000   1.0000   1.0000   1.0000   1.0000   1.0000   1.0000
     1.0000   1.0000   1.0000   1.0000   1.0000   1.0000   1.0000   1.0000
     1.0000   1.0000   1.0000   1.0000   0.0000   0.0000   0.0000   0.0000

     highest occupied, lowest unoccupied level (ev):     3.2185    4.9593

!    total energy              =   -1630.24702228 Ry
     estimated scf accuracy    <       0.00000014 Ry

     The total energy is the sum of the following terms:
     one-electron contribution =   -1306.97200045 Ry
     hartree contribution      =     705.90991449 Ry
     xc contribution           =    -229.51230561 Ry
     ewald contribution        =    -577.71449363 Ry
     one-center paw contrib.   =    -221.95813708 Ry
      -> PAW hartree energy AE =     279.46878855 Ry
      -> PAW hartree energy PS =    -275.15287660 Ry
      -> PAW xc energy AE      =    -301.49586538 Ry
      -> PAW xc energy PS      =      75.22181635 Ry
      -> total E_H with PAW    =     710.22582645 Ry
      -> total E_XC with PAW   =    -455.78635464 Ry

     convergence has been achieved in  15 iterations

     Writing all to output data dir calculations_bands/myprefix.save/

     General routines

     Parallel routines

     PAW routines

   This run was terminated on:   5:26:14   7Jun2023

   JOB DONE.