     Program PWSCF v.7.0 starts on  7Jun2023 at  6:33:35

     K-points division:     npool     =       2
     R & G space division:  proc/nbgrp/npool/nimage =       4

     Reading input from espresso_4062.pwi
Warning: card &CELL ignored
Warning: card / ignored

     Current dimensions of program PWSCF are:
     Max number of different atomic species (ntypx) = 10
     Max number of k-points (npk) =  40000
     Max angular momentum in pseudopotentials (lmaxx) =  4
     file Al.pbe-n-kjpaw_psl.1.0.0.UPF: wavefunction(s)  3S 3P renormalized
     Message from routine setup:
     using ibrav=0 with symmetry is DISCOURAGED, use correct ibrav instead

     Using Slab Decomposition

     bravais-lattice index     =            0
     lattice parameter (alat)  =      15.0863  a.u.
     unit-cell volume          =    1401.9511 (a.u.)^3
     number of atoms/cell      =           12
     number of atomic types    =            3
     number of electrons       =        82.00
     number of Kohn-Sham states=           64
     kinetic-energy cutoff     =      30.0000  Ry
     charge density cutoff     =     240.0000  Ry
     scf convergence threshold =      1.0E-06
     mixing beta               =       0.7000
     number of iterations used =            8  plain     mixing
     Exchange-correlation=  SLA  PW   PBX  PBC
                           (   1   4   3   4   0   0   0)

     celldm(1)=  15.086260  celldm(2)=   0.000000  celldm(3)=   0.000000
     celldm(4)=   0.000000  celldm(5)=   0.000000  celldm(6)=   0.000000

     crystal axes: (cart. coord. in units of alat)
               a(1) = (   1.000000   0.000000   0.000000 )
               a(2) = (  -0.870691   0.491831   0.000000 )
               a(3) = (   0.000000   0.000000   0.830180 )

     reciprocal axes: (cart. coord. in units 2 pi/alat)
               b(1) = (  1.000000  1.770304  0.000000 )
               b(2) = (  0.000000  2.033218  0.000000 )
               b(3) = (  0.000000  0.000000  1.204559 )

     PseudoPot. # 1 for Y  read from file:
     /home/pragov/projects/rrg-bengioy-ad/pragov/crystal_structure_design/SSSP/Y_pbe_v1.uspp.F.UPF
     MD5 check sum: 2cf71db95cafeb975fc457bd7f14888e
     Pseudo is Ultrasoft + core correction, Zval = 11.0
     Generated by new atomic code, or converted to UPF format
     Using radial grid of  885 points,  6 beta functions with:
                l(1) =   0
                l(2) =   0
                l(3) =   1
                l(4) =   1
                l(5) =   2
                l(6) =   2
     Q(r) pseudized with  6 coefficients,  rinner =    1.200   1.200   1.200
                                                       1.200   1.200

     PseudoPot. # 2 for Al read from file:
     /home/pragov/projects/rrg-bengioy-ad/pragov/crystal_structure_design/SSSP/Al.pbe-n-kjpaw_psl.1.0.0.UPF
     MD5 check sum: cfc449ca30b5f3223ec38ddd88ac046d
     Pseudo is Projector augmented-wave + core cor, Zval =  3.0
     Generated using "atomic" code by A. Dal Corso  v.5.1
     Shape of augmentation charge: PSQ
     Using radial grid of 1135 points,  6 beta functions with:
                l(1) =   0
                l(2) =   0
                l(3) =   1
                l(4) =   1
                l(5) =   2
                l(6) =   2
     Q(r) pseudized with 0 coefficients

     PseudoPot. # 3 for Ni read from file:
     /home/pragov/projects/rrg-bengioy-ad/pragov/crystal_structure_design/SSSP/ni_pbe_v1.4.uspp.F.UPF
     MD5 check sum: 1ee80287db30b12d2bc1f57a5b5d6409
     Pseudo is Ultrasoft + core correction, Zval = 18.0
     Generated by new atomic code, or converted to UPF format
     Using radial grid of  865 points,  6 beta functions with:
                l(1) =   0
                l(2) =   0
                l(3) =   1
                l(4) =   1
                l(5) =   2
                l(6) =   2
     Q(r) pseudized with 10 coefficients,  rinner =    0.980   0.980   0.980
                                                       0.980   0.980

     atomic species   valence    mass     pseudopotential
        Y             11.00    88.90584     Y ( 1.00)
        Al             3.00    26.98154     Al( 1.00)
        Ni            18.00    58.69340     Ni( 1.00)

      4 Sym. Ops., with inversion, found ( 2 have fractional translation)

                                    s                        frac. trans.

      isym =  1     identity

 cryst.   s( 1) = (     1          0          0      )
                  (     0          1          0      )
                  (     0          0          1      )

 cart.    s( 1) = (  1.0000000  0.0000000  0.0000000 )
                  (  0.0000000  1.0000000  0.0000000 )
                  (  0.0000000  0.0000000  1.0000000 )

      isym =  2     180 deg rotation - cart. axis [0,0,1]

 cryst.   s( 2) = (    -1          0          0      )    f =( -0.0000000 )
                  (     0         -1          0      )       ( -0.0000000 )
                  (     0          0          1      )       ( -0.5000000 )

 cart.    s( 2) = ( -1.0000000 -0.0000000  0.0000000 )    f =(  0.0000000 )
                  (  0.0000000 -1.0000000  0.0000000 )       ( -0.0000000 )
                  (  0.0000000  0.0000000  1.0000000 )       ( -0.4150898 )

      isym =  3     inversion

 cryst.   s( 3) = (    -1          0          0      )
                  (     0         -1          0      )
                  (     0          0         -1      )

 cart.    s( 3) = ( -1.0000000 -0.0000000  0.0000000 )
                  (  0.0000000 -1.0000000  0.0000000 )
                  (  0.0000000  0.0000000 -1.0000000 )

      isym =  4     inv. 180 deg rotation - cart. axis [0,0,1]

 cryst.   s( 4) = (     1          0          0      )    f =(  0.0000000 )
                  (     0          1          0      )       (  0.0000000 )
                  (     0          0         -1      )       (  0.5000000 )

 cart.    s( 4) = (  1.0000000  0.0000000  0.0000000 )    f =(  0.0000000 )
                  (  0.0000000  1.0000000  0.0000000 )       (  0.0000000 )
                  (  0.0000000  0.0000000 -1.0000000 )       (  0.4150898 )

   Cartesian axes

     site n.     atom                  positions (alat units)
         1           Y   tau(   1) = (   0.2837144   0.1883217   0.2075449  )
         2           Y   tau(   2) = (  -0.1544050   0.3035095   0.6226347  )
         3           Al  tau(   3) = (  -0.5175248   0.3989788   0.7862291  )
         4           Al  tau(   4) = (   0.6468342   0.0928523   0.0439505  )
         5           Al  tau(   5) = (   0.6468342   0.0928523   0.3711393  )
         6           Al  tau(   6) = (  -0.5175248   0.3989788   0.4590403  )
         7           Al  tau(   7) = (   0.0000000   0.0000000   0.4150898  )
         8           Al  tau(   8) = (   0.0000000   0.0000000   0.0000000  )
         9           Al  tau(   9) = (   0.2076522   0.2083195   0.6226347  )
        10           Al  tau(  10) = (  -0.0783428   0.2835116   0.2075449  )
        11           Ni  tau(  11) = (   0.4882352   0.1345502   0.6226347  )
        12           Ni  tau(  12) = (  -0.3589258   0.3572809   0.2075449  )

   Crystallographic axes

     site n.     atom                  positions (cryst. coord.)
         1           Y   tau(   1) = (  0.6171010  0.3828990  0.2500000  )
         2           Y   tau(   2) = (  0.3828990  0.6171010  0.7500000  )
         3           Al  tau(   3) = (  0.1887890  0.8112110  0.9470590  )
         4           Al  tau(   4) = (  0.8112110  0.1887890  0.0529410  )
         5           Al  tau(   5) = (  0.8112110  0.1887890  0.4470590  )
         6           Al  tau(   6) = (  0.1887890  0.8112110  0.5529410  )
         7           Al  tau(   7) = (  0.0000000  0.0000000  0.5000000  )
         8           Al  tau(   8) = (  0.0000000  0.0000000  0.0000000  )
         9           Al  tau(   9) = (  0.5764410  0.4235590  0.7500000  )
        10           Al  tau(  10) = (  0.4235590  0.5764410  0.2500000  )
        11           Ni  tau(  11) = (  0.7264300  0.2735700  0.7500000  )
        12           Ni  tau(  12) = (  0.2735700  0.7264300  0.2500000  )

     number of k points=    10
                       cart. coord. in units 2pi/alat
        k(    1) = (   0.0000000   0.0000000   0.0000000), wk =   0.0740741
        k(    2) = (   0.0000000   0.0000000   0.4015195), wk =   0.1481481
        k(    3) = (   0.0000000   0.6777394   0.0000000), wk =   0.1481481
        k(    4) = (   0.0000000   0.6777394   0.4015195), wk =   0.2962963
        k(    5) = (   0.3333333   0.5901013   0.0000000), wk =   0.1481481
        k(    6) = (   0.3333333   0.5901013   0.4015195), wk =   0.2962963
        k(    7) = (   0.3333333   1.2678407   0.0000000), wk =   0.1481481
        k(    8) = (   0.3333333   1.2678407   0.4015195), wk =   0.2962963
        k(    9) = (   0.3333333  -0.0876381   0.0000000), wk =   0.1481481
        k(   10) = (   0.3333333  -0.0876381   0.4015195), wk =   0.2962963

                       cryst. coord.
        k(    1) = (   0.0000000   0.0000000   0.0000000), wk =   0.0740741
        k(    2) = (   0.0000000   0.0000000   0.3333333), wk =   0.1481481
        k(    3) = (   0.0000000   0.3333333   0.0000000), wk =   0.1481481
        k(    4) = (   0.0000000   0.3333333   0.3333333), wk =   0.2962963
        k(    5) = (   0.3333333   0.0000000   0.0000000), wk =   0.1481481
        k(    6) = (   0.3333333   0.0000000   0.3333333), wk =   0.2962963
        k(    7) = (   0.3333333   0.3333333   0.0000000), wk =   0.1481481
        k(    8) = (   0.3333333   0.3333333   0.3333333), wk =   0.2962963
        k(    9) = (   0.3333333  -0.3333333   0.0000000), wk =   0.1481481
        k(   10) = (   0.3333333  -0.3333333   0.3333333), wk =   0.2962963

     Check: negative core charge=   -0.000003

     Initial potential from superposition of free atoms

     starting charge      77.9727, renormalised to      82.0000

     negative rho (up, down):  9.031E-02 0.000E+00
     Starting wfcs are   84 randomized atomic wfcs
     Checking if some PAW data can be deallocated...

     Self-consistent Calculation

     iteration #  1     ecut=    30.00 Ry     beta= 0.70
     Davidson diagonalization with overlap

     ethr =  1.00E-02,  avg # of iterations =  3.9

     negative rho (up, down):  8.372E-02 0.000E+00

     total energy              =   -1143.61576814 Ry
     estimated scf accuracy    <      47.88402191 Ry

[...]

     c_bands:  1 eigenvalues not converged
     ethr =  2.18E-05,  avg # of iterations =  8.2

[...]

     ethr =  1.14E-07,  avg # of iterations =  4.3

[...]

     total energy              =   -1177.68264064 Ry
     estimated scf accuracy    <       0.00000115 Ry

     iteration # 17     ecut=    30.00 Ry     beta= 0.70
     Davidson diagonalization with overlap

     c_bands:  1 eigenvalues not converged
     ethr =  1.40E-09,  avg # of iterations =  6.2

     negative rho (up, down):  8.525E-02 0.000E+00

     End of self-consistent calculation

          k = 0.0000 0.0000 0.0000 (  3899 PWs)   bands (ev):

   -94.0226 -94.0181 -54.3960 -54.3917 -54.3662 -54.3452 -54.2933 -54.2821
   -32.4533 -32.4528 -12.5921 -12.5809 -12.5499 -12.5340 -12.4101 -12.4093
     0.0099   1.8705   2.5458   3.5090   4.9029   5.1506   5.5182   5.6871
     6.1187   6.7323   6.7786   7.0213   7.2007   7.3671   7.4257   7.5506
     7.6340   7.6461   8.1702   8.4044   8.7804   8.8735  10.1996  10.2272
    10.6841  10.9609  11.0161  11.0526  11.5773  11.9507  12.1242  12.1708
    12.2205  12.7128  12.7608  12.9045  12.9599  13.6893  13.7688  13.8142
    14.1433  14.6927  14.8076  14.8191  15.0439  15.1772  16.3688  16.8768

     occupation numbers
     1.0000   1.0000   1.0000   1.0000   1.0000   1.0000   1.0000   1.0000
     1.0000   1.0000   1.0000   1.0000   1.0000   1.0000   1.0000   1.0000
     1.0000   1.0000   1.0000   1.0000   1.0000   1.0000   1.0000   1.0000
     1.0000   1.0000   1.0000   1.0000   1.0000   1.0000   1.0000   1.0000
     1.0000   1.0000   1.0000   1.0000   1.0000   1.0000   1.0000   1.0000
     1.0000   0.0000   0.0000   0.0000   0.0000   0.0000   0.0000   0.0000
     0.0000   0.0000   0.0000   0.0000   0.0000   0.0000   0.0000   0.0000
     0.0000   0.0000   0.0000   0.0000   0.0000   0.0000   0.0000   0.0000

[...]

          k = 0.3333-0.0876 0.4015 (  3918 PWs)   bands (ev):

   -94.0221 -94.0202 -54.4007 -54.3966 -54.3617 -54.3542 -54.2894 -54.2851
   -32.4531 -32.4529 -12.5900 -12.5864 -12.5435 -12.5388 -12.4101 -12.4093
     0.6208   1.2242   2.3136   2.8970   4.5942   5.5041   5.8205   6.4914
     6.7052   6.8110   6.8796   7.0251   7.2064   7.2328   7.2915   7.4045
     7.7562   7.9481   8.4473   8.6452   8.7779   9.1839   9.5988   9.9785
    10.0031  10.1271  10.7784  10.7849  11.2077  11.6543  11.7557  12.2329
    12.3129  12.6703  12.8984  13.0700  13.3529  13.8218  14.0004  14.1526
    14.6489  14.7176  14.8363  15.0880  15.4294  15.6647  15.7331  15.7991

     occupation numbers
     1.0000   1.0000   1.0000   1.0000   1.0000   1.0000   1.0000   1.0000
     1.0000   1.0000   1.0000   1.0000   1.0000   1.0000   1.0000   1.0000
     1.0000   1.0000   1.0000   1.0000   1.0000   1.0000   1.0000   1.0000
     1.0000   1.0000   1.0000   1.0000   1.0000   1.0000   1.0000   1.0000
     1.0000   1.0000   1.0000   1.0000   1.0000   1.0000   1.0000   1.0000
     1.0000   0.0000   0.0000   0.0000   0.0000   0.0000   0.0000   0.0000
     0.0000   0.0000   0.0000   0.0000   0.0000   0.0000   0.0000   0.0000
     0.0000   0.0000   0.0000   0.0000   0.0000   0.0000   0.0000   0.0000

     highest occupied, lowest unoccupied level (ev):    10.6841    9.0545

!    total energy              =   -1177.68264118 Ry
     estimated scf accuracy    <       0.00000014 Ry

     The total energy is the sum of the following terms:
     one-electron contribution =    -801.76975755 Ry
     hartree contribution      =     433.21196949 Ry
     xc contribution           =    -135.93207735 Ry
     ewald contribution        =    -395.69693548 Ry
     one-center paw contrib.   =    -277.49584030 Ry
      -> PAW hartree energy AE =       0.00000000 Ry
      -> PAW hartree energy PS =       0.00000000 Ry
      -> PAW xc energy AE      =       0.00000000 Ry
      -> PAW xc energy PS      =       0.00000000 Ry
      -> total E_H with PAW    =     433.21196949 Ry
      -> total E_XC with PAW   =    -135.93207735 Ry

     convergence has been achieved in  17 iterations

     Writing all to output data dir calculations_bands/myprefix.save/

     General routines

     Parallel routines

     PAW routines

   This run was terminated on:   6:33:59   7Jun2023

   JOB DONE.