     Program PWSCF v.7.0 starts on  6Jun2023 at 15:57:42

     K-points division:     npool     =       2
     R & G space division:  proc/nbgrp/npool/nimage =       4

     Reading input from espresso_19323.pwi
Warning: card &CELL ignored
Warning: card / ignored

     Current dimensions of program PWSCF are:
     Max number of different atomic species (ntypx) = 10
     Max number of k-points (npk) =  40000
     Max angular momentum in pseudopotentials (lmaxx) =  4
     Message from routine setup:
     using ibrav=0 with symmetry is DISCOURAGED, use correct ibrav instead

     Using Slab Decomposition

     bravais-lattice index     =            0
     lattice parameter (alat)  =      10.9012  a.u.
     unit-cell volume          =    1611.9236 (a.u.)^3
     number of atoms/cell      =           12
     number of atomic types    =            3
     number of electrons       =       128.00
     number of Kohn-Sham states=           64
     kinetic-energy cutoff     =      30.0000  Ry
     charge density cutoff     =     240.0000  Ry
     scf convergence threshold =      1.0E-06
     mixing beta               =       0.7000
     number of iterations used =            8  plain     mixing
     Exchange-correlation= PBE
                           (   1   4   3   4   0   0   0)

     celldm(1)=  10.901180  celldm(2)=   0.000000  celldm(3)=   0.000000
     celldm(4)=   0.000000  celldm(5)=   0.000000  celldm(6)=   0.000000

     crystal axes: (cart. coord. in units of alat)
               a(1) = (   1.000000   0.000000   0.000000 )
               a(2) = (   0.000000   1.024996   0.000000 )
               a(3) = (   0.000000   0.597000   1.213953 )

     reciprocal axes: (cart. coord. in units 2 pi/alat)
               b(1) = (  1.000000  0.000000  0.000000 )
               b(2) = (  0.000000  0.975614 -0.479789 )
               b(3) = (  0.000000  0.000000  0.823755 )

     PseudoPot. # 1 for Ca read from file:
     /home/pragov/projects/rrg-bengioy-ad/pragov/crystal_structure_design/SSSP/Ca_pbe_v1.uspp.F.UPF
     MD5 check sum: 403a4c14b9e4d4dfdc3024c9a3812218
     Pseudo is Ultrasoft + core correction, Zval = 10.0
     Generated by new atomic code, or converted to UPF format
     Using radial grid of  845 points,  6 beta functions with:
                l(1) =   0
                l(2) =   0
                l(3) =   1
                l(4) =   1
                l(5) =   2
                l(6) =   2
     Q(r) pseudized with  8 coefficients,  rinner =    1.500   1.500   1.500
                                                       1.500   1.500

     PseudoPot. # 2 for Si read from file:
     /home/pragov/projects/rrg-bengioy-ad/pragov/crystal_structure_design/SSSP/Si.pbe-n-rrkjus_psl.1.0.0.UPF
     MD5 check sum: 0b0bb1205258b0d07b9f9672cf965d36
     Pseudo is Ultrasoft + core correction, Zval =  4.0
     Generated using "atomic" code by A. Dal Corso  v.5.1
     Using radial grid of 1141 points,  6 beta functions with:
                l(1) =   0
                l(2) =   0
                l(3) =   1
                l(4) =   1
                l(5) =   2
                l(6) =   2
     Q(r) pseudized with 0 coefficients

     PseudoPot. # 3 for Pd read from file:
     /home/pragov/projects/rrg-bengioy-ad/pragov/crystal_structure_design/SSSP/Pd_ONCV_PBE-1.0.oncvpsp.upf
     MD5 check sum: eb77f42b51d86fb18e25f68156a31cf1
     Pseudo is Norm-conserving, Zval = 18.0
     Generated using ONCVPSP code by D. R. Hamann
     Using radial grid of 1410 points,  6 beta functions with:
                l(1) =   0
                l(2) =   0
                l(3) =   1
                l(4) =   1
                l(5) =   2
                l(6) =   2

     atomic species   valence    mass     pseudopotential
        Ca            10.00    40.07800     Ca( 1.00)
        Si             4.00    28.08500     Si( 1.00)
        Pd            18.00   106.42000     Pd( 1.00)

      4 Sym. Ops., with inversion, found ( 2 have fractional translation)

                                    s                        frac. trans.

      isym =  1     identity

 cryst.   s( 1) = (     1          0          0      )
                  (     0          1          0      )
                  (     0          0          1      )

 cart.    s( 1) = (  1.0000000  0.0000000  0.0000000 )
                  (  0.0000000  1.0000000 -0.0000000 )
                  (  0.0000000  0.0000000  1.0000000 )

      isym =  2     180 deg rotation - cart. axis [1,0,0]

 cryst.   s( 2) = (     1          0          0      )    f =(  0.5000000 )
                  (     0         -1          0      )       (  0.0000000 )
                  (     0          0         -1      )       ( -0.5000000 )

 cart.    s( 2) = (  1.0000000  0.0000000  0.0000000 )    f =(  0.5000000 )
                  (  0.0000000 -1.0000000  0.0000000 )       ( -0.2985001 )
                  (  0.0000000  0.0000000 -1.0000000 )       ( -0.6069766 )

      isym =  3     inversion

 cryst.   s( 3) = (    -1          0          0      )
                  (     0         -1          0      )
                  (     0          0         -1      )

 cart.    s( 3) = ( -1.0000000  0.0000000  0.0000000 )
                  (  0.0000000 -1.0000000  0.0000000 )
                  (  0.0000000  0.0000000 -1.0000000 )

      isym =  4     inv. 180 deg rotation - cart. axis [1,0,0]

 cryst.   s( 4) = (    -1          0          0      )    f =(  0.5000000 )
                  (     0          1          0      )       (  0.0000000 )
                  (     0          0          1      )       (  0.5000000 )

 cart.    s( 4) = ( -1.0000000  0.0000000  0.0000000 )    f =(  0.5000000 )
                  (  0.0000000  1.0000000 -0.0000000 )       (  0.2985001 )
                  (  0.0000000  0.0000000  1.0000000 )       (  0.6069766 )

   Cartesian axes

     site n.     atom                  positions (alat units)
         1           Ca  tau(   1) = (   0.8732840   1.3449955   1.0731552  )
         2           Ca  tau(   2) = (   0.6267160   1.0464954   0.4661786  )
         3           Ca  tau(   3) = (   0.1267160   0.2770003   0.1407979  )
         4           Ca  tau(   4) = (   0.3732840   0.5755004   0.7477745  )
         5           Si  tau(   5) = (   0.3828750   0.8307258   0.0541314  )
         6           Si  tau(   6) = (   0.6171250   0.7912701   1.1598217  )
         7           Si  tau(   7) = (   0.8828750   0.4927699   0.5528452  )
         8           Si  tau(   8) = (   0.1171250   1.1292259   0.6611079  )
         9           Pd  tau(   9) = (   0.3881730   1.1121904   0.9835618  )
        10           Pd  tau(  10) = (   0.6118270   0.5098054   0.2303913  )
        11           Pd  tau(  11) = (   0.1118270   0.8136903   0.3765853  )
        12           Pd  tau(  12) = (   0.8881730   0.8083056   0.8373679  )

   Crystallographic axes

     site n.     atom                  positions (cryst. coord.)
         1           Ca  tau(   1) = (  0.8732840  0.7973080  0.8840170  )
         2           Ca  tau(   2) = (  0.6267160  0.7973080  0.3840170  )
         3           Ca  tau(   3) = (  0.1267160  0.2026920  0.1159830  )
         4           Ca  tau(   4) = (  0.3732840  0.2026920  0.6159830  )
         5           Si  tau(   5) = (  0.3828750  0.7844960  0.0445910  )
         6           Si  tau(   6) = (  0.6171250  0.2155040  0.9554090  )
         7           Si  tau(   7) = (  0.8828750  0.2155040  0.4554090  )
         8           Si  tau(   8) = (  0.1171250  0.7844960  0.5445910  )
         9           Pd  tau(   9) = (  0.3881730  0.6131660  0.8102140  )
        10           Pd  tau(  10) = (  0.6118270  0.3868340  0.1897860  )
        11           Pd  tau(  11) = (  0.1118270  0.6131660  0.3102140  )
        12           Pd  tau(  12) = (  0.8881730  0.3868340  0.6897860  )

     number of k points=    10
                       cart. coord. in units 2pi/alat
        k(    1) = (   0.0000000   0.0000000   0.0000000), wk =   0.0740741
        k(    2) = (   0.0000000   0.0000000   0.2745850), wk =   0.1481481
        k(    3) = (   0.0000000   0.3252046  -0.1599298), wk =   0.1481481
        k(    4) = (   0.0000000   0.3252046   0.1146552), wk =   0.1481481
        k(    5) = (   0.0000000   0.3252046  -0.4345148), wk =   0.1481481
        k(    6) = (   0.3333333   0.0000000   0.0000000), wk =   0.1481481
        k(    7) = (   0.3333333   0.0000000   0.2745850), wk =   0.2962963
        k(    8) = (   0.3333333   0.3252046  -0.1599298), wk =   0.2962963
        k(    9) = (   0.3333333   0.3252046   0.1146552), wk =   0.2962963
        k(   10) = (   0.3333333   0.3252046  -0.4345148), wk =   0.2962963

                       cryst. coord.
        k(    1) = (   0.0000000   0.0000000   0.0000000), wk =   0.0740741
        k(    2) = (   0.0000000   0.0000000   0.3333333), wk =   0.1481481
        k(    3) = (   0.0000000   0.3333333  -0.0000000), wk =   0.1481481
        k(    4) = (   0.0000000   0.3333333   0.3333333), wk =   0.1481481
        k(    5) = (   0.0000000   0.3333333  -0.3333333), wk =   0.1481481
        k(    6) = (   0.3333333   0.0000000   0.0000000), wk =   0.1481481
        k(    7) = (   0.3333333   0.0000000   0.3333333), wk =   0.2962963
        k(    8) = (   0.3333333   0.3333333  -0.0000000), wk =   0.2962963
        k(    9) = (   0.3333333   0.3333333   0.3333333), wk =   0.2962963
        k(   10) = (   0.3333333   0.3333333  -0.3333333), wk =   0.2962963

     Initial potential from superposition of free atoms

     starting charge     127.9745, renormalised to     128.0000
     Starting wfcs are   96 randomized atomic wfcs

     Self-consistent Calculation

     iteration #  1     ecut=    30.00 Ry     beta= 0.70
     Davidson diagonalization with overlap

     ethr =  1.00E-02,  avg # of iterations =  2.0

     Threshold (ethr) on eigenvalues was too large:
     Diagonalizing with lowered threshold

     Davidson diagonalization with overlap

[...]

     total energy              =   -1357.71629258 Ry
     estimated scf accuracy    <       0.70594311 Ry

[...]

     total energy              =   -1358.07134796 Ry
     estimated scf accuracy    <       0.00001204 Ry

     iteration #  9     ecut=    30.00 Ry     beta= 0.70
     Davidson diagonalization with overlap

     ethr =  9.41E-09,  avg # of iterations =  6.9

     End of self-consistent calculation

          k = 0.0000 0.0000 0.0000 (  4473 PWs)   bands (ev):

   -74.7853 -74.7847 -74.7820 -74.7815 -40.3283 -40.3251 -40.2856 -40.2822
   -40.2227 -40.2226 -40.2220 -40.2191 -40.0087 -40.0036 -40.0031 -39.9980
   -29.6222 -29.6106 -29.6063 -29.5997 -10.7538 -10.7335 -10.7028 -10.6924
   -10.6868 -10.6791 -10.6388 -10.6296 -10.6281 -10.6202 -10.6038 -10.5945
     1.5374   2.7008   3.8445   3.9366   6.1786   6.3032   6.4245   6.7008
     6.7934   7.0174   7.2014   7.3871   7.6071   7.6440   7.6534   7.8404
     7.8823   7.9173   7.9256   8.1292   8.1447   8.2659   8.2832   8.4852
     8.7327   8.7609   9.1194  10.0996  10.1884  10.4135  10.4905  10.6434

     occupation numbers
     1.0000   1.0000   1.0000   1.0000   1.0000   1.0000   1.0000   1.0000
     1.0000   1.0000   1.0000   1.0000   1.0000   1.0000   1.0000   1.0000
     1.0000   1.0000   1.0000   1.0000   1.0000   1.0000   1.0000   1.0000
     1.0000   1.0000   1.0000   1.0000   1.0000   1.0000   1.0000   1.0000
     1.0000   1.0000   1.0000   1.0000   1.0000   1.0000   1.0000   1.0000
     1.0000   1.0000   1.0000   1.0000   1.0000   1.0000   1.0000   1.0000
     1.0000   1.0000   1.0000   1.0000   1.0000   1.0000   1.0000   1.0000
     1.0000   1.0000   1.0000   1.0000   1.0000   1.0000   1.0000   1.0000

[...]

          k = 0.3333 0.3252-0.4345 (  4466 PWs)   bands (ev):

   -74.7851 -74.7849 -74.7818 -74.7817 -40.3276 -40.3264 -40.2848 -40.2832
   -40.2223 -40.2215 -40.2201 -40.2195 -40.0065 -40.0047 -40.0014 -40.0005
   -29.6162 -29.6124 -29.6073 -29.6026 -10.7601 -10.7570 -10.7036 -10.6844
   -10.6711 -10.6699 -10.6558 -10.6445 -10.6179 -10.6146 -10.5982 -10.5967
     2.3660   2.4418   3.3179   3.8370   6.1077   6.3535   6.6109   6.7718
     6.8862   6.9842   7.1348   7.1806   7.5460   7.6097   7.6532   7.6719
     7.7913   7.8373   7.8955   7.9763   8.1509   8.2468   8.3622   8.4053
     8.5655   8.6916   9.3656   9.6314   9.8702   9.8849  10.4475  11.1593

     occupation numbers
     1.0000   1.0000   1.0000   1.0000   1.0000   1.0000   1.0000   1.0000
     1.0000   1.0000   1.0000   1.0000   1.0000   1.0000   1.0000   1.0000
     1.0000   1.0000   1.0000   1.0000   1.0000   1.0000   1.0000   1.0000
     1.0000   1.0000   1.0000   1.0000   1.0000   1.0000   1.0000   1.0000
     1.0000   1.0000   1.0000   1.0000   1.0000   1.0000   1.0000   1.0000
     1.0000   1.0000   1.0000   1.0000   1.0000   1.0000   1.0000   1.0000
     1.0000   1.0000   1.0000   1.0000   1.0000   1.0000   1.0000   1.0000
     1.0000   1.0000   1.0000   1.0000   1.0000   1.0000   1.0000   1.0000

     highest occupied level (ev):    11.3063

!    total energy              =   -1358.07135091 Ry
     estimated scf accuracy    <       0.00000016 Ry

     The total energy is the sum of the following terms:
     one-electron contribution =    -727.54288018 Ry
     hartree contribution      =     404.66068133 Ry
     xc contribution           =    -171.46538511 Ry
     ewald contribution        =    -863.72376695 Ry

     convergence has been achieved in   9 iterations

     Writing all to output data dir calculations_bands/myprefix.save/

     General routines

     Parallel routines

   This run was terminated on:  15:57:56   6Jun2023

   JOB DONE.