     Program PWSCF v.7.0 starts on 23Jun2023 at 12: 4: 7

     K-points division:     npool     =       2
     R & G space division:  proc/nbgrp/npool/nimage =       4

     Reading input from espresso_9565.pwi
Warning: card &CELL ignored
Warning: card / ignored

     Current dimensions of program PWSCF are:
     Max number of different atomic species (ntypx) = 10
     Max number of k-points (npk) =  40000
     Max angular momentum in pseudopotentials (lmaxx) =  4
     file O.pbe-n-kjpaw_psl.0.1.UPF: wavefunction(s)  2P renormalized
     Message from routine setup:
     using ibrav=0 with symmetry is DISCOURAGED, use correct ibrav instead

     Using Slab Decomposition

     bravais-lattice index     =            0
     lattice parameter (alat)  =       7.0163  a.u.
     unit-cell volume          =    1853.4756 (a.u.)^3
     number of atoms/cell      =           16
     number of atomic types    =            3
     number of electrons       =       130.00
     number of Kohn-Sham states=           90
     kinetic-energy cutoff     =      30.0000  Ry
     charge density cutoff     =     240.0000  Ry
     scf convergence threshold =      1.0E-06
     mixing beta               =       0.7000
     number of iterations used =            8  plain     mixing
     Exchange-correlation= SLA  PW   PBX  PBC
                           (   1   4   3   4   0   0   0)

     celldm(1)=   7.016258  celldm(2)=   0.000000  celldm(3)=   0.000000
     celldm(4)=   0.000000  celldm(5)=   0.000000  celldm(6)=   0.000000

     crystal axes: (cart. coord. in units of alat)
               a(1) = (   1.000000   0.000000   0.000000 )
               a(2) = (   0.000000   1.758624   0.000000 )
               a(3) = (   0.000000   0.000000   3.051386 )

     reciprocal axes: (cart. coord. in units 2 pi/alat)
               b(1) = (  1.000000  0.000000  0.000000 )
               b(2) = (  0.000000  0.568626  0.000000 )
               b(3) = (  0.000000  0.000000  0.327720 )

     PseudoPot. # 1 for Na read from file:
     /home/pragov/projects/rrg-bengioy-ad/pragov/crystal_structure_design/SSSP/na_pbe_v1.5.uspp.F.UPF
     MD5 check sum: 44600605ef58000f06b90626533354dc
     Pseudo is Ultrasoft, Zval =  9.0
     Generated by new atomic code, or converted to UPF format
     Using radial grid of  819 points,  5 beta functions with:
                l(1) =   0
                l(2) =   0
                l(3) =   1
                l(4) =   1
                l(5) =   2
     Q(r) pseudized with  8 coefficients,  rinner =    1.250   1.250   1.250
                                                       1.250   1.250

     PseudoPot. # 2 for V  read from file:
     /home/pragov/projects/rrg-bengioy-ad/pragov/crystal_structure_design/SSSP/v_pbe_v1.4.uspp.F.UPF
     MD5 check sum: 22b79981416ebb76fdaf5b1b8640f6fb
     Pseudo is Ultrasoft + core correction, Zval = 13.0
     Generated by new atomic code, or converted to UPF format
     Using radial grid of  853 points,  6 beta functions with:
                l(1) =   0
                l(2) =   0
                l(3) =   1
                l(4) =   1
                l(5) =   2
                l(6) =   2
     Q(r) pseudized with  8 coefficients,  rinner =    1.100   1.100   1.100
                                                       1.100   1.100

     PseudoPot. # 3 for O  read from file:
     /home/pragov/projects/rrg-bengioy-ad/pragov/crystal_structure_design/SSSP/O.pbe-n-kjpaw_psl.0.1.UPF
     MD5 check sum: 0234752ac141de4415c5fc33072bef88
     Pseudo is Projector augmented-wave + core cor, Zval =  6.0
     Generated using "atomic" code by A. Dal Corso  v.5.0.99 svn rev. 10869
     Shape of augmentation charge: BESSEL
     Using radial grid of 1095 points,  4 beta functions with:
                l(1) =   0
                l(2) =   0
                l(3) =   1
                l(4) =   1
     Q(r) pseudized with 0 coefficients

     atomic species   valence    mass     pseudopotential
        Na             9.00    22.98977     Na( 1.00)
        V             13.00    50.94150     V ( 1.00)
        O              6.00    15.99900     O ( 1.00)

      8 Sym. Ops., with inversion, found ( 4 have fractional translation)

                                    s                        frac. trans.

      isym =  1     identity

 cryst.   s( 1) = (     1          0          0      )
                  (     0          1          0      )
                  (     0          0          1      )

 cart.    s( 1) = (  1.0000000  0.0000000  0.0000000 )
                  (  0.0000000  1.0000000  0.0000000 )
                  (  0.0000000  0.0000000  1.0000000 )

      isym =  2     180 deg rotation - cart. axis [0,0,1]

 cryst.   s( 2) = (    -1          0          0      )    f =(  0.5000000 )
                  (     0         -1          0      )       (  0.0000000 )
                  (     0          0          1      )       ( -0.5000000 )

 cart.    s( 2) = ( -1.0000000  0.0000000  0.0000000 )    f =(  0.5000000 )
                  (  0.0000000 -1.0000000  0.0000000 )       (  0.0000000 )
                  (  0.0000000  0.0000000  1.0000000 )       ( -1.5256930 )

[...]

      isym =  4     180 deg rotation - cart. axis [1,0,0]

[...]

      isym =  5     inversion

[...]

      isym =  6     inv. 180 deg rotation - cart. axis [0,0,1]

[...]

 cryst.   s( 7) = (     1          0          0      )    f =(  0.5000000 )
                  (     0         -1          0      )       (  0.0000000 )
                  (     0          0          1      )       ( -0.5000000 )

 cart.    s( 7) = (  1.0000000  0.0000000  0.0000000 )    f =(  0.5000000 )
                  (  0.0000000 -1.0000000  0.0000000 )       (  0.0000000 )
                  (  0.0000000  0.0000000  1.0000000 )       ( -1.5256930 )

      isym =  8     inv. 180 deg rotation - cart. axis [1,0,0]

 cryst.   s( 8) = (    -1          0          0      )
                  (     0          1          0      )
                  (     0          0          1      )

 cart.    s( 8) = ( -1.0000000  0.0000000  0.0000000 )
                  (  0.0000000  1.0000000  0.0000000 )
                  (  0.0000000  0.0000000  1.0000000 )

   Cartesian axes

     site n.     atom                  positions (alat units)
         1           Na  tau(   1) = (   0.5000000   0.7156932   0.0000000  )
         2           Na  tau(   2) = (   0.0000000   1.0429309   1.5256930  )
         3           V   tau(   3) = (   0.0000000   0.1406249   0.4614306  )
         4           V   tau(   4) = (   0.5000000   1.6179993   1.0642624  )
         5           V   tau(   5) = (   0.5000000   1.6179993   1.9871236  )
         6           V   tau(   6) = (   0.0000000   0.1406249   2.5899554  )
         7           O   tau(   7) = (   0.0000000   1.7317101   0.0000000  )
         8           O   tau(   8) = (   0.0000000   0.5865838   0.4097371  )
         9           O   tau(   9) = (   0.5000000   0.0145878   0.5527067  )
        10           O   tau(  10) = (   0.0000000   1.7440363   0.9729863  )
        11           O   tau(  11) = (   0.5000000   1.1720403   1.1159559  )
        12           O   tau(  12) = (   0.5000000   0.0269140   1.5256930  )
        13           O   tau(  13) = (   0.5000000   1.1720403   1.9354300  )
        14           O   tau(  14) = (   0.0000000   1.7440363   2.0783997  )
        15           O   tau(  15) = (   0.5000000   0.0145878   2.4986793  )
        16           O   tau(  16) = (   0.0000000   0.5865838   2.6416489  )

   Crystallographic axes

     site n.     atom                  positions (cryst. coord.)
         1           Na  tau(   1) = (  0.5000000  0.4069620  0.0000000  )
         2           Na  tau(   2) = (  0.0000000  0.5930380  0.5000000  )
         3           V   tau(   3) = (  0.0000000  0.0799630  0.1512200  )
         4           V   tau(   4) = (  0.5000000  0.9200370  0.3487800  )
         5           V   tau(   5) = (  0.5000000  0.9200370  0.6512200  )
         6           V   tau(   6) = (  0.0000000  0.0799630  0.8487800  )
         7           O   tau(   7) = (  0.0000000  0.9846960  0.0000000  )
         8           O   tau(   8) = (  0.0000000  0.3335470  0.1342790  )
         9           O   tau(   9) = (  0.5000000  0.0082950  0.1811330  )
        10           O   tau(  10) = (  0.0000000  0.9917050  0.3188670  )
        11           O   tau(  11) = (  0.5000000  0.6664530  0.3657210  )
        12           O   tau(  12) = (  0.5000000  0.0153040  0.5000000  )
        13           O   tau(  13) = (  0.5000000  0.6664530  0.6342790  )
        14           O   tau(  14) = (  0.0000000  0.9917050  0.6811330  )
        15           O   tau(  15) = (  0.5000000  0.0082950  0.8188670  )
        16           O   tau(  16) = (  0.0000000  0.3335470  0.8657210  )

     number of k points=     8
                       cart. coord. in units 2pi/alat
        k(    1) = (   0.0000000   0.0000000   0.0000000), wk =   0.0740741
        k(    2) = (   0.0000000   0.0000000   0.1092400), wk =   0.1481481
        k(    3) = (   0.0000000   0.1895421   0.0000000), wk =   0.1481481
        k(    4) = (   0.0000000   0.1895421   0.1092400), wk =   0.2962963
        k(    5) = (   0.3333333   0.0000000   0.0000000), wk =   0.1481481
        k(    6) = (   0.3333333   0.0000000   0.1092400), wk =   0.2962963
        k(    7) = (   0.3333333   0.1895421   0.0000000), wk =   0.2962963
        k(    8) = (   0.3333333   0.1895421   0.1092400), wk =   0.5925926

                       cryst. coord.
        k(    1) = (   0.0000000   0.0000000   0.0000000), wk =   0.0740741
        k(    2) = (   0.0000000   0.0000000   0.3333333), wk =   0.1481481
        k(    3) = (   0.0000000   0.3333333   0.0000000), wk =   0.1481481
        k(    4) = (   0.0000000   0.3333333   0.3333333), wk =   0.2962963
        k(    5) = (   0.3333333   0.0000000   0.0000000), wk =   0.1481481
        k(    6) = (   0.3333333   0.0000000   0.3333333), wk =   0.2962963
        k(    7) = (   0.3333333   0.3333333   0.0000000), wk =   0.2962963
        k(    8) = (   0.3333333   0.3333333   0.3333333), wk =   0.5925926

     Check: negative core charge=   -0.000013

     Initial potential from superposition of free atoms

     starting charge     129.9825, renormalised to     130.0000

     negative rho (up, down):  4.299E-03 0.000E+00
     Starting wfcs are   90 randomized atomic wfcs
     Checking if some PAW data can be deallocated...

     Self-consistent Calculation

     iteration #  1     ecut=    30.00 Ry     beta= 0.70
     Davidson diagonalization with overlap

     ethr =  1.00E-02,  avg # of iterations =  6.9

     negative rho (up, down):  1.105E-02 0.000E+00

     total energy              =   -1184.05521858 Ry
     estimated scf accuracy    <       6.81807405 Ry

[...]

     total energy              =   -1188.20759114 Ry
     estimated scf accuracy    <       0.00000154 Ry

     iteration # 12     ecut=    30.00 Ry     beta= 0.70
     Davidson diagonalization with overlap

     ethr =  1.19E-09,  avg # of iterations =  1.9

     negative rho (up, down):  7.472E-03 0.000E+00

     End of self-consistent calculation

          k = 0.0000 0.0000 0.0000 (  5181 PWs)   bands (ev):

   -61.6705 -61.6687 -61.6583 -61.6562 -47.7663 -47.7658 -35.8316 -35.8298
   -35.8108 -35.8089 -35.4666 -35.4235 -35.4201 -35.4176 -35.3960 -35.3764
   -35.3753 -35.3445 -19.7292 -19.7273 -19.6650 -19.6620 -19.6295 -19.6275
   -15.5935 -15.4602 -14.6101 -14.5010 -14.4378 -14.3652 -14.1212 -14.1033
   -13.9992 -13.9967  -2.2846  -2.2645  -1.9981  -1.8955  -1.8296  -1.5492
    -1.4549  -1.1103  -0.9751  -0.9572  -0.3820  -0.3732  -0.3019  -0.2514
    -0.1494  -0.1024   0.1528   0.1902   0.2287   0.3360   0.3901   0.6352
     0.6700   0.7141   0.9186   1.0604   1.0772   1.1026   1.1929   1.4833
     4.0430   4.0432   5.2338   5.2352   5.3065   5.4595   5.5626   5.9140
     5.9175   5.9440   6.1640   6.2184   6.3047   6.6430   6.7041   6.8472
     7.1301   7.3457   7.3825   7.4064   7.4359   8.3584   8.8918  10.7661
    10.9992  11.5889

     occupation numbers
     1.0000   1.0000   1.0000   1.0000   1.0000   1.0000   1.0000   1.0000
     1.0000   1.0000   1.0000   1.0000   1.0000   1.0000   1.0000   1.0000
     1.0000   1.0000   1.0000   1.0000   1.0000   1.0000   1.0000   1.0000
     1.0000   1.0000   1.0000   1.0000   1.0000   1.0000   1.0000   1.0000
     1.0000   1.0000   1.0000   1.0000   1.0000   1.0000   1.0000   1.0000
     1.0000   1.0000   1.0000   1.0000   1.0000   1.0000   1.0000   1.0000
     1.0000   1.0000   1.0000   1.0000   1.0000   1.0000   1.0000   1.0000
     1.0000   1.0000   1.0000   1.0000   1.0000   1.0000   1.0000   1.0000
     1.0000   0.0000   0.0000   0.0000   0.0000   0.0000   0.0000   0.0000
     0.0000   0.0000   0.0000   0.0000   0.0000   0.0000   0.0000   0.0000
     0.0000   0.0000   0.0000   0.0000   0.0000   0.0000   0.0000   0.0000
     0.0000   0.0000

[...]

          k = 0.3333 0.1895 0.1092 (  5148 PWs)   bands (ev):

   -61.6662 -61.6652 -61.6596 -61.6587 -47.7653 -47.7653 -35.8239 -35.8222
   -35.8126 -35.8109 -35.4725 -35.4684 -35.4548 -35.4521 -35.3887 -35.3855
   -35.3595 -35.3501 -19.7243 -19.7239 -19.6603 -19.6599 -19.6522 -19.6521
   -15.0845 -15.0181 -14.5057 -14.4594 -14.4070 -14.3687 -14.0675 -14.0619
   -14.0059 -13.9910  -2.7538  -2.7269  -1.9202  -1.7457  -1.6986  -1.6468
    -1.3367  -1.2707  -1.1952  -1.1041  -1.0564  -1.0362  -0.5096  -0.4708
    -0.4369  -0.2892  -0.2817  -0.2696  -0.0784   0.1214   0.4441   0.4588
     0.6362   0.6898   1.0655   1.1758   1.2033   1.2915   1.5871   1.6028
     4.4644   4.5050   4.9585   4.9772   5.2296   5.2379   5.4142   5.4205
     5.6780   5.7003   5.9546   6.0381   6.6258   6.7637   7.0387   7.0939
     7.2799   7.4091   8.0420   8.2822   8.9150   9.1273  10.4407  10.6427
    11.0442  11.4018

     occupation numbers
     1.0000   1.0000   1.0000   1.0000   1.0000   1.0000   1.0000   1.0000
     1.0000   1.0000   1.0000   1.0000   1.0000   1.0000   1.0000   1.0000
     1.0000   1.0000   1.0000   1.0000   1.0000   1.0000   1.0000   1.0000
     1.0000   1.0000   1.0000   1.0000   1.0000   1.0000   1.0000   1.0000
     1.0000   1.0000   1.0000   1.0000   1.0000   1.0000   1.0000   1.0000
     1.0000   1.0000   1.0000   1.0000   1.0000   1.0000   1.0000   1.0000
     1.0000   1.0000   1.0000   1.0000   1.0000   1.0000   1.0000   1.0000
     1.0000   1.0000   1.0000   1.0000   1.0000   1.0000   1.0000   1.0000
     1.0000   0.0000   0.0000   0.0000   0.0000   0.0000   0.0000   0.0000
     0.0000   0.0000   0.0000   0.0000   0.0000   0.0000   0.0000   0.0000
     0.0000   0.0000   0.0000   0.0000   0.0000   0.0000   0.0000   0.0000
     0.0000   0.0000

     highest occupied, lowest unoccupied level (ev):     4.4698    4.0432

!    total energy              =   -1188.20759111 Ry
     estimated scf accuracy    <       0.00000026 Ry

     The total energy is the sum of the following terms:
     one-electron contribution =   -1027.75553193 Ry
     hartree contribution      =     548.68933954 Ry
     xc contribution           =    -180.68460047 Ry
     ewald contribution        =    -433.17608176 Ry
     one-center paw contrib.   =     -95.28071649 Ry
      -> PAW hartree energy AE =       0.00000000 Ry
      -> PAW hartree energy PS =       0.00000000 Ry
      -> PAW xc energy AE      =       0.00000000 Ry
      -> PAW xc energy PS      =       0.00000000 Ry
      -> total E_H with PAW    =     548.68933954 Ry
      -> total E_XC with PAW   =    -180.68460047 Ry

     convergence has been achieved in  12 iterations

     Writing all to output data dir calculations_bands/myprefix.save/

     General routines

     Parallel routines

     PAW routines

   This run was terminated on:  12: 4:21  23Jun2023

   JOB DONE.