     Program PWSCF v.7.0 starts on 22Jun2023 at 21:33:53

     K-points division:     npool     =       2
     R & G space division:  proc/nbgrp/npool/nimage =       4

     Reading input from espresso_1308.pwi
Warning: card &CELL ignored
Warning: card / ignored

     Current dimensions of program PWSCF are:
     Max number of different atomic species (ntypx) = 10
     Max number of k-points (npk) =  40000
     Max angular momentum in pseudopotentials (lmaxx) =  4
     Message from routine setup:
     using ibrav=0 with symmetry is DISCOURAGED, use correct ibrav instead

     Using Slab Decomposition

     bravais-lattice index     =            0
     lattice parameter (alat)  =       7.0055  a.u.
     unit-cell volume          =    1142.8757 (a.u.)^3
     number of atoms/cell      =            8
     number of atomic types    =            3
     number of electrons       =       118.00
     number of Kohn-Sham states=           64
     kinetic-energy cutoff     =      30.0000  Ry
     charge density cutoff     =     240.0000  Ry
     scf convergence threshold =      1.0E-06
     mixing beta               =       0.7000
     number of iterations used =            8  plain     mixing
     Exchange-correlation=  SLA  PW   PBX  PBC
                           (   1   4   3   4   0   0   0)

     celldm(1)=   7.005455  celldm(2)=   0.000000  celldm(3)=   0.000000
     celldm(4)=   0.000000  celldm(5)=   0.000000  celldm(6)=   0.000000

     crystal axes: (cart. coord. in units of alat)
               a(1) = (   1.000000   0.000000   0.000000 )
               a(2) = (   0.000000   1.157610   0.000000 )
               a(3) = (   0.000000   0.000000   2.871625 )

     reciprocal axes: (cart. coord. in units 2 pi/alat)
               b(1) = (  1.000000  0.000000  0.000000 )
               b(2) = (  0.000000  0.863849  0.000000 )
               b(3) = (  0.000000  0.000000  0.348235 )

     PseudoPot. # 1 for Ce read from file:
     /home/pragov/projects/rrg-bengioy-ad/pragov/crystal_structure_design/SSSP/Ce.GGA-PBE-paw-v1.0.UPF
     MD5 check sum: f2b950f613061344c13339c8d844425d
     Pseudo is Projector augmented-wave + core cor, Zval = 12.0
     Generated using ATOMPAW code
     Shape of augmentation charge: BESSEL
     Using radial grid of 1102 points,  8 beta functions with:
                l(1) =   0
                l(2) =   0
                l(3) =   1
                l(4) =   1
                l(5) =   2
                l(6) =   2
                l(7) =   3
                l(8) =   3
     Q(r) pseudized with 0 coefficients

     PseudoPot. # 2 for Ni read from file:
     /home/pragov/projects/rrg-bengioy-ad/pragov/crystal_structure_design/SSSP/ni_pbe_v1.4.uspp.F.UPF
     MD5 check sum: 1ee80287db30b12d2bc1f57a5b5d6409
     Pseudo is Ultrasoft + core correction, Zval = 18.0
     Generated by new atomic code, or converted to UPF format
     Using radial grid of  865 points,  6 beta functions with:
                l(1) =   0
                l(2) =   0
                l(3) =   1
                l(4) =   1
                l(5) =   2
                l(6) =   2
     Q(r) pseudized with 10 coefficients,  rinner =    0.980   0.980   0.980
                                                       0.980   0.980

     PseudoPot. # 3 for Pt read from file:
     /home/pragov/projects/rrg-bengioy-ad/pragov/crystal_structure_design/SSSP/pt_pbe_v1.4.uspp.F.UPF
     MD5 check sum: f09d6de1a584b5a045c4fc126da2d0c4
     Pseudo is Ultrasoft + core correction, Zval = 16.0
     Generated by new atomic code, or converted to UPF format
     Using radial grid of  985 points,  6 beta functions with:
                l(1) =   0
                l(2) =   0
                l(3) =   1
                l(4) =   1
                l(5) =   2
                l(6) =   2
     Q(r) pseudized with  8 coefficients,  rinner =    1.300   1.300   1.300
                                                       1.300   1.300

     atomic species   valence    mass     pseudopotential
        Ce            12.00   140.11600     Ce( 1.00)
        Ni            18.00    58.69340     Ni( 1.00)
        Pt            16.00   195.08400     Pt( 1.00)

      4 Sym. Ops. (no inversion) found

                                    s                        frac. trans.

      isym =  1     identity

 cryst.   s( 1) = (     1          0          0      )
                  (     0          1          0      )
                  (     0          0          1      )

 cart.    s( 1) = (  1.0000000  0.0000000  0.0000000 )
                  (  0.0000000  1.0000000  0.0000000 )
                  (  0.0000000  0.0000000  1.0000000 )

      isym =  2     180 deg rotation - cart. axis [0,0,1]

[...]

      isym =  3     inv. 180 deg rotation - cart. axis [0,1,0]

[...]

      isym =  4     inv. 180 deg rotation - cart. axis [1,0,0]

 cryst.   s( 4) = (    -1          0          0      )
                  (     0          1          0      )
                  (     0          0          1      )

 cart.    s( 4) = ( -1.0000000  0.0000000  0.0000000 )
                  (  0.0000000  1.0000000  0.0000000 )
                  (  0.0000000  0.0000000  1.0000000 )

   Cartesian axes

     site n.     atom                  positions (alat units)
         1           Ce  tau(   1) = (   0.5000000   0.5788051   1.0742489  )
         2           Ce  tau(   2) = (   0.0000000   0.5788051   2.4562642  )
         3           Ce  tau(   3) = (   0.0000000   0.0000000   0.3949891  )
         4           Ce  tau(   4) = (   0.5000000   0.0000000   1.8312695  )
         5           Ni  tau(   5) = (   0.0000000   0.5788051   1.6638710  )
         6           Ni  tau(   6) = (   0.0000000   0.0000000   1.2079661  )
         7           Ni  tau(   7) = (   0.5000000   0.0000000   2.6079376  )
         8           Pt  tau(   8) = (   0.5000000   0.5788051   0.2499519  )

   Crystallographic axes

     site n.     atom                  positions (cryst. coord.)
         1           Ce  tau(   1) = (  0.5000000  0.5000000  0.3740910  )
         2           Ce  tau(   2) = (  0.0000000  0.5000000  0.8553570  )
         3           Ce  tau(   3) = (  0.0000000  0.0000000  0.1375490  )
         4           Ce  tau(   4) = (  0.5000000  0.0000000  0.6377120  )
         5           Ni  tau(   5) = (  0.0000000  0.5000000  0.5794180  )
         6           Ni  tau(   6) = (  0.0000000  0.0000000  0.4206560  )
         7           Ni  tau(   7) = (  0.5000000  0.0000000  0.9081750  )
         8           Pt  tau(   8) = (  0.5000000  0.5000000  0.0870420  )

     number of k points=     8
                       cart. coord. in units 2pi/alat
        k(    1) = (   0.0000000   0.0000000   0.0000000), wk =   0.0740741
        k(    2) = (   0.0000000   0.0000000   0.1160783), wk =   0.1481481
        k(    3) = (   0.0000000   0.2879495   0.0000000), wk =   0.1481481
        k(    4) = (   0.0000000   0.2879495   0.1160783), wk =   0.2962963
        k(    5) = (   0.3333333   0.0000000   0.0000000), wk =   0.1481481
        k(    6) = (   0.3333333   0.0000000   0.1160783), wk =   0.2962963
        k(    7) = (   0.3333333   0.2879495   0.0000000), wk =   0.2962963
        k(    8) = (   0.3333333   0.2879495   0.1160783), wk =   0.5925926

                       cryst. coord.
        k(    1) = (   0.0000000   0.0000000   0.0000000), wk =   0.0740741
        k(    2) = (   0.0000000   0.0000000   0.3333333), wk =   0.1481481
        k(    3) = (   0.0000000   0.3333333   0.0000000), wk =   0.1481481
        k(    4) = (   0.0000000   0.3333333   0.3333333), wk =   0.2962963
        k(    5) = (   0.3333333   0.0000000   0.0000000), wk =   0.1481481
        k(    6) = (   0.3333333   0.0000000   0.3333333), wk =   0.2962963
        k(    7) = (   0.3333333   0.3333333   0.0000000), wk =   0.2962963
        k(    8) = (   0.3333333   0.3333333   0.3333333), wk =   0.5925926

     Check: negative core charge=   -0.000004

     Initial potential from superposition of free atoms

     starting charge     111.4720, renormalised to     118.0000

     negative rho (up, down):  1.913E-01 0.000E+00
     Starting wfcs are  179 randomized atomic wfcs
     Checking if some PAW data can be deallocated...

     Self-consistent Calculation

     iteration #  1     ecut=    30.00 Ry     beta= 0.70
     Davidson diagonalization with overlap

     ethr =  1.00E-02,  avg # of iterations =  3.1

     negative rho (up, down):  1.483E-01 0.000E+00

     total energy              =   -2720.89927744 Ry
     estimated scf accuracy    <     521.45123474 Ry

[...]

     c_bands:  1 eigenvalues not converged
     ethr =  8.95E-04,  avg # of iterations = 18.5

[...]

     c_bands:  2 eigenvalues not converged
     ethr =  7.59E-07,  avg # of iterations = 16.5

[...]

     total energy              =   -3168.46115877 Ry
     estimated scf accuracy    <       0.00000130 Ry

     iteration #149     ecut=    30.00 Ry     beta= 0.70
     Davidson diagonalization with overlap

     ethr =  9.30E-10,  avg # of iterations =  4.2

     negative rho (up, down):  1.693E-01 0.000E+00

     End of self-consistent calculation

          k = 0.0000 0.0000 0.0000 (  3161 PWs)   bands (ev):

   -88.1955 -88.1648 -88.1633 -48.5405 -48.5403 -48.5201 -48.4982 -48.4935
   -48.4842 -48.4758 -48.4711 -48.4609 -37.7530 -37.7271 -37.6602 -19.2374
   -19.1598 -19.1155 -19.0104  -2.5099  -2.1991  -2.1230  -2.0150  -1.9872
    -1.8661  -1.7651  -1.6869  -1.5713  -1.5526  -1.4827  -1.4136   9.5973
    10.2076  10.8572  11.0682  11.2987  11.3366  11.7935  11.8603  12.1074
    12.3516  12.6070  12.7055  12.7982  13.0856  13.1266  13.2250  13.5026
    13.5845  13.5946  13.6727  13.6771  13.7355  13.7867  13.9200  15.1731
    15.3179  15.3872  15.4122  15.5721  15.6173  15.6436  15.6719  15.7213

     occupation numbers
     1.0000   1.0000   1.0000   1.0000   1.0000   1.0000   1.0000   1.0000
     1.0000   1.0000   1.0000   1.0000   1.0000   1.0000   1.0000   1.0000
     1.0000   1.0000   1.0000   1.0000   1.0000   1.0000   1.0000   1.0000
     1.0000   1.0000   1.0000   1.0000   1.0000   1.0000   1.0000   1.0000
     1.0000   1.0000   1.0000   1.0000   1.0000   1.0000   1.0000   1.0000
     1.0000   1.0000   1.0000   1.0000   1.0000   1.0000   1.0000   1.0000
     1.0000   1.0000   1.0000   1.0000   1.0000   1.0000   1.0000   1.0000
     1.0000   1.0000   1.0000   0.0000   0.0000   0.0000   0.0000   0.0000

[...]

          k = 0.3333 0.2879 0.1161 (  3183 PWs)   bands (ev):

   -88.1970 -88.1665 -88.1652 -48.5446 -48.5399 -48.5278 -48.5051 -48.4938
   -48.4901 -48.4884 -48.4797 -48.4585 -37.7586 -37.7274 -37.6597 -19.1438
   -19.0886 -19.0668 -19.0117  -2.4299  -2.3946  -2.3038  -2.2665  -2.2258
    -2.1972  -2.0030  -1.9611  -1.8237  -1.7355  -1.5841  -1.5478  10.7216
    11.1343  11.3067  11.6027  11.7205  11.8678  12.1866  12.3325  12.7456
    12.9113  13.0812  13.1507  13.2635  13.3489  13.3848  13.4690  13.5003
    13.5428  13.6327  13.6806  13.7615  13.8618  13.9639  14.1191  14.9123
    15.1723  15.3239  15.4525  15.5029  15.5424  15.5900  15.6355  15.6641

     occupation numbers
     1.0000   1.0000   1.0000   1.0000   1.0000   1.0000   1.0000   1.0000
     1.0000   1.0000   1.0000   1.0000   1.0000   1.0000   1.0000   1.0000
     1.0000   1.0000   1.0000   1.0000   1.0000   1.0000   1.0000   1.0000
     1.0000   1.0000   1.0000   1.0000   1.0000   1.0000   1.0000   1.0000
     1.0000   1.0000   1.0000   1.0000   1.0000   1.0000   1.0000   1.0000
     1.0000   1.0000   1.0000   1.0000   1.0000   1.0000   1.0000   1.0000
     1.0000   1.0000   1.0000   1.0000   1.0000   1.0000   1.0000   1.0000
     1.0000   1.0000   1.0000   0.0000   0.0000   0.0000   0.0000   0.0000

     highest occupied, lowest unoccupied level (ev):    15.5410   15.2518

!    total energy              =   -3168.46115833 Ry
     estimated scf accuracy    <       0.00000050 Ry

     The total energy is the sum of the following terms:
     one-electron contribution =    -910.78553161 Ry
     hartree contribution      =     530.84551252 Ry
     xc contribution           =    -204.73457720 Ry
     ewald contribution        =    -950.53607878 Ry
     one-center paw contrib.   =   -1633.25048326 Ry
      -> PAW hartree energy AE =      43.89892430 Ry
      -> PAW hartree energy PS =     -43.64570740 Ry
      -> PAW xc energy AE      =    -417.11119245 Ry
      -> PAW xc energy PS      =       8.54934138 Ry
      -> total E_H with PAW    =     531.09872942 Ry
      -> total E_XC with PAW   =    -613.29642827 Ry

     convergence has been achieved in 149 iterations

     Writing all to output data dir calculations_bands/myprefix.save/

     General routines

     Parallel routines

     PAW routines

   This run was terminated on:  21:37:21  22Jun2023

   JOB DONE.