     Program PWSCF v.7.0 starts on 22Jun2023 at 22:33:53

     K-points division:     npool     =       2
     R & G space division:  proc/nbgrp/npool/nimage =       4

     Reading input from espresso_10004.pwi
Warning: card &CELL ignored
Warning: card / ignored

     Current dimensions of program PWSCF are:
     Max number of different atomic species (ntypx) = 10
     Max number of k-points (npk) =  40000
     Max angular momentum in pseudopotentials (lmaxx) =  4
     file K.pbe-spn-kjpaw_psl.1.0.0.UPF: wavefunction(s)  3S renormalized
     file O.pbe-n-kjpaw_psl.0.1.UPF: wavefunction(s)  2P renormalized
     Message from routine setup:
     using ibrav=0 with symmetry is DISCOURAGED, use correct ibrav instead

     Using Slab Decomposition

     bravais-lattice index     =            0
     lattice parameter (alat)  =      11.2863  a.u.
     unit-cell volume          =    1628.4825 (a.u.)^3
     number of atoms/cell      =           14
     number of atomic types    =            5
     number of electrons       =       124.00
     number of Kohn-Sham states=           64
     kinetic-energy cutoff     =      30.0000  Ry
     charge density cutoff     =     240.0000  Ry
     scf convergence threshold =      1.0E-06
     mixing beta               =       0.7000
     number of iterations used =            8  plain     mixing
     Exchange-correlation= SLA  PW   PBX  PBC
                           (   1   4   3   4   0   0   0)

     celldm(1)=  11.286305  celldm(2)=   0.000000  celldm(3)=   0.000000
     celldm(4)=   0.000000  celldm(5)=   0.000000  celldm(6)=   0.000000

     crystal axes: (cart. coord. in units of alat)
               a(1) = (   1.000000   0.000000   0.000000 )
               a(2) = (  -0.500000   0.866025   0.000000 )
               a(3) = (   0.000000   0.000000   1.307968 )

     reciprocal axes: (cart. coord. in units 2 pi/alat)
               b(1) = (  1.000000  0.577350  0.000000 )
               b(2) = (  0.000000  1.154700  0.000000 )
               b(3) = (  0.000000  0.000000  0.764545 )

     PseudoPot. # 1 for K  read from file:
     /home/pragov/projects/rrg-bengioy-ad/pragov/crystal_structure_design/SSSP/K.pbe-spn-kjpaw_psl.1.0.0.UPF
     MD5 check sum: 7d58810084cac21f60fbe77ea2b688fd
     Pseudo is Projector augmented-wave + core cor, Zval =  9.0
     Generated using "atomic" code by A. Dal Corso  v.5.1
     Shape of augmentation charge: PSQ
     Using radial grid of 1165 points,  6 beta functions with:
                l(1) =   0
                l(2) =   0
                l(3) =   1
                l(4) =   1
                l(5) =   2
                l(6) =   2
     Q(r) pseudized with 0 coefficients

     PseudoPot. # 2 for Rb read from file:
     /home/pragov/projects/rrg-bengioy-ad/pragov/crystal_structure_design/SSSP/Rb_ONCV_PBE-1.0.oncvpsp.upf
     MD5 check sum: 55a5172d6bfbce6759a58e35d43f6aa9
     Pseudo is Norm-conserving, Zval =  9.0
     Generated using ONCVPSP code by D. R. Hamann
     Using radial grid of 2308 points,  6 beta functions with:
                l(1) =   0
                l(2) =   0
                l(3) =   1
                l(4) =   1
                l(5) =   2
                l(6) =   2

     PseudoPot. # 3 for Tm read from file:
     /home/pragov/projects/rrg-bengioy-ad/pragov/crystal_structure_design/SSSP/Tm.GGA-PBE-paw-v1.0.UPF
     MD5 check sum: e502ddec747d736c64e0ed72ddfd7d4c
     Pseudo is Projector augmented-wave + core cor, Zval = 23.0
     Generated using ATOMPAW code
     Shape of augmentation charge: BESSEL
     Using radial grid of 1116 points,  8 beta functions with:
                l(1) =   0
                l(2) =   0
                l(3) =   1
                l(4) =   1
                l(5) =   2
                l(6) =   2
                l(7) =   3
                l(8) =   3
     Q(r) pseudized with 0 coefficients

     PseudoPot. # 4 for V  read from file:
     /home/pragov/projects/rrg-bengioy-ad/pragov/crystal_structure_design/SSSP/v_pbe_v1.4.uspp.F.UPF
     MD5 check sum: 22b79981416ebb76fdaf5b1b8640f6fb
     Pseudo is Ultrasoft + core correction, Zval = 13.0
     Generated by new atomic code, or converted to UPF format
     Using radial grid of  853 points,  6 beta functions with:
                l(1) =   0
                l(2) =   0
                l(3) =   1
                l(4) =   1
                l(5) =   2
                l(6) =   2
     Q(r) pseudized with  8 coefficients,  rinner =    1.100   1.100   1.100
                                                       1.100   1.100

     PseudoPot. # 5 for O  read from file:
     /home/pragov/projects/rrg-bengioy-ad/pragov/crystal_structure_design/SSSP/O.pbe-n-kjpaw_psl.0.1.UPF
     MD5 check sum: 0234752ac141de4415c5fc33072bef88
     Pseudo is Projector augmented-wave + core cor, Zval =  6.0
     Generated using "atomic" code by A. Dal Corso  v.5.0.99 svn rev. 10869
     Shape of augmentation charge: BESSEL
     Using radial grid of 1095 points,  4 beta functions with:
                l(1) =   0
                l(2) =   0
                l(3) =   1
                l(4) =   1
     Q(r) pseudized with 0 coefficients

     atomic species   valence    mass     pseudopotential
        K              9.00    39.09830     K ( 1.00)
        Rb             9.00    85.46780     Rb( 1.00)
        Tm            23.00   168.93422     Tm( 1.00)
        V             13.00    50.94150     V ( 1.00)
        O              6.00    15.99900     O ( 1.00)

     12 Sym. Ops., with inversion, found

                                    s                        frac. trans.

      isym =  1     identity

 cryst.   s( 1) = (     1          0          0      )
                  (     0          1          0      )
                  (     0          0          1      )

 cart.    s( 1) = (  1.0000000 -0.0000000  0.0000000 )
                  (  0.0000000  1.0000000  0.0000000 )
                  (  0.0000000  0.0000000  1.0000000 )

      isym =  2     180 deg rotation - cart. axis [1,0,0]

[...]

      isym =  3     120 deg rotation - cryst. axis [0,0,1]

[...]

      isym =  6     180 deg rotation - cryst. axis [1,1,0]

[...]

      isym =  7     inversion

[...]

      isym =  8     inv. 180 deg rotation - cart. axis [1,0,0]

[...]

      isym =  9     inv. 120 deg rotation - cryst. axis [0,0,1]

 cryst.   s( 9) = (     0         -1          0      )
                  (     1          1          0      )
                  (     0          0         -1      )

 cart.    s( 9) = (  0.4999999  0.8660254  0.0000000 )
                  ( -0.8660255  0.5000001  0.0000000 )
                  (  0.0000000  0.0000000 -1.0000000 )

[...]

 cryst.   s(10) = (     1          1          0      )
                  (    -1          0          0      )
                  (     0          0         -1      )

 cart.    s(10) = (  0.5000001 -0.8660254  0.0000000 )
                  (  0.8660255  0.4999999  0.0000000 )
                  (  0.0000000  0.0000000 -1.0000000 )

[...]

      isym = 12     inv. 180 deg rotation - cryst. axis [1,1,0]

 cryst.   s(12) = (     0         -1          0      )
                  (    -1          0          0      )
                  (     0          0          1      )

 cart.    s(12) = (  0.4999999 -0.8660255  0.0000000 )
                  ( -0.8660255 -0.4999999  0.0000000 )
                  (  0.0000000  0.0000000  1.0000000 )

   Cartesian axes

     site n.     atom                  positions (alat units)
         1           K   tau(   1) = (  -0.0000004   0.5773506   0.9188605  )
         2           K   tau(   2) = (   0.5000005   0.2886749   0.3891074  )
         3           Rb  tau(   3) = (   0.0000000   0.0000000   0.0000000  )
         4           Tm  tau(   4) = (   0.0000000   0.0000000   0.6539839  )
         5           V   tau(   5) = (  -0.0000004   0.5773506   0.3322330  )
         6           V   tau(   6) = (   0.5000005   0.2886749   0.9757349  )
         7           O   tau(   7) = (  -0.0000004   0.5773506   0.0498113  )
         8           O   tau(   8) = (   0.5000005   0.2886749   1.2581566  )
         9           O   tau(   9) = (  -0.2410924   0.7165451   0.4316098  )
        10           O   tau(  10) = (   0.7410925   0.1494803   0.8763581  )
        11           O   tau(  11) = (   0.0000000   0.2989606   0.4316098  )
        12           O   tau(  12) = (   0.5000001   0.5670648   0.8763581  )
        13           O   tau(  13) = (   0.2410926   0.7165451   0.4316098  )
        14           O   tau(  14) = (   0.2589075   0.1494803   0.8763581  )

   Crystallographic axes

     site n.     atom                  positions (cryst. coord.)
         1           K   tau(   1) = (  0.3333330  0.6666670  0.7025100  )
         2           K   tau(   2) = (  0.6666670  0.3333330  0.2974900  )
         3           Rb  tau(   3) = (  0.0000000  0.0000000  0.0000000  )
         4           Tm  tau(   4) = (  0.0000000  0.0000000  0.5000000  )
         5           V   tau(   5) = (  0.3333330  0.6666670  0.2540070  )
         6           V   tau(   6) = (  0.6666670  0.3333330  0.7459930  )
         7           O   tau(   7) = (  0.3333330  0.6666670  0.0380830  )
         8           O   tau(   8) = (  0.6666670  0.3333330  0.9619170  )
         9           O   tau(   9) = (  0.1726050  0.8273950  0.3299850  )
        10           O   tau(  10) = (  0.8273950  0.1726050  0.6700150  )
        11           O   tau(  11) = (  0.1726050  0.3452100  0.3299850  )
        12           O   tau(  12) = (  0.8273950  0.6547900  0.6700150  )
        13           O   tau(  13) = (  0.6547900  0.8273950  0.3299850  )
        14           O   tau(  14) = (  0.3452100  0.1726050  0.6700150  )

     number of k points=     7
                       cart. coord. in units 2pi/alat
        k(    1) = (   0.0000000   0.0000000   0.0000000), wk =   0.0740741
        k(    2) = (   0.0000000   0.0000000   0.2548483), wk =   0.1481481
        k(    3) = (   0.0000000   0.3849002   0.0000000), wk =   0.4444444
        k(    4) = (   0.0000000   0.3849002   0.2548483), wk =   0.4444444
        k(    5) = (   0.3333333   0.5773502   0.0000000), wk =   0.1481481
        k(    6) = (   0.3333333   0.5773502   0.2548483), wk =   0.2962963
        k(    7) = (   0.0000000   0.3849002  -0.2548483), wk =   0.4444444

                       cryst. coord.
        k(    1) = (   0.0000000   0.0000000   0.0000000), wk =   0.0740741
        k(    2) = (   0.0000000   0.0000000   0.3333333), wk =   0.1481481
        k(    3) = (   0.0000000   0.3333333   0.0000000), wk =   0.4444444
        k(    4) = (   0.0000000   0.3333333   0.3333333), wk =   0.4444444
        k(    5) = (   0.3333333   0.3333333   0.0000000), wk =   0.1481481
        k(    6) = (   0.3333333   0.3333333   0.3333333), wk =   0.2962963
        k(    7) = (   0.0000000   0.3333333  -0.3333333), wk =   0.4444444

     Check: negative core charge=   -0.000012

     Initial potential from superposition of free atoms

     starting charge     123.9307, renormalised to     124.0000

     negative rho (up, down):  2.653E-03 0.000E+00
     Starting wfcs are  105 randomized atomic wfcs
     Checking if some PAW data can be deallocated...

     Self-consistent Calculation

     iteration #  1     ecut=    30.00 Ry     beta= 0.70
     Davidson diagonalization with overlap

     ethr =  1.00E-02,  avg # of iterations =  2.0

     negative rho (up, down):  4.745E-03 0.000E+00

     total energy              =   -1842.09648425 Ry
     estimated scf accuracy    <       5.65024430 Ry

[...]

     total energy              =   -1845.60508904 Ry
     estimated scf accuracy    <       0.00000266 Ry

     iteration #121     ecut=    30.00 Ry     beta= 0.70
     Davidson diagonalization with overlap

     ethr =  2.14E-09,  avg # of iterations =  1.0

     negative rho (up, down):  4.019E-03 0.000E+00

     End of self-consistent calculation

          k = 0.0000 0.0000 0.0000 (  4513 PWs)   bands (ev):

   -58.8660 -58.8658 -43.6105 -32.7894 -32.7890 -32.7890 -32.7880 -32.7880
   -32.7879 -23.1359 -23.1327 -19.7029 -16.9349 -16.9348 -16.9261 -11.7856
   -11.3213 -11.3211 -11.2942 -10.9492 -10.9491 -10.9021 -10.7635  -6.6985
    -6.6985  -6.6772  -6.6771  -6.6341  -6.6182  -3.8146  -3.8146  -3.8064
     1.2926   1.5787   1.5788   1.9083   1.9083   2.0377   2.2030   2.2031
     2.2217   2.3777   2.3777   2.5847   2.9029   2.9029   3.0549   3.2876
     3.2876   3.3155   4.1420   4.4427   4.4428   4.4452   4.4453   4.4895
     5.2309   5.2310   5.2629   5.3044   5.3044   5.3547   5.3624   7.9285

     occupation numbers
     1.0000   1.0000   1.0000   1.0000   1.0000   1.0000   1.0000   1.0000
     1.0000   1.0000   1.0000   1.0000   1.0000   1.0000   1.0000   1.0000
     1.0000   1.0000   1.0000   1.0000   1.0000   1.0000   1.0000   1.0000
     1.0000   1.0000   1.0000   1.0000   1.0000   1.0000   1.0000   1.0000
     1.0000   1.0000   1.0000   1.0000   1.0000   1.0000   1.0000   1.0000
     1.0000   1.0000   1.0000   1.0000   1.0000   1.0000   1.0000   1.0000
     1.0000   1.0000   1.0000   1.0000   1.0000   1.0000   1.0000   1.0000
     1.0000   1.0000   1.0000   1.0000   1.0000   1.0000   0.0000   0.0000

[...]

          k = 0.0000 0.3849-0.2548 (  4529 PWs)   bands (ev):

   -58.8660 -58.8659 -43.6105 -32.7894 -32.7894 -32.7892 -32.7890 -32.7883
   -32.7878 -23.1348 -23.1330 -19.7029 -16.9395 -16.9354 -16.9216 -11.6886
   -11.5354 -11.3214 -11.1924 -11.0094 -10.9574 -10.8532 -10.7849  -6.6732
    -6.6648  -6.6343  -6.6297  -6.6185  -6.6095  -3.8202  -3.8131  -3.8052
     1.2568   1.5166   1.5574   1.8782   1.9452   2.0274   2.0442   2.2046
     2.2418   2.3827   2.4202   2.5488   2.8202   3.1042   3.2402   3.2591
     3.2951   3.5341   3.7100   4.0365   4.0511   4.3243   4.4015   4.4747
     5.2638   5.2772   5.2910   5.2967   5.3535   5.3782   5.3804   8.1649

     occupation numbers
     1.0000   1.0000   1.0000   1.0000   1.0000   1.0000   1.0000   1.0000
     1.0000   1.0000   1.0000   1.0000   1.0000   1.0000   1.0000   1.0000
     1.0000   1.0000   1.0000   1.0000   1.0000   1.0000   1.0000   1.0000
     1.0000   1.0000   1.0000   1.0000   1.0000   1.0000   1.0000   1.0000
     1.0000   1.0000   1.0000   1.0000   1.0000   1.0000   1.0000   1.0000
     1.0000   1.0000   1.0000   1.0000   1.0000   1.0000   1.0000   1.0000
     1.0000   1.0000   1.0000   1.0000   1.0000   1.0000   1.0000   1.0000
     1.0000   1.0000   1.0000   1.0000   1.0000   1.0000   0.0000   0.0000

     highest occupied, lowest unoccupied level (ev):     5.3869    5.3606

!    total energy              =   -1845.60508566 Ry
     estimated scf accuracy    <       0.00000055 Ry

     The total energy is the sum of the following terms:
     one-electron contribution =    -831.18542313 Ry
     hartree contribution      =     444.64102844 Ry
     xc contribution           =    -163.98527450 Ry
     ewald contribution        =    -620.05479198 Ry
     one-center paw contrib.   =    -675.02062449 Ry
      -> PAW hartree energy AE =      75.55224351 Ry
      -> PAW hartree energy PS =     -75.13156578 Ry
      -> PAW xc energy AE      =    -132.45595099 Ry
      -> PAW xc energy PS      =      21.20051452 Ry
      -> total E_H with PAW    =     445.06170617 Ry
      -> total E_XC with PAW   =    -275.24071097 Ry

     convergence has been achieved in 121 iterations

     Writing all to output data dir calculations_bands/myprefix.save/

     General routines

     Parallel routines

     PAW routines

   This run was terminated on:  22:36: 8  22Jun2023

   JOB DONE.