     Program PWSCF v.7.0 starts on  7Jun2023 at 10: 9:33

     K-points division:     npool     =       2
     R & G space division:  proc/nbgrp/npool/nimage =       4

     Reading input from espresso_8408.pwi
Warning: card &CELL ignored
Warning: card / ignored

     Current dimensions of program PWSCF are:
     Max number of different atomic species (ntypx) = 10
     Max number of k-points (npk) =  40000
     Max angular momentum in pseudopotentials (lmaxx) =  4
     file K.pbe-spn-kjpaw_psl.1.0.0.UPF: wavefunction(s)  3S renormalized

     Using Slab Decomposition

     bravais-lattice index     =            0
     lattice parameter (alat)  =      17.3971  a.u.
     unit-cell volume          =    1866.9165 (a.u.)^3
     number of atoms/cell      =            7
     number of atomic types    =            3
     number of electrons       =        86.00
     number of Kohn-Sham states=           64
     kinetic-energy cutoff     =      30.0000  Ry
     charge density cutoff     =     240.0000  Ry
     scf convergence threshold =      1.0E-06
     mixing beta               =       0.7000
     number of iterations used =            8  plain     mixing
     Exchange-correlation=  SLA  PW   PBX  PBC
                           (   1   4   3   4   0   0   0)

     celldm(1)=  17.397063  celldm(2)=   0.000000  celldm(3)=   0.000000
     celldm(4)=   0.000000  celldm(5)=   0.000000  celldm(6)=   0.000000

     crystal axes: (cart. coord. in units of alat)
               a(1) = (   1.000000   0.000000   0.000000 )
               a(2) = (   0.884890   0.465799   0.000000 )
               a(3) = (   0.074321   0.018366   0.761199 )

     reciprocal axes: (cart. coord. in units 2 pi/alat)
               b(1) = (  1.000000 -1.899725 -0.051800 )
               b(2) = (  0.000000  2.146847 -0.051800 )
               b(3) = (  0.000000  0.000000  1.313717 )

     PseudoPot. # 1 for K  read from file:
     /home/pragov/projects/rrg-bengioy-ad/pragov/crystal_structure_design/SSSP/K.pbe-spn-kjpaw_psl.1.0.0.UPF
     MD5 check sum: 7d58810084cac21f60fbe77ea2b688fd
     Pseudo is Projector augmented-wave + core cor, Zval =  9.0
     Generated using "atomic" code by A. Dal Corso  v.5.1
     Shape of augmentation charge: PSQ
     Using radial grid of 1165 points,  6 beta functions with:
                l(1) =   0
                l(2) =   0
                l(3) =   1
                l(4) =   1
                l(5) =   2
                l(6) =   2
     Q(r) pseudized with 0 coefficients

     PseudoPot. # 2 for Sn read from file:
     /home/pragov/projects/rrg-bengioy-ad/pragov/crystal_structure_design/SSSP/Sn_pbe_v1.uspp.F.UPF
     MD5 check sum: 4cf58ce39ec5d5d420df3dd08604eb00
     Pseudo is Ultrasoft + core correction, Zval = 14.0
     Generated by new atomic code, or converted to UPF format
     Using radial grid of  891 points,  6 beta functions with:
                l(1) =   0
                l(2) =   0
                l(3) =   1
                l(4) =   1
                l(5) =   2
                l(6) =   2
     Q(r) pseudized with  6 coefficients,  rinner =    1.200   1.200   1.200
                                                       1.200   1.200

     PseudoPot. # 3 for Sb read from file:
     /home/pragov/projects/rrg-bengioy-ad/pragov/crystal_structure_design/SSSP/sb_pbe_v1.4.uspp.F.UPF
     MD5 check sum: 9bc50dfb53373b713f5709b9110fe27f
     Pseudo is Ultrasoft + core correction, Zval = 15.0
     Generated by new atomic code, or converted to UPF format
     Using radial grid of  891 points,  6 beta functions with:
                l(1) =   0
                l(2) =   0
                l(3) =   1
                l(4) =   1
                l(5) =   2
                l(6) =   2
     Q(r) pseudized with  8 coefficients,  rinner =    1.350   1.350   1.350
                                                       1.350   1.350

     atomic species   valence    mass     pseudopotential
        K              9.00    39.09830     K ( 1.00)
        Sn            14.00   118.71000     Sn( 1.00)
        Sb            15.00   121.76000     Sb( 1.00)

     No symmetry found

                                    s                        frac. trans.

      isym =  1     identity

 cryst.   s( 1) = (     1          0          0      )
                  (     0          1          0      )
                  (     0          0          1      )

 cart.    s( 1) = (  1.0000000 -0.0000000 -0.0000000 )
                  (  0.0000000  1.0000000  0.0000000 )
                  (  0.0000000  0.0000000  1.0000000 )

   Cartesian axes

     site n.     atom                  positions (alat units)
         1           K   tau(   1) = (   0.0790433   0.0195334   0.7604729  )
         2           K   tau(   2) = (   1.3862700   0.3425789   0.5705157  )
         3           K   tau(   3) = (   0.5651726   0.1396670   0.1918884  )
         4           Sn  tau(   4) = (   0.1967131   0.0486123   0.3866465  )
         5           Sb  tau(   5) = (   0.7575057   0.1871969   0.5686751  )
         6           Sb  tau(   6) = (   1.1975450   0.2959406   0.1889266  )
         7           Sb  tau(   7) = (   1.7697033   0.4373340   0.3776712  )

   Crystallographic axes

     site n.     atom                  positions (cryst. coord.)
         1           K   tau(   1) = (  0.0025430  0.0025430  0.9990460  )
         2           K   tau(   2) = (  0.7059120  0.7059120  0.7494960  )
         3           K   tau(   3) = (  0.2899040  0.2899040  0.2520870  )
         4           Sn  tau(   4) = (  0.0843350  0.0843350  0.5079440  )
         5           Sb  tau(   5) = (  0.3724260  0.3724260  0.7470780  )
         6           Sb  tau(   6) = (  0.6255530  0.6255530  0.2481960  )
         7           Sb  tau(   7) = (  0.9193260  0.9193260  0.4961530  )

     number of k points=    14
                       cart. coord. in units 2pi/alat
        k(    1) = (   0.0000000   0.0000000   0.0000000), wk =   0.0740741
        k(    2) = (   0.0000000   0.0000000   0.4379056), wk =   0.1481481
        k(    3) = (   0.0000000   0.7156158  -0.0172666), wk =   0.1481481
        k(    4) = (   0.0000000   0.7156158   0.4206390), wk =   0.1481481
        k(    5) = (   0.0000000   0.7156158  -0.4551722), wk =   0.1481481
        k(    6) = (   0.3333333  -0.6332415  -0.0172666), wk =   0.1481481
        k(    7) = (   0.3333333  -0.6332415   0.4206390), wk =   0.1481481
        k(    8) = (   0.3333333  -0.6332415  -0.4551722), wk =   0.1481481
        k(    9) = (   0.3333333   0.0823743  -0.0345331), wk =   0.1481481
        k(   10) = (   0.3333333   0.0823743   0.4033725), wk =   0.1481481
        k(   11) = (   0.3333333   0.0823743  -0.4724387), wk =   0.1481481
        k(   12) = (   0.3333333  -1.3488573   0.0000000), wk =   0.1481481
        k(   13) = (   0.3333333  -1.3488573   0.4379056), wk =   0.1481481
        k(   14) = (   0.3333333  -1.3488573  -0.4379056), wk =   0.1481481

                       cryst. coord.
        k(    1) = (   0.0000000   0.0000000   0.0000000), wk =   0.0740741
        k(    2) = (   0.0000000   0.0000000   0.3333333), wk =   0.1481481
        k(    3) = (   0.0000000   0.3333333  -0.0000000), wk =   0.1481481
        k(    4) = (   0.0000000   0.3333333   0.3333333), wk =   0.1481481
        k(    5) = (   0.0000000   0.3333333  -0.3333333), wk =   0.1481481
        k(    6) = (   0.3333333   0.0000000  -0.0000000), wk =   0.1481481
        k(    7) = (   0.3333333   0.0000000   0.3333333), wk =   0.1481481
        k(    8) = (   0.3333333   0.0000000  -0.3333333), wk =   0.1481481
        k(    9) = (   0.3333333   0.3333333  -0.0000000), wk =   0.1481481
        k(   10) = (   0.3333333   0.3333333   0.3333333), wk =   0.1481481
        k(   11) = (   0.3333333   0.3333333  -0.3333333), wk =   0.1481481
        k(   12) = (   0.3333333  -0.3333333  -0.0000000), wk =   0.1481481
        k(   13) = (   0.3333333  -0.3333333   0.3333333), wk =   0.1481481
        k(   14) = (   0.3333333  -0.3333333  -0.3333333), wk =   0.1481481

     Check: negative core charge=   -0.000005

     Initial potential from superposition of free atoms

     starting charge      81.9434, renormalised to      86.0000
     Starting wfcs are   60 randomized atomic wfcs +    4 random wfcs
     Checking if some PAW data can be deallocated...

     Self-consistent Calculation

     iteration #  1     ecut=    30.00 Ry     beta= 0.70
     Davidson diagonalization with overlap

     ethr =  1.00E-02,  avg # of iterations =  7.1

     total energy              =   -1056.28087819 Ry
     estimated scf accuracy    <       2.66589549 Ry

[...]

     total energy              =   -1057.21515687 Ry
     estimated scf accuracy    <       0.00000345 Ry

     iteration # 10     ecut=    30.00 Ry     beta= 0.70
     Davidson diagonalization with overlap

     ethr =  4.01E-09,  avg # of iterations =  2.0

     End of self-consistent calculation

          k = 0.0000 0.0000 0.0000 (  5205 PWs)   bands (ev):

   -25.5710 -25.4543 -25.2890 -23.5434 -23.5160 -23.4364 -23.4292 -23.4007
   -23.1332 -23.1086 -23.0126 -22.9797 -22.9490 -22.5709 -22.5644 -22.5072
   -22.4992 -22.4836 -15.5328 -15.5140 -15.4946 -15.4680 -15.4578  -9.1109
    -9.0714  -9.0428  -8.9733  -8.9543  -8.9304  -8.8272  -8.7838  -8.7526
    -5.1409  -3.7554  -1.7180   0.0460   2.6106   3.4613   3.5670   4.1427
     4.5543   4.6644   5.2681   6.1221   7.1126   7.4247   7.7803   8.1485
     8.7613   9.0350   9.5428   9.8499  10.0687  10.1371  10.6527  10.7794
    11.0852  11.3639  11.4056  11.4702  11.9099  11.9765  12.0281  12.2055

     occupation numbers
     1.0000   1.0000   1.0000   1.0000   1.0000   1.0000   1.0000   1.0000
     1.0000   1.0000   1.0000   1.0000   1.0000   1.0000   1.0000   1.0000
     1.0000   1.0000   1.0000   1.0000   1.0000   1.0000   1.0000   1.0000
     1.0000   1.0000   1.0000   1.0000   1.0000   1.0000   1.0000   1.0000
     1.0000   1.0000   1.0000   1.0000   1.0000   1.0000   1.0000   1.0000
     1.0000   1.0000   1.0000   0.0000   0.0000   0.0000   0.0000   0.0000
     0.0000   0.0000   0.0000   0.0000   0.0000   0.0000   0.0000   0.0000
     0.0000   0.0000   0.0000   0.0000   0.0000   0.0000   0.0000   0.0000

[...]

          k = 0.3333-1.3489-0.4379 (  5173 PWs)   bands (ev):

   -25.5686 -25.4520 -25.2867 -23.5288 -23.5088 -23.4338 -23.4287 -23.4050
   -23.1307 -23.1196 -23.0111 -22.9782 -22.9465 -22.5701 -22.5578 -22.5056
   -22.4975 -22.4844 -15.5278 -15.5184 -15.4944 -15.4727 -15.4537  -9.1053
    -9.0991  -9.0594  -8.9823  -8.9588  -8.9546  -8.8253  -8.8050  -8.7763
    -4.3773  -3.1156  -2.5098  -0.6687   2.0960   2.8333   3.2055   3.7040
     4.3710   4.4388   5.0054   6.6224   7.0735   7.1959   7.8758   8.4160
     9.0019   9.2921   9.7017   9.8390  10.1586  10.3688  10.6177  10.7575
    10.9193  11.3425  11.6562  11.7968  12.0075  12.0985  12.3262  12.4132

     occupation numbers
     1.0000   1.0000   1.0000   1.0000   1.0000   1.0000   1.0000   1.0000
     1.0000   1.0000   1.0000   1.0000   1.0000   1.0000   1.0000   1.0000
     1.0000   1.0000   1.0000   1.0000   1.0000   1.0000   1.0000   1.0000
     1.0000   1.0000   1.0000   1.0000   1.0000   1.0000   1.0000   1.0000
     1.0000   1.0000   1.0000   1.0000   1.0000   1.0000   1.0000   1.0000
     1.0000   1.0000   1.0000   0.0000   0.0000   0.0000   0.0000   0.0000
     0.0000   0.0000   0.0000   0.0000   0.0000   0.0000   0.0000   0.0000
     0.0000   0.0000   0.0000   0.0000   0.0000   0.0000   0.0000   0.0000

     highest occupied, lowest unoccupied level (ev):     5.6745    5.8748

!    total energy              =   -1057.21515767 Ry
     estimated scf accuracy    <       0.00000057 Ry

     The total energy is the sum of the following terms:
     one-electron contribution =    -520.55662299 Ry
     hartree contribution      =     294.95855753 Ry
     xc contribution           =    -213.38221177 Ry
     ewald contribution        =    -451.98336557 Ry
     one-center paw contrib.   =    -166.25151487 Ry
      -> PAW hartree energy AE =      37.69514574 Ry
      -> PAW hartree energy PS =     -37.48500239 Ry
      -> PAW xc energy AE      =     -66.21634008 Ry
      -> PAW xc energy PS      =      10.58911788 Ry
      -> total E_H with PAW    =     295.16870088 Ry
      -> total E_XC with PAW   =    -269.00943398 Ry

     convergence has been achieved in  10 iterations

     Writing all to output data dir calculations_bands/myprefix.save/

     General routines

     Parallel routines

     PAW routines

   This run was terminated on:  10: 9:54   7Jun2023

   JOB DONE.