     Program PWSCF v.7.0 starts on  7Jun2023 at  7:22:33

     K-points division:     npool     =       2
     R & G space division:  proc/nbgrp/npool/nimage =       4

     Reading input from espresso_4204.pwi
Warning: card &CELL ignored
Warning: card / ignored

     Current dimensions of program PWSCF are:
     Max number of different atomic species (ntypx) = 10
     Max number of k-points (npk) =  40000
     Max angular momentum in pseudopotentials (lmaxx) =  4
     file Fe.pbe-spn-kjpaw_psl.0.2.1.UPF: wavefunction(s)  3D renormalized
     Message from routine setup:
     using ibrav=0 with symmetry is DISCOURAGED, use correct ibrav instead

     Using Slab Decomposition

     bravais-lattice index     =            0
     lattice parameter (alat)  =      13.3239  a.u.
     unit-cell volume          =    1105.4556 (a.u.)^3
     number of atoms/cell      =            7
     number of atomic types    =            3
     number of electrons       =        68.00
     number of Kohn-Sham states=           64
     kinetic-energy cutoff     =      30.0000  Ry
     charge density cutoff     =     240.0000  Ry
     scf convergence threshold =      1.0E-06
     mixing beta               =       0.7000
     number of iterations used =            8  plain     mixing
     Exchange-correlation= SLA  PW   PBE  PBE
                           (   1   4   3   4   0   0   0)

     celldm(1)=  13.323865  celldm(2)=   0.000000  celldm(3)=   0.000000
     celldm(4)=   0.000000  celldm(5)=   0.000000  celldm(6)=   0.000000

     crystal axes: (cart. coord. in units of alat)
               a(1) = (   1.000000   0.000000   0.000000 )
               a(2) = (   0.833331   0.552774   0.000000 )
               a(3) = (   0.483584   0.145807   0.845480 )

     reciprocal axes: (cart. coord. in units 2 pi/alat)
               b(1) = (  1.000000 -1.507546 -0.311980 )
               b(2) = (  0.000000  1.809059 -0.311980 )
               b(3) = (  0.000000  0.000000  1.182760 )

     PseudoPot. # 1 for Cr read from file:
     /home/pragov/projects/rrg-bengioy-ad/pragov/crystal_structure_design/SSSP/cr_pbe_v1.5.uspp.F.UPF
     MD5 check sum: 0d52af634a40206e4dee301ad30da4bf
     Pseudo is Ultrasoft + core correction, Zval = 14.0
     Generated by new atomic code, or converted to UPF format
     Using radial grid of  857 points,  6 beta functions with:
                l(1) =   0
                l(2) =   0
                l(3) =   1
                l(4) =   1
                l(5) =   2
                l(6) =   2
     Q(r) pseudized with  8 coefficients,  rinner =    0.950   0.950   0.950
                                                       0.950   0.950

     PseudoPot. # 2 for Fe read from file:
     /home/pragov/projects/rrg-bengioy-ad/pragov/crystal_structure_design/SSSP/Fe.pbe-spn-kjpaw_psl.0.2.1.UPF
     MD5 check sum: e86618425769142926afa95317d90200
     Pseudo is Projector augmented-wave + core cor, Zval = 16.0
     Generated using "atomic" code by A. Dal Corso  v.5.0.99 svn rev. 10869
     Shape of augmentation charge: PSQ
     Using radial grid of 1191 points,  6 beta functions with:
                l(1) =   0
                l(2) =   0
                l(3) =   1
                l(4) =   1
                l(5) =   2
                l(6) =   2
     Q(r) pseudized with 0 coefficients

     PseudoPot. # 3 for Te read from file:
     /home/pragov/projects/rrg-bengioy-ad/pragov/crystal_structure_design/SSSP/Te_pbe_v1.uspp.F.UPF
     MD5 check sum: c319670d6894cc26e93307826a071b75
     Pseudo is Ultrasoft + core correction, Zval =  6.0
     Generated by new atomic code, or converted to UPF format
     Using radial grid of  891 points,  5 beta functions with:
                l(1) =   0
                l(2) =   0
                l(3) =   1
                l(4) =   1
                l(5) =   2
     Q(r) pseudized with  6 coefficients,  rinner =    1.800   1.800   1.800
                                                       1.800   1.800

     atomic species   valence    mass     pseudopotential
        Cr            14.00    51.99610     Cr( 1.00)
        Fe            16.00    55.84500     Fe( 1.00)
        Te             6.00   127.60000     Te( 1.00)

      2 Sym. Ops., with inversion, found

                                    s                        frac. trans.

      isym =  1     identity

 cryst.   s( 1) = (     1          0          0      )
                  (     0          1          0      )
                  (     0          0          1      )

 cart.    s( 1) = (  1.0000000  0.0000000 -0.0000000 )
                  (  0.0000000  1.0000000 -0.0000000 )
                  (  0.0000000  0.0000000  1.0000000 )

      isym =  2     inversion

 cryst.   s( 2) = (    -1          0          0      )
                  (     0         -1          0      )
                  (     0          0         -1      )

 cart.    s( 2) = ( -1.0000000 -0.0000000  0.0000000 )
                  (  0.0000000 -1.0000000  0.0000000 )
                  (  0.0000000  0.0000000 -1.0000000 )

   Cartesian axes

     site n.     atom                  positions (alat units)
         1           Cr  tau(   1) = (   1.4996685   0.4521698   0.2238341  )
         2           Cr  tau(   2) = (   0.8172467   0.2464107   0.6216460  )
         3           Fe  tau(   3) = (   0.0000000   0.0000000   0.0000000  )
         4           Te  tau(   4) = (   1.8332916   0.5527616   0.3865924  )
         5           Te  tau(   5) = (   0.4836236   0.1458189   0.4588877  )
         6           Te  tau(   6) = (   1.1665048   0.3517166   0.0321815  )
         7           Te  tau(   7) = (   1.1504104   0.3468639   0.8132986  )

   Crystallographic axes

     site n.     atom                  positions (cryst. coord.)
         1           Cr  tau(   1) = (  0.7481700  0.7481700  0.2647420  )
         2           Cr  tau(   2) = (  0.2518300  0.2518300  0.7352580  )
         3           Fe  tau(   3) = (  0.0000000  0.0000000  0.0000000  )
         4           Te  tau(   4) = (  0.8793690  0.8793690  0.4572460  )
         5           Te  tau(   5) = (  0.1206310  0.1206310  0.5427540  )
         6           Te  tau(   6) = (  0.6262360  0.6262360  0.0380630  )
         7           Te  tau(   7) = (  0.3737640  0.3737640  0.9619370  )

     number of k points=    14
                       cart. coord. in units 2pi/alat
        k(    1) = (   0.0000000   0.0000000   0.0000000), wk =   0.0740741
        k(    2) = (   0.0000000   0.0000000   0.3942533), wk =   0.1481481
        k(    3) = (   0.0000000   0.6030196  -0.1039935), wk =   0.1481481
        k(    4) = (   0.0000000   0.6030196   0.2902599), wk =   0.1481481
        k(    5) = (   0.0000000   0.6030196  -0.4982468), wk =   0.1481481
        k(    6) = (   0.3333333  -0.5025152  -0.1039935), wk =   0.1481481
        k(    7) = (   0.3333333  -0.5025152   0.2902599), wk =   0.1481481
        k(    8) = (   0.3333333  -0.5025152  -0.4982468), wk =   0.1481481
        k(    9) = (   0.3333333   0.1005044  -0.2079870), wk =   0.1481481
        k(   10) = (   0.3333333   0.1005044   0.1862664), wk =   0.1481481
        k(   11) = (   0.3333333   0.1005044  -0.6022403), wk =   0.1481481
        k(   12) = (   0.3333333  -1.1055348  -0.0000000), wk =   0.1481481
        k(   13) = (   0.3333333  -1.1055348   0.3942533), wk =   0.1481481
        k(   14) = (   0.3333333  -1.1055348  -0.3942533), wk =   0.1481481

                       cryst. coord.
        k(    1) = (   0.0000000   0.0000000   0.0000000), wk =   0.0740741
        k(    2) = (   0.0000000   0.0000000   0.3333333), wk =   0.1481481
        k(    3) = (   0.0000000   0.3333333  -0.0000000), wk =   0.1481481
        k(    4) = (   0.0000000   0.3333333   0.3333333), wk =   0.1481481
        k(    5) = (   0.0000000   0.3333333  -0.3333333), wk =   0.1481481
        k(    6) = (   0.3333333  -0.0000000   0.0000000), wk =   0.1481481
        k(    7) = (   0.3333333  -0.0000000   0.3333333), wk =   0.1481481
        k(    8) = (   0.3333333  -0.0000000  -0.3333333), wk =   0.1481481
        k(    9) = (   0.3333333   0.3333333   0.0000000), wk =   0.1481481
        k(   10) = (   0.3333333   0.3333333   0.3333333), wk =   0.1481481
        k(   11) = (   0.3333333   0.3333333  -0.3333333), wk =   0.1481481
        k(   12) = (   0.3333333  -0.3333333   0.0000000), wk =   0.1481481
        k(   13) = (   0.3333333  -0.3333333   0.3333333), wk =   0.1481481
        k(   14) = (   0.3333333  -0.3333333  -0.3333333), wk =   0.1481481

     Check: negative core charge=   -0.000034

     Initial potential from superposition of free atoms

     starting charge      65.9987, renormalised to      68.0000

     negative rho (up, down):  1.870E-03 0.000E+00
     Starting wfcs are   49 randomized atomic wfcs +   15 random wfcs
     Checking if some PAW data can be deallocated...

     Self-consistent Calculation

     iteration #  1     ecut=    30.00 Ry     beta= 0.70
     Davidson diagonalization with overlap

     ethr =  1.00E-02,  avg # of iterations =  6.5

     negative rho (up, down):  9.493E-04 0.000E+00

     total energy              =    -753.74072815 Ry
     estimated scf accuracy    <      39.56213171 Ry

[...]

     total energy              =    -785.81241212 Ry
     estimated scf accuracy    <       0.00000251 Ry

     iteration # 34     ecut=    30.00 Ry     beta= 0.70
     Davidson diagonalization with overlap

     ethr =  2.47E-09,  avg # of iterations =  1.0

     negative rho (up, down):  1.572E-03 0.000E+00

     End of self-consistent calculation

          k = 0.0000 0.0000 0.0000 (  3067 PWs)   bands (ev):

   -77.4511 -62.3869 -62.3866 -43.1779 -43.0557 -43.0176 -33.7668 -33.7663
   -33.7655 -33.7625 -33.6700 -33.6684  -3.7054  -1.9261  -1.8686  -1.4869
     3.3964   3.7339   4.1119   6.0232   6.1264   6.4237   6.9112   6.9352
     7.2890   7.9290   8.1683   8.3033   8.6980   8.7406   8.9020   8.9497
     8.9639   9.2402   9.4561   9.4730   9.6558  10.0393  10.2384  10.6167
    11.3041  11.5756  11.6101  12.6737  13.0235  13.3440  14.1408  15.0181
    15.3594  15.5292  16.0965  18.1879  18.6538  18.6743  18.8267  18.9576
    19.0064  19.0895  19.1897  19.4638  19.6284  20.1968  20.8019  21.0307

     occupation numbers
     1.0000   1.0000   1.0000   1.0000   1.0000   1.0000   1.0000   1.0000
     1.0000   1.0000   1.0000   1.0000   1.0000   1.0000   1.0000   1.0000
     1.0000   1.0000   1.0000   1.0000   1.0000   1.0000   1.0000   1.0000
     1.0000   1.0000   1.0000   1.0000   1.0000   1.0000   1.0000   1.0000
     1.0000   1.0000   0.0000   0.0000   0.0000   0.0000   0.0000   0.0000
     0.0000   0.0000   0.0000   0.0000   0.0000   0.0000   0.0000   0.0000
     0.0000   0.0000   0.0000   0.0000   0.0000   0.0000   0.0000   0.0000
     0.0000   0.0000   0.0000   0.0000   0.0000   0.0000   0.0000   0.0000

[...]

          k = 0.3333-1.1055-0.3943 (  3063 PWs)   bands (ev):

   -77.4501 -62.3866 -62.3865 -43.1707 -43.0522 -43.0191 -33.7696 -33.7690
   -33.7631 -33.7617 -33.6688 -33.6684  -2.5038  -2.2503  -1.8730  -1.6662
     3.8320   4.4280   4.7366   5.0171   5.7002   6.1167   6.4845   6.7157
     6.7994   6.8202   7.1992   7.2749   8.1253   8.4268   8.5169   8.8069
     8.9871   9.2722   9.3010   9.3646   9.4975   9.7220   9.9388  10.7171
    11.0979  11.1611  11.4409  13.0793  13.7783  14.1371  14.7715  15.4880
    15.5695  16.7298  16.9261  17.1539  17.5761  18.2394  18.7982  19.3227
    19.7713  19.9912  20.1438  20.3195  20.7078  21.9838  22.4413  22.8727

     occupation numbers
     1.0000   1.0000   1.0000   1.0000   1.0000   1.0000   1.0000   1.0000
     1.0000   1.0000   1.0000   1.0000   1.0000   1.0000   1.0000   1.0000
     1.0000   1.0000   1.0000   1.0000   1.0000   1.0000   1.0000   1.0000
     1.0000   1.0000   1.0000   1.0000   1.0000   1.0000   1.0000   1.0000
     1.0000   1.0000   0.0000   0.0000   0.0000   0.0000   0.0000   0.0000
     0.0000   0.0000   0.0000   0.0000   0.0000   0.0000   0.0000   0.0000
     0.0000   0.0000   0.0000   0.0000   0.0000   0.0000   0.0000   0.0000
     0.0000   0.0000   0.0000   0.0000   0.0000   0.0000   0.0000   0.0000

     highest occupied, lowest unoccupied level (ev):     9.3842    9.2132

!    total energy              =    -785.81241214 Ry
     estimated scf accuracy    <       0.00000008 Ry

     The total energy is the sum of the following terms:
     one-electron contribution =    -470.22824752 Ry
     hartree contribution      =     260.13278203 Ry
     xc contribution           =    -137.19355130 Ry
     ewald contribution        =    -362.45641268 Ry
     one-center paw contrib.   =     -76.06698268 Ry
      -> PAW hartree energy AE =       0.00000000 Ry
      -> PAW hartree energy PS =       0.00000000 Ry
      -> PAW xc energy AE      =       0.00000000 Ry
      -> PAW xc energy PS      =       0.00000000 Ry
      -> total E_H with PAW    =     260.13278203 Ry
      -> total E_XC with PAW   =    -137.19355130 Ry

     convergence has been achieved in  34 iterations

     Writing all to output data dir calculations_bands/myprefix.save/

     General routines

     Parallel routines

     PAW routines

   This run was terminated on:   7:23:19   7Jun2023

   JOB DONE.