     Program PWSCF v.7.0 starts on  6Jun2023 at 22:22:30

     K-points division:     npool     =       2
     R & G space division:  proc/nbgrp/npool/nimage =       4

     Reading input from espresso_621.pwi
Warning: card &CELL ignored
Warning: card / ignored

     Current dimensions of program PWSCF are:
     Max number of different atomic species (ntypx) = 10
     Max number of k-points (npk) =  40000
     Max angular momentum in pseudopotentials (lmaxx) =  4
     file Nb.pbe-spn-kjpaw_psl.0.3.0.UPF: wavefunction(s)  4S 4P renormalized
     file Al.pbe-n-kjpaw_psl.1.0.0.UPF: wavefunction(s)  3S 3P renormalized
     Message from routine setup:
     using ibrav=0 with symmetry is DISCOURAGED, use correct ibrav instead

     Using Slab Decomposition

     bravais-lattice index     =            0
     lattice parameter (alat)  =       9.3948  a.u.
     unit-cell volume          =    1210.9894 (a.u.)^3
     number of atoms/cell      =           12
     number of atomic types    =            3
     number of electrons       =       120.00
     number of Kohn-Sham states=           64
     kinetic-energy cutoff     =      30.0000  Ry
     charge density cutoff     =     240.0000  Ry
     scf convergence threshold =      1.0E-06
     mixing beta               =       0.7000
     number of iterations used =            8  plain     mixing
     Exchange-correlation=  SLA  PW   PBX  PBC
                           (   1   4   3   4   0   0   0)

     celldm(1)=   9.394844  celldm(2)=   0.000000  celldm(3)=   0.000000
     celldm(4)=   0.000000  celldm(5)=   0.000000  celldm(6)=   0.000000

     crystal axes: (cart. coord. in units of alat)
               a(1) = (   1.000000   0.000000   0.000000 )
               a(2) = (   0.495058   0.868954   0.000000 )
               a(3) = (   0.000000   0.000000   1.680640 )

     reciprocal axes: (cart. coord. in units 2 pi/alat)
               b(1) = (  1.000000 -0.569717  0.000000 )
               b(2) = (  0.000000  1.150809  0.000000 )
               b(3) = (  0.000000  0.000000  0.595011 )

     PseudoPot. # 1 for Nb read from file:
     /home/pragov/projects/rrg-bengioy-ad/pragov/crystal_structure_design/SSSP/Nb.pbe-spn-kjpaw_psl.0.3.0.UPF
     MD5 check sum: 411d72ad547312f8017e2943ceca08cc
     Pseudo is Projector augmented-wave + core cor, Zval = 13.0
     Generated using "atomic" code by A. Dal Corso  v.5.0.99 svn rev. 10869
     Shape of augmentation charge: PSQ
     Using radial grid of 1227 points,  6 beta functions with:
                l(1) =   0
                l(2) =   0
                l(3) =   1
                l(4) =   1
                l(5) =   2
                l(6) =   2
     Q(r) pseudized with 0 coefficients

     PseudoPot. # 2 for Al read from file:
     /home/pragov/projects/rrg-bengioy-ad/pragov/crystal_structure_design/SSSP/Al.pbe-n-kjpaw_psl.1.0.0.UPF
     MD5 check sum: cfc449ca30b5f3223ec38ddd88ac046d
     Pseudo is Projector augmented-wave + core cor, Zval =  3.0
     Generated using "atomic" code by A. Dal Corso  v.5.1
     Shape of augmentation charge: PSQ
     Using radial grid of 1135 points,  6 beta functions with:
                l(1) =   0
                l(2) =   0
                l(3) =   1
                l(4) =   1
                l(5) =   2
                l(6) =   2
     Q(r) pseudized with 0 coefficients

     PseudoPot. # 3 for Cr read from file:
     /home/pragov/projects/rrg-bengioy-ad/pragov/crystal_structure_design/SSSP/cr_pbe_v1.5.uspp.F.UPF
     MD5 check sum: 0d52af634a40206e4dee301ad30da4bf
     Pseudo is Ultrasoft + core correction, Zval = 14.0
     Generated by new atomic code, or converted to UPF format
     Using radial grid of  857 points,  6 beta functions with:
                l(1) =   0
                l(2) =   0
                l(3) =   1
                l(4) =   1
                l(5) =   2
                l(6) =   2
     Q(r) pseudized with  8 coefficients,  rinner =    0.950   0.950   0.950
                                                       0.950   0.950

     atomic species   valence    mass     pseudopotential
        Nb            13.00    92.90637     Nb( 1.00)
        Al             3.00    26.98154     Al( 1.00)
        Cr            14.00    51.99610     Cr( 1.00)

      2 Sym. Ops. (no inversion) found ( 1 have fractional translation)

                                    s                        frac. trans.

      isym =  1     identity

 cryst.   s( 1) = (     1          0          0      )
                  (     0          1          0      )
                  (     0          0          1      )

 cart.    s( 1) = (  1.0000000 -0.0000000  0.0000000 )
                  (  0.0000000  1.0000000  0.0000000 )
                  (  0.0000000  0.0000000  1.0000000 )

      isym =  2     inv. 180 deg rotation - cart. axis [0,0,1]

 cryst.   s( 2) = (     1          0          0      )    f =(  0.0000000 )
                  (     0          1          0      )       (  0.0000000 )
                  (     0          0         -1      )       ( -0.5000000 )

 cart.    s( 2) = (  1.0000000 -0.0000000  0.0000000 )    f =(  0.0000000 )
                  (  0.0000000  1.0000000  0.0000000 )       (  0.0000000 )
                  (  0.0000000  0.0000000 -1.0000000 )       ( -0.8403200 )

   Cartesian axes

     site n.     atom                  positions (alat units)
         1           Nb  tau(   1) = (   0.5025418   0.2920781   0.9387753  )
         2           Nb  tau(   2) = (   0.9991963   0.5807612   0.7248096  )
         3           Nb  tau(   3) = (   0.9991963   0.5807612   0.1155104  )
         4           Nb  tau(   4) = (   0.5025418   0.2920781   1.5821848  )
         5           Al  tau(   5) = (   1.4880097   0.8649031   0.8311219  )
         6           Al  tau(   6) = (   1.4880097   0.8649031   0.0091981  )
         7           Al  tau(   7) = (   1.0024320   0.2976672   1.2604800  )
         8           Al  tau(   8) = (   0.7548228   0.7237015   1.2604800  )
         9           Cr  tau(   9) = (   1.2463207   0.7244210   1.2604800  )
        10           Cr  tau(  10) = (   0.4919436   0.5637392   0.4201600  )
        11           Cr  tau(  11) = (   0.7334078   0.1483435   0.4201600  )
        12           Cr  tau(  12) = (   0.2569807   0.1493211   0.4201600  )

   Crystallographic axes

     site n.     atom                  positions (cryst. coord.)
         1           Nb  tau(   1) = (  0.3361400  0.3361260  0.5585820  )
         2           Nb  tau(   2) = (  0.6683270  0.6683450  0.4312700  )
         3           Nb  tau(   3) = (  0.6683270  0.6683450  0.0687300  )
         4           Nb  tau(   4) = (  0.3361400  0.3361260  0.9414180  )
         5           Al  tau(   5) = (  0.9952600  0.9953380  0.4945270  )
         6           Al  tau(   6) = (  0.9952600  0.9953380  0.0054730  )
         7           Al  tau(   7) = (  0.8328460  0.3425580  0.7500000  )
         8           Al  tau(   8) = (  0.3425180  0.8328420  0.7500000  )
         9           Cr  tau(   9) = (  0.8336060  0.8336700  0.7500000  )
        10           Cr  tau(  10) = (  0.1707720  0.6487560  0.2500000  )
        11           Cr  tau(  11) = (  0.6488940  0.1707150  0.2500000  )
        12           Cr  tau(  12) = (  0.1719100  0.1718400  0.2500000  )

     number of k points=    10
                       cart. coord. in units 2pi/alat
        k(    1) = (   0.0000000   0.0000000   0.0000000), wk =   0.0740741
        k(    2) = (   0.0000000   0.0000000   0.1983371), wk =   0.1481481
        k(    3) = (   0.0000000   0.3836029   0.0000000), wk =   0.1481481
        k(    4) = (   0.0000000   0.3836029   0.1983371), wk =   0.2962963
        k(    5) = (   0.3333333  -0.1899056   0.0000000), wk =   0.1481481
        k(    6) = (   0.3333333  -0.1899056   0.1983371), wk =   0.2962963
        k(    7) = (   0.3333333   0.1936973   0.0000000), wk =   0.1481481
        k(    8) = (   0.3333333   0.1936973   0.1983371), wk =   0.2962963
        k(    9) = (   0.3333333  -0.5735085   0.0000000), wk =   0.1481481
        k(   10) = (   0.3333333  -0.5735085   0.1983371), wk =   0.2962963

                       cryst. coord.
        k(    1) = (   0.0000000   0.0000000   0.0000000), wk =   0.0740741
        k(    2) = (   0.0000000   0.0000000   0.3333333), wk =   0.1481481
        k(    3) = (   0.0000000   0.3333333   0.0000000), wk =   0.1481481
        k(    4) = (   0.0000000   0.3333333   0.3333333), wk =   0.2962963
        k(    5) = (   0.3333333   0.0000000   0.0000000), wk =   0.1481481
        k(    6) = (   0.3333333   0.0000000   0.3333333), wk =   0.2962963
        k(    7) = (   0.3333333   0.3333333   0.0000000), wk =   0.1481481
        k(    8) = (   0.3333333   0.3333333   0.3333333), wk =   0.2962963
        k(    9) = (   0.3333333  -0.3333333   0.0000000), wk =   0.1481481
        k(   10) = (   0.3333333  -0.3333333   0.3333333), wk =   0.2962963

     Check: negative core charge=   -0.000015

     Initial potential from superposition of free atoms

     starting charge     115.9823, renormalised to     120.0000

     negative rho (up, down):  6.368E-03 0.000E+00
     Starting wfcs are   96 randomized atomic wfcs
     Checking if some PAW data can be deallocated...

     Self-consistent Calculation

     iteration #  1     ecut=    30.00 Ry     beta= 0.70
     Davidson diagonalization with overlap

     ethr =  1.00E-02,  avg # of iterations =  3.2

     negative rho (up, down):  3.765E-03 0.000E+00

     total energy              =   -2146.76766259 Ry
     estimated scf accuracy    <      61.96696044 Ry

[...]

     total energy              =   -2197.12616983 Ry
     estimated scf accuracy    <       0.00001279 Ry

     iteration # 35     ecut=    30.00 Ry     beta= 0.70
     Davidson diagonalization with overlap

     ethr =  2.93E-09,  avg # of iterations =  5.6

     negative rho (up, down):  6.934E-03 0.000E+00

     End of self-consistent calculation

          k = 0.0000 0.0000 0.0000 (  3373 PWs)   bands (ev):

   -56.6053 -56.4743 -56.4472 -56.3740 -39.8243 -39.8070 -39.7524 -39.7307
   -28.3043 -28.0196 -27.9916 -27.9775 -27.8693 -27.8298 -27.8024 -27.7339
   -27.6201 -27.5912 -27.4811 -27.4793 -16.0023 -15.9800 -15.9726 -15.9670
   -15.9535 -15.9184 -15.7544 -15.7099 -15.7059 -15.6952 -15.6887 -15.6807
     5.6826   8.1547   8.5962  10.6417  11.1393  11.4159  11.6919  11.8627
    11.9211  12.1800  12.2234  12.4443  12.5742  12.7036  13.1256  13.2282
    13.2779  13.2853  13.3699  13.6081  13.7151  13.8121  13.9068  14.2207
    14.3264  14.3541  14.6052  14.8369  15.3103  15.3405  15.8786  15.9015

     occupation numbers
     1.0000   1.0000   1.0000   1.0000   1.0000   1.0000   1.0000   1.0000
     1.0000   1.0000   1.0000   1.0000   1.0000   1.0000   1.0000   1.0000
     1.0000   1.0000   1.0000   1.0000   1.0000   1.0000   1.0000   1.0000
     1.0000   1.0000   1.0000   1.0000   1.0000   1.0000   1.0000   1.0000
     1.0000   1.0000   1.0000   1.0000   1.0000   1.0000   1.0000   1.0000
     1.0000   1.0000   1.0000   1.0000   1.0000   1.0000   1.0000   1.0000
     1.0000   1.0000   1.0000   1.0000   1.0000   1.0000   1.0000   1.0000
     1.0000   1.0000   1.0000   1.0000   0.0000   0.0000   0.0000   0.0000

[...]

          k = 0.3333-0.5735 0.1983 (  3357 PWs)   bands (ev):

   -56.5745 -56.4968 -56.4560 -56.3739 -39.7985 -39.7849 -39.7786 -39.7527
   -28.0974 -27.9686 -27.9561 -27.9092 -27.8803 -27.8419 -27.8030 -27.7336
   -27.6794 -27.6601 -27.6199 -27.5638 -16.0390 -16.0209 -16.0065 -15.9679
   -15.9072 -15.8889 -15.8026 -15.7567 -15.6909 -15.6600 -15.6547 -15.6430
     7.2108   8.5385   8.7301  10.0308  10.6362  10.9582  11.1867  11.6207
    11.7159  11.9143  12.4693  12.7661  12.9538  13.0671  13.1540  13.2356
    13.4775  13.5987  13.6259  13.7266  13.7967  13.8808  13.9693  14.1236
    14.2242  14.4704  14.6156  14.6728  14.9425  15.1827  15.3514  15.4931

     occupation numbers
     1.0000   1.0000   1.0000   1.0000   1.0000   1.0000   1.0000   1.0000
     1.0000   1.0000   1.0000   1.0000   1.0000   1.0000   1.0000   1.0000
     1.0000   1.0000   1.0000   1.0000   1.0000   1.0000   1.0000   1.0000
     1.0000   1.0000   1.0000   1.0000   1.0000   1.0000   1.0000   1.0000
     1.0000   1.0000   1.0000   1.0000   1.0000   1.0000   1.0000   1.0000
     1.0000   1.0000   1.0000   1.0000   1.0000   1.0000   1.0000   1.0000
     1.0000   1.0000   1.0000   1.0000   1.0000   1.0000   1.0000   1.0000
     1.0000   1.0000   1.0000   1.0000   0.0000   0.0000   0.0000   0.0000

     highest occupied, lowest unoccupied level (ev):    14.8771   14.9425

!    total energy              =   -2197.12617070 Ry
     estimated scf accuracy    <       0.00000015 Ry

     The total energy is the sum of the following terms:
     one-electron contribution =    -571.50857839 Ry
     hartree contribution      =     345.60460263 Ry
     xc contribution           =    -215.79410108 Ry
     ewald contribution        =    -782.65388687 Ry
     one-center paw contrib.   =    -972.77420700 Ry
      -> PAW hartree energy AE =     135.77373696 Ry
      -> PAW hartree energy PS =    -135.03745841 Ry
      -> PAW xc energy AE      =    -471.58877331 Ry
      -> PAW xc energy PS      =      53.88548473 Ry
      -> total E_H with PAW    =     346.34088118 Ry
      -> total E_XC with PAW   =    -633.49738966 Ry

     convergence has been achieved in  35 iterations

     Writing all to output data dir calculations_bands/myprefix.save/

     General routines

     Parallel routines

     PAW routines

   This run was terminated on:  22:23:11   6Jun2023

   JOB DONE.