     Program PWSCF v.7.0 starts on  4Jun2023 at 23:46:43

     K-points division:     npool     =       2
     R & G space division:  proc/nbgrp/npool/nimage =       4

     Reading input from espresso_9230.pwi
Warning: card &CELL ignored
Warning: card / ignored

     Current dimensions of program PWSCF are:
     Max number of different atomic species (ntypx) = 10
     Max number of k-points (npk) =  40000
     Max angular momentum in pseudopotentials (lmaxx) =  4
     file O.pbe-n-kjpaw_psl.0.1.UPF: wavefunction(s)  2P renormalized

     Using Slab Decomposition

     bravais-lattice index     =            0
     lattice parameter (alat)  =       9.9625  a.u.
     unit-cell volume          =    1223.9222 (a.u.)^3
     number of atoms/cell      =           13
     number of atomic types    =            3
     number of electrons       =        88.00
     number of Kohn-Sham states=           64
     kinetic-energy cutoff     =      30.0000  Ry
     charge density cutoff     =     240.0000  Ry
     scf convergence threshold =      1.0E-06
     mixing beta               =       0.7000
     number of iterations used =            8  plain     mixing
     Exchange-correlation= SLA  PW   PBX  PBC
                           (   1   4   3   4   0   0   0)

     celldm(1)=   9.962466  celldm(2)=   0.000000  celldm(3)=   0.000000
     celldm(4)=   0.000000  celldm(5)=   0.000000  celldm(6)=   0.000000

     crystal axes: (cart. coord. in units of alat)
               a(1) = (   1.000000   0.000000   0.000000 )
               a(2) = (  -0.431447   0.902138   0.000000 )
               a(3) = (   0.006864   0.010892   1.372082 )

     reciprocal axes: (cart. coord. in units 2 pi/alat)
               b(1) = (  1.000000  0.478249 -0.008799 )
               b(2) = (  0.000000  1.108478 -0.008799 )
               b(3) = (  0.000000  0.000000  0.728819 )

     PseudoPot. # 1 for Ca read from file:
     /home/pragov/projects/rrg-bengioy-ad/pragov/crystal_structure_design/SSSP/Ca_pbe_v1.uspp.F.UPF
     MD5 check sum: 403a4c14b9e4d4dfdc3024c9a3812218
     Pseudo is Ultrasoft + core correction, Zval = 10.0
     Generated by new atomic code, or converted to UPF format
     Using radial grid of  845 points,  6 beta functions with:
                l(1) =   0
                l(2) =   0
                l(3) =   1
                l(4) =   1
                l(5) =   2
                l(6) =   2
     Q(r) pseudized with  8 coefficients,  rinner =    1.500   1.500   1.500
                                                       1.500   1.500

     PseudoPot. # 2 for P  read from file:
     /home/pragov/projects/rrg-bengioy-ad/pragov/crystal_structure_design/SSSP/P.pbe-n-rrkjus_psl.1.0.0.UPF
     MD5 check sum: 8b930f418f0a4573dca56cd030ffe088
     Pseudo is Ultrasoft + core correction, Zval =  5.0
     Generated using "atomic" code by A. Dal Corso  v.5.1
     Using radial grid of 1147 points,  6 beta functions with:
                l(1) =   0
                l(2) =   0
                l(3) =   1
                l(4) =   1
                l(5) =   2
                l(6) =   2
     Q(r) pseudized with 0 coefficients

     PseudoPot. # 3 for O  read from file:
     /home/pragov/projects/rrg-bengioy-ad/pragov/crystal_structure_design/SSSP/O.pbe-n-kjpaw_psl.0.1.UPF
     MD5 check sum: 0234752ac141de4415c5fc33072bef88
     Pseudo is Projector augmented-wave + core cor, Zval =  6.0
     Generated using "atomic" code by A. Dal Corso  v.5.0.99 svn rev. 10869
     Shape of augmentation charge: BESSEL
     Using radial grid of 1095 points,  4 beta functions with:
                l(1) =   0
                l(2) =   0
                l(3) =   1
                l(4) =   1
     Q(r) pseudized with 0 coefficients

     atomic species   valence    mass     pseudopotential
        Ca            10.00    40.07800     Ca( 1.00)
        P              5.00    30.97376     P ( 1.00)
        O              6.00    15.99900     O ( 1.00)

     No symmetry found

                                    s                        frac. trans.

      isym =  1     identity

 cryst.   s( 1) = (     1          0          0      )
                  (     0          1          0      )
                  (     0          0          1      )

 cart.    s( 1) = (  1.0000000  0.0000000 -0.0000000 )
                  (  0.0000000  1.0000000  0.0000000 )
                  (  0.0000000  0.0000000  1.0000000 )

   Cartesian axes

     site n.     atom                  positions (alat units)
         1           Ca  tau(   1) = (   0.0147622   0.6209246   0.0000000  )
         2           Ca  tau(   2) = (   0.9872300   0.0056598   0.3745524  )
         3           Ca  tau(   3) = (   0.9962487   0.0199701   0.9975300  )
         4           P   tau(   4) = (   0.0708687   0.5931736   0.6860412  )
         5           P   tau(   5) = (   0.5028284   0.3133316   0.0000000  )
         6           O   tau(   6) = (   0.3423398   0.7073165   0.6941996  )
         7           O   tau(   7) = (   0.0850215   0.2990226   0.6778828  )
         8           O   tau(   8) = (  -0.0614201   0.6886838   0.4382774  )
         9           O   tau(   9) = (  -0.0723703   0.6713088   0.9338050  )
        10           O   tau(  10) = (   0.6376567   0.2163514   1.1367703  )
        11           O   tau(  11) = (   0.6553535   0.2444312   0.2353108  )
        12           O   tau(  12) = (   0.4828473   0.6248519   1.3604980  )
        13           O   tau(  13) = (   0.2200375   0.2078445   0.0115845  )

   Crystallographic axes

     site n.     atom                  positions (cryst. coord.)
         1           Ca  tau(   1) = (  0.3117190  0.6882810  0.0000000  )
         2           Ca  tau(   2) = (  0.9866410  0.0029780  0.2729810  )
         3           Ca  tau(   3) = (  0.9970220  0.0133590  0.7270190  )
         4           P   tau(   4) = (  0.3485170  0.6514830  0.5000000  )
         5           P   tau(   5) = (  0.6526790  0.3473210  0.0000000  )
         6           O   tau(   6) = (  0.6745050  0.7779360  0.5059460  )
         7           O   tau(   7) = (  0.2220640  0.3254950  0.4940540  )
         8           O   tau(   8) = (  0.2640860  0.7595340  0.3194250  )
         9           O   tau(   9) = (  0.2404660  0.7359140  0.6805750  )
        10           O   tau(  10) = (  0.7311240  0.2298180  0.8285000  )
        11           O   tau(  11) = (  0.7701820  0.2688760  0.1714990  )
        12           O   tau(  12) = (  0.7697110  0.6806630  0.9915570  )
        13           O   tau(  13) = (  0.3193370  0.2302890  0.0084430  )

     number of k points=    14
                       cart. coord. in units 2pi/alat
        k(    1) = (   0.0000000   0.0000000   0.0000000), wk =   0.0740741
        k(    2) = (   0.0000000   0.0000000   0.2429397), wk =   0.1481481
        k(    3) = (   0.0000000   0.3694925  -0.0029331), wk =   0.1481481
        k(    4) = (   0.0000000   0.3694925   0.2400067), wk =   0.1481481
        k(    5) = (   0.0000000   0.3694925  -0.2458728), wk =   0.1481481
        k(    6) = (   0.3333333   0.1594164  -0.0029331), wk =   0.1481481
        k(    7) = (   0.3333333   0.1594164   0.2400067), wk =   0.1481481
        k(    8) = (   0.3333333   0.1594164  -0.2458728), wk =   0.1481481
        k(    9) = (   0.3333333   0.5289089  -0.0058661), wk =   0.1481481
        k(   10) = (   0.3333333   0.5289089   0.2370736), wk =   0.1481481
        k(   11) = (   0.3333333   0.5289089  -0.2488058), wk =   0.1481481
        k(   12) = (   0.3333333  -0.2100761   0.0000000), wk =   0.1481481
        k(   13) = (   0.3333333  -0.2100761   0.2429397), wk =   0.1481481
        k(   14) = (   0.3333333  -0.2100761  -0.2429397), wk =   0.1481481

                       cryst. coord.
        k(    1) = (   0.0000000   0.0000000   0.0000000), wk =   0.0740741
        k(    2) = (   0.0000000   0.0000000   0.3333333), wk =   0.1481481
        k(    3) = (   0.0000000   0.3333333  -0.0000000), wk =   0.1481481
        k(    4) = (   0.0000000   0.3333333   0.3333333), wk =   0.1481481
        k(    5) = (   0.0000000   0.3333333  -0.3333333), wk =   0.1481481
        k(    6) = (   0.3333333  -0.0000000  -0.0000000), wk =   0.1481481
        k(    7) = (   0.3333333  -0.0000000   0.3333333), wk =   0.1481481
        k(    8) = (   0.3333333  -0.0000000  -0.3333333), wk =   0.1481481
        k(    9) = (   0.3333333   0.3333333  -0.0000000), wk =   0.1481481
        k(   10) = (   0.3333333   0.3333333   0.3333333), wk =   0.1481481
        k(   11) = (   0.3333333   0.3333333  -0.3333333), wk =   0.1481481
        k(   12) = (   0.3333333  -0.3333333  -0.0000000), wk =   0.1481481
        k(   13) = (   0.3333333  -0.3333333   0.3333333), wk =   0.1481481
        k(   14) = (   0.3333333  -0.3333333  -0.3333333), wk =   0.1481481

     Check: negative core charge=   -0.000012

     Initial potential from superposition of free atoms

     starting charge      87.9833, renormalised to      88.0000
     Starting wfcs are   70 randomized atomic wfcs
     Checking if some PAW data can be deallocated...

     Self-consistent Calculation

     iteration #  1     ecut=    30.00 Ry     beta= 0.70
     Davidson diagonalization with overlap

     ethr =  1.00E-02,  avg # of iterations =  3.7

     total energy              =    -586.03764506 Ry
     estimated scf accuracy    <       2.64020597 Ry

[...]

     total energy              =    -587.21648807 Ry
     estimated scf accuracy    <       0.00000269 Ry

     iteration #  9     ecut=    30.00 Ry     beta= 0.70
     Davidson diagonalization with overlap

     ethr =  3.05E-09,  avg # of iterations =  2.0

     End of self-consistent calculation

          k = 0.0000 0.0000 0.0000 (  3399 PWs)   bands (ev):

   -34.2775 -33.0378 -33.0106 -15.7611 -15.3586 -15.3211 -15.2940 -15.1012
   -14.4297 -14.3817 -14.2433 -14.0720 -14.0173 -13.8946 -13.1370 -12.8832
   -12.5876 -12.1387 -12.0711 -12.0547  -2.7854  -2.0855  -0.4868  -0.1273
     0.0859   0.1040   0.3720   0.4888   1.7073   1.9768   2.1070   2.5110
     2.5256   2.7360   2.8489   3.1733   3.3563   3.4348   3.7671   4.0264
     4.3103   4.5055   4.8491   5.0784   9.5726  10.2136  10.3781  10.7753
    11.0175  11.1999  11.2281  12.1908  12.3444  12.6628  12.6964  12.9094
    13.2710  13.4425  13.5190  13.6291  13.7528  14.0849  14.8366  14.9388

     occupation numbers
     1.0000   1.0000   1.0000   1.0000   1.0000   1.0000   1.0000   1.0000
     1.0000   1.0000   1.0000   1.0000   1.0000   1.0000   1.0000   1.0000
     1.0000   1.0000   1.0000   1.0000   1.0000   1.0000   1.0000   1.0000
     1.0000   1.0000   1.0000   1.0000   1.0000   1.0000   1.0000   1.0000
     1.0000   1.0000   1.0000   1.0000   1.0000   1.0000   1.0000   1.0000
     1.0000   1.0000   1.0000   1.0000   0.0000   0.0000   0.0000   0.0000
     0.0000   0.0000   0.0000   0.0000   0.0000   0.0000   0.0000   0.0000
     0.0000   0.0000   0.0000   0.0000   0.0000   0.0000   0.0000   0.0000

[...]

          k = 0.3333-0.2101-0.2429 (  3393 PWs)   bands (ev):

   -34.2770 -33.0356 -33.0126 -15.9762 -15.4783 -15.4033 -15.0546 -14.9643
   -14.3785 -14.3645 -14.2380 -14.1464 -14.0375 -13.8837 -13.0233 -12.8323
   -12.4946 -12.2943 -12.0871 -12.0524  -2.5445  -2.1233  -0.3176  -0.2443
    -0.0039   0.2390   0.3577   0.5564   1.5766   1.9441   2.2840   2.3259
     2.3843   2.6555   2.7979   2.8512   3.2168   3.2728   3.6385   4.2182
     4.2756   4.5676   4.7761   4.8833  10.4515  10.5638  11.0558  11.1401
    11.2696  11.5912  11.7279  12.0668  12.3122  12.3631  12.4481  12.5384
    12.9558  13.3018  13.5687  13.7423  13.8083  14.3532  14.4724  14.7953

     occupation numbers
     1.0000   1.0000   1.0000   1.0000   1.0000   1.0000   1.0000   1.0000
     1.0000   1.0000   1.0000   1.0000   1.0000   1.0000   1.0000   1.0000
     1.0000   1.0000   1.0000   1.0000   1.0000   1.0000   1.0000   1.0000
     1.0000   1.0000   1.0000   1.0000   1.0000   1.0000   1.0000   1.0000
     1.0000   1.0000   1.0000   1.0000   1.0000   1.0000   1.0000   1.0000
     1.0000   1.0000   1.0000   1.0000   0.0000   0.0000   0.0000   0.0000
     0.0000   0.0000   0.0000   0.0000   0.0000   0.0000   0.0000   0.0000
     0.0000   0.0000   0.0000   0.0000   0.0000   0.0000   0.0000   0.0000

     highest occupied, lowest unoccupied level (ev):     5.0952    9.5726

!    total energy              =    -587.21648801 Ry
     estimated scf accuracy    <       0.00000046 Ry

     The total energy is the sum of the following terms:
     one-electron contribution =    -202.26922300 Ry
     hartree contribution      =     143.46570775 Ry
     xc contribution           =    -105.29610227 Ry
     ewald contribution        =    -346.98165328 Ry
     one-center paw contrib.   =     -76.13521721 Ry
      -> PAW hartree energy AE =       0.00000000 Ry
      -> PAW hartree energy PS =       0.00000000 Ry
      -> PAW xc energy AE      =       0.00000000 Ry
      -> PAW xc energy PS      =       0.00000000 Ry
      -> total E_H with PAW    =     143.46570775 Ry
      -> total E_XC with PAW   =    -105.29610227 Ry

     convergence has been achieved in   9 iterations

     Writing all to output data dir calculations_bands/myprefix.save/

     General routines

     Parallel routines

     PAW routines

   This run was terminated on:  23:47:45   4Jun2023

   JOB DONE.