     Program PWSCF v.7.0 starts on  6Jun2023 at 20:56:51

     K-points division:     npool     =       2
     R & G space division:  proc/nbgrp/npool/nimage =       4

     Reading input from espresso_21151.pwi
Warning: card &CELL ignored
Warning: card / ignored

     Current dimensions of program PWSCF are:
     Max number of different atomic species (ntypx) = 10
     Max number of k-points (npk) =  40000
     Max angular momentum in pseudopotentials (lmaxx) =  4
     file C.pbe-n-kjpaw_psl.1.0.0.UPF: wavefunction(s)  2S 2P renormalized
     Message from routine setup:
     using ibrav=0 with symmetry is DISCOURAGED, use correct ibrav instead

     Using Slab Decomposition

     bravais-lattice index     =            0
     lattice parameter (alat)  =       9.9189  a.u.
     unit-cell volume          =     818.1665 (a.u.)^3
     number of atoms/cell      =           10
     number of atomic types    =            3
     number of electrons       =       114.00
     number of Kohn-Sham states=           64
     kinetic-energy cutoff     =      30.0000  Ry
     charge density cutoff     =     240.0000  Ry
     scf convergence threshold =      1.0E-06
     mixing beta               =       0.7000
     number of iterations used =            8  plain     mixing
     Exchange-correlation= SLA  PW   PBX  PBC
                           (   1   4   3   4   0   0   0)

     celldm(1)=   9.918945  celldm(2)=   0.000000  celldm(3)=   0.000000
     celldm(4)=   0.000000  celldm(5)=   0.000000  celldm(6)=   0.000000

     crystal axes: (cart. coord. in units of alat)
               a(1) = (   1.000000   0.000000   0.000000 )
               a(2) = (  -0.829927   0.557872   0.000000 )
               a(3) = (   0.000000   0.000000   1.502832 )

     reciprocal axes: (cart. coord. in units 2 pi/alat)
               b(1) = (  1.000000  1.487665  0.000000 )
               b(2) = (  0.000000  1.792526  0.000000 )
               b(3) = (  0.000000  0.000000  0.665410 )

     PseudoPot. # 1 for V  read from file:
     /home/pragov/projects/rrg-bengioy-ad/pragov/crystal_structure_design/SSSP/v_pbe_v1.4.uspp.F.UPF
     MD5 check sum: 22b79981416ebb76fdaf5b1b8640f6fb
     Pseudo is Ultrasoft + core correction, Zval = 13.0
     Generated by new atomic code, or converted to UPF format
     Using radial grid of  853 points,  6 beta functions with:
                l(1) =   0
                l(2) =   0
                l(3) =   1
                l(4) =   1
                l(5) =   2
                l(6) =   2
     Q(r) pseudized with  8 coefficients,  rinner =    1.100   1.100   1.100
                                                       1.100   1.100

     PseudoPot. # 2 for Ge read from file:
     /home/pragov/projects/rrg-bengioy-ad/pragov/crystal_structure_design/SSSP/ge_pbe_v1.4.uspp.F.UPF
     MD5 check sum: 9c9eaa91e581c3f09632fb3098b2c6b2
     Pseudo is Ultrasoft + core correction, Zval = 14.0
     Generated by new atomic code, or converted to UPF format
     Using radial grid of  873 points,  6 beta functions with:
                l(1) =   0
                l(2) =   0
                l(3) =   1
                l(4) =   1
                l(5) =   2
                l(6) =   2
     Q(r) pseudized with  8 coefficients,  rinner =    1.400   1.400   1.400
                                                       1.400   1.400

     PseudoPot. # 3 for C  read from file:
     /home/pragov/projects/rrg-bengioy-ad/pragov/crystal_structure_design/SSSP/C.pbe-n-kjpaw_psl.1.0.0.UPF
     MD5 check sum: 5d2aebdfa2cae82b50a7e79e9516da0f
     Pseudo is Projector augmented-wave + core cor, Zval =  4.0
     Generated using "atomic" code by A. Dal Corso  v.5.1
     Shape of augmentation charge: PSQ
     Using radial grid of 1073 points,  4 beta functions with:
                l(1) =   0
                l(2) =   0
                l(3) =   1
                l(4) =   1
     Q(r) pseudized with 0 coefficients

     atomic species   valence    mass     pseudopotential
        V             13.00    50.94150     V ( 1.00)
        Ge            14.00    72.63000     Ge( 1.00)
        C              4.00    12.01100     C ( 1.00)

      4 Sym. Ops., with inversion, found ( 2 have fractional translation)

                                    s                        frac. trans.

      isym =  1     identity

 cryst.   s( 1) = (     1          0          0      )
                  (     0          1          0      )
                  (     0          0          1      )

 cart.    s( 1) = (  1.0000000  0.0000000  0.0000000 )
                  (  0.0000000  1.0000000  0.0000000 )
                  (  0.0000000  0.0000000  1.0000000 )

      isym =  2     180 deg rotation - cart. axis [0,0,1]

 cryst.   s( 2) = (    -1          0          0      )    f =(  0.0000000 )
                  (     0         -1          0      )       ( -0.0000000 )
                  (     0          0          1      )       ( -0.5000000 )

 cart.    s( 2) = ( -1.0000000 -0.0000000  0.0000000 )    f =(  0.0000000 )
                  (  0.0000000 -1.0000000  0.0000000 )       ( -0.0000000 )
                  (  0.0000000  0.0000000  1.0000000 )       ( -0.7514162 )

      isym =  3     inversion

 cryst.   s( 3) = (    -1          0          0      )
                  (     0         -1          0      )
                  (     0          0         -1      )

 cart.    s( 3) = ( -1.0000000 -0.0000000  0.0000000 )
                  (  0.0000000 -1.0000000  0.0000000 )
                  (  0.0000000  0.0000000 -1.0000000 )

      isym =  4     inv. 180 deg rotation - cart. axis [0,0,1]

 cryst.   s( 4) = (     1          0          0      )    f =(  0.0000000 )
                  (     0          1          0      )       (  0.0000000 )
                  (     0          0         -1      )       (  0.5000000 )

 cart.    s( 4) = (  1.0000000  0.0000000  0.0000000 )    f =(  0.0000000 )
                  (  0.0000000  1.0000000  0.0000000 )       (  0.0000000 )
                  (  0.0000000  0.0000000 -1.0000000 )       (  0.7514162 )

   Cartesian axes

     site n.     atom                  positions (alat units)
         1           V   tau(   1) = (   0.9279942   0.0219517   0.3757081  )
         2           V   tau(   2) = (  -0.7579212   0.5359204   1.1271243  )
         3           V   tau(   3) = (   0.3201529   0.2072584   0.6790308  )
         4           V   tau(   4) = (  -0.1500798   0.3506137   0.8238017  )
         5           V   tau(   5) = (   0.3201529   0.2072584   0.0723854  )
         6           V   tau(   6) = (  -0.1500798   0.3506137   1.4304470  )
         7           Ge  tau(   7) = (  -0.3621903   0.4152777   0.3757081  )
         8           Ge  tau(   8) = (   0.5322633   0.1425943   1.1271243  )
         9           C   tau(   9) = (   0.0000000   0.0000000   0.7514162  )
        10           C   tau(  10) = (   0.0000000   0.0000000   0.0000000  )

   Crystallographic axes

     site n.     atom                  positions (cryst. coord.)
         1           V   tau(   1) = (  0.9606510  0.0393490  0.2500000  )
         2           V   tau(   2) = (  0.0393490  0.9606510  0.7500000  )
         3           V   tau(   3) = (  0.6284840  0.3715160  0.4518340  )
         4           V   tau(   4) = (  0.3715160  0.6284840  0.5481660  )
         5           V   tau(   5) = (  0.6284840  0.3715160  0.0481660  )
         6           V   tau(   6) = (  0.3715160  0.6284840  0.9518340  )
         7           Ge  tau(   7) = (  0.2556040  0.7443960  0.2500000  )
         8           Ge  tau(   8) = (  0.7443960  0.2556040  0.7500000  )
         9           C   tau(   9) = (  0.0000000  0.0000000  0.5000000  )
        10           C   tau(  10) = (  0.0000000  0.0000000  0.0000000  )

     number of k points=    10
                       cart. coord. in units 2pi/alat
        k(    1) = (   0.0000000   0.0000000   0.0000000), wk =   0.0740741
        k(    2) = (   0.0000000   0.0000000   0.2218034), wk =   0.1481481
        k(    3) = (   0.0000000   0.5975086   0.0000000), wk =   0.1481481
        k(    4) = (   0.0000000   0.5975086   0.2218034), wk =   0.2962963
        k(    5) = (   0.3333333   0.4958885   0.0000000), wk =   0.1481481
        k(    6) = (   0.3333333   0.4958885   0.2218034), wk =   0.2962963
        k(    7) = (   0.3333333   1.0933970   0.0000000), wk =   0.1481481
        k(    8) = (   0.3333333   1.0933970   0.2218034), wk =   0.2962963
        k(    9) = (   0.3333333  -0.1016201   0.0000000), wk =   0.1481481
        k(   10) = (   0.3333333  -0.1016201   0.2218034), wk =   0.2962963

                       cryst. coord.
        k(    1) = (   0.0000000   0.0000000   0.0000000), wk =   0.0740741
        k(    2) = (   0.0000000   0.0000000   0.3333333), wk =   0.1481481
        k(    3) = (   0.0000000   0.3333333   0.0000000), wk =   0.1481481
        k(    4) = (   0.0000000   0.3333333   0.3333333), wk =   0.2962963
        k(    5) = (   0.3333333   0.0000000   0.0000000), wk =   0.1481481
        k(    6) = (   0.3333333   0.0000000   0.3333333), wk =   0.2962963
        k(    7) = (   0.3333333   0.3333333   0.0000000), wk =   0.1481481
        k(    8) = (   0.3333333   0.3333333   0.3333333), wk =   0.2962963
        k(    9) = (   0.3333333  -0.3333333   0.0000000), wk =   0.1481481
        k(   10) = (   0.3333333  -0.3333333   0.3333333), wk =   0.2962963

     Check: negative core charge=   -0.000014

     Initial potential from superposition of free atoms

     starting charge     113.9908, renormalised to     114.0000

     negative rho (up, down):  6.477E-03 0.000E+00
     Starting wfcs are   86 randomized atomic wfcs
     Checking if some PAW data can be deallocated...

     Self-consistent Calculation

     iteration #  1     ecut=    30.00 Ry     beta= 0.70
     Davidson diagonalization with overlap

     ethr =  1.00E-02,  avg # of iterations =  2.0

     negative rho (up, down):  1.058E-02 0.000E+00

     total energy              =   -1333.59850248 Ry
     estimated scf accuracy    <       2.20554061 Ry

[...]

     total energy              =   -1334.89660092 Ry
     estimated scf accuracy    <       0.00000198 Ry

     iteration # 13     ecut=    30.00 Ry     beta= 0.70
     Davidson diagonalization with overlap

     ethr =  1.73E-09,  avg # of iterations =  1.6

     negative rho (up, down):  9.742E-03 0.000E+00

     End of self-consistent calculation

          k = 0.0000 0.0000 0.0000 (  2237 PWs)   bands (ev):

   -48.2209 -48.2016 -48.1617 -48.1543 -48.0996 -48.0867 -22.3045 -22.2612
   -22.1403 -22.1173 -22.0967 -22.0667 -22.0355 -22.0350 -22.0275 -22.0125
   -21.9394 -21.9191 -21.9050 -21.8702 -21.8469 -21.8302 -21.8024 -21.7842
    -8.2312  -8.2277  -8.1957  -8.1884  -8.1836  -8.1769  -8.1699  -8.1661
    -8.1631  -8.1582   3.6025   4.9190   6.0050   6.3952  10.2044  10.8673
    11.0455  11.9392  12.2897  12.7345  12.7545  12.8331  13.2815  13.5953
    14.1151  14.2446  14.9853  15.1949  15.3254  15.7128  15.8514  15.8735
    15.9023  16.1084  16.6867  16.7241  16.8863  16.9466  16.9506  17.0501

     occupation numbers
     1.0000   1.0000   1.0000   1.0000   1.0000   1.0000   1.0000   1.0000
     1.0000   1.0000   1.0000   1.0000   1.0000   1.0000   1.0000   1.0000
     1.0000   1.0000   1.0000   1.0000   1.0000   1.0000   1.0000   1.0000
     1.0000   1.0000   1.0000   1.0000   1.0000   1.0000   1.0000   1.0000
     1.0000   1.0000   1.0000   1.0000   1.0000   1.0000   1.0000   1.0000
     1.0000   1.0000   1.0000   1.0000   1.0000   1.0000   1.0000   1.0000
     1.0000   1.0000   1.0000   1.0000   1.0000   1.0000   1.0000   1.0000
     1.0000   0.0000   0.0000   0.0000   0.0000   0.0000   0.0000   0.0000

[...]

          k = 0.3333-0.1016 0.2218 (  2258 PWs)   bands (ev):

   -48.2069 -48.1975 -48.1699 -48.1665 -48.0961 -48.0890 -22.2607 -22.2319
   -22.1530 -22.1263 -22.0854 -22.0726 -22.0708 -22.0085 -22.0055 -22.0037
   -21.9773 -21.9716 -21.8865 -21.8667 -21.8403 -21.8234 -21.8166 -21.8120
    -8.2325  -8.2303  -8.1959  -8.1948  -8.1863  -8.1805  -8.1727  -8.1690
    -8.1599  -8.1569   4.2218   4.7254   5.8717   6.1375  10.0526  10.4545
    11.1040  11.9733  12.3076  12.4307  12.5069  12.6476  13.3876  13.5793
    13.9050  14.1998  15.0323  15.5094  15.5713  15.8391  15.9417  16.0445
    16.2325  16.2755  16.4747  16.5474  16.7721  16.7973  16.9210  17.0329

     occupation numbers
     1.0000   1.0000   1.0000   1.0000   1.0000   1.0000   1.0000   1.0000
     1.0000   1.0000   1.0000   1.0000   1.0000   1.0000   1.0000   1.0000
     1.0000   1.0000   1.0000   1.0000   1.0000   1.0000   1.0000   1.0000
     1.0000   1.0000   1.0000   1.0000   1.0000   1.0000   1.0000   1.0000
     1.0000   1.0000   1.0000   1.0000   1.0000   1.0000   1.0000   1.0000
     1.0000   1.0000   1.0000   1.0000   1.0000   1.0000   1.0000   1.0000
     1.0000   1.0000   1.0000   1.0000   1.0000   1.0000   1.0000   1.0000
     1.0000   0.0000   0.0000   0.0000   0.0000   0.0000   0.0000   0.0000

     highest occupied, lowest unoccupied level (ev):    16.3891   16.0899

!    total energy              =   -1334.89660056 Ry
     estimated scf accuracy    <       0.00000046 Ry

     The total energy is the sum of the following terms:
     one-electron contribution =    -480.93346215 Ry
     hartree contribution      =     315.44804483 Ry
     xc contribution           =    -244.03423972 Ry
     ewald contribution        =    -913.02576788 Ry
     one-center paw contrib.   =     -12.35117565 Ry
      -> PAW hartree energy AE =       0.00000000 Ry
      -> PAW hartree energy PS =       0.00000000 Ry
      -> PAW xc energy AE      =       0.00000000 Ry
      -> PAW xc energy PS      =       0.00000000 Ry
      -> total E_H with PAW    =     315.44804483 Ry
      -> total E_XC with PAW   =    -244.03423972 Ry

     convergence has been achieved in  13 iterations

     Writing all to output data dir calculations_bands/myprefix.save/

     General routines

     Parallel routines

     PAW routines

   This run was terminated on:  20:57: 3   6Jun2023

   JOB DONE.