     Program PWSCF v.7.0 starts on 23Jun2023 at  4: 9:16

     K-points division:     npool     =       2
     R & G space division:  proc/nbgrp/npool/nimage =       4

     Reading input from espresso_1172.pwi
Warning: card &CELL ignored
Warning: card / ignored

     Current dimensions of program PWSCF are:
     Max number of different atomic species (ntypx) = 10
     Max number of k-points (npk) =  40000
     Max angular momentum in pseudopotentials (lmaxx) =  4
     Message from routine setup:
     using ibrav=0 with symmetry is DISCOURAGED, use correct ibrav instead

     Using Slab Decomposition

     bravais-lattice index     =            0
     lattice parameter (alat)  =       7.5821  a.u.
     unit-cell volume          =    1384.8291 (a.u.)^3
     number of atoms/cell      =           12
     number of atomic types    =            3
     number of electrons       =       176.00
     number of Kohn-Sham states=           90
     kinetic-energy cutoff     =      30.0000  Ry
     charge density cutoff     =     240.0000  Ry
     scf convergence threshold =      1.0E-06
     mixing beta               =       0.7000
     number of iterations used =            8  plain     mixing
     Exchange-correlation= PBE
                           (   1   4   3   4   0   0   0)

     celldm(1)=   7.582076  celldm(2)=   0.000000  celldm(3)=   0.000000
     celldm(4)=   0.000000  celldm(5)=   0.000000  celldm(6)=   0.000000

     crystal axes: (cart. coord. in units of alat)
               a(1) = (   1.000000   0.000000   0.000000 )
               a(2) = (   0.000000   1.692870   0.000000 )
               a(3) = (   0.000000   0.000000   1.876758 )

     reciprocal axes: (cart. coord. in units 2 pi/alat)
               b(1) = (  1.000000  0.000000  0.000000 )
               b(2) = (  0.000000  0.590713  0.000000 )
               b(3) = (  0.000000  0.000000  0.532834 )

     PseudoPot. # 1 for Lu read from file:
     /home/pragov/projects/rrg-bengioy-ad/pragov/crystal_structure_design/SSSP/Lu.GGA-PBE-paw-v1.0.UPF
     MD5 check sum: 9ceca61ee0c17e9380a83635bfffa61d
     Pseudo is Projector augmented-wave + core cor, Zval = 25.0
     Generated using ATOMPAW code
     Shape of augmentation charge: BESSEL
     Using radial grid of 1118 points,  8 beta functions with:
                l(1) =   0
                l(2) =   0
                l(3) =   1
                l(4) =   1
                l(5) =   2
                l(6) =   2
                l(7) =   3
                l(8) =   3
     Q(r) pseudized with 0 coefficients

     PseudoPot. # 2 for Mn read from file:
     /home/pragov/projects/rrg-bengioy-ad/pragov/crystal_structure_design/SSSP/mn_pbe_v1.5.uspp.F.UPF
     MD5 check sum: 82ef2b46521d7a7d9e736dc3972e4928
     Pseudo is Ultrasoft + core correction, Zval = 15.0
     Generated by new atomic code, or converted to UPF format
     Using radial grid of  859 points,  6 beta functions with:
                l(1) =   0
                l(2) =   0
                l(3) =   1
                l(4) =   1
                l(5) =   2
                l(6) =   2
     Q(r) pseudized with  8 coefficients,  rinner =    0.950   0.950   0.950
                                                       0.950   0.950

     PseudoPot. # 3 for Si read from file:
     /home/pragov/projects/rrg-bengioy-ad/pragov/crystal_structure_design/SSSP/Si.pbe-n-rrkjus_psl.1.0.0.UPF
     MD5 check sum: 0b0bb1205258b0d07b9f9672cf965d36
     Pseudo is Ultrasoft + core correction, Zval =  4.0
     Generated using "atomic" code by A. Dal Corso  v.5.1
     Using radial grid of 1141 points,  6 beta functions with:
                l(1) =   0
                l(2) =   0
                l(3) =   1
                l(4) =   1
                l(5) =   2
                l(6) =   2
     Q(r) pseudized with 0 coefficients

     atomic species   valence    mass     pseudopotential
        Lu            25.00   174.96680     Lu( 1.00)
        Mn            15.00    54.93804     Mn( 1.00)
        Si             4.00    28.08500     Si( 1.00)

      8 Sym. Ops., with inversion, found ( 6 have fractional translation)

                                    s                        frac. trans.

      isym =  1     identity

 cryst.   s( 1) = (     1          0          0      )
                  (     0          1          0      )
                  (     0          0          1      )

 cart.    s( 1) = (  1.0000000  0.0000000  0.0000000 )
                  (  0.0000000  1.0000000  0.0000000 )
                  (  0.0000000  0.0000000  1.0000000 )

      isym =  2     180 deg rotation - cart. axis [0,0,1]

 cryst.   s( 2) = (    -1          0          0      )    f =(  0.0000000 )
                  (     0         -1          0      )       (  0.5000000 )
                  (     0          0          1      )       ( -0.5000000 )

 cart.    s( 2) = ( -1.0000000  0.0000000  0.0000000 )    f =(  0.0000000 )
                  (  0.0000000 -1.0000000  0.0000000 )       (  0.8464349 )
                  (  0.0000000  0.0000000  1.0000000 )       ( -0.9383788 )

[...]

      isym =  4     180 deg rotation - cart. axis [1,0,0]

[...]

      isym =  5     inversion

 cryst.   s( 5) = (    -1          0          0      )
                  (     0         -1          0      )
                  (     0          0         -1      )

 cart.    s( 5) = ( -1.0000000  0.0000000  0.0000000 )
                  (  0.0000000 -1.0000000  0.0000000 )
                  (  0.0000000  0.0000000 -1.0000000 )

      isym =  6     inv. 180 deg rotation - cart. axis [0,0,1]

[...]

      isym =  8     inv. 180 deg rotation - cart. axis [1,0,0]

 cryst.   s( 8) = (    -1          0          0      )    f =(  0.5000000 )
                  (     0          1          0      )       (  0.0000000 )
                  (     0          0          1      )       (  0.0000000 )

 cart.    s( 8) = ( -1.0000000  0.0000000  0.0000000 )    f =(  0.5000000 )
                  (  0.0000000  1.0000000  0.0000000 )       (  0.0000000 )
                  (  0.0000000  0.0000000  1.0000000 )       (  0.0000000 )

   Cartesian axes

     site n.     atom                  positions (alat units)
         1           Lu  tau(   1) = (   0.2500000   0.8706175   0.3479039  )
         2           Lu  tau(   2) = (   0.7500000   0.8222522   1.5288536  )
         3           Lu  tau(   3) = (   0.2500000   0.0241826   0.5904748  )
         4           Lu  tau(   4) = (   0.7500000   1.6686871   1.2862827  )
         5           Mn  tau(   5) = (   0.7500000   1.4547151   0.1095520  )
         6           Mn  tau(   6) = (   0.2500000   0.2381546   1.7672056  )
         7           Mn  tau(   7) = (   0.7500000   0.6082803   0.8288268  )
         8           Mn  tau(   8) = (   0.2500000   1.0845895   1.0479307  )
         9           Si  tau(   9) = (   0.2500000   1.3276873   1.6618895  )
        10           Si  tau(  10) = (   0.7500000   0.3651825   0.2148681  )
        11           Si  tau(  11) = (   0.2500000   0.4812524   1.1532469  )
        12           Si  tau(  12) = (   0.7500000   1.2116174   0.7235107  )

   Crystallographic axes

     site n.     atom                  positions (cryst. coord.)
         1           Lu  tau(   1) = (  0.2500000  0.5142850  0.1853750  )
         2           Lu  tau(   2) = (  0.7500000  0.4857150  0.8146250  )
         3           Lu  tau(   3) = (  0.2500000  0.0142850  0.3146250  )
         4           Lu  tau(   4) = (  0.7500000  0.9857150  0.6853750  )
         5           Mn  tau(   5) = (  0.7500000  0.8593190  0.0583730  )
         6           Mn  tau(   6) = (  0.2500000  0.1406810  0.9416270  )
         7           Mn  tau(   7) = (  0.7500000  0.3593190  0.4416270  )
         8           Mn  tau(   8) = (  0.2500000  0.6406810  0.5583730  )
         9           Si  tau(   9) = (  0.2500000  0.7842820  0.8855110  )
        10           Si  tau(  10) = (  0.7500000  0.2157180  0.1144890  )
        11           Si  tau(  11) = (  0.2500000  0.2842820  0.6144890  )
        12           Si  tau(  12) = (  0.7500000  0.7157180  0.3855110  )

     number of k points=     8
                       cart. coord. in units 2pi/alat
        k(    1) = (   0.0000000   0.0000000   0.0000000), wk =   0.0740741
        k(    2) = (   0.0000000   0.0000000   0.1776113), wk =   0.1481481
        k(    3) = (   0.0000000   0.1969043   0.0000000), wk =   0.1481481
        k(    4) = (   0.0000000   0.1969043   0.1776113), wk =   0.2962963
        k(    5) = (   0.3333333   0.0000000   0.0000000), wk =   0.1481481
        k(    6) = (   0.3333333   0.0000000   0.1776113), wk =   0.2962963
        k(    7) = (   0.3333333   0.1969043   0.0000000), wk =   0.2962963
        k(    8) = (   0.3333333   0.1969043   0.1776113), wk =   0.5925926

                       cryst. coord.
        k(    1) = (   0.0000000   0.0000000   0.0000000), wk =   0.0740741
        k(    2) = (   0.0000000   0.0000000   0.3333333), wk =   0.1481481
        k(    3) = (   0.0000000   0.3333333   0.0000000), wk =   0.1481481
        k(    4) = (   0.0000000   0.3333333   0.3333333), wk =   0.2962963
        k(    5) = (   0.3333333   0.0000000   0.0000000), wk =   0.1481481
        k(    6) = (   0.3333333   0.0000000   0.3333333), wk =   0.2962963
        k(    7) = (   0.3333333   0.3333333   0.0000000), wk =   0.2962963
        k(    8) = (   0.3333333   0.3333333   0.3333333), wk =   0.5925926

     Check: negative core charge=   -0.000016

     Initial potential from superposition of free atoms

     starting charge     173.9823, renormalised to     176.0000
     Starting wfcs are  196 randomized atomic wfcs
     Checking if some PAW data can be deallocated...

     Self-consistent Calculation

     iteration #  1     ecut=    30.00 Ry     beta= 0.70
     Davidson diagonalization with overlap

     ethr =  1.00E-02,  avg # of iterations =  2.0

     total energy              =   -5177.75126936 Ry
     estimated scf accuracy    <      30.08374116 Ry

[...]

     c_bands:  1 eigenvalues not converged
     ethr =  4.68E-04,  avg # of iterations = 14.6

[...]

     c_bands:  1 eigenvalues not converged
     ethr =  2.49E-07,  avg # of iterations = 13.8

[...]

     total energy              =   -5211.38226677 Ry
     estimated scf accuracy    <       0.00000397 Ry

     iteration # 41     ecut=    30.00 Ry     beta= 0.70
     Davidson diagonalization with overlap

     ethr =  2.26E-09,  avg # of iterations =  3.4

     End of self-consistent calculation

          k = 0.0000 0.0000 0.0000 (  3839 PWs)   bands (ev):

   -63.8836 -63.8835 -63.8764 -63.8763 -40.7214 -40.7140 -40.7111 -40.7035
   -32.7378 -32.7363 -32.7060 -32.7026 -32.6106 -32.6086 -32.5879 -32.5874
   -32.5458 -32.5429 -32.5376 -32.5375 -11.5483 -11.5232 -11.5004 -11.4988
   -11.4333 -11.4075 -11.3585 -11.3376 -11.3324 -11.3287 -11.3181 -11.2965
     5.1117   6.9556   7.0600   7.3902   9.9495  10.2266  10.5618  10.5750
    10.5779  10.5803  10.5807  10.5933  10.6016  10.6019  10.6036  10.6061
    10.6140  10.6141  10.6185  10.6199  10.6244  10.6319  10.6321  10.6321
    10.6356  10.6360  10.6400  10.6400  10.6417  10.6428  10.6478  10.6507
    10.6521  10.6583  11.2942  11.4671  11.7369  12.3634  12.5095  12.5169
    12.5732  12.6458  13.1215  13.2720  13.4639  13.6655  13.7736  13.9798
    14.1179  14.1806  14.3013  14.4265  14.5120  14.7724  14.9583  14.9669
    15.1918  15.3494

     occupation numbers
     1.0000   1.0000   1.0000   1.0000   1.0000   1.0000   1.0000   1.0000
     1.0000   1.0000   1.0000   1.0000   1.0000   1.0000   1.0000   1.0000
     1.0000   1.0000   1.0000   1.0000   1.0000   1.0000   1.0000   1.0000
     1.0000   1.0000   1.0000   1.0000   1.0000   1.0000   1.0000   1.0000
     1.0000   1.0000   1.0000   1.0000   1.0000   1.0000   1.0000   1.0000
     1.0000   1.0000   1.0000   1.0000   1.0000   1.0000   1.0000   1.0000
     1.0000   1.0000   1.0000   1.0000   1.0000   1.0000   1.0000   1.0000
     1.0000   1.0000   1.0000   1.0000   1.0000   1.0000   1.0000   1.0000
     1.0000   1.0000   1.0000   1.0000   1.0000   1.0000   1.0000   1.0000
     1.0000   1.0000   1.0000   1.0000   1.0000   1.0000   1.0000   1.0000
     1.0000   1.0000   1.0000   1.0000   1.0000   1.0000   1.0000   1.0000
     0.0000   0.0000

[...]

          k = 0.3333 0.1969 0.1776 (  3832 PWs)   bands (ev):

   -63.8817 -63.8816 -63.8782 -63.8781 -40.7155 -40.7139 -40.7092 -40.7076
   -32.7301 -32.7297 -32.7123 -32.7116 -32.6022 -32.6011 -32.5920 -32.5911
   -32.5454 -32.5441 -32.5415 -32.5402 -11.5161 -11.5104 -11.4931 -11.4916
   -11.4662 -11.4594 -11.3845 -11.3731 -11.3595 -11.3522 -11.3238 -11.3173
     6.6061   6.9699   7.2531   7.3731  10.3368  10.4036  10.4780  10.5452
    10.5882  10.5940  10.5977  10.5997  10.6006  10.6034  10.6077  10.6118
    10.6134  10.6184  10.6193  10.6226  10.6248  10.6264  10.6292  10.6309
    10.6339  10.6388  10.6419  10.6425  10.6508  10.6515  10.6557  10.6562
    10.7073  10.7521  10.9451  11.2411  11.7213  12.1334  12.4053  12.4329
    12.6607  12.7265  12.8818  13.0123  13.4717  13.6363  13.7707  13.7869
    13.9856  14.0354  14.1614  14.2847  14.4132  14.4501  14.7300  14.7843
    14.8584  14.8963

     occupation numbers
     1.0000   1.0000   1.0000   1.0000   1.0000   1.0000   1.0000   1.0000
     1.0000   1.0000   1.0000   1.0000   1.0000   1.0000   1.0000   1.0000
     1.0000   1.0000   1.0000   1.0000   1.0000   1.0000   1.0000   1.0000
     1.0000   1.0000   1.0000   1.0000   1.0000   1.0000   1.0000   1.0000
     1.0000   1.0000   1.0000   1.0000   1.0000   1.0000   1.0000   1.0000
     1.0000   1.0000   1.0000   1.0000   1.0000   1.0000   1.0000   1.0000
     1.0000   1.0000   1.0000   1.0000   1.0000   1.0000   1.0000   1.0000
     1.0000   1.0000   1.0000   1.0000   1.0000   1.0000   1.0000   1.0000
     1.0000   1.0000   1.0000   1.0000   1.0000   1.0000   1.0000   1.0000
     1.0000   1.0000   1.0000   1.0000   1.0000   1.0000   1.0000   1.0000
     1.0000   1.0000   1.0000   1.0000   1.0000   1.0000   1.0000   1.0000
     0.0000   0.0000

     highest occupied, lowest unoccupied level (ev):    14.9669   14.8138

!    total energy              =   -5211.38226682 Ry
     estimated scf accuracy    <       0.00000026 Ry

     The total energy is the sum of the following terms:
     one-electron contribution =   -2132.20548157 Ry
     hartree contribution      =    1006.35435291 Ry
     xc contribution           =    -296.46176208 Ry
     ewald contribution        =   -1824.93883828 Ry
     one-center paw contrib.   =   -1964.13053780 Ry
      -> PAW hartree energy AE =     983.51197235 Ry
      -> PAW hartree energy PS =    -846.98714474 Ry
      -> PAW xc energy AE      =   -1198.68342854 Ry
      -> PAW xc energy PS      =      80.09333202 Ry
      -> total E_H with PAW    =    1142.87918052 Ry
      -> total E_XC with PAW   =   -1415.05185860 Ry

     convergence has been achieved in  41 iterations

     Writing all to output data dir calculations_bands/myprefix.save/

     General routines

     Parallel routines

     PAW routines

   This run was terminated on:   4:10:30  23Jun2023

   JOB DONE.