     Program PWSCF v.7.0 starts on  7Jun2023 at  2:42:56

     K-points division:     npool     =       2
     R & G space division:  proc/nbgrp/npool/nimage =       4

     Reading input from espresso_1325.pwi
Warning: card &CELL ignored
Warning: card / ignored

     Current dimensions of program PWSCF are:
     Max number of different atomic species (ntypx) = 10
     Max number of k-points (npk) =  40000
     Max angular momentum in pseudopotentials (lmaxx) =  4
     Message from routine setup:
     using ibrav=0 with symmetry is DISCOURAGED, use correct ibrav instead

     Using Slab Decomposition

     bravais-lattice index     =            0
     lattice parameter (alat)  =      12.7216  a.u.
     unit-cell volume          =    1009.3833 (a.u.)^3
     number of atoms/cell      =            9
     number of atomic types    =            3
     number of electrons       =       126.00
     number of Kohn-Sham states=           64
     kinetic-energy cutoff     =      30.0000  Ry
     charge density cutoff     =     240.0000  Ry
     scf convergence threshold =      1.0E-06
     mixing beta               =       0.7000
     number of iterations used =            8  plain     mixing
     Exchange-correlation= SLA  PW   PBE  PBE
                           (   1   4   3   4   0   0   0)

     celldm(1)=  12.721556  celldm(2)=   0.000000  celldm(3)=   0.000000
     celldm(4)=   0.000000  celldm(5)=   0.000000  celldm(6)=   0.000000

     crystal axes: (cart. coord. in units of alat)
               a(1) = (   1.000000   0.000000   0.000000 )
               a(2) = (  -0.500000   0.866025   0.000000 )
               a(3) = (   0.000000   0.000000   0.566115 )

     reciprocal axes: (cart. coord. in units 2 pi/alat)
               b(1) = (  1.000000  0.577350  0.000000 )
               b(2) = (  0.000000  1.154700  0.000000 )
               b(3) = (  0.000000  0.000000  1.766425 )

     PseudoPot. # 1 for Hf read from file:
     /home/pragov/projects/rrg-bengioy-ad/pragov/crystal_structure_design/SSSP/Hf-sp.oncvpsp.upf
     MD5 check sum: 417ed15784afe83d2e06dacf143de3f8
     Pseudo is Norm-conserving + core correction, Zval = 12.0
     Generated using ONCVPSP code by D. R. Hamann
     Using radial grid of 1656 points,  8 beta functions with:
                l(1) =   0
                l(2) =   0
                l(3) =   1
                l(4) =   1
                l(5) =   2
                l(6) =   2
                l(7) =   3
                l(8) =   3

     PseudoPot. # 2 for Ge read from file:
     /home/pragov/projects/rrg-bengioy-ad/pragov/crystal_structure_design/SSSP/ge_pbe_v1.4.uspp.F.UPF
     MD5 check sum: 9c9eaa91e581c3f09632fb3098b2c6b2
     Pseudo is Ultrasoft + core correction, Zval = 14.0
     Generated by new atomic code, or converted to UPF format
     Using radial grid of  873 points,  6 beta functions with:
                l(1) =   0
                l(2) =   0
                l(3) =   1
                l(4) =   1
                l(5) =   2
                l(6) =   2
     Q(r) pseudized with  8 coefficients,  rinner =    1.400   1.400   1.400
                                                       1.400   1.400

     PseudoPot. # 3 for Os read from file:
     /home/pragov/projects/rrg-bengioy-ad/pragov/crystal_structure_design/SSSP/Os_pbe_v1.2.uspp.F.UPF
     MD5 check sum: a3fb40a04f0c37c25c34bbc47164c9a8
     Pseudo is Ultrasoft + core correction, Zval = 16.0
     Generated by new atomic code, or converted to UPF format
     Using radial grid of  983 points,  8 beta functions with:
                l(1) =   0
                l(2) =   0
                l(3) =   1
                l(4) =   1
                l(5) =   2
                l(6) =   2
                l(7) =   3
                l(8) =   3
     Q(r) pseudized with  8 coefficients,  rinner =    1.150   1.150   1.150
                                                       1.150   1.150   1.150
                                                       1.150

     atomic species   valence    mass     pseudopotential
        Hf            12.00   178.49000     Hf( 1.00)
        Ge            14.00    72.63000     Ge( 1.00)
        Os            16.00   190.23000     Os( 1.00)

     12 Sym. Ops. (no inversion) found

                                    s                        frac. trans.

      isym =  1     identity

 cryst.   s( 1) = (     1          0          0      )
                  (     0          1          0      )
                  (     0          0          1      )

 cart.    s( 1) = (  1.0000000  0.0000000  0.0000000 )
                  (  0.0000000  1.0000000  0.0000000 )
                  (  0.0000000  0.0000000  1.0000000 )

      isym =  2     180 deg rotation - cart. axis [1,0,0]

[...]

      isym =  3     120 deg rotation - cryst. axis [0,0,1]

[...]

      isym =  6     180 deg rotation - cryst. axis [1,1,0]

[...]

      isym =  7     inv. 180 deg rotation - cart. axis [0,0,1]

[...]

      isym =  8     inv. 180 deg rotation - cart. axis [0,1,0]

[...]

      isym =  9     inv.  60 deg rotation - cryst. axis [0,0,1]

 cryst.   s( 9) = (    -1         -1          0      )
                  (     1          0          0      )
                  (     0          0         -1      )

 cart.    s( 9) = ( -0.5000001  0.8660254  0.0000000 )
                  ( -0.8660255 -0.4999999  0.0000000 )
                  (  0.0000000  0.0000000 -1.0000000 )

[...]

 cryst.   s(10) = (     0          1          0      )
                  (    -1         -1          0      )
                  (     0          0         -1      )

 cart.    s(10) = ( -0.4999999 -0.8660254  0.0000000 )
                  (  0.8660255 -0.5000001  0.0000000 )
                  (  0.0000000  0.0000000 -1.0000000 )

[...]

      isym = 12     inv. 180 deg rotation - cryst. axis [2,1,0]

 cryst.   s(12) = (    -1         -1          0      )
                  (     0          1          0      )
                  (     0          0          1      )

 cart.    s(12) = ( -0.5000001 -0.8660253  0.0000000 )
                  ( -0.8660255  0.5000001  0.0000000 )
                  (  0.0000000  0.0000000  1.0000000 )

   Cartesian axes

     site n.     atom                  positions (alat units)
         1           Hf  tau(   1) = (   0.4169760   0.0000000   0.2830576  )
         2           Hf  tau(   2) = (  -0.2084880   0.3611118   0.2830576  )
         3           Hf  tau(   3) = (   0.2915120   0.5049136   0.2830576  )
         4           Ge  tau(   4) = (  -0.0000004   0.5773506   0.0000000  )
         5           Ge  tau(   5) = (   0.5000005   0.2886749   0.0000000  )
         6           Ge  tau(   6) = (   0.0000000   0.0000000   0.2830576  )
         7           Os  tau(   7) = (   0.7535190   0.0000000   0.0000000  )
         8           Os  tau(   8) = (   0.6232406   0.6525666   0.0000000  )
         9           Os  tau(   9) = (   0.1232405   0.2134588   0.0000000  )

   Crystallographic axes

     site n.     atom                  positions (cryst. coord.)
         1           Hf  tau(   1) = (  0.4169760  0.0000000  0.5000000  )
         2           Hf  tau(   2) = (  0.0000000  0.4169760  0.5000000  )
         3           Hf  tau(   3) = (  0.5830240  0.5830240  0.5000000  )
         4           Ge  tau(   4) = (  0.3333330  0.6666670  0.0000000  )
         5           Ge  tau(   5) = (  0.6666670  0.3333330  0.0000000  )
         6           Ge  tau(   6) = (  0.0000000  0.0000000  0.5000000  )
         7           Os  tau(   7) = (  0.7535190  0.0000000  0.0000000  )
         8           Os  tau(   8) = (  1.0000000  0.7535190  0.0000000  )
         9           Os  tau(   9) = (  0.2464810  0.2464810  0.0000000  )

     number of k points=     6
                       cart. coord. in units 2pi/alat
        k(    1) = (   0.0000000   0.0000000   0.0000000), wk =   0.0740741
        k(    2) = (   0.0000000   0.0000000   0.5888084), wk =   0.1481481
        k(    3) = (   0.0000000   0.3849002   0.0000000), wk =   0.4444444
        k(    4) = (   0.0000000   0.3849002   0.5888084), wk =   0.8888889
        k(    5) = (   0.3333333   0.5773502   0.0000000), wk =   0.1481481
        k(    6) = (   0.3333333   0.5773502   0.5888084), wk =   0.2962963

                       cryst. coord.
        k(    1) = (   0.0000000   0.0000000   0.0000000), wk =   0.0740741
        k(    2) = (   0.0000000   0.0000000   0.3333333), wk =   0.1481481
        k(    3) = (   0.0000000   0.3333333   0.0000000), wk =   0.4444444
        k(    4) = (   0.0000000   0.3333333   0.3333333), wk =   0.8888889
        k(    5) = (   0.3333333   0.3333333   0.0000000), wk =   0.1481481
        k(    6) = (   0.3333333   0.3333333   0.3333333), wk =   0.2962963

     Initial potential from superposition of free atoms

     starting charge     124.4917, renormalised to     126.0000

     negative rho (up, down):  3.716E-01 0.000E+00
     Starting wfcs are   96 randomized atomic wfcs

     Self-consistent Calculation

     iteration #  1     ecut=    30.00 Ry     beta= 0.70
     Davidson diagonalization with overlap

     ethr =  1.00E-02,  avg # of iterations =  2.0

     negative rho (up, down):  3.444E-01 0.000E+00

     total energy              =   -1574.52050693 Ry
     estimated scf accuracy    <       1.30312446 Ry

[...]

     total energy              =   -1575.21711003 Ry
     estimated scf accuracy    <       0.00000208 Ry

     iteration # 11     ecut=    30.00 Ry     beta= 0.70
     Davidson diagonalization with overlap

     ethr =  1.65E-09,  avg # of iterations =  4.2

     negative rho (up, down):  3.556E-01 0.000E+00

     End of self-consistent calculation

          k = 0.0000 0.0000 0.0000 (  2773 PWs)   bands (ev):

   -67.7930 -67.7819 -67.7817 -43.8677 -43.8505 -43.8503 -27.3514 -27.2065
   -27.2065 -27.1641 -27.1358 -27.1356 -27.1012 -27.1012 -27.0716 -12.7169
   -12.6529 -12.6528 -12.5998 -12.5787 -12.5785 -12.5728 -12.5101 -12.5100
    -6.5746  -6.5746  -6.5632  -6.5632  -6.5474  -6.0155  -6.0155  -6.0084
    -6.0084  -6.0040  -6.0040  -5.9944  -5.9944  -5.9932  -5.9910   6.2951
     8.2745   9.2803  12.3719  12.3719  12.8657  12.8658  13.1203  13.8912
    14.5952  14.5952  14.6911  15.3021  15.3022  15.6578  15.7389  15.7390
    16.4059  16.4061  16.6307  16.6307  17.8636  18.1491  18.7291  18.7292

     occupation numbers
     1.0000   1.0000   1.0000   1.0000   1.0000   1.0000   1.0000   1.0000
     1.0000   1.0000   1.0000   1.0000   1.0000   1.0000   1.0000   1.0000
     1.0000   1.0000   1.0000   1.0000   1.0000   1.0000   1.0000   1.0000
     1.0000   1.0000   1.0000   1.0000   1.0000   1.0000   1.0000   1.0000
     1.0000   1.0000   1.0000   1.0000   1.0000   1.0000   1.0000   1.0000
     1.0000   1.0000   1.0000   1.0000   1.0000   1.0000   1.0000   1.0000
     1.0000   1.0000   1.0000   1.0000   1.0000   1.0000   1.0000   1.0000
     1.0000   1.0000   1.0000   1.0000   1.0000   1.0000   1.0000   0.0000

[...]

          k = 0.3333 0.5774 0.5888 (  2796 PWs)   bands (ev):

   -67.7928 -67.7817 -67.7816 -43.8674 -43.8672 -43.8560 -27.3499 -27.2079
   -27.2079 -27.1743 -27.1453 -27.1452 -27.1018 -27.1018 -27.0708 -12.6586
   -12.6586 -12.6436 -12.6434 -12.6307 -12.6277 -12.5633 -12.5632 -12.5368
    -6.5761  -6.5761  -6.5653  -6.5653  -6.5411  -6.0198  -6.0149  -6.0149
    -6.0115  -6.0028  -6.0002  -6.0002  -5.9958  -5.9861  -5.9861   7.8595
     8.6820   8.6820  11.3343  12.4848  12.4849  13.6333  14.0121  14.0122
    14.4994  14.4994  14.9349  15.0608  15.4396  15.4396  15.8579  15.9974
    15.9974  16.2166  16.5629  16.5630  17.1418  17.1419  17.6106  18.5535

     occupation numbers
     1.0000   1.0000   1.0000   1.0000   1.0000   1.0000   1.0000   1.0000
     1.0000   1.0000   1.0000   1.0000   1.0000   1.0000   1.0000   1.0000
     1.0000   1.0000   1.0000   1.0000   1.0000   1.0000   1.0000   1.0000
     1.0000   1.0000   1.0000   1.0000   1.0000   1.0000   1.0000   1.0000
     1.0000   1.0000   1.0000   1.0000   1.0000   1.0000   1.0000   1.0000
     1.0000   1.0000   1.0000   1.0000   1.0000   1.0000   1.0000   1.0000
     1.0000   1.0000   1.0000   1.0000   1.0000   1.0000   1.0000   1.0000
     1.0000   1.0000   1.0000   1.0000   1.0000   1.0000   1.0000   0.0000

     highest occupied, lowest unoccupied level (ev):    18.7291   18.1795

!    total energy              =   -1575.21711012 Ry
     estimated scf accuracy    <       0.00000015 Ry

     The total energy is the sum of the following terms:
     one-electron contribution =    -500.52366090 Ry
     hartree contribution      =     342.63515559 Ry
     xc contribution           =    -373.39528130 Ry
     ewald contribution        =   -1043.93332351 Ry

     convergence has been achieved in  11 iterations

     Writing all to output data dir calculations_bands/myprefix.save/

     General routines

     Parallel routines

   This run was terminated on:   2:43:10   7Jun2023

   JOB DONE.