     Program PWSCF v.7.0 starts on 23Jun2023 at  8: 9:43

     K-points division:     npool     =       2
     R & G space division:  proc/nbgrp/npool/nimage =       4

     Reading input from espresso_2552.pwi
Warning: card &CELL ignored
Warning: card / ignored

     Current dimensions of program PWSCF are:
     Max number of different atomic species (ntypx) = 10
     Max number of k-points (npk) =  40000
     Max angular momentum in pseudopotentials (lmaxx) =  4
     file O.pbe-n-kjpaw_psl.0.1.UPF: wavefunction(s)  2P renormalized
     Message from routine setup:
     using ibrav=0 with symmetry is DISCOURAGED, use correct ibrav instead

     Using Slab Decomposition

     bravais-lattice index     =            0
     lattice parameter (alat)  =      11.3490  a.u.
     unit-cell volume          =    2005.0587 (a.u.)^3
     number of atoms/cell      =           20
     number of atomic types    =            4
     number of electrons       =       174.00
     number of Kohn-Sham states=           90
     kinetic-energy cutoff     =      30.0000  Ry
     charge density cutoff     =     240.0000  Ry
     scf convergence threshold =      1.0E-06
     mixing beta               =       0.7000
     number of iterations used =            8  plain     mixing
     Exchange-correlation= SLA  PW   PBX  PBC
                           (   1   4   3   4   0   0   0)

     celldm(1)=  11.349017  celldm(2)=   0.000000  celldm(3)=   0.000000
     celldm(4)=   0.000000  celldm(5)=   0.000000  celldm(6)=   0.000000

     crystal axes: (cart. coord. in units of alat)
               a(1) = (   1.000000   0.000000   0.000000 )
               a(2) = (   0.000000   0.980822   0.000000 )
               a(3) = (   0.000000   0.973197   1.398500 )

     reciprocal axes: (cart. coord. in units 2 pi/alat)
               b(1) = (  1.000000  0.000000  0.000000 )
               b(2) = (  0.000000  1.019553 -0.709493 )
               b(3) = (  0.000000  0.000000  0.715052 )

     PseudoPot. # 1 for Sr read from file:
     /home/pragov/projects/rrg-bengioy-ad/pragov/crystal_structure_design/SSSP/Sr_pbe_v1.uspp.F.UPF
     MD5 check sum: 6b418c05fbe9db5448babca5e47b7a5b
     Pseudo is Ultrasoft + core correction, Zval = 10.0
     Generated by new atomic code, or converted to UPF format
     Using radial grid of  883 points,  6 beta functions with:
                l(1) =   0
                l(2) =   0
                l(3) =   1
                l(4) =   1
                l(5) =   2
                l(6) =   2
     Q(r) pseudized with  6 coefficients,  rinner =    1.400   1.400   1.400
                                                       1.400   1.400

     PseudoPot. # 2 for Sm read from file:
     /home/pragov/projects/rrg-bengioy-ad/pragov/crystal_structure_design/SSSP/Sm.GGA-PBE-paw-v1.0.UPF
     MD5 check sum: 886f70968969f895acf876f5617e0641
     Pseudo is Projector augmented-wave + core cor, Zval = 16.0
     Generated using ATOMPAW code
     Shape of augmentation charge: BESSEL
     Using radial grid of 1107 points,  8 beta functions with:
                l(1) =   0
                l(2) =   0
                l(3) =   1
                l(4) =   1
                l(5) =   2
                l(6) =   2
                l(7) =   3
                l(8) =   3
     Q(r) pseudized with 0 coefficients

     PseudoPot. # 3 for Sb read from file:
     /home/pragov/projects/rrg-bengioy-ad/pragov/crystal_structure_design/SSSP/sb_pbe_v1.4.uspp.F.UPF
     MD5 check sum: 9bc50dfb53373b713f5709b9110fe27f
     Pseudo is Ultrasoft + core correction, Zval = 15.0
     Generated by new atomic code, or converted to UPF format
     Using radial grid of  891 points,  6 beta functions with:
                l(1) =   0
                l(2) =   0
                l(3) =   1
                l(4) =   1
                l(5) =   2
                l(6) =   2
     Q(r) pseudized with  8 coefficients,  rinner =    1.350   1.350   1.350
                                                       1.350   1.350

     PseudoPot. # 4 for O  read from file:
     /home/pragov/projects/rrg-bengioy-ad/pragov/crystal_structure_design/SSSP/O.pbe-n-kjpaw_psl.0.1.UPF
     MD5 check sum: 0234752ac141de4415c5fc33072bef88
     Pseudo is Projector augmented-wave + core cor, Zval =  6.0
     Generated using "atomic" code by A. Dal Corso  v.5.0.99 svn rev. 10869
     Shape of augmentation charge: BESSEL
     Using radial grid of 1095 points,  4 beta functions with:
                l(1) =   0
                l(2) =   0
                l(3) =   1
                l(4) =   1
     Q(r) pseudized with 0 coefficients

     atomic species   valence    mass     pseudopotential
        Sr            10.00    87.62000     Sr( 1.00)
        Sm            16.00   150.36000     Sm( 1.00)
        Sb            15.00   121.76000     Sb( 1.00)
        O              6.00    15.99900     O ( 1.00)

      4 Sym. Ops., with inversion, found ( 2 have fractional translation)

                                    s                        frac. trans.

      isym =  1     identity

 cryst.   s( 1) = (     1          0          0      )
                  (     0          1          0      )
                  (     0          0          1      )

 cart.    s( 1) = (  1.0000000  0.0000000  0.0000000 )
                  (  0.0000000  1.0000000 -0.0000000 )
                  (  0.0000000  0.0000000  1.0000000 )

      isym =  2     180 deg rotation - cart. axis [1,0,0]

 cryst.   s( 2) = (     1          0          0      )    f =( -0.5000000 )
                  (     0         -1          0      )       ( -0.0000000 )
                  (     0          0         -1      )       ( -0.5000000 )

 cart.    s( 2) = (  1.0000000  0.0000000  0.0000000 )    f =( -0.5000000 )
                  (  0.0000000 -1.0000000  0.0000000 )       ( -0.4865984 )
                  (  0.0000000  0.0000000 -1.0000000 )       ( -0.6992498 )

      isym =  3     inversion

 cryst.   s( 3) = (    -1          0          0      )
                  (     0         -1          0      )
                  (     0          0         -1      )

 cart.    s( 3) = ( -1.0000000  0.0000000  0.0000000 )
                  (  0.0000000 -1.0000000  0.0000000 )
                  (  0.0000000  0.0000000 -1.0000000 )

      isym =  4     inv. 180 deg rotation - cart. axis [1,0,0]

 cryst.   s( 4) = (    -1          0          0      )    f =(  0.5000000 )
                  (     0          1          0      )       ( -0.0000000 )
                  (     0          0          1      )       ( -0.5000000 )

 cart.    s( 4) = ( -1.0000000  0.0000000  0.0000000 )    f =(  0.5000000 )
                  (  0.0000000  1.0000000 -0.0000000 )       ( -0.4865984 )
                  (  0.0000000  0.0000000  1.0000000 )       ( -0.6992498 )

   Cartesian axes

     site n.     atom                  positions (alat units)
         1           Sr  tau(   1) = (   0.0425930   0.9644748   1.0496186  )
         2           Sr  tau(   2) = (   0.5425930   1.4761422   1.0481306  )
         3           Sr  tau(   3) = (   0.9574070   0.9895438   0.3488809  )
         4           Sr  tau(   4) = (   0.4574070   0.4778763   0.3503689  )
         5           Sm  tau(   5) = (   0.0000000   0.4904108   0.0000000  )
         6           Sm  tau(   6) = (   0.5000000   0.9770093   0.6992498  )
         7           Sb  tau(   7) = (   0.5000000   0.0000000   0.0000000  )
         8           Sb  tau(   8) = (   0.0000000   0.4865984   0.6992498  )
         9           O   tau(   9) = (   0.4712100   1.0615766   1.0740015  )
        10           O   tau(  10) = (   0.9712100   1.3790404   1.0237478  )
        11           O   tau(  11) = (   0.5287900   0.8924420   0.3244980  )
        12           O   tau(  12) = (   0.0287900   0.5749781   0.3747517  )
        13           O   tau(  13) = (   0.2758330   0.6702357   0.7674392  )
        14           O   tau(  14) = (   0.7758330   1.7703813   1.3303101  )
        15           O   tau(  15) = (   0.7241670   1.2837829   0.6310603  )
        16           O   tau(  16) = (   0.2241670   0.1836372   0.0681894  )
        17           O   tau(  17) = (   0.3075450   1.6847953   1.3352692  )
        18           O   tau(  18) = (   0.8075450   0.7558217   0.7624801  )
        19           O   tau(  19) = (   0.6924550   0.2692233   0.0632304  )
        20           O   tau(  20) = (   0.1924550   1.1981968   0.6360194  )

   Crystallographic axes

     site n.     atom                  positions (cryst. coord.)
         1           Sr  tau(   1) = (  0.0425930  0.2386360  0.7505320  )
         2           Sr  tau(   2) = (  0.5425930  0.7613640  0.7494680  )
         3           Sr  tau(   3) = (  0.9574070  0.7613640  0.2494680  )
         4           Sr  tau(   4) = (  0.4574070  0.2386360  0.2505320  )
         5           Sm  tau(   5) = (  0.0000000  0.5000000  0.0000000  )
         6           Sm  tau(   6) = (  0.5000000  0.5000000  0.5000000  )
         7           Sb  tau(   7) = (  0.5000000  0.0000000  0.0000000  )
         8           Sb  tau(   8) = (  0.0000000 -0.0000000  0.5000000  )
         9           O   tau(   9) = (  0.4712100  0.3203370  0.7679670  )
        10           O   tau(  10) = (  0.9712100  0.6796630  0.7320330  )
        11           O   tau(  11) = (  0.5287900  0.6796630  0.2320330  )
        12           O   tau(  12) = (  0.0287900  0.3203370  0.2679670  )
        13           O   tau(  13) = (  0.2758330  0.1388480  0.5487590  )
        14           O   tau(  14) = (  0.7758330  0.8611520  0.9512410  )
        15           O   tau(  15) = (  0.7241670  0.8611520  0.4512410  )
        16           O   tau(  16) = (  0.2241670  0.1388480  0.0487590  )
        17           O   tau(  17) = (  0.3075450  0.7703740  0.9547870  )
        18           O   tau(  18) = (  0.8075450  0.2296260  0.5452130  )
        19           O   tau(  19) = (  0.6924550  0.2296260  0.0452130  )
        20           O   tau(  20) = (  0.1924550  0.7703740  0.4547870  )

     number of k points=    10
                       cart. coord. in units 2pi/alat
        k(    1) = (   0.0000000   0.0000000   0.0000000), wk =   0.0740741
        k(    2) = (   0.0000000   0.0000000   0.2383507), wk =   0.1481481
        k(    3) = (   0.0000000   0.3398511  -0.2364978), wk =   0.1481481
        k(    4) = (   0.0000000   0.3398511   0.0018529), wk =   0.1481481
        k(    5) = (   0.0000000   0.3398511  -0.4748485), wk =   0.1481481
        k(    6) = (   0.3333333   0.0000000   0.0000000), wk =   0.1481481
        k(    7) = (   0.3333333   0.0000000   0.2383507), wk =   0.2962963
        k(    8) = (   0.3333333   0.3398511  -0.2364978), wk =   0.2962963
        k(    9) = (   0.3333333   0.3398511   0.0018529), wk =   0.2962963
        k(   10) = (   0.3333333   0.3398511  -0.4748485), wk =   0.2962963

                       cryst. coord.
        k(    1) = (   0.0000000   0.0000000   0.0000000), wk =   0.0740741
        k(    2) = (   0.0000000   0.0000000   0.3333333), wk =   0.1481481
        k(    3) = (   0.0000000   0.3333333  -0.0000000), wk =   0.1481481
        k(    4) = (   0.0000000   0.3333333   0.3333333), wk =   0.1481481
        k(    5) = (   0.0000000   0.3333333  -0.3333333), wk =   0.1481481
        k(    6) = (   0.3333333   0.0000000   0.0000000), wk =   0.1481481
        k(    7) = (   0.3333333   0.0000000   0.3333333), wk =   0.2962963
        k(    8) = (   0.3333333   0.3333333  -0.0000000), wk =   0.2962963
        k(    9) = (   0.3333333   0.3333333   0.3333333), wk =   0.2962963
        k(   10) = (   0.3333333   0.3333333  -0.3333333), wk =   0.2962963

     Check: negative core charge=   -0.000012

     Initial potential from superposition of free atoms

     starting charge     171.8542, renormalised to     174.0000

     negative rho (up, down):  2.573E-01 0.000E+00
     Starting wfcs are  182 randomized atomic wfcs
     Checking if some PAW data can be deallocated...

     Self-consistent Calculation

     iteration #  1     ecut=    30.00 Ry     beta= 0.70
     Davidson diagonalization with overlap

     ethr =  1.00E-02,  avg # of iterations =  1.1

     negative rho (up, down):  2.580E-01 0.000E+00

     total energy              =   -2355.85254286 Ry
     estimated scf accuracy    <       5.81705927 Ry

[...]

     c_bands:  1 eigenvalues not converged
     ethr =  4.24E-05,  avg # of iterations =  9.7

[...]

     total energy              =   -2359.60787445 Ry
     estimated scf accuracy    <       0.00000336 Ry

     iteration #166     ecut=    30.00 Ry     beta= 0.70
     Davidson diagonalization with overlap

     ethr =  7.33E-10,  avg # of iterations =  8.3

     negative rho (up, down):  2.673E-01 0.000E+00

     End of self-consistent calculation

          k = 0.0000 0.0000 0.0000 (  5523 PWs)   bands (ev):

   -28.2547 -28.2541 -23.6686 -23.6618 -23.6508 -23.6438 -19.4009 -19.4008
   -19.3930 -19.3916 -19.2447 -19.2442 -19.2413 -19.2411 -19.2350 -19.2339
    -9.2589  -9.2345  -9.1193  -9.1032  -9.0294  -9.0155  -8.9597  -8.7923
    -7.3692  -7.3684  -7.1062  -7.1014  -6.7525  -6.7408  -6.5919  -6.5298
    -6.4945  -6.3933  -5.7351  -5.6969  -5.6656  -5.6589  -5.6422  -5.5194
    -5.4765  -5.4688  -5.3193  -5.2806  -5.2628  -5.1465   1.3931   1.4122
     5.2108   5.2790   5.3486   5.3922   5.4195   5.4832   5.7663   6.3792
     6.4414   6.4597   6.5732   6.7718   6.8586   6.9043   7.3254   7.3455
     7.3745   7.4871   7.6600   7.7068   7.7374   7.7732   7.8587   7.8748
     7.9482   8.0237   8.0853   8.1251   8.1381   8.1657   8.3283   8.3502
     8.3986   8.5199  11.0642  11.0744  11.0869  11.0921  11.0962  11.1112
    11.3004  11.3498

     occupation numbers
     1.0000   1.0000   1.0000   1.0000   1.0000   1.0000   1.0000   1.0000
     1.0000   1.0000   1.0000   1.0000   1.0000   1.0000   1.0000   1.0000
     1.0000   1.0000   1.0000   1.0000   1.0000   1.0000   1.0000   1.0000
     1.0000   1.0000   1.0000   1.0000   1.0000   1.0000   1.0000   1.0000
     1.0000   1.0000   1.0000   1.0000   1.0000   1.0000   1.0000   1.0000
     1.0000   1.0000   1.0000   1.0000   1.0000   1.0000   1.0000   1.0000
     1.0000   1.0000   1.0000   1.0000   1.0000   1.0000   1.0000   1.0000
     1.0000   1.0000   1.0000   1.0000   1.0000   1.0000   1.0000   1.0000
     1.0000   1.0000   1.0000   1.0000   1.0000   1.0000   1.0000   1.0000
     1.0000   1.0000   1.0000   1.0000   1.0000   1.0000   1.0000   1.0000
     1.0000   1.0000   1.0000   1.0000   1.0000   1.0000   1.0000   0.0000
     0.0000   0.0000

[...]

          k = 0.3333 0.3399-0.4748 (  5559 PWs)   bands (ev):

   -28.2542 -28.2541 -23.6605 -23.6574 -23.6553 -23.6521 -19.4017 -19.4010
   -19.3955 -19.3940 -19.2461 -19.2451 -19.2423 -19.2414 -19.2367 -19.2344
    -9.5112  -9.4550  -9.1664  -9.1410  -9.0449  -9.0060  -8.3265  -8.2672
    -7.7573  -7.6518  -7.5790  -7.4224  -6.6561  -6.5715  -6.5412  -6.5000
    -6.2410  -6.1910  -5.6748  -5.6691  -5.6506  -5.6114  -5.5623  -5.5540
    -5.4618  -5.4492  -5.3590  -5.2921  -5.2042  -5.1463   1.6660   1.6761
     4.7424   4.7829   4.8277   4.9518   5.2762   5.3234   6.1584   6.2551
     6.5934   6.7833   6.8550   6.8829   6.9820   7.0401   7.0876   7.3083
     7.3914   7.4637   7.5247   7.5739   7.6224   7.6529   7.7292   7.8102
     7.8298   7.9049   7.9979   8.1127   8.1627   8.2036   8.2558   8.3314
     8.4587   8.5435  11.0517  11.0612  11.0818  11.0961  11.1001  11.1087
    11.2733  11.2822

     occupation numbers
     1.0000   1.0000   1.0000   1.0000   1.0000   1.0000   1.0000   1.0000
     1.0000   1.0000   1.0000   1.0000   1.0000   1.0000   1.0000   1.0000
     1.0000   1.0000   1.0000   1.0000   1.0000   1.0000   1.0000   1.0000
     1.0000   1.0000   1.0000   1.0000   1.0000   1.0000   1.0000   1.0000
     1.0000   1.0000   1.0000   1.0000   1.0000   1.0000   1.0000   1.0000
     1.0000   1.0000   1.0000   1.0000   1.0000   1.0000   1.0000   1.0000
     1.0000   1.0000   1.0000   1.0000   1.0000   1.0000   1.0000   1.0000
     1.0000   1.0000   1.0000   1.0000   1.0000   1.0000   1.0000   1.0000
     1.0000   1.0000   1.0000   1.0000   1.0000   1.0000   1.0000   1.0000
     1.0000   1.0000   1.0000   1.0000   1.0000   1.0000   1.0000   1.0000
     1.0000   1.0000   1.0000   1.0000   1.0000   1.0000   1.0000   0.0000
     0.0000   0.0000

     highest occupied, lowest unoccupied level (ev):    11.1052   11.0980

!    total energy              =   -2359.60787227 Ry
     estimated scf accuracy    <       0.00000099 Ry

     The total energy is the sum of the following terms:
     one-electron contribution =    -416.84986446 Ry
     hartree contribution      =     328.82390436 Ry
     xc contribution           =    -287.82807810 Ry
     ewald contribution        =    -969.91593813 Ry
     one-center paw contrib.   =   -1013.83789594 Ry
      -> PAW hartree energy AE =       0.00000000 Ry
      -> PAW hartree energy PS =       0.00000000 Ry
      -> PAW xc energy AE      =       0.00000000 Ry
      -> PAW xc energy PS      =       0.00000000 Ry
      -> total E_H with PAW    =     328.82390436 Ry
      -> total E_XC with PAW   =    -287.82807810 Ry

     convergence has been achieved in 166 iterations

     Writing all to output data dir calculations_bands/myprefix.save/

     General routines

     Parallel routines

     PAW routines

   This run was terminated on:   8:17:17  23Jun2023

   JOB DONE.