     Program PWSCF v.7.0 starts on  6Jun2023 at 15:44:27

     K-points division:     npool     =       2
     R & G space division:  proc/nbgrp/npool/nimage =       4

     Reading input from espresso_19282.pwi
Warning: card &CELL ignored
Warning: card / ignored

     Current dimensions of program PWSCF are:
     Max number of different atomic species (ntypx) = 10
     Max number of k-points (npk) =  40000
     Max angular momentum in pseudopotentials (lmaxx) =  4
     Message from routine setup:
     using ibrav=0 with symmetry is DISCOURAGED, use correct ibrav instead

     Using Slab Decomposition

     bravais-lattice index     =            0
     lattice parameter (alat)  =      14.5151  a.u.
     unit-cell volume          =     675.8668 (a.u.)^3
     number of atoms/cell      =            6
     number of atomic types    =            3
     number of electrons       =        78.00
     number of Kohn-Sham states=           64
     kinetic-energy cutoff     =      30.0000  Ry
     charge density cutoff     =     240.0000  Ry
     scf convergence threshold =      1.0E-06
     mixing beta               =       0.7000
     number of iterations used =            8  plain     mixing
     Exchange-correlation=  SLA  PW   PBX  PBC
                           (   1   4   3   4   0   0   0)

     celldm(1)=  14.515139  celldm(2)=   0.000000  celldm(3)=   0.000000
     celldm(4)=   0.000000  celldm(5)=   0.000000  celldm(6)=   0.000000

     crystal axes: (cart. coord. in units of alat)
               a(1) = (   1.000000   0.000000   0.000000 )
               a(2) = (   0.764726   0.644356   0.000000 )
               a(3) = (  -0.882363  -0.322178   0.342983 )

     reciprocal axes: (cart. coord. in units 2 pi/alat)
               b(1) = (  1.000000 -1.186807  1.457800 )
               b(2) = (  0.000000  1.551938  1.457800 )
               b(3) = (  0.000000  0.000000  2.915601 )

     PseudoPot. # 1 for Hf read from file:
     /home/pragov/projects/rrg-bengioy-ad/pragov/crystal_structure_design/SSSP/Hf-sp.oncvpsp.upf
     MD5 check sum: 417ed15784afe83d2e06dacf143de3f8
     Pseudo is Norm-conserving + core correction, Zval = 12.0
     Generated using ONCVPSP code by D. R. Hamann
     Using radial grid of 1656 points,  8 beta functions with:
                l(1) =   0
                l(2) =   0
                l(3) =   1
                l(4) =   1
                l(5) =   2
                l(6) =   2
                l(7) =   3
                l(8) =   3

     PseudoPot. # 2 for V  read from file:
     /home/pragov/projects/rrg-bengioy-ad/pragov/crystal_structure_design/SSSP/v_pbe_v1.4.uspp.F.UPF
     MD5 check sum: 22b79981416ebb76fdaf5b1b8640f6fb
     Pseudo is Ultrasoft + core correction, Zval = 13.0
     Generated by new atomic code, or converted to UPF format
     Using radial grid of  853 points,  6 beta functions with:
                l(1) =   0
                l(2) =   0
                l(3) =   1
                l(4) =   1
                l(5) =   2
                l(6) =   2
     Q(r) pseudized with  8 coefficients,  rinner =    1.100   1.100   1.100
                                                       1.100   1.100

     PseudoPot. # 3 for Ge read from file:
     /home/pragov/projects/rrg-bengioy-ad/pragov/crystal_structure_design/SSSP/ge_pbe_v1.4.uspp.F.UPF
     MD5 check sum: 9c9eaa91e581c3f09632fb3098b2c6b2
     Pseudo is Ultrasoft + core correction, Zval = 14.0
     Generated by new atomic code, or converted to UPF format
     Using radial grid of  873 points,  6 beta functions with:
                l(1) =   0
                l(2) =   0
                l(3) =   1
                l(4) =   1
                l(5) =   2
                l(6) =   2
     Q(r) pseudized with  8 coefficients,  rinner =    1.400   1.400   1.400
                                                       1.400   1.400

     atomic species   valence    mass     pseudopotential
        Hf            12.00   178.49000     Hf( 1.00)
        V             13.00    50.94150     V ( 1.00)
        Ge            14.00    72.63000     Ge( 1.00)

      4 Sym. Ops., with inversion, found

                                    s                        frac. trans.

      isym =  1     identity

 cryst.   s( 1) = (     1          0          0      )
                  (     0          1          0      )
                  (     0          0          1      )

 cart.    s( 1) = (  1.0000000 -0.0000000  0.0000000 )
                  (  0.0000000  1.0000000 -0.0000000 )
                  (  0.0000000  0.0000000  1.0000000 )

      isym =  2     180 deg rotation - cart. axis [0,0,1]

[...]

      isym =  3     inversion

[...]

      isym =  4     inv. 180 deg rotation - cart. axis [0,0,1]

 cryst.   s( 4) = (     1          0          0      )
                  (     0          1          0      )
                  (    -1         -1         -1      )

 cart.    s( 4) = (  1.0000000 -0.0000000 -0.0000000 )
                  (  0.0000000  1.0000000 -0.0000000 )
                  (  0.0000000  0.0000000 -1.0000000 )

   Cartesian axes

     site n.     atom                  positions (alat units)
         1           Hf  tau(   1) = (   1.1943348   0.4360883   0.0000000  )
         2           Hf  tau(   2) = (   0.5703912   0.2082673   0.0000000  )
         3           V   tau(   3) = (   0.0588185  -0.1610889   0.1714913  )
         4           V   tau(   4) = (  -0.0588185   0.1610889   0.1714913  )
         5           Ge  tau(   5) = (   0.2258849   0.0824775   0.0000000  )
         6           Ge  tau(   6) = (   1.5388411   0.5618781   0.0000000  )

   Crystallographic axes

     site n.     atom                  positions (cryst. coord.)
         1           Hf  tau(   1) = (  0.6767820  0.6767820  0.0000000  )
         2           Hf  tau(   2) = (  0.3232180  0.3232180  0.0000000  )
         3           V   tau(   3) = (  0.5000000 -0.0000000  0.5000000  )
         4           V   tau(   4) = ( -0.0000000  0.5000000  0.5000000  )
         5           Ge  tau(   5) = (  0.1280000  0.1280000  0.0000000  )
         6           Ge  tau(   6) = (  0.8720000  0.8720000  0.0000000  )

     number of k points=    10
                       cart. coord. in units 2pi/alat
        k(    1) = (   0.0000000   0.0000000   0.0000000), wk =   0.0740741
        k(    2) = (   0.0000000   0.0000000   0.9718669), wk =   0.1481481
        k(    3) = (   0.0000000   0.5173127   0.4859334), wk =   0.2962963
        k(    4) = (   0.0000000   0.5173127   1.4578003), wk =   0.1481481
        k(    5) = (   0.3333333  -0.3956025   0.4859334), wk =   0.2962963
        k(    6) = (   0.3333333  -0.3956025   1.4578003), wk =   0.1481481
        k(    7) = (   0.3333333   0.1217102   0.9718669), wk =   0.2962963
        k(    8) = (   0.3333333   0.1217102  -0.0000000), wk =   0.1481481
        k(    9) = (   0.3333333  -0.9129152  -0.0000000), wk =   0.1481481
        k(   10) = (   0.3333333  -0.9129152   0.9718669), wk =   0.2962963

                       cryst. coord.
        k(    1) = (   0.0000000   0.0000000   0.0000000), wk =   0.0740741
        k(    2) = (   0.0000000   0.0000000   0.3333333), wk =   0.1481481
        k(    3) = (   0.0000000   0.3333333   0.0000000), wk =   0.2962963
        k(    4) = (   0.0000000   0.3333333   0.3333333), wk =   0.1481481
        k(    5) = (   0.3333333  -0.0000000   0.0000000), wk =   0.2962963
        k(    6) = (   0.3333333  -0.0000000   0.3333333), wk =   0.1481481
        k(    7) = (   0.3333333   0.3333333   0.0000000), wk =   0.2962963
        k(    8) = (   0.3333333   0.3333333  -0.3333333), wk =   0.1481481
        k(    9) = (   0.3333333  -0.3333333   0.0000000), wk =   0.1481481
        k(   10) = (   0.3333333  -0.3333333   0.3333333), wk =   0.2962963

     Check: negative core charge=   -0.000003

     Initial potential from superposition of free atoms

     starting charge      77.9921, renormalised to      78.0000

     negative rho (up, down):  1.786E-03 0.000E+00
     Starting wfcs are   58 randomized atomic wfcs +    6 random wfcs

     Self-consistent Calculation

     iteration #  1     ecut=    30.00 Ry     beta= 0.70
     Davidson diagonalization with overlap

     ethr =  1.00E-02,  avg # of iterations =  3.8

     negative rho (up, down):  2.014E-03 0.000E+00

     total energy              =    -941.97622166 Ry
     estimated scf accuracy    <       1.56255740 Ry

[...]

     total energy              =    -943.15356170 Ry
     estimated scf accuracy    <       0.00000103 Ry

     iteration # 10     ecut=    30.00 Ry     beta= 0.70
     Davidson diagonalization with overlap

     ethr =  1.33E-09,  avg # of iterations =  1.0

     negative rho (up, down):  2.691E-03 0.000E+00

     End of self-consistent calculation

          k = 0.0000 0.0000 0.0000 (  1907 PWs)   bands (ev):

   -49.1127 -48.9717 -46.4719 -46.4364 -23.1492 -23.1492 -22.9707 -22.8404
   -22.6130 -22.6130 -15.2351 -15.2351 -15.2285 -15.1291 -15.1291 -15.0821
    -8.7298  -8.7295  -8.7201  -8.7195  -8.7186  -8.7181  -8.7181  -8.7107
    -8.7099  -8.7099   4.2839   5.8426   9.5162  12.0785  12.9398  12.9398
    12.9562  13.3844  13.6658  14.0573  14.3330  14.7980  14.7980  16.0177
    16.0177  17.0883  17.2172  17.2172  17.5365  17.5921  17.8534  18.3397
    18.5143  18.6639  18.6639  19.5300  19.9018  21.1498  21.1498  22.9816
    22.9816  23.0218  23.6611  23.7400  25.9122  26.0320  26.6569  29.2854

     occupation numbers
     1.0000   1.0000   1.0000   1.0000   1.0000   1.0000   1.0000   1.0000
     1.0000   1.0000   1.0000   1.0000   1.0000   1.0000   1.0000   1.0000
     1.0000   1.0000   1.0000   1.0000   1.0000   1.0000   1.0000   1.0000
     1.0000   1.0000   1.0000   1.0000   1.0000   1.0000   1.0000   1.0000
     1.0000   1.0000   1.0000   1.0000   1.0000   1.0000   1.0000   0.0000
     0.0000   0.0000   0.0000   0.0000   0.0000   0.0000   0.0000   0.0000
     0.0000   0.0000   0.0000   0.0000   0.0000   0.0000   0.0000   0.0000
     0.0000   0.0000   0.0000   0.0000   0.0000   0.0000   0.0000   0.0000

[...]

          k = 0.3333-0.9129 0.9719 (  1864 PWs)   bands (ev):

   -49.0767 -49.0061 -46.4384 -46.4229 -23.0702 -23.0557 -22.9345 -22.8690
   -22.7178 -22.7056 -15.3145 -15.2815 -15.1998 -15.1471 -15.1212 -15.0738
    -8.7177  -8.7168  -8.7137  -8.7118  -8.7114  -8.7085  -8.7041  -8.7040
    -8.7026  -8.6987   5.8066   6.0559  10.4790  10.4975  11.3388  12.8095
    13.1240  13.3362  13.5013  14.1139  14.5913  14.7077  15.3239  15.4100
    15.8124  16.0082  16.0870  16.2124  16.7864  17.6406  17.8120  18.0442
    18.8655  19.3785  19.5365  19.8715  21.5187  21.5753  22.0388  22.5214
    23.0723  24.5237  24.7203  25.2582  26.4075  26.8148  26.8306  28.2657

     occupation numbers
     1.0000   1.0000   1.0000   1.0000   1.0000   1.0000   1.0000   1.0000
     1.0000   1.0000   1.0000   1.0000   1.0000   1.0000   1.0000   1.0000
     1.0000   1.0000   1.0000   1.0000   1.0000   1.0000   1.0000   1.0000
     1.0000   1.0000   1.0000   1.0000   1.0000   1.0000   1.0000   1.0000
     1.0000   1.0000   1.0000   1.0000   1.0000   1.0000   1.0000   0.0000
     0.0000   0.0000   0.0000   0.0000   0.0000   0.0000   0.0000   0.0000
     0.0000   0.0000   0.0000   0.0000   0.0000   0.0000   0.0000   0.0000
     0.0000   0.0000   0.0000   0.0000   0.0000   0.0000   0.0000   0.0000

     highest occupied, lowest unoccupied level (ev):    15.3239   14.6530

!    total energy              =    -943.15356178 Ry
     estimated scf accuracy    <          1.3E-09 Ry

     The total energy is the sum of the following terms:
     one-electron contribution =    -388.67878473 Ry
     hartree contribution      =     246.89560842 Ry
     xc contribution           =    -213.17284467 Ry
     ewald contribution        =    -588.19754079 Ry

     convergence has been achieved in  10 iterations

     Writing all to output data dir calculations_bands/myprefix.save/

     General routines

     Parallel routines

   This run was terminated on:  15:44:38   6Jun2023

   JOB DONE.