     Program PWSCF v.7.0 starts on  6Jun2023 at  4:47:20

     K-points division:     npool     =       2
     R & G space division:  proc/nbgrp/npool/nimage =       4

     Reading input from espresso_13535.pwi
Warning: card &CELL ignored
Warning: card / ignored

     Current dimensions of program PWSCF are:
     Max number of different atomic species (ntypx) = 10
     Max number of k-points (npk) =  40000
     Max angular momentum in pseudopotentials (lmaxx) =  4
     file Nb.pbe-spn-kjpaw_psl.0.3.0.UPF: wavefunction(s)  4S 4P renormalized
     Message from routine setup:
     using ibrav=0 with symmetry is DISCOURAGED, use correct ibrav instead

     Using Slab Decomposition

     bravais-lattice index     =            0
     lattice parameter (alat)  =      11.6997  a.u.
     unit-cell volume          =     434.7255 (a.u.)^3
     number of atoms/cell      =            4
     number of atomic types    =            2
     number of electrons       =        36.00
     number of Kohn-Sham states=           64
     kinetic-energy cutoff     =      30.0000  Ry
     charge density cutoff     =     240.0000  Ry
     scf convergence threshold =      1.0E-06
     mixing beta               =       0.7000
     number of iterations used =            8  plain     mixing
     Exchange-correlation= PBE
                           (   1   4   3   4   0   0   0)

     celldm(1)=  11.699669  celldm(2)=   0.000000  celldm(3)=   0.000000
     celldm(4)=   0.000000  celldm(5)=   0.000000  celldm(6)=   0.000000

     crystal axes: (cart. coord. in units of alat)
               a(1) = (   1.000000   0.000000   0.000000 )
               a(2) = (   0.706094   0.708118   0.000000 )
               a(3) = (  -0.853047  -0.354059   0.383344 )

     reciprocal axes: (cart. coord. in units 2 pi/alat)
               b(1) = (  1.000000 -0.997143  1.304311 )
               b(2) = (  0.000000  1.412195  1.304311 )
               b(3) = (  0.000000  0.000000  2.608622 )

     PseudoPot. # 1 for Nb read from file:
     /home/pragov/projects/rrg-bengioy-ad/pragov/crystal_structure_design/SSSP/Nb.pbe-spn-kjpaw_psl.0.3.0.UPF
     MD5 check sum: 411d72ad547312f8017e2943ceca08cc
     Pseudo is Projector augmented-wave + core cor, Zval = 13.0
     Generated using "atomic" code by A. Dal Corso  v.5.0.99 svn rev. 10869
     Shape of augmentation charge: PSQ
     Using radial grid of 1227 points,  6 beta functions with:
                l(1) =   0
                l(2) =   0
                l(3) =   1
                l(4) =   1
                l(5) =   2
                l(6) =   2
     Q(r) pseudized with 0 coefficients

     PseudoPot. # 2 for P  read from file:
     /home/pragov/projects/rrg-bengioy-ad/pragov/crystal_structure_design/SSSP/P.pbe-n-rrkjus_psl.1.0.0.UPF
     MD5 check sum: 8b930f418f0a4573dca56cd030ffe088
     Pseudo is Ultrasoft + core correction, Zval =  5.0
     Generated using "atomic" code by A. Dal Corso  v.5.1
     Using radial grid of 1147 points,  6 beta functions with:
                l(1) =   0
                l(2) =   0
                l(3) =   1
                l(4) =   1
                l(5) =   2
                l(6) =   2
     Q(r) pseudized with 0 coefficients

     atomic species   valence    mass     pseudopotential
        Nb            13.00    92.90637     Nb( 1.00)
        P              5.00    30.97376     P ( 1.00)

      2 Sym. Ops. (no inversion) found ( 1 have fractional translation)

                                    s                        frac. trans.

      isym =  1     identity

 cryst.   s( 1) = (     1          0          0      )
                  (     0          1          0      )
                  (     0          0          1      )

 cart.    s( 1) = (  1.0000000 -0.0000000  0.0000000 )
                  (  0.0000000  1.0000000 -0.0000000 )
                  (  0.0000000  0.0000000  1.0000000 )

      isym =  2     inv. 180 deg rotation - cart. axis [0,0,1]

 cryst.   s( 2) = (     1          0          0      )    f =(  0.2500000 )
                  (     0          1          0      )       ( -0.2500000 )
                  (    -1         -1         -1      )       ( -0.5000000 )

 cart.    s( 2) = (  1.0000000 -0.0000000  0.0000000 )    f =(  0.5000000 )
                  (  0.0000000  1.0000000  0.0000000 )       (  0.0000000 )
                  (  0.0000000  0.0000000 -1.0000000 )       ( -0.1916721 )

   Cartesian axes

     site n.     atom                  positions (alat units)
         1           Nb  tau(   1) = (   1.2794394   0.5310338   0.0000000  )
         2           Nb  tau(   2) = (   0.7794394   0.5310338   0.1916721  )
         3           P   tau(   3) = (   0.2856804   0.1185722   0.0000000  )
         4           P   tau(   4) = (   0.7856804   0.1185722   0.1916721  )

   Crystallographic axes

     site n.     atom                  positions (cryst. coord.)
         1           Nb  tau(   1) = (  0.7499230  0.7499230  0.0000000  )
         2           Nb  tau(   2) = (  0.4999230  0.9999230  0.5000000  )
         3           P   tau(   3) = (  0.1674470  0.1674470  0.0000000  )
         4           P   tau(   4) = (  0.9174470  0.4174470  0.5000000  )

     number of k points=    10
                       cart. coord. in units 2pi/alat
        k(    1) = (   0.0000000   0.0000000   0.0000000), wk =   0.0740741
        k(    2) = (   0.0000000   0.0000000   0.8695405), wk =   0.1481481
        k(    3) = (   0.0000000   0.4707315   0.4347703), wk =   0.2962963
        k(    4) = (   0.0000000   0.4707315   1.3043108), wk =   0.1481481
        k(    5) = (   0.3333333  -0.3323809   0.4347703), wk =   0.2962963
        k(    6) = (   0.3333333  -0.3323809   1.3043108), wk =   0.1481481
        k(    7) = (   0.3333333   0.1383506   0.8695405), wk =   0.2962963
        k(    8) = (   0.3333333   0.1383506   0.0000000), wk =   0.1481481
        k(    9) = (   0.3333333  -0.8031124   0.0000000), wk =   0.1481481
        k(   10) = (   0.3333333  -0.8031124   0.8695405), wk =   0.2962963

                       cryst. coord.
        k(    1) = (   0.0000000   0.0000000   0.0000000), wk =   0.0740741
        k(    2) = (   0.0000000   0.0000000   0.3333333), wk =   0.1481481
        k(    3) = (   0.0000000   0.3333333   0.0000000), wk =   0.2962963
        k(    4) = (   0.0000000   0.3333333   0.3333333), wk =   0.1481481
        k(    5) = (   0.3333333   0.0000000   0.0000000), wk =   0.2962963
        k(    6) = (   0.3333333   0.0000000   0.3333333), wk =   0.1481481
        k(    7) = (   0.3333333   0.3333333  -0.0000000), wk =   0.2962963
        k(    8) = (   0.3333333   0.3333333  -0.3333333), wk =   0.1481481
        k(    9) = (   0.3333333  -0.3333333   0.0000000), wk =   0.1481481
        k(   10) = (   0.3333333  -0.3333333   0.3333333), wk =   0.2962963

     Check: negative core charge=   -0.000015

     Initial potential from superposition of free atoms

     starting charge      35.9954, renormalised to      36.0000
     Starting wfcs are   28 randomized atomic wfcs +   36 random wfcs
     Checking if some PAW data can be deallocated...

     Self-consistent Calculation

     iteration #  1     ecut=    30.00 Ry     beta= 0.70
     Davidson diagonalization with overlap

     ethr =  1.00E-02,  avg # of iterations =  6.9

     total energy              =    -696.57646497 Ry
     estimated scf accuracy    <       0.64673302 Ry

[...]

     total energy              =    -696.89131604 Ry
     estimated scf accuracy    <       0.00000113 Ry

     iteration #  6     ecut=    30.00 Ry     beta= 0.70
     Davidson diagonalization with overlap

     ethr =  3.13E-09,  avg # of iterations =  3.1

     End of self-consistent calculation

          k = 0.0000 0.0000 0.0000 (  1215 PWs)   bands (ev):

   -40.0910 -40.0526 -16.3412 -16.1735 -16.1735 -16.0049 -16.0049 -15.9573
     2.2390   4.6617   8.7934  11.9282  12.7011  12.7011  12.7962  13.2372
    13.5818  13.5818  15.7215  16.5025  17.6087  18.0508  18.0508  18.3968
    18.9967  18.9967  20.8908  21.1230  23.4587  25.0983  25.8681  25.8681
    25.9490  27.7829  27.7829  28.0348  28.3292  31.9897  33.1292  33.1292
    33.7035  33.8728  35.2790  36.9579  36.9579  37.4247  38.4500  38.7268
    38.7268  38.8588  41.9848  43.2417  43.2417  43.7388  44.2749  44.2933
    45.0316  45.0316  45.4919  46.5584  46.8093  46.8093  47.1090  48.1540

     occupation numbers
     1.0000   1.0000   1.0000   1.0000   1.0000   1.0000   1.0000   1.0000
     1.0000   1.0000   1.0000   1.0000   1.0000   1.0000   1.0000   1.0000
     1.0000   1.0000   0.0000   0.0000   0.0000   0.0000   0.0000   0.0000
     0.0000   0.0000   0.0000   0.0000   0.0000   0.0000   0.0000   0.0000
     0.0000   0.0000   0.0000   0.0000   0.0000   0.0000   0.0000   0.0000
     0.0000   0.0000   0.0000   0.0000   0.0000   0.0000   0.0000   0.0000
     0.0000   0.0000   0.0000   0.0000   0.0000   0.0000   0.0000   0.0000
     0.0000   0.0000   0.0000   0.0000   0.0000   0.0000   0.0000   0.0000

[...]

          k = 0.3333-0.8031 0.8695 (  1202 PWs)   bands (ev):

   -40.0635 -40.0546 -16.3951 -16.2145 -16.1594 -16.1388 -16.0631 -15.9805
     4.0580   4.2465   9.4253   9.8437  12.0003  12.0562  12.1234  12.7183
    13.5860  14.6400  15.5424  16.3168  16.9015  17.3878  17.9936  18.8544
    19.5614  20.4526  21.2434  23.6116  24.2900  25.6877  25.9725  26.1279
    26.2557  27.2892  28.6252  29.1958  29.9883  30.3611  31.3144  31.8562
    33.6041  33.9282  34.5494  35.2062  37.2327  37.7240  38.5833  38.9876
    39.6840  41.2095  41.4308  41.8434  42.0584  42.7583  43.4761  44.4904
    45.0303  45.7343  46.1866  46.4704  46.8085  47.2473  48.3083  48.3412

     occupation numbers
     1.0000   1.0000   1.0000   1.0000   1.0000   1.0000   1.0000   1.0000
     1.0000   1.0000   1.0000   1.0000   1.0000   1.0000   1.0000   1.0000
     1.0000   1.0000   0.0000   0.0000   0.0000   0.0000   0.0000   0.0000
     0.0000   0.0000   0.0000   0.0000   0.0000   0.0000   0.0000   0.0000
     0.0000   0.0000   0.0000   0.0000   0.0000   0.0000   0.0000   0.0000
     0.0000   0.0000   0.0000   0.0000   0.0000   0.0000   0.0000   0.0000
     0.0000   0.0000   0.0000   0.0000   0.0000   0.0000   0.0000   0.0000
     0.0000   0.0000   0.0000   0.0000   0.0000   0.0000   0.0000   0.0000

     highest occupied, lowest unoccupied level (ev):    14.6653   15.0545

!    total energy              =    -696.89131680 Ry
     estimated scf accuracy    <       0.00000020 Ry

     The total energy is the sum of the following terms:
     one-electron contribution =     -37.16134233 Ry
     hartree contribution      =      39.38572522 Ry
     xc contribution           =     -66.80207884 Ry
     ewald contribution        =    -215.34496267 Ry
     one-center paw contrib.   =    -416.96865819 Ry
      -> PAW hartree energy AE =      68.45463003 Ry
      -> PAW hartree energy PS =     -68.08578699 Ry
      -> PAW xc energy AE      =    -235.85423260 Ry
      -> PAW xc energy PS      =      27.00106046 Ry
      -> total E_H with PAW    =      39.75456827 Ry
      -> total E_XC with PAW   =    -275.65525098 Ry

     convergence has been achieved in   6 iterations

     Writing all to output data dir calculations_bands/myprefix.save/

     General routines

     Parallel routines

     PAW routines

   This run was terminated on:   4:47:28   6Jun2023

   JOB DONE.