     Program PWSCF v.7.0 starts on  5Jun2023 at 22:46:39

     K-points division:     npool     =       2
     R & G space division:  proc/nbgrp/npool/nimage =       4

     Reading input from espresso_12175.pwi
Warning: card &CELL ignored
Warning: card / ignored

     Current dimensions of program PWSCF are:
     Max number of different atomic species (ntypx) = 10
     Max number of k-points (npk) =  40000
     Max angular momentum in pseudopotentials (lmaxx) =  4
     Message from routine setup:
     using ibrav=0 with symmetry is DISCOURAGED, use correct ibrav instead

     Using Slab Decomposition

     bravais-lattice index     =            0
     lattice parameter (alat)  =       7.3781  a.u.
     unit-cell volume          =     443.3741 (a.u.)^3
     number of atoms/cell      =            6
     number of atomic types    =            2
     number of electrons       =        80.00
     number of Kohn-Sham states=           64
     kinetic-energy cutoff     =      30.0000  Ry
     charge density cutoff     =     240.0000  Ry
     scf convergence threshold =      1.0E-06
     mixing beta               =       0.7000
     number of iterations used =            8  plain     mixing
     Exchange-correlation=  SLA  PW   PBX  PBC
                           (   1   4   3   4   0   0   0)

     celldm(1)=   7.378060  celldm(2)=   0.000000  celldm(3)=   0.000000
     celldm(4)=   0.000000  celldm(5)=   0.000000  celldm(6)=   0.000000

     crystal axes: (cart. coord. in units of alat)
               a(1) = (   1.000000   0.000000   0.000000 )
               a(2) = (  -0.500000   0.866025   0.000000 )
               a(3) = (   0.000000   0.000000   1.274715 )

     reciprocal axes: (cart. coord. in units 2 pi/alat)
               b(1) = (  1.000000  0.577350  0.000000 )
               b(2) = (  0.000000  1.154700  0.000000 )
               b(3) = (  0.000000  0.000000  0.784489 )

     PseudoPot. # 1 for Si read from file:
     /home/pragov/projects/rrg-bengioy-ad/pragov/crystal_structure_design/SSSP/Si.pbe-n-rrkjus_psl.1.0.0.UPF
     MD5 check sum: 0b0bb1205258b0d07b9f9672cf965d36
     Pseudo is Ultrasoft + core correction, Zval =  4.0
     Generated using "atomic" code by A. Dal Corso  v.5.1
     Using radial grid of 1141 points,  6 beta functions with:
                l(1) =   0
                l(2) =   0
                l(3) =   1
                l(4) =   1
                l(5) =   2
                l(6) =   2
     Q(r) pseudized with 0 coefficients

     PseudoPot. # 2 for Ni read from file:
     /home/pragov/projects/rrg-bengioy-ad/pragov/crystal_structure_design/SSSP/ni_pbe_v1.4.uspp.F.UPF
     MD5 check sum: 1ee80287db30b12d2bc1f57a5b5d6409
     Pseudo is Ultrasoft + core correction, Zval = 18.0
     Generated by new atomic code, or converted to UPF format
     Using radial grid of  865 points,  6 beta functions with:
                l(1) =   0
                l(2) =   0
                l(3) =   1
                l(4) =   1
                l(5) =   2
                l(6) =   2
     Q(r) pseudized with 10 coefficients,  rinner =    0.980   0.980   0.980
                                                       0.980   0.980

     atomic species   valence    mass     pseudopotential
        Si             4.00    28.08500     Si( 1.00)
        Ni            18.00    58.69340     Ni( 1.00)

     24 Sym. Ops., with inversion, found (12 have fractional translation)

                                    s                        frac. trans.

      isym =  1     identity

 cryst.   s( 1) = (     1          0          0      )
                  (     0          1          0      )
                  (     0          0          1      )

 cart.    s( 1) = (  1.0000000  0.0000000  0.0000000 )
                  (  0.0000000  1.0000000  0.0000000 )
                  (  0.0000000  0.0000000  1.0000000 )

      isym =  2     180 deg rotation - cart. axis [0,0,1]

 cryst.   s( 2) = (    -1          0          0      )    f =(  0.0000000 )
                  (     0         -1          0      )       (  0.0000000 )
                  (     0          0          1      )       ( -0.5000000 )

 cart.    s( 2) = ( -1.0000000 -0.0000000  0.0000000 )    f =(  0.0000000 )
                  (  0.0000000 -1.0000000  0.0000000 )       (  0.0000000 )
                  (  0.0000000  0.0000000  1.0000000 )       ( -0.6373574 )

[...]

      isym =  4     180 deg rotation - cart. axis [1,0,0]

[...]

      isym =  5      60 deg rotation - cryst. axis [0,0,1]

[...]

 cryst.   s( 8) = (    -1         -1          0      )
                  (     1          0          0      )
                  (     0          0          1      )

 cart.    s( 8) = ( -0.5000002  0.8660253  0.0000000 )
                  ( -0.8660255 -0.4999998  0.0000000 )
                  (  0.0000000  0.0000000  1.0000000 )

[...]

 cryst.   s( 9) = (     0         -1          0      )    f =( -0.0000000 )
                  (    -1          0          0      )       ( -0.0000000 )
                  (     0          0         -1      )       (  0.5000000 )

 cart.    s( 9) = (  0.4999998 -0.8660255  0.0000000 )    f =( -0.0000000 )
                  ( -0.8660255 -0.4999998  0.0000000 )       ( -0.0000000 )
                  (  0.0000000  0.0000000 -1.0000000 )       (  0.6373574 )

[...]

 cryst.   s(10) = (     1          1          0      )    f =(  0.0000000 )
                  (     0         -1          0      )       (  0.0000010 )
                  (     0          0         -1      )       (  0.5000000 )

 cart.    s(10) = (  0.5000002  0.8660251  0.0000000 )    f =( -0.0000005 )
                  (  0.8660255 -0.5000002  0.0000000 )       (  0.0000009 )
                  (  0.0000000  0.0000000 -1.0000000 )       (  0.6373574 )

[...]

 cryst.   s(11) = (    -1         -1          0      )
                  (     0          1          0      )
                  (     0          0         -1      )

 cart.    s(11) = ( -0.5000002 -0.8660251  0.0000000 )
                  ( -0.8660255  0.5000002  0.0000000 )
                  (  0.0000000  0.0000000 -1.0000000 )

      isym = 12     180 deg rotation - cryst. axis [1,1,0]

[...]

      isym = 13     inversion

[...]

      isym = 14     inv. 180 deg rotation - cart. axis [0,0,1]

[...]

      isym = 16     inv. 180 deg rotation - cart. axis [1,0,0]

[...]

      isym = 17     inv.  60 deg rotation - cryst. axis [0,0,1]

[...]

 cryst.   s(22) = (    -1         -1          0      )    f =(  0.0000000 )
                  (     0          1          0      )       (  0.0000010 )
                  (     0          0          1      )       ( -0.5000000 )

 cart.    s(22) = ( -0.5000002 -0.8660251  0.0000000 )    f =( -0.0000005 )
                  ( -0.8660255  0.5000002  0.0000000 )       (  0.0000009 )
                  (  0.0000000  0.0000000  1.0000000 )       ( -0.6373574 )

[...]

      isym = 24     inv. 180 deg rotation - cryst. axis [1,1,0]

 cryst.   s(24) = (     0         -1          0      )
                  (    -1          0          0      )
                  (     0          0          1      )

 cart.    s(24) = (  0.4999998 -0.8660255  0.0000000 )
                  ( -0.8660255 -0.4999998  0.0000000 )
                  (  0.0000000  0.0000000  1.0000000 )

   Cartesian axes

     site n.     atom                  positions (alat units)
         1           Si  tau(   1) = (   0.5000006   0.2886749   0.3186787  )
         2           Si  tau(   2) = (  -0.0000004   0.5773506   0.9560361  )
         3           Ni  tau(   3) = (  -0.0000004   0.5773506   0.3186787  )
         4           Ni  tau(   4) = (   0.5000006   0.2886749   0.9560361  )
         5           Ni  tau(   5) = (   0.0000000   0.0000000   0.6373574  )
         6           Ni  tau(   6) = (   0.0000000   0.0000000   0.0000000  )

   Crystallographic axes

     site n.     atom                  positions (cryst. coord.)
         1           Si  tau(   1) = (  0.6666670  0.3333330  0.2500000  )
         2           Si  tau(   2) = (  0.3333330  0.6666670  0.7500000  )
         3           Ni  tau(   3) = (  0.3333330  0.6666670  0.2500000  )
         4           Ni  tau(   4) = (  0.6666670  0.3333330  0.7500000  )
         5           Ni  tau(   5) = (  0.0000000  0.0000000  0.5000000  )
         6           Ni  tau(   6) = (  0.0000000  0.0000000  0.0000000  )

     number of k points=     6
                       cart. coord. in units 2pi/alat
        k(    1) = (   0.0000000   0.0000000   0.0000000), wk =   0.0740741
        k(    2) = (   0.0000000   0.0000000   0.2614964), wk =   0.1481481
        k(    3) = (   0.0000000   0.3849001   0.0000000), wk =   0.4444444
        k(    4) = (   0.0000000   0.3849001   0.2614964), wk =   0.8888889
        k(    5) = (   0.3333333   0.5773501   0.0000000), wk =   0.1481481
        k(    6) = (   0.3333333   0.5773501   0.2614964), wk =   0.2962963

                       cryst. coord.
        k(    1) = (   0.0000000   0.0000000   0.0000000), wk =   0.0740741
        k(    2) = (   0.0000000   0.0000000   0.3333333), wk =   0.1481481
        k(    3) = (   0.0000000   0.3333333   0.0000000), wk =   0.4444444
        k(    4) = (   0.0000000   0.3333333   0.3333333), wk =   0.8888889
        k(    5) = (   0.3333333   0.3333333   0.0000000), wk =   0.1481481
        k(    6) = (   0.3333333   0.3333333   0.3333333), wk =   0.2962963

     Check: negative core charge=   -0.000009

     Initial potential from superposition of free atoms

     starting charge      71.9989, renormalised to      80.0000
     Starting wfcs are   60 randomized atomic wfcs +    4 random wfcs

     Self-consistent Calculation

     iteration #  1     ecut=    30.00 Ry     beta= 0.70
     Davidson diagonalization with overlap

     ethr =  1.00E-02,  avg # of iterations =  5.7

     total energy              =   -1269.77890461 Ry
     estimated scf accuracy    <     194.41378342 Ry

[...]

     total energy              =   -1395.47238624 Ry
     estimated scf accuracy    <       0.00000117 Ry

     iteration # 19     ecut=    30.00 Ry     beta= 0.70
     Davidson diagonalization with overlap

     ethr =  1.30E-09,  avg # of iterations =  1.0

     End of self-consistent calculation

          k = 0.0000 0.0000 0.0000 (  1241 PWs)   bands (ev):

   -87.0756 -87.0682 -86.9674 -86.9473 -47.4615 -47.4615 -47.4574 -47.4387
   -47.4387 -47.3843 -47.3389 -47.3203 -47.2468 -47.2468 -47.2092 -47.2092
     4.3520   8.7270  10.4885  11.8238  11.8238  12.9041  12.9899  12.9899
    13.1381  13.1382  13.5972  13.5972  14.8727  14.8727  14.9568  15.3143
    15.3143  15.3817  15.3817  15.5800  16.0761  16.0761  16.7131  19.5163
    19.5725  19.5726  19.5822  19.5823  20.1719  21.1334  21.1336  22.2779
    25.1737  25.1738  25.9791  25.9792  26.4569  26.4569  26.7362  28.4785
    29.1684  29.5655  32.5997  37.7273  37.7274  39.6820  39.7705  40.0459

     occupation numbers
     1.0000   1.0000   1.0000   1.0000   1.0000   1.0000   1.0000   1.0000
     1.0000   1.0000   1.0000   1.0000   1.0000   1.0000   1.0000   1.0000
     1.0000   1.0000   1.0000   1.0000   1.0000   1.0000   1.0000   1.0000
     1.0000   1.0000   1.0000   1.0000   1.0000   1.0000   1.0000   1.0000
     1.0000   1.0000   1.0000   1.0000   1.0000   1.0000   1.0000   1.0000
     0.0000   0.0000   0.0000   0.0000   0.0000   0.0000   0.0000   0.0000
     0.0000   0.0000   0.0000   0.0000   0.0000   0.0000   0.0000   0.0000
     0.0000   0.0000   0.0000   0.0000   0.0000   0.0000   0.0000   0.0000

[...]

          k = 0.3333 0.5774 0.2615 (  1227 PWs)   bands (ev):

   -87.0704 -87.0703 -86.9573 -86.9556 -47.4761 -47.4508 -47.4490 -47.4489
   -47.4029 -47.3528 -47.3527 -47.3464 -47.2306 -47.2306 -47.2180 -47.2180
     7.9987   7.9988  10.4085  10.6265  10.6266  11.8347  12.9599  12.9600
    13.6808  13.8033  14.0428  14.0428  14.3875  14.3876  14.4193  14.7057
    15.0162  15.0163  15.3487  15.3718  15.3718  15.4873  15.4873  15.8318
    16.5950  16.5950  20.6660  20.6661  23.1397  23.9952  23.9953  24.5011
    25.2048  25.2048  25.7262  27.2097  27.2098  27.7337  32.3507  32.6954
    32.6954  34.4406  34.5201  34.5817  34.5817  36.4300  36.4300  37.8648

     occupation numbers
     1.0000   1.0000   1.0000   1.0000   1.0000   1.0000   1.0000   1.0000
     1.0000   1.0000   1.0000   1.0000   1.0000   1.0000   1.0000   1.0000
     1.0000   1.0000   1.0000   1.0000   1.0000   1.0000   1.0000   1.0000
     1.0000   1.0000   1.0000   1.0000   1.0000   1.0000   1.0000   1.0000
     1.0000   1.0000   1.0000   1.0000   1.0000   1.0000   1.0000   1.0000
     0.0000   0.0000   0.0000   0.0000   0.0000   0.0000   0.0000   0.0000
     0.0000   0.0000   0.0000   0.0000   0.0000   0.0000   0.0000   0.0000
     0.0000   0.0000   0.0000   0.0000   0.0000   0.0000   0.0000   0.0000

     highest occupied, lowest unoccupied level (ev):    19.5163   16.3484

!    total energy              =   -1395.47238638 Ry
     estimated scf accuracy    <          6.0E-09 Ry

     The total energy is the sum of the following terms:
     one-electron contribution =    -916.46955392 Ry
     hartree contribution      =     507.46071401 Ry
     xc contribution           =    -154.88030172 Ry
     ewald contribution        =    -831.58324476 Ry

     convergence has been achieved in  19 iterations

     Writing all to output data dir calculations_bands/myprefix.save/

     General routines

     Parallel routines

   This run was terminated on:  22:46:45   5Jun2023

   JOB DONE.