     Program PWSCF v.7.0 starts on  6Jun2023 at 10:49:33

     K-points division:     npool     =       2
     R & G space division:  proc/nbgrp/npool/nimage =       4

     Reading input from espresso_16358.pwi
Warning: card &CELL ignored
Warning: card / ignored

     Current dimensions of program PWSCF are:
     Max number of different atomic species (ntypx) = 10
     Max number of k-points (npk) =  40000
     Max angular momentum in pseudopotentials (lmaxx) =  4
     file O.pbe-n-kjpaw_psl.0.1.UPF: wavefunction(s)  2P renormalized
     Message from routine setup:
     using ibrav=0 with symmetry is DISCOURAGED, use correct ibrav instead

     Using Slab Decomposition

     bravais-lattice index     =            0
     lattice parameter (alat)  =       9.5988  a.u.
     unit-cell volume          =     996.0714 (a.u.)^3
     number of atoms/cell      =           12
     number of atomic types    =            3
     number of electrons       =       102.00
     number of Kohn-Sham states=           64
     kinetic-energy cutoff     =      30.0000  Ry
     charge density cutoff     =     240.0000  Ry
     scf convergence threshold =      1.0E-06
     mixing beta               =       0.7000
     number of iterations used =            8  plain     mixing
     Exchange-correlation= SLA  PW   PBX  PBC
                           (   1   4   3   4   0   0   0)

     celldm(1)=   9.598845  celldm(2)=   0.000000  celldm(3)=   0.000000
     celldm(4)=   0.000000  celldm(5)=   0.000000  celldm(6)=   0.000000

     crystal axes: (cart. coord. in units of alat)
               a(1) = (   1.000000   0.000000   0.000000 )
               a(2) = (   0.000000   1.218971   0.000000 )
               a(3) = (  -0.382556   0.000000   0.923932 )

     reciprocal axes: (cart. coord. in units 2 pi/alat)
               b(1) = (  1.000000  0.000000  0.414052 )
               b(2) = (  0.000000  0.820364  0.000000 )
               b(3) = (  0.000000  0.000000  1.082330 )

     PseudoPot. # 1 for V  read from file:
     /home/pragov/projects/rrg-bengioy-ad/pragov/crystal_structure_design/SSSP/v_pbe_v1.4.uspp.F.UPF
     MD5 check sum: 22b79981416ebb76fdaf5b1b8640f6fb
     Pseudo is Ultrasoft + core correction, Zval = 13.0
     Generated by new atomic code, or converted to UPF format
     Using radial grid of  853 points,  6 beta functions with:
                l(1) =   0
                l(2) =   0
                l(3) =   1
                l(4) =   1
                l(5) =   2
                l(6) =   2
     Q(r) pseudized with  8 coefficients,  rinner =    1.100   1.100   1.100
                                                       1.100   1.100

     PseudoPot. # 2 for Cr read from file:
     /home/pragov/projects/rrg-bengioy-ad/pragov/crystal_structure_design/SSSP/cr_pbe_v1.5.uspp.F.UPF
     MD5 check sum: 0d52af634a40206e4dee301ad30da4bf
     Pseudo is Ultrasoft + core correction, Zval = 14.0
     Generated by new atomic code, or converted to UPF format
     Using radial grid of  857 points,  6 beta functions with:
                l(1) =   0
                l(2) =   0
                l(3) =   1
                l(4) =   1
                l(5) =   2
                l(6) =   2
     Q(r) pseudized with  8 coefficients,  rinner =    0.950   0.950   0.950
                                                       0.950   0.950

     PseudoPot. # 3 for O  read from file:
     /home/pragov/projects/rrg-bengioy-ad/pragov/crystal_structure_design/SSSP/O.pbe-n-kjpaw_psl.0.1.UPF
     MD5 check sum: 0234752ac141de4415c5fc33072bef88
     Pseudo is Projector augmented-wave + core cor, Zval =  6.0
     Generated using "atomic" code by A. Dal Corso  v.5.0.99 svn rev. 10869
     Shape of augmentation charge: BESSEL
     Using radial grid of 1095 points,  4 beta functions with:
                l(1) =   0
                l(2) =   0
                l(3) =   1
                l(4) =   1
     Q(r) pseudized with 0 coefficients

     atomic species   valence    mass     pseudopotential
        V             13.00    50.94150     V ( 1.00)
        Cr            14.00    51.99610     Cr( 1.00)
        O              6.00    15.99900     O ( 1.00)

      4 Sym. Ops., with inversion, found ( 2 have fractional translation)

                                    s                        frac. trans.

      isym =  1     identity

 cryst.   s( 1) = (     1          0          0      )
                  (     0          1          0      )
                  (     0          0          1      )

 cart.    s( 1) = (  1.0000000  0.0000000  0.0000000 )
                  (  0.0000000  1.0000000  0.0000000 )
                  (  0.0000000  0.0000000  1.0000000 )

      isym =  2     180 deg rotation - cart. axis [0,1,0]

 cryst.   s( 2) = (    -1          0          0      )    f =( -0.0000000 )
                  (     0          1          0      )       (  0.5000000 )
                  (     0          0         -1      )       (  0.0000000 )

 cart.    s( 2) = ( -1.0000000  0.0000000 -0.0000000 )    f =( -0.0000000 )
                  (  0.0000000  1.0000000  0.0000000 )       (  0.6094855 )
                  (  0.0000000  0.0000000 -1.0000000 )       (  0.0000000 )

      isym =  3     inversion

 cryst.   s( 3) = (    -1          0          0      )
                  (     0         -1          0      )
                  (     0          0         -1      )

 cart.    s( 3) = ( -1.0000000  0.0000000 -0.0000000 )
                  (  0.0000000 -1.0000000  0.0000000 )
                  (  0.0000000  0.0000000 -1.0000000 )

      isym =  4     inv. 180 deg rotation - cart. axis [0,1,0]

 cryst.   s( 4) = (     1          0          0      )    f =(  0.0000000 )
                  (     0         -1          0      )       ( -0.5000000 )
                  (     0          0          1      )       (  0.0000000 )

 cart.    s( 4) = (  1.0000000  0.0000000  0.0000000 )    f =(  0.0000000 )
                  (  0.0000000 -1.0000000  0.0000000 )       ( -0.6094855 )
                  (  0.0000000  0.0000000  1.0000000 )       (  0.0000000 )

   Cartesian axes

     site n.     atom                  positions (alat units)
         1           V   tau(   1) = (   0.1081368   0.3047428   0.5960131  )
         2           V   tau(   2) = (   0.5093074   0.9142283   0.3279193  )
         3           Cr  tau(   3) = (   0.0000000   0.0000000   0.0000000  )
         4           Cr  tau(   4) = (   0.0000000   0.6094855   0.0000000  )
         5           O   tau(   5) = (   0.5056869   0.9142283   0.6863903  )
         6           O   tau(   6) = (   0.1117573   0.3047428   0.2375421  )
         7           O   tau(   7) = (   0.4407248   0.3047428   0.7298031  )
         8           O   tau(   8) = (   0.1767194   0.9142283   0.1941293  )
         9           O   tau(   9) = (   0.6752473   1.1796763   0.2170252  )
        10           O   tau(  10) = (  -0.0578031   0.5701908   0.7069071  )
        11           O   tau(  11) = (  -0.0578031   0.0392947   0.7069071  )
        12           O   tau(  12) = (   0.6752473   0.6487803   0.2170252  )

   Crystallographic axes

     site n.     atom                  positions (cryst. coord.)
         1           V   tau(   1) = (  0.3549170  0.2500000  0.6450830  )
         2           V   tau(   2) = (  0.6450830  0.7500000  0.3549170  )
         3           Cr  tau(   3) = (  0.0000000  0.0000000  0.0000000  )
         4           Cr  tau(   4) = (  0.0000000  0.5000000  0.0000000  )
         5           O   tau(   5) = (  0.7898880  0.7500000  0.7429010  )
         6           O   tau(   6) = (  0.2101120  0.2500000  0.2570990  )
         7           O   tau(   7) = (  0.7429010  0.2500000  0.7898880  )
         8           O   tau(   8) = (  0.2570990  0.7500000  0.2101120  )
         9           O   tau(   9) = (  0.7651070  0.9677640  0.2348930  )
        10           O   tau(  10) = (  0.2348930  0.4677640  0.7651070  )
        11           O   tau(  11) = (  0.2348930  0.0322360  0.7651070  )
        12           O   tau(  12) = (  0.7651070  0.5322360  0.2348930  )

     number of k points=    10
                       cart. coord. in units 2pi/alat
        k(    1) = (   0.0000000   0.0000000   0.0000000), wk =   0.0740741
        k(    2) = (   0.0000000   0.0000000   0.3607768), wk =   0.1481481
        k(    3) = (   0.0000000   0.2734547   0.0000000), wk =   0.1481481
        k(    4) = (   0.0000000   0.2734547   0.3607768), wk =   0.2962963
        k(    5) = (   0.3333333   0.0000000   0.1380172), wk =   0.1481481
        k(    6) = (   0.3333333   0.0000000   0.4987940), wk =   0.1481481
        k(    7) = (   0.3333333   0.0000000  -0.2227595), wk =   0.1481481
        k(    8) = (   0.3333333   0.2734547   0.1380172), wk =   0.2962963
        k(    9) = (   0.3333333   0.2734547   0.4987940), wk =   0.2962963
        k(   10) = (   0.3333333   0.2734547  -0.2227595), wk =   0.2962963

                       cryst. coord.
        k(    1) = (   0.0000000   0.0000000   0.0000000), wk =   0.0740741
        k(    2) = (   0.0000000   0.0000000   0.3333333), wk =   0.1481481
        k(    3) = (   0.0000000   0.3333333   0.0000000), wk =   0.1481481
        k(    4) = (   0.0000000   0.3333333   0.3333333), wk =   0.2962963
        k(    5) = (   0.3333333   0.0000000  -0.0000000), wk =   0.1481481
        k(    6) = (   0.3333333   0.0000000   0.3333333), wk =   0.1481481
        k(    7) = (   0.3333333   0.0000000  -0.3333333), wk =   0.1481481
        k(    8) = (   0.3333333   0.3333333  -0.0000000), wk =   0.2962963
        k(    9) = (   0.3333333   0.3333333   0.3333333), wk =   0.2962963
        k(   10) = (   0.3333333   0.3333333  -0.3333333), wk =   0.2962963

     Check: negative core charge=   -0.000018

     Initial potential from superposition of free atoms

     starting charge      99.9975, renormalised to     102.0000

     negative rho (up, down):  7.946E-03 0.000E+00
     Starting wfcs are   72 randomized atomic wfcs
     Checking if some PAW data can be deallocated...

     Self-consistent Calculation

     iteration #  1     ecut=    30.00 Ry     beta= 0.70
     Davidson diagonalization with overlap

     ethr =  1.00E-02,  avg # of iterations =  2.1

     negative rho (up, down):  1.102E-02 0.000E+00

     total energy              =    -970.26162213 Ry
     estimated scf accuracy    <       6.72381637 Ry

[...]

     total energy              =    -974.49228257 Ry
     estimated scf accuracy    <       0.00000147 Ry

     iteration # 13     ecut=    30.00 Ry     beta= 0.70
     Davidson diagonalization with overlap

     ethr =  1.44E-09,  avg # of iterations =  2.0

     negative rho (up, down):  9.399E-03 0.000E+00

     End of self-consistent calculation

          k = 0.0000 0.0000 0.0000 (  2781 PWs)   bands (ev):

   -64.8770 -64.8711 -57.8593 -57.8589 -36.3269 -36.2598 -36.1308 -36.1069
   -36.1060 -36.0885 -31.9142 -31.9102 -31.8148 -31.8125 -31.6562 -31.6558
   -11.8120 -11.0806 -10.8391 -10.7653 -10.7425 -10.6313 -10.4800 -10.2795
     1.1435   1.4566   1.7808   1.9696   2.0943   2.1805   2.2145   2.2272
     2.4962   2.5357   2.8172   2.8256   3.2003   3.3719   3.4024   4.0707
     4.1322   4.3607   4.6297   4.6314   4.6532   4.8702   5.3354   5.3505
     7.2747   7.4163   7.4827   7.5654   7.8341   8.1723   8.3688   8.8699
     9.0628   9.1156   9.5273   9.9367  10.1387  10.5463  10.7509  10.9769

     occupation numbers
     1.0000   1.0000   1.0000   1.0000   1.0000   1.0000   1.0000   1.0000
     1.0000   1.0000   1.0000   1.0000   1.0000   1.0000   1.0000   1.0000
     1.0000   1.0000   1.0000   1.0000   1.0000   1.0000   1.0000   1.0000
     1.0000   1.0000   1.0000   1.0000   1.0000   1.0000   1.0000   1.0000
     1.0000   1.0000   1.0000   1.0000   1.0000   1.0000   1.0000   1.0000
     1.0000   1.0000   1.0000   1.0000   1.0000   1.0000   1.0000   1.0000
     1.0000   1.0000   1.0000   0.0000   0.0000   0.0000   0.0000   0.0000
     0.0000   0.0000   0.0000   0.0000   0.0000   0.0000   0.0000   0.0000

[...]

          k = 0.3333 0.2735-0.2228 (  2764 PWs)   bands (ev):

   -64.8754 -64.8726 -57.8591 -57.8589 -36.3094 -36.2755 -36.1246 -36.1143
   -36.1004 -36.0921 -31.9127 -31.9118 -31.8142 -31.8129 -31.6558 -31.6554
   -11.4716 -11.2228 -10.8186 -10.7821 -10.7295 -10.6887 -10.5127 -10.4166
     1.2091   1.5011   1.8052   1.8382   1.9516   1.9916   2.1882   2.2070
     2.3700   2.4790   2.5567   3.0683   3.4896   3.6073   3.7499   3.7995
     4.0841   4.2154   4.6470   4.6509   4.7083   4.7937   5.1171   5.3657
     7.5118   7.5413   7.6923   7.7168   7.8318   7.9520   8.8415   8.9081
     8.9545   9.2599   9.7181   9.7445   9.8791  10.2025  10.6796  10.9486

     occupation numbers
     1.0000   1.0000   1.0000   1.0000   1.0000   1.0000   1.0000   1.0000
     1.0000   1.0000   1.0000   1.0000   1.0000   1.0000   1.0000   1.0000
     1.0000   1.0000   1.0000   1.0000   1.0000   1.0000   1.0000   1.0000
     1.0000   1.0000   1.0000   1.0000   1.0000   1.0000   1.0000   1.0000
     1.0000   1.0000   1.0000   1.0000   1.0000   1.0000   1.0000   1.0000
     1.0000   1.0000   1.0000   1.0000   1.0000   1.0000   1.0000   1.0000
     1.0000   1.0000   1.0000   0.0000   0.0000   0.0000   0.0000   0.0000
     0.0000   0.0000   0.0000   0.0000   0.0000   0.0000   0.0000   0.0000

     highest occupied, lowest unoccupied level (ev):     7.6923    7.5654

!    total energy              =    -974.49228266 Ry
     estimated scf accuracy    <       0.00000009 Ry

     The total energy is the sum of the following terms:
     one-electron contribution =    -500.66555023 Ry
     hartree contribution      =     289.82600647 Ry
     xc contribution           =    -142.48434260 Ry
     ewald contribution        =    -544.94308701 Ry
     one-center paw contrib.   =     -76.22530930 Ry
      -> PAW hartree energy AE =       0.00000000 Ry
      -> PAW hartree energy PS =       0.00000000 Ry
      -> PAW xc energy AE      =       0.00000000 Ry
      -> PAW xc energy PS      =       0.00000000 Ry
      -> total E_H with PAW    =     289.82600647 Ry
      -> total E_XC with PAW   =    -142.48434260 Ry

     convergence has been achieved in  13 iterations

     Writing all to output data dir calculations_bands/myprefix.save/

     General routines

     Parallel routines

     PAW routines

   This run was terminated on:  10:49:48   6Jun2023

   JOB DONE.