     Program PWSCF v.7.0 starts on  4Jun2023 at 21:10:22

     K-points division:     npool     =       2
     R & G space division:  proc/nbgrp/npool/nimage =       4

     Reading input from espresso_9142.pwi
Warning: card &CELL ignored
Warning: card / ignored

     Current dimensions of program PWSCF are:
     Max number of different atomic species (ntypx) = 10
     Max number of k-points (npk) =  40000
     Max angular momentum in pseudopotentials (lmaxx) =  4
     Message from routine setup:
     using ibrav=0 with symmetry is DISCOURAGED, use correct ibrav instead

     Using Slab Decomposition

     bravais-lattice index     =            0
     lattice parameter (alat)  =      15.1017  a.u.
     unit-cell volume          =    1164.7660 (a.u.)^3
     number of atoms/cell      =            6
     number of atomic types    =            2
     number of electrons       =        78.00
     number of Kohn-Sham states=           64
     kinetic-energy cutoff     =      30.0000  Ry
     charge density cutoff     =     240.0000  Ry
     scf convergence threshold =      1.0E-06
     mixing beta               =       0.7000
     number of iterations used =            8  plain     mixing
     Exchange-correlation= SLA  PW   PBE  PBE
                           (   1   4   3   4   0   0   0)

     celldm(1)=  15.101700  celldm(2)=   0.000000  celldm(3)=   0.000000
     celldm(4)=   0.000000  celldm(5)=   0.000000  celldm(6)=   0.000000

     crystal axes: (cart. coord. in units of alat)
               a(1) = (   1.000000   0.000000   0.000000 )
               a(2) = (  -0.828461   0.560046   0.000000 )
               a(3) = (   0.000000   0.000000   0.603862 )

     reciprocal axes: (cart. coord. in units 2 pi/alat)
               b(1) = (  1.000000  1.479273  0.000000 )
               b(2) = (  0.000000  1.785567  0.000000 )
               b(3) = (  0.000000  0.000000  1.656009 )

     PseudoPot. # 1 for La read from file:
     /home/pragov/projects/rrg-bengioy-ad/pragov/crystal_structure_design/SSSP/La.GGA-PBE-paw-v1.0.UPF
     MD5 check sum: 436541e95c1ad8901025bd0b0ed42ae2
     Pseudo is Projector augmented-wave + core cor, Zval = 11.0
     Generated using ATOMPAW code
     Shape of augmentation charge: BESSEL
     Using radial grid of 1101 points,  8 beta functions with:
                l(1) =   0
                l(2) =   0
                l(3) =   1
                l(4) =   1
                l(5) =   2
                l(6) =   2
                l(7) =   3
                l(8) =   3
     Q(r) pseudized with 0 coefficients

     PseudoPot. # 2 for Sn read from file:
     /home/pragov/projects/rrg-bengioy-ad/pragov/crystal_structure_design/SSSP/Sn_pbe_v1.uspp.F.UPF
     MD5 check sum: 4cf58ce39ec5d5d420df3dd08604eb00
     Pseudo is Ultrasoft + core correction, Zval = 14.0
     Generated by new atomic code, or converted to UPF format
     Using radial grid of  891 points,  6 beta functions with:
                l(1) =   0
                l(2) =   0
                l(3) =   1
                l(4) =   1
                l(5) =   2
                l(6) =   2
     Q(r) pseudized with  6 coefficients,  rinner =    1.200   1.200   1.200
                                                       1.200   1.200

     atomic species   valence    mass     pseudopotential
        La            11.00   138.90547     La( 1.00)
        Sn            14.00   118.71000     Sn( 1.00)

      4 Sym. Ops., with inversion, found

                                    s                        frac. trans.

      isym =  1     identity

 cryst.   s( 1) = (     1          0          0      )
                  (     0          1          0      )
                  (     0          0          1      )

 cart.    s( 1) = (  1.0000000  0.0000000  0.0000000 )
                  (  0.0000000  1.0000000  0.0000000 )
                  (  0.0000000  0.0000000  1.0000000 )

      isym =  2     180 deg rotation - cart. axis [0,0,1]

[...]

      isym =  3     inversion

[...]

      isym =  4     inv. 180 deg rotation - cart. axis [0,0,1]

 cryst.   s( 4) = (     1          0          0      )
                  (     0          1          0      )
                  (     0          0         -1      )

 cart.    s( 4) = (  1.0000000  0.0000000  0.0000000 )
                  (  0.0000000  1.0000000  0.0000000 )
                  (  0.0000000  0.0000000 -1.0000000 )

   Cartesian axes

     site n.     atom                  positions (alat units)
         1           La  tau(   1) = (  -0.5571744   0.4769527   0.0000000  )
         2           La  tau(   2) = (   0.7287130   0.0830935   0.0000000  )
         3           Sn  tau(   3) = (   0.0857693   0.2800231   0.0000000  )
         4           Sn  tau(   4) = (   0.0000000   0.0000000   0.3019308  )
         5           Sn  tau(   5) = (  -0.2321892   0.3774117   0.3019308  )
         6           Sn  tau(   6) = (   0.4037278   0.1826344   0.3019308  )

   Crystallographic axes

     site n.     atom                  positions (cryst. coord.)
         1           La  tau(   1) = (  0.1483690  0.8516310  0.0000000  )
         2           La  tau(   2) = (  0.8516310  0.1483690  0.0000000  )
         3           Sn  tau(   3) = (  0.5000000  0.5000000  0.0000000  )
         4           Sn  tau(   4) = (  0.0000000  0.0000000  0.5000000  )
         5           Sn  tau(   5) = (  0.3261060  0.6738940  0.5000000  )
         6           Sn  tau(   6) = (  0.6738940  0.3261060  0.5000000  )

     number of k points=    10
                       cart. coord. in units 2pi/alat
        k(    1) = (   0.0000000   0.0000000   0.0000000), wk =   0.0740741
        k(    2) = (   0.0000000   0.0000000   0.5520029), wk =   0.1481481
        k(    3) = (   0.0000000   0.5951891   0.0000000), wk =   0.1481481
        k(    4) = (   0.0000000   0.5951891   0.5520029), wk =   0.2962963
        k(    5) = (   0.3333333   0.4930912   0.0000000), wk =   0.1481481
        k(    6) = (   0.3333333   0.4930912   0.5520029), wk =   0.2962963
        k(    7) = (   0.3333333   1.0882802   0.0000000), wk =   0.1481481
        k(    8) = (   0.3333333   1.0882802   0.5520029), wk =   0.2962963
        k(    9) = (   0.3333333  -0.1020979   0.0000000), wk =   0.1481481
        k(   10) = (   0.3333333  -0.1020979   0.5520029), wk =   0.2962963

                       cryst. coord.
        k(    1) = (   0.0000000   0.0000000   0.0000000), wk =   0.0740741
        k(    2) = (   0.0000000   0.0000000   0.3333333), wk =   0.1481481
        k(    3) = (   0.0000000   0.3333333   0.0000000), wk =   0.1481481
        k(    4) = (   0.0000000   0.3333333   0.3333333), wk =   0.2962963
        k(    5) = (   0.3333333  -0.0000000   0.0000000), wk =   0.1481481
        k(    6) = (   0.3333333  -0.0000000   0.3333333), wk =   0.2962963
        k(    7) = (   0.3333333   0.3333333   0.0000000), wk =   0.1481481
        k(    8) = (   0.3333333   0.3333333   0.3333333), wk =   0.2962963
        k(    9) = (   0.3333333  -0.3333333   0.0000000), wk =   0.1481481
        k(   10) = (   0.3333333  -0.3333333   0.3333333), wk =   0.2962963

     Initial potential from superposition of free atoms

     starting charge      73.9828, renormalised to      78.0000
     Starting wfcs are  100 randomized atomic wfcs
     Checking if some PAW data can be deallocated...

     Self-consistent Calculation

     iteration #  1     ecut=    30.00 Ry     beta= 0.70
     Davidson diagonalization with overlap

     ethr =  1.00E-02,  avg # of iterations =  2.8

     total energy              =   -1568.74252058 Ry
     estimated scf accuracy    <       2.61446920 Ry

[...]

     total energy              =   -1569.71827055 Ry
     estimated scf accuracy    <       0.00000772 Ry

     iteration #  8     ecut=    30.00 Ry     beta= 0.70
     Davidson diagonalization with overlap

     ethr =  9.90E-09,  avg # of iterations =  3.8

     End of self-consistent calculation

          k = 0.0000 0.0000 0.0000 (  3205 PWs)   bands (ev):

   -21.0527 -21.0043  -9.7680  -9.7484  -9.7044  -9.6895  -9.6546  -9.6286
    -9.6274  -9.6055  -9.5464  -9.5321  -9.5238  -9.5219  -9.4761  -9.4683
    -9.4332  -9.4328  -9.4109  -9.4037  -9.4013  -9.3719  -5.1093  -4.8300
    -4.8056  -4.7110  -4.6826  -4.6588   2.0667   4.4967   5.0020   6.7165
     9.2702   9.5421   9.9576  10.6068  10.6179  10.7480  11.0718  12.0930
    12.2267  12.6941  12.7889  13.2320  13.5042  13.5869  13.6015  13.6792
    13.7434  13.7757  13.8154  13.8591  13.9482  13.9977  14.0758  14.0843
    14.0942  14.2276  14.5145  14.7795  14.9823  15.2920  15.8732  15.9718

     occupation numbers
     1.0000   1.0000   1.0000   1.0000   1.0000   1.0000   1.0000   1.0000
     1.0000   1.0000   1.0000   1.0000   1.0000   1.0000   1.0000   1.0000
     1.0000   1.0000   1.0000   1.0000   1.0000   1.0000   1.0000   1.0000
     1.0000   1.0000   1.0000   1.0000   1.0000   1.0000   1.0000   1.0000
     1.0000   1.0000   1.0000   1.0000   1.0000   1.0000   1.0000   0.0000
     0.0000   0.0000   0.0000   0.0000   0.0000   0.0000   0.0000   0.0000
     0.0000   0.0000   0.0000   0.0000   0.0000   0.0000   0.0000   0.0000
     0.0000   0.0000   0.0000   0.0000   0.0000   0.0000   0.0000   0.0000

[...]

          k = 0.3333-0.1021 0.5520 (  3249 PWs)   bands (ev):

   -21.0466 -21.0052  -9.7272  -9.7157  -9.6944  -9.6780  -9.6530  -9.6328
    -9.6309  -9.6106  -9.5900  -9.5612  -9.5389  -9.5252  -9.4774  -9.4678
    -9.4407  -9.4380  -9.4094  -9.4024  -9.4014  -9.3670  -5.0045  -4.9307
    -4.8244  -4.8036  -4.7248  -4.6270   3.0844   3.9504   5.0308   6.4125
     8.4804   9.3759   9.5427  10.1510  10.2621  10.8561  11.5109  11.8858
    12.4298  12.8257  13.0611  13.1432  13.3810  13.4862  13.6345  13.7323
    13.7569  13.7719  13.8232  13.8551  13.8988  13.9518  14.0601  14.0677
    14.3192  14.4001  14.4768  14.5897  15.1490  15.6916  15.7505  16.4019

     occupation numbers
     1.0000   1.0000   1.0000   1.0000   1.0000   1.0000   1.0000   1.0000
     1.0000   1.0000   1.0000   1.0000   1.0000   1.0000   1.0000   1.0000
     1.0000   1.0000   1.0000   1.0000   1.0000   1.0000   1.0000   1.0000
     1.0000   1.0000   1.0000   1.0000   1.0000   1.0000   1.0000   1.0000
     1.0000   1.0000   1.0000   1.0000   1.0000   1.0000   1.0000   0.0000
     0.0000   0.0000   0.0000   0.0000   0.0000   0.0000   0.0000   0.0000
     0.0000   0.0000   0.0000   0.0000   0.0000   0.0000   0.0000   0.0000
     0.0000   0.0000   0.0000   0.0000   0.0000   0.0000   0.0000   0.0000

     highest occupied, lowest unoccupied level (ev):    11.7773   11.4234

!    total energy              =   -1569.71827320 Ry
     estimated scf accuracy    <       0.00000069 Ry

     The total energy is the sum of the following terms:
     one-electron contribution =    -230.75834108 Ry
     hartree contribution      =     170.97784228 Ry
     xc contribution           =    -207.94097809 Ry
     ewald contribution        =    -505.85161840 Ry
     one-center paw contrib.   =    -796.14517790 Ry
      -> PAW hartree energy AE =      35.31451746 Ry
      -> PAW hartree energy PS =     -35.34883644 Ry
      -> PAW xc energy AE      =    -405.38450948 Ry
      -> PAW xc energy PS      =       7.34623951 Ry
      -> total E_H with PAW    =     170.94352330 Ry
      -> total E_XC with PAW   =    -605.97924807 Ry

     convergence has been achieved in   8 iterations

     Writing all to output data dir calculations_bands/myprefix.save/

     General routines

     Parallel routines

     PAW routines

   This run was terminated on:  21:11:22   4Jun2023

   JOB DONE.