     Program PWSCF v.7.0 starts on  4Jun2023 at 13:37:19

     K-points division:     npool     =       2
     R & G space division:  proc/nbgrp/npool/nimage =       4

     Reading input from espresso_2059.pwi
Warning: card &CELL ignored
Warning: card / ignored

     Current dimensions of program PWSCF are:
     Max number of different atomic species (ntypx) = 10
     Max number of k-points (npk) =  40000
     Max angular momentum in pseudopotentials (lmaxx) =  4
     file In.pbe-dn-rrkjus_psl.0.2.2.UPF: wavefunction(s)  5S renormalized
     Message from routine setup:
     using ibrav=0 with symmetry is DISCOURAGED, use correct ibrav instead

     Using Slab Decomposition

     bravais-lattice index     =            0
     lattice parameter (alat)  =      12.6308  a.u.
     unit-cell volume          =    1380.1724 (a.u.)^3
     number of atoms/cell      =            8
     number of atomic types    =            4
     number of electrons       =        74.00
     number of Kohn-Sham states=           64
     kinetic-energy cutoff     =      30.0000  Ry
     charge density cutoff     =     240.0000  Ry
     scf convergence threshold =      1.0E-06
     mixing beta               =       0.7000
     number of iterations used =            8  plain     mixing
     Exchange-correlation=  SLA  PW   PBX  PBC
                           (   1   4   3   4   0   0   0)

     celldm(1)=  12.630750  celldm(2)=   0.000000  celldm(3)=   0.000000
     celldm(4)=   0.000000  celldm(5)=   0.000000  celldm(6)=   0.000000

     crystal axes: (cart. coord. in units of alat)
               a(1) = (   1.000000   0.000000   0.000000 )
               a(2) = (   0.825552   0.564326   0.000000 )
               a(3) = (   0.567499   0.175429   1.213712 )

     reciprocal axes: (cart. coord. in units 2 pi/alat)
               b(1) = (  1.000000 -1.462899 -0.256127 )
               b(2) = (  0.000000  1.772025 -0.256127 )
               b(3) = (  0.000000  0.000000  0.823918 )

     PseudoPot. # 1 for In read from file:
     /home/pragov/projects/rrg-bengioy-ad/pragov/crystal_structure_design/SSSP/In.pbe-dn-rrkjus_psl.0.2.2.UPF
     MD5 check sum: 25e7c42c3b55b68f4bf926be2e7201a4
     Pseudo is Ultrasoft + core correction, Zval = 13.0
     Generated using "atomic" code by A. Dal Corso  v.5.0.99 svn rev. 10869
     Using radial grid of 1241 points,  6 beta functions with:
                l(1) =   0
                l(2) =   0
                l(3) =   1
                l(4) =   1
                l(5) =   2
                l(6) =   2
     Q(r) pseudized with 0 coefficients

     PseudoPot. # 2 for Bi read from file:
     /home/pragov/projects/rrg-bengioy-ad/pragov/crystal_structure_design/SSSP/Bi_pbe_v1.uspp.F.UPF
     MD5 check sum: cceb9f28ec65b6d7ff33140f5b0b1758
     Pseudo is Ultrasoft + core correction, Zval = 15.0
     Generated by new atomic code, or converted to UPF format
     Using radial grid of  899 points,  6 beta functions with:
                l(1) =   0
                l(2) =   0
                l(3) =   1
                l(4) =   1
                l(5) =   2
                l(6) =   2
     Q(r) pseudized with  6 coefficients,  rinner =    1.000   1.000   1.000
                                                       1.000   1.000

     PseudoPot. # 3 for S  read from file:
     /home/pragov/projects/rrg-bengioy-ad/pragov/crystal_structure_design/SSSP/s_pbe_v1.4.uspp.F.UPF
     MD5 check sum: 88d86576ff6df21479756cfb9bdac1df
     Pseudo is Ultrasoft + core correction, Zval =  6.0
     Generated by new atomic code, or converted to UPF format
     Using radial grid of  907 points,  6 beta functions with:
                l(1) =   0
                l(2) =   0
                l(3) =   1
                l(4) =   1
                l(5) =   2
                l(6) =   2
     Q(r) pseudized with  8 coefficients,  rinner =    1.300   1.300   1.300
                                                       1.300   1.300

     PseudoPot. # 4 for Br read from file:
     /home/pragov/projects/rrg-bengioy-ad/pragov/crystal_structure_design/SSSP/br_pbe_v1.4.uspp.F.UPF
     MD5 check sum: d3ffb7b29f6225aa16fe06858fb2a80b
     Pseudo is Ultrasoft + core correction, Zval =  7.0
     Generated by new atomic code, or converted to UPF format
     Using radial grid of  879 points,  6 beta functions with:
                l(1) =   0
                l(2) =   0
                l(3) =   1
                l(4) =   1
                l(5) =   2
                l(6) =   2
     Q(r) pseudized with  8 coefficients,  rinner =    1.100   1.100   1.100
                                                       1.100   1.100

     atomic species   valence    mass     pseudopotential
        In            13.00   114.81800     In( 1.00)
        Bi            15.00   208.98040     Bi( 1.00)
        S              6.00    32.06000     S ( 1.00)
        Br             7.00    79.90400     Br( 1.00)

      2 Sym. Ops., with inversion, found

                                    s                        frac. trans.

      isym =  1     identity

 cryst.   s( 1) = (     1          0          0      )
                  (     0          1          0      )
                  (     0          0          1      )

 cart.    s( 1) = (  1.0000000 -0.0000000  0.0000000 )
                  (  0.0000000  1.0000000 -0.0000000 )
                  (  0.0000000  0.0000000  1.0000000 )

      isym =  2     inversion

 cryst.   s( 2) = (    -1          0          0      )
                  (     0         -1          0      )
                  (     0          0         -1      )

 cart.    s( 2) = ( -1.0000000  0.0000000 -0.0000000 )
                  (  0.0000000 -1.0000000  0.0000000 )
                  (  0.0000000  0.0000000 -1.0000000 )

   Cartesian axes

     site n.     atom                  positions (alat units)
         1           In  tau(   1) = (   0.0000000   0.0000000   0.0000000  )
         2           Bi  tau(   2) = (   1.8652774   0.5766062   0.9011851  )
         3           Bi  tau(   3) = (   0.5277738   0.1631487   0.3125273  )
         4           S   tau(   4) = (   1.6988659   0.5251640   0.3692659  )
         5           S   tau(   5) = (   0.6941853   0.2145909   0.8444465  )
         6           S   tau(   6) = (   1.1679052   0.3610301   0.0684097  )
         7           S   tau(   7) = (   1.2251459   0.3787247   1.1453028  )
         8           Br  tau(   8) = (   1.1965256   0.3698774   0.6068562  )

   Crystallographic axes

     site n.     atom                  positions (cryst. coord.)
         1           In  tau(   1) = (  0.0000000  0.0000000  0.0000000  )
         2           Bi  tau(   2) = (  0.7909430  0.7909430  0.7425030  )
         3           Bi  tau(   3) = (  0.2090570  0.2090570  0.2574970  )
         4           S   tau(   4) = (  0.8360250  0.8360250  0.3042450  )
         5           S   tau(   5) = (  0.1639750  0.1639750  0.6957550  )
         6           S   tau(   6) = (  0.6222330  0.6222330  0.0563640  )
         7           S   tau(   7) = (  0.3777670  0.3777670  0.9436360  )
         8           Br  tau(   8) = (  0.5000000  0.5000000  0.5000000  )

     number of k points=    14
                       cart. coord. in units 2pi/alat
        k(    1) = (   0.0000000   0.0000000   0.0000000), wk =   0.0740741
        k(    2) = (   0.0000000   0.0000000   0.2746395), wk =   0.1481481
        k(    3) = (   0.0000000   0.5906751  -0.0853756), wk =   0.1481481
        k(    4) = (   0.0000000   0.5906751   0.1892638), wk =   0.1481481
        k(    5) = (   0.0000000   0.5906751  -0.3600151), wk =   0.1481481
        k(    6) = (   0.3333333  -0.4876330  -0.0853756), wk =   0.1481481
        k(    7) = (   0.3333333  -0.4876330   0.1892638), wk =   0.1481481
        k(    8) = (   0.3333333  -0.4876330  -0.3600151), wk =   0.1481481
        k(    9) = (   0.3333333   0.1030421  -0.1707513), wk =   0.1481481
        k(   10) = (   0.3333333   0.1030421   0.1038882), wk =   0.1481481
        k(   11) = (   0.3333333   0.1030421  -0.4453907), wk =   0.1481481
        k(   12) = (   0.3333333  -1.0783081  -0.0000000), wk =   0.1481481
        k(   13) = (   0.3333333  -1.0783081   0.2746395), wk =   0.1481481
        k(   14) = (   0.3333333  -1.0783081  -0.2746395), wk =   0.1481481

                       cryst. coord.
        k(    1) = (   0.0000000   0.0000000   0.0000000), wk =   0.0740741
        k(    2) = (   0.0000000   0.0000000   0.3333333), wk =   0.1481481
        k(    3) = (   0.0000000   0.3333333   0.0000000), wk =   0.1481481
        k(    4) = (   0.0000000   0.3333333   0.3333333), wk =   0.1481481
        k(    5) = (   0.0000000   0.3333333  -0.3333333), wk =   0.1481481
        k(    6) = (   0.3333333  -0.0000000   0.0000000), wk =   0.1481481
        k(    7) = (   0.3333333  -0.0000000   0.3333333), wk =   0.1481481
        k(    8) = (   0.3333333  -0.0000000  -0.3333333), wk =   0.1481481
        k(    9) = (   0.3333333   0.3333333   0.0000000), wk =   0.1481481
        k(   10) = (   0.3333333   0.3333333   0.3333333), wk =   0.1481481
        k(   11) = (   0.3333333   0.3333333  -0.3333333), wk =   0.1481481
        k(   12) = (   0.3333333  -0.3333333   0.0000000), wk =   0.1481481
        k(   13) = (   0.3333333  -0.3333333   0.3333333), wk =   0.1481481
        k(   14) = (   0.3333333  -0.3333333  -0.3333333), wk =   0.1481481

     Check: negative core charge=   -0.000003

     Initial potential from superposition of free atoms

     starting charge      71.9960, renormalised to      74.0000

     negative rho (up, down):  8.507E-02 0.000E+00
     Starting wfcs are   47 randomized atomic wfcs +   17 random wfcs

     Self-consistent Calculation

     iteration #  1     ecut=    30.00 Ry     beta= 0.70
     Davidson diagonalization with overlap

     ethr =  1.00E-02,  avg # of iterations =  7.7

     negative rho (up, down):  7.906E-02 0.000E+00

     total energy              =    -658.26365028 Ry
     estimated scf accuracy    <       1.31279991 Ry

[...]

     total energy              =    -658.89504004 Ry
     estimated scf accuracy    <       0.00000343 Ry

     iteration #  9     ecut=    30.00 Ry     beta= 0.70
     Davidson diagonalization with overlap

     ethr =  4.63E-09,  avg # of iterations =  3.9

     negative rho (up, down):  8.209E-02 0.000E+00

     End of self-consistent calculation

          k = 0.0000 0.0000 0.0000 (  3831 PWs)   bands (ev):

   -15.9577 -15.9562 -15.9309 -15.9287 -15.9269 -15.9249 -15.9016 -15.9003
   -15.8871 -15.8870  -7.4187  -7.2474  -7.1701  -7.1223  -7.0615  -7.0611
    -6.4069  -5.9814  -4.7129  -4.6939  -2.6527  -2.1967   2.1073   3.0458
     3.6218   4.2082   4.4351   4.4577   4.6585   4.9500   5.3225   5.5656
     5.7143   5.7865   5.9199   6.2776   6.4344   8.3686   8.8345  10.1240
    10.2499  10.2816  10.3176  10.4925  11.4947  13.3363  13.9041  13.9113
    14.8161  14.8409  15.1504  15.1607  15.2530  15.6856  15.7483  16.2851
    16.6829  17.3669  17.4107  17.6788  17.7630  18.0175  18.2991  18.5384

     occupation numbers
     1.0000   1.0000   1.0000   1.0000   1.0000   1.0000   1.0000   1.0000
     1.0000   1.0000   1.0000   1.0000   1.0000   1.0000   1.0000   1.0000
     1.0000   1.0000   1.0000   1.0000   1.0000   1.0000   1.0000   1.0000
     1.0000   1.0000   1.0000   1.0000   1.0000   1.0000   1.0000   1.0000
     1.0000   1.0000   1.0000   1.0000   1.0000   0.0000   0.0000   0.0000
     0.0000   0.0000   0.0000   0.0000   0.0000   0.0000   0.0000   0.0000
     0.0000   0.0000   0.0000   0.0000   0.0000   0.0000   0.0000   0.0000
     0.0000   0.0000   0.0000   0.0000   0.0000   0.0000   0.0000   0.0000

[...]

          k = 0.3333-1.0783-0.2746 (  3828 PWs)   bands (ev):

   -15.9480 -15.9466 -15.9340 -15.9333 -15.9242 -15.9228 -15.9010 -15.8999
   -15.8875 -15.8870  -7.4051  -7.3375  -7.0879  -7.0852  -7.0766  -6.6849
    -5.6423  -5.5292  -4.6774  -4.6185  -3.1014  -2.5673   1.5028   2.6997
     3.1739   3.4030   3.8187   4.0283   4.3021   4.5252   4.6662   4.9324
     5.3412   5.4749   5.6765   5.8907   6.1178   8.6964   9.5353   9.7869
     9.9045  10.4052  10.5703  11.0712  12.9532  13.3217  13.4100  13.7480
    14.1398  14.8067  14.9400  15.6112  15.8363  16.1306  16.4936  16.6484
    17.2816  17.8054  18.0747  18.7099  18.8697  19.2192  19.3653  19.4795

     occupation numbers
     1.0000   1.0000   1.0000   1.0000   1.0000   1.0000   1.0000   1.0000
     1.0000   1.0000   1.0000   1.0000   1.0000   1.0000   1.0000   1.0000
     1.0000   1.0000   1.0000   1.0000   1.0000   1.0000   1.0000   1.0000
     1.0000   1.0000   1.0000   1.0000   1.0000   1.0000   1.0000   1.0000
     1.0000   1.0000   1.0000   1.0000   1.0000   0.0000   0.0000   0.0000
     0.0000   0.0000   0.0000   0.0000   0.0000   0.0000   0.0000   0.0000
     0.0000   0.0000   0.0000   0.0000   0.0000   0.0000   0.0000   0.0000
     0.0000   0.0000   0.0000   0.0000   0.0000   0.0000   0.0000   0.0000

     highest occupied, lowest unoccupied level (ev):     6.4624    8.2603

!    total energy              =    -658.89504111 Ry
     estimated scf accuracy    <       0.00000052 Ry

     The total energy is the sum of the following terms:
     one-electron contribution =    -195.84331405 Ry
     hartree contribution      =     141.18178472 Ry
     xc contribution           =    -236.76510691 Ry
     ewald contribution        =    -367.46840487 Ry

     convergence has been achieved in   9 iterations

     Writing all to output data dir calculations_bands/myprefix.save/

     General routines

     Parallel routines

   This run was terminated on:  13:37:34   4Jun2023

   JOB DONE.