     Program PWSCF v.7.0 starts on  6Jun2023 at 15:52:46

     K-points division:     npool     =       2
     R & G space division:  proc/nbgrp/npool/nimage =       4

     Reading input from espresso_19307.pwi
Warning: card &CELL ignored
Warning: card / ignored

     Current dimensions of program PWSCF are:
     Max number of different atomic species (ntypx) = 10
     Max number of k-points (npk) =  40000
     Max angular momentum in pseudopotentials (lmaxx) =  4
     Message from routine setup:
     using ibrav=0 with symmetry is DISCOURAGED, use correct ibrav instead

     Using Slab Decomposition

     bravais-lattice index     =            0
     lattice parameter (alat)  =      10.4195  a.u.
     unit-cell volume          =     479.6784 (a.u.)^3
     number of atoms/cell      =            5
     number of atomic types    =            3
     number of electrons       =        54.00
     number of Kohn-Sham states=           64
     kinetic-energy cutoff     =      30.0000  Ry
     charge density cutoff     =     240.0000  Ry
     scf convergence threshold =      1.0E-06
     mixing beta               =       0.7000
     number of iterations used =            8  plain     mixing
     Exchange-correlation= PBE
                           (   1   4   3   4   0   0   0)

     celldm(1)=  10.419510  celldm(2)=   0.000000  celldm(3)=   0.000000
     celldm(4)=   0.000000  celldm(5)=   0.000000  celldm(6)=   0.000000

     crystal axes: (cart. coord. in units of alat)
               a(1) = (   1.000000   0.000000   0.000000 )
               a(2) = (   0.512365   0.858768   0.000000 )
               a(3) = (  -0.756182  -0.429384   0.493779 )

     reciprocal axes: (cart. coord. in units 2 pi/alat)
               b(1) = (  1.000000 -0.596628  1.012599 )
               b(2) = (  0.000000  1.164459  1.012599 )
               b(3) = (  0.000000  0.000000  2.025198 )

     PseudoPot. # 1 for Ca read from file:
     /home/pragov/projects/rrg-bengioy-ad/pragov/crystal_structure_design/SSSP/Ca_pbe_v1.uspp.F.UPF
     MD5 check sum: 403a4c14b9e4d4dfdc3024c9a3812218
     Pseudo is Ultrasoft + core correction, Zval = 10.0
     Generated by new atomic code, or converted to UPF format
     Using radial grid of  845 points,  6 beta functions with:
                l(1) =   0
                l(2) =   0
                l(3) =   1
                l(4) =   1
                l(5) =   2
                l(6) =   2
     Q(r) pseudized with  8 coefficients,  rinner =    1.500   1.500   1.500
                                                       1.500   1.500

     PseudoPot. # 2 for Co read from file:
     /home/pragov/projects/rrg-bengioy-ad/pragov/crystal_structure_design/SSSP/Co_pbe_v1.2.uspp.F.UPF
     MD5 check sum: 5f91765df6ddd3222702df6e7b74a16d
     Pseudo is Ultrasoft + core correction, Zval = 17.0
     Generated by new atomic code, or converted to UPF format
     Using radial grid of  863 points,  6 beta functions with:
                l(1) =   0
                l(2) =   0
                l(3) =   1
                l(4) =   1
                l(5) =   2
                l(6) =   2
     Q(r) pseudized with  8 coefficients,  rinner =    1.200   1.200   1.200
                                                       1.200   1.200

     PseudoPot. # 3 for P  read from file:
     /home/pragov/projects/rrg-bengioy-ad/pragov/crystal_structure_design/SSSP/P.pbe-n-rrkjus_psl.1.0.0.UPF
     MD5 check sum: 8b930f418f0a4573dca56cd030ffe088
     Pseudo is Ultrasoft + core correction, Zval =  5.0
     Generated using "atomic" code by A. Dal Corso  v.5.1
     Using radial grid of 1147 points,  6 beta functions with:
                l(1) =   0
                l(2) =   0
                l(3) =   1
                l(4) =   1
                l(5) =   2
                l(6) =   2
     Q(r) pseudized with 0 coefficients

     atomic species   valence    mass     pseudopotential
        Ca            10.00    40.07800     Ca( 1.00)
        Co            17.00    58.93319     Co( 1.00)
        P              5.00    30.97376     P ( 1.00)

      4 Sym. Ops., with inversion, found

                                    s                        frac. trans.

      isym =  1     identity

 cryst.   s( 1) = (     1          0          0      )
                  (     0          1          0      )
                  (     0          0          1      )

 cart.    s( 1) = (  1.0000000 -0.0000000 -0.0000000 )
                  (  0.0000000  1.0000000 -0.0000000 )
                  (  0.0000000  0.0000000  1.0000000 )

      isym =  2     180 deg rotation - cart. axis [0,0,1]

[...]

      isym =  3     inversion

[...]

      isym =  4     inv. 180 deg rotation - cart. axis [0,0,1]

 cryst.   s( 4) = (     1          0          0      )
                  (     0          1          0      )
                  (    -1         -1         -1      )

 cart.    s( 4) = (  1.0000000 -0.0000000 -0.0000000 )
                  (  0.0000000  1.0000000 -0.0000000 )
                  (  0.0000000  0.0000000 -1.0000000 )

   Cartesian axes

     site n.     atom                  positions (alat units)
         1           Ca  tau(   1) = (   0.0000000   0.0000000   0.0000000  )
         2           Co  tau(   2) = (   0.2561824   0.4293839   0.2468894  )
         3           Co  tau(   3) = (   0.5000000   0.0000000   0.2468894  )
         4           P   tau(   4) = (   0.9541268   0.5417829   0.0000000  )
         5           P   tau(   5) = (   0.5582381   0.3169850   0.0000000  )

   Crystallographic axes

     site n.     atom                  positions (cryst. coord.)
         1           Ca  tau(   1) = (  0.0000000  0.0000000  0.0000000  )
         2           Co  tau(   2) = (  0.2500000  0.7500000  0.5000000  )
         3           Co  tau(   3) = (  0.7500000  0.2500000  0.5000000  )
         4           P   tau(   4) = (  0.6308840  0.6308840  0.0000000  )
         5           P   tau(   5) = (  0.3691160  0.3691160  0.0000000  )

     number of k points=    10
                       cart. coord. in units 2pi/alat
        k(    1) = (   0.0000000   0.0000000   0.0000000), wk =   0.0740741
        k(    2) = (   0.0000000   0.0000000   0.6750660), wk =   0.1481481
        k(    3) = (   0.0000000   0.3881530   0.3375330), wk =   0.2962963
        k(    4) = (   0.0000000   0.3881530   1.0125990), wk =   0.1481481
        k(    5) = (   0.3333333  -0.1988760   0.3375330), wk =   0.2962963
        k(    6) = (   0.3333333  -0.1988760   1.0125990), wk =   0.1481481
        k(    7) = (   0.3333333   0.1892771   0.6750660), wk =   0.2962963
        k(    8) = (   0.3333333   0.1892771  -0.0000000), wk =   0.1481481
        k(    9) = (   0.3333333  -0.5870290   0.0000000), wk =   0.1481481
        k(   10) = (   0.3333333  -0.5870290   0.6750660), wk =   0.2962963

                       cryst. coord.
        k(    1) = (   0.0000000   0.0000000   0.0000000), wk =   0.0740741
        k(    2) = (   0.0000000   0.0000000   0.3333333), wk =   0.1481481
        k(    3) = (   0.0000000   0.3333333  -0.0000000), wk =   0.2962963
        k(    4) = (   0.0000000   0.3333333   0.3333333), wk =   0.1481481
        k(    5) = (   0.3333333  -0.0000000   0.0000000), wk =   0.2962963
        k(    6) = (   0.3333333  -0.0000000   0.3333333), wk =   0.1481481
        k(    7) = (   0.3333333   0.3333333  -0.0000000), wk =   0.2962963
        k(    8) = (   0.3333333   0.3333333  -0.3333333), wk =   0.1481481
        k(    9) = (   0.3333333  -0.3333333   0.0000000), wk =   0.1481481
        k(   10) = (   0.3333333  -0.3333333   0.3333333), wk =   0.2962963

     Check: negative core charge=   -0.000013

     Initial potential from superposition of free atoms

     starting charge      51.9942, renormalised to      54.0000
     Starting wfcs are   44 randomized atomic wfcs +   20 random wfcs

     Self-consistent Calculation

     iteration #  1     ecut=    30.00 Ry     beta= 0.70
     Davidson diagonalization with overlap

     ethr =  1.00E-02,  avg # of iterations =  6.2

     total energy              =    -682.74544525 Ry
     estimated scf accuracy    <      23.25683181 Ry

[...]

     total energy              =    -700.19606685 Ry
     estimated scf accuracy    <       0.00001499 Ry

     iteration # 12     ecut=    30.00 Ry     beta= 0.70
     Davidson diagonalization with overlap

     ethr =  9.07E-09,  avg # of iterations =  1.0

     End of self-consistent calculation

          k = 0.0000 0.0000 0.0000 (  1307 PWs)   bands (ev):

   -81.8138 -81.8014 -45.1769 -45.1769 -45.1193 -45.1193 -44.9478 -44.9279
   -26.8111  -7.9036  -7.8758  -7.8758  -0.0158   3.3427   6.5481   9.0739
     9.0739   9.7739  10.0065  10.0065  10.1236  11.9651  11.9784  12.2567
    12.5030  12.5030  13.0658  14.0609  14.7001  14.7001  17.2349  17.5325
    17.6223  17.7801  18.3990  19.2843  19.2843  20.0603  22.1856  22.1856
    22.6705  23.0520  23.0520  24.2226  24.6643  25.9038  27.0349  27.0349
    27.5012  29.5822  31.4859  33.5156  33.7036  33.7036  33.8378  33.8583
    33.8583  34.5714  35.3346  38.0327  38.1954  40.4378  40.4378  41.2915

     occupation numbers
     1.0000   1.0000   1.0000   1.0000   1.0000   1.0000   1.0000   1.0000
     1.0000   1.0000   1.0000   1.0000   1.0000   1.0000   1.0000   1.0000
     1.0000   1.0000   1.0000   1.0000   1.0000   1.0000   1.0000   1.0000
     1.0000   1.0000   1.0000   0.0000   0.0000   0.0000   0.0000   0.0000
     0.0000   0.0000   0.0000   0.0000   0.0000   0.0000   0.0000   0.0000
     0.0000   0.0000   0.0000   0.0000   0.0000   0.0000   0.0000   0.0000
     0.0000   0.0000   0.0000   0.0000   0.0000   0.0000   0.0000   0.0000
     0.0000   0.0000   0.0000   0.0000   0.0000   0.0000   0.0000   0.0000

[...]

          k = 0.3333-0.5870 0.6751 (  1344 PWs)   bands (ev):

   -81.8121 -81.8053 -45.1670 -45.1648 -45.1444 -45.1414 -44.9523 -44.9422
   -26.8051  -7.9899  -7.9034  -7.8634   1.4809   1.9496   7.1346   8.6423
     8.8389   9.1904   9.4435  10.5452  10.6405  11.3120  11.7032  11.7214
    11.8486  13.4105  13.4914  13.6756  15.7703  15.8124  16.0107  16.6570
    17.0052  17.1437  17.5071  18.1207  21.3240  21.8265  21.8988  22.2559
    22.8312  22.8768  24.4438  24.7633  25.4731  25.5401  27.6347  27.9772
    29.9436  30.5054  31.1494  31.7456  32.6256  32.7914  33.7242  34.1603
    35.9544  36.2737  37.4816  37.5934  37.8313  37.9722  38.9181  39.3538

     occupation numbers
     1.0000   1.0000   1.0000   1.0000   1.0000   1.0000   1.0000   1.0000
     1.0000   1.0000   1.0000   1.0000   1.0000   1.0000   1.0000   1.0000
     1.0000   1.0000   1.0000   1.0000   1.0000   1.0000   1.0000   1.0000
     1.0000   1.0000   1.0000   0.0000   0.0000   0.0000   0.0000   0.0000
     0.0000   0.0000   0.0000   0.0000   0.0000   0.0000   0.0000   0.0000
     0.0000   0.0000   0.0000   0.0000   0.0000   0.0000   0.0000   0.0000
     0.0000   0.0000   0.0000   0.0000   0.0000   0.0000   0.0000   0.0000
     0.0000   0.0000   0.0000   0.0000   0.0000   0.0000   0.0000   0.0000

     highest occupied, lowest unoccupied level (ev):    13.5036   13.3776

!    total energy              =    -700.19606830 Ry
     estimated scf accuracy    <       0.00000014 Ry

     The total energy is the sum of the following terms:
     one-electron contribution =    -496.00629021 Ry
     hartree contribution      =     274.55665169 Ry
     xc contribution           =     -86.35843041 Ry
     ewald contribution        =    -392.38799937 Ry

     convergence has been achieved in  12 iterations

     Writing all to output data dir calculations_bands/myprefix.save/

     General routines

     Parallel routines

   This run was terminated on:  15:53: 0   6Jun2023

   JOB DONE.