     Program PWSCF v.7.0 starts on 23Jun2023 at  4:33: 9

     K-points division:     npool     =       2
     R & G space division:  proc/nbgrp/npool/nimage =       4

     Reading input from espresso_109.pwi
Warning: card &CELL ignored
Warning: card / ignored

     Current dimensions of program PWSCF are:
     Max number of different atomic species (ntypx) = 10
     Max number of k-points (npk) =  40000
     Max angular momentum in pseudopotentials (lmaxx) =  4
     file O.pbe-n-kjpaw_psl.0.1.UPF: wavefunction(s)  2P renormalized
     Message from routine setup:
     using ibrav=0 with symmetry is DISCOURAGED, use correct ibrav instead

     Using Slab Decomposition

     bravais-lattice index     =            0
     lattice parameter (alat)  =       6.3245  a.u.
     unit-cell volume          =     857.3342 (a.u.)^3
     number of atoms/cell      =           12
     number of atomic types    =            3
     number of electrons       =       146.00
     number of Kohn-Sham states=           90
     kinetic-energy cutoff     =      30.0000  Ry
     charge density cutoff     =     240.0000  Ry
     scf convergence threshold =      1.0E-06
     mixing beta               =       0.7000
     number of iterations used =            8  plain     mixing
     Exchange-correlation= SLA  PW   PBX  PBC
                           (   1   4   3   4   0   0   0)

     celldm(1)=   6.324458  celldm(2)=   0.000000  celldm(3)=   0.000000
     celldm(4)=   0.000000  celldm(5)=   0.000000  celldm(6)=   0.000000

     crystal axes: (cart. coord. in units of alat)
               a(1) = (   1.000000   0.000000   0.000000 )
               a(2) = (   0.000000   1.177644   0.000000 )
               a(3) = (   0.000000   0.000000   2.877838 )

     reciprocal axes: (cart. coord. in units 2 pi/alat)
               b(1) = (  1.000000  0.000000  0.000000 )
               b(2) = (  0.000000  0.849153  0.000000 )
               b(3) = (  0.000000  0.000000  0.347483 )

     PseudoPot. # 1 for Co read from file:
     /home/pragov/projects/rrg-bengioy-ad/pragov/crystal_structure_design/SSSP/Co_pbe_v1.2.uspp.F.UPF
     MD5 check sum: 5f91765df6ddd3222702df6e7b74a16d
     Pseudo is Ultrasoft + core correction, Zval = 17.0
     Generated by new atomic code, or converted to UPF format
     Using radial grid of  863 points,  6 beta functions with:
                l(1) =   0
                l(2) =   0
                l(3) =   1
                l(4) =   1
                l(5) =   2
                l(6) =   2
     Q(r) pseudized with  8 coefficients,  rinner =    1.200   1.200   1.200
                                                       1.200   1.200

     PseudoPot. # 2 for Cu read from file:
     /home/pragov/projects/rrg-bengioy-ad/pragov/crystal_structure_design/SSSP/Cu_pbe_v1.2.uspp.F.UPF
     MD5 check sum: 6e991ff952a84172a2a52a1c1e996048
     Pseudo is Ultrasoft + core correction, Zval = 19.0
     Generated by new atomic code, or converted to UPF format
     Using radial grid of  867 points,  6 beta functions with:
                l(1) =   0
                l(2) =   0
                l(3) =   1
                l(4) =   1
                l(5) =   2
                l(6) =   2
     Q(r) pseudized with  8 coefficients,  rinner =    1.150   1.150   1.150
                                                       1.150   1.150

     PseudoPot. # 3 for O  read from file:
     /home/pragov/projects/rrg-bengioy-ad/pragov/crystal_structure_design/SSSP/O.pbe-n-kjpaw_psl.0.1.UPF
     MD5 check sum: 0234752ac141de4415c5fc33072bef88
     Pseudo is Projector augmented-wave + core cor, Zval =  6.0
     Generated using "atomic" code by A. Dal Corso  v.5.0.99 svn rev. 10869
     Shape of augmentation charge: BESSEL
     Using radial grid of 1095 points,  4 beta functions with:
                l(1) =   0
                l(2) =   0
                l(3) =   1
                l(4) =   1
     Q(r) pseudized with 0 coefficients

     atomic species   valence    mass     pseudopotential
        Co            17.00    58.93319     Co( 1.00)
        Cu            19.00    63.54600     Cu( 1.00)
        O              6.00    15.99900     O ( 1.00)

      8 Sym. Ops., with inversion, found ( 4 have fractional translation)

                                    s                        frac. trans.

      isym =  1     identity

 cryst.   s( 1) = (     1          0          0      )
                  (     0          1          0      )
                  (     0          0          1      )

 cart.    s( 1) = (  1.0000000  0.0000000  0.0000000 )
                  (  0.0000000  1.0000000  0.0000000 )
                  (  0.0000000  0.0000000  1.0000000 )

      isym =  2     180 deg rotation - cart. axis [0,0,1]

 cryst.   s( 2) = (    -1          0          0      )    f =(  0.0000000 )
                  (     0         -1          0      )       (  0.5000000 )
                  (     0          0          1      )       ( -0.5000000 )

 cart.    s( 2) = ( -1.0000000  0.0000000  0.0000000 )    f =(  0.0000000 )
                  (  0.0000000 -1.0000000  0.0000000 )       (  0.5888218 )
                  (  0.0000000  0.0000000  1.0000000 )       ( -1.4389191 )

[...]

      isym =  4     180 deg rotation - cart. axis [1,0,0]

[...]

      isym =  5     inversion

[...]

      isym =  6     inv. 180 deg rotation - cart. axis [0,0,1]

[...]

 cryst.   s( 7) = (     1          0          0      )
                  (     0         -1          0      )
                  (     0          0          1      )

 cart.    s( 7) = (  1.0000000  0.0000000  0.0000000 )
                  (  0.0000000 -1.0000000  0.0000000 )
                  (  0.0000000  0.0000000  1.0000000 )

      isym =  8     inv. 180 deg rotation - cart. axis [1,0,0]

 cryst.   s( 8) = (    -1          0          0      )    f =(  0.0000000 )
                  (     0          1          0      )       (  0.5000000 )
                  (     0          0          1      )       ( -0.5000000 )

 cart.    s( 8) = ( -1.0000000  0.0000000  0.0000000 )    f =(  0.0000000 )
                  (  0.0000000  1.0000000  0.0000000 )       (  0.5888218 )
                  (  0.0000000  0.0000000  1.0000000 )       ( -1.4389191 )

   Cartesian axes

     site n.     atom                  positions (alat units)
         1           Co  tau(   1) = (   0.1942190   0.5888218   1.4389191  )
         2           Co  tau(   2) = (   0.8057810   0.0000000   0.0000000  )
         3           Cu  tau(   3) = (   0.6865990   0.0000000   1.9118515  )
         4           Cu  tau(   4) = (   0.6865990   0.0000000   0.9659867  )
         5           Cu  tau(   5) = (   0.3134010   0.5888218   2.4049058  )
         6           Cu  tau(   6) = (   0.3134010   0.5888218   0.4729324  )
         7           O   tau(   7) = (   0.3903110   0.0000000   0.4611563  )
         8           O   tau(   8) = (   0.3903110   0.0000000   2.4166819  )
         9           O   tau(   9) = (   0.6096890   0.5888218   0.9777628  )
        10           O   tau(  10) = (   0.6096890   0.5888218   1.9000754  )
        11           O   tau(  11) = (   0.9898900   0.5888218   0.0000000  )
        12           O   tau(  12) = (   0.0101100   0.0000000   1.4389191  )

   Crystallographic axes

     site n.     atom                  positions (cryst. coord.)
         1           Co  tau(   1) = (  0.1942190  0.5000000  0.5000000  )
         2           Co  tau(   2) = (  0.8057810  0.0000000  0.0000000  )
         3           Cu  tau(   3) = (  0.6865990  0.0000000  0.6643360  )
         4           Cu  tau(   4) = (  0.6865990  0.0000000  0.3356640  )
         5           Cu  tau(   5) = (  0.3134010  0.5000000  0.8356640  )
         6           Cu  tau(   6) = (  0.3134010  0.5000000  0.1643360  )
         7           O   tau(   7) = (  0.3903110  0.0000000  0.1602440  )
         8           O   tau(   8) = (  0.3903110  0.0000000  0.8397560  )
         9           O   tau(   9) = (  0.6096890  0.5000000  0.3397560  )
        10           O   tau(  10) = (  0.6096890  0.5000000  0.6602440  )
        11           O   tau(  11) = (  0.9898900  0.5000000  0.0000000  )
        12           O   tau(  12) = (  0.0101100  0.0000000  0.5000000  )

     number of k points=     8
                       cart. coord. in units 2pi/alat
        k(    1) = (   0.0000000   0.0000000   0.0000000), wk =   0.0740741
        k(    2) = (   0.0000000   0.0000000   0.1158277), wk =   0.1481481
        k(    3) = (   0.0000000   0.2830511   0.0000000), wk =   0.1481481
        k(    4) = (   0.0000000   0.2830511   0.1158277), wk =   0.2962963
        k(    5) = (   0.3333333   0.0000000   0.0000000), wk =   0.1481481
        k(    6) = (   0.3333333   0.0000000   0.1158277), wk =   0.2962963
        k(    7) = (   0.3333333   0.2830511   0.0000000), wk =   0.2962963
        k(    8) = (   0.3333333   0.2830511   0.1158277), wk =   0.5925926

                       cryst. coord.
        k(    1) = (   0.0000000   0.0000000   0.0000000), wk =   0.0740741
        k(    2) = (   0.0000000   0.0000000   0.3333333), wk =   0.1481481
        k(    3) = (   0.0000000   0.3333333   0.0000000), wk =   0.1481481
        k(    4) = (   0.0000000   0.3333333   0.3333333), wk =   0.2962963
        k(    5) = (   0.3333333   0.0000000   0.0000000), wk =   0.1481481
        k(    6) = (   0.3333333   0.0000000   0.3333333), wk =   0.2962963
        k(    7) = (   0.3333333   0.3333333   0.0000000), wk =   0.2962963
        k(    8) = (   0.3333333   0.3333333   0.3333333), wk =   0.5925926

     Check: negative core charge=   -0.000019

     Initial potential from superposition of free atoms

     starting charge     140.0000, renormalised to     146.0000
     Starting wfcs are  102 randomized atomic wfcs
     Checking if some PAW data can be deallocated...

     Self-consistent Calculation

     iteration #  1     ecut=    30.00 Ry     beta= 0.70
     Davidson diagonalization with overlap

     ethr =  1.00E-02,  avg # of iterations =  2.8

     total energy              =   -2421.56058563 Ry
     estimated scf accuracy    <      50.91641396 Ry

[...]

     total energy              =   -2460.87336838 Ry
     estimated scf accuracy    <       0.00000163 Ry

     iteration # 32     ecut=    30.00 Ry     beta= 0.70
     Davidson diagonalization with overlap

     ethr =  1.12E-09,  avg # of iterations =  2.0

     End of self-consistent calculation

          k = 0.0000 0.0000 0.0000 (  2409 PWs)   bands (ev):

  -101.1213-101.1208-101.1193-101.1190 -83.5682 -83.5681 -58.6475 -58.6467
   -58.6426 -58.6395 -58.5840 -58.5826 -58.5805 -58.5794 -58.2792 -58.2769
   -58.2764 -58.2756 -47.0325 -47.0314 -46.7976 -46.7951 -46.6792 -46.6751
    -8.5612  -8.0745  -8.0149  -7.4081  -7.2691  -7.2174   5.1486   5.1704
     5.2193   5.4382   5.5320   5.6366   5.7303   6.3156   6.3421   6.4425
     6.5275   6.6963   7.0138   7.0792   7.3573   7.5944   7.9061   8.1219
     8.6504   8.7743   8.7857   8.8250   8.9314   9.1047   9.1324   9.1341
     9.3198   9.3433   9.4704   9.4736   9.5386   9.5539   9.5606   9.7889
    10.1263  10.1432  10.2468  10.3821  10.5610  10.6127  10.7301  10.9279
    11.0464  11.1020  11.3878  11.4576  11.7576  11.7877  12.7138  15.3562
    15.3577  17.5510  17.8614  18.7308  19.4914  20.1713  21.2570  21.4676
    22.1210  22.2644

     occupation numbers
     1.0000   1.0000   1.0000   1.0000   1.0000   1.0000   1.0000   1.0000
     1.0000   1.0000   1.0000   1.0000   1.0000   1.0000   1.0000   1.0000
     1.0000   1.0000   1.0000   1.0000   1.0000   1.0000   1.0000   1.0000
     1.0000   1.0000   1.0000   1.0000   1.0000   1.0000   1.0000   1.0000
     1.0000   1.0000   1.0000   1.0000   1.0000   1.0000   1.0000   1.0000
     1.0000   1.0000   1.0000   1.0000   1.0000   1.0000   1.0000   1.0000
     1.0000   1.0000   1.0000   1.0000   1.0000   1.0000   1.0000   1.0000
     1.0000   1.0000   1.0000   1.0000   1.0000   1.0000   1.0000   1.0000
     1.0000   1.0000   1.0000   1.0000   1.0000   1.0000   1.0000   1.0000
     1.0000   0.0000   0.0000   0.0000   0.0000   0.0000   0.0000   0.0000
     0.0000   0.0000   0.0000   0.0000   0.0000   0.0000   0.0000   0.0000
     0.0000   0.0000

[...]

          k = 0.3333 0.2831 0.1158 (  2379 PWs)   bands (ev):

  -101.1201-101.1199-101.1190-101.1186 -83.5677 -83.5676 -58.6471 -58.6459
   -58.6423 -58.6413 -58.5808 -58.5802 -58.5793 -58.5788 -58.2775 -58.2765
   -58.2759 -58.2752 -47.0298 -47.0291 -46.7969 -46.7965 -46.6780 -46.6762
    -7.8751  -7.7829  -7.5493  -7.4941  -7.3502  -7.3058   4.3472   4.4325
     4.5172   4.7052   5.1800   5.2709   5.6132   5.6754   5.8936   6.0015
     6.1081   6.2392   6.2785   6.3411   6.6326   6.7127   7.1753   7.3319
     9.0800   9.1180   9.1430   9.2007   9.2447   9.2700   9.3101   9.3850
     9.4695   9.5396   9.5741   9.6164   9.6621   9.6722   9.8084   9.8559
    10.4171  10.4521  10.5173  10.5338  10.7416  10.7839  11.1193  11.2332
    11.6084  11.8160  12.0045  12.0691  12.1671  12.2211  15.8795  16.4195
    17.3895  17.9450  18.4669  18.6447  19.4229  19.4735  19.8440  19.9458
    20.7410  21.0126

     occupation numbers
     1.0000   1.0000   1.0000   1.0000   1.0000   1.0000   1.0000   1.0000
     1.0000   1.0000   1.0000   1.0000   1.0000   1.0000   1.0000   1.0000
     1.0000   1.0000   1.0000   1.0000   1.0000   1.0000   1.0000   1.0000
     1.0000   1.0000   1.0000   1.0000   1.0000   1.0000   1.0000   1.0000
     1.0000   1.0000   1.0000   1.0000   1.0000   1.0000   1.0000   1.0000
     1.0000   1.0000   1.0000   1.0000   1.0000   1.0000   1.0000   1.0000
     1.0000   1.0000   1.0000   1.0000   1.0000   1.0000   1.0000   1.0000
     1.0000   1.0000   1.0000   1.0000   1.0000   1.0000   1.0000   1.0000
     1.0000   1.0000   1.0000   1.0000   1.0000   1.0000   1.0000   1.0000
     1.0000   0.0000   0.0000   0.0000   0.0000   0.0000   0.0000   0.0000
     0.0000   0.0000   0.0000   0.0000   0.0000   0.0000   0.0000   0.0000
     0.0000   0.0000

     highest occupied, lowest unoccupied level (ev):    11.6901   11.0849

!    total energy              =   -2460.87336846 Ry
     estimated scf accuracy    <       0.00000010 Ry

     The total energy is the sum of the following terms:
     one-electron contribution =   -1669.02126571 Ry
     hartree contribution      =     911.60070359 Ry
     xc contribution           =    -264.34489426 Ry
     ewald contribution        =   -1381.90529285 Ry
     one-center paw contrib.   =     -57.20261924 Ry
      -> PAW hartree energy AE =       0.00000000 Ry
      -> PAW hartree energy PS =       0.00000000 Ry
      -> PAW xc energy AE      =       0.00000000 Ry
      -> PAW xc energy PS      =       0.00000000 Ry
      -> total E_H with PAW    =     911.60070359 Ry
      -> total E_XC with PAW   =    -264.34489426 Ry

     convergence has been achieved in  32 iterations

     Writing all to output data dir calculations_bands/myprefix.save/

     General routines

     Parallel routines

     PAW routines

   This run was terminated on:   4:33:29  23Jun2023

   JOB DONE.