     Program PWSCF v.7.0 starts on  5Jun2023 at  6:59:51

     K-points division:     npool     =       2
     R & G space division:  proc/nbgrp/npool/nimage =       4

     Reading input from espresso_9505.pwi
Warning: card &CELL ignored
Warning: card / ignored

     Current dimensions of program PWSCF are:
     Max number of different atomic species (ntypx) = 10
     Max number of k-points (npk) =  40000
     Max angular momentum in pseudopotentials (lmaxx) =  4
     file Ba.pbe-spn-kjpaw_psl.1.0.0.UPF: wavefunction(s)  5S 6S renormalized
     file O.pbe-n-kjpaw_psl.0.1.UPF: wavefunction(s)  2P renormalized
     Message from routine setup:
     using ibrav=0 with symmetry is DISCOURAGED, use correct ibrav instead

     Using Slab Decomposition

     bravais-lattice index     =            0
     lattice parameter (alat)  =      11.5844  a.u.
     unit-cell volume          =    1108.2661 (a.u.)^3
     number of atoms/cell      =           10
     number of atomic types    =            4
     number of electrons       =        82.00
     number of Kohn-Sham states=           64
     kinetic-energy cutoff     =      30.0000  Ry
     charge density cutoff     =     240.0000  Ry
     scf convergence threshold =      1.0E-06
     mixing beta               =       0.7000
     number of iterations used =            8  plain     mixing
     Exchange-correlation= SLA  PW   PBX  PBC
                           (   1   4   3   4   0   0   0)

     celldm(1)=  11.584402  celldm(2)=   0.000000  celldm(3)=   0.000000
     celldm(4)=   0.000000  celldm(5)=   0.000000  celldm(6)=   0.000000

     crystal axes: (cart. coord. in units of alat)
               a(1) = (   1.000000   0.000000   0.000000 )
               a(2) = (   0.499124   0.866530   0.000000 )
               a(3) = (   0.504432   0.291574   0.822696 )

     reciprocal axes: (cart. coord. in units 2 pi/alat)
               b(1) = (  1.000000 -0.576003 -0.409002 )
               b(2) = (  0.000000  1.154028 -0.409002 )
               b(3) = (  0.000000  0.000000  1.215516 )

     PseudoPot. # 1 for Ba read from file:
     /home/pragov/projects/rrg-bengioy-ad/pragov/crystal_structure_design/SSSP/Ba.pbe-spn-kjpaw_psl.1.0.0.UPF
     MD5 check sum: c432291d3e53af55f19d5e8866385beb
     Pseudo is Projector augmented-wave + core cor, Zval = 10.0
     Generated using "atomic" code by A. Dal Corso  v.5.1
     Shape of augmentation charge: PSQ
     Using radial grid of 1251 points,  7 beta functions with:
                l(1) =   0
                l(2) =   0
                l(3) =   0
                l(4) =   1
                l(5) =   1
                l(6) =   2
                l(7) =   2
     Q(r) pseudized with 0 coefficients

     PseudoPot. # 2 for Pr read from file:
     /home/pragov/projects/rrg-bengioy-ad/pragov/crystal_structure_design/SSSP/Pr.GGA-PBE-paw-v1.0.UPF
     MD5 check sum: b5e1e58e76df433569641143f671cc27
     Pseudo is Projector augmented-wave + core cor, Zval = 13.0
     Generated using ATOMPAW code
     Shape of augmentation charge: BESSEL
     Using radial grid of 1103 points,  8 beta functions with:
                l(1) =   0
                l(2) =   0
                l(3) =   1
                l(4) =   1
                l(5) =   2
                l(6) =   2
                l(7) =   3
                l(8) =   3
     Q(r) pseudized with 0 coefficients

     PseudoPot. # 3 for Ta read from file:
     /home/pragov/projects/rrg-bengioy-ad/pragov/crystal_structure_design/SSSP/Ta_pbe_v1.uspp.F.UPF
     MD5 check sum: f8bbe9446314a3b8ea5d9f3e3836c939
     Pseudo is Ultrasoft + core correction, Zval = 13.0
     Generated by new atomic code, or converted to UPF format
     Using radial grid of  921 points,  7 beta functions with:
                l(1) =   0
                l(2) =   0
                l(3) =   1
                l(4) =   1
                l(5) =   2
                l(6) =   2
                l(7) =   3
     Q(r) pseudized with  6 coefficients,  rinner =    1.300   1.300   1.300
                                                       1.300   1.300   1.300
                                                       1.300

     PseudoPot. # 4 for O  read from file:
     /home/pragov/projects/rrg-bengioy-ad/pragov/crystal_structure_design/SSSP/O.pbe-n-kjpaw_psl.0.1.UPF
     MD5 check sum: 0234752ac141de4415c5fc33072bef88
     Pseudo is Projector augmented-wave + core cor, Zval =  6.0
     Generated using "atomic" code by A. Dal Corso  v.5.0.99 svn rev. 10869
     Shape of augmentation charge: BESSEL
     Using radial grid of 1095 points,  4 beta functions with:
                l(1) =   0
                l(2) =   0
                l(3) =   1
                l(4) =   1
     Q(r) pseudized with 0 coefficients

     atomic species   valence    mass     pseudopotential
        Ba            10.00   137.32700     Ba( 1.00)
        Pr            13.00   140.90766     Pr( 1.00)
        Ta            13.00   180.94788     Ta( 1.00)
        O              6.00    15.99900     O ( 1.00)

      2 Sym. Ops., with inversion, found

                                    s                        frac. trans.

      isym =  1     identity

 cryst.   s( 1) = (     1          0          0      )
                  (     0          1          0      )
                  (     0          0          1      )

 cart.    s( 1) = (  1.0000000  0.0000000 -0.0000000 )
                  (  0.0000000  1.0000000 -0.0000000 )
                  (  0.0000000  0.0000000  1.0000000 )

      isym =  2     inversion

 cryst.   s( 2) = (    -1          0          0      )
                  (     0         -1          0      )
                  (     0          0         -1      )

 cart.    s( 2) = ( -1.0000000 -0.0000000  0.0000000 )
                  (  0.0000000 -1.0000000  0.0000000 )
                  (  0.0000000  0.0000000 -1.0000000 )

   Cartesian axes

     site n.     atom                  positions (alat units)
         1           Ba  tau(   1) = (   1.5019433   0.8681600   0.6126995  )
         2           Ba  tau(   2) = (   0.5016130   0.2899446   0.2099964  )
         3           Pr  tau(   3) = (   0.0000000   0.0000000   0.0000000  )
         4           Ta  tau(   4) = (   1.0017781   0.5790523   0.4113480  )
         5           O   tau(   5) = (   0.9711366   0.2939356   0.2504089  )
         6           O   tau(   6) = (   1.0324196   0.8641689   0.5722871  )
         7           O   tau(   7) = (   1.2641343   0.4632955   0.5722871  )
         8           O   tau(   8) = (   0.7394220   0.6948091   0.2504089  )
         9           O   tau(   9) = (   1.1987743   0.6929209   0.1738126  )
        10           O   tau(  10) = (   0.8047820   0.4651837   0.6488834  )

   Crystallographic axes

     site n.     atom                  positions (cryst. coord.)
         1           Ba  tau(   1) = (  0.7512850  0.7512850  0.7447460  )
         2           Ba  tau(   2) = (  0.2487150  0.2487150  0.2552540  )
         3           Pr  tau(   3) = (  0.0000000  0.0000000  0.0000000  )
         4           Ta  tau(   4) = (  0.5000000  0.5000000  0.5000000  )
         5           O   tau(   5) = (  0.6994110  0.2367920  0.3043760  )
         6           O   tau(   6) = (  0.3005890  0.7632080  0.6956240  )
         7           O   tau(   7) = (  0.7632080  0.3005890  0.6956240  )
         8           O   tau(   8) = (  0.2367920  0.6994110  0.3043760  )
         9           O   tau(   9) = (  0.7285600  0.7285600  0.2112720  )
        10           O   tau(  10) = (  0.2714400  0.2714400  0.7887280  )

     number of k points=    14
                       cart. coord. in units 2pi/alat
        k(    1) = (   0.0000000   0.0000000   0.0000000), wk =   0.0740741
        k(    2) = (   0.0000000   0.0000000   0.4051720), wk =   0.1481481
        k(    3) = (   0.0000000   0.3846758  -0.1363341), wk =   0.1481481
        k(    4) = (   0.0000000   0.3846758   0.2688379), wk =   0.1481481
        k(    5) = (   0.0000000   0.3846758  -0.5415060), wk =   0.1481481
        k(    6) = (   0.3333333  -0.1920010  -0.1363341), wk =   0.1481481
        k(    7) = (   0.3333333  -0.1920010   0.2688379), wk =   0.1481481
        k(    8) = (   0.3333333  -0.1920010  -0.5415060), wk =   0.1481481
        k(    9) = (   0.3333333   0.1926748  -0.2726682), wk =   0.1481481
        k(   10) = (   0.3333333   0.1926748   0.1325038), wk =   0.1481481
        k(   11) = (   0.3333333   0.1926748  -0.6778401), wk =   0.1481481
        k(   12) = (   0.3333333  -0.5766768  -0.0000000), wk =   0.1481481
        k(   13) = (   0.3333333  -0.5766768   0.4051720), wk =   0.1481481
        k(   14) = (   0.3333333  -0.5766768  -0.4051720), wk =   0.1481481

                       cryst. coord.
        k(    1) = (   0.0000000   0.0000000   0.0000000), wk =   0.0740741
        k(    2) = (   0.0000000   0.0000000   0.3333333), wk =   0.1481481
        k(    3) = (   0.0000000   0.3333333   0.0000000), wk =   0.1481481
        k(    4) = (   0.0000000   0.3333333   0.3333333), wk =   0.1481481
        k(    5) = (   0.0000000   0.3333333  -0.3333333), wk =   0.1481481
        k(    6) = (   0.3333333   0.0000000   0.0000000), wk =   0.1481481
        k(    7) = (   0.3333333   0.0000000   0.3333333), wk =   0.1481481
        k(    8) = (   0.3333333   0.0000000  -0.3333333), wk =   0.1481481
        k(    9) = (   0.3333333   0.3333333   0.0000000), wk =   0.1481481
        k(   10) = (   0.3333333   0.3333333   0.3333333), wk =   0.1481481
        k(   11) = (   0.3333333   0.3333333  -0.3333333), wk =   0.1481481
        k(   12) = (   0.3333333  -0.3333333  -0.0000000), wk =   0.1481481
        k(   13) = (   0.3333333  -0.3333333   0.3333333), wk =   0.1481481
        k(   14) = (   0.3333333  -0.3333333  -0.3333333), wk =   0.1481481

     Check: negative core charge=   -0.000008

     Initial potential from superposition of free atoms

     starting charge      81.9575, renormalised to      82.0000

     negative rho (up, down):  9.496E-02 0.000E+00
     Starting wfcs are   79 randomized atomic wfcs
     Checking if some PAW data can be deallocated...

     Self-consistent Calculation

     iteration #  1     ecut=    30.00 Ry     beta= 0.70
     Davidson diagonalization with overlap

     ethr =  1.00E-02,  avg # of iterations =  7.4

     negative rho (up, down):  1.101E-01 0.000E+00

     total energy              =   -1771.99763648 Ry
     estimated scf accuracy    <       2.94702010 Ry

[...]

     total energy              =   -1773.53010533 Ry
     estimated scf accuracy    <       0.00001592 Ry

     iteration # 39     ecut=    30.00 Ry     beta= 0.70
     Davidson diagonalization with overlap

     ethr =  2.72E-09,  avg # of iterations =  1.0

     negative rho (up, down):  9.682E-02 0.000E+00

     End of self-consistent calculation

          k = 0.0000 0.0000 0.0000 (  3109 PWs)   bands (ev):

   -57.8900 -24.4323 -24.4220 -24.4162 -23.9290 -16.4230 -16.3431  -7.7465
    -7.6899  -7.6748  -7.4455  -7.1271  -7.1239  -4.9234  -4.9036  -4.8737
    -1.9354  -1.8431  -1.7782  -1.5167  -1.4810  -1.4764   5.4517   5.4595
     5.6388   6.3859   6.3970   6.4037   7.7372   7.7510   7.8178   8.1586
     8.1801   8.2262   8.6075   8.6428   8.6503   8.7962   8.8234   8.8998
    12.3282  12.3585  12.3672  12.4732  12.5192  12.5603  12.5930  12.6902
    12.8041  12.8145  13.7128  14.1916  14.2077  15.0159  15.1519  15.1907
    15.5384  15.7894  15.8488  17.3735  17.3802  17.6337  17.6856  17.9255

     occupation numbers
     1.0000   1.0000   1.0000   1.0000   1.0000   1.0000   1.0000   1.0000
     1.0000   1.0000   1.0000   1.0000   1.0000   1.0000   1.0000   1.0000
     1.0000   1.0000   1.0000   1.0000   1.0000   1.0000   1.0000   1.0000
     1.0000   1.0000   1.0000   1.0000   1.0000   1.0000   1.0000   1.0000
     1.0000   1.0000   1.0000   1.0000   1.0000   1.0000   1.0000   1.0000
     1.0000   0.0000   0.0000   0.0000   0.0000   0.0000   0.0000   0.0000
     0.0000   0.0000   0.0000   0.0000   0.0000   0.0000   0.0000   0.0000
     0.0000   0.0000   0.0000   0.0000   0.0000   0.0000   0.0000   0.0000

[...]

          k = 0.3333-0.5767-0.4052 (  3083 PWs)   bands (ev):

   -57.8899 -24.4325 -24.4222 -24.4164 -23.9276 -16.3812 -16.3802  -8.1164
    -7.9070  -7.7377  -7.2471  -6.8878  -6.7700  -5.1517  -5.0598  -4.8767
    -1.6360  -1.5849  -1.5301  -1.4855  -1.4770  -1.4416   5.4569   5.9144
     6.0504   6.0659   6.1171   6.3854   7.0497   7.2041   7.2174   7.6098
     7.7569   8.0467   8.1912   8.2676   8.3019   8.4564   8.6594   8.8769
    12.2600  12.3059  12.3663  12.4333  12.5039  12.5331  12.5487  13.6424
    13.9480  14.0870  14.7552  15.0992  15.2536  15.5367  15.6318  15.9270
    16.0209  16.2418  16.4695  16.9003  17.0506  17.2345  17.9511  18.1993

     occupation numbers
     1.0000   1.0000   1.0000   1.0000   1.0000   1.0000   1.0000   1.0000
     1.0000   1.0000   1.0000   1.0000   1.0000   1.0000   1.0000   1.0000
     1.0000   1.0000   1.0000   1.0000   1.0000   1.0000   1.0000   1.0000
     1.0000   1.0000   1.0000   1.0000   1.0000   1.0000   1.0000   1.0000
     1.0000   1.0000   1.0000   1.0000   1.0000   1.0000   1.0000   1.0000
     1.0000   0.0000   0.0000   0.0000   0.0000   0.0000   0.0000   0.0000
     0.0000   0.0000   0.0000   0.0000   0.0000   0.0000   0.0000   0.0000
     0.0000   0.0000   0.0000   0.0000   0.0000   0.0000   0.0000   0.0000

     highest occupied, lowest unoccupied level (ev):    12.3282   12.2608

!    total energy              =   -1773.53010511 Ry
     estimated scf accuracy    <       0.00000099 Ry

     The total energy is the sum of the following terms:
     one-electron contribution =    -120.39805868 Ry
     hartree contribution      =     113.89777569 Ry
     xc contribution           =    -139.65783370 Ry
     ewald contribution        =    -400.75605641 Ry
     one-center paw contrib.   =   -1226.61593201 Ry
      -> PAW hartree energy AE =      57.31870308 Ry
      -> PAW hartree energy PS =     -57.09519236 Ry
      -> PAW xc energy AE      =    -788.43811578 Ry
      -> PAW xc energy PS      =      38.30563507 Ry
      -> total E_H with PAW    =     114.12128641 Ry
      -> total E_XC with PAW   =    -889.79031441 Ry

     convergence has been achieved in  39 iterations

     Writing all to output data dir calculations_bands/myprefix.save/

     General routines

     Parallel routines

     PAW routines

   This run was terminated on:   7: 5:57   5Jun2023

   JOB DONE.