     Program PWSCF v.7.0 starts on  6Jun2023 at  7:23:35

     K-points division:     npool     =       2
     R & G space division:  proc/nbgrp/npool/nimage =       4

     Reading input from espresso_13955.pwi
Warning: card &CELL ignored
Warning: card / ignored

     Current dimensions of program PWSCF are:
     Max number of different atomic species (ntypx) = 10
     Max number of k-points (npk) =  40000
     Max angular momentum in pseudopotentials (lmaxx) =  4
     Message from routine setup:
     using ibrav=0 with symmetry is DISCOURAGED, use correct ibrav instead

     Using Slab Decomposition

     bravais-lattice index     =            0
     lattice parameter (alat)  =      14.0901  a.u.
     unit-cell volume          =    1666.3605 (a.u.)^3
     number of atoms/cell      =           10
     number of atomic types    =            3
     number of electrons       =       100.00
     number of Kohn-Sham states=           64
     kinetic-energy cutoff     =      30.0000  Ry
     charge density cutoff     =     240.0000  Ry
     scf convergence threshold =      1.0E-06
     mixing beta               =       0.7000
     number of iterations used =            8  plain     mixing
     Exchange-correlation= SLA  PW   PBE  PBE
                           (   1   4   3   4   0   0   0)

     celldm(1)=  14.090108  celldm(2)=   0.000000  celldm(3)=   0.000000
     celldm(4)=   0.000000  celldm(5)=   0.000000  celldm(6)=   0.000000

     crystal axes: (cart. coord. in units of alat)
               a(1) = (   1.000000   0.000000   0.000000 )
               a(2) = (   0.241263   0.970460   0.000000 )
               a(3) = (  -0.589343  -0.525249   0.613831 )

     reciprocal axes: (cart. coord. in units 2 pi/alat)
               b(1) = (  1.000000 -0.248607  0.747377 )
               b(2) = (  0.000000  1.030439  0.881737 )
               b(3) = (  0.000000  0.000000  1.629114 )

     PseudoPot. # 1 for Na read from file:
     /home/pragov/projects/rrg-bengioy-ad/pragov/crystal_structure_design/SSSP/na_pbe_v1.5.uspp.F.UPF
     MD5 check sum: 44600605ef58000f06b90626533354dc
     Pseudo is Ultrasoft, Zval =  9.0
     Generated by new atomic code, or converted to UPF format
     Using radial grid of  819 points,  5 beta functions with:
                l(1) =   0
                l(2) =   0
                l(3) =   1
                l(4) =   1
                l(5) =   2
     Q(r) pseudized with  8 coefficients,  rinner =    1.250   1.250   1.250
                                                       1.250   1.250

     PseudoPot. # 2 for Zn read from file:
     /home/pragov/projects/rrg-bengioy-ad/pragov/crystal_structure_design/SSSP/Zn_pbe_v1.uspp.F.UPF
     MD5 check sum: df62231357ef9e81f77b2b3087fa5675
     Pseudo is Ultrasoft, Zval = 20.0
     Generated by new atomic code, or converted to UPF format
     Using radial grid of  943 points,  6 beta functions with:
                l(1) =   0
                l(2) =   0
                l(3) =   1
                l(4) =   1
                l(5) =   2
                l(6) =   2
     Q(r) pseudized with  8 coefficients,  rinner =    1.100   1.100   1.100
                                                       1.100   1.100

     PseudoPot. # 3 for Se read from file:
     /home/pragov/projects/rrg-bengioy-ad/pragov/crystal_structure_design/SSSP/Se_pbe_v1.uspp.F.UPF
     MD5 check sum: 1b3568f3a8ae88f9a2a0ad0698632c85
     Pseudo is Ultrasoft + core correction, Zval =  6.0
     Generated by new atomic code, or converted to UPF format
     Using radial grid of  877 points,  6 beta functions with:
                l(1) =   0
                l(2) =   0
                l(3) =   1
                l(4) =   1
                l(5) =   2
                l(6) =   2
     Q(r) pseudized with  8 coefficients,  rinner =    1.300   1.300   1.300
                                                       1.300   1.300

     atomic species   valence    mass     pseudopotential
        Na             9.00    22.98977     Na( 1.00)
        Zn            20.00    65.38000     Zn( 1.00)
        Se             6.00    78.97100     Se( 1.00)

      2 Sym. Ops., with inversion, found

                                    s                        frac. trans.

      isym =  1     identity

 cryst.   s( 1) = (     1          0          0      )
                  (     0          1          0      )
                  (     0          0          1      )

 cart.    s( 1) = (  1.0000000  0.0000000 -0.0000000 )
                  (  0.0000000  1.0000000  0.0000000 )
                  (  0.0000000  0.0000000  1.0000000 )

      isym =  2     inversion

 cryst.   s( 2) = (    -1          0          0      )
                  (     0         -1          0      )
                  (     0          0         -1      )

 cart.    s( 2) = ( -1.0000000 -0.0000000  0.0000000 )
                  (  0.0000000 -1.0000000 -0.0000000 )
                  (  0.0000000  0.0000000 -1.0000000 )

   Cartesian axes

     site n.     atom                  positions (alat units)
         1           Na  tau(   1) = (   0.3150745  -0.0457291   0.2118341  )
         2           Na  tau(   2) = (   0.3368453   0.4909399   0.4019964  )
         3           Na  tau(   3) = (  -0.2056767  -0.0941944   0.5187494  )
         4           Na  tau(   4) = (   0.8575965   0.5394052   0.0950811  )
         5           Zn  tau(   5) = (  -0.0870201   0.1113027   0.1534576  )
         6           Zn  tau(   6) = (  -0.2610602   0.3339081   0.4603729  )
         7           Se  tau(   7) = (   0.0547813   0.2196055   0.4388471  )
         8           Se  tau(   8) = (   0.5971385   0.2256053   0.1749834  )
         9           Se  tau(   9) = (   0.1889683   0.7476740   0.1319318  )
        10           Se  tau(  10) = (   0.4629515  -0.3024632   0.4818987  )

   Crystallographic axes

     site n.     atom                  positions (cryst. coord.)
         1           Na  tau(   1) = (  0.4847630  0.1396610  0.3451020  )
         2           Na  tau(   2) = (  0.5152370  0.8603390  0.6548980  )
         3           Na  tau(   3) = (  0.2054420  0.3603390  0.8451020  )
         4           Na  tau(   4) = (  0.7945580  0.6396610  0.1548980  )
         5           Zn  tau(   5) = (  0.0000000  0.2500000  0.2500000  )
         6           Zn  tau(   6) = (  0.0000000  0.7500000  0.7500000  )
         7           Se  tau(   7) = (  0.3281700  0.6132380  0.7149320  )
         8           Se  tau(   8) = (  0.6718300  0.3867620  0.2850680  )
         9           Se  tau(   9) = (  0.1016940  0.8867620  0.2149320  )
        10           Se  tau(  10) = (  0.8983060  0.1132380  0.7850680  )

     number of k points=    14
                       cart. coord. in units 2pi/alat
        k(    1) = (   0.0000000   0.0000000   0.0000000), wk =   0.0740741
        k(    2) = (   0.0000000   0.0000000   0.5430380), wk =   0.1481481
        k(    3) = (   0.0000000   0.3434798   0.2939124), wk =   0.1481481
        k(    4) = (   0.0000000   0.3434798   0.8369504), wk =   0.1481481
        k(    5) = (   0.0000000   0.3434798  -0.2491256), wk =   0.1481481
        k(    6) = (   0.3333333  -0.0828690   0.2491256), wk =   0.1481481
        k(    7) = (   0.3333333  -0.0828690   0.7921637), wk =   0.1481481
        k(    8) = (   0.3333333  -0.0828690  -0.2939124), wk =   0.1481481
        k(    9) = (   0.3333333   0.2606108   0.5430380), wk =   0.1481481
        k(   10) = (   0.3333333   0.2606108   1.0860761), wk =   0.1481481
        k(   11) = (   0.3333333   0.2606108  -0.0000000), wk =   0.1481481
        k(   12) = (   0.3333333  -0.4263489  -0.0447868), wk =   0.1481481
        k(   13) = (   0.3333333  -0.4263489   0.4982513), wk =   0.1481481
        k(   14) = (   0.3333333  -0.4263489  -0.5878248), wk =   0.1481481

                       cryst. coord.
        k(    1) = (   0.0000000   0.0000000   0.0000000), wk =   0.0740741
        k(    2) = (   0.0000000   0.0000000   0.3333333), wk =   0.1481481
        k(    3) = (   0.0000000   0.3333333  -0.0000000), wk =   0.1481481
        k(    4) = (   0.0000000   0.3333333   0.3333333), wk =   0.1481481
        k(    5) = (   0.0000000   0.3333333  -0.3333333), wk =   0.1481481
        k(    6) = (   0.3333333  -0.0000000  -0.0000000), wk =   0.1481481
        k(    7) = (   0.3333333  -0.0000000   0.3333333), wk =   0.1481481
        k(    8) = (   0.3333333  -0.0000000  -0.3333333), wk =   0.1481481
        k(    9) = (   0.3333333   0.3333333  -0.0000000), wk =   0.1481481
        k(   10) = (   0.3333333   0.3333333   0.3333333), wk =   0.1481481
        k(   11) = (   0.3333333   0.3333333  -0.3333333), wk =   0.1481481
        k(   12) = (   0.3333333  -0.3333333   0.0000000), wk =   0.1481481
        k(   13) = (   0.3333333  -0.3333333   0.3333333), wk =   0.1481481
        k(   14) = (   0.3333333  -0.3333333  -0.3333333), wk =   0.1481481

     Initial potential from superposition of free atoms

     starting charge      99.9743, renormalised to     100.0000
     Starting wfcs are   62 randomized atomic wfcs +    2 random wfcs

     Self-consistent Calculation

     iteration #  1     ecut=    30.00 Ry     beta= 0.70
     Davidson diagonalization with overlap

     ethr =  1.00E-02,  avg # of iterations =  5.5

     Threshold (ethr) on eigenvalues was too large:
     Diagonalizing with lowered threshold

     Davidson diagonalization with overlap

[...]

     total energy              =   -1479.24704025 Ry
     estimated scf accuracy    <       0.45342939 Ry

[...]

     total energy              =   -1479.44338687 Ry
     estimated scf accuracy    <       0.00000425 Ry

     iteration #  7     ecut=    30.00 Ry     beta= 0.70
     Davidson diagonalization with overlap

     ethr =  4.25E-09,  avg # of iterations =  2.0

     End of self-consistent calculation

          k = 0.0000 0.0000 0.0000 (  4619 PWs)   bands (ev):

  -121.4377-121.4348 -75.5559 -75.5438 -75.5385 -75.5375 -75.5371 -75.5285
   -47.5513 -47.5511 -47.5510 -47.5507 -19.4801 -19.4753 -19.4701 -19.4675
   -19.4663 -19.4651 -19.4642 -19.4619 -19.4422 -19.4395 -19.4322 -19.4316
    -8.2609  -7.5895  -7.5820  -7.5123  -2.6277  -2.4210  -2.4113  -2.4092
    -2.3386  -2.3145  -2.2908  -2.2659  -2.2272  -2.1987  -0.2493   0.2295
     1.0743   1.8907   1.9563   1.9569   1.9662   2.1466   2.9871   3.5826
     3.6751   3.6779   5.4657   6.9615   7.0466   8.9265   9.1652   9.7490
     9.7586   9.7787   9.9303  10.1809  10.1908  11.2261  11.2510  12.1127

     occupation numbers
     1.0000   1.0000   1.0000   1.0000   1.0000   1.0000   1.0000   1.0000
     1.0000   1.0000   1.0000   1.0000   1.0000   1.0000   1.0000   1.0000
     1.0000   1.0000   1.0000   1.0000   1.0000   1.0000   1.0000   1.0000
     1.0000   1.0000   1.0000   1.0000   1.0000   1.0000   1.0000   1.0000
     1.0000   1.0000   1.0000   1.0000   1.0000   1.0000   1.0000   1.0000
     1.0000   1.0000   1.0000   1.0000   1.0000   1.0000   1.0000   1.0000
     1.0000   1.0000   0.0000   0.0000   0.0000   0.0000   0.0000   0.0000
     0.0000   0.0000   0.0000   0.0000   0.0000   0.0000   0.0000   0.0000

[...]

          k = 0.3333-0.4263-0.5878 (  4618 PWs)   bands (ev):

  -121.4372-121.4362 -75.5500 -75.5427 -75.5426 -75.5415 -75.5380 -75.5343
   -47.5517 -47.5512 -47.5509 -47.5508 -19.4769 -19.4758 -19.4744 -19.4714
   -19.4658 -19.4647 -19.4624 -19.4621 -19.4382 -19.4380 -19.4379 -19.4336
    -7.9997  -7.7644  -7.6220  -7.5868  -2.4903  -2.4295  -2.4122  -2.4091
    -2.3682  -2.3154  -2.3089  -2.3039  -2.2742  -2.2421  -0.2655  -0.0485
     1.2589   1.7572   1.7693   2.0269   2.6413   2.7143   2.9084   3.2460
     3.3072   3.4035   6.9214   7.4856   8.0308   8.1056   8.2568   8.7397
     9.4411   9.4591   9.5721   9.9508  10.5917  10.8152  11.2377  11.2886

     occupation numbers
     1.0000   1.0000   1.0000   1.0000   1.0000   1.0000   1.0000   1.0000
     1.0000   1.0000   1.0000   1.0000   1.0000   1.0000   1.0000   1.0000
     1.0000   1.0000   1.0000   1.0000   1.0000   1.0000   1.0000   1.0000
     1.0000   1.0000   1.0000   1.0000   1.0000   1.0000   1.0000   1.0000
     1.0000   1.0000   1.0000   1.0000   1.0000   1.0000   1.0000   1.0000
     1.0000   1.0000   1.0000   1.0000   1.0000   1.0000   1.0000   1.0000
     1.0000   1.0000   0.0000   0.0000   0.0000   0.0000   0.0000   0.0000
     0.0000   0.0000   0.0000   0.0000   0.0000   0.0000   0.0000   0.0000

     highest occupied, lowest unoccupied level (ev):     3.6779    5.4657

!    total energy              =   -1479.44338836 Ry
     estimated scf accuracy    <       0.00000010 Ry

     The total energy is the sum of the following terms:
     one-electron contribution =   -1415.37372123 Ry
     hartree contribution      =     728.31658355 Ry
     xc contribution           =    -260.84513060 Ry
     ewald contribution        =    -531.54112008 Ry

     convergence has been achieved in   7 iterations

     Writing all to output data dir calculations_bands/myprefix.save/

     General routines

     Parallel routines

   This run was terminated on:   7:23:52   6Jun2023

   JOB DONE.