     Program PWSCF v.7.0 starts on  6Jun2023 at 20:12:38

     K-points division:     npool     =       2
     R & G space division:  proc/nbgrp/npool/nimage =       4

     Reading input from espresso_249.pwi
Warning: card &CELL ignored
Warning: card / ignored

     Current dimensions of program PWSCF are:
     Max number of different atomic species (ntypx) = 10
     Max number of k-points (npk) =  40000
     Max angular momentum in pseudopotentials (lmaxx) =  4
     file Ba.pbe-spn-kjpaw_psl.1.0.0.UPF: wavefunction(s)  5S 6S renormalized
     file O.pbe-n-kjpaw_psl.0.1.UPF: wavefunction(s)  2P renormalized
     Message from routine setup:
     using ibrav=0 with symmetry is DISCOURAGED, use correct ibrav instead

     Using Slab Decomposition

     bravais-lattice index     =            0
     lattice parameter (alat)  =      13.4063  a.u.
     unit-cell volume          =    1021.2446 (a.u.)^3
     number of atoms/cell      =           13
     number of atomic types    =            3
     number of electrons       =       118.00
     number of Kohn-Sham states=           64
     kinetic-energy cutoff     =      30.0000  Ry
     charge density cutoff     =     240.0000  Ry
     scf convergence threshold =      1.0E-06
     mixing beta               =       0.7000
     number of iterations used =            8  plain     mixing
     Exchange-correlation= SLA  PW   PBX  PBC
                           (   1   4   3   4   0   0   0)

     celldm(1)=  13.406299  celldm(2)=   0.000000  celldm(3)=   0.000000
     celldm(4)=   0.000000  celldm(5)=   0.000000  celldm(6)=   0.000000

     crystal axes: (cart. coord. in units of alat)
               a(1) = (   1.000000   0.000000   0.000000 )
               a(2) = (  -0.900531   0.434791   0.000000 )
               a(3) = (  -0.049734  -0.217395   0.974816 )

     reciprocal axes: (cart. coord. in units 2 pi/alat)
               b(1) = (  1.000000  2.071182  0.512917 )
               b(2) = (  0.000000  2.299956  0.512917 )
               b(3) = (  0.000000  0.000000  1.025835 )

     PseudoPot. # 1 for Ba read from file:
     /home/pragov/projects/rrg-bengioy-ad/pragov/crystal_structure_design/SSSP/Ba.pbe-spn-kjpaw_psl.1.0.0.UPF
     MD5 check sum: c432291d3e53af55f19d5e8866385beb
     Pseudo is Projector augmented-wave + core cor, Zval = 10.0
     Generated using "atomic" code by A. Dal Corso  v.5.1
     Shape of augmentation charge: PSQ
     Using radial grid of 1251 points,  7 beta functions with:
                l(1) =   0
                l(2) =   0
                l(3) =   0
                l(4) =   1
                l(5) =   1
                l(6) =   2
                l(7) =   2
     Q(r) pseudized with 0 coefficients

     PseudoPot. # 2 for Mn read from file:
     /home/pragov/projects/rrg-bengioy-ad/pragov/crystal_structure_design/SSSP/mn_pbe_v1.5.uspp.F.UPF
     MD5 check sum: 82ef2b46521d7a7d9e736dc3972e4928
     Pseudo is Ultrasoft + core correction, Zval = 15.0
     Generated by new atomic code, or converted to UPF format
     Using radial grid of  859 points,  6 beta functions with:
                l(1) =   0
                l(2) =   0
                l(3) =   1
                l(4) =   1
                l(5) =   2
                l(6) =   2
     Q(r) pseudized with  8 coefficients,  rinner =    0.950   0.950   0.950
                                                       0.950   0.950

     PseudoPot. # 3 for O  read from file:
     /home/pragov/projects/rrg-bengioy-ad/pragov/crystal_structure_design/SSSP/O.pbe-n-kjpaw_psl.0.1.UPF
     MD5 check sum: 0234752ac141de4415c5fc33072bef88
     Pseudo is Projector augmented-wave + core cor, Zval =  6.0
     Generated using "atomic" code by A. Dal Corso  v.5.0.99 svn rev. 10869
     Shape of augmentation charge: BESSEL
     Using radial grid of 1095 points,  4 beta functions with:
                l(1) =   0
                l(2) =   0
                l(3) =   1
                l(4) =   1
     Q(r) pseudized with 0 coefficients

     atomic species   valence    mass     pseudopotential
        Ba            10.00   137.32700     Ba( 1.00)
        Mn            15.00    54.93804     Mn( 1.00)
        O              6.00    15.99900     O ( 1.00)

      2 Sym. Ops., with inversion, found

                                    s                        frac. trans.

      isym =  1     identity

 cryst.   s( 1) = (     1          0          0      )
                  (     0          1          0      )
                  (     0          0          1      )

 cart.    s( 1) = (  1.0000000  0.0000000 -0.0000000 )
                  (  0.0000000  1.0000000 -0.0000000 )
                  (  0.0000000  0.0000000  1.0000000 )

      isym =  2     inversion

 cryst.   s( 2) = (    -1          0          0      )
                  (     0         -1          0      )
                  (     0          0         -1      )

 cart.    s( 2) = ( -1.0000000 -0.0000000  0.0000000 )
                  (  0.0000000 -1.0000000  0.0000000 )
                  (  0.0000000  0.0000000 -1.0000000 )

   Cartesian axes

     site n.     atom                  positions (alat units)
         1           Ba  tau(   1) = (   0.0497343   0.2173955   0.0000000  )
         2           Mn  tau(   2) = (  -0.4124150   0.3231232   0.1800192  )
         3           Mn  tau(   3) = (   0.4621493  -0.1057277   0.7947965  )
         4           Mn  tau(   4) = (   0.2252208   0.1772489   0.4740890  )
         5           Mn  tau(   5) = (  -0.1754865   0.0401466   0.5007268  )
         6           O   tau(   6) = (  -0.2232894   0.2798560   0.3626929  )
         7           O   tau(   7) = (   0.2730237  -0.0624606   0.6121229  )
         8           O   tau(   8) = (  -0.3535587   0.0808848   0.6947385  )
         9           O   tau(   9) = (   0.4032930   0.1365107   0.2800772  )
        10           O   tau(  10) = (  -0.6227965   0.1424793   0.9332262  )
        11           O   tau(  11) = (   0.0091922   0.2266705   0.6388864  )
        12           O   tau(  12) = (   0.6725308   0.0749162   0.0415895  )
        13           O   tau(  13) = (   0.0405421  -0.0092750   0.3359293  )

   Crystallographic axes

     site n.     atom                  positions (cryst. coord.)
         1           Ba  tau(   1) = (  0.5000000  0.5000000  0.0000000  )
         2           Mn  tau(   2) = (  0.3491670  0.8355040  0.1846700  )
         3           Mn  tau(   3) = (  0.6508330  0.1644960  0.8153300  )
         4           Mn  tau(   4) = (  0.8355040  0.6508330  0.4863370  )
         5           Mn  tau(   5) = (  0.1644960  0.3491670  0.5136630  )
         6           O   tau(   6) = (  0.5423750  0.8296880  0.3720630  )
         7           O   tau(   7) = (  0.4576250  0.1703120  0.6279370  )
         8           O   tau(   8) = (  0.1703120  0.5423750  0.7126870  )
         9           O   tau(   9) = (  0.8296880  0.4576250  0.2873130  )
        10           O   tau(  10) = (  0.1509720  0.8063640  0.9573360  )
        11           O   tau(  11) = (  0.8063640  0.8490280  0.6553920  )
        12           O   tau(  12) = (  0.8490280  0.1936360  0.0426640  )
        13           O   tau(  13) = (  0.1936360  0.1509720  0.3446080  )

     number of k points=    14
                       cart. coord. in units 2pi/alat
        k(    1) = (   0.0000000   0.0000000   0.0000000), wk =   0.0740741
        k(    2) = (   0.0000000   0.0000000   0.3419450), wk =   0.1481481
        k(    3) = (   0.0000000   0.7666519   0.1709725), wk =   0.1481481
        k(    4) = (   0.0000000   0.7666519   0.5129175), wk =   0.1481481
        k(    5) = (   0.3333333   0.6903941   0.1709725), wk =   0.1481481
        k(    6) = (   0.3333333   0.6903941   0.5129175), wk =   0.1481481
        k(    7) = (   0.3333333   1.4570460   0.3419450), wk =   0.1481481
        k(    8) = (   0.3333333   1.4570460   0.0000000), wk =   0.1481481
        k(    9) = (   0.3333333  -0.0762578   0.0000000), wk =   0.1481481
        k(   10) = (   0.3333333  -0.0762578   0.3419450), wk =   0.1481481
        k(   11) = (   0.0000000  -0.7666519   0.1709725), wk =   0.1481481
        k(   12) = (  -0.3333333  -0.6903941   0.1709725), wk =   0.1481481
        k(   13) = (  -0.3333333  -1.4570460   0.3419450), wk =   0.1481481
        k(   14) = (  -0.3333333   0.0762578   0.3419450), wk =   0.1481481

                       cryst. coord.
        k(    1) = (   0.0000000   0.0000000   0.0000000), wk =   0.0740741
        k(    2) = (   0.0000000   0.0000000   0.3333333), wk =   0.1481481
        k(    3) = (   0.0000000   0.3333333  -0.0000000), wk =   0.1481481
        k(    4) = (   0.0000000   0.3333333   0.3333333), wk =   0.1481481
        k(    5) = (   0.3333333  -0.0000000  -0.0000000), wk =   0.1481481
        k(    6) = (   0.3333333  -0.0000000   0.3333333), wk =   0.1481481
        k(    7) = (   0.3333333   0.3333333  -0.0000000), wk =   0.1481481
        k(    8) = (   0.3333333   0.3333333  -0.3333333), wk =   0.1481481
        k(    9) = (   0.3333333  -0.3333333  -0.0000000), wk =   0.1481481
        k(   10) = (   0.3333333  -0.3333333   0.3333333), wk =   0.1481481
        k(   11) = (   0.0000000  -0.3333333   0.3333333), wk =   0.1481481
        k(   12) = (  -0.3333333   0.0000000   0.3333333), wk =   0.1481481
        k(   13) = (  -0.3333333  -0.3333333   0.6666667), wk =   0.1481481
        k(   14) = (  -0.3333333   0.3333333   0.3333333), wk =   0.1481481

     Check: negative core charge=   -0.000028

     Initial potential from superposition of free atoms

     starting charge     115.9826, renormalised to     118.0000
     Starting wfcs are   89 randomized atomic wfcs
     Checking if some PAW data can be deallocated...

     Self-consistent Calculation

     iteration #  1     ecut=    30.00 Ry     beta= 0.70
     Davidson diagonalization with overlap

     ethr =  1.00E-02,  avg # of iterations =  2.0

     total energy              =   -1608.88547817 Ry
     estimated scf accuracy    <       7.91515837 Ry

[...]

     total energy              =   -1614.05922374 Ry
     estimated scf accuracy    <       0.00001195 Ry

     iteration # 16     ecut=    30.00 Ry     beta= 0.70
     Davidson diagonalization with overlap

     ethr =  1.01E-08,  avg # of iterations =  1.6

     End of self-consistent calculation

          k = 0.0000 0.0000 0.0000 (  2857 PWs)   bands (ev):

   -69.3308 -69.3289 -69.3261 -69.3258 -38.3318 -38.3306 -38.3126 -38.3122
   -37.9007 -37.9005 -37.8864 -37.8843 -37.8739 -37.8736 -37.8494 -37.8491
   -17.2693  -9.0169  -8.2122  -8.1635  -8.1634  -7.7050  -7.5760  -7.5745
    -7.4319  -2.1065  -2.1063  -0.7844   4.2737   4.2740   4.5519   4.5709
     5.0928   5.1881   5.5748   5.7770   5.7953   5.7956   5.9718   6.2995
     6.2997   6.6748   6.7097   6.7105   7.4024   7.4889   7.4929   7.4933
     8.3607   8.5719   8.5721   8.5853  10.0186  10.0954  10.0955  10.1151
    10.1153  10.2021  10.2744  10.3986  10.4358  10.7241  10.7243  11.1195

     occupation numbers
     1.0000   1.0000   1.0000   1.0000   1.0000   1.0000   1.0000   1.0000
     1.0000   1.0000   1.0000   1.0000   1.0000   1.0000   1.0000   1.0000
     1.0000   1.0000   1.0000   1.0000   1.0000   1.0000   1.0000   1.0000
     1.0000   1.0000   1.0000   1.0000   1.0000   1.0000   1.0000   1.0000
     1.0000   1.0000   1.0000   1.0000   1.0000   1.0000   1.0000   1.0000
     1.0000   1.0000   1.0000   1.0000   1.0000   1.0000   1.0000   1.0000
     1.0000   1.0000   1.0000   1.0000   1.0000   1.0000   1.0000   1.0000
     1.0000   1.0000   1.0000   0.0000   0.0000   0.0000   0.0000   0.0000

[...]

          k = 0.0000-0.7667 0.1710 (  2835 PWs)   bands (ev):

[...]

          k =-0.3333-0.6904 0.1710 (  2835 PWs)   bands (ev):

[...]

          k =-0.3333 0.0763 0.3419 (  2830 PWs)   bands (ev):

   -69.3300 -69.3293 -69.3257 -69.3248 -38.3302 -38.3254 -38.3101 -38.3093
   -37.9005 -37.8904 -37.8825 -37.8809 -37.8698 -37.8667 -37.8517 -37.8476
   -17.2686  -8.8519  -8.6529  -8.3499  -7.8632  -7.6164  -7.5301  -7.4657
    -7.4558  -2.1644  -2.1607  -0.7844   3.9645   4.4128   4.6667   4.6921
     5.2013   5.4175   5.5235   5.6421   5.7039   5.7591   5.8262   6.4345
     6.7099   6.7290   6.7678   7.1371   7.1962   7.3674   7.6513   7.7541
     7.9803   8.1504   8.2297   8.4690   9.8578   9.8960   9.9600  10.1565
    10.2215  10.2746  10.3122  10.4629  10.4765  10.8515  10.9200  11.1629

     occupation numbers
     1.0000   1.0000   1.0000   1.0000   1.0000   1.0000   1.0000   1.0000
     1.0000   1.0000   1.0000   1.0000   1.0000   1.0000   1.0000   1.0000
     1.0000   1.0000   1.0000   1.0000   1.0000   1.0000   1.0000   1.0000
     1.0000   1.0000   1.0000   1.0000   1.0000   1.0000   1.0000   1.0000
     1.0000   1.0000   1.0000   1.0000   1.0000   1.0000   1.0000   1.0000
     1.0000   1.0000   1.0000   1.0000   1.0000   1.0000   1.0000   1.0000
     1.0000   1.0000   1.0000   1.0000   1.0000   1.0000   1.0000   1.0000
     1.0000   1.0000   1.0000   0.0000   0.0000   0.0000   0.0000   0.0000

     highest occupied, lowest unoccupied level (ev):    10.5031   10.3986

!    total energy              =   -1614.05922343 Ry
     estimated scf accuracy    <       0.00000079 Ry

     The total energy is the sum of the following terms:
     one-electron contribution =    -664.28061893 Ry
     hartree contribution      =     392.89006419 Ry
     xc contribution           =    -184.50223390 Ry
     ewald contribution        =    -706.98652320 Ry
     one-center paw contrib.   =    -451.17991160 Ry
      -> PAW hartree energy AE =      28.72131254 Ry
      -> PAW hartree energy PS =     -28.60961264 Ry
      -> PAW xc energy AE      =    -394.22902250 Ry
      -> PAW xc energy PS      =      19.16195931 Ry
      -> total E_H with PAW    =     393.00176409 Ry
      -> total E_XC with PAW   =    -559.56929709 Ry

     convergence has been achieved in  16 iterations

     Writing all to output data dir calculations_bands/myprefix.save/

     General routines

     Parallel routines

     PAW routines

   This run was terminated on:  20:13: 4   6Jun2023

   JOB DONE.