     Program PWSCF v.7.0 starts on  7Jun2023 at  1:39:10

     K-points division:     npool     =       2
     R & G space division:  proc/nbgrp/npool/nimage =       4

     Reading input from espresso_1161.pwi
Warning: card &CELL ignored
Warning: card / ignored

     Current dimensions of program PWSCF are:
     Max number of different atomic species (ntypx) = 10
     Max number of k-points (npk) =  40000
     Max angular momentum in pseudopotentials (lmaxx) =  4
     Message from routine setup:
     using ibrav=0 with symmetry is DISCOURAGED, use correct ibrav instead

     Using Slab Decomposition

     bravais-lattice index     =            0
     lattice parameter (alat)  =      11.0402  a.u.
     unit-cell volume          =    1585.9240 (a.u.)^3
     number of atoms/cell      =           14
     number of atomic types    =            3
     number of electrons       =       118.00
     number of Kohn-Sham states=           64
     kinetic-energy cutoff     =      30.0000  Ry
     charge density cutoff     =     240.0000  Ry
     scf convergence threshold =      1.0E-06
     mixing beta               =       0.7000
     number of iterations used =            8  plain     mixing
     Exchange-correlation=  SLA  PW   PBX  PBC
                           (   1   4   3   4   0   0   0)

     celldm(1)=  11.040174  celldm(2)=   0.000000  celldm(3)=   0.000000
     celldm(4)=   0.000000  celldm(5)=   0.000000  celldm(6)=   0.000000

     crystal axes: (cart. coord. in units of alat)
               a(1) = (   1.000000   0.000000   0.000000 )
               a(2) = (   0.306835   0.951763   0.000000 )
               a(3) = (   0.464836   0.338538   1.238300 )

     reciprocal axes: (cart. coord. in units 2 pi/alat)
               b(1) = (  1.000000 -0.322386 -0.287246 )
               b(2) = (  0.000000  1.050682 -0.287246 )
               b(3) = (  0.000000  0.000000  0.807559 )

     PseudoPot. # 1 for Ca read from file:
     /home/pragov/projects/rrg-bengioy-ad/pragov/crystal_structure_design/SSSP/Ca_pbe_v1.uspp.F.UPF
     MD5 check sum: 403a4c14b9e4d4dfdc3024c9a3812218
     Pseudo is Ultrasoft + core correction, Zval = 10.0
     Generated by new atomic code, or converted to UPF format
     Using radial grid of  845 points,  6 beta functions with:
                l(1) =   0
                l(2) =   0
                l(3) =   1
                l(4) =   1
                l(5) =   2
                l(6) =   2
     Q(r) pseudized with  8 coefficients,  rinner =    1.500   1.500   1.500
                                                       1.500   1.500

     PseudoPot. # 2 for Mo read from file:
     /home/pragov/projects/rrg-bengioy-ad/pragov/crystal_structure_design/SSSP/Mo_ONCV_PBE-1.0.oncvpsp.upf
     MD5 check sum: 1b5d28e075c9ccadda658a603575cd1f
     Pseudo is Norm-conserving, Zval = 14.0
     Generated using ONCVPSP code by D. R. Hamann
     Using radial grid of 1526 points,  6 beta functions with:
                l(1) =   0
                l(2) =   0
                l(3) =   1
                l(4) =   1
                l(5) =   2
                l(6) =   2

     PseudoPot. # 3 for F  read from file:
     /home/pragov/projects/rrg-bengioy-ad/pragov/crystal_structure_design/SSSP/f_pbe_v1.4.uspp.F.UPF
     MD5 check sum: 4c38b6a325caf53ec0e86aed9459de46
     Pseudo is Ultrasoft, Zval =  7.0
     Generated by new atomic code, or converted to UPF format
     Using radial grid of  799 points,  4 beta functions with:
                l(1) =   0
                l(2) =   0
                l(3) =   1
                l(4) =   1
     Q(r) pseudized with  8 coefficients,  rinner =    0.950   0.950   0.950

     atomic species   valence    mass     pseudopotential
        Ca            10.00    40.07800     Ca( 1.00)
        Mo            14.00    95.95000     Mo( 1.00)
        F              7.00    18.99840     F ( 1.00)

      2 Sym. Ops., with inversion, found

                                    s                        frac. trans.

      isym =  1     identity

 cryst.   s( 1) = (     1          0          0      )
                  (     0          1          0      )
                  (     0          0          1      )

 cart.    s( 1) = (  1.0000000 -0.0000000 -0.0000000 )
                  (  0.0000000  1.0000000  0.0000000 )
                  (  0.0000000  0.0000000  1.0000000 )

      isym =  2     inversion

 cryst.   s( 2) = (    -1          0          0      )
                  (     0         -1          0      )
                  (     0          0         -1      )

 cart.    s( 2) = ( -1.0000000  0.0000000  0.0000000 )
                  (  0.0000000 -1.0000000 -0.0000000 )
                  (  0.0000000  0.0000000 -1.0000000 )

   Cartesian axes

     site n.     atom                  positions (alat units)
         1           Ca  tau(   1) = (   0.7945680   0.5262697   0.3095750  )
         2           Ca  tau(   2) = (   0.9771032   0.7640316   0.9287250  )
         3           Mo  tau(   3) = (   0.2324182   0.1692692   0.6191500  )
         4           Mo  tau(   4) = (   0.0000000   0.0000000   0.0000000  )
         5           F   tau(   5) = (   0.7277260   1.1064434   0.9287250  )
         6           F   tau(   6) = (   1.0439452   0.1838578   0.3095750  )
         7           F   tau(   7) = (   0.7058764   0.5463928   1.0807164  )
         8           F   tau(   8) = (   1.2674655   0.9553960   0.7767336  )
         9           F   tau(   9) = (   1.0505644   0.4776554   0.6607445  )
        10           F   tau(  10) = (   1.2271249   0.6062438   1.1967055  )
        11           F   tau(  11) = (   0.7211068   0.8126458   0.5775555  )
        12           F   tau(  12) = (   0.5445463   0.6840574   0.0415945  )
        13           F   tau(  13) = (   0.5042057   0.3349053   0.4615664  )
        14           F   tau(  14) = (   1.0657948   0.7439084   0.1575836  )

   Crystallographic axes

     site n.     atom                  positions (cryst. coord.)
         1           Ca  tau(   1) = (  0.5359820  0.4640180  0.2500000  )
         2           Ca  tau(   2) = (  0.4640180  0.5359820  0.7500000  )
         3           Mo  tau(   3) = (  0.0000000  0.0000000  0.5000000  )
         4           Mo  tau(   4) = (  0.0000000  0.0000000  0.0000000  )
         5           F   tau(   5) = (  0.1042520  0.8957480  0.7500000  )
         6           F   tau(   6) = (  0.8957480  0.1042520  0.2500000  )
         7           F   tau(   7) = (  0.2192960  0.2636540  0.8727420  )
         8           F   tau(   8) = (  0.7363460  0.7807040  0.6272580  )
         9           F   tau(   9) = (  0.7067790  0.3120680  0.5335900  )
        10           F   tau(  10) = (  0.6879320  0.2932210  0.9664100  )
        11           F   tau(  11) = (  0.2932210  0.6879320  0.4664100  )
        12           F   tau(  12) = (  0.3120680  0.7067790  0.0335900  )
        13           F   tau(  13) = (  0.2636540  0.2192960  0.3727420  )
        14           F   tau(  14) = (  0.7807040  0.7363460  0.1272580  )

     number of k points=    14
                       cart. coord. in units 2pi/alat
        k(    1) = (   0.0000000   0.0000000   0.0000000), wk =   0.0740741
        k(    2) = (   0.0000000   0.0000000   0.2691862), wk =   0.1481481
        k(    3) = (   0.0000000   0.3502273  -0.0957485), wk =   0.1481481
        k(    4) = (   0.0000000   0.3502273   0.1734377), wk =   0.1481481
        k(    5) = (   0.0000000   0.3502273  -0.3649348), wk =   0.1481481
        k(    6) = (   0.3333333  -0.1074620  -0.0957485), wk =   0.1481481
        k(    7) = (   0.3333333  -0.1074620   0.1734377), wk =   0.1481481
        k(    8) = (   0.3333333  -0.1074620  -0.3649348), wk =   0.1481481
        k(    9) = (   0.3333333   0.2427654  -0.1914971), wk =   0.1481481
        k(   10) = (   0.3333333   0.2427654   0.0776891), wk =   0.1481481
        k(   11) = (   0.3333333   0.2427654  -0.4606833), wk =   0.1481481
        k(   12) = (   0.3333333  -0.4576893   0.0000000), wk =   0.1481481
        k(   13) = (   0.3333333  -0.4576893   0.2691862), wk =   0.1481481
        k(   14) = (   0.3333333  -0.4576893  -0.2691862), wk =   0.1481481

                       cryst. coord.
        k(    1) = (   0.0000000   0.0000000   0.0000000), wk =   0.0740741
        k(    2) = (   0.0000000   0.0000000   0.3333333), wk =   0.1481481
        k(    3) = (   0.0000000   0.3333333   0.0000000), wk =   0.1481481
        k(    4) = (   0.0000000   0.3333333   0.3333333), wk =   0.1481481
        k(    5) = (   0.0000000   0.3333333  -0.3333333), wk =   0.1481481
        k(    6) = (   0.3333333  -0.0000000  -0.0000000), wk =   0.1481481
        k(    7) = (   0.3333333  -0.0000000   0.3333333), wk =   0.1481481
        k(    8) = (   0.3333333  -0.0000000  -0.3333333), wk =   0.1481481
        k(    9) = (   0.3333333   0.3333333  -0.0000000), wk =   0.1481481
        k(   10) = (   0.3333333   0.3333333   0.3333333), wk =   0.1481481
        k(   11) = (   0.3333333   0.3333333  -0.3333333), wk =   0.1481481
        k(   12) = (   0.3333333  -0.3333333  -0.0000000), wk =   0.1481481
        k(   13) = (   0.3333333  -0.3333333   0.3333333), wk =   0.1481481
        k(   14) = (   0.3333333  -0.3333333  -0.3333333), wk =   0.1481481

     Initial potential from superposition of free atoms

     starting charge     117.9871, renormalised to     118.0000
     Starting wfcs are   80 randomized atomic wfcs

     Self-consistent Calculation

     iteration #  1     ecut=    30.00 Ry     beta= 0.70
     Davidson diagonalization with overlap

     ethr =  1.00E-02,  avg # of iterations =  2.0

     total energy              =    -910.52863132 Ry
     estimated scf accuracy    <       1.79475574 Ry

[...]

     total energy              =    -911.38108769 Ry
     estimated scf accuracy    <       0.00007494 Ry

     iteration # 30     ecut=    30.00 Ry     beta= 0.70
     Davidson diagonalization with overlap

     ethr =  6.00E-09,  avg # of iterations =  1.0

     End of self-consistent calculation

          k = 0.0000 0.0000 0.0000 (  4441 PWs)   bands (ev):

   -56.5204 -56.5190 -35.2601 -35.2541 -30.8877 -30.8861 -30.6532 -30.6426
   -30.3743 -30.2914 -19.7994 -19.4566 -19.0669 -18.9070 -18.8595 -18.6873
   -18.6739 -18.5923 -18.5657 -18.3641 -16.2371 -16.2232 -16.0673 -16.0181
   -15.9235 -15.8867  -3.0078  -1.9514  -1.7775  -1.7374  -1.6556  -1.5314
    -1.4585  -1.3477  -1.2960  -0.8719  -0.7903  -0.7127  -0.5217  -0.4214
    -0.3254  -0.3189  -0.1927  -0.1762  -0.1690   0.0352   0.0861   0.2192
     0.2702   0.5130   0.5340   0.5502   0.5715   0.6100   0.7458   0.8775
     5.5549   5.6774   5.7193   5.7374   5.8191   6.1264   7.3672   7.9761

     occupation numbers
     1.0000   1.0000   1.0000   1.0000   1.0000   1.0000   1.0000   1.0000
     1.0000   1.0000   1.0000   1.0000   1.0000   1.0000   1.0000   1.0000
     1.0000   1.0000   1.0000   1.0000   1.0000   1.0000   1.0000   1.0000
     1.0000   1.0000   1.0000   1.0000   1.0000   1.0000   1.0000   1.0000
     1.0000   1.0000   1.0000   1.0000   1.0000   1.0000   1.0000   1.0000
     1.0000   1.0000   1.0000   1.0000   1.0000   1.0000   1.0000   1.0000
     1.0000   1.0000   1.0000   1.0000   1.0000   1.0000   1.0000   1.0000
     1.0000   1.0000   1.0000   0.0000   0.0000   0.0000   0.0000   0.0000

[...]

          k = 0.3333-0.4577-0.2692 (  4401 PWs)   bands (ev):

   -56.5199 -56.5192 -35.2586 -35.2556 -30.8873 -30.8864 -30.6500 -30.6449
   -30.3542 -30.3127 -19.7220 -19.5411 -18.9310 -18.8780 -18.8333 -18.7628
   -18.7218 -18.7021 -18.5013 -18.4035 -16.2089 -16.1499 -16.1248 -16.0449
   -15.9141 -15.8936  -2.6770  -2.0100  -1.8426  -1.7307  -1.5844  -1.4948
    -1.3547  -1.2638  -1.2111  -1.0101  -0.6551  -0.6141  -0.5819  -0.5383
    -0.4872  -0.2680  -0.2307  -0.1538  -0.0642   0.0271   0.1516   0.1778
     0.2858   0.3085   0.3943   0.4546   0.5101   0.5153   0.6204   0.7046
     5.6653   5.7584   5.7663   5.7691   5.7958   5.9909   7.7997   8.1754

     occupation numbers
     1.0000   1.0000   1.0000   1.0000   1.0000   1.0000   1.0000   1.0000
     1.0000   1.0000   1.0000   1.0000   1.0000   1.0000   1.0000   1.0000
     1.0000   1.0000   1.0000   1.0000   1.0000   1.0000   1.0000   1.0000
     1.0000   1.0000   1.0000   1.0000   1.0000   1.0000   1.0000   1.0000
     1.0000   1.0000   1.0000   1.0000   1.0000   1.0000   1.0000   1.0000
     1.0000   1.0000   1.0000   1.0000   1.0000   1.0000   1.0000   1.0000
     1.0000   1.0000   1.0000   1.0000   1.0000   1.0000   1.0000   1.0000
     1.0000   1.0000   1.0000   0.0000   0.0000   0.0000   0.0000   0.0000

     highest occupied, lowest unoccupied level (ev):     5.7699    5.7311

!    total energy              =    -911.38108778 Ry
     estimated scf accuracy    <       0.00000025 Ry

     The total energy is the sum of the following terms:
     one-electron contribution =    -538.70239199 Ry
     hartree contribution      =     316.17873525 Ry
     xc contribution           =    -148.39624113 Ry
     ewald contribution        =    -540.46118991 Ry

     convergence has been achieved in  30 iterations

     Writing all to output data dir calculations_bands/myprefix.save/

     General routines

     Parallel routines

   This run was terminated on:   1:39:52   7Jun2023

   JOB DONE.