     Program PWSCF v.7.0 starts on  6Jun2023 at 19:27:23

     K-points division:     npool     =       2
     R & G space division:  proc/nbgrp/npool/nimage =       4

     Reading input from espresso_19895.pwi
Warning: card &CELL ignored
Warning: card / ignored

     Current dimensions of program PWSCF are:
     Max number of different atomic species (ntypx) = 10
     Max number of k-points (npk) =  40000
     Max angular momentum in pseudopotentials (lmaxx) =  4
     file O.pbe-n-kjpaw_psl.0.1.UPF: wavefunction(s)  2P renormalized
     Message from routine setup:
     using ibrav=0 with symmetry is DISCOURAGED, use correct ibrav instead

     Using Slab Decomposition

     bravais-lattice index     =            0
     lattice parameter (alat)  =      11.5277  a.u.
     unit-cell volume          =    1010.2469 (a.u.)^3
     number of atoms/cell      =           10
     number of atomic types    =            2
     number of electrons       =        80.00
     number of Kohn-Sham states=           64
     kinetic-energy cutoff     =      30.0000  Ry
     charge density cutoff     =     240.0000  Ry
     scf convergence threshold =      1.0E-06
     mixing beta               =       0.7000
     number of iterations used =            8  plain     mixing
     Exchange-correlation= SLA  PW   PBX  PBC
                           (   1   4   3   4   0   0   0)

     celldm(1)=  11.527659  celldm(2)=   0.000000  celldm(3)=   0.000000
     celldm(4)=   0.000000  celldm(5)=   0.000000  celldm(6)=   0.000000

     crystal axes: (cart. coord. in units of alat)
               a(1) = (   1.000000   0.000000   0.000000 )
               a(2) = (   0.543497   0.839411   0.000000 )
               a(3) = (   0.543497   0.295574   0.785651 )

     reciprocal axes: (cart. coord. in units 2 pi/alat)
               b(1) = (  1.000000 -0.647474 -0.448190 )
               b(2) = (  0.000000  1.191312 -0.448190 )
               b(3) = (  0.000000  0.000000  1.272830 )

     PseudoPot. # 1 for Y  read from file:
     /home/pragov/projects/rrg-bengioy-ad/pragov/crystal_structure_design/SSSP/Y_pbe_v1.uspp.F.UPF
     MD5 check sum: 2cf71db95cafeb975fc457bd7f14888e
     Pseudo is Ultrasoft + core correction, Zval = 11.0
     Generated by new atomic code, or converted to UPF format
     Using radial grid of  885 points,  6 beta functions with:
                l(1) =   0
                l(2) =   0
                l(3) =   1
                l(4) =   1
                l(5) =   2
                l(6) =   2
     Q(r) pseudized with  6 coefficients,  rinner =    1.200   1.200   1.200
                                                       1.200   1.200

     PseudoPot. # 2 for O  read from file:
     /home/pragov/projects/rrg-bengioy-ad/pragov/crystal_structure_design/SSSP/O.pbe-n-kjpaw_psl.0.1.UPF
     MD5 check sum: 0234752ac141de4415c5fc33072bef88
     Pseudo is Projector augmented-wave + core cor, Zval =  6.0
     Generated using "atomic" code by A. Dal Corso  v.5.0.99 svn rev. 10869
     Shape of augmentation charge: BESSEL
     Using radial grid of 1095 points,  4 beta functions with:
                l(1) =   0
                l(2) =   0
                l(3) =   1
                l(4) =   1
     Q(r) pseudized with 0 coefficients

     atomic species   valence    mass     pseudopotential
        Y             11.00    88.90584     Y ( 1.00)
        O              6.00    15.99900     O ( 1.00)

      2 Sym. Ops., with inversion, found

                                    s                        frac. trans.

      isym =  1     identity

 cryst.   s( 1) = (     1          0          0      )
                  (     0          1          0      )
                  (     0          0          1      )

 cart.    s( 1) = (  1.0000000  0.0000000  0.0000000 )
                  (  0.0000000  1.0000000  0.0000000 )
                  (  0.0000000  0.0000000  1.0000000 )

      isym =  2     inversion

 cryst.   s( 2) = (    -1          0          0      )
                  (     0         -1          0      )
                  (     0          0         -1      )

 cart.    s( 2) = ( -1.0000000 -0.0000000 -0.0000000 )
                  (  0.0000000 -1.0000000 -0.0000000 )
                  (  0.0000000  0.0000000 -1.0000000 )

   Cartesian axes

     site n.     atom                  positions (alat units)
         1           Y   tau(   1) = (   1.3397314   0.7285956   0.5043429  )
         2           Y   tau(   2) = (   1.7907601   0.9738818   0.6741330  )
         3           Y   tau(   3) = (   0.2962342   0.1611032   0.1115176  )
         4           Y   tau(   4) = (   0.7472629   0.4063893   0.2813077  )
         5           O   tau(   5) = (   0.8880042   0.6422608   0.0337641  )
         6           O   tau(   6) = (   1.3880042   0.5296735   0.1964127  )
         7           O   tau(   7) = (   1.0652458   0.9638260   0.4265894  )
         8           O   tau(   8) = (   1.0217486   0.1711589   0.3590612  )
         9           O   tau(   9) = (   0.6989902   0.6053114   0.5892380  )
        10           O   tau(  10) = (   1.1989902   0.4927241   0.7518865  )

   Crystallographic axes

     site n.     atom                  positions (cryst. coord.)
         1           Y   tau(   1) = (  0.6419430  0.6419430  0.6419430  )
         2           Y   tau(   2) = (  0.8580570  0.8580570  0.8580570  )
         3           Y   tau(   3) = (  0.1419430  0.1419430  0.1419430  )
         4           Y   tau(   4) = (  0.3580570  0.3580570  0.3580570  )
         5           O   tau(   5) = (  0.4570240  0.7500000  0.0429760  )
         6           O   tau(   6) = (  0.9570240  0.5429760  0.2500000  )
         7           O   tau(   7) = (  0.2500000  0.9570240  0.5429760  )
         8           O   tau(   8) = (  0.7500000  0.0429760  0.4570240  )
         9           O   tau(   9) = (  0.0429760  0.4570240  0.7500000  )
        10           O   tau(  10) = (  0.5429760  0.2500000  0.9570240  )

     number of k points=    14
                       cart. coord. in units 2pi/alat
        k(    1) = (   0.0000000   0.0000000   0.0000000), wk =   0.0740741
        k(    2) = (   0.0000000   0.0000000   0.4242768), wk =   0.1481481
        k(    3) = (   0.0000000   0.3971038  -0.1493966), wk =   0.1481481
        k(    4) = (   0.0000000   0.3971038   0.2748802), wk =   0.1481481
        k(    5) = (   0.0000000   0.3971038  -0.5736734), wk =   0.1481481
        k(    6) = (   0.3333333  -0.2158248  -0.1493966), wk =   0.1481481
        k(    7) = (   0.3333333  -0.2158248   0.2748802), wk =   0.1481481
        k(    8) = (   0.3333333  -0.2158248  -0.5736734), wk =   0.1481481
        k(    9) = (   0.3333333   0.1812790  -0.2987932), wk =   0.1481481
        k(   10) = (   0.3333333   0.1812790   0.1254836), wk =   0.1481481
        k(   11) = (   0.3333333   0.1812790  -0.7230700), wk =   0.1481481
        k(   12) = (   0.3333333  -0.6129287   0.0000000), wk =   0.1481481
        k(   13) = (   0.3333333  -0.6129287   0.4242768), wk =   0.1481481
        k(   14) = (   0.3333333  -0.6129287  -0.4242768), wk =   0.1481481

                       cryst. coord.
        k(    1) = (   0.0000000   0.0000000   0.0000000), wk =   0.0740741
        k(    2) = (   0.0000000   0.0000000   0.3333333), wk =   0.1481481
        k(    3) = (   0.0000000   0.3333333   0.0000000), wk =   0.1481481
        k(    4) = (   0.0000000   0.3333333   0.3333333), wk =   0.1481481
        k(    5) = (   0.0000000   0.3333333  -0.3333333), wk =   0.1481481
        k(    6) = (   0.3333333   0.0000000   0.0000000), wk =   0.1481481
        k(    7) = (   0.3333333   0.0000000   0.3333333), wk =   0.1481481
        k(    8) = (   0.3333333   0.0000000  -0.3333333), wk =   0.1481481
        k(    9) = (   0.3333333   0.3333333   0.0000000), wk =   0.1481481
        k(   10) = (   0.3333333   0.3333333   0.3333333), wk =   0.1481481
        k(   11) = (   0.3333333   0.3333333  -0.3333333), wk =   0.1481481
        k(   12) = (   0.3333333  -0.3333333   0.0000000), wk =   0.1481481
        k(   13) = (   0.3333333  -0.3333333   0.3333333), wk =   0.1481481
        k(   14) = (   0.3333333  -0.3333333  -0.3333333), wk =   0.1481481

     Check: negative core charge=   -0.000013

     Initial potential from superposition of free atoms

     starting charge      79.9821, renormalised to      80.0000

     negative rho (up, down):  1.686E-01 0.000E+00
     Starting wfcs are   76 randomized atomic wfcs
     Checking if some PAW data can be deallocated...

     Self-consistent Calculation

     iteration #  1     ecut=    30.00 Ry     beta= 0.70
     Davidson diagonalization with overlap

     ethr =  1.00E-02,  avg # of iterations =  2.7

     negative rho (up, down):  1.735E-01 0.000E+00

     total energy              =    -599.82034927 Ry
     estimated scf accuracy    <       3.08100332 Ry

[...]

     total energy              =    -601.35469935 Ry
     estimated scf accuracy    <       0.00000205 Ry

     iteration #  8     ecut=    30.00 Ry     beta= 0.70
     Davidson diagonalization with overlap

     ethr =  2.57E-09,  avg # of iterations =  2.0

     negative rho (up, down):  1.763E-01 0.000E+00

     End of self-consistent calculation

          k = 0.0000 0.0000 0.0000 (  2789 PWs)   bands (ev):

   -31.5482 -31.4771 -31.4673 -31.4258 -12.3797 -12.2788 -12.2787 -11.7856
   -11.7545 -11.7545 -11.7092 -11.7091 -11.4287 -11.3925 -11.3623 -11.3623
    -7.8592  -7.1812  -7.1810  -6.4555  -6.4408  -6.4406   5.3807   5.8529
     5.8530   5.9867   6.0834   6.0835   6.7108   6.7108   6.7721   6.7944
     6.7946   7.2165   7.4378   7.4380   7.7542   7.8823   7.8823   7.9687
    12.4800  13.8671  13.8788  13.8788  14.3838  14.4038  14.4038  14.7319
    14.9701  14.9701  15.3992  15.3992  16.4414  16.6381  16.6381  17.2460
    17.2460  17.4951  18.2713  18.2714  18.4462  18.4462  20.2923  20.2924

     occupation numbers
     1.0000   1.0000   1.0000   1.0000   1.0000   1.0000   1.0000   1.0000
     1.0000   1.0000   1.0000   1.0000   1.0000   1.0000   1.0000   1.0000
     1.0000   1.0000   1.0000   1.0000   1.0000   1.0000   1.0000   1.0000
     1.0000   1.0000   1.0000   1.0000   1.0000   1.0000   1.0000   1.0000
     1.0000   1.0000   1.0000   1.0000   1.0000   1.0000   1.0000   1.0000
     0.0000   0.0000   0.0000   0.0000   0.0000   0.0000   0.0000   0.0000
     0.0000   0.0000   0.0000   0.0000   0.0000   0.0000   0.0000   0.0000
     0.0000   0.0000   0.0000   0.0000   0.0000   0.0000   0.0000   0.0000

[...]

          k = 0.3333-0.6129-0.4243 (  2803 PWs)   bands (ev):

   -31.5043 -31.4991 -31.4604 -31.4552 -12.3949 -12.2272 -12.2135 -12.0929
   -11.8372 -11.6507 -11.6144 -11.5170 -11.5009 -11.4470 -11.4346 -11.3504
    -7.3179  -7.2323  -7.0224  -6.7897  -6.6308  -6.4286   5.4600   5.4763
     5.8723   5.9756   6.1892   6.2257   6.3206   6.4341   6.6540   6.8109
     7.0151   7.1129   7.3734   7.4198   7.6520   7.7572   7.9355   7.9999
    13.2945  13.4069  13.8076  14.1048  14.1717  14.6131  14.8015  14.9016
    14.9845  15.6991  15.7644  15.7909  16.3490  16.4268  16.9251  17.1255
    17.4695  17.5749  17.8875  18.0327  18.0671  18.6054  18.7743  19.6437

     occupation numbers
     1.0000   1.0000   1.0000   1.0000   1.0000   1.0000   1.0000   1.0000
     1.0000   1.0000   1.0000   1.0000   1.0000   1.0000   1.0000   1.0000
     1.0000   1.0000   1.0000   1.0000   1.0000   1.0000   1.0000   1.0000
     1.0000   1.0000   1.0000   1.0000   1.0000   1.0000   1.0000   1.0000
     1.0000   1.0000   1.0000   1.0000   1.0000   1.0000   1.0000   1.0000
     0.0000   0.0000   0.0000   0.0000   0.0000   0.0000   0.0000   0.0000
     0.0000   0.0000   0.0000   0.0000   0.0000   0.0000   0.0000   0.0000
     0.0000   0.0000   0.0000   0.0000   0.0000   0.0000   0.0000   0.0000

     highest occupied, lowest unoccupied level (ev):     8.0141   12.4800

!    total energy              =    -601.35469992 Ry
     estimated scf accuracy    <       0.00000010 Ry

     The total energy is the sum of the following terms:
     one-electron contribution =    -118.89144108 Ry
     hartree contribution      =     102.74136382 Ry
     xc contribution           =    -133.12573262 Ry
     ewald contribution        =    -394.95694188 Ry
     one-center paw contrib.   =     -57.12194816 Ry
      -> PAW hartree energy AE =       0.00000000 Ry
      -> PAW hartree energy PS =       0.00000000 Ry
      -> PAW xc energy AE      =       0.00000000 Ry
      -> PAW xc energy PS      =       0.00000000 Ry
      -> total E_H with PAW    =     102.74136382 Ry
      -> total E_XC with PAW   =    -133.12573262 Ry

     convergence has been achieved in   8 iterations

     Writing all to output data dir calculations_bands/myprefix.save/

     General routines

     Parallel routines

     PAW routines

   This run was terminated on:  19:27:33   6Jun2023

   JOB DONE.