     Program PWSCF v.7.0 starts on  6Jun2023 at 22:28: 3

     K-points division:     npool     =       2
     R & G space division:  proc/nbgrp/npool/nimage =       4

     Reading input from espresso_649.pwi
Warning: card &CELL ignored
Warning: card / ignored

     Current dimensions of program PWSCF are:
     Max number of different atomic species (ntypx) = 10
     Max number of k-points (npk) =  40000
     Max angular momentum in pseudopotentials (lmaxx) =  4
     Message from routine setup:
     using ibrav=0 with symmetry is DISCOURAGED, use correct ibrav instead

     Using Slab Decomposition

     bravais-lattice index     =            0
     lattice parameter (alat)  =      12.0537  a.u.
     unit-cell volume          =     989.3306 (a.u.)^3
     number of atoms/cell      =           10
     number of atomic types    =            3
     number of electrons       =       120.00
     number of Kohn-Sham states=           64
     kinetic-energy cutoff     =      30.0000  Ry
     charge density cutoff     =     240.0000  Ry
     scf convergence threshold =      1.0E-06
     mixing beta               =       0.7000
     number of iterations used =            8  plain     mixing
     Exchange-correlation=  SLA  PW   PBX  PBC
                           (   1   4   3   4   0   0   0)

     celldm(1)=  12.053746  celldm(2)=   0.000000  celldm(3)=   0.000000
     celldm(4)=   0.000000  celldm(5)=   0.000000  celldm(6)=   0.000000

     crystal axes: (cart. coord. in units of alat)
               a(1) = (   1.000000   0.000000   0.000000 )
               a(2) = (   0.623074   0.782163   0.000000 )
               a(3) = (   0.623074   0.300261   0.722234 )

     reciprocal axes: (cart. coord. in units 2 pi/alat)
               b(1) = (  1.000000 -0.796604 -0.531525 )
               b(2) = (  0.000000  1.278506 -0.531525 )
               b(3) = (  0.000000  0.000000  1.384592 )

     PseudoPot. # 1 for Zn read from file:
     /home/pragov/projects/rrg-bengioy-ad/pragov/crystal_structure_design/SSSP/Zn_pbe_v1.uspp.F.UPF
     MD5 check sum: df62231357ef9e81f77b2b3087fa5675
     Pseudo is Ultrasoft, Zval = 20.0
     Generated by new atomic code, or converted to UPF format
     Using radial grid of  943 points,  6 beta functions with:
                l(1) =   0
                l(2) =   0
                l(3) =   1
                l(4) =   1
                l(5) =   2
                l(6) =   2
     Q(r) pseudized with  8 coefficients,  rinner =    1.100   1.100   1.100
                                                       1.100   1.100

     PseudoPot. # 2 for Ag read from file:
     /home/pragov/projects/rrg-bengioy-ad/pragov/crystal_structure_design/SSSP/Ag_ONCV_PBE-1.0.oncvpsp.upf
     MD5 check sum: 94f47bd0669c641108e45594df92fabc
     Pseudo is Norm-conserving, Zval = 19.0
     Generated using ONCVPSP code by D. R. Hamann
     Using radial grid of 1398 points,  6 beta functions with:
                l(1) =   0
                l(2) =   0
                l(3) =   1
                l(4) =   1
                l(5) =   2
                l(6) =   2

     PseudoPot. # 3 for F  read from file:
     /home/pragov/projects/rrg-bengioy-ad/pragov/crystal_structure_design/SSSP/f_pbe_v1.4.uspp.F.UPF
     MD5 check sum: 4c38b6a325caf53ec0e86aed9459de46
     Pseudo is Ultrasoft, Zval =  7.0
     Generated by new atomic code, or converted to UPF format
     Using radial grid of  799 points,  4 beta functions with:
                l(1) =   0
                l(2) =   0
                l(3) =   1
                l(4) =   1
     Q(r) pseudized with  8 coefficients,  rinner =    0.950   0.950   0.950

     atomic species   valence    mass     pseudopotential
        Zn            20.00    65.38000     Zn( 1.00)
        Ag            19.00   107.86820     Ag( 1.00)
        F              7.00    18.99840     F ( 1.00)

      2 Sym. Ops., with inversion, found

                                    s                        frac. trans.

      isym =  1     identity

 cryst.   s( 1) = (     1          0          0      )
                  (     0          1          0      )
                  (     0          0          1      )

 cart.    s( 1) = (  1.0000000 -0.0000000  0.0000000 )
                  (  0.0000000  1.0000000 -0.0000000 )
                  (  0.0000000  0.0000000  1.0000000 )

      isym =  2     inversion

 cryst.   s( 2) = (    -1          0          0      )
                  (     0         -1          0      )
                  (     0          0         -1      )

 cart.    s( 2) = ( -1.0000000  0.0000000 -0.0000000 )
                  (  0.0000000 -1.0000000  0.0000000 )
                  (  0.0000000  0.0000000 -1.0000000 )

   Cartesian axes

     site n.     atom                  positions (alat units)
         1           Zn  tau(   1) = (   1.4797960   0.7131170   0.4758187  )
         2           Zn  tau(   2) = (   0.7663520   0.3693068   0.2464155  )
         3           Ag  tau(   3) = (   1.9281518   0.9291807   0.6199846  )
         4           Ag  tau(   4) = (   0.3179962   0.1532431   0.1022496  )
         5           F   tau(   5) = (   1.0138911   0.1837643   0.3315214  )
         6           F   tau(   6) = (   0.9263424   0.5583379   0.0424183  )
         7           F   tau(   7) = (   0.7754628   0.5665979   0.4992747  )
         8           F   tau(   8) = (   1.2322569   0.8986595   0.3907128  )
         9           F   tau(   9) = (   1.4706852   0.5158259   0.2229595  )
        10           F   tau(  10) = (   1.3198056   0.5240859   0.6798160  )

   Crystallographic axes

     site n.     atom                  positions (cryst. coord.)
         1           Zn  tau(   1) = (  0.6588150  0.6588150  0.6588150  )
         2           Zn  tau(   2) = (  0.3411850  0.3411850  0.3411850  )
         3           Ag  tau(   3) = (  0.8584260  0.8584260  0.8584260  )
         4           Ag  tau(   4) = (  0.1415740  0.1415740  0.1415740  )
         5           F   tau(   5) = (  0.6912920  0.0587320  0.4590220  )
         6           F   tau(   6) = (  0.4590220  0.6912920  0.0587320  )
         7           F   tau(   7) = (  0.0587320  0.4590220  0.6912920  )
         8           F   tau(   8) = (  0.3087080  0.9412680  0.5409780  )
         9           F   tau(   9) = (  0.9412680  0.5409780  0.3087080  )
        10           F   tau(  10) = (  0.5409780  0.3087080  0.9412680  )

     number of k points=    14
                       cart. coord. in units 2pi/alat
        k(    1) = (   0.0000000   0.0000000   0.0000000), wk =   0.0740741
        k(    2) = (   0.0000000   0.0000000   0.4615308), wk =   0.1481481
        k(    3) = (   0.0000000   0.4261686  -0.1771749), wk =   0.1481481
        k(    4) = (   0.0000000   0.4261686   0.2843559), wk =   0.1481481
        k(    5) = (   0.0000000   0.4261686  -0.6387057), wk =   0.1481481
        k(    6) = (   0.3333333  -0.2655346  -0.1771749), wk =   0.1481481
        k(    7) = (   0.3333333  -0.2655346   0.2843559), wk =   0.1481481
        k(    8) = (   0.3333333  -0.2655346  -0.6387057), wk =   0.1481481
        k(    9) = (   0.3333333   0.1606341  -0.3543497), wk =   0.1481481
        k(   10) = (   0.3333333   0.1606341   0.1071811), wk =   0.1481481
        k(   11) = (   0.3333333   0.1606341  -0.8158805), wk =   0.1481481
        k(   12) = (   0.3333333  -0.6917032  -0.0000000), wk =   0.1481481
        k(   13) = (   0.3333333  -0.6917032   0.4615308), wk =   0.1481481
        k(   14) = (   0.3333333  -0.6917032  -0.4615308), wk =   0.1481481

                       cryst. coord.
        k(    1) = (   0.0000000   0.0000000   0.0000000), wk =   0.0740741
        k(    2) = (   0.0000000   0.0000000   0.3333333), wk =   0.1481481
        k(    3) = (   0.0000000   0.3333333  -0.0000000), wk =   0.1481481
        k(    4) = (   0.0000000   0.3333333   0.3333333), wk =   0.1481481
        k(    5) = (   0.0000000   0.3333333  -0.3333333), wk =   0.1481481
        k(    6) = (   0.3333333  -0.0000000  -0.0000000), wk =   0.1481481
        k(    7) = (   0.3333333  -0.0000000   0.3333333), wk =   0.1481481
        k(    8) = (   0.3333333  -0.0000000  -0.3333333), wk =   0.1481481
        k(    9) = (   0.3333333   0.3333333  -0.0000000), wk =   0.1481481
        k(   10) = (   0.3333333   0.3333333   0.3333333), wk =   0.1481481
        k(   11) = (   0.3333333   0.3333333  -0.3333333), wk =   0.1481481
        k(   12) = (   0.3333333  -0.3333333  -0.0000000), wk =   0.1481481
        k(   13) = (   0.3333333  -0.3333333   0.3333333), wk =   0.1481481
        k(   14) = (   0.3333333  -0.3333333  -0.3333333), wk =   0.1481481

     Initial potential from superposition of free atoms

     starting charge     119.9991, renormalised to     120.0000
     Starting wfcs are   70 randomized atomic wfcs

     Self-consistent Calculation

     iteration #  1     ecut=    30.00 Ry     beta= 0.70
     Davidson diagonalization with overlap

     ethr =  1.00E-02,  avg # of iterations =  2.0

     Threshold (ethr) on eigenvalues was too large:
     Diagonalizing with lowered threshold

     Davidson diagonalization with overlap

[...]

     total energy              =   -1788.69080695 Ry
     estimated scf accuracy    <       1.06930600 Ry

[...]

     total energy              =   -1789.11947365 Ry
     estimated scf accuracy    <       0.00000115 Ry

     iteration #  8     ecut=    30.00 Ry     beta= 0.70
     Davidson diagonalization with overlap

     ethr =  9.56E-10,  avg # of iterations =  2.0

     End of self-consistent calculation

          k = 0.0000 0.0000 0.0000 (  2731 PWs)   bands (ev):

  -117.6362-117.6341 -84.3077 -84.3067 -71.7906 -71.7880 -71.7863 -71.7863
   -71.7727 -71.7727 -47.3764 -47.3764 -47.3686 -47.3686 -47.3653 -47.3623
   -16.5209 -16.1183 -16.1179 -16.0910 -15.9652 -15.9649  -0.0148   0.0704
     0.2959   0.2959   0.5243   0.5243   0.5295   0.5296   0.9983   0.9984
     1.2456   1.5684   1.6552   2.1035   2.1036   2.1284   2.1285   2.6068
     2.7839   2.7841   2.8181   2.8189   2.8191   2.8392   3.5836   3.5836
     3.7288   3.7289   4.4834   4.6298   4.6299   4.7293   4.7293   4.9236
     5.2491   5.2491   5.4832   5.4832   6.8817  12.0633  12.2828  13.1947

     occupation numbers
     1.0000   1.0000   1.0000   1.0000   1.0000   1.0000   1.0000   1.0000
     1.0000   1.0000   1.0000   1.0000   1.0000   1.0000   1.0000   1.0000
     1.0000   1.0000   1.0000   1.0000   1.0000   1.0000   1.0000   1.0000
     1.0000   1.0000   1.0000   1.0000   1.0000   1.0000   1.0000   1.0000
     1.0000   1.0000   1.0000   1.0000   1.0000   1.0000   1.0000   1.0000
     1.0000   1.0000   1.0000   1.0000   1.0000   1.0000   1.0000   1.0000
     1.0000   1.0000   1.0000   1.0000   1.0000   1.0000   1.0000   1.0000
     1.0000   1.0000   1.0000   1.0000   0.0000   0.0000   0.0000   0.0000

[...]

          k = 0.3333-0.6917-0.4615 (  2744 PWs)   bands (ev):

  -117.6366-117.6349 -84.3075 -84.3069 -71.7899 -71.7884 -71.7866 -71.7830
   -71.7820 -71.7791 -47.3787 -47.3773 -47.3730 -47.3702 -47.3632 -47.3609
   -16.4114 -16.2128 -16.1315 -16.0799 -15.9854 -15.9651   0.0364   0.1845
     0.2374   0.2716   0.3507   0.4370   0.6489   0.8231   1.0320   1.1533
     1.3592   1.5170   1.5715   1.8226   2.0395   2.1651   2.2317   2.3392
     2.6412   2.6732   2.7495   2.8736   2.9375   2.9737   3.3847   3.4888
     3.7683   3.9289   4.3875   4.4815   4.5250   4.8042   4.8561   4.8902
     5.1078   5.1648   5.2787   5.3878   9.2504  10.4979  10.8130  12.6432

     occupation numbers
     1.0000   1.0000   1.0000   1.0000   1.0000   1.0000   1.0000   1.0000
     1.0000   1.0000   1.0000   1.0000   1.0000   1.0000   1.0000   1.0000
     1.0000   1.0000   1.0000   1.0000   1.0000   1.0000   1.0000   1.0000
     1.0000   1.0000   1.0000   1.0000   1.0000   1.0000   1.0000   1.0000
     1.0000   1.0000   1.0000   1.0000   1.0000   1.0000   1.0000   1.0000
     1.0000   1.0000   1.0000   1.0000   1.0000   1.0000   1.0000   1.0000
     1.0000   1.0000   1.0000   1.0000   1.0000   1.0000   1.0000   1.0000
     1.0000   1.0000   1.0000   1.0000   0.0000   0.0000   0.0000   0.0000

     highest occupied, lowest unoccupied level (ev):     5.4832    6.8817

!    total energy              =   -1789.11947382 Ry
     estimated scf accuracy    <       0.00000006 Ry

     The total energy is the sum of the following terms:
     one-electron contribution =   -1375.48845870 Ry
     hartree contribution      =     732.84670464 Ry
     xc contribution           =    -194.87219332 Ry
     ewald contribution        =    -951.60552644 Ry

     convergence has been achieved in   8 iterations

     Writing all to output data dir calculations_bands/myprefix.save/

     General routines

     Parallel routines

   This run was terminated on:  22:28:18   6Jun2023

   JOB DONE.