     Program PWSCF v.7.0 starts on  7Jun2023 at  8:11:51

     K-points division:     npool     =       2
     R & G space division:  proc/nbgrp/npool/nimage =       4

     Reading input from espresso_5383.pwi
Warning: card &CELL ignored
Warning: card / ignored

     Current dimensions of program PWSCF are:
     Max number of different atomic species (ntypx) = 10
     Max number of k-points (npk) =  40000
     Max angular momentum in pseudopotentials (lmaxx) =  4
     file Mg.pbe-n-kjpaw_psl.0.3.0.UPF: wavefunction(s)  3S renormalized
     file O.pbe-n-kjpaw_psl.0.1.UPF: wavefunction(s)  2P renormalized
     Message from routine setup:
     using ibrav=0 with symmetry is DISCOURAGED, use correct ibrav instead

     Using Slab Decomposition

     bravais-lattice index     =            0
     lattice parameter (alat)  =       9.5202  a.u.
     unit-cell volume          =     948.4922 (a.u.)^3
     number of atoms/cell      =           14
     number of atomic types    =            3
     number of electrons       =       100.00
     number of Kohn-Sham states=           64
     kinetic-energy cutoff     =      30.0000  Ry
     charge density cutoff     =     240.0000  Ry
     scf convergence threshold =      1.0E-06
     mixing beta               =       0.7000
     number of iterations used =            8  plain     mixing
     Exchange-correlation= SLA  PW   PBX  PBC
                           (   1   4   3   4   0   0   0)

     celldm(1)=   9.520154  celldm(2)=   0.000000  celldm(3)=   0.000000
     celldm(4)=   0.000000  celldm(5)=   0.000000  celldm(6)=   0.000000

     crystal axes: (cart. coord. in units of alat)
               a(1) = (   1.000000   0.000000   0.000000 )
               a(2) = (  -0.833162   0.553029   0.000000 )
               a(3) = (   0.000000   0.000000   1.987713 )

     reciprocal axes: (cart. coord. in units 2 pi/alat)
               b(1) = (  1.000000  1.506542  0.000000 )
               b(2) = (  0.000000  1.808222  0.000000 )
               b(3) = (  0.000000  0.000000  0.503091 )

     PseudoPot. # 1 for Mg read from file:
     /home/pragov/projects/rrg-bengioy-ad/pragov/crystal_structure_design/SSSP/Mg.pbe-n-kjpaw_psl.0.3.0.UPF
     MD5 check sum: 24ecedc7f3e3cbe212e682f4413594e4
     Pseudo is Projector augmented-wave + core cor, Zval =  2.0
     Generated using "atomic" code by A. Dal Corso  v.5.0.99 svn rev. 10869
     Shape of augmentation charge: PSQ
     Using radial grid of 1129 points,  4 beta functions with:
                l(1) =   0
                l(2) =   0
                l(3) =   1
                l(4) =   1
     Q(r) pseudized with 0 coefficients

     PseudoPot. # 2 for Ti read from file:
     /home/pragov/projects/rrg-bengioy-ad/pragov/crystal_structure_design/SSSP/ti_pbe_v1.4.uspp.F.UPF
     MD5 check sum: 88a00a6731bd790ddea75d31a80cb452
     Pseudo is Ultrasoft + core correction, Zval = 12.0
     Generated by new atomic code, or converted to UPF format
     Using radial grid of  851 points,  6 beta functions with:
                l(1) =   0
                l(2) =   0
                l(3) =   1
                l(4) =   1
                l(5) =   2
                l(6) =   2
     Q(r) pseudized with  6 coefficients,  rinner =    1.000   1.000   1.000
                                                       1.000   1.000

     PseudoPot. # 3 for O  read from file:
     /home/pragov/projects/rrg-bengioy-ad/pragov/crystal_structure_design/SSSP/O.pbe-n-kjpaw_psl.0.1.UPF
     MD5 check sum: 0234752ac141de4415c5fc33072bef88
     Pseudo is Projector augmented-wave + core cor, Zval =  6.0
     Generated using "atomic" code by A. Dal Corso  v.5.0.99 svn rev. 10869
     Shape of augmentation charge: BESSEL
     Using radial grid of 1095 points,  4 beta functions with:
                l(1) =   0
                l(2) =   0
                l(3) =   1
                l(4) =   1
     Q(r) pseudized with 0 coefficients

     atomic species   valence    mass     pseudopotential
        Mg             2.00    24.30500     Mg( 1.00)
        Ti            12.00    47.86700     Ti( 1.00)
        O              6.00    15.99900     O ( 1.00)

      4 Sym. Ops., with inversion, found ( 2 have fractional translation)

                                    s                        frac. trans.

      isym =  1     identity

 cryst.   s( 1) = (     1          0          0      )
                  (     0          1          0      )
                  (     0          0          1      )

 cart.    s( 1) = (  1.0000000 -0.0000000  0.0000000 )
                  (  0.0000000  1.0000000  0.0000000 )
                  (  0.0000000  0.0000000  1.0000000 )

      isym =  2     180 deg rotation - cart. axis [0,0,1]

 cryst.   s( 2) = (    -1          0          0      )    f =(  0.0000000 )
                  (     0         -1          0      )       ( -0.0000000 )
                  (     0          0          1      )       ( -0.5000000 )

 cart.    s( 2) = ( -1.0000000  0.0000000  0.0000000 )    f =(  0.0000000 )
                  (  0.0000000 -1.0000000  0.0000000 )       ( -0.0000000 )
                  (  0.0000000  0.0000000  1.0000000 )       ( -0.9938564 )

      isym =  3     inversion

 cryst.   s( 3) = (    -1          0          0      )
                  (     0         -1          0      )
                  (     0          0         -1      )

 cart.    s( 3) = ( -1.0000000  0.0000000  0.0000000 )
                  (  0.0000000 -1.0000000  0.0000000 )
                  (  0.0000000  0.0000000 -1.0000000 )

      isym =  4     inv. 180 deg rotation - cart. axis [0,0,1]

 cryst.   s( 4) = (     1          0          0      )    f =(  0.0000000 )
                  (     0          1          0      )       (  0.0000000 )
                  (     0          0         -1      )       ( -0.5000000 )

 cart.    s( 4) = (  1.0000000 -0.0000000  0.0000000 )    f =(  0.0000000 )
                  (  0.0000000  1.0000000  0.0000000 )       (  0.0000000 )
                  (  0.0000000  0.0000000 -1.0000000 )       ( -0.9938564 )

   Cartesian axes

     site n.     atom                  positions (alat units)
         1           Mg  tau(   1) = (   0.7813845   0.0659521   1.4907846  )
         2           Mg  tau(   2) = (  -0.6145462   0.4870773   0.4969282  )
         3           Ti  tau(   3) = (   0.3162288   0.2062805   1.1326345  )
         4           Ti  tau(   4) = (  -0.1493906   0.3467489   0.1387781  )
         5           Ti  tau(   5) = (  -0.1493906   0.3467489   0.8550783  )
         6           Ti  tau(   6) = (   0.3162288   0.2062805   1.8489347  )
         7           O   tau(   7) = (  -0.3291578   0.4009811   1.7554883  )
         8           O   tau(   8) = (   0.4959960   0.1520482   0.2322245  )
         9           O   tau(   9) = (   0.0000000   0.0000000   0.0000000  )
        10           O   tau(  10) = (  -0.3291578   0.4009811   1.2260809  )
        11           O   tau(  11) = (   0.0191210   0.2959122   0.4969282  )
        12           O   tau(  12) = (   0.0000000   0.0000000   0.9938564  )
        13           O   tau(  13) = (   0.1477173   0.2571172   1.4907846  )
        14           O   tau(  14) = (   0.4959960   0.1520482   0.7616319  )

   Crystallographic axes

     site n.     atom                  positions (cryst. coord.)
         1           Mg  tau(   1) = (  0.8807440  0.1192560  0.7500000  )
         2           Mg  tau(   2) = (  0.1192560  0.8807440  0.2500000  )
         3           Ti  tau(   3) = (  0.6269990  0.3730010  0.5698180  )
         4           Ti  tau(   4) = (  0.3730010  0.6269990  0.0698180  )
         5           Ti  tau(   5) = (  0.3730010  0.6269990  0.4301820  )
         6           Ti  tau(   6) = (  0.6269990  0.3730010  0.9301820  )
         7           O   tau(   7) = (  0.2749370  0.7250630  0.8831700  )
         8           O   tau(   8) = (  0.7250630  0.2749370  0.1168300  )
         9           O   tau(   9) = (  0.0000000  0.0000000  0.0000000  )
        10           O   tau(  10) = (  0.2749370  0.7250630  0.6168300  )
        11           O   tau(  11) = (  0.4649250  0.5350750  0.2500000  )
        12           O   tau(  12) = (  0.0000000  0.0000000  0.5000000  )
        13           O   tau(  13) = (  0.5350750  0.4649250  0.7500000  )
        14           O   tau(  14) = (  0.7250630  0.2749370  0.3831700  )

     number of k points=    10
                       cart. coord. in units 2pi/alat
        k(    1) = (   0.0000000   0.0000000   0.0000000), wk =   0.0740741
        k(    2) = (   0.0000000   0.0000000   0.1676969), wk =   0.1481481
        k(    3) = (   0.0000000   0.6027407   0.0000000), wk =   0.1481481
        k(    4) = (   0.0000000   0.6027407   0.1676969), wk =   0.2962963
        k(    5) = (   0.3333333   0.5021805   0.0000000), wk =   0.1481481
        k(    6) = (   0.3333333   0.5021805   0.1676969), wk =   0.2962963
        k(    7) = (   0.3333333   1.1049213   0.0000000), wk =   0.1481481
        k(    8) = (   0.3333333   1.1049213   0.1676969), wk =   0.2962963
        k(    9) = (   0.3333333  -0.1005602   0.0000000), wk =   0.1481481
        k(   10) = (   0.3333333  -0.1005602   0.1676969), wk =   0.2962963

                       cryst. coord.
        k(    1) = (   0.0000000   0.0000000   0.0000000), wk =   0.0740741
        k(    2) = (   0.0000000   0.0000000   0.3333333), wk =   0.1481481
        k(    3) = (   0.0000000   0.3333333   0.0000000), wk =   0.1481481
        k(    4) = (   0.0000000   0.3333333   0.3333333), wk =   0.2962963
        k(    5) = (   0.3333333  -0.0000000   0.0000000), wk =   0.1481481
        k(    6) = (   0.3333333  -0.0000000   0.3333333), wk =   0.2962963
        k(    7) = (   0.3333333   0.3333333   0.0000000), wk =   0.1481481
        k(    8) = (   0.3333333   0.3333333   0.3333333), wk =   0.2962963
        k(    9) = (   0.3333333  -0.3333333   0.0000000), wk =   0.1481481
        k(   10) = (   0.3333333  -0.3333333   0.3333333), wk =   0.2962963

     Check: negative core charge=   -0.000013

     Initial potential from superposition of free atoms

     starting charge      95.9980, renormalised to     100.0000

     negative rho (up, down):  5.712E-03 0.000E+00
     Starting wfcs are   80 randomized atomic wfcs
     Checking if some PAW data can be deallocated...

     Self-consistent Calculation

     iteration #  1     ecut=    30.00 Ry     beta= 0.70
     Davidson diagonalization with overlap

     ethr =  1.00E-02,  avg # of iterations =  2.0

     Threshold (ethr) on eigenvalues was too large:
     Diagonalizing with lowered threshold

     Davidson diagonalization with overlap

[...]

     negative rho (up, down):  5.462E-03 0.000E+00

     total energy              =    -878.46061059 Ry
     estimated scf accuracy    <       0.80764264 Ry

[...]

     total energy              =    -878.79029557 Ry
     estimated scf accuracy    <       0.00001119 Ry

     iteration #  9     ecut=    30.00 Ry     beta= 0.70
     Davidson diagonalization with overlap

     ethr =  1.12E-08,  avg # of iterations =  3.5

     negative rho (up, down):  3.265E-03 0.000E+00

     End of self-consistent calculation

          k = 0.0000 0.0000 0.0000 (  2623 PWs)   bands (ev):

   -45.8508 -45.8487 -45.7955 -45.7934 -22.4290 -22.4246 -22.1160 -22.0652
   -22.0596 -22.0385 -22.0348 -22.0055 -21.9464 -21.9447 -21.9327 -21.9310
    -8.7816  -8.5741  -7.5602  -7.4863  -7.1392  -7.1102  -6.9512  -6.7794
     4.0508   4.4062   5.0260   5.2470   5.3415   5.6231   5.6728   5.8751
     6.0508   6.5535   6.6327   7.0857   7.2964   7.3576   7.4845   7.5923
     7.7499   8.2902   8.3838   8.5379   8.8136   8.8281   8.8942   9.1027
    11.1952  11.3237  12.8131  13.0399  13.2060  13.4315  13.5428  13.5632
    13.6941  13.7256  13.9052  14.1146  14.4259  14.4273  14.9196  14.9529

     occupation numbers
     1.0000   1.0000   1.0000   1.0000   1.0000   1.0000   1.0000   1.0000
     1.0000   1.0000   1.0000   1.0000   1.0000   1.0000   1.0000   1.0000
     1.0000   1.0000   1.0000   1.0000   1.0000   1.0000   1.0000   1.0000
     1.0000   1.0000   1.0000   1.0000   1.0000   1.0000   1.0000   1.0000
     1.0000   1.0000   1.0000   1.0000   1.0000   1.0000   1.0000   1.0000
     1.0000   1.0000   1.0000   1.0000   1.0000   1.0000   1.0000   1.0000
     1.0000   1.0000   0.0000   0.0000   0.0000   0.0000   0.0000   0.0000
     0.0000   0.0000   0.0000   0.0000   0.0000   0.0000   0.0000   0.0000

[...]

          k = 0.3333-0.1006 0.1677 (  2621 PWs)   bands (ev):

   -45.8376 -45.8366 -45.8076 -45.8067 -22.3907 -22.3871 -22.2085 -22.1955
   -22.0275 -22.0126 -21.9818 -21.9762 -21.9715 -21.9706 -21.9067 -21.9058
    -8.4737  -8.4154  -7.6842  -7.5823  -7.3163  -7.1973  -6.9288  -6.8586
     4.3286   4.4639   4.9404   5.0277   5.5026   5.6656   5.7212   5.7394
     6.3960   6.4824   7.1101   7.3762   7.4525   7.4997   7.5920   7.6378
     7.6713   7.9869   7.9888   8.1222   8.5212   8.7252   8.8502   8.8948
    10.8407  10.8955  13.0234  13.0503  13.4080  13.4884  13.5086  13.5943
    13.6928  13.7921  13.8580  13.9759  14.4972  14.5060  14.7869  15.0990

     occupation numbers
     1.0000   1.0000   1.0000   1.0000   1.0000   1.0000   1.0000   1.0000
     1.0000   1.0000   1.0000   1.0000   1.0000   1.0000   1.0000   1.0000
     1.0000   1.0000   1.0000   1.0000   1.0000   1.0000   1.0000   1.0000
     1.0000   1.0000   1.0000   1.0000   1.0000   1.0000   1.0000   1.0000
     1.0000   1.0000   1.0000   1.0000   1.0000   1.0000   1.0000   1.0000
     1.0000   1.0000   1.0000   1.0000   1.0000   1.0000   1.0000   1.0000
     1.0000   1.0000   0.0000   0.0000   0.0000   0.0000   0.0000   0.0000
     0.0000   0.0000   0.0000   0.0000   0.0000   0.0000   0.0000   0.0000

     highest occupied, lowest unoccupied level (ev):    12.6567   12.4969

!    total energy              =    -878.79029797 Ry
     estimated scf accuracy    <       0.00000024 Ry

     The total energy is the sum of the following terms:
     one-electron contribution =    -279.95681408 Ry
     hartree contribution      =     194.87420190 Ry
     xc contribution           =    -135.72634157 Ry
     ewald contribution        =    -519.28854020 Ry
     one-center paw contrib.   =    -138.69280402 Ry
      -> PAW hartree energy AE =       1.43988827 Ry
      -> PAW hartree energy PS =      -1.43768262 Ry
      -> PAW xc energy AE      =     -65.09694565 Ry
      -> PAW xc energy PS      =       2.54883514 Ry
      -> total E_H with PAW    =     194.87640755 Ry
      -> total E_XC with PAW   =    -198.27445207 Ry

     convergence has been achieved in   9 iterations

     Writing all to output data dir calculations_bands/myprefix.save/

     General routines

     Parallel routines

     PAW routines

   This run was terminated on:   8:12: 5   7Jun2023

   JOB DONE.