     Program PWSCF v.7.0 starts on 23Jun2023 at  9:47: 0

     K-points division:     npool     =       2
     R & G space division:  proc/nbgrp/npool/nimage =       4

     Reading input from espresso_12315.pwi
Warning: card &CELL ignored
Warning: card / ignored

     Current dimensions of program PWSCF are:
     Max number of different atomic species (ntypx) = 10
     Max number of k-points (npk) =  40000
     Max angular momentum in pseudopotentials (lmaxx) =  4
     file O.pbe-n-kjpaw_psl.0.1.UPF: wavefunction(s)  2P renormalized
     Message from routine setup:
     using ibrav=0 with symmetry is DISCOURAGED, use correct ibrav instead

     Using Slab Decomposition

     bravais-lattice index     =            0
     lattice parameter (alat)  =       8.6634  a.u.
     unit-cell volume          =    1300.6779 (a.u.)^3
     number of atoms/cell      =           18
     number of atomic types    =            3
     number of electrons       =       152.00
     number of Kohn-Sham states=           90
     kinetic-energy cutoff     =      30.0000  Ry
     charge density cutoff     =     240.0000  Ry
     scf convergence threshold =      1.0E-06
     mixing beta               =       0.7000
     number of iterations used =            8  plain     mixing
     Exchange-correlation=  SLA  PW   PBX  PBC
                           (   1   4   3   4   0   0   0)

     celldm(1)=   8.663415  celldm(2)=   0.000000  celldm(3)=   0.000000
     celldm(4)=   0.000000  celldm(5)=   0.000000  celldm(6)=   0.000000

     crystal axes: (cart. coord. in units of alat)
               a(1) = (   1.000000   0.000000   0.000000 )
               a(2) = (   0.028401   1.200021   0.000000 )
               a(3) = (   0.026808   0.084272   1.666916 )

     reciprocal axes: (cart. coord. in units 2 pi/alat)
               b(1) = (  1.000000 -0.023667 -0.014886 )
               b(2) = (  0.000000  0.833319 -0.042129 )
               b(3) = (  0.000000  0.000000  0.599910 )

     PseudoPot. # 1 for V  read from file:
     /home/pragov/projects/rrg-bengioy-ad/pragov/crystal_structure_design/SSSP/v_pbe_v1.4.uspp.F.UPF
     MD5 check sum: 22b79981416ebb76fdaf5b1b8640f6fb
     Pseudo is Ultrasoft + core correction, Zval = 13.0
     Generated by new atomic code, or converted to UPF format
     Using radial grid of  853 points,  6 beta functions with:
                l(1) =   0
                l(2) =   0
                l(3) =   1
                l(4) =   1
                l(5) =   2
                l(6) =   2
     Q(r) pseudized with  8 coefficients,  rinner =    1.100   1.100   1.100
                                                       1.100   1.100

     PseudoPot. # 2 for O  read from file:
     /home/pragov/projects/rrg-bengioy-ad/pragov/crystal_structure_design/SSSP/O.pbe-n-kjpaw_psl.0.1.UPF
     MD5 check sum: 0234752ac141de4415c5fc33072bef88
     Pseudo is Projector augmented-wave + core cor, Zval =  6.0
     Generated using "atomic" code by A. Dal Corso  v.5.0.99 svn rev. 10869
     Shape of augmentation charge: BESSEL
     Using radial grid of 1095 points,  4 beta functions with:
                l(1) =   0
                l(2) =   0
                l(3) =   1
                l(4) =   1
     Q(r) pseudized with 0 coefficients

     PseudoPot. # 3 for F  read from file:
     /home/pragov/projects/rrg-bengioy-ad/pragov/crystal_structure_design/SSSP/f_pbe_v1.4.uspp.F.UPF
     MD5 check sum: 4c38b6a325caf53ec0e86aed9459de46
     Pseudo is Ultrasoft, Zval =  7.0
     Generated by new atomic code, or converted to UPF format
     Using radial grid of  799 points,  4 beta functions with:
                l(1) =   0
                l(2) =   0
                l(3) =   1
                l(4) =   1
     Q(r) pseudized with  8 coefficients,  rinner =    0.950   0.950   0.950

     atomic species   valence    mass     pseudopotential
        V             13.00    50.94150     V ( 1.00)
        O              6.00    15.99900     O ( 1.00)
        F              7.00    18.99840     F ( 1.00)

      2 Sym. Ops., with inversion, found

                                    s                        frac. trans.

      isym =  1     identity

 cryst.   s( 1) = (     1          0          0      )
                  (     0          1          0      )
                  (     0          0          1      )

 cart.    s( 1) = (  1.0000000 -0.0000000 -0.0000000 )
                  (  0.0000000  1.0000000 -0.0000000 )
                  (  0.0000000  0.0000000  1.0000000 )

      isym =  2     inversion

 cryst.   s( 2) = (    -1          0          0      )
                  (     0         -1          0      )
                  (     0          0         -1      )

 cart.    s( 2) = ( -1.0000000  0.0000000  0.0000000 )
                  (  0.0000000 -1.0000000  0.0000000 )
                  (  0.0000000  0.0000000 -1.0000000 )

   Cartesian axes

     site n.     atom                  positions (alat units)
         1           V   tau(   1) = (   0.5276043   0.6421463   0.8334578  )
         2           V   tau(   2) = (   0.5182531   0.2622475   1.3794044  )
         3           V   tau(   3) = (   0.5369555   1.0220450   0.2875113  )
         4           V   tau(   4) = (   0.0134039   0.0421359   0.8334578  )
         5           V   tau(   5) = (   0.9954653   0.4099351   0.2497273  )
         6           V   tau(   6) = (   0.0597433   0.8743574   1.4171884  )
         7           O   tau(   7) = (   0.8054966   0.0620795   0.4366836  )
         8           O   tau(   8) = (   0.8335027   0.5234572   1.5545089  )
         9           O   tau(   9) = (   0.7514758   1.1214305   1.5505350  )
        10           O   tau(  10) = (   0.7099580   0.2902665   1.0039316  )
        11           O   tau(  11) = (   0.7299814   0.6585776   0.4458516  )
        12           O   tau(  12) = (   0.3452506   0.9940261   0.6629840  )
        13           O   tau(  13) = (   0.3037329   0.1628620   0.1163807  )
        14           O   tau(  14) = (   0.3252273   0.6257149   1.2210641  )
        15           O   tau(  15) = (   0.2217059   0.7608354   0.1124068  )
        16           O   tau(  16) = (   0.2497120   1.2222131   1.2302321  )
        17           F   tau(  17) = (   0.8451070   0.8874276   1.0138698  )
        18           F   tau(  18) = (   0.2101017   0.3968650   0.6530459  )

   Crystallographic axes

     site n.     atom                  positions (cryst. coord.)
         1           V   tau(   1) = (  0.5000000  0.5000000  0.5000000  )
         2           V   tau(   2) = (  0.4915130  0.1604230  0.8275190  )
         3           V   tau(   3) = (  0.5084870  0.8395770  0.1724810  )
         4           V   tau(   4) = ( -0.0000000  0.0000000  0.5000000  )
         5           V   tau(   5) = (  0.9820460  0.3310860  0.1498140  )
         6           V   tau(   6) = (  0.0179540  0.6689140  0.8501860  )
         7           O   tau(   7) = (  0.7975270  0.0333350  0.2619710  )
         8           O   tau(   8) = (  0.7979740  0.3707170  0.9325660  )
         9           O   tau(   9) = (  0.7018540  0.8691870  0.9301820  )
        10           O   tau(  10) = (  0.6881440  0.1995900  0.6022690  )
        11           O   tau(  11) = (  0.7077580  0.5300220  0.2674710  )
        12           O   tau(  12) = (  0.3118560  0.8004100  0.3977310  )
        13           O   tau(  13) = (  0.2981460  0.1308130  0.0698180  )
        14           O   tau(  14) = (  0.2922420  0.4699780  0.7325290  )
        15           O   tau(  15) = (  0.2020260  0.6292830  0.0674340  )
        16           O   tau(  16) = (  0.2024730  0.9666650  0.7380290  )
        17           F   tau(  17) = (  0.8090120  0.6967970  0.6082310  )
        18           F   tau(  18) = (  0.1909880  0.3032030  0.3917690  )

     number of k points=    14
                       cart. coord. in units 2pi/alat
        k(    1) = (   0.0000000   0.0000000   0.0000000), wk =   0.0740741
        k(    2) = (   0.0000000   0.0000000   0.1999701), wk =   0.1481481
        k(    3) = (   0.0000000   0.2777730  -0.0140430), wk =   0.1481481
        k(    4) = (   0.0000000   0.2777730   0.1859271), wk =   0.1481481
        k(    5) = (   0.0000000   0.2777730  -0.2140131), wk =   0.1481481
        k(    6) = (   0.3333333  -0.0078890  -0.0049619), wk =   0.1481481
        k(    7) = (   0.3333333  -0.0078890   0.1950082), wk =   0.1481481
        k(    8) = (   0.3333333  -0.0078890  -0.2049321), wk =   0.1481481
        k(    9) = (   0.3333333   0.2698840  -0.0190049), wk =   0.1481481
        k(   10) = (   0.3333333   0.2698840   0.1809652), wk =   0.1481481
        k(   11) = (   0.3333333   0.2698840  -0.2189750), wk =   0.1481481
        k(   12) = (   0.3333333  -0.2856620   0.0090810), wk =   0.1481481
        k(   13) = (   0.3333333  -0.2856620   0.2090512), wk =   0.1481481
        k(   14) = (   0.3333333  -0.2856620  -0.1908891), wk =   0.1481481

                       cryst. coord.
        k(    1) = (   0.0000000   0.0000000   0.0000000), wk =   0.0740741
        k(    2) = (   0.0000000   0.0000000   0.3333333), wk =   0.1481481
        k(    3) = (   0.0000000   0.3333333  -0.0000000), wk =   0.1481481
        k(    4) = (   0.0000000   0.3333333   0.3333333), wk =   0.1481481
        k(    5) = (   0.0000000   0.3333333  -0.3333333), wk =   0.1481481
        k(    6) = (   0.3333333  -0.0000000   0.0000000), wk =   0.1481481
        k(    7) = (   0.3333333  -0.0000000   0.3333333), wk =   0.1481481
        k(    8) = (   0.3333333  -0.0000000  -0.3333333), wk =   0.1481481
        k(    9) = (   0.3333333   0.3333333  -0.0000000), wk =   0.1481481
        k(   10) = (   0.3333333   0.3333333   0.3333333), wk =   0.1481481
        k(   11) = (   0.3333333   0.3333333  -0.3333333), wk =   0.1481481
        k(   12) = (   0.3333333  -0.3333333  -0.0000000), wk =   0.1481481
        k(   13) = (   0.3333333  -0.3333333   0.3333333), wk =   0.1481481
        k(   14) = (   0.3333333  -0.3333333  -0.3333333), wk =   0.1481481

     Check: negative core charge=   -0.000017

     Initial potential from superposition of free atoms

     starting charge     151.9926, renormalised to     152.0000

     negative rho (up, down):  5.662E-03 0.000E+00
     Starting wfcs are  108 randomized atomic wfcs
     Checking if some PAW data can be deallocated...

     Self-consistent Calculation

     iteration #  1     ecut=    30.00 Ry     beta= 0.70
     Davidson diagonalization with overlap

     ethr =  1.00E-02,  avg # of iterations =  2.0

     negative rho (up, down):  1.223E-02 0.000E+00

     total energy              =   -1380.08793896 Ry
     estimated scf accuracy    <       7.49496430 Ry

[...]

     c_bands:  1 eigenvalues not converged
     ethr =  5.10E-06,  avg # of iterations =  6.0

[...]

     total energy              =   -1384.89916684 Ry
     estimated scf accuracy    <       0.00000140 Ry

     iteration # 27     ecut=    30.00 Ry     beta= 0.70
     Davidson diagonalization with overlap

     ethr =  9.22E-10,  avg # of iterations =  2.1

     negative rho (up, down):  8.999E-03 0.000E+00

     End of self-consistent calculation

          k = 0.0000 0.0000 0.0000 (  3623 PWs)   bands (ev):

   -55.5713 -55.5652 -55.5200 -55.5060 -55.4770 -55.3553 -29.5623 -29.5363
   -29.5208 -29.4279 -29.3942 -29.3704 -29.3610 -29.3331 -29.3209 -29.3189
   -29.2904 -29.2826 -29.2792 -29.2387 -29.1968 -29.1880 -29.1797 -29.0277
   -15.4737 -15.2037  -9.6723  -8.9717  -8.9643  -8.5812  -8.5531  -8.4679
    -8.3790  -8.3466  -8.2578  -8.1199   1.5526   2.3621   2.4901   2.7455
     2.7981   2.9170   3.5746   3.6438   3.9294   3.9349   4.0916   4.2230
     4.3466   4.5237   4.6320   4.6340   4.7746   4.8387   4.9002   5.3118
     5.5685   5.6818   5.7186   5.8982   5.9241   6.1170   6.3969   6.4162
     6.7658   7.0252   7.2487   7.2929   7.3655   7.6592   7.8116   8.2619
     9.7843   9.8543   9.9568  10.0067  10.1107  10.1218  10.1429  10.3844
    10.4664  10.5435  10.5974  10.6817  10.8907  10.9335  11.4105  11.4106
    11.5163  11.5287

     occupation numbers
     1.0000   1.0000   1.0000   1.0000   1.0000   1.0000   1.0000   1.0000
     1.0000   1.0000   1.0000   1.0000   1.0000   1.0000   1.0000   1.0000
     1.0000   1.0000   1.0000   1.0000   1.0000   1.0000   1.0000   1.0000
     1.0000   1.0000   1.0000   1.0000   1.0000   1.0000   1.0000   1.0000
     1.0000   1.0000   1.0000   1.0000   1.0000   1.0000   1.0000   1.0000
     1.0000   1.0000   1.0000   1.0000   1.0000   1.0000   1.0000   1.0000
     1.0000   1.0000   1.0000   1.0000   1.0000   1.0000   1.0000   1.0000
     1.0000   1.0000   1.0000   1.0000   1.0000   1.0000   1.0000   1.0000
     1.0000   1.0000   1.0000   1.0000   1.0000   1.0000   1.0000   1.0000
     1.0000   1.0000   1.0000   1.0000   0.0000   0.0000   0.0000   0.0000
     0.0000   0.0000   0.0000   0.0000   0.0000   0.0000   0.0000   0.0000
     0.0000   0.0000

[...]

          k = 0.3333-0.2857-0.1909 (  3614 PWs)   bands (ev):

   -55.5710 -55.5652 -55.5201 -55.5060 -55.4770 -55.3553 -29.5607 -29.5361
   -29.5192 -29.4276 -29.3892 -29.3740 -29.3573 -29.3354 -29.3211 -29.3197
   -29.2953 -29.2828 -29.2800 -29.2347 -29.2003 -29.1878 -29.1797 -29.0275
   -15.4455 -15.2222  -9.1841  -9.0183  -8.9999  -8.7246  -8.5942  -8.5458
    -8.4109  -8.3480  -8.3351  -8.2557   1.5977   2.2984   2.4721   2.7921
     2.9500   3.1832   3.5361   3.6646   3.7954   3.9816   4.1329   4.4074
     4.4217   4.4818   4.5977   4.6725   4.8058   5.0399   5.1402   5.4057
     5.5497   5.6987   5.8751   6.0285   6.1102   6.2024   6.3225   6.3895
     6.5267   6.6045   6.8090   7.0073   7.1520   7.3321   7.4974   7.6653
     9.7751   9.9603  10.0612  10.1279  10.2168  10.4057  10.4320  10.4928
    10.5721  10.5940  10.6828  10.7993  10.9383  11.0588  11.2399  11.4197
    11.4493  11.5890

     occupation numbers
     1.0000   1.0000   1.0000   1.0000   1.0000   1.0000   1.0000   1.0000
     1.0000   1.0000   1.0000   1.0000   1.0000   1.0000   1.0000   1.0000
     1.0000   1.0000   1.0000   1.0000   1.0000   1.0000   1.0000   1.0000
     1.0000   1.0000   1.0000   1.0000   1.0000   1.0000   1.0000   1.0000
     1.0000   1.0000   1.0000   1.0000   1.0000   1.0000   1.0000   1.0000
     1.0000   1.0000   1.0000   1.0000   1.0000   1.0000   1.0000   1.0000
     1.0000   1.0000   1.0000   1.0000   1.0000   1.0000   1.0000   1.0000
     1.0000   1.0000   1.0000   1.0000   1.0000   1.0000   1.0000   1.0000
     1.0000   1.0000   1.0000   1.0000   1.0000   1.0000   1.0000   1.0000
     1.0000   1.0000   1.0000   1.0000   0.0000   0.0000   0.0000   0.0000
     0.0000   0.0000   0.0000   0.0000   0.0000   0.0000   0.0000   0.0000
     0.0000   0.0000

     highest occupied, lowest unoccupied level (ev):    10.2881   10.0740

!    total energy              =   -1384.89916621 Ry
     estimated scf accuracy    <       0.00000075 Ry

     The total energy is the sum of the following terms:
     one-electron contribution =    -525.19557386 Ry
     hartree contribution      =     334.31713723 Ry
     xc contribution           =    -209.63904232 Ry
     ewald contribution        =    -889.13545069 Ry
     one-center paw contrib.   =     -95.24623658 Ry
      -> PAW hartree energy AE =       0.00000000 Ry
      -> PAW hartree energy PS =       0.00000000 Ry
      -> PAW xc energy AE      =       0.00000000 Ry
      -> PAW xc energy PS      =       0.00000000 Ry
      -> total E_H with PAW    =     334.31713723 Ry
      -> total E_XC with PAW   =    -209.63904232 Ry

     convergence has been achieved in  27 iterations

     Writing all to output data dir calculations_bands/myprefix.save/

     General routines

     Parallel routines

     PAW routines

   This run was terminated on:   9:47:37  23Jun2023

   JOB DONE.