     Program PWSCF v.7.0 starts on  6Jun2023 at 14:55:10

     K-points division:     npool     =       2
     R & G space division:  proc/nbgrp/npool/nimage =       4

     Reading input from espresso_19146.pwi
Warning: card &CELL ignored
Warning: card / ignored

     Current dimensions of program PWSCF are:
     Max number of different atomic species (ntypx) = 10
     Max number of k-points (npk) =  40000
     Max angular momentum in pseudopotentials (lmaxx) =  4
     file O.pbe-n-kjpaw_psl.0.1.UPF: wavefunction(s)  2P renormalized
     Message from routine setup:
     using ibrav=0 with symmetry is DISCOURAGED, use correct ibrav instead

     Using Slab Decomposition

     bravais-lattice index     =            0
     lattice parameter (alat)  =       7.0098  a.u.
     unit-cell volume          =     934.7842 (a.u.)^3
     number of atoms/cell      =           14
     number of atomic types    =            3
     number of electrons       =        70.00
     number of Kohn-Sham states=           64
     kinetic-energy cutoff     =      30.0000  Ry
     charge density cutoff     =     240.0000  Ry
     scf convergence threshold =      1.0E-06
     mixing beta               =       0.7000
     number of iterations used =            8  plain     mixing
     Exchange-correlation= SLA  PW   PBX  PBC
                           (   1   4   3   4   0   0   0)

     celldm(1)=   7.009829  celldm(2)=   0.000000  celldm(3)=   0.000000
     celldm(4)=   0.000000  celldm(5)=   0.000000  celldm(6)=   0.000000

     crystal axes: (cart. coord. in units of alat)
               a(1) = (   1.000000   0.000000   0.000000 )
               a(2) = (   0.000000   1.758329   0.000000 )
               a(3) = (   0.000000   0.855364   1.543436 )

     reciprocal axes: (cart. coord. in units 2 pi/alat)
               b(1) = (  1.000000  0.000000  0.000000 )
               b(2) = (  0.000000  0.568722 -0.315182 )
               b(3) = (  0.000000  0.000000  0.647905 )

     PseudoPot. # 1 for Nd read from file:
     /home/pragov/projects/rrg-bengioy-ad/pragov/crystal_structure_design/SSSP/Nd.GGA-PBE-paw-v1.0.UPF
     MD5 check sum: 1d1e94942b6eb1cde76049b71bb7dcb0
     Pseudo is Projector augmented-wave + core cor, Zval = 14.0
     Generated using ATOMPAW code
     Shape of augmentation charge: BESSEL
     Using radial grid of 1105 points,  8 beta functions with:
                l(1) =   0
                l(2) =   0
                l(3) =   1
                l(4) =   1
                l(5) =   2
                l(6) =   2
                l(7) =   3
                l(8) =   3
     Q(r) pseudized with 0 coefficients

     PseudoPot. # 2 for H  read from file:
     /home/pragov/projects/rrg-bengioy-ad/pragov/crystal_structure_design/SSSP/H.pbe-rrkjus_psl.1.0.0.UPF
     MD5 check sum: f52b6d4d1c606e5624b1dc7b2218f220
     Pseudo is Ultrasoft, Zval =  1.0
     Generated using "atomic" code by A. Dal Corso  v.5.1
     Using radial grid of  929 points,  2 beta functions with:
                l(1) =   0
                l(2) =   0
     Q(r) pseudized with 0 coefficients

     PseudoPot. # 3 for O  read from file:
     /home/pragov/projects/rrg-bengioy-ad/pragov/crystal_structure_design/SSSP/O.pbe-n-kjpaw_psl.0.1.UPF
     MD5 check sum: 0234752ac141de4415c5fc33072bef88
     Pseudo is Projector augmented-wave + core cor, Zval =  6.0
     Generated using "atomic" code by A. Dal Corso  v.5.0.99 svn rev. 10869
     Shape of augmentation charge: BESSEL
     Using radial grid of 1095 points,  4 beta functions with:
                l(1) =   0
                l(2) =   0
                l(3) =   1
                l(4) =   1
     Q(r) pseudized with 0 coefficients

     atomic species   valence    mass     pseudopotential
        Nd            14.00   144.24200     Nd( 1.00)
        H              1.00     1.00800     H ( 1.00)
        O              6.00    15.99900     O ( 1.00)

      4 Sym. Ops., with inversion, found ( 2 have fractional translation)

                                    s                        frac. trans.

      isym =  1     identity

 cryst.   s( 1) = (     1          0          0      )
                  (     0          1          0      )
                  (     0          0          1      )

 cart.    s( 1) = (  1.0000000  0.0000000  0.0000000 )
                  (  0.0000000  1.0000000  0.0000000 )
                  (  0.0000000  0.0000000  1.0000000 )

      isym =  2     180 deg rotation - cart. axis [1,0,0]

 cryst.   s( 2) = (     1          0          0      )    f =(  0.5000000 )
                  (     0         -1          0      )       (  0.0000000 )
                  (     0          0         -1      )       (  0.0000000 )

 cart.    s( 2) = (  1.0000000  0.0000000  0.0000000 )    f =(  0.5000000 )
                  (  0.0000000 -1.0000000 -0.0000000 )       (  0.0000000 )
                  (  0.0000000  0.0000000 -1.0000000 )       (  0.0000000 )

      isym =  3     inversion

 cryst.   s( 3) = (    -1          0          0      )
                  (     0         -1          0      )
                  (     0          0         -1      )

 cart.    s( 3) = ( -1.0000000  0.0000000  0.0000000 )
                  (  0.0000000 -1.0000000 -0.0000000 )
                  (  0.0000000  0.0000000 -1.0000000 )

      isym =  4     inv. 180 deg rotation - cart. axis [1,0,0]

 cryst.   s( 4) = (    -1          0          0      )    f =(  0.5000000 )
                  (     0          1          0      )       (  0.0000000 )
                  (     0          0          1      )       (  0.0000000 )

 cart.    s( 4) = ( -1.0000000  0.0000000  0.0000000 )    f =(  0.5000000 )
                  (  0.0000000  1.0000000  0.0000000 )       (  0.0000000 )
                  (  0.0000000  0.0000000  1.0000000 )       (  0.0000000 )

   Cartesian axes

     site n.     atom                  positions (alat units)
         1           Nd  tau(   1) = (   0.2500000   1.7503514   1.0300000  )
         2           Nd  tau(   2) = (   0.7500000   0.8633417   0.5134365  )
         3           H   tau(   3) = (   0.2500000   1.3863173   0.2332734  )
         4           H   tau(   4) = (   0.2500000   0.8677657   1.0974034  )
         5           H   tau(   5) = (   0.2500000   0.3563675   0.1774906  )
         6           H   tau(   6) = (   0.7500000   1.2273758   1.3101630  )
         7           H   tau(   7) = (   0.7500000   1.7459274   0.4460331  )
         8           H   tau(   8) = (   0.7500000   2.2573257   1.3659459  )
         9           O   tau(   9) = (   0.2500000   1.3250830   0.4876904  )
        10           O   tau(  10) = (   0.2500000   0.6667001   0.9285159  )
        11           O   tau(  11) = (   0.2500000   0.6115445   0.1185174  )
        12           O   tau(  12) = (   0.7500000   1.2886101   1.0557460  )
        13           O   tau(  13) = (   0.7500000   1.9469930   0.6149205  )
        14           O   tau(  14) = (   0.7500000   2.0021486   1.4249191  )

   Crystallographic axes

     site n.     atom                  positions (cryst. coord.)
         1           Nd  tau(   1) = (  0.2500000  0.6708250  0.6673420  )
         2           Nd  tau(   2) = (  0.7500000  0.3291750  0.3326580  )
         3           H   tau(   3) = (  0.2500000  0.7149050  0.1511390  )
         4           H   tau(   4) = (  0.2500000  0.1476350  0.7110130  )
         5           H   tau(   5) = (  0.2500000  0.1467320  0.1149970  )
         6           H   tau(   6) = (  0.7500000  0.2850950  0.8488610  )
         7           H   tau(   7) = (  0.7500000  0.8523650  0.2889870  )
         8           H   tau(   8) = (  0.7500000  0.8532680  0.8850030  )
         9           O   tau(   9) = (  0.2500000  0.5998920  0.3159770  )
        10           O   tau(  10) = (  0.2500000  0.0865150  0.6015900  )
        11           O   tau(  11) = (  0.2500000  0.3104440  0.0767880  )
        12           O   tau(  12) = (  0.7500000  0.4001080  0.6840230  )
        13           O   tau(  13) = (  0.7500000  0.9134850  0.3984100  )
        14           O   tau(  14) = (  0.7500000  0.6895560  0.9232120  )

     number of k points=    10
                       cart. coord. in units 2pi/alat
        k(    1) = (   0.0000000   0.0000000   0.0000000), wk =   0.0740741
        k(    2) = (   0.0000000   0.0000000   0.2159683), wk =   0.1481481
        k(    3) = (   0.0000000   0.1895739  -0.1050608), wk =   0.1481481
        k(    4) = (   0.0000000   0.1895739   0.1109075), wk =   0.1481481
        k(    5) = (   0.0000000   0.1895739  -0.3210291), wk =   0.1481481
        k(    6) = (   0.3333333   0.0000000   0.0000000), wk =   0.1481481
        k(    7) = (   0.3333333   0.0000000   0.2159683), wk =   0.2962963
        k(    8) = (   0.3333333   0.1895739  -0.1050608), wk =   0.2962963
        k(    9) = (   0.3333333   0.1895739   0.1109075), wk =   0.2962963
        k(   10) = (   0.3333333   0.1895739  -0.3210291), wk =   0.2962963

                       cryst. coord.
        k(    1) = (   0.0000000   0.0000000   0.0000000), wk =   0.0740741
        k(    2) = (   0.0000000   0.0000000   0.3333333), wk =   0.1481481
        k(    3) = (   0.0000000   0.3333333  -0.0000000), wk =   0.1481481
        k(    4) = (   0.0000000   0.3333333   0.3333333), wk =   0.1481481
        k(    5) = (   0.0000000   0.3333333  -0.3333333), wk =   0.1481481
        k(    6) = (   0.3333333   0.0000000   0.0000000), wk =   0.1481481
        k(    7) = (   0.3333333   0.0000000   0.3333333), wk =   0.2962963
        k(    8) = (   0.3333333   0.3333333  -0.0000000), wk =   0.2962963
        k(    9) = (   0.3333333   0.3333333   0.3333333), wk =   0.2962963
        k(   10) = (   0.3333333   0.3333333  -0.3333333), wk =   0.2962963

     Check: negative core charge=   -0.000012

     Initial potential from superposition of free atoms

     starting charge      69.9876, renormalised to      70.0000
     Starting wfcs are   94 randomized atomic wfcs
     Checking if some PAW data can be deallocated...

     Self-consistent Calculation

     iteration #  1     ecut=    30.00 Ry     beta= 0.70
     Davidson diagonalization with overlap

     ethr =  1.00E-02,  avg # of iterations =  4.2

     total energy              =   -1331.00689001 Ry
     estimated scf accuracy    <       2.33623841 Ry

[...]

     total energy              =   -1332.11302458 Ry
     estimated scf accuracy    <       0.00000115 Ry

     iteration # 37     ecut=    30.00 Ry     beta= 0.70
     Davidson diagonalization with overlap

     ethr =  1.64E-09,  avg # of iterations =  2.0

     End of self-consistent calculation

          k = 0.0000 0.0000 0.0000 (  2613 PWs)   bands (ev):

   -28.6056 -28.5674 -12.4449 -12.4238 -12.3282 -12.1891 -12.1574 -11.5381
    -9.6356  -9.5351  -9.3988  -9.3713  -9.1010  -9.0482   0.1366   0.6140
     0.7279   1.2478   1.3510   1.5307   3.1262   3.7564   4.0259   4.0940
     4.2730   4.3749   4.4244   4.5687   4.6375   5.1506   5.2428   5.9056
     8.5240   8.5455   8.5534   8.5583   8.6195   8.6457   8.6744   8.7021
     8.7439   8.7704   8.8110   8.8328   8.8918   8.9367   9.5709  11.5434
    12.0056  12.0469  12.7272  12.8730  13.3821  14.4908  14.5678  14.7147
    14.7910  15.3452  15.5977  15.6838  15.9460  17.5183  17.5935  19.0973

     occupation numbers
     1.0000   1.0000   1.0000   1.0000   1.0000   1.0000   1.0000   1.0000
     1.0000   1.0000   1.0000   1.0000   1.0000   1.0000   1.0000   1.0000
     1.0000   1.0000   1.0000   1.0000   1.0000   1.0000   1.0000   1.0000
     1.0000   1.0000   1.0000   1.0000   1.0000   1.0000   1.0000   1.0000
     1.0000   1.0000   1.0000   0.0000   0.0000   0.0000   0.0000   0.0000
     0.0000   0.0000   0.0000   0.0000   0.0000   0.0000   0.0000   0.0000
     0.0000   0.0000   0.0000   0.0000   0.0000   0.0000   0.0000   0.0000
     0.0000   0.0000   0.0000   0.0000   0.0000   0.0000   0.0000   0.0000

[...]

          k = 0.3333 0.1896-0.3210 (  2602 PWs)   bands (ev):

   -28.5504 -28.5494 -12.6518 -12.6078 -12.3936 -11.8747 -11.8478 -11.7288
    -9.7765  -9.7316  -9.7192  -9.3199  -9.1114  -9.0958   0.3526   0.5484
     0.6091   0.8171   1.4007   1.4399   3.6547   3.7167   4.0187   4.0598
     4.1753   4.3254   4.5621   4.6031   4.7217   5.0663   5.3440   5.3967
     8.4795   8.4881   8.5101   8.5253   8.5452   8.5806   8.5880   8.6031
     8.7218   8.7448   8.7750   8.7974   8.9123   8.9537  10.9544  13.0336
    13.0521  13.0856  13.5226  13.6816  13.7564  14.1503  14.2021  14.2585
    14.4053  14.9959  15.0153  15.1225  16.4469  16.6221  19.1194  19.1719

     occupation numbers
     1.0000   1.0000   1.0000   1.0000   1.0000   1.0000   1.0000   1.0000
     1.0000   1.0000   1.0000   1.0000   1.0000   1.0000   1.0000   1.0000
     1.0000   1.0000   1.0000   1.0000   1.0000   1.0000   1.0000   1.0000
     1.0000   1.0000   1.0000   1.0000   1.0000   1.0000   1.0000   1.0000
     1.0000   1.0000   1.0000   0.0000   0.0000   0.0000   0.0000   0.0000
     0.0000   0.0000   0.0000   0.0000   0.0000   0.0000   0.0000   0.0000
     0.0000   0.0000   0.0000   0.0000   0.0000   0.0000   0.0000   0.0000
     0.0000   0.0000   0.0000   0.0000   0.0000   0.0000   0.0000   0.0000

     highest occupied, lowest unoccupied level (ev):     8.5632    8.5253

!    total energy              =   -1332.11302949 Ry
     estimated scf accuracy    <       0.00000021 Ry

     The total energy is the sum of the following terms:
     one-electron contribution =    -149.73536124 Ry
     hartree contribution      =     123.02692923 Ry
     xc contribution           =     -76.82052260 Ry
     ewald contribution        =    -311.33491603 Ry
     one-center paw contrib.   =    -917.24915885 Ry
      -> PAW hartree energy AE =     159.32709616 Ry
      -> PAW hartree energy PS =    -158.59883748 Ry
      -> PAW xc energy AE      =    -885.69664927 Ry
      -> PAW xc energy PS      =      24.82511087 Ry
      -> total E_H with PAW    =     123.75518792 Ry
      -> total E_XC with PAW   =    -937.69206101 Ry

     convergence has been achieved in  37 iterations

     Writing all to output data dir calculations_bands/myprefix.save/

     General routines

     Parallel routines

     PAW routines

   This run was terminated on:  14:56:10   6Jun2023

   JOB DONE.