     Program PWSCF v.7.0 starts on  6Jun2023 at  0:14:20

     K-points division:     npool     =       2
     R & G space division:  proc/nbgrp/npool/nimage =       4

     Reading input from espresso_12492.pwi
Warning: card &CELL ignored
Warning: card / ignored

     Current dimensions of program PWSCF are:
     Max number of different atomic species (ntypx) = 10
     Max number of k-points (npk) =  40000
     Max angular momentum in pseudopotentials (lmaxx) =  4
     Message from routine setup:
     no reason to have ecutrho>4*ecutwfc
     Message from routine setup:
     using ibrav=0 with symmetry is DISCOURAGED, use correct ibrav instead

     Using Slab Decomposition

     bravais-lattice index     =            0
     lattice parameter (alat)  =       8.8770  a.u.
     unit-cell volume          =     677.5497 (a.u.)^3
     number of atoms/cell      =            1
     number of atomic types    =            1
     number of electrons       =        18.00
     number of Kohn-Sham states=           64
     kinetic-energy cutoff     =      30.0000  Ry
     charge density cutoff     =     240.0000  Ry
     scf convergence threshold =      1.0E-06
     mixing beta               =       0.7000
     number of iterations used =            8  plain     mixing
     Exchange-correlation= PBE
                           (   1   4   3   4   0   0   0)

     celldm(1)=   8.876968  celldm(2)=   0.000000  celldm(3)=   0.000000
     celldm(4)=   0.000000  celldm(5)=   0.000000  celldm(6)=   0.000000

     crystal axes: (cart. coord. in units of alat)
               a(1) = (   1.000000   0.000000   0.000000 )
               a(2) = (   0.151371   0.988477   0.000000 )
               a(3) = (   0.151371   0.129955   0.979897 )

     reciprocal axes: (cart. coord. in units 2 pi/alat)
               b(1) = (  1.000000 -0.153135 -0.134167 )
               b(2) = (  0.000000  1.011657 -0.134167 )
               b(3) = (  0.000000  0.000000  1.020515 )

     PseudoPot. # 1 for Xe read from file:
     /home/pragov/projects/rrg-bengioy-ad/pragov/crystal_structure_design/SSSP/Xe_ONCV_PBE-1.1.oncvpsp.upf
     MD5 check sum: f6ea899d5a535d3f5731d9e48edfe3e3
     Pseudo is Norm-conserving, Zval = 18.0
     Generated using ONCVPSP code by D. R. Hamann
     Using radial grid of 1106 points,  6 beta functions with:
                l(1) =   0
                l(2) =   0
                l(3) =   1
                l(4) =   1
                l(5) =   2
                l(6) =   2

     atomic species   valence    mass     pseudopotential
        Xe            18.00   131.29300     Xe( 1.00)

      2 Sym. Ops., with inversion, found

                                    s                        frac. trans.

      isym =  1     identity

 cryst.   s( 1) = (     1          0          0      )
                  (     0          1          0      )
                  (     0          0          1      )

 cart.    s( 1) = (  1.0000000 -0.0000000  0.0000000 )
                  (  0.0000000  1.0000000  0.0000000 )
                  (  0.0000000  0.0000000  1.0000000 )

      isym =  2     inversion

 cryst.   s( 2) = (    -1          0          0      )
                  (     0         -1          0      )
                  (     0          0         -1      )

 cart.    s( 2) = ( -1.0000000  0.0000000 -0.0000000 )
                  (  0.0000000 -1.0000000 -0.0000000 )
                  (  0.0000000  0.0000000 -1.0000000 )

   Cartesian axes

     site n.     atom                  positions (alat units)
         1           Xe  tau(   1) = (   0.6513707   0.5592160   0.4899486  )

   Crystallographic axes

     site n.     atom                  positions (cryst. coord.)
         1           Xe  tau(   1) = (  0.5000000  0.5000000  0.5000000  )

     number of k points=    14
                       cart. coord. in units 2pi/alat
        k(    1) = (   0.0000000   0.0000000   0.0000000), wk =   0.0740741
        k(    2) = (   0.0000000   0.0000000   0.3401717), wk =   0.1481481
        k(    3) = (   0.0000000   0.3372191  -0.0447223), wk =   0.1481481
        k(    4) = (   0.0000000   0.3372191   0.2954494), wk =   0.1481481
        k(    5) = (   0.0000000   0.3372191  -0.3848940), wk =   0.1481481
        k(    6) = (   0.3333333  -0.0510451  -0.0447223), wk =   0.1481481
        k(    7) = (   0.3333333  -0.0510451   0.2954494), wk =   0.1481481
        k(    8) = (   0.3333333  -0.0510451  -0.3848940), wk =   0.1481481
        k(    9) = (   0.3333333   0.2861740  -0.0894447), wk =   0.1481481
        k(   10) = (   0.3333333   0.2861740   0.2507270), wk =   0.1481481
        k(   11) = (   0.3333333   0.2861740  -0.4296164), wk =   0.1481481
        k(   12) = (   0.3333333  -0.3882642   0.0000000), wk =   0.1481481
        k(   13) = (   0.3333333  -0.3882642   0.3401717), wk =   0.1481481
        k(   14) = (   0.3333333  -0.3882642  -0.3401717), wk =   0.1481481

                       cryst. coord.
        k(    1) = (   0.0000000   0.0000000   0.0000000), wk =   0.0740741
        k(    2) = (   0.0000000   0.0000000   0.3333333), wk =   0.1481481
        k(    3) = (   0.0000000   0.3333333   0.0000000), wk =   0.1481481
        k(    4) = (   0.0000000   0.3333333   0.3333333), wk =   0.1481481
        k(    5) = (   0.0000000   0.3333333  -0.3333333), wk =   0.1481481
        k(    6) = (   0.3333333  -0.0000000  -0.0000000), wk =   0.1481481
        k(    7) = (   0.3333333  -0.0000000   0.3333333), wk =   0.1481481
        k(    8) = (   0.3333333  -0.0000000  -0.3333333), wk =   0.1481481
        k(    9) = (   0.3333333   0.3333333  -0.0000000), wk =   0.1481481
        k(   10) = (   0.3333333   0.3333333   0.3333333), wk =   0.1481481
        k(   11) = (   0.3333333   0.3333333  -0.3333333), wk =   0.1481481
        k(   12) = (   0.3333333  -0.3333333  -0.0000000), wk =   0.1481481
        k(   13) = (   0.3333333  -0.3333333   0.3333333), wk =   0.1481481
        k(   14) = (   0.3333333  -0.3333333  -0.3333333), wk =   0.1481481

     Initial potential from superposition of free atoms

     starting charge      18.0000, renormalised to      18.0000
     Starting wfcs are    9 randomized atomic wfcs +   55 random wfcs

     Self-consistent Calculation

     iteration #  1     ecut=    30.00 Ry     beta= 0.70
     Davidson diagonalization with overlap

     ethr =  1.00E-02,  avg # of iterations =  7.1

     Threshold (ethr) on eigenvalues was too large:
     Diagonalizing with lowered threshold

     Davidson diagonalization with overlap

[...]

     total energy              =    -231.41175595 Ry
     estimated scf accuracy    <       0.02389709 Ry

[...]

     total energy              =    -231.41387108 Ry
     estimated scf accuracy    <       0.00000207 Ry

     iteration #  5     ecut=    30.00 Ry     beta= 0.70
     Davidson diagonalization with overlap

     ethr =  1.15E-08,  avg # of iterations =  2.0

     End of self-consistent calculation

          k = 0.0000 0.0000 0.0000 (  1871 PWs)   bands (ev):

   -54.7317 -54.7317 -54.6783 -54.6783 -54.6079 -15.0051  -3.1409  -3.1409
    -3.0386   3.1442   6.5322   6.5322  10.0742  10.0876  10.0876  10.1213
    10.8155  10.8155  13.3207  13.9389  13.9389  15.0610  15.0610  15.6346
    15.7341  16.4996  20.8059  21.6571  21.6571  21.7622  21.7622  22.1869
    23.2160  23.2160  23.3291  23.3291  23.4402  26.8228  27.9908  28.3051
    28.3051  28.7206  29.5209  29.5209  30.4019  30.7403  30.7403  30.9800
    30.9800  31.3950  32.4977  33.1541  33.8831  33.8831  34.2323  34.2323
    35.0949  35.1178  35.1178  36.0357  36.0357  37.3059  37.6221  38.6449

     occupation numbers
     1.0000   1.0000   1.0000   1.0000   1.0000   1.0000   1.0000   1.0000
     1.0000   0.0000   0.0000   0.0000   0.0000   0.0000   0.0000   0.0000
     0.0000   0.0000   0.0000   0.0000   0.0000   0.0000   0.0000   0.0000
     0.0000   0.0000   0.0000   0.0000   0.0000   0.0000   0.0000   0.0000
     0.0000   0.0000   0.0000   0.0000   0.0000   0.0000   0.0000   0.0000
     0.0000   0.0000   0.0000   0.0000   0.0000   0.0000   0.0000   0.0000
     0.0000   0.0000   0.0000   0.0000   0.0000   0.0000   0.0000   0.0000
     0.0000   0.0000   0.0000   0.0000   0.0000   0.0000   0.0000   0.0000

[...]

          k = 0.3333-0.3883-0.3402 (  1882 PWs)   bands (ev):

   -54.7213 -54.7024 -54.6992 -54.6795 -54.6676 -14.9305  -3.4759  -3.4334
    -3.3869   5.5149   6.0944   6.9238   7.7596   8.7666   9.2273  10.4595
    12.2764  12.7973  13.4928  14.4663  15.1454  15.8183  15.9475  16.1524
    16.9020  17.5713  19.4120  19.6245  19.8650  20.6544  21.2770  21.6260
    22.1620  23.1578  24.0742  24.2527  24.8737  26.0141  26.2233  26.2859
    26.6563  26.7966  26.8904  27.7208  29.0327  29.4936  29.7225  31.2225
    31.7828  32.0988  32.3212  32.3570  32.6993  33.3711  33.7694  34.0499
    34.3199  35.3140  37.4643  38.7734  38.7932  38.9487  39.3592  39.5388

     occupation numbers
     1.0000   1.0000   1.0000   1.0000   1.0000   1.0000   1.0000   1.0000
     1.0000   0.0000   0.0000   0.0000   0.0000   0.0000   0.0000   0.0000
     0.0000   0.0000   0.0000   0.0000   0.0000   0.0000   0.0000   0.0000
     0.0000   0.0000   0.0000   0.0000   0.0000   0.0000   0.0000   0.0000
     0.0000   0.0000   0.0000   0.0000   0.0000   0.0000   0.0000   0.0000
     0.0000   0.0000   0.0000   0.0000   0.0000   0.0000   0.0000   0.0000
     0.0000   0.0000   0.0000   0.0000   0.0000   0.0000   0.0000   0.0000
     0.0000   0.0000   0.0000   0.0000   0.0000   0.0000   0.0000   0.0000

     highest occupied, lowest unoccupied level (ev):    -3.0386    3.1442

!    total energy              =    -231.41387120 Ry
     estimated scf accuracy    <          3.1E-09 Ry

     The total energy is the sum of the following terms:
     one-electron contribution =    -193.78404538 Ry
     hartree contribution      =      89.02682403 Ry
     xc contribution           =     -21.63910727 Ry
     ewald contribution        =    -105.01754258 Ry

     convergence has been achieved in   5 iterations

     Writing all to output data dir calculations_bands/myprefix.save/

     General routines

     Parallel routines

   This run was terminated on:   0:14:27   6Jun2023

   JOB DONE.