     Program PWSCF v.7.0 starts on 23Jun2023 at  8: 1: 2

     K-points division:     npool     =       2
     R & G space division:  proc/nbgrp/npool/nimage =       4

     Reading input from espresso_12198.pwi
Warning: card &CELL ignored
Warning: card / ignored

     Current dimensions of program PWSCF are:
     Max number of different atomic species (ntypx) = 10
     Max number of k-points (npk) =  40000
     Max angular momentum in pseudopotentials (lmaxx) =  4
     file Mg.pbe-n-kjpaw_psl.0.3.0.UPF: wavefunction(s)  3S renormalized
     Message from routine setup:
     using ibrav=0 with symmetry is DISCOURAGED, use correct ibrav instead

     Using Slab Decomposition

     bravais-lattice index     =            0
     lattice parameter (alat)  =       9.2493  a.u.
     unit-cell volume          =    1069.9653 (a.u.)^3
     number of atoms/cell      =           13
     number of atomic types    =            3
     number of electrons       =       134.00
     number of Kohn-Sham states=           90
     kinetic-energy cutoff     =      30.0000  Ry
     charge density cutoff     =     240.0000  Ry
     scf convergence threshold =      1.0E-06
     mixing beta               =       0.7000
     number of iterations used =            8  plain     mixing
     Exchange-correlation=  SLA  PW   PBX  PBC
                           (   1   4   3   4   0   0   0)

     celldm(1)=   9.249253  celldm(2)=   0.000000  celldm(3)=   0.000000
     celldm(4)=   0.000000  celldm(5)=   0.000000  celldm(6)=   0.000000

     crystal axes: (cart. coord. in units of alat)
               a(1) = (   1.000000   0.000000   0.000000 )
               a(2) = (  -0.500000   0.869407   0.000000 )
               a(3) = (   0.000000   0.000000   1.555345 )

     reciprocal axes: (cart. coord. in units 2 pi/alat)
               b(1) = (  1.000000  0.575105  0.000000 )
               b(2) = (  0.000000  1.150210  0.000000 )
               b(3) = (  0.000000  0.000000  0.642944 )

     PseudoPot. # 1 for Mg read from file:
     /home/pragov/projects/rrg-bengioy-ad/pragov/crystal_structure_design/SSSP/Mg.pbe-n-kjpaw_psl.0.3.0.UPF
     MD5 check sum: 24ecedc7f3e3cbe212e682f4413594e4
     Pseudo is Projector augmented-wave + core cor, Zval =  2.0
     Generated using "atomic" code by A. Dal Corso  v.5.0.99 svn rev. 10869
     Shape of augmentation charge: PSQ
     Using radial grid of 1129 points,  4 beta functions with:
                l(1) =   0
                l(2) =   0
                l(3) =   1
                l(4) =   1
     Q(r) pseudized with 0 coefficients

     PseudoPot. # 2 for Si read from file:
     /home/pragov/projects/rrg-bengioy-ad/pragov/crystal_structure_design/SSSP/Si.pbe-n-rrkjus_psl.1.0.0.UPF
     MD5 check sum: 0b0bb1205258b0d07b9f9672cf965d36
     Pseudo is Ultrasoft + core correction, Zval =  4.0
     Generated using "atomic" code by A. Dal Corso  v.5.1
     Using radial grid of 1141 points,  6 beta functions with:
                l(1) =   0
                l(2) =   0
                l(3) =   1
                l(4) =   1
                l(5) =   2
                l(6) =   2
     Q(r) pseudized with 0 coefficients

     PseudoPot. # 3 for Ni read from file:
     /home/pragov/projects/rrg-bengioy-ad/pragov/crystal_structure_design/SSSP/ni_pbe_v1.4.uspp.F.UPF
     MD5 check sum: 1ee80287db30b12d2bc1f57a5b5d6409
     Pseudo is Ultrasoft + core correction, Zval = 18.0
     Generated by new atomic code, or converted to UPF format
     Using radial grid of  865 points,  6 beta functions with:
                l(1) =   0
                l(2) =   0
                l(3) =   1
                l(4) =   1
                l(5) =   2
                l(6) =   2
     Q(r) pseudized with 10 coefficients,  rinner =    0.980   0.980   0.980
                                                       0.980   0.980

     atomic species   valence    mass     pseudopotential
        Mg             2.00    24.30500     Mg( 1.00)
        Si             4.00    28.08500     Si( 1.00)
        Ni            18.00    58.69340     Ni( 1.00)

      4 Sym. Ops. (no inversion) found

                                    s                        frac. trans.

      isym =  1     identity

 cryst.   s( 1) = (     1          0          0      )
                  (     0          1          0      )
                  (     0          0          1      )

 cart.    s( 1) = (  1.0000000 -0.0000000  0.0000000 )
                  (  0.0000000  1.0000000  0.0000000 )
                  (  0.0000000  0.0000000  1.0000000 )

      isym =  2     180 deg rotation - cart. axis [1,0,0]

[...]

      isym =  3     inv. 180 deg rotation - cart. axis [0,0,1]

[...]

      isym =  4     inv. 180 deg rotation - cart. axis [0,1,0]

 cryst.   s( 4) = (     1          0          0      )
                  (    -1         -1          0      )
                  (     0          0          1      )

 cart.    s( 4) = (  1.0000000  0.0000001  0.0000000 )
                  (  0.0000000 -1.0000000  0.0000000 )
                  (  0.0000000  0.0000000  1.0000000 )

   Cartesian axes

     site n.     atom                  positions (alat units)
         1           Mg  tau(   1) = (   0.9999810   0.0000000   0.0000000  )
         2           Si  tau(   2) = (   0.9999930   0.0000000   0.5386129  )
         3           Si  tau(   3) = (   0.9999930   0.0000000   1.0167322  )
         4           Si  tau(   4) = (  -0.0000215   0.5790361   0.0000000  )
         5           Si  tau(   5) = (   0.4999785   0.2903705   0.0000000  )
         6           Si  tau(   6) = (  -0.0000330   0.5790944   0.7776725  )
         7           Si  tau(   7) = (   0.4999670   0.2903123   0.7776725  )
         8           Ni  tau(   8) = (   0.4999930   0.0000000   0.3890229  )
         9           Ni  tau(   9) = (   0.2499885   0.4347059   0.3890478  )
        10           Ni  tau(  10) = (   0.7499895   0.4347007   0.3890478  )
        11           Ni  tau(  11) = (   0.4999930   0.0000000   1.1663222  )
        12           Ni  tau(  12) = (   0.2499885   0.4347059   1.1662973  )
        13           Ni  tau(  13) = (   0.7499895   0.4347007   1.1662973  )

   Crystallographic axes

     site n.     atom                  positions (cryst. coord.)
         1           Mg  tau(   1) = (  0.9999810  0.0000000  0.0000000  )
         2           Si  tau(   2) = (  0.9999930  0.0000000  0.3462980  )
         3           Si  tau(   3) = (  0.9999930  0.0000000  0.6537020  )
         4           Si  tau(   4) = (  0.3329850  0.6660130  0.0000000  )
         5           Si  tau(   5) = (  0.6669720  0.3339870  0.0000000  )
         6           Si  tau(   6) = (  0.3330070  0.6660800  0.5000000  )
         7           Si  tau(   7) = (  0.6669270  0.3339200  0.5000000  )
         8           Ni  tau(   8) = (  0.4999930  0.0000000  0.2501200  )
         9           Ni  tau(   9) = (  0.4999900  0.5000030  0.2501360  )
        10           Ni  tau(  10) = (  0.9999880  0.4999970  0.2501360  )
        11           Ni  tau(  11) = (  0.4999930  0.0000000  0.7498800  )
        12           Ni  tau(  12) = (  0.4999900  0.5000030  0.7498640  )
        13           Ni  tau(  13) = (  0.9999880  0.4999970  0.7498640  )

     number of k points=     8
                       cart. coord. in units 2pi/alat
        k(    1) = (   0.0000000   0.0000000   0.0000000), wk =   0.0740741
        k(    2) = (   0.0000000   0.0000000   0.2143147), wk =   0.1481481
        k(    3) = (   0.0000000   0.3834033   0.0000000), wk =   0.1481481
        k(    4) = (   0.0000000   0.3834033   0.2143147), wk =   0.2962963
        k(    5) = (   0.3333333   0.1917016   0.0000000), wk =   0.2962963
        k(    6) = (   0.3333333   0.1917016   0.2143147), wk =   0.5925926
        k(    7) = (   0.3333333   0.5751049   0.0000000), wk =   0.1481481
        k(    8) = (   0.3333333   0.5751049   0.2143147), wk =   0.2962963

                       cryst. coord.
        k(    1) = (   0.0000000   0.0000000   0.0000000), wk =   0.0740741
        k(    2) = (   0.0000000   0.0000000   0.3333333), wk =   0.1481481
        k(    3) = (   0.0000000   0.3333333   0.0000000), wk =   0.1481481
        k(    4) = (   0.0000000   0.3333333   0.3333333), wk =   0.2962963
        k(    5) = (   0.3333333   0.0000000   0.0000000), wk =   0.2962963
        k(    6) = (   0.3333333   0.0000000   0.3333333), wk =   0.5925926
        k(    7) = (   0.3333333   0.3333333   0.0000000), wk =   0.1481481
        k(    8) = (   0.3333333   0.3333333   0.3333333), wk =   0.2962963

     Check: negative core charge=   -0.000006

     Initial potential from superposition of free atoms

     starting charge     121.9957, renormalised to     134.0000
     Starting wfcs are  106 randomized atomic wfcs
     Checking if some PAW data can be deallocated...

     Self-consistent Calculation

     iteration #  1     ecut=    30.00 Ry     beta= 0.70
     Davidson diagonalization with overlap

     ethr =  1.00E-02,  avg # of iterations =  7.2

     total energy              =   -1924.50048752 Ry
     estimated scf accuracy    <     341.47986813 Ry

[...]

     total energy              =   -2161.23298573 Ry
     estimated scf accuracy    <       0.00000322 Ry

     iteration # 19     ecut=    30.00 Ry     beta= 0.70
     Davidson diagonalization with overlap

     ethr =  2.40E-09,  avg # of iterations =  7.1

     End of self-consistent calculation

          k = 0.0000 0.0000 0.0000 (  2935 PWs)   bands (ev):

   -89.9247 -89.9184 -89.9027 -89.9019 -89.9007 -89.8998 -50.3778 -50.3366
   -50.3353 -50.3303 -50.3279 -50.3247 -50.3237 -50.3183 -50.2296 -50.2277
   -50.2275 -50.2263 -50.1289 -50.1260 -50.1254 -50.1196 -50.1177 -50.1159
     1.0806   3.1098   4.4521   6.6891   7.0504   7.9128   8.2491   8.4767
     8.4845   9.1217   9.1389   9.1493   9.2465  10.4229  10.4241  10.4378
    10.4510  10.5824  10.6491  10.6674  10.8204  10.8207  10.8295  10.8309
    10.9157  11.0443  11.3055  11.8356  11.8421  12.2899  12.2916  12.3858
    12.3873  12.3983  12.4559  12.4783  12.4960  12.5364  12.5535  12.6622
    12.6774  13.4693  13.4955  14.2033  14.5165  14.5358  14.7760  15.0126
    15.1600  15.1792  16.3872  17.5819  17.6117  18.3287  18.9451  18.9762
    19.6986  19.6997  20.0636  20.2300  20.8464  22.1029  22.1254  22.8999
    22.9599  23.1484

     occupation numbers
     1.0000   1.0000   1.0000   1.0000   1.0000   1.0000   1.0000   1.0000
     1.0000   1.0000   1.0000   1.0000   1.0000   1.0000   1.0000   1.0000
     1.0000   1.0000   1.0000   1.0000   1.0000   1.0000   1.0000   1.0000
     1.0000   1.0000   1.0000   1.0000   1.0000   1.0000   1.0000   1.0000
     1.0000   1.0000   1.0000   1.0000   1.0000   1.0000   1.0000   1.0000
     1.0000   1.0000   1.0000   1.0000   1.0000   1.0000   1.0000   1.0000
     1.0000   1.0000   1.0000   1.0000   1.0000   1.0000   1.0000   1.0000
     1.0000   1.0000   1.0000   1.0000   1.0000   1.0000   1.0000   1.0000
     1.0000   1.0000   1.0000   0.0000   0.0000   0.0000   0.0000   0.0000
     0.0000   0.0000   0.0000   0.0000   0.0000   0.0000   0.0000   0.0000
     0.0000   0.0000   0.0000   0.0000   0.0000   0.0000   0.0000   0.0000
     0.0000   0.0000

[...]

          k = 0.3333 0.5751 0.2143 (  2970 PWs)   bands (ev):

   -89.9167 -89.9143 -89.9142 -89.9118 -89.9025 -89.9015 -50.3424 -50.3386
   -50.3380 -50.3340 -50.3282 -50.3238 -50.2582 -50.2560 -50.2530 -50.2508
   -50.2141 -50.2090 -50.1696 -50.1655 -50.1636 -50.1598 -50.1585 -50.1561
     3.6894   3.8537   3.8798   4.4926   4.5191   5.8116   8.0805   8.1700
     8.1800   9.2553   9.2555   9.4814   9.8613   9.8786  10.3161  10.3344
    10.5463  10.5523  10.6806  10.6872  10.6984  10.8868  10.9519  11.1952
    11.4462  11.4593  11.6211  11.6260  11.9132  11.9171  11.9628  11.9663
    12.0127  12.0502  12.0542  12.5097  12.5101  12.8248  12.9307  13.2432
    13.6039  13.6156  13.9461  14.4493  14.4735  15.2671  15.2963  16.0244
    17.9620  17.9874  18.2527  18.3469  18.8027  18.8420  19.3607  19.7899
    19.9849  20.0222  20.5145  20.5674  20.5964  21.2767  21.5712  21.6026
    22.2133  22.2205

     occupation numbers
     1.0000   1.0000   1.0000   1.0000   1.0000   1.0000   1.0000   1.0000
     1.0000   1.0000   1.0000   1.0000   1.0000   1.0000   1.0000   1.0000
     1.0000   1.0000   1.0000   1.0000   1.0000   1.0000   1.0000   1.0000
     1.0000   1.0000   1.0000   1.0000   1.0000   1.0000   1.0000   1.0000
     1.0000   1.0000   1.0000   1.0000   1.0000   1.0000   1.0000   1.0000
     1.0000   1.0000   1.0000   1.0000   1.0000   1.0000   1.0000   1.0000
     1.0000   1.0000   1.0000   1.0000   1.0000   1.0000   1.0000   1.0000
     1.0000   1.0000   1.0000   1.0000   1.0000   1.0000   1.0000   1.0000
     1.0000   1.0000   1.0000   0.0000   0.0000   0.0000   0.0000   0.0000
     0.0000   0.0000   0.0000   0.0000   0.0000   0.0000   0.0000   0.0000
     0.0000   0.0000   0.0000   0.0000   0.0000   0.0000   0.0000   0.0000
     0.0000   0.0000

     highest occupied, lowest unoccupied level (ev):    14.3258   14.0928

!    total energy              =   -2161.23299861 Ry
     estimated scf accuracy    <       0.00000005 Ry

     The total energy is the sum of the following terms:
     one-electron contribution =   -1759.25288779 Ry
     hartree contribution      =     950.86856667 Ry
     xc contribution           =    -252.63933579 Ry
     ewald contribution        =   -1068.92156469 Ry
     one-center paw contrib.   =     -31.28777700 Ry
      -> PAW hartree energy AE =       0.79875099 Ry
      -> PAW hartree energy PS =      -0.79714117 Ry
      -> PAW xc energy AE      =     -32.60481403 Ry
      -> PAW xc energy PS      =       1.31542721 Ry
      -> total E_H with PAW    =     950.87017648 Ry
      -> total E_XC with PAW   =    -283.92872261 Ry

     convergence has been achieved in  19 iterations

     Writing all to output data dir calculations_bands/myprefix.save/

     General routines

     Parallel routines

     PAW routines

   This run was terminated on:   8: 1:22  23Jun2023

   JOB DONE.