     Program PWSCF v.7.0 starts on  4Jun2023 at 16:53:54

     K-points division:     npool     =       2
     R & G space division:  proc/nbgrp/npool/nimage =       4

     Reading input from espresso_5031.pwi
Warning: card &CELL ignored
Warning: card / ignored

     Current dimensions of program PWSCF are:
     Max number of different atomic species (ntypx) = 10
     Max number of k-points (npk) =  40000
     Max angular momentum in pseudopotentials (lmaxx) =  4
     Message from routine setup:
     using ibrav=0 with symmetry is DISCOURAGED, use correct ibrav instead

     Using Slab Decomposition

     bravais-lattice index     =            0
     lattice parameter (alat)  =      39.9877  a.u.
     unit-cell volume          =    1801.5126 (a.u.)^3
     number of atoms/cell      =           11
     number of atomic types    =            3
     number of electrons       =        94.00
     number of Kohn-Sham states=           64
     kinetic-energy cutoff     =      30.0000  Ry
     charge density cutoff     =     240.0000  Ry
     scf convergence threshold =      1.0E-06
     mixing beta               =       0.7000
     number of iterations used =            8  plain     mixing
     Exchange-correlation= PBE
                           (   1   4   3   4   0   0   0)

     celldm(1)=  39.987674  celldm(2)=   0.000000  celldm(3)=   0.000000
     celldm(4)=   0.000000  celldm(5)=   0.000000  celldm(6)=   0.000000

     crystal axes: (cart. coord. in units of alat)
               a(1) = (   1.000000   0.000000   0.000000 )
               a(2) = (   0.983644   0.180124   0.000000 )
               a(3) = (   0.983644   0.089319   0.156418 )

     reciprocal axes: (cart. coord. in units 2 pi/alat)
               b(1) = (  1.000000 -5.460928 -3.170200 )
               b(2) = (  0.000000  5.551733 -3.170200 )
               b(3) = (  0.000000  0.000000  6.393115 )

     PseudoPot. # 1 for Zr read from file:
     /home/pragov/projects/rrg-bengioy-ad/pragov/crystal_structure_design/SSSP/Zr_pbe_v1.uspp.F.UPF
     MD5 check sum: 5db81b1e868ab7776c4564c113de050b
     Pseudo is Ultrasoft + core correction, Zval = 12.0
     Generated by new atomic code, or converted to UPF format
     Using radial grid of  887 points,  6 beta functions with:
                l(1) =   0
                l(2) =   0
                l(3) =   1
                l(4) =   1
                l(5) =   2
                l(6) =   2
     Q(r) pseudized with  6 coefficients,  rinner =    1.200   1.200   1.200
                                                       1.200   1.200

     PseudoPot. # 2 for Te read from file:
     /home/pragov/projects/rrg-bengioy-ad/pragov/crystal_structure_design/SSSP/Te_pbe_v1.uspp.F.UPF
     MD5 check sum: c319670d6894cc26e93307826a071b75
     Pseudo is Ultrasoft + core correction, Zval =  6.0
     Generated by new atomic code, or converted to UPF format
     Using radial grid of  891 points,  5 beta functions with:
                l(1) =   0
                l(2) =   0
                l(3) =   1
                l(4) =   1
                l(5) =   2
     Q(r) pseudized with  6 coefficients,  rinner =    1.800   1.800   1.800
                                                       1.800   1.800

     PseudoPot. # 3 for P  read from file:
     /home/pragov/projects/rrg-bengioy-ad/pragov/crystal_structure_design/SSSP/P.pbe-n-rrkjus_psl.1.0.0.UPF
     MD5 check sum: 8b930f418f0a4573dca56cd030ffe088
     Pseudo is Ultrasoft + core correction, Zval =  5.0
     Generated using "atomic" code by A. Dal Corso  v.5.1
     Using radial grid of 1147 points,  6 beta functions with:
                l(1) =   0
                l(2) =   0
                l(3) =   1
                l(4) =   1
                l(5) =   2
                l(6) =   2
     Q(r) pseudized with 0 coefficients

     atomic species   valence    mass     pseudopotential
        Zr            12.00    91.22400     Zr( 1.00)
        Te             6.00   127.60000     Te( 1.00)
        P              5.00    30.97376     P ( 1.00)

      2 Sym. Ops., with inversion, found

                                    s                        frac. trans.

      isym =  1     identity

 cryst.   s( 1) = (     1          0          0      )
                  (     0          1          0      )
                  (     0          0          1      )

 cart.    s( 1) = (  1.0000000  0.0000000  0.0000000 )
                  (  0.0000000  1.0000000 -0.0000000 )
                  (  0.0000000  0.0000000  1.0000000 )

      isym =  2     inversion

 cryst.   s( 2) = (    -1          0          0      )
                  (     0         -1          0      )
                  (     0          0         -1      )

 cart.    s( 2) = ( -1.0000000 -0.0000000 -0.0000000 )
                  (  0.0000000 -1.0000000  0.0000000 )
                  (  0.0000000  0.0000000 -1.0000000 )

   Cartesian axes

     site n.     atom                  positions (alat units)
         1           Zr  tau(   1) = (   1.6705623   0.1516947   0.0880624  )
         2           Zr  tau(   2) = (   0.1762925   0.0160082   0.0092931  )
         3           Zr  tau(   3) = (   1.2967256   0.1177486   0.0683559  )
         4           Zr  tau(   4) = (   2.7909953   0.2534351   0.1471251  )
         5           Zr  tau(   5) = (   1.4836439   0.1347216   0.0782091  )
         6           Te  tau(   6) = (   2.5629266   0.2327255   0.1351027  )
         7           Te  tau(   7) = (   1.0745855   0.0975773   0.0566459  )
         8           Te  tau(   8) = (   0.4043612   0.0367178   0.0213156  )
         9           Te  tau(   9) = (   1.8927024   0.1718660   0.0997723  )
        10           P   tau(  10) = (   2.2209170   0.2016694   0.1170739  )
        11           P   tau(  11) = (   0.7463708   0.0677739   0.0393444  )

   Crystallographic axes

     site n.     atom                  positions (cryst. coord.)
         1           Zr  tau(   1) = (  0.5629930  0.5629930  0.5629930  )
         2           Zr  tau(   2) = (  0.0594120  0.0594120  0.0594120  )
         3           Zr  tau(   3) = (  0.4370070  0.4370070  0.4370070  )
         4           Zr  tau(   4) = (  0.9405880  0.9405880  0.9405880  )
         5           Zr  tau(   5) = (  0.5000000  0.5000000  0.5000000  )
         6           Te  tau(   6) = (  0.8637270  0.8637270  0.8637270  )
         7           Te  tau(   7) = (  0.3621440  0.3621440  0.3621440  )
         8           Te  tau(   8) = (  0.1362730  0.1362730  0.1362730  )
         9           Te  tau(   9) = (  0.6378560  0.6378560  0.6378560  )
        10           P   tau(  10) = (  0.7484670  0.7484670  0.7484670  )
        11           P   tau(  11) = (  0.2515330  0.2515330  0.2515330  )

     number of k points=    14
                       cart. coord. in units 2pi/alat
        k(    1) = (   0.0000000   0.0000000   0.0000000), wk =   0.0740741
        k(    2) = (   0.0000000   0.0000000   2.1310384), wk =   0.1481481
        k(    3) = (   0.0000000   1.8505777  -1.0567335), wk =   0.1481481
        k(    4) = (   0.0000000   1.8505777   1.0743049), wk =   0.1481481
        k(    5) = (   0.0000000   1.8505777  -3.1877719), wk =   0.1481481
        k(    6) = (   0.3333333  -1.8203095  -1.0567335), wk =   0.1481481
        k(    7) = (   0.3333333  -1.8203095   1.0743049), wk =   0.1481481
        k(    8) = (   0.3333333  -1.8203095  -3.1877719), wk =   0.1481481
        k(    9) = (   0.3333333   0.0302682  -2.1134670), wk =   0.1481481
        k(   10) = (   0.3333333   0.0302682   0.0175714), wk =   0.1481481
        k(   11) = (   0.3333333   0.0302682  -4.2445054), wk =   0.1481481
        k(   12) = (   0.3333333  -3.6708872  -0.0000000), wk =   0.1481481
        k(   13) = (   0.3333333  -3.6708872   2.1310384), wk =   0.1481481
        k(   14) = (   0.3333333  -3.6708872  -2.1310384), wk =   0.1481481

                       cryst. coord.
        k(    1) = (   0.0000000   0.0000000   0.0000000), wk =   0.0740741
        k(    2) = (   0.0000000   0.0000000   0.3333333), wk =   0.1481481
        k(    3) = (   0.0000000   0.3333333  -0.0000000), wk =   0.1481481
        k(    4) = (   0.0000000   0.3333333   0.3333333), wk =   0.1481481
        k(    5) = (   0.0000000   0.3333333  -0.3333333), wk =   0.1481481
        k(    6) = (   0.3333333   0.0000000   0.0000000), wk =   0.1481481
        k(    7) = (   0.3333333   0.0000000   0.3333333), wk =   0.1481481
        k(    8) = (   0.3333333   0.0000000  -0.3333333), wk =   0.1481481
        k(    9) = (   0.3333333   0.3333333   0.0000000), wk =   0.1481481
        k(   10) = (   0.3333333   0.3333333   0.3333333), wk =   0.1481481
        k(   11) = (   0.3333333   0.3333333  -0.3333333), wk =   0.1481481
        k(   12) = (   0.3333333  -0.3333333   0.0000000), wk =   0.1481481
        k(   13) = (   0.3333333  -0.3333333   0.3333333), wk =   0.1481481
        k(   14) = (   0.3333333  -0.3333333  -0.3333333), wk =   0.1481481

     Check: negative core charge=   -0.000001

     Initial potential from superposition of free atoms

     starting charge      93.9881, renormalised to      94.0000

     negative rho (up, down):  3.044E-01 0.000E+00
     Starting wfcs are   89 randomized atomic wfcs

     Self-consistent Calculation

     iteration #  1     ecut=    30.00 Ry     beta= 0.70
     Davidson diagonalization with overlap

     ethr =  1.00E-02,  avg # of iterations =  2.0

     negative rho (up, down):  3.062E-01 0.000E+00

     total energy              =    -630.00533509 Ry
     estimated scf accuracy    <       1.02401215 Ry

[...]

     total energy              =    -630.74184442 Ry
     estimated scf accuracy    <       0.00000174 Ry

     iteration # 19     ecut=    30.00 Ry     beta= 0.70
     Davidson diagonalization with overlap

     ethr =  1.85E-09,  avg # of iterations =  1.4

     negative rho (up, down):  3.096E-01 0.000E+00

     End of self-consistent calculation

          k = 0.0000 0.0000 0.0000 (  4983 PWs)   bands (ev):

   -38.8881 -38.7204 -38.7204 -38.4791 -38.4791 -17.0241 -16.8770 -16.8700
   -16.8684 -16.8684 -16.7147 -16.7147 -16.7147 -16.7146 -16.5339 -16.5337
   -16.4708 -16.4708 -16.4708 -16.4708  -2.4584  -1.9776  -1.0576  -0.9127
    -0.1843  -0.0210   4.5193   5.3418   6.0430   7.2434   7.2435   7.2870
     7.2870   7.5469   8.0413   8.3355   8.3355   9.3982   9.3982   9.4642
    10.0587  10.1152  10.1152  10.4561  10.4561  10.5381  10.5381  10.8029
    10.8029  10.9924  11.1865  11.1865  11.2140  12.1650  12.1651  12.4178
    12.4178  12.5153  12.5153  12.6335  12.8203  12.8404  12.8404  13.8090

     occupation numbers
     1.0000   1.0000   1.0000   1.0000   1.0000   1.0000   1.0000   1.0000
     1.0000   1.0000   1.0000   1.0000   1.0000   1.0000   1.0000   1.0000
     1.0000   1.0000   1.0000   1.0000   1.0000   1.0000   1.0000   1.0000
     1.0000   1.0000   1.0000   1.0000   1.0000   1.0000   1.0000   1.0000
     1.0000   1.0000   1.0000   1.0000   1.0000   1.0000   1.0000   1.0000
     1.0000   1.0000   1.0000   1.0000   1.0000   1.0000   1.0000   0.0000
     0.0000   0.0000   0.0000   0.0000   0.0000   0.0000   0.0000   0.0000
     0.0000   0.0000   0.0000   0.0000   0.0000   0.0000   0.0000   0.0000

[...]

          k = 0.3333-3.6709-2.1310 (  4998 PWs)   bands (ev):

   -38.8803 -38.7121 -38.7121 -38.4714 -38.4714 -16.9960 -16.9826 -16.8948
   -16.8573 -16.8560 -16.8319 -16.8283 -16.7451 -16.7450 -16.5830 -16.5829
   -16.5201 -16.5200 -16.4967 -16.4967  -1.5302  -1.3477  -0.1668  -0.1228
     0.1402   0.2613   5.3362   5.4097   5.4772   6.1754   6.4192   6.6280
     7.0005   7.0642   7.2592   7.3316   7.3585   7.7079   7.8816   8.4431
     8.4951   8.6939   9.3251   9.4562   9.7226   9.8229   9.8295  11.6149
    11.7601  11.8967  11.9281  12.1056  12.1977  12.2808  12.3188  12.4806
    12.9198  13.0244  13.2242  13.3154  13.3528  13.6761  14.1602  14.2106

     occupation numbers
     1.0000   1.0000   1.0000   1.0000   1.0000   1.0000   1.0000   1.0000
     1.0000   1.0000   1.0000   1.0000   1.0000   1.0000   1.0000   1.0000
     1.0000   1.0000   1.0000   1.0000   1.0000   1.0000   1.0000   1.0000
     1.0000   1.0000   1.0000   1.0000   1.0000   1.0000   1.0000   1.0000
     1.0000   1.0000   1.0000   1.0000   1.0000   1.0000   1.0000   1.0000
     1.0000   1.0000   1.0000   1.0000   1.0000   1.0000   1.0000   0.0000
     0.0000   0.0000   0.0000   0.0000   0.0000   0.0000   0.0000   0.0000
     0.0000   0.0000   0.0000   0.0000   0.0000   0.0000   0.0000   0.0000

     highest occupied, lowest unoccupied level (ev):    11.2387   10.7845

!    total energy              =    -630.74184426 Ry
     estimated scf accuracy    <       0.00000055 Ry

     The total energy is the sum of the following terms:
     one-electron contribution =    -320.84954573 Ry
     hartree contribution      =     195.86522189 Ry
     xc contribution           =    -155.98417612 Ry
     ewald contribution        =    -349.77334430 Ry

     convergence has been achieved in  19 iterations

     Writing all to output data dir calculations_bands/myprefix.save/

     General routines

     Parallel routines

   This run was terminated on:  17: 8:10   4Jun2023

   JOB DONE.