     Program PWSCF v.7.0 starts on  6Jun2023 at 17:58:32

     K-points division:     npool     =       2
     R & G space division:  proc/nbgrp/npool/nimage =       4

     Reading input from espresso_19649.pwi
Warning: card &CELL ignored
Warning: card / ignored

     Current dimensions of program PWSCF are:
     Max number of different atomic species (ntypx) = 10
     Max number of k-points (npk) =  40000
     Max angular momentum in pseudopotentials (lmaxx) =  4
     Message from routine setup:
     using ibrav=0 with symmetry is DISCOURAGED, use correct ibrav instead

     Using Slab Decomposition

     bravais-lattice index     =            0
     lattice parameter (alat)  =      12.0961  a.u.
     unit-cell volume          =    2589.4107 (a.u.)^3
     number of atoms/cell      =           10
     number of atomic types    =            3
     number of electrons       =        80.00
     number of Kohn-Sham states=           64
     kinetic-energy cutoff     =      30.0000  Ry
     charge density cutoff     =     240.0000  Ry
     scf convergence threshold =      1.0E-06
     mixing beta               =       0.7000
     number of iterations used =            8  plain     mixing
     Exchange-correlation= SLA  PW   PBE  PBE
                           (   1   4   3   4   0   0   0)

     celldm(1)=  12.096097  celldm(2)=   0.000000  celldm(3)=   0.000000
     celldm(4)=   0.000000  celldm(5)=   0.000000  celldm(6)=   0.000000

     crystal axes: (cart. coord. in units of alat)
               a(1) = (   1.000000   0.000000   0.000000 )
               a(2) = (   0.000000   1.299773   0.000000 )
               a(3) = (   0.000000  -0.649889   1.125635 )

     reciprocal axes: (cart. coord. in units 2 pi/alat)
               b(1) = (  1.000000  0.000000  0.000000 )
               b(2) = (  0.000000  0.769365  0.444195 )
               b(3) = (  0.000000  0.000000  0.888387 )

     PseudoPot. # 1 for Cs read from file:
     /home/pragov/projects/rrg-bengioy-ad/pragov/crystal_structure_design/SSSP/Cs_pbe_v1.uspp.F.UPF
     MD5 check sum: 3476d69cb178dfad3ffaa59df4e07ca4
     Pseudo is Ultrasoft + core correction, Zval =  9.0
     Generated by new atomic code, or converted to UPF format
     Using radial grid of  905 points,  6 beta functions with:
                l(1) =   0
                l(2) =   0
                l(3) =   1
                l(4) =   1
                l(5) =   2
                l(6) =   2
     Q(r) pseudized with  6 coefficients,  rinner =    1.500   1.500   1.500
                                                       1.500   1.500

     PseudoPot. # 2 for Ta read from file:
     /home/pragov/projects/rrg-bengioy-ad/pragov/crystal_structure_design/SSSP/Ta_pbe_v1.uspp.F.UPF
     MD5 check sum: f8bbe9446314a3b8ea5d9f3e3836c939
     Pseudo is Ultrasoft + core correction, Zval = 13.0
     Generated by new atomic code, or converted to UPF format
     Using radial grid of  921 points,  7 beta functions with:
                l(1) =   0
                l(2) =   0
                l(3) =   1
                l(4) =   1
                l(5) =   2
                l(6) =   2
                l(7) =   3
     Q(r) pseudized with  6 coefficients,  rinner =    1.300   1.300   1.300
                                                       1.300   1.300   1.300
                                                       1.300

     PseudoPot. # 3 for Te read from file:
     /home/pragov/projects/rrg-bengioy-ad/pragov/crystal_structure_design/SSSP/Te_pbe_v1.uspp.F.UPF
     MD5 check sum: c319670d6894cc26e93307826a071b75
     Pseudo is Ultrasoft + core correction, Zval =  6.0
     Generated by new atomic code, or converted to UPF format
     Using radial grid of  891 points,  5 beta functions with:
                l(1) =   0
                l(2) =   0
                l(3) =   1
                l(4) =   1
                l(5) =   2
     Q(r) pseudized with  6 coefficients,  rinner =    1.800   1.800   1.800
                                                       1.800   1.800

     atomic species   valence    mass     pseudopotential
        Cs             9.00   132.90545     Cs( 1.00)
        Ta            13.00   180.94788     Ta( 1.00)
        Te             6.00   127.60000     Te( 1.00)

      2 Sym. Ops. (no inversion) found ( 1 have fractional translation)

                                    s                        frac. trans.

      isym =  1     identity

 cryst.   s( 1) = (     1          0          0      )
                  (     0          1          0      )
                  (     0          0          1      )

 cart.    s( 1) = (  1.0000000  0.0000000  0.0000000 )
                  (  0.0000000  1.0000000  0.0000000 )
                  (  0.0000000  0.0000000  1.0000000 )

      isym =  2     180 deg rotation - cart. axis [1,0,0]

 cryst.   s( 2) = (     1          0          0      )    f =( -0.5000000 )
                  (     0         -1          0      )       ( -0.0000000 )
                  (     0          0         -1      )       ( -0.0000000 )

 cart.    s( 2) = (  1.0000000  0.0000000  0.0000000 )    f =( -0.5000000 )
                  (  0.0000000 -1.0000000 -0.0000000 )       (  0.0000000 )
                  (  0.0000000  0.0000000 -1.0000000 )       ( -0.0000000 )

   Cartesian axes

     site n.     atom                  positions (alat units)
         1           Cs  tau(   1) = (   0.2490330   0.6499351   0.3751832  )
         2           Cs  tau(   2) = (   0.7490330  -0.0000510   0.7504519  )
         3           Ta  tau(   3) = (   0.5299400  -0.6498851   1.1256328  )
         4           Ta  tau(   4) = (   0.0299400   1.2997691   0.0000023  )
         5           Te  tau(   5) = (   0.7572110   0.6498738   0.7638390  )
         6           Te  tau(   6) = (   0.7572050   0.9864565   0.1808929  )
         7           Te  tau(   7) = (   0.7572110   0.3133190   0.1809076  )
         8           Te  tau(   8) = (   0.2572110   0.0000102   0.3617960  )
         9           Te  tau(   9) = (   0.2572050  -0.3365725   0.9447421  )
        10           Te  tau(  10) = (   0.2572110   0.3365650   0.9447275  )

   Crystallographic axes

     site n.     atom                  positions (cryst. coord.)
         1           Cs  tau(   1) = (  0.2490330  0.6666920  0.3333080  )
         2           Cs  tau(   2) = (  0.7490330  0.3333080  0.6666920  )
         3           Ta  tau(   3) = (  0.5299400  0.0000020  0.9999980  )
         4           Ta  tau(   4) = (  0.0299400  0.9999980  0.0000020  )
         5           Te  tau(   5) = (  0.7572110  0.8392840  0.6785850  )
         6           Te  tau(   6) = (  0.7572050  0.8392970  0.1607030  )
         7           Te  tau(   7) = (  0.7572110  0.3214150  0.1607160  )
         8           Te  tau(   8) = (  0.2572110  0.1607160  0.3214150  )
         9           Te  tau(   9) = (  0.2572050  0.1607030  0.8392970  )
        10           Te  tau(  10) = (  0.2572110  0.6785850  0.8392840  )

     number of k points=    10
                       cart. coord. in units 2pi/alat
        k(    1) = (   0.0000000   0.0000000   0.0000000), wk =   0.0740741
        k(    2) = (   0.0000000   0.0000000   0.2961291), wk =   0.1481481
        k(    3) = (   0.0000000   0.2564550   0.1480651), wk =   0.1481481
        k(    4) = (   0.0000000   0.2564550   0.4441943), wk =   0.1481481
        k(    5) = (   0.0000000   0.2564550  -0.1480640), wk =   0.1481481
        k(    6) = (   0.3333333   0.0000000   0.0000000), wk =   0.1481481
        k(    7) = (   0.3333333   0.0000000   0.2961291), wk =   0.2962963
        k(    8) = (   0.3333333   0.2564550   0.1480651), wk =   0.2962963
        k(    9) = (   0.3333333   0.2564550   0.4441943), wk =   0.2962963
        k(   10) = (   0.3333333   0.2564550  -0.1480640), wk =   0.2962963

                       cryst. coord.
        k(    1) = (   0.0000000   0.0000000   0.0000000), wk =   0.0740741
        k(    2) = (   0.0000000   0.0000000   0.3333333), wk =   0.1481481
        k(    3) = (   0.0000000   0.3333333   0.0000000), wk =   0.1481481
        k(    4) = (   0.0000000   0.3333333   0.3333333), wk =   0.1481481
        k(    5) = (   0.0000000   0.3333333  -0.3333333), wk =   0.1481481
        k(    6) = (   0.3333333   0.0000000   0.0000000), wk =   0.1481481
        k(    7) = (   0.3333333   0.0000000   0.3333333), wk =   0.2962963
        k(    8) = (   0.3333333   0.3333333   0.0000000), wk =   0.2962963
        k(    9) = (   0.3333333   0.3333333   0.3333333), wk =   0.2962963
        k(   10) = (   0.3333333   0.3333333  -0.3333333), wk =   0.2962963

     Initial potential from superposition of free atoms

     starting charge      79.9177, renormalised to      80.0000

     negative rho (up, down):  1.858E-01 0.000E+00
     Starting wfcs are   76 randomized atomic wfcs

     Self-consistent Calculation

     iteration #  1     ecut=    30.00 Ry     beta= 0.70
     Davidson diagonalization with overlap

     ethr =  1.00E-02,  avg # of iterations =  4.6

     Threshold (ethr) on eigenvalues was too large:
     Diagonalizing with lowered threshold

     Davidson diagonalization with overlap

[...]

     negative rho (up, down):  1.862E-01 0.000E+00

     total energy              =    -569.21478333 Ry
     estimated scf accuracy    <       0.25245905 Ry

[...]

     total energy              =    -569.30581491 Ry
     estimated scf accuracy    <       0.00000340 Ry

     iteration #  9     ecut=    30.00 Ry     beta= 0.70
     Davidson diagonalization with overlap

     ethr =  4.25E-09,  avg # of iterations =  1.8

     negative rho (up, down):  1.882E-01 0.000E+00

     End of self-consistent calculation

          k = 0.0000 0.0000 0.0000 (  7215 PWs)   bands (ev):

   -63.1821 -63.1710 -29.6759 -29.6319 -29.6319 -29.5991 -29.5991 -29.4019
   -15.9655 -15.9614  -5.8477  -4.6940  -4.6939  -4.5529  -4.5528  -4.4511
    -2.8856  -2.8292  -2.8162  -2.8162  -2.7444  -2.7444   0.6866   1.2949
     2.2652   2.2652   2.6564   3.3092   3.3092   3.3516   3.3518   3.6577
     3.6578   3.7243   3.7243   4.3953   4.7319   5.4310   5.4310   5.9506
     6.1924   6.5513   6.5516   6.8831   6.8832   8.1084   8.1085   8.3645
     9.3023   9.4116   9.5742   9.8514   9.9202   9.9205  10.4255  10.6279
    10.6279  10.7692  10.7693  11.2245  11.2254  11.4682  11.4684  12.3640

     occupation numbers
     1.0000   1.0000   1.0000   1.0000   1.0000   1.0000   1.0000   1.0000
     1.0000   1.0000   1.0000   1.0000   1.0000   1.0000   1.0000   1.0000
     1.0000   1.0000   1.0000   1.0000   1.0000   1.0000   1.0000   1.0000
     1.0000   1.0000   1.0000   1.0000   1.0000   1.0000   1.0000   1.0000
     1.0000   1.0000   1.0000   1.0000   1.0000   1.0000   1.0000   1.0000
     0.0000   0.0000   0.0000   0.0000   0.0000   0.0000   0.0000   0.0000
     0.0000   0.0000   0.0000   0.0000   0.0000   0.0000   0.0000   0.0000
     0.0000   0.0000   0.0000   0.0000   0.0000   0.0000   0.0000   0.0000

[...]

          k = 0.3333 0.2565-0.1481 (  7173 PWs)   bands (ev):

   -63.1793 -63.1737 -29.6237 -29.6237 -29.6086 -29.6073 -29.6073 -29.4717
   -15.9636 -15.9624  -5.5224  -4.8651  -4.7476  -4.6640  -4.6515  -4.5595
    -2.8170  -2.8071  -2.8050  -2.7733  -2.7632  -2.7462   1.4093   1.7295
     2.2734   2.4886   2.6229   2.6967   2.8160   2.9812   3.0390   3.2726
     3.5760   3.9171   4.4405   4.5486   4.6944   5.2191   5.3130   5.6555
     6.2735   6.6557   6.7400   6.8390   7.1163   7.5935   8.2730   8.9338
     8.9757   9.2469   9.4057   9.8643  10.2944  10.3945  10.5650  10.7022
    10.9638  10.9978  11.1604  11.5034  11.5444  11.8374  11.9601  11.9659

     occupation numbers
     1.0000   1.0000   1.0000   1.0000   1.0000   1.0000   1.0000   1.0000
     1.0000   1.0000   1.0000   1.0000   1.0000   1.0000   1.0000   1.0000
     1.0000   1.0000   1.0000   1.0000   1.0000   1.0000   1.0000   1.0000
     1.0000   1.0000   1.0000   1.0000   1.0000   1.0000   1.0000   1.0000
     1.0000   1.0000   1.0000   1.0000   1.0000   1.0000   1.0000   1.0000
     0.0000   0.0000   0.0000   0.0000   0.0000   0.0000   0.0000   0.0000
     0.0000   0.0000   0.0000   0.0000   0.0000   0.0000   0.0000   0.0000
     0.0000   0.0000   0.0000   0.0000   0.0000   0.0000   0.0000   0.0000

     highest occupied, lowest unoccupied level (ev):     5.9506    5.9047

!    total energy              =    -569.30581515 Ry
     estimated scf accuracy    <       0.00000018 Ry

     The total energy is the sum of the following terms:
     one-electron contribution =    -208.69726463 Ry
     hartree contribution      =     127.06385122 Ry
     xc contribution           =    -231.47944442 Ry
     ewald contribution        =    -256.19295732 Ry

     convergence has been achieved in   9 iterations

     Writing all to output data dir calculations_bands/myprefix.save/

     General routines

     Parallel routines

   This run was terminated on:  17:58:54   6Jun2023

   JOB DONE.