     Program PWSCF v.7.0 starts on 23Jun2023 at 10:48:40

     K-points division:     npool     =       2
     R & G space division:  proc/nbgrp/npool/nimage =       4

     Reading input from espresso_9453.pwi
Warning: card &CELL ignored
Warning: card / ignored

     Current dimensions of program PWSCF are:
     Max number of different atomic species (ntypx) = 10
     Max number of k-points (npk) =  40000
     Max angular momentum in pseudopotentials (lmaxx) =  4
     file O.pbe-n-kjpaw_psl.0.1.UPF: wavefunction(s)  2P renormalized
     Message from routine setup:
     using ibrav=0 with symmetry is DISCOURAGED, use correct ibrav instead

     Using Slab Decomposition

     bravais-lattice index     =            0
     lattice parameter (alat)  =      10.9512  a.u.
     unit-cell volume          =    1770.4058 (a.u.)^3
     number of atoms/cell      =           20
     number of atomic types    =            4
     number of electrons       =       150.00
     number of Kohn-Sham states=           90
     kinetic-energy cutoff     =      30.0000  Ry
     charge density cutoff     =     240.0000  Ry
     scf convergence threshold =      1.0E-06
     mixing beta               =       0.7000
     number of iterations used =            8  plain     mixing
     Exchange-correlation= SLA  PW   PBX  PBC
                           (   1   4   3   4   0   0   0)

     celldm(1)=  10.951229  celldm(2)=   0.000000  celldm(3)=   0.000000
     celldm(4)=   0.000000  celldm(5)=   0.000000  celldm(6)=   0.000000

     crystal axes: (cart. coord. in units of alat)
               a(1) = (   1.000000   0.000000   0.000000 )
               a(2) = (   0.000000   0.971810   0.000000 )
               a(3) = (   0.000000   0.943713   1.387084 )

     reciprocal axes: (cart. coord. in units 2 pi/alat)
               b(1) = (  1.000000  0.000000  0.000000 )
               b(2) = (  0.000000  1.029007 -0.700093 )
               b(3) = (  0.000000  0.000000  0.720937 )

     PseudoPot. # 1 for Li read from file:
     /home/pragov/projects/rrg-bengioy-ad/pragov/crystal_structure_design/SSSP/li_pbe_v1.4.uspp.F.UPF
     MD5 check sum: e912e257baa3777c20ea3d68f190483c
     Pseudo is Ultrasoft, Zval =  3.0
     Generated by new atomic code, or converted to UPF format
     Using radial grid of  751 points,  5 beta functions with:
                l(1) =   0
                l(2) =   0
                l(3) =   0
                l(4) =   1
                l(5) =   1
     Q(r) pseudized with 10 coefficients,  rinner =    1.150   1.150   1.150

     PseudoPot. # 2 for La read from file:
     /home/pragov/projects/rrg-bengioy-ad/pragov/crystal_structure_design/SSSP/La.GGA-PBE-paw-v1.0.UPF
     MD5 check sum: 436541e95c1ad8901025bd0b0ed42ae2
     Pseudo is Projector augmented-wave + core cor, Zval = 11.0
     Generated using ATOMPAW code
     Shape of augmentation charge: BESSEL
     Using radial grid of 1101 points,  8 beta functions with:
                l(1) =   0
                l(2) =   0
                l(3) =   1
                l(4) =   1
                l(5) =   2
                l(6) =   2
                l(7) =   3
                l(8) =   3
     Q(r) pseudized with 0 coefficients

     PseudoPot. # 3 for Mo read from file:
     /home/pragov/projects/rrg-bengioy-ad/pragov/crystal_structure_design/SSSP/Mo_ONCV_PBE-1.0.oncvpsp.upf
     MD5 check sum: 1b5d28e075c9ccadda658a603575cd1f
     Pseudo is Norm-conserving, Zval = 14.0
     Generated using ONCVPSP code by D. R. Hamann
     Using radial grid of 1526 points,  6 beta functions with:
                l(1) =   0
                l(2) =   0
                l(3) =   1
                l(4) =   1
                l(5) =   2
                l(6) =   2

     PseudoPot. # 4 for O  read from file:
     /home/pragov/projects/rrg-bengioy-ad/pragov/crystal_structure_design/SSSP/O.pbe-n-kjpaw_psl.0.1.UPF
     MD5 check sum: 0234752ac141de4415c5fc33072bef88
     Pseudo is Projector augmented-wave + core cor, Zval =  6.0
     Generated using "atomic" code by A. Dal Corso  v.5.0.99 svn rev. 10869
     Shape of augmentation charge: BESSEL
     Using radial grid of 1095 points,  4 beta functions with:
                l(1) =   0
                l(2) =   0
                l(3) =   1
                l(4) =   1
     Q(r) pseudized with 0 coefficients

     atomic species   valence    mass     pseudopotential
        Li             3.00     6.94000     Li( 1.00)
        La            11.00   138.90547     La( 1.00)
        Mo            14.00    95.95000     Mo( 1.00)
        O              6.00    15.99900     O ( 1.00)

      4 Sym. Ops., with inversion, found ( 2 have fractional translation)

                                    s                        frac. trans.

      isym =  1     identity

 cryst.   s( 1) = (     1          0          0      )
                  (     0          1          0      )
                  (     0          0          1      )

 cart.    s( 1) = (  1.0000000  0.0000000  0.0000000 )
                  (  0.0000000  1.0000000  0.0000000 )
                  (  0.0000000  0.0000000  1.0000000 )

      isym =  2     180 deg rotation - cart. axis [1,0,0]

 cryst.   s( 2) = (     1          0          0      )    f =( -0.5000000 )
                  (     0         -1          0      )       ( -0.0000000 )
                  (     0          0         -1      )       ( -0.5000000 )

 cart.    s( 2) = (  1.0000000  0.0000000  0.0000000 )    f =( -0.5000000 )
                  (  0.0000000 -1.0000000 -0.0000000 )       ( -0.4718564 )
                  (  0.0000000  0.0000000 -1.0000000 )       ( -0.6935419 )

      isym =  3     inversion

 cryst.   s( 3) = (    -1          0          0      )
                  (     0         -1          0      )
                  (     0          0         -1      )

 cart.    s( 3) = ( -1.0000000  0.0000000  0.0000000 )
                  (  0.0000000 -1.0000000 -0.0000000 )
                  (  0.0000000  0.0000000 -1.0000000 )

      isym =  4     inv. 180 deg rotation - cart. axis [1,0,0]

 cryst.   s( 4) = (    -1          0          0      )    f =(  0.5000000 )
                  (     0          1          0      )       (  0.0000000 )
                  (     0          0          1      )       (  0.5000000 )

 cart.    s( 4) = ( -1.0000000  0.0000000  0.0000000 )    f =(  0.5000000 )
                  (  0.0000000  1.0000000  0.0000000 )       (  0.4718564 )
                  (  0.0000000  0.0000000  1.0000000 )       (  0.6935419 )

   Cartesian axes

     site n.     atom                  positions (alat units)
         1           Li  tau(   1) = (   0.0000000   0.0000000   0.0000000  )
         2           Li  tau(   2) = (   0.5000000   0.4718564   0.6935419  )
         3           La  tau(   3) = (   0.9415440   1.4472023   1.0319043  )
         4           La  tau(   4) = (   0.4415440   0.9401773   1.0487213  )
         5           La  tau(   5) = (   0.5584560   0.9753459   0.3383624  )
         6           La  tau(   6) = (   0.0584560   0.4683208   0.3551794  )
         7           Mo  tau(   7) = (   0.5000000   0.4859052   0.0000000  )
         8           Mo  tau(   8) = (   0.0000000   0.9577616   0.6935419  )
         9           O   tau(   9) = (   0.7790530   0.3105477   0.0731687  )
        10           O   tau(  10) = (   0.7209470   0.7824041   0.7667106  )
        11           O   tau(  11) = (   0.2209470   1.6049755   1.3139151  )
        12           O   tau(  12) = (   0.2790530   1.1331191   0.6203732  )
        13           O   tau(  13) = (   0.1884990   0.6700642   0.7616532  )
        14           O   tau(  14) = (   0.4670740   0.5745349   0.3382445  )
        15           O   tau(  15) = (   0.8115010   1.2454590   0.6254305  )
        16           O   tau(  16) = (   0.3115010   0.1982078   0.0681114  )
        17           O   tau(  17) = (   0.6884990   1.7173154   1.3189724  )
        18           O   tau(  18) = (   0.5329260   1.3409883   1.0488392  )
        19           O   tau(  19) = (   0.0329260   1.0463913   1.0317864  )
        20           O   tau(  20) = (   0.9670740   0.8691319   0.3552973  )

   Crystallographic axes

     site n.     atom                  positions (cryst. coord.)
         1           Li  tau(   1) = (  0.0000000  0.0000000  0.0000000  )
         2           Li  tau(   2) = (  0.5000000  0.0000000  0.5000000  )
         3           La  tau(   3) = (  0.9415440  0.7667530  0.7439380  )
         4           La  tau(   4) = (  0.4415440  0.2332470  0.7560620  )
         5           La  tau(   5) = (  0.5584560  0.7667530  0.2439380  )
         6           La  tau(   6) = (  0.0584560  0.2332470  0.2560620  )
         7           Mo  tau(   7) = (  0.5000000  0.5000000  0.0000000  )
         8           Mo  tau(   8) = (  0.0000000  0.5000000  0.5000000  )
         9           O   tau(   9) = (  0.7790530  0.2683310  0.0527500  )
        10           O   tau(  10) = (  0.7209470  0.2683310  0.5527500  )
        11           O   tau(  11) = (  0.2209470  0.7316690  0.9472500  )
        12           O   tau(  12) = (  0.2790530  0.7316690  0.4472500  )
        13           O   tau(  13) = (  0.1884990  0.1562730  0.5491040  )
        14           O   tau(  14) = (  0.4670740  0.3543980  0.2438530  )
        15           O   tau(  15) = (  0.8115010  0.8437270  0.4508960  )
        16           O   tau(  16) = (  0.3115010  0.1562730  0.0491040  )
        17           O   tau(  17) = (  0.6884990  0.8437270  0.9508960  )
        18           O   tau(  18) = (  0.5329260  0.6456020  0.7561470  )
        19           O   tau(  19) = (  0.0329260  0.3543980  0.7438530  )
        20           O   tau(  20) = (  0.9670740  0.6456020  0.2561470  )

     number of k points=    10
                       cart. coord. in units 2pi/alat
        k(    1) = (   0.0000000   0.0000000   0.0000000), wk =   0.0740741
        k(    2) = (   0.0000000   0.0000000   0.2403123), wk =   0.1481481
        k(    3) = (   0.0000000   0.3430025  -0.2333643), wk =   0.1481481
        k(    4) = (   0.0000000   0.3430025   0.0069480), wk =   0.1481481
        k(    5) = (   0.0000000   0.3430025  -0.4736766), wk =   0.1481481
        k(    6) = (   0.3333333   0.0000000   0.0000000), wk =   0.1481481
        k(    7) = (   0.3333333   0.0000000   0.2403123), wk =   0.2962963
        k(    8) = (   0.3333333   0.3430025  -0.2333643), wk =   0.2962963
        k(    9) = (   0.3333333   0.3430025   0.0069480), wk =   0.2962963
        k(   10) = (   0.3333333   0.3430025  -0.4736766), wk =   0.2962963

                       cryst. coord.
        k(    1) = (   0.0000000   0.0000000   0.0000000), wk =   0.0740741
        k(    2) = (   0.0000000   0.0000000   0.3333333), wk =   0.1481481
        k(    3) = (   0.0000000   0.3333333  -0.0000000), wk =   0.1481481
        k(    4) = (   0.0000000   0.3333333   0.3333333), wk =   0.1481481
        k(    5) = (   0.0000000   0.3333333  -0.3333333), wk =   0.1481481
        k(    6) = (   0.3333333   0.0000000   0.0000000), wk =   0.1481481
        k(    7) = (   0.3333333   0.0000000   0.3333333), wk =   0.2962963
        k(    8) = (   0.3333333   0.3333333  -0.0000000), wk =   0.2962963
        k(    9) = (   0.3333333   0.3333333   0.3333333), wk =   0.2962963
        k(   10) = (   0.3333333   0.3333333  -0.3333333), wk =   0.2962963

     Check: negative core charge=   -0.000012

     Initial potential from superposition of free atoms

     starting charge     149.0624, renormalised to     150.0000
     Starting wfcs are  206 randomized atomic wfcs
     Checking if some PAW data can be deallocated...

     Self-consistent Calculation

     iteration #  1     ecut=    30.00 Ry     beta= 0.70
     Davidson diagonalization with overlap

     ethr =  1.00E-02,  avg # of iterations =  2.0

     total energy              =   -2634.17583309 Ry
     estimated scf accuracy    <       5.98561970 Ry

[...]

     c_bands:  1 eigenvalues not converged
     c_bands:  2 eigenvalues not converged
     c_bands:  1 eigenvalues not converged
     ethr =  1.75E-05,  avg # of iterations = 17.5

[...]

     c_bands:  1 eigenvalues not converged
     ethr =  6.93E-07,  avg # of iterations =  8.9

[...]

     total energy              =   -2637.70189395 Ry
     estimated scf accuracy    <       0.00000261 Ry

     iteration # 13     ecut=    30.00 Ry     beta= 0.70
     Davidson diagonalization with overlap

     ethr =  1.74E-09,  avg # of iterations =  5.0

     End of self-consistent calculation

          k = 0.0000 0.0000 0.0000 (  4917 PWs)   bands (ev):

   -51.2892 -51.2891 -33.6024 -33.6022 -25.6286 -25.6285 -25.3601 -25.3592
   -25.2810 -25.2794 -20.5356 -20.4850 -20.4366 -20.4018  -8.1084  -7.6752
    -7.6087  -7.5982  -7.5275  -7.4405  -7.2054  -7.1442  -6.8830  -6.8582
    -6.6734  -6.5842  -4.3552  -4.3145  -4.3106  -4.1853  -4.1091  -4.0229
    -3.8911  -3.5770  -3.5390  -3.2719  -3.2500  -2.9975   5.1835   5.3096
     5.5298   5.8801   5.9935   6.1145   6.1637   6.2827   6.4001   6.4032
     6.4116   6.5413   6.7498   6.7801   6.8801   7.2744   7.2934   7.3688
     7.6253   7.7332   7.8724   7.9239   8.0860   8.2533   8.3011   8.3480
     8.3635   8.5255   8.5339   8.5941   8.6198   8.7851   8.9679   8.9789
     9.0582   9.0841  11.7686  12.0112  12.1121  12.1586  12.2871  12.3832
    14.3294  14.3306  14.3717  14.3986  14.4018  14.4242  14.4550  14.4610
    14.4899  14.5176

     occupation numbers
     1.0000   1.0000   1.0000   1.0000   1.0000   1.0000   1.0000   1.0000
     1.0000   1.0000   1.0000   1.0000   1.0000   1.0000   1.0000   1.0000
     1.0000   1.0000   1.0000   1.0000   1.0000   1.0000   1.0000   1.0000
     1.0000   1.0000   1.0000   1.0000   1.0000   1.0000   1.0000   1.0000
     1.0000   1.0000   1.0000   1.0000   1.0000   1.0000   1.0000   1.0000
     1.0000   1.0000   1.0000   1.0000   1.0000   1.0000   1.0000   1.0000
     1.0000   1.0000   1.0000   1.0000   1.0000   1.0000   1.0000   1.0000
     1.0000   1.0000   1.0000   1.0000   1.0000   1.0000   1.0000   1.0000
     1.0000   1.0000   1.0000   1.0000   1.0000   1.0000   1.0000   1.0000
     1.0000   1.0000   1.0000   0.0000   0.0000   0.0000   0.0000   0.0000
     0.0000   0.0000   0.0000   0.0000   0.0000   0.0000   0.0000   0.0000
     0.0000   0.0000

[...]

          k = 0.3333 0.3430-0.4737 (  4919 PWs)   bands (ev):

   -51.2892 -51.2892 -33.6025 -33.6024 -25.6290 -25.6289 -25.3603 -25.3599
   -25.2806 -25.2801 -20.4837 -20.4706 -20.4542 -20.4430  -8.0680  -7.9926
    -7.7657  -7.6356  -7.4064  -7.2278  -7.2182  -7.0294  -6.9425  -6.9071
    -6.8438  -6.7948  -4.2417  -4.1732  -4.1405  -4.0725  -3.9480  -3.8530
    -3.7030  -3.6577  -3.3554  -3.3087  -3.2178  -3.1014   5.2811   5.3275
     5.5794   5.7168   5.7368   5.8789   5.9126   6.0206   6.0909   6.1694
     6.3687   6.4883   6.7879   6.9313   7.0896   7.1800   7.3563   7.3895
     7.5263   7.6544   7.8129   7.9094   8.0026   8.0796   8.1547   8.3059
     8.3790   8.4023   8.5195   8.5845   8.6987   8.8176   8.8511   8.9230
     9.0024   9.0788  11.9551  12.0019  12.1782  12.2530  12.2750  12.3736
    14.3423  14.3759  14.3859  14.4210  14.4654  14.4718  14.4830  14.4893
    14.5098  14.5173

     occupation numbers
     1.0000   1.0000   1.0000   1.0000   1.0000   1.0000   1.0000   1.0000
     1.0000   1.0000   1.0000   1.0000   1.0000   1.0000   1.0000   1.0000
     1.0000   1.0000   1.0000   1.0000   1.0000   1.0000   1.0000   1.0000
     1.0000   1.0000   1.0000   1.0000   1.0000   1.0000   1.0000   1.0000
     1.0000   1.0000   1.0000   1.0000   1.0000   1.0000   1.0000   1.0000
     1.0000   1.0000   1.0000   1.0000   1.0000   1.0000   1.0000   1.0000
     1.0000   1.0000   1.0000   1.0000   1.0000   1.0000   1.0000   1.0000
     1.0000   1.0000   1.0000   1.0000   1.0000   1.0000   1.0000   1.0000
     1.0000   1.0000   1.0000   1.0000   1.0000   1.0000   1.0000   1.0000
     1.0000   1.0000   1.0000   0.0000   0.0000   0.0000   0.0000   0.0000
     0.0000   0.0000   0.0000   0.0000   0.0000   0.0000   0.0000   0.0000
     0.0000   0.0000

     highest occupied, lowest unoccupied level (ev):    11.9551   11.9127

!    total energy              =   -2637.70189490 Ry
     estimated scf accuracy    <       0.00000064 Ry

     The total energy is the sum of the following terms:
     one-electron contribution =    -231.69819019 Ry
     hartree contribution      =     207.91850972 Ry
     xc contribution           =    -162.62846964 Ry
     ewald contribution        =    -744.57740133 Ry
     one-center paw contrib.   =   -1706.71634346 Ry
      -> PAW hartree energy AE =      35.01757546 Ry
      -> PAW hartree energy PS =     -35.06751500 Ry
      -> PAW xc energy AE      =    -405.37099449 Ry
      -> PAW xc energy PS      =       7.31685108 Ry
      -> total E_H with PAW    =     207.86857018 Ry
      -> total E_XC with PAW   =    -560.68261305 Ry

     convergence has been achieved in  13 iterations

     Writing all to output data dir calculations_bands/myprefix.save/

     General routines

     Parallel routines

     PAW routines

   This run was terminated on:  10:49:23  23Jun2023

   JOB DONE.