     Program PWSCF v.7.0 starts on  5Jun2023 at 19:56:24

     K-points division:     npool     =       2
     R & G space division:  proc/nbgrp/npool/nimage =       4

     Reading input from espresso_11315.pwi
Warning: card &CELL ignored
Warning: card / ignored

     Current dimensions of program PWSCF are:
     Max number of different atomic species (ntypx) = 10
     Max number of k-points (npk) =  40000
     Max angular momentum in pseudopotentials (lmaxx) =  4
     Message from routine setup:
     using ibrav=0 with symmetry is DISCOURAGED, use correct ibrav instead

     Using Slab Decomposition

     bravais-lattice index     =            0
     lattice parameter (alat)  =       5.2976  a.u.
     unit-cell volume          =     222.0428 (a.u.)^3
     number of atoms/cell      =            2
     number of atomic types    =            2
     number of electrons       =        28.00
     number of Kohn-Sham states=           64
     kinetic-energy cutoff     =      30.0000  Ry
     charge density cutoff     =     240.0000  Ry
     scf convergence threshold =      1.0E-06
     mixing beta               =       0.7000
     number of iterations used =            8  plain     mixing
     Exchange-correlation= SLA  PW   PBE  PBE
                           (   1   4   3   4   0   0   0)

     celldm(1)=   5.297624  celldm(2)=   0.000000  celldm(3)=   0.000000
     celldm(4)=   0.000000  celldm(5)=   0.000000  celldm(6)=   0.000000

     crystal axes: (cart. coord. in units of alat)
               a(1) = (   1.000000   0.000000   0.000000 )
               a(2) = (  -0.349013   0.937118   0.000000 )
               a(3) = (   0.000000   0.000000   1.593672 )

     reciprocal axes: (cart. coord. in units 2 pi/alat)
               b(1) = (  1.000000  0.372432  0.000000 )
               b(2) = (  0.000000  1.067101  0.000000 )
               b(3) = (  0.000000  0.000000  0.627482 )

     PseudoPot. # 1 for Ta read from file:
     /home/pragov/projects/rrg-bengioy-ad/pragov/crystal_structure_design/SSSP/Ta_pbe_v1.uspp.F.UPF
     MD5 check sum: f8bbe9446314a3b8ea5d9f3e3836c939
     Pseudo is Ultrasoft + core correction, Zval = 13.0
     Generated by new atomic code, or converted to UPF format
     Using radial grid of  921 points,  7 beta functions with:
                l(1) =   0
                l(2) =   0
                l(3) =   1
                l(4) =   1
                l(5) =   2
                l(6) =   2
                l(7) =   3
     Q(r) pseudized with  6 coefficients,  rinner =    1.300   1.300   1.300
                                                       1.300   1.300   1.300
                                                       1.300

     PseudoPot. # 2 for Re read from file:
     /home/pragov/projects/rrg-bengioy-ad/pragov/crystal_structure_design/SSSP/Re_pbe_v1.2.uspp.F.UPF
     MD5 check sum: 85f993410f3e006da9d71c142b4ad953
     Pseudo is Ultrasoft + core correction, Zval = 15.0
     Generated by new atomic code, or converted to UPF format
     Using radial grid of  981 points,  8 beta functions with:
                l(1) =   0
                l(2) =   0
                l(3) =   1
                l(4) =   1
                l(5) =   2
                l(6) =   2
                l(7) =   3
                l(8) =   3
     Q(r) pseudized with  8 coefficients,  rinner =    1.150   1.150   1.150
                                                       1.150   1.150   1.150
                                                       1.150

     atomic species   valence    mass     pseudopotential
        Ta            13.00   180.94788     Ta( 1.00)
        Re            15.00   186.20700     Re( 1.00)

      4 Sym. Ops., with inversion, found

                                    s                        frac. trans.

      isym =  1     identity

 cryst.   s( 1) = (     1          0          0      )
                  (     0          1          0      )
                  (     0          0          1      )

 cart.    s( 1) = (  1.0000000  0.0000000  0.0000000 )
                  (  0.0000000  1.0000000  0.0000000 )
                  (  0.0000000  0.0000000  1.0000000 )

      isym =  2     180 deg rotation - cart. axis [0,0,1]

[...]

      isym =  3     inversion

[...]

      isym =  4     inv. 180 deg rotation - cart. axis [0,0,1]

 cryst.   s( 4) = (     1          0          0      )
                  (     0          1          0      )
                  (     0          0         -1      )

 cart.    s( 4) = (  1.0000000  0.0000000  0.0000000 )
                  (  0.0000000  1.0000000  0.0000000 )
                  (  0.0000000  0.0000000 -1.0000000 )

   Cartesian axes

     site n.     atom                  positions (alat units)
         1           Ta  tau(   1) = (   0.3254937   0.4685590   0.7968359  )
         2           Re  tau(   2) = (   0.0000000   0.0000000   0.0000000  )

   Crystallographic axes

     site n.     atom                  positions (cryst. coord.)
         1           Ta  tau(   1) = (  0.5000000  0.5000000  0.5000000  )
         2           Re  tau(   2) = (  0.0000000  0.0000000  0.0000000  )

     number of k points=    10
                       cart. coord. in units 2pi/alat
        k(    1) = (   0.0000000   0.0000000   0.0000000), wk =   0.0740741
        k(    2) = (   0.0000000   0.0000000   0.2091606), wk =   0.1481481
        k(    3) = (   0.0000000   0.3557005   0.0000000), wk =   0.1481481
        k(    4) = (   0.0000000   0.3557005   0.2091606), wk =   0.2962963
        k(    5) = (   0.3333333   0.1241440   0.0000000), wk =   0.1481481
        k(    6) = (   0.3333333   0.1241440   0.2091606), wk =   0.2962963
        k(    7) = (   0.3333333   0.4798445   0.0000000), wk =   0.1481481
        k(    8) = (   0.3333333   0.4798445   0.2091606), wk =   0.2962963
        k(    9) = (   0.3333333  -0.2315565   0.0000000), wk =   0.1481481
        k(   10) = (   0.3333333  -0.2315565   0.2091606), wk =   0.2962963

                       cryst. coord.
        k(    1) = (   0.0000000   0.0000000   0.0000000), wk =   0.0740741
        k(    2) = (   0.0000000   0.0000000   0.3333333), wk =   0.1481481
        k(    3) = (   0.0000000   0.3333333   0.0000000), wk =   0.1481481
        k(    4) = (   0.0000000   0.3333333   0.3333333), wk =   0.2962963
        k(    5) = (   0.3333333   0.0000000   0.0000000), wk =   0.1481481
        k(    6) = (   0.3333333   0.0000000   0.3333333), wk =   0.2962963
        k(    7) = (   0.3333333   0.3333333   0.0000000), wk =   0.1481481
        k(    8) = (   0.3333333   0.3333333   0.3333333), wk =   0.2962963
        k(    9) = (   0.3333333  -0.3333333   0.0000000), wk =   0.1481481
        k(   10) = (   0.3333333  -0.3333333   0.3333333), wk =   0.2962963

     Initial potential from superposition of free atoms

     starting charge      27.4988, renormalised to      28.0000

     negative rho (up, down):  2.247E-01 0.000E+00
     Starting wfcs are   26 randomized atomic wfcs +   38 random wfcs

     Self-consistent Calculation

     iteration #  1     ecut=    30.00 Ry     beta= 0.70
     Davidson diagonalization with overlap

     ethr =  1.00E-02,  avg # of iterations =  5.8

     Threshold (ethr) on eigenvalues was too large:
     Diagonalizing with lowered threshold

     Davidson diagonalization with overlap

[...]

     negative rho (up, down):  2.247E-01 0.000E+00

     total energy              =    -332.47775523 Ry
     estimated scf accuracy    <       0.18627446 Ry

[...]

     total energy              =    -332.52157682 Ry
     estimated scf accuracy    <       0.00000717 Ry

     iteration #  6     ecut=    30.00 Ry     beta= 0.70
     Davidson diagonalization with overlap

     ethr =  2.56E-08,  avg # of iterations =  1.1

     negative rho (up, down):  2.243E-01 0.000E+00

     End of self-consistent calculation

          k = 0.0000 0.0000 0.0000 (   625 PWs)   bands (ev):

   -58.9512 -46.0153 -20.7239 -20.5828 -20.4356 -12.6595 -12.0066 -11.9006
    12.2380  15.6952  17.9946  20.0401  20.2828  21.2400  22.5456  22.6181
    22.6346  25.0882  25.7468  28.1026  32.7393  32.8736  35.8580  36.1530
    36.4288  37.9000  42.9541  47.2983  47.7690  47.8645  49.3566  49.5740
    50.3986  50.5829  52.1823  52.3336  54.2312  57.5908  58.4834  58.5888
    59.2872  59.7841  63.1071  63.5652  64.3103  64.9845  66.7617  66.8002
    67.8923  69.0170  69.2132  70.4946  71.5779  73.3996  77.2077  81.2854
    81.5944  81.7416  83.1336  83.3856  83.5786  84.4839  84.7200  86.1198

     occupation numbers
     1.0000   1.0000   1.0000   1.0000   1.0000   1.0000   1.0000   1.0000
     1.0000   1.0000   1.0000   1.0000   1.0000   1.0000   0.0000   0.0000
     0.0000   0.0000   0.0000   0.0000   0.0000   0.0000   0.0000   0.0000
     0.0000   0.0000   0.0000   0.0000   0.0000   0.0000   0.0000   0.0000
     0.0000   0.0000   0.0000   0.0000   0.0000   0.0000   0.0000   0.0000
     0.0000   0.0000   0.0000   0.0000   0.0000   0.0000   0.0000   0.0000
     0.0000   0.0000   0.0000   0.0000   0.0000   0.0000   0.0000   0.0000
     0.0000   0.0000   0.0000   0.0000   0.0000   0.0000   0.0000   0.0000

[...]

          k = 0.3333-0.2316 0.2092 (   616 PWs)   bands (ev):

   -58.9064 -45.9189 -20.9420 -20.7825 -20.6153 -12.8226 -12.5550 -12.3753
    16.3287  17.2562  17.4971  19.0348  19.6294  21.4618  22.0134  23.3231
    24.3234  25.2939  25.6741  25.7753  34.1817  36.3366  36.7525  37.3945
    38.3272  40.1791  42.1460  42.6374  45.8883  46.2561  47.0890  48.4972
    50.7178  50.8381  51.3000  53.6423  55.5981  56.5218  56.9875  57.6402
    58.7477  59.0863  61.9723  62.2329  64.9862  65.1210  66.2999  69.2519
    69.8484  70.0626  70.3128  71.1409  72.5695  72.9661  73.3112  75.6667
    76.8090  77.2814  78.0145  79.3140  80.6773  81.3197  82.6563  82.9603

     occupation numbers
     1.0000   1.0000   1.0000   1.0000   1.0000   1.0000   1.0000   1.0000
     1.0000   1.0000   1.0000   1.0000   1.0000   1.0000   0.0000   0.0000
     0.0000   0.0000   0.0000   0.0000   0.0000   0.0000   0.0000   0.0000
     0.0000   0.0000   0.0000   0.0000   0.0000   0.0000   0.0000   0.0000
     0.0000   0.0000   0.0000   0.0000   0.0000   0.0000   0.0000   0.0000
     0.0000   0.0000   0.0000   0.0000   0.0000   0.0000   0.0000   0.0000
     0.0000   0.0000   0.0000   0.0000   0.0000   0.0000   0.0000   0.0000
     0.0000   0.0000   0.0000   0.0000   0.0000   0.0000   0.0000   0.0000

     highest occupied, lowest unoccupied level (ev):    22.7629   21.1007

!    total energy              =    -332.52157774 Ry
     estimated scf accuracy    <       0.00000013 Ry

     The total energy is the sum of the following terms:
     one-electron contribution =     -35.51070629 Ry
     hartree contribution      =      33.90492625 Ry
     xc contribution           =     -94.84460266 Ry
     ewald contribution        =    -236.07119504 Ry

     convergence has been achieved in   6 iterations

     Writing all to output data dir calculations_bands/myprefix.save/

     General routines

     Parallel routines

   This run was terminated on:  19:56:27   5Jun2023

   JOB DONE.