     Program PWSCF v.7.0 starts on  7Jun2023 at  0:33: 6

     K-points division:     npool     =       2
     R & G space division:  proc/nbgrp/npool/nimage =       4

     Reading input from espresso_985.pwi
Warning: card &CELL ignored
Warning: card / ignored

     Current dimensions of program PWSCF are:
     Max number of different atomic species (ntypx) = 10
     Max number of k-points (npk) =  40000
     Max angular momentum in pseudopotentials (lmaxx) =  4
     file O.pbe-n-kjpaw_psl.0.1.UPF: wavefunction(s)  2P renormalized
     Message from routine setup:
     using ibrav=0 with symmetry is DISCOURAGED, use correct ibrav instead

     Using Slab Decomposition

     bravais-lattice index     =            0
     lattice parameter (alat)  =      10.7696  a.u.
     unit-cell volume          =    1011.8855 (a.u.)^3
     number of atoms/cell      =           12
     number of atomic types    =            3
     number of electrons       =        96.00
     number of Kohn-Sham states=           64
     kinetic-energy cutoff     =      30.0000  Ry
     charge density cutoff     =     240.0000  Ry
     scf convergence threshold =      1.0E-06
     mixing beta               =       0.7000
     number of iterations used =            8  plain     mixing
     Exchange-correlation= SLA  PW   PBX  PBC
                           (   1   4   3   4   0   0   0)

     celldm(1)=  10.769627  celldm(2)=   0.000000  celldm(3)=   0.000000
     celldm(4)=   0.000000  celldm(5)=   0.000000  celldm(6)=   0.000000

     crystal axes: (cart. coord. in units of alat)
               a(1) = (   1.000000   0.000000   0.000000 )
               a(2) = (  -0.491056   0.871128   0.000000 )
               a(3) = (   0.178854   0.306134   0.929924 )

     reciprocal axes: (cart. coord. in units 2 pi/alat)
               b(1) = (  1.000000  0.563701 -0.377904 )
               b(2) = (  0.000000  1.147937 -0.377904 )
               b(3) = (  0.000000  0.000000  1.075357 )

     PseudoPot. # 1 for Na read from file:
     /home/pragov/projects/rrg-bengioy-ad/pragov/crystal_structure_design/SSSP/na_pbe_v1.5.uspp.F.UPF
     MD5 check sum: 44600605ef58000f06b90626533354dc
     Pseudo is Ultrasoft, Zval =  9.0
     Generated by new atomic code, or converted to UPF format
     Using radial grid of  819 points,  5 beta functions with:
                l(1) =   0
                l(2) =   0
                l(3) =   1
                l(4) =   1
                l(5) =   2
     Q(r) pseudized with  8 coefficients,  rinner =    1.250   1.250   1.250
                                                       1.250   1.250

     PseudoPot. # 2 for Re read from file:
     /home/pragov/projects/rrg-bengioy-ad/pragov/crystal_structure_design/SSSP/Re_pbe_v1.2.uspp.F.UPF
     MD5 check sum: 85f993410f3e006da9d71c142b4ad953
     Pseudo is Ultrasoft + core correction, Zval = 15.0
     Generated by new atomic code, or converted to UPF format
     Using radial grid of  981 points,  8 beta functions with:
                l(1) =   0
                l(2) =   0
                l(3) =   1
                l(4) =   1
                l(5) =   2
                l(6) =   2
                l(7) =   3
                l(8) =   3
     Q(r) pseudized with  8 coefficients,  rinner =    1.150   1.150   1.150
                                                       1.150   1.150   1.150
                                                       1.150

     PseudoPot. # 3 for O  read from file:
     /home/pragov/projects/rrg-bengioy-ad/pragov/crystal_structure_design/SSSP/O.pbe-n-kjpaw_psl.0.1.UPF
     MD5 check sum: 0234752ac141de4415c5fc33072bef88
     Pseudo is Projector augmented-wave + core cor, Zval =  6.0
     Generated using "atomic" code by A. Dal Corso  v.5.0.99 svn rev. 10869
     Shape of augmentation charge: BESSEL
     Using radial grid of 1095 points,  4 beta functions with:
                l(1) =   0
                l(2) =   0
                l(3) =   1
                l(4) =   1
     Q(r) pseudized with 0 coefficients

     atomic species   valence    mass     pseudopotential
        Na             9.00    22.98977     Na( 1.00)
        Re            15.00   186.20700     Re( 1.00)
        O              6.00    15.99900     O ( 1.00)

      2 Sym. Ops., with inversion, found

                                    s                        frac. trans.

      isym =  1     identity

 cryst.   s( 1) = (     1          0          0      )
                  (     0          1          0      )
                  (     0          0          1      )

 cart.    s( 1) = (  1.0000000 -0.0000000 -0.0000000 )
                  (  0.0000000  1.0000000  0.0000000 )
                  (  0.0000000  0.0000000  1.0000000 )

      isym =  2     inversion

 cryst.   s( 2) = (    -1          0          0      )
                  (     0         -1          0      )
                  (     0          0         -1      )

 cart.    s( 2) = ( -1.0000000  0.0000000  0.0000000 )
                  (  0.0000000 -1.0000000 -0.0000000 )
                  (  0.0000000  0.0000000 -1.0000000 )

   Cartesian axes

     site n.     atom                  positions (alat units)
         1           Na  tau(   1) = (   0.8345848   0.3019549   0.4649619  )
         2           Na  tau(   2) = (   0.0062664   0.5805746   0.0000000  )
         3           Na  tau(   3) = (   0.5026777   0.2905534   0.0000000  )
         4           Na  tau(   4) = (   0.3438992   0.5886310   0.4649619  )
         5           Na  tau(   5) = (  -0.1467864   0.8753070   0.4649619  )
         6           Re  tau(   6) = (   0.0000000   0.0000000   0.0000000  )
         7           O   tau(   7) = (   0.1395233   0.2388134   0.1880892  )
         8           O   tau(   8) = (   0.6474475   0.6349740   0.1989711  )
         9           O   tau(   9) = (   0.4525876   0.3014445   0.7309526  )
        10           O   tau(  10) = (   0.0403509   0.5422879   0.7309526  )
        11           O   tau(  11) = (   0.2352108   0.8758174   0.1989711  )
        12           O   tau(  12) = (   0.5482751   0.9384485   0.7418346  )

   Crystallographic axes

     site n.     atom                  positions (cryst. coord.)
         1           Na  tau(   1) = (  0.8290860  0.1709140  0.5000000  )
         2           Na  tau(   2) = (  0.3335370  0.6664630  0.0000000  )
         3           Na  tau(   3) = (  0.6664630  0.3335370  0.0000000  )
         4           Na  tau(   4) = (  0.5000000  0.5000000  0.5000000  )
         5           Na  tau(   5) = (  0.1709140  0.8290860  0.5000000  )
         6           Re  tau(   6) = (  0.0000000  0.0000000  0.0000000  )
         7           O   tau(   7) = (  0.2030630  0.2030630  0.2022630  )
         8           O   tau(   8) = (  0.9301910  0.6537180  0.2139650  )
         9           O   tau(   9) = (  0.3462820  0.0698090  0.7860350  )
        10           O   tau(  10) = (  0.0698090  0.3462820  0.7860350  )
        11           O   tau(  11) = (  0.6537180  0.9301910  0.2139650  )
        12           O   tau(  12) = (  0.7969370  0.7969370  0.7977370  )

     number of k points=    14
                       cart. coord. in units 2pi/alat
        k(    1) = (   0.0000000   0.0000000   0.0000000), wk =   0.0740741
        k(    2) = (   0.0000000   0.0000000   0.3584523), wk =   0.1481481
        k(    3) = (   0.0000000   0.3826456  -0.1259682), wk =   0.1481481
        k(    4) = (   0.0000000   0.3826456   0.2324842), wk =   0.1481481
        k(    5) = (   0.0000000   0.3826456  -0.4844205), wk =   0.1481481
        k(    6) = (   0.3333333   0.1879004  -0.1259682), wk =   0.1481481
        k(    7) = (   0.3333333   0.1879004   0.2324842), wk =   0.1481481
        k(    8) = (   0.3333333   0.1879004  -0.4844205), wk =   0.1481481
        k(    9) = (   0.3333333   0.5705460  -0.2519363), wk =   0.1481481
        k(   10) = (   0.3333333   0.5705460   0.1065160), wk =   0.1481481
        k(   11) = (   0.3333333   0.5705460  -0.6103886), wk =   0.1481481
        k(   12) = (   0.3333333  -0.1947452  -0.0000000), wk =   0.1481481
        k(   13) = (   0.3333333  -0.1947452   0.3584523), wk =   0.1481481
        k(   14) = (   0.3333333  -0.1947452  -0.3584523), wk =   0.1481481

                       cryst. coord.
        k(    1) = (   0.0000000   0.0000000   0.0000000), wk =   0.0740741
        k(    2) = (   0.0000000   0.0000000   0.3333333), wk =   0.1481481
        k(    3) = (   0.0000000   0.3333333  -0.0000000), wk =   0.1481481
        k(    4) = (   0.0000000   0.3333333   0.3333333), wk =   0.1481481
        k(    5) = (   0.0000000   0.3333333  -0.3333333), wk =   0.1481481
        k(    6) = (   0.3333333  -0.0000000  -0.0000000), wk =   0.1481481
        k(    7) = (   0.3333333  -0.0000000   0.3333333), wk =   0.1481481
        k(    8) = (   0.3333333  -0.0000000  -0.3333333), wk =   0.1481481
        k(    9) = (   0.3333333   0.3333333  -0.0000000), wk =   0.1481481
        k(   10) = (   0.3333333   0.3333333   0.3333333), wk =   0.1481481
        k(   11) = (   0.3333333   0.3333333  -0.3333333), wk =   0.1481481
        k(   12) = (   0.3333333  -0.3333333   0.0000000), wk =   0.1481481
        k(   13) = (   0.3333333  -0.3333333   0.3333333), wk =   0.1481481
        k(   14) = (   0.3333333  -0.3333333  -0.3333333), wk =   0.1481481

     Check: negative core charge=   -0.000012

     Initial potential from superposition of free atoms

     starting charge      95.4685, renormalised to      96.0000

     negative rho (up, down):  1.266E-01 0.000E+00
     Starting wfcs are   62 randomized atomic wfcs +    2 random wfcs
     Checking if some PAW data can be deallocated...

     Self-consistent Calculation

     iteration #  1     ecut=    30.00 Ry     beta= 0.70
     Davidson diagonalization with overlap

     ethr =  1.00E-02,  avg # of iterations =  6.3

     negative rho (up, down):  1.529E-01 0.000E+00

     total energy              =    -915.72051867 Ry
     estimated scf accuracy    <       3.43370950 Ry

[...]

     total energy              =    -917.62955777 Ry
     estimated scf accuracy    <       0.00000889 Ry

     iteration # 10     ecut=    30.00 Ry     beta= 0.70
     Davidson diagonalization with overlap

     ethr =  9.26E-09,  avg # of iterations =  2.0

     negative rho (up, down):  1.417E-01 0.000E+00

     End of self-consistent calculation

          k = 0.0000 0.0000 0.0000 (  2815 PWs)   bands (ev):

   -76.2503 -44.4103 -44.4046 -44.3430 -43.9097 -43.9040 -37.9594 -37.9555
   -37.9465 -16.3905 -16.3693 -16.3690 -16.3514 -16.3395 -16.3113 -16.2999
   -16.2633 -16.2337 -15.8844 -15.8729 -15.8696 -15.8632 -15.8127 -15.8085
   -12.0683 -11.3331 -11.2706 -10.6551 -10.6515 -10.6329   0.6489   0.7304
     0.8036   0.9836   1.0266   1.2246   2.8914   3.0037   3.2241   3.7770
     4.1867   4.3502   4.6509   4.6779   4.7484   4.7635   4.9225   4.9321
     7.4721   7.6865   7.8873   9.6834  12.3208  12.5242  13.3173  14.1889
    14.8510  15.5451  16.0704  16.1620  16.3101  16.5563  16.6735  17.1773

     occupation numbers
     1.0000   1.0000   1.0000   1.0000   1.0000   1.0000   1.0000   1.0000
     1.0000   1.0000   1.0000   1.0000   1.0000   1.0000   1.0000   1.0000
     1.0000   1.0000   1.0000   1.0000   1.0000   1.0000   1.0000   1.0000
     1.0000   1.0000   1.0000   1.0000   1.0000   1.0000   1.0000   1.0000
     1.0000   1.0000   1.0000   1.0000   1.0000   1.0000   1.0000   1.0000
     1.0000   1.0000   1.0000   1.0000   1.0000   1.0000   1.0000   1.0000
     0.0000   0.0000   0.0000   0.0000   0.0000   0.0000   0.0000   0.0000
     0.0000   0.0000   0.0000   0.0000   0.0000   0.0000   0.0000   0.0000

[...]

          k = 0.3333-0.1947-0.3585 (  2801 PWs)   bands (ev):

   -76.2503 -44.4091 -44.4054 -44.3431 -43.9084 -43.9051 -37.9594 -37.9555
   -37.9465 -16.4050 -16.3754 -16.3489 -16.3284 -16.3239 -16.3162 -16.3021
   -16.2890 -16.2374 -15.8923 -15.8783 -15.8691 -15.8682 -15.8151 -15.8020
   -11.8511 -11.3502 -11.2899 -10.7441 -10.7232 -10.6668   0.6264   0.6864
     0.9338   1.0326   1.0751   1.5494   2.9532   3.0628   3.1004   3.9111
     4.0144   4.1820   4.2174   4.3094   4.5331   4.9073   4.9476   5.0111
     7.6135   7.8047   7.8656  10.8013  11.9503  12.7071  13.4671  14.0502
    14.4435  15.1483  15.6304  15.9509  16.2970  16.5092  17.2063  17.7401

     occupation numbers
     1.0000   1.0000   1.0000   1.0000   1.0000   1.0000   1.0000   1.0000
     1.0000   1.0000   1.0000   1.0000   1.0000   1.0000   1.0000   1.0000
     1.0000   1.0000   1.0000   1.0000   1.0000   1.0000   1.0000   1.0000
     1.0000   1.0000   1.0000   1.0000   1.0000   1.0000   1.0000   1.0000
     1.0000   1.0000   1.0000   1.0000   1.0000   1.0000   1.0000   1.0000
     1.0000   1.0000   1.0000   1.0000   1.0000   1.0000   1.0000   1.0000
     0.0000   0.0000   0.0000   0.0000   0.0000   0.0000   0.0000   0.0000
     0.0000   0.0000   0.0000   0.0000   0.0000   0.0000   0.0000   0.0000

     highest occupied, lowest unoccupied level (ev):     5.0538    7.4635

!    total energy              =    -917.62955894 Ry
     estimated scf accuracy    <       0.00000017 Ry

     The total energy is the sum of the following terms:
     one-electron contribution =    -467.40707188 Ry
     hartree contribution      =     272.62692158 Ry
     xc contribution           =    -169.16343997 Ry
     ewald contribution        =    -496.54416616 Ry
     one-center paw contrib.   =     -57.14180250 Ry
      -> PAW hartree energy AE =       0.00000000 Ry
      -> PAW hartree energy PS =       0.00000000 Ry
      -> PAW xc energy AE      =       0.00000000 Ry
      -> PAW xc energy PS      =       0.00000000 Ry
      -> total E_H with PAW    =     272.62692158 Ry
      -> total E_XC with PAW   =    -169.16343997 Ry

     convergence has been achieved in  10 iterations

     Writing all to output data dir calculations_bands/myprefix.save/

     General routines

     Parallel routines

     PAW routines

   This run was terminated on:   0:33:23   7Jun2023

   JOB DONE.