     Program PWSCF v.7.0 starts on 23Jun2023 at  8:21:34

     K-points division:     npool     =       2
     R & G space division:  proc/nbgrp/npool/nimage =       4

     Reading input from espresso_2623.pwi
Warning: card &CELL ignored
Warning: card / ignored

     Current dimensions of program PWSCF are:
     Max number of different atomic species (ntypx) = 10
     Max number of k-points (npk) =  40000
     Max angular momentum in pseudopotentials (lmaxx) =  4
     file O.pbe-n-kjpaw_psl.0.1.UPF: wavefunction(s)  2P renormalized
     Message from routine setup:
     using ibrav=0 with symmetry is DISCOURAGED, use correct ibrav instead

     Using Slab Decomposition

     bravais-lattice index     =            0
     lattice parameter (alat)  =      11.0377  a.u.
     unit-cell volume          =    1672.6746 (a.u.)^3
     number of atoms/cell      =           20
     number of atomic types    =            4
     number of electrons       =       164.00
     number of Kohn-Sham states=           90
     kinetic-energy cutoff     =      30.0000  Ry
     charge density cutoff     =     240.0000  Ry
     scf convergence threshold =      1.0E-06
     mixing beta               =       0.7000
     number of iterations used =            8  plain     mixing
     Exchange-correlation= SLA  PW   PBX  PBC
                           (   1   4   3   4   0   0   0)

     celldm(1)=  11.037715  celldm(2)=   0.000000  celldm(3)=   0.000000
     celldm(4)=   0.000000  celldm(5)=   0.000000  celldm(6)=   0.000000

     crystal axes: (cart. coord. in units of alat)
               a(1) = (   1.000000   0.000000   0.000000 )
               a(2) = (   0.000000   0.933335   0.000000 )
               a(3) = (   0.000000   0.920235   1.332713 )

     reciprocal axes: (cart. coord. in units 2 pi/alat)
               b(1) = (  1.000000  0.000000  0.000000 )
               b(2) = (  0.000000  1.071427 -0.739818 )
               b(3) = (  0.000000  0.000000  0.750349 )

     PseudoPot. # 1 for Li read from file:
     /home/pragov/projects/rrg-bengioy-ad/pragov/crystal_structure_design/SSSP/li_pbe_v1.4.uspp.F.UPF
     MD5 check sum: e912e257baa3777c20ea3d68f190483c
     Pseudo is Ultrasoft, Zval =  3.0
     Generated by new atomic code, or converted to UPF format
     Using radial grid of  751 points,  5 beta functions with:
                l(1) =   0
                l(2) =   0
                l(3) =   0
                l(4) =   1
                l(5) =   1
     Q(r) pseudized with 10 coefficients,  rinner =    1.150   1.150   1.150

     PseudoPot. # 2 for Nd read from file:
     /home/pragov/projects/rrg-bengioy-ad/pragov/crystal_structure_design/SSSP/Nd.GGA-PBE-paw-v1.0.UPF
     MD5 check sum: 1d1e94942b6eb1cde76049b71bb7dcb0
     Pseudo is Projector augmented-wave + core cor, Zval = 14.0
     Generated using ATOMPAW code
     Shape of augmentation charge: BESSEL
     Using radial grid of 1105 points,  8 beta functions with:
                l(1) =   0
                l(2) =   0
                l(3) =   1
                l(4) =   1
                l(5) =   2
                l(6) =   2
                l(7) =   3
                l(8) =   3
     Q(r) pseudized with 0 coefficients

     PseudoPot. # 3 for Ir read from file:
     /home/pragov/projects/rrg-bengioy-ad/pragov/crystal_structure_design/SSSP/Ir_pbe_v1.2.uspp.F.UPF
     MD5 check sum: 8836f839c3459d2b385c504ce6d91f2c
     Pseudo is Ultrasoft + core correction, Zval = 15.0
     Generated by new atomic code, or converted to UPF format
     Using radial grid of  983 points,  7 beta functions with:
                l(1) =   0
                l(2) =   0
                l(3) =   1
                l(4) =   1
                l(5) =   1
                l(6) =   2
                l(7) =   2
     Q(r) pseudized with  8 coefficients,  rinner =    1.400   1.400   1.400
                                                       1.400   1.400

     PseudoPot. # 4 for O  read from file:
     /home/pragov/projects/rrg-bengioy-ad/pragov/crystal_structure_design/SSSP/O.pbe-n-kjpaw_psl.0.1.UPF
     MD5 check sum: 0234752ac141de4415c5fc33072bef88
     Pseudo is Projector augmented-wave + core cor, Zval =  6.0
     Generated using "atomic" code by A. Dal Corso  v.5.0.99 svn rev. 10869
     Shape of augmentation charge: BESSEL
     Using radial grid of 1095 points,  4 beta functions with:
                l(1) =   0
                l(2) =   0
                l(3) =   1
                l(4) =   1
     Q(r) pseudized with 0 coefficients

     atomic species   valence    mass     pseudopotential
        Li             3.00     6.94000     Li( 1.00)
        Nd            14.00   144.24200     Nd( 1.00)
        Ir            15.00   192.21700     Ir( 1.00)
        O              6.00    15.99900     O ( 1.00)

      4 Sym. Ops., with inversion, found ( 2 have fractional translation)

                                    s                        frac. trans.

      isym =  1     identity

 cryst.   s( 1) = (     1          0          0      )
                  (     0          1          0      )
                  (     0          0          1      )

 cart.    s( 1) = (  1.0000000  0.0000000  0.0000000 )
                  (  0.0000000  1.0000000 -0.0000000 )
                  (  0.0000000  0.0000000  1.0000000 )

      isym =  2     180 deg rotation - cart. axis [1,0,0]

 cryst.   s( 2) = (     1          0          0      )    f =( -0.5000000 )
                  (     0         -1          0      )       (  0.0000000 )
                  (     0          0         -1      )       (  0.5000000 )

 cart.    s( 2) = (  1.0000000  0.0000000  0.0000000 )    f =( -0.5000000 )
                  (  0.0000000 -1.0000000  0.0000000 )       (  0.4601175 )
                  (  0.0000000  0.0000000 -1.0000000 )       (  0.6663564 )

      isym =  3     inversion

 cryst.   s( 3) = (    -1          0          0      )
                  (     0         -1          0      )
                  (     0          0         -1      )

 cart.    s( 3) = ( -1.0000000  0.0000000  0.0000000 )
                  (  0.0000000 -1.0000000  0.0000000 )
                  (  0.0000000  0.0000000 -1.0000000 )

      isym =  4     inv. 180 deg rotation - cart. axis [1,0,0]

 cryst.   s( 4) = (    -1          0          0      )    f =(  0.5000000 )
                  (     0          1          0      )       ( -0.0000000 )
                  (     0          0          1      )       ( -0.5000000 )

 cart.    s( 4) = ( -1.0000000  0.0000000  0.0000000 )    f =(  0.5000000 )
                  (  0.0000000  1.0000000 -0.0000000 )       ( -0.4601175 )
                  (  0.0000000  0.0000000  1.0000000 )       ( -0.6663564 )

   Cartesian axes

     site n.     atom                  positions (alat units)
         1           Li  tau(   1) = (   0.0000000   0.0000000   0.0000000  )
         2           Li  tau(   2) = (   0.5000000   0.4601175   0.6663564  )
         3           Nd  tau(   3) = (   0.0737060   1.4075637   0.9972304  )
         4           Nd  tau(   4) = (   0.5737060   0.9061235   1.0018389  )
         5           Nd  tau(   5) = (   0.4262940   0.9474462   0.3308740  )
         6           Nd  tau(   6) = (   0.9262940   0.4460060   0.3354825  )
         7           Ir  tau(   7) = (   0.5000000   0.4666673   0.0000000  )
         8           Ir  tau(   8) = (   0.0000000   0.9267848   0.6663564  )
         9           O   tau(   9) = (   0.2887700   0.7585867   0.7371008  )
        10           O   tau(  10) = (   0.7887700   1.5551005   1.2619685  )
        11           O   tau(  11) = (   0.7112300   1.0949830   0.5956120  )
        12           O   tau(  12) = (   0.2112300   0.2984692   0.0707444  )
        13           O   tau(  13) = (   0.0296240   0.8378001   0.3387356  )
        14           O   tau(  14) = (   0.5296240   0.5556521   0.3276208  )
        15           O   tau(  15) = (   0.3125210   1.6673808   1.2681230  )
        16           O   tau(  16) = (   0.8125210   0.6463064   0.7309464  )
        17           O   tau(  17) = (   0.6874790   0.1861889   0.0645899  )
        18           O   tau(  18) = (   0.1874790   1.2072633   0.6017665  )
        19           O   tau(  19) = (   0.4703760   1.2979176   1.0050921  )
        20           O   tau(  20) = (   0.9703760   1.0157696   0.9939772  )

   Crystallographic axes

     site n.     atom                  positions (cryst. coord.)
         1           Li  tau(   1) = (  0.0000000  0.0000000  0.0000000  )
         2           Li  tau(   2) = (  0.5000000 -0.0000000  0.5000000  )
         3           Nd  tau(   3) = (  0.0737060  0.7703330  0.7482710  )
         4           Nd  tau(   4) = (  0.5737060  0.2296670  0.7517290  )
         5           Nd  tau(   5) = (  0.4262940  0.7703330  0.2482710  )
         6           Nd  tau(   6) = (  0.9262940  0.2296670  0.2517290  )
         7           Ir  tau(   7) = (  0.5000000  0.5000000  0.0000000  )
         8           Ir  tau(   8) = (  0.0000000  0.5000000  0.5000000  )
         9           O   tau(   9) = (  0.2887700  0.2674500  0.5530830  )
        10           O   tau(  10) = (  0.7887700  0.7325500  0.9469170  )
        11           O   tau(  11) = (  0.7112300  0.7325500  0.4469170  )
        12           O   tau(  12) = (  0.2112300  0.2674500  0.0530830  )
        13           O   tau(  13) = (  0.0296240  0.6470390  0.2541700  )
        14           O   tau(  14) = (  0.5296240  0.3529610  0.2458300  )
        15           O   tau(  15) = (  0.3125210  0.8482970  0.9515350  )
        16           O   tau(  16) = (  0.8125210  0.1517030  0.5484650  )
        17           O   tau(  17) = (  0.6874790  0.1517030  0.0484650  )
        18           O   tau(  18) = (  0.1874790  0.8482970  0.4515350  )
        19           O   tau(  19) = (  0.4703760  0.6470390  0.7541700  )
        20           O   tau(  20) = (  0.9703760  0.3529610  0.7458300  )

     number of k points=    10
                       cart. coord. in units 2pi/alat
        k(    1) = (   0.0000000   0.0000000   0.0000000), wk =   0.0740741
        k(    2) = (   0.0000000   0.0000000   0.2501164), wk =   0.1481481
        k(    3) = (   0.0000000   0.3571423  -0.2466059), wk =   0.1481481
        k(    4) = (   0.0000000   0.3571423   0.0035105), wk =   0.1481481
        k(    5) = (   0.0000000   0.3571423  -0.4967223), wk =   0.1481481
        k(    6) = (   0.3333333   0.0000000   0.0000000), wk =   0.1481481
        k(    7) = (   0.3333333   0.0000000   0.2501164), wk =   0.2962963
        k(    8) = (   0.3333333   0.3571423  -0.2466059), wk =   0.2962963
        k(    9) = (   0.3333333   0.3571423   0.0035105), wk =   0.2962963
        k(   10) = (   0.3333333   0.3571423  -0.4967223), wk =   0.2962963

                       cryst. coord.
        k(    1) = (   0.0000000   0.0000000   0.0000000), wk =   0.0740741
        k(    2) = (   0.0000000   0.0000000   0.3333333), wk =   0.1481481
        k(    3) = (   0.0000000   0.3333333  -0.0000000), wk =   0.1481481
        k(    4) = (   0.0000000   0.3333333   0.3333333), wk =   0.1481481
        k(    5) = (   0.0000000   0.3333333  -0.3333333), wk =   0.1481481
        k(    6) = (   0.3333333   0.0000000   0.0000000), wk =   0.1481481
        k(    7) = (   0.3333333   0.0000000   0.3333333), wk =   0.2962963
        k(    8) = (   0.3333333   0.3333333  -0.0000000), wk =   0.2962963
        k(    9) = (   0.3333333   0.3333333   0.3333333), wk =   0.2962963
        k(   10) = (   0.3333333   0.3333333  -0.3333333), wk =   0.2962963

     Check: negative core charge=   -0.000011

     Initial potential from superposition of free atoms

     starting charge     162.0737, renormalised to     164.0000

     negative rho (up, down):  7.404E-01 0.000E+00
     Starting wfcs are  210 randomized atomic wfcs
     Checking if some PAW data can be deallocated...

     Self-consistent Calculation

     iteration #  1     ecut=    30.00 Ry     beta= 0.70
     Davidson diagonalization with overlap

     ethr =  1.00E-02,  avg # of iterations =  1.0

     negative rho (up, down):  4.523E-01 0.000E+00

     total energy              =   -3018.15489914 Ry
     estimated scf accuracy    <      30.55145690 Ry

[...]

     c_bands:  1 eigenvalues not converged
     c_bands:  3 eigenvalues not converged
     ethr =  2.02E-04,  avg # of iterations = 16.9

[...]

     c_bands:  1 eigenvalues not converged
     ethr =  8.17E-08,  avg # of iterations = 18.7

[...]

     total energy              =   -3042.45547548 Ry
     estimated scf accuracy    <       0.00000171 Ry

     iteration #137     ecut=    30.00 Ry     beta= 0.70
     Davidson diagonalization with overlap

     ethr =  1.04E-09,  avg # of iterations = 10.2

     negative rho (up, down):  6.337E-01 0.000E+00

     End of self-consistent calculation

          k = 0.0000 0.0000 0.0000 (  4633 PWs)   bands (ev):

   -38.4224 -38.4224 -38.3125 -38.3124 -38.2763 -38.2763 -32.6653 -32.6649
   -25.0455 -25.0219 -24.9960 -24.9782  -8.3008  -7.9433  -7.8967  -7.8921
    -7.6917  -7.2834  -7.0548  -6.8797  -6.7459  -6.7016  -6.4079  -6.3215
    -6.1723  -6.1556  -6.1123  -5.9065  -5.6695  -5.5769  -5.3835  -4.9713
    -4.7721  -4.5860  -4.3663  -4.2860   5.1696   5.3543   5.3669   5.8432
     5.9104   5.9165   6.1037   6.2213   6.2254   6.4365   6.4607   6.4825
     6.6853   7.2064   7.2493   7.3785   7.4777   7.7979   8.0160   8.1523
     8.2693   8.3207   8.5802   8.6748   8.7721   8.8039   8.8655   8.9360
     9.0010   9.0576   9.2064   9.4633   9.4984   9.5954   9.5962   9.7486
    10.7558  11.1264  11.2618  11.2939  11.3754  11.4627  11.7305  11.7331
    11.7576  11.7768  11.8058  11.8141  11.8268  11.8442  11.8811  11.8915
    11.8942  11.9000

     occupation numbers
     1.0000   1.0000   1.0000   1.0000   1.0000   1.0000   1.0000   1.0000
     1.0000   1.0000   1.0000   1.0000   1.0000   1.0000   1.0000   1.0000
     1.0000   1.0000   1.0000   1.0000   1.0000   1.0000   1.0000   1.0000
     1.0000   1.0000   1.0000   1.0000   1.0000   1.0000   1.0000   1.0000
     1.0000   1.0000   1.0000   1.0000   1.0000   1.0000   1.0000   1.0000
     1.0000   1.0000   1.0000   1.0000   1.0000   1.0000   1.0000   1.0000
     1.0000   1.0000   1.0000   1.0000   1.0000   1.0000   1.0000   1.0000
     1.0000   1.0000   1.0000   1.0000   1.0000   1.0000   1.0000   1.0000
     1.0000   1.0000   1.0000   1.0000   1.0000   1.0000   1.0000   1.0000
     1.0000   1.0000   1.0000   1.0000   1.0000   1.0000   1.0000   1.0000
     1.0000   1.0000   0.0000   0.0000   0.0000   0.0000   0.0000   0.0000
     0.0000   0.0000

[...]

          k = 0.3333 0.3571-0.4967 (  4648 PWs)   bands (ev):

   -38.4225 -38.4224 -38.3126 -38.3125 -38.2764 -38.2763 -32.6652 -32.6652
   -25.0210 -25.0140 -25.0053 -24.9991  -8.3208  -8.2000  -7.9692  -7.8565
    -7.5461  -7.3992  -7.1472  -7.0449  -6.8984  -6.7761  -6.5815  -6.5598
    -6.0619  -6.0286  -5.7523  -5.5739  -5.4188  -5.2704  -5.0721  -4.9518
    -4.7199  -4.6844  -4.4812  -4.4314   5.2879   5.3555   5.6235   5.6480
     5.6918   5.7647   5.8965   6.0155   6.1229   6.1703   6.2716   6.3637
     7.0742   7.2530   7.3728   7.4640   7.6623   7.7260   7.9638   8.1282
     8.2878   8.3589   8.3741   8.4828   8.6160   8.7504   8.7921   8.9198
     8.9490   9.1376   9.2024   9.2885   9.3279   9.4075   9.5419   9.6258
    11.0719  11.1727  11.2848  11.3062  11.3788  11.4376  11.7355  11.7551
    11.7771  11.7885  11.8125  11.8311  11.8461  11.8698  11.8728  11.8861
    11.8992  11.9122

     occupation numbers
     1.0000   1.0000   1.0000   1.0000   1.0000   1.0000   1.0000   1.0000
     1.0000   1.0000   1.0000   1.0000   1.0000   1.0000   1.0000   1.0000
     1.0000   1.0000   1.0000   1.0000   1.0000   1.0000   1.0000   1.0000
     1.0000   1.0000   1.0000   1.0000   1.0000   1.0000   1.0000   1.0000
     1.0000   1.0000   1.0000   1.0000   1.0000   1.0000   1.0000   1.0000
     1.0000   1.0000   1.0000   1.0000   1.0000   1.0000   1.0000   1.0000
     1.0000   1.0000   1.0000   1.0000   1.0000   1.0000   1.0000   1.0000
     1.0000   1.0000   1.0000   1.0000   1.0000   1.0000   1.0000   1.0000
     1.0000   1.0000   1.0000   1.0000   1.0000   1.0000   1.0000   1.0000
     1.0000   1.0000   1.0000   1.0000   1.0000   1.0000   1.0000   1.0000
     1.0000   1.0000   0.0000   0.0000   0.0000   0.0000   0.0000   0.0000
     0.0000   0.0000

     highest occupied, lowest unoccupied level (ev):    11.7885   11.7817

!    total energy              =   -3042.45547586 Ry
     estimated scf accuracy    <       0.00000023 Ry

     The total energy is the sum of the following terms:
     one-electron contribution =    -256.37961425 Ry
     hartree contribution      =     252.28236472 Ry
     xc contribution           =    -252.04418167 Ry
     ewald contribution        =    -951.75501833 Ry
     one-center paw contrib.   =   -1834.55902633 Ry
      -> PAW hartree energy AE =      79.31732256 Ry
      -> PAW hartree energy PS =     -79.04628787 Ry
      -> PAW xc energy AE      =    -442.70853188 Ry
      -> PAW xc energy PS      =      12.37644940 Ry
      -> total E_H with PAW    =     252.55339941 Ry
      -> total E_XC with PAW   =    -682.37626415 Ry

     convergence has been achieved in 137 iterations

     Writing all to output data dir calculations_bands/myprefix.save/

     General routines

     Parallel routines

     PAW routines

   This run was terminated on:   8:28:10  23Jun2023

   JOB DONE.