     Program PWSCF v.7.0 starts on  4Jun2023 at 20:17:31

     K-points division:     npool     =       2
     R & G space division:  proc/nbgrp/npool/nimage =       4

     Reading input from espresso_10086.pwi
Warning: card &CELL ignored
Warning: card / ignored

     Current dimensions of program PWSCF are:
     Max number of different atomic species (ntypx) = 10
     Max number of k-points (npk) =  40000
     Max angular momentum in pseudopotentials (lmaxx) =  4
     Message from routine setup:
     using ibrav=0 with symmetry is DISCOURAGED, use correct ibrav instead

     Using Slab Decomposition

     bravais-lattice index     =            0
     lattice parameter (alat)  =       8.1212  a.u.
     unit-cell volume          =     245.7487 (a.u.)^3
     number of atoms/cell      =            4
     number of atomic types    =            2
     number of electrons       =        32.00
     number of Kohn-Sham states=           64
     kinetic-energy cutoff     =      30.0000  Ry
     charge density cutoff     =     240.0000  Ry
     scf convergence threshold =      1.0E-06
     mixing beta               =       0.7000
     number of iterations used =            8  plain     mixing
     Exchange-correlation=  SLA  PW   PBX  PBC
                           (   1   4   3   4   0   0   0)

     celldm(1)=   8.121192  celldm(2)=   0.000000  celldm(3)=   0.000000
     celldm(4)=   0.000000  celldm(5)=   0.000000  celldm(6)=   0.000000

     crystal axes: (cart. coord. in units of alat)
               a(1) = (   1.000000   0.000000   0.000000 )
               a(2) = (  -0.747683   0.664056   0.000000 )
               a(3) = (   0.000000   0.000000   0.690919 )

     reciprocal axes: (cart. coord. in units 2 pi/alat)
               b(1) = (  1.000000  1.125933  0.000000 )
               b(2) = (  0.000000  1.505897  0.000000 )
               b(3) = (  0.000000  0.000000  1.447348 )

     PseudoPot. # 1 for V  read from file:
     /home/pragov/projects/rrg-bengioy-ad/pragov/crystal_structure_design/SSSP/v_pbe_v1.4.uspp.F.UPF
     MD5 check sum: 22b79981416ebb76fdaf5b1b8640f6fb
     Pseudo is Ultrasoft + core correction, Zval = 13.0
     Generated by new atomic code, or converted to UPF format
     Using radial grid of  853 points,  6 beta functions with:
                l(1) =   0
                l(2) =   0
                l(3) =   1
                l(4) =   1
                l(5) =   2
                l(6) =   2
     Q(r) pseudized with  8 coefficients,  rinner =    1.100   1.100   1.100
                                                       1.100   1.100

     PseudoPot. # 2 for B  read from file:
     /home/pragov/projects/rrg-bengioy-ad/pragov/crystal_structure_design/SSSP/b_pbe_v1.4.uspp.F.UPF
     MD5 check sum: cc6de2960df11db49a60e589f9ebb39b
     Pseudo is Ultrasoft + core correction, Zval =  3.0
     Generated by new atomic code, or converted to UPF format
     Using radial grid of  781 points,  4 beta functions with:
                l(1) =   0
                l(2) =   0
                l(3) =   1
                l(4) =   1
     Q(r) pseudized with  8 coefficients,  rinner =    1.100   1.100   1.100

     atomic species   valence    mass     pseudopotential
        V             13.00    50.94150     V ( 1.00)
        B              3.00    10.81000     B ( 1.00)

      4 Sym. Ops., with inversion, found ( 2 have fractional translation)

                                    s                        frac. trans.

      isym =  1     identity

 cryst.   s( 1) = (     1          0          0      )
                  (     0          1          0      )
                  (     0          0          1      )

 cart.    s( 1) = (  1.0000000 -0.0000000  0.0000000 )
                  (  0.0000000  1.0000000  0.0000000 )
                  (  0.0000000  0.0000000  1.0000000 )

      isym =  2     180 deg rotation - cart. axis [0,0,1]

 cryst.   s( 2) = (    -1          0          0      )    f =( -0.0000000 )
                  (     0         -1          0      )       ( -0.0000000 )
                  (     0          0          1      )       ( -0.5000000 )

 cart.    s( 2) = ( -1.0000000  0.0000000  0.0000000 )    f =( -0.0000000 )
                  (  0.0000000 -1.0000000  0.0000000 )       ( -0.0000000 )
                  (  0.0000000  0.0000000  1.0000000 )       ( -0.3454594 )

      isym =  3     inversion

 cryst.   s( 3) = (    -1          0          0      )
                  (     0         -1          0      )
                  (     0          0         -1      )

 cart.    s( 3) = ( -1.0000000  0.0000000  0.0000000 )
                  (  0.0000000 -1.0000000  0.0000000 )
                  (  0.0000000  0.0000000 -1.0000000 )

      isym =  4     inv. 180 deg rotation - cart. axis [0,0,1]

 cryst.   s( 4) = (     1          0          0      )    f =(  0.0000000 )
                  (     0          1          0      )       (  0.0000000 )
                  (     0          0         -1      )       (  0.5000000 )

 cart.    s( 4) = (  1.0000000 -0.0000000  0.0000000 )    f =(  0.0000000 )
                  (  0.0000000  1.0000000  0.0000000 )       (  0.0000000 )
                  (  0.0000000  0.0000000 -1.0000000 )       (  0.3454594 )

   Cartesian axes

     site n.     atom                  positions (alat units)
         1           V   tau(   1) = (  -0.4895936   0.5659917   0.1727297  )
         2           V   tau(   2) = (   0.7419110   0.0980645   0.5181891  )
         3           B   tau(   3) = (   0.0169233   0.3735336   0.1727297  )
         4           B   tau(   4) = (   0.2353941   0.2905226   0.5181891  )

   Crystallographic axes

     site n.     atom                  positions (cryst. coord.)
         1           V   tau(   1) = (  0.1476750  0.8523250  0.2500000  )
         2           V   tau(   2) = (  0.8523250  0.1476750  0.7500000  )
         3           B   tau(   3) = (  0.4374970  0.5625030  0.2500000  )
         4           B   tau(   4) = (  0.5625030  0.4374970  0.7500000  )

     number of k points=    10
                       cart. coord. in units 2pi/alat
        k(    1) = (   0.0000000   0.0000000   0.0000000), wk =   0.0740741
        k(    2) = (   0.0000000   0.0000000   0.4824493), wk =   0.1481481
        k(    3) = (   0.0000000   0.5019655   0.0000000), wk =   0.1481481
        k(    4) = (   0.0000000   0.5019655   0.4824493), wk =   0.2962963
        k(    5) = (   0.3333333   0.3753109   0.0000000), wk =   0.1481481
        k(    6) = (   0.3333333   0.3753109   0.4824493), wk =   0.2962963
        k(    7) = (   0.3333333   0.8772765   0.0000000), wk =   0.1481481
        k(    8) = (   0.3333333   0.8772765   0.4824493), wk =   0.2962963
        k(    9) = (   0.3333333  -0.1266546   0.0000000), wk =   0.1481481
        k(   10) = (   0.3333333  -0.1266546   0.4824493), wk =   0.2962963

                       cryst. coord.
        k(    1) = (   0.0000000   0.0000000   0.0000000), wk =   0.0740741
        k(    2) = (   0.0000000   0.0000000   0.3333333), wk =   0.1481481
        k(    3) = (   0.0000000   0.3333333   0.0000000), wk =   0.1481481
        k(    4) = (   0.0000000   0.3333333   0.3333333), wk =   0.2962963
        k(    5) = (   0.3333333  -0.0000000   0.0000000), wk =   0.1481481
        k(    6) = (   0.3333333  -0.0000000   0.3333333), wk =   0.2962963
        k(    7) = (   0.3333333   0.3333333   0.0000000), wk =   0.1481481
        k(    8) = (   0.3333333   0.3333333   0.3333333), wk =   0.2962963
        k(    9) = (   0.3333333  -0.3333333   0.0000000), wk =   0.1481481
        k(   10) = (   0.3333333  -0.3333333   0.3333333), wk =   0.2962963

     Check: negative core charge=   -0.000007

     Initial potential from superposition of free atoms

     starting charge      31.9970, renormalised to      32.0000
     Starting wfcs are   28 randomized atomic wfcs +   36 random wfcs

     Self-consistent Calculation

     iteration #  1     ecut=    30.00 Ry     beta= 0.70
     Davidson diagonalization with overlap

     ethr =  1.00E-02,  avg # of iterations =  5.8

     negative rho (up, down):  2.708E-03 0.000E+00

     total energy              =    -302.65187258 Ry
     estimated scf accuracy    <       0.85731008 Ry

[...]

     total energy              =    -303.16361216 Ry
     estimated scf accuracy    <       0.00000193 Ry

     iteration #  8     ecut=    30.00 Ry     beta= 0.70
     Davidson diagonalization with overlap

     ethr =  6.02E-09,  avg # of iterations =  1.0

     negative rho (up, down):  1.495E-03 0.000E+00

     End of self-consistent calculation

          k = 0.0000 0.0000 0.0000 (   657 PWs)   bands (ev):

   -47.6024 -47.4521 -21.6673 -21.4137 -21.3895 -21.2381 -21.1709 -21.1224
     4.3340  10.2722  13.5378  13.8472  13.8813  14.2065  15.8955  16.7599
    17.2802  17.4031  18.2244  18.3877  18.8209  21.3218  22.2959  22.5487
    25.3750  26.0537  27.0298  27.8884  30.8689  32.4552  32.7653  32.7816
    37.2737  38.8764  39.9863  40.3408  41.6003  42.9302  45.6266  46.1194
    47.1148  47.1277  47.7096  48.0127  50.1368  50.5650  52.4235  53.5744
    54.5595  55.2787  57.7690  60.0340  60.2210  60.2504  61.5199  61.9095
    64.2608  64.4083  65.2245  67.1435  67.5162  69.7305  71.7603  74.1592

     occupation numbers
     1.0000   1.0000   1.0000   1.0000   1.0000   1.0000   1.0000   1.0000
     1.0000   1.0000   1.0000   1.0000   1.0000   1.0000   1.0000   1.0000
     0.0000   0.0000   0.0000   0.0000   0.0000   0.0000   0.0000   0.0000
     0.0000   0.0000   0.0000   0.0000   0.0000   0.0000   0.0000   0.0000
     0.0000   0.0000   0.0000   0.0000   0.0000   0.0000   0.0000   0.0000
     0.0000   0.0000   0.0000   0.0000   0.0000   0.0000   0.0000   0.0000
     0.0000   0.0000   0.0000   0.0000   0.0000   0.0000   0.0000   0.0000
     0.0000   0.0000   0.0000   0.0000   0.0000   0.0000   0.0000   0.0000

[...]

          k = 0.3333-0.1267 0.4824 (   683 PWs)   bands (ev):

   -47.5392 -47.4896 -21.6481 -21.5587 -21.3738 -21.2532 -21.2523 -21.1655
     6.3054   9.8356  10.9570  13.7902  14.2781  14.7116  15.2853  16.0657
    16.7104  17.9433  18.2609  18.2661  18.6856  20.1614  22.4448  24.3443
    25.2022  27.6696  28.1830  28.6969  30.8206  32.7427  33.7373  34.1801
    37.2370  37.3082  38.2538  38.5762  40.6996  42.2510  42.8642  45.3152
    46.7706  48.3029  48.4239  51.2974  51.6539  52.1656  54.4177  55.0652
    57.0923  58.3491  58.7176  59.1033  59.6169  60.9547  62.1232  62.5192
    64.6410  64.8173  65.9166  66.1124  67.2141  67.6572  68.3457  69.3773

     occupation numbers
     1.0000   1.0000   1.0000   1.0000   1.0000   1.0000   1.0000   1.0000
     1.0000   1.0000   1.0000   1.0000   1.0000   1.0000   1.0000   1.0000
     0.0000   0.0000   0.0000   0.0000   0.0000   0.0000   0.0000   0.0000
     0.0000   0.0000   0.0000   0.0000   0.0000   0.0000   0.0000   0.0000
     0.0000   0.0000   0.0000   0.0000   0.0000   0.0000   0.0000   0.0000
     0.0000   0.0000   0.0000   0.0000   0.0000   0.0000   0.0000   0.0000
     0.0000   0.0000   0.0000   0.0000   0.0000   0.0000   0.0000   0.0000
     0.0000   0.0000   0.0000   0.0000   0.0000   0.0000   0.0000   0.0000

     highest occupied, lowest unoccupied level (ev):    17.1264   16.7104

!    total energy              =    -303.16361248 Ry
     estimated scf accuracy    <          1.3E-09 Ry

     The total energy is the sum of the following terms:
     one-electron contribution =     -91.16226304 Ry
     hartree contribution      =      62.51136587 Ry
     xc contribution           =     -45.40675938 Ry
     ewald contribution        =    -229.10595592 Ry

     convergence has been achieved in   8 iterations

     Writing all to output data dir calculations_bands/myprefix.save/

     General routines

     Parallel routines

   This run was terminated on:  20:17:53   4Jun2023

   JOB DONE.