     Program PWSCF v.7.0 starts on 22Jun2023 at 22:38:46

     K-points division:     npool     =       2
     R & G space division:  proc/nbgrp/npool/nimage =       4

     Reading input from espresso_13021.pwi
Warning: card &CELL ignored
Warning: card / ignored

     Current dimensions of program PWSCF are:
     Max number of different atomic species (ntypx) = 10
     Max number of k-points (npk) =  40000
     Max angular momentum in pseudopotentials (lmaxx) =  4
     file Al.pbe-n-kjpaw_psl.1.0.0.UPF: wavefunction(s)  3S 3P renormalized
     Message from routine setup:
     using ibrav=0 with symmetry is DISCOURAGED, use correct ibrav instead

     Using Slab Decomposition

     bravais-lattice index     =            0
     lattice parameter (alat)  =      11.5281  a.u.
     unit-cell volume          =    2084.9911 (a.u.)^3
     number of atoms/cell      =           16
     number of atomic types    =            3
     number of electrons       =       116.00
     number of Kohn-Sham states=           64
     kinetic-energy cutoff     =      30.0000  Ry
     charge density cutoff     =     240.0000  Ry
     scf convergence threshold =      1.0E-06
     mixing beta               =       0.7000
     number of iterations used =            8  plain     mixing
     Exchange-correlation= SLA  PW   PBX  PBC
                           (   1   4   3   4   0   0   0)

     celldm(1)=  11.528089  celldm(2)=   0.000000  celldm(3)=   0.000000
     celldm(4)=   0.000000  celldm(5)=   0.000000  celldm(6)=   0.000000

     crystal axes: (cart. coord. in units of alat)
               a(1) = (   1.000000   0.000000   0.000000 )
               a(2) = (  -0.500000   0.866025   0.000000 )
               a(3) = (   0.000000   0.000000   1.571454 )

     reciprocal axes: (cart. coord. in units 2 pi/alat)
               b(1) = (  1.000000  0.577350  0.000000 )
               b(2) = (  0.000000  1.154701  0.000000 )
               b(3) = (  0.000000  0.000000  0.636353 )

     PseudoPot. # 1 for Gd read from file:
     /home/pragov/projects/rrg-bengioy-ad/pragov/crystal_structure_design/SSSP/Gd.GGA-PBE-paw-v1.0.UPF
     MD5 check sum: 3e8e0d208da550914ae52eaf991d13de
     Pseudo is Projector augmented-wave + core cor, Zval = 18.0
     Generated using ATOMPAW code
     Shape of augmentation charge: BESSEL
     Using radial grid of 1110 points,  8 beta functions with:
                l(1) =   0
                l(2) =   0
                l(3) =   1
                l(4) =   1
                l(5) =   2
                l(6) =   2
                l(7) =   3
                l(8) =   3
     Q(r) pseudized with 0 coefficients

     PseudoPot. # 2 for Er read from file:
     /home/pragov/projects/rrg-bengioy-ad/pragov/crystal_structure_design/SSSP/Er.GGA-PBE-paw-v1.0.UPF
     MD5 check sum: 5952a841f12bc97f67d25f9d1b2e7e35
     Pseudo is Projector augmented-wave + core cor, Zval = 22.0
     Generated using ATOMPAW code
     Shape of augmentation charge: BESSEL
     Using radial grid of 1114 points,  8 beta functions with:
                l(1) =   0
                l(2) =   0
                l(3) =   1
                l(4) =   1
                l(5) =   2
                l(6) =   2
                l(7) =   3
                l(8) =   3
     Q(r) pseudized with 0 coefficients

     PseudoPot. # 3 for Al read from file:
     /home/pragov/projects/rrg-bengioy-ad/pragov/crystal_structure_design/SSSP/Al.pbe-n-kjpaw_psl.1.0.0.UPF
     MD5 check sum: cfc449ca30b5f3223ec38ddd88ac046d
     Pseudo is Projector augmented-wave + core cor, Zval =  3.0
     Generated using "atomic" code by A. Dal Corso  v.5.1
     Shape of augmentation charge: PSQ
     Using radial grid of 1135 points,  6 beta functions with:
                l(1) =   0
                l(2) =   0
                l(3) =   1
                l(4) =   1
                l(5) =   2
                l(6) =   2
     Q(r) pseudized with 0 coefficients

     atomic species   valence    mass     pseudopotential
        Gd            18.00   157.25000     Gd( 1.00)
        Er            22.00   167.25900     Er( 1.00)
        Al             3.00    26.98154     Al( 1.00)

     24 Sym. Ops., with inversion, found (12 have fractional translation)

                                    s                        frac. trans.

      isym =  1     identity

 cryst.   s( 1) = (     1          0          0      )
                  (     0          1          0      )
                  (     0          0          1      )

 cart.    s( 1) = (  1.0000000  0.0000000  0.0000000 )
                  (  0.0000000  1.0000000  0.0000000 )
                  (  0.0000000  0.0000000  1.0000000 )

      isym =  2     180 deg rotation - cart. axis [0,0,1]

 cryst.   s( 2) = (    -1          0          0      )    f =(  0.0000000 )
                  (     0         -1          0      )       (  0.0000000 )
                  (     0          0          1      )       (  0.5000000 )

 cart.    s( 2) = ( -1.0000000 -0.0000000  0.0000000 )    f =(  0.0000000 )
                  (  0.0000000 -1.0000000  0.0000000 )       (  0.0000000 )
                  (  0.0000000  0.0000000  1.0000000 )       (  0.7857269 )

[...]

      isym =  4     180 deg rotation - cart. axis [1,0,0]

[...]

      isym =  5      60 deg rotation - cryst. axis [0,0,1]

[...]

 cryst.   s( 8) = (    -1         -1          0      )
                  (     1          0          0      )
                  (     0          0          1      )

 cart.    s( 8) = ( -0.5000000  0.8660254  0.0000000 )
                  ( -0.8660254 -0.5000000  0.0000000 )
                  (  0.0000000  0.0000000  1.0000000 )

[...]

 cryst.   s( 9) = (     0         -1          0      )    f =(  0.0000000 )
                  (    -1          0          0      )       (  0.0000000 )
                  (     0          0         -1      )       ( -0.5000000 )

 cart.    s( 9) = (  0.5000000 -0.8660254  0.0000000 )    f =(  0.0000000 )
                  ( -0.8660254 -0.5000000  0.0000000 )       (  0.0000000 )
                  (  0.0000000  0.0000000 -1.0000000 )       ( -0.7857269 )

[...]

 cryst.   s(10) = (     1          1          0      )    f =(  0.0000000 )
                  (     0         -1          0      )       (  0.0000000 )
                  (     0          0         -1      )       ( -0.5000000 )

 cart.    s(10) = (  0.5000000  0.8660254  0.0000000 )    f =(  0.0000000 )
                  (  0.8660254 -0.5000000  0.0000000 )       (  0.0000000 )
                  (  0.0000000  0.0000000 -1.0000000 )       ( -0.7857269 )

[...]

 cryst.   s(11) = (    -1         -1          0      )
                  (     0          1          0      )
                  (     0          0         -1      )

 cart.    s(11) = ( -0.5000000 -0.8660254  0.0000000 )
                  ( -0.8660254  0.5000000  0.0000000 )
                  (  0.0000000  0.0000000 -1.0000000 )

      isym = 12     180 deg rotation - cryst. axis [1,1,0]

[...]

      isym = 13     inversion

[...]

      isym = 14     inv. 180 deg rotation - cart. axis [0,0,1]

[...]

      isym = 16     inv. 180 deg rotation - cart. axis [1,0,0]

[...]

      isym = 17     inv.  60 deg rotation - cryst. axis [0,0,1]

[...]

 cryst.   s(22) = (    -1         -1          0      )    f =(  0.0000000 )
                  (     0          1          0      )       (  0.0000000 )
                  (     0          0          1      )       (  0.5000000 )

 cart.    s(22) = ( -0.5000000 -0.8660254  0.0000000 )    f =(  0.0000000 )
                  ( -0.8660254  0.5000000  0.0000000 )       (  0.0000000 )
                  (  0.0000000  0.0000000  1.0000000 )       (  0.7857269 )

[...]

      isym = 24     inv. 180 deg rotation - cryst. axis [1,1,0]

 cryst.   s(24) = (     0         -1          0      )
                  (    -1          0          0      )
                  (     0          0          1      )

 cart.    s(24) = (  0.5000000 -0.8660254  0.0000000 )
                  ( -0.8660254 -0.5000000  0.0000000 )
                  (  0.0000000  0.0000000  1.0000000 )

   Cartesian axes

     site n.     atom                  positions (alat units)
         1           Gd  tau(   1) = (   0.0000000   0.0000000   0.0000000  )
         2           Gd  tau(   2) = (   0.0000000   0.0000000   0.7857269  )
         3           Er  tau(   3) = (  -0.0000005   0.5773506   1.1785904  )
         4           Er  tau(   4) = (   0.5000005   0.2886748   0.3928635  )
         5           Al  tau(   5) = (   0.5000005   0.5473393   1.1785904  )
         6           Al  tau(   6) = (   0.2759905   0.1593426   1.1785904  )
         7           Al  tau(   7) = (   0.7240105   0.1593426   1.1785904  )
         8           Al  tau(   8) = (  -0.0000005   0.3186861   0.3928635  )
         9           Al  tau(   9) = (   0.2240095   0.7066828   0.3928635  )
        10           Al  tau(  10) = (  -0.2240105   0.7066828   0.3928635  )
        11           Al  tau(  11) = (   0.2500000   0.4330127   0.0000000  )
        12           Al  tau(  12) = (   0.5000000   0.0000000   0.0000000  )
        13           Al  tau(  13) = (  -0.2500000   0.4330127   0.0000000  )
        14           Al  tau(  14) = (   0.2500000   0.4330127   0.7857269  )
        15           Al  tau(  15) = (   0.5000000   0.0000000   0.7857269  )
        16           Al  tau(  16) = (  -0.2500000   0.4330127   0.7857269  )

   Crystallographic axes

     site n.     atom                  positions (cryst. coord.)
         1           Gd  tau(   1) = (  0.0000000  0.0000000  0.0000000  )
         2           Gd  tau(   2) = (  0.0000000  0.0000000  0.5000000  )
         3           Er  tau(   3) = (  0.3333330  0.6666670  0.7500000  )
         4           Er  tau(   4) = (  0.6666670  0.3333330  0.2500000  )
         5           Al  tau(   5) = (  0.8160070  0.6320130  0.7500000  )
         6           Al  tau(   6) = (  0.3679870  0.1839930  0.7500000  )
         7           Al  tau(   7) = (  0.8160070  0.1839930  0.7500000  )
         8           Al  tau(   8) = (  0.1839930  0.3679870  0.2500000  )
         9           Al  tau(   9) = (  0.6320130  0.8160070  0.2500000  )
        10           Al  tau(  10) = (  0.1839930  0.8160070  0.2500000  )
        11           Al  tau(  11) = (  0.5000000  0.5000000  0.0000000  )
        12           Al  tau(  12) = (  0.5000000  0.0000000  0.0000000  )
        13           Al  tau(  13) = ( -0.0000000  0.5000000  0.0000000  )
        14           Al  tau(  14) = (  0.5000000  0.5000000  0.5000000  )
        15           Al  tau(  15) = (  0.5000000  0.0000000  0.5000000  )
        16           Al  tau(  16) = ( -0.0000000  0.5000000  0.5000000  )

     number of k points=     6
                       cart. coord. in units 2pi/alat
        k(    1) = (   0.0000000   0.0000000   0.0000000), wk =   0.0740741
        k(    2) = (   0.0000000   0.0000000   0.2121178), wk =   0.1481481
        k(    3) = (   0.0000000   0.3849002   0.0000000), wk =   0.4444444
        k(    4) = (   0.0000000   0.3849002   0.2121178), wk =   0.8888889
        k(    5) = (   0.3333333   0.5773503   0.0000000), wk =   0.1481481
        k(    6) = (   0.3333333   0.5773503   0.2121178), wk =   0.2962963

                       cryst. coord.
        k(    1) = (   0.0000000   0.0000000   0.0000000), wk =   0.0740741
        k(    2) = (   0.0000000   0.0000000   0.3333333), wk =   0.1481481
        k(    3) = (   0.0000000   0.3333333   0.0000000), wk =   0.4444444
        k(    4) = (   0.0000000   0.3333333   0.3333333), wk =   0.8888889
        k(    5) = (   0.3333333   0.3333333   0.0000000), wk =   0.1481481
        k(    6) = (   0.3333333   0.3333333   0.3333333), wk =   0.2962963

     Initial potential from superposition of free atoms

     starting charge     115.9538, renormalised to     116.0000
     Starting wfcs are  176 randomized atomic wfcs
     Checking if some PAW data can be deallocated...

     Self-consistent Calculation

     iteration #  1     ecut=    30.00 Ry     beta= 0.70
     Davidson diagonalization with overlap

     ethr =  1.00E-02,  avg # of iterations =  1.8

     total energy              =   -3554.61209868 Ry
     estimated scf accuracy    <      49.02441778 Ry

[...]

     c_bands:  1 eigenvalues not converged
     ethr =  6.77E-05,  avg # of iterations = 11.8

[...]

     c_bands:  1 eigenvalues not converged
     ethr =  2.65E-07,  avg # of iterations = 11.0

[...]

     total energy              =   -3613.00790521 Ry
     estimated scf accuracy    <       0.00000100 Ry

     iteration #101     ecut=    30.00 Ry     beta= 0.70
     Davidson diagonalization with overlap

     ethr =  8.62E-10,  avg # of iterations =  9.2

     End of self-consistent calculation

          k = 0.0000 0.0000 0.0000 (  5761 PWs)   bands (ev):

   -38.0377 -38.0376 -32.1333 -32.1327 -12.3859 -12.3791 -12.3648 -12.3647
   -12.3636 -12.3636 -10.2326 -10.1872 -10.1757 -10.1756 -10.1715 -10.1714
     0.6382   2.1585   2.4913   4.9620   4.9621   5.6742   5.9252   5.9253
     6.0175   6.0176   6.2667   6.4117   6.8241   7.2389   7.2390   8.0389
     8.0389   8.3476   8.3611   8.3612   8.4280   9.2957   9.2958   9.5072
     9.5072   9.5296   9.5627   9.5628   9.5643   9.5643   9.5775   9.6007
     9.6029   9.6309   9.6397   9.6438   9.6438   9.6636   9.6637   9.6869
     9.7043   9.7296   9.7790   9.8177   9.8177   9.8634   9.8634   9.9931

     occupation numbers
     1.0000   1.0000   1.0000   1.0000   1.0000   1.0000   1.0000   1.0000
     1.0000   1.0000   1.0000   1.0000   1.0000   1.0000   1.0000   1.0000
     1.0000   1.0000   1.0000   1.0000   1.0000   1.0000   1.0000   1.0000
     1.0000   1.0000   1.0000   1.0000   1.0000   1.0000   1.0000   1.0000
     1.0000   1.0000   1.0000   1.0000   1.0000   1.0000   1.0000   1.0000
     1.0000   1.0000   1.0000   1.0000   1.0000   1.0000   1.0000   1.0000
     1.0000   1.0000   1.0000   1.0000   1.0000   1.0000   1.0000   1.0000
     1.0000   1.0000   0.0000   0.0000   0.0000   0.0000   0.0000   0.0000

[...]

          k = 0.3333 0.5774 0.2121 (  5802 PWs)   bands (ev):

   -38.0376 -38.0376 -32.1330 -32.1327 -12.3830 -12.3830 -12.3673 -12.3673
   -12.3672 -12.3666 -10.2193 -10.1982 -10.1806 -10.1806 -10.1773 -10.1773
     2.1172   2.1173   3.2986   3.2986   3.6314   4.1764   5.0306   5.0307
     5.9870   6.3316   6.3317   6.7594   7.9506   7.9672   7.9672   7.9785
     8.3730   8.3730   8.9831   8.9831   9.3982   9.4155   9.4735   9.4735
     9.4884   9.4884   9.5412   9.5412   9.5588   9.5782   9.6015   9.6015
     9.6252   9.6252   9.6372   9.6428   9.6440   9.6440   9.6676   9.6803
     9.6849   9.6849   9.7912   9.7912   9.8845   9.8963   9.8963   9.9096

     occupation numbers
     1.0000   1.0000   1.0000   1.0000   1.0000   1.0000   1.0000   1.0000
     1.0000   1.0000   1.0000   1.0000   1.0000   1.0000   1.0000   1.0000
     1.0000   1.0000   1.0000   1.0000   1.0000   1.0000   1.0000   1.0000
     1.0000   1.0000   1.0000   1.0000   1.0000   1.0000   1.0000   1.0000
     1.0000   1.0000   1.0000   1.0000   1.0000   1.0000   1.0000   1.0000
     1.0000   1.0000   1.0000   1.0000   1.0000   1.0000   1.0000   1.0000
     1.0000   1.0000   1.0000   1.0000   1.0000   1.0000   1.0000   1.0000
     1.0000   1.0000   0.0000   0.0000   0.0000   0.0000   0.0000   0.0000

     highest occupied, lowest unoccupied level (ev):     9.7296    9.7152

!    total energy              =   -3613.00790478 Ry

     total all-electron energy =     -8966.721284 Ry
     estimated scf accuracy    <       0.00000066 Ry

     The total energy is the sum of the following terms:
     one-electron contribution =    -918.37282985 Ry
     hartree contribution      =     494.81195198 Ry
     xc contribution           =    -142.01780929 Ry
     ewald contribution        =    -726.78565705 Ry
     one-center paw contrib.   =   -2320.64356057 Ry
      -> PAW hartree energy AE =     371.68095740 Ry
      -> PAW hartree energy PS =    -352.88984743 Ry
      -> PAW xc energy AE      =    -993.72518709 Ry
      -> PAW xc energy PS      =      42.98583024 Ry
      -> total E_H with PAW    =     513.60306194 Ry
      -> total E_XC with PAW   =   -1092.75716613 Ry

     convergence has been achieved in 101 iterations

     Writing all to output data dir calculations_bands/myprefix.save/

     General routines

     Parallel routines

     PAW routines

   This run was terminated on:  22:42: 4  22Jun2023

   JOB DONE.