     Program PWSCF v.7.0 starts on  4Jun2023 at 17:46:17

     K-points division:     npool     =       2
     R & G space division:  proc/nbgrp/npool/nimage =       4

     Reading input from espresso_9045.pwi
Warning: card &CELL ignored
Warning: card / ignored

     Current dimensions of program PWSCF are:
     Max number of different atomic species (ntypx) = 10
     Max number of k-points (npk) =  40000
     Max angular momentum in pseudopotentials (lmaxx) =  4
     file K.pbe-spn-kjpaw_psl.1.0.0.UPF: wavefunction(s)  3S renormalized
     file O.pbe-n-kjpaw_psl.0.1.UPF: wavefunction(s)  2P renormalized
     Message from routine setup:
     using ibrav=0 with symmetry is DISCOURAGED, use correct ibrav instead

     Using Slab Decomposition

     bravais-lattice index     =            0
     lattice parameter (alat)  =      12.7343  a.u.
     unit-cell volume          =    1002.5373 (a.u.)^3
     number of atoms/cell      =           11
     number of atomic types    =            4
     number of electrons       =        72.00
     number of Kohn-Sham states=           64
     kinetic-energy cutoff     =      30.0000  Ry
     charge density cutoff     =     240.0000  Ry
     scf convergence threshold =      1.0E-06
     mixing beta               =       0.7000
     number of iterations used =            8  plain     mixing
     Exchange-correlation= SLA  PW   PBX  PBC
                           (   1   4   3   4   0   0   0)

     celldm(1)=  12.734280  celldm(2)=   0.000000  celldm(3)=   0.000000
     celldm(4)=   0.000000  celldm(5)=   0.000000  celldm(6)=   0.000000

     crystal axes: (cart. coord. in units of alat)
               a(1) = (   1.000000   0.000000   0.000000 )
               a(2) = (   0.684588   0.728931   0.000000 )
               a(3) = (   0.684587   0.296225   0.666026 )

     reciprocal axes: (cart. coord. in units 2 pi/alat)
               b(1) = (  1.000000 -0.939167 -0.610161 )
               b(2) = (  0.000000  1.371873 -0.610161 )
               b(3) = (  0.000000  0.000000  1.501443 )

     PseudoPot. # 1 for K  read from file:
     /home/pragov/projects/rrg-bengioy-ad/pragov/crystal_structure_design/SSSP/K.pbe-spn-kjpaw_psl.1.0.0.UPF
     MD5 check sum: 7d58810084cac21f60fbe77ea2b688fd
     Pseudo is Projector augmented-wave + core cor, Zval =  9.0
     Generated using "atomic" code by A. Dal Corso  v.5.1
     Shape of augmentation charge: PSQ
     Using radial grid of 1165 points,  6 beta functions with:
                l(1) =   0
                l(2) =   0
                l(3) =   1
                l(4) =   1
                l(5) =   2
                l(6) =   2
     Q(r) pseudized with 0 coefficients

     PseudoPot. # 2 for Zr read from file:
     /home/pragov/projects/rrg-bengioy-ad/pragov/crystal_structure_design/SSSP/Zr_pbe_v1.uspp.F.UPF
     MD5 check sum: 5db81b1e868ab7776c4564c113de050b
     Pseudo is Ultrasoft + core correction, Zval = 12.0
     Generated by new atomic code, or converted to UPF format
     Using radial grid of  887 points,  6 beta functions with:
                l(1) =   0
                l(2) =   0
                l(3) =   1
                l(4) =   1
                l(5) =   2
                l(6) =   2
     Q(r) pseudized with  6 coefficients,  rinner =    1.200   1.200   1.200
                                                       1.200   1.200

     PseudoPot. # 3 for B  read from file:
     /home/pragov/projects/rrg-bengioy-ad/pragov/crystal_structure_design/SSSP/b_pbe_v1.4.uspp.F.UPF
     MD5 check sum: cc6de2960df11db49a60e589f9ebb39b
     Pseudo is Ultrasoft + core correction, Zval =  3.0
     Generated by new atomic code, or converted to UPF format
     Using radial grid of  781 points,  4 beta functions with:
                l(1) =   0
                l(2) =   0
                l(3) =   1
                l(4) =   1
     Q(r) pseudized with  8 coefficients,  rinner =    1.100   1.100   1.100

     PseudoPot. # 4 for O  read from file:
     /home/pragov/projects/rrg-bengioy-ad/pragov/crystal_structure_design/SSSP/O.pbe-n-kjpaw_psl.0.1.UPF
     MD5 check sum: 0234752ac141de4415c5fc33072bef88
     Pseudo is Projector augmented-wave + core cor, Zval =  6.0
     Generated using "atomic" code by A. Dal Corso  v.5.0.99 svn rev. 10869
     Shape of augmentation charge: BESSEL
     Using radial grid of 1095 points,  4 beta functions with:
                l(1) =   0
                l(2) =   0
                l(3) =   1
                l(4) =   1
     Q(r) pseudized with 0 coefficients

     atomic species   valence    mass     pseudopotential
        K              9.00    39.09830     K ( 1.00)
        Zr            12.00    91.22400     Zr( 1.00)
        B              3.00    10.81000     B ( 1.00)
        O              6.00    15.99900     O ( 1.00)

      2 Sym. Ops., with inversion, found

                                    s                        frac. trans.

      isym =  1     identity

 cryst.   s( 1) = (     1          0          0      )
                  (     0          1          0      )
                  (     0          0          1      )

 cart.    s( 1) = (  1.0000000  0.0000000  0.0000000 )
                  (  0.0000000  1.0000000 -0.0000000 )
                  (  0.0000000  0.0000000  1.0000000 )

      isym =  2     inversion

 cryst.   s( 2) = (    -1          0          0      )
                  (     0         -1          0      )
                  (     0          0         -1      )

 cart.    s( 2) = ( -1.0000000 -0.0000000 -0.0000000 )
                  (  0.0000000 -1.0000000  0.0000000 )
                  (  0.0000000  0.0000000 -1.0000000 )

   Cartesian axes

     site n.     atom                  positions (alat units)
         1           K   tau(   1) = (   1.8706604   0.8094453   0.5258828  )
         2           K   tau(   2) = (   0.4985147   0.2157101   0.1401432  )
         3           Zr  tau(   3) = (   0.0000000   0.0000000   0.0000000  )
         4           B   tau(   4) = (   1.4151059   0.6123243   0.3978166  )
         5           B   tau(   5) = (   0.9540692   0.4128311   0.2682093  )
         6           O   tau(   6) = (   1.3190602   0.7650120   0.4970152  )
         7           O   tau(   7) = (   0.9085221   0.3931227   0.4679985  )
         8           O   tau(   8) = (   0.9085222   0.5873699   0.1690107  )
         9           O   tau(   9) = (   1.0501149   0.2601435   0.1690107  )
        10           O   tau(  10) = (   1.4606530   0.6320328   0.1980275  )
        11           O   tau(  11) = (   1.4606530   0.4377856   0.4970152  )

   Crystallographic axes

     site n.     atom                  positions (cryst. coord.)
         1           K   tau(   1) = (  0.7895830  0.7895830  0.7895830  )
         2           K   tau(   2) = (  0.2104170  0.2104170  0.2104170  )
         3           Zr  tau(   3) = (  0.0000000  0.0000000  0.0000000  )
         4           B   tau(   4) = (  0.5972990  0.5972990  0.5972990  )
         5           B   tau(   5) = (  0.4027010  0.4027010  0.4027010  )
         6           O   tau(   6) = (  0.2973270  0.7462400  0.7462400  )
         7           O   tau(   7) = (  0.2537600  0.2537600  0.7026730  )
         8           O   tau(   8) = (  0.2537600  0.7026730  0.2537600  )
         9           O   tau(   9) = (  0.7026730  0.2537600  0.2537600  )
        10           O   tau(  10) = (  0.7462400  0.7462400  0.2973270  )
        11           O   tau(  11) = (  0.7462400  0.2973270  0.7462400  )

     number of k points=    14
                       cart. coord. in units 2pi/alat
        k(    1) = (   0.0000000   0.0000000   0.0000000), wk =   0.0740741
        k(    2) = (   0.0000000   0.0000000   0.5004810), wk =   0.1481481
        k(    3) = (   0.0000000   0.4572909  -0.2033869), wk =   0.1481481
        k(    4) = (   0.0000000   0.4572909   0.2970941), wk =   0.1481481
        k(    5) = (   0.0000000   0.4572909  -0.7038679), wk =   0.1481481
        k(    6) = (   0.3333333  -0.3130557  -0.2033869), wk =   0.1481481
        k(    7) = (   0.3333333  -0.3130557   0.2970941), wk =   0.1481481
        k(    8) = (   0.3333333  -0.3130557  -0.7038679), wk =   0.1481481
        k(    9) = (   0.3333333   0.1442352  -0.4067738), wk =   0.1481481
        k(   10) = (   0.3333333   0.1442352   0.0937072), wk =   0.1481481
        k(   11) = (   0.3333333   0.1442352  -0.9072548), wk =   0.1481481
        k(   12) = (   0.3333333  -0.7703466   0.0000000), wk =   0.1481481
        k(   13) = (   0.3333333  -0.7703466   0.5004810), wk =   0.1481481
        k(   14) = (   0.3333333  -0.7703466  -0.5004810), wk =   0.1481481

                       cryst. coord.
        k(    1) = (   0.0000000   0.0000000   0.0000000), wk =   0.0740741
        k(    2) = (   0.0000000   0.0000000   0.3333333), wk =   0.1481481
        k(    3) = (   0.0000000   0.3333333   0.0000000), wk =   0.1481481
        k(    4) = (   0.0000000   0.3333333   0.3333333), wk =   0.1481481
        k(    5) = (   0.0000000   0.3333333  -0.3333333), wk =   0.1481481
        k(    6) = (   0.3333333  -0.0000000   0.0000000), wk =   0.1481481
        k(    7) = (   0.3333333  -0.0000000   0.3333333), wk =   0.1481481
        k(    8) = (   0.3333333  -0.0000000  -0.3333333), wk =   0.1481481
        k(    9) = (   0.3333333   0.3333333   0.0000000), wk =   0.1481481
        k(   10) = (   0.3333333   0.3333333   0.3333333), wk =   0.1481481
        k(   11) = (   0.3333333   0.3333333  -0.3333333), wk =   0.1481481
        k(   12) = (   0.3333333  -0.3333333   0.0000000), wk =   0.1481481
        k(   13) = (   0.3333333  -0.3333333   0.3333333), wk =   0.1481481
        k(   14) = (   0.3333333  -0.3333333  -0.3333333), wk =   0.1481481

     Check: negative core charge=   -0.000012

     Initial potential from superposition of free atoms

     starting charge      71.9596, renormalised to      72.0000

     negative rho (up, down):  5.969E-02 0.000E+00
     Starting wfcs are   61 randomized atomic wfcs +    3 random wfcs
     Checking if some PAW data can be deallocated...

     Self-consistent Calculation

     iteration #  1     ecut=    30.00 Ry     beta= 0.70
     Davidson diagonalization with overlap

     ethr =  1.00E-02,  avg # of iterations =  6.9

     negative rho (up, down):  6.262E-02 0.000E+00

     total energy              =    -587.80499326 Ry
     estimated scf accuracy    <       2.30383670 Ry

[...]

     total energy              =    -588.83986182 Ry
     estimated scf accuracy    <       0.00000134 Ry

     iteration #  9     ecut=    30.00 Ry     beta= 0.70
     Davidson diagonalization with overlap

     ethr =  1.87E-09,  avg # of iterations =  2.0

     negative rho (up, down):  6.473E-02 0.000E+00

     End of self-consistent calculation

          k = 0.0000 0.0000 0.0000 (  2785 PWs)   bands (ev):

   -42.5952 -22.7072 -22.6193 -20.8250 -20.7146 -20.7146 -13.3616 -12.9212
   -11.9392 -11.9392 -11.6090 -11.6089  -6.3564  -6.3564  -6.2817  -6.1752
    -6.0734  -6.0734  -1.1796  -0.2562   0.1789   0.1789   0.8124   1.1397
     1.1398   2.4218   2.7310   2.7310   3.9017   3.9017   4.3264   4.3264
     4.5455   4.5455   5.3160   5.6716   9.1050   9.8337   9.8337  10.1200
    11.6888  12.4256  13.4960  13.4960  13.7341  13.7341  14.0031  14.0031
    14.8173  15.1979  15.5904  16.3344  16.3344  16.7499  16.7499  17.5502
    18.2752  18.6002  19.0781  19.0782  19.4739  19.4739  19.7295  20.0020

     occupation numbers
     1.0000   1.0000   1.0000   1.0000   1.0000   1.0000   1.0000   1.0000
     1.0000   1.0000   1.0000   1.0000   1.0000   1.0000   1.0000   1.0000
     1.0000   1.0000   1.0000   1.0000   1.0000   1.0000   1.0000   1.0000
     1.0000   1.0000   1.0000   1.0000   1.0000   1.0000   1.0000   1.0000
     1.0000   1.0000   1.0000   1.0000   0.0000   0.0000   0.0000   0.0000
     0.0000   0.0000   0.0000   0.0000   0.0000   0.0000   0.0000   0.0000
     0.0000   0.0000   0.0000   0.0000   0.0000   0.0000   0.0000   0.0000
     0.0000   0.0000   0.0000   0.0000   0.0000   0.0000   0.0000   0.0000

[...]

          k = 0.3333-0.7703-0.5005 (  2788 PWs)   bands (ev):

   -42.5951 -22.6876 -22.6371 -20.8200 -20.7224 -20.7160 -13.2064 -13.0712
   -11.9503 -11.9288 -11.6958 -11.6145  -6.3275  -6.3134  -6.2879  -6.1195
    -6.0312  -6.0080  -0.9397  -0.4340   0.2938   0.5377   0.8856   1.2467
     1.4607   1.5707   3.1240   3.2291   3.5147   3.7460   3.8458   4.0088
     4.1090   4.2441   4.9642   5.1667   9.7018  10.0404  10.3633  11.3186
    12.1873  12.4900  13.3346  13.6306  13.6816  13.9627  14.1071  14.3455
    14.8187  14.9535  15.3331  15.5647  15.8972  16.1274  16.2311  16.7410
    17.4351  17.8601  19.3276  19.4420  19.4542  20.1223  20.1876  20.4908

     occupation numbers
     1.0000   1.0000   1.0000   1.0000   1.0000   1.0000   1.0000   1.0000
     1.0000   1.0000   1.0000   1.0000   1.0000   1.0000   1.0000   1.0000
     1.0000   1.0000   1.0000   1.0000   1.0000   1.0000   1.0000   1.0000
     1.0000   1.0000   1.0000   1.0000   1.0000   1.0000   1.0000   1.0000
     1.0000   1.0000   1.0000   1.0000   0.0000   0.0000   0.0000   0.0000
     0.0000   0.0000   0.0000   0.0000   0.0000   0.0000   0.0000   0.0000
     0.0000   0.0000   0.0000   0.0000   0.0000   0.0000   0.0000   0.0000
     0.0000   0.0000   0.0000   0.0000   0.0000   0.0000   0.0000   0.0000

     highest occupied, lowest unoccupied level (ev):     5.6716    9.1050

!    total energy              =    -588.83986210 Ry
     estimated scf accuracy    <       0.00000013 Ry

     The total energy is the sum of the following terms:
     one-electron contribution =    -145.32107168 Ry
     hartree contribution      =     109.21873365 Ry
     xc contribution           =     -91.35927923 Ry
     ewald contribution        =    -293.46656114 Ry
     one-center paw contrib.   =    -167.91168369 Ry
      -> PAW hartree energy AE =      75.66569395 Ry
      -> PAW hartree energy PS =     -75.24476342 Ry
      -> PAW xc energy AE      =    -132.47132732 Ry
      -> PAW xc energy PS      =      21.21501883 Ry
      -> total E_H with PAW    =     109.63966418 Ry
      -> total E_XC with PAW   =    -202.61558772 Ry

     convergence has been achieved in   9 iterations

     Writing all to output data dir calculations_bands/myprefix.save/

     General routines

     Parallel routines

     PAW routines

   This run was terminated on:  17:47:47   4Jun2023

   JOB DONE.