     Program PWSCF v.7.0 starts on  6Jun2023 at  9:13:46

     K-points division:     npool     =       2
     R & G space division:  proc/nbgrp/npool/nimage =       4

     Reading input from espresso_16057.pwi
Warning: card &CELL ignored
Warning: card / ignored

     Current dimensions of program PWSCF are:
     Max number of different atomic species (ntypx) = 10
     Max number of k-points (npk) =  40000
     Max angular momentum in pseudopotentials (lmaxx) =  4
     Message from routine setup:
     using ibrav=0 with symmetry is DISCOURAGED, use correct ibrav instead

     Using Slab Decomposition

     bravais-lattice index     =            0
     lattice parameter (alat)  =      14.1881  a.u.
     unit-cell volume          =    1554.9816 (a.u.)^3
     number of atoms/cell      =            8
     number of atomic types    =            3
     number of electrons       =        64.00
     number of Kohn-Sham states=           64
     kinetic-energy cutoff     =      30.0000  Ry
     charge density cutoff     =     240.0000  Ry
     scf convergence threshold =      1.0E-06
     mixing beta               =       0.7000
     number of iterations used =            8  plain     mixing
     Exchange-correlation=  SLA  PW   PBX  PBC
                           (   1   4   3   4   0   0   0)

     celldm(1)=  14.188114  celldm(2)=   0.000000  celldm(3)=   0.000000
     celldm(4)=   0.000000  celldm(5)=   0.000000  celldm(6)=   0.000000

     crystal axes: (cart. coord. in units of alat)
               a(1) = (   1.000000   0.000000   0.000000 )
               a(2) = (   0.833395   0.552678   0.000000 )
               a(3) = (   0.167096   0.050371   0.985098 )

     reciprocal axes: (cart. coord. in units 2 pi/alat)
               b(1) = (  1.000000 -1.507922 -0.092519 )
               b(2) = (  0.000000  1.809373 -0.092519 )
               b(3) = (  0.000000  0.000000  1.015128 )

     PseudoPot. # 1 for Sr read from file:
     /home/pragov/projects/rrg-bengioy-ad/pragov/crystal_structure_design/SSSP/Sr_pbe_v1.uspp.F.UPF
     MD5 check sum: 6b418c05fbe9db5448babca5e47b7a5b
     Pseudo is Ultrasoft + core correction, Zval = 10.0
     Generated by new atomic code, or converted to UPF format
     Using radial grid of  883 points,  6 beta functions with:
                l(1) =   0
                l(2) =   0
                l(3) =   1
                l(4) =   1
                l(5) =   2
                l(6) =   2
     Q(r) pseudized with  6 coefficients,  rinner =    1.400   1.400   1.400
                                                       1.400   1.400

     PseudoPot. # 2 for Se read from file:
     /home/pragov/projects/rrg-bengioy-ad/pragov/crystal_structure_design/SSSP/Se_pbe_v1.uspp.F.UPF
     MD5 check sum: 1b3568f3a8ae88f9a2a0ad0698632c85
     Pseudo is Ultrasoft + core correction, Zval =  6.0
     Generated by new atomic code, or converted to UPF format
     Using radial grid of  877 points,  6 beta functions with:
                l(1) =   0
                l(2) =   0
                l(3) =   1
                l(4) =   1
                l(5) =   2
                l(6) =   2
     Q(r) pseudized with  8 coefficients,  rinner =    1.300   1.300   1.300
                                                       1.300   1.300

     PseudoPot. # 3 for S  read from file:
     /home/pragov/projects/rrg-bengioy-ad/pragov/crystal_structure_design/SSSP/s_pbe_v1.4.uspp.F.UPF
     MD5 check sum: 88d86576ff6df21479756cfb9bdac1df
     Pseudo is Ultrasoft + core correction, Zval =  6.0
     Generated by new atomic code, or converted to UPF format
     Using radial grid of  907 points,  6 beta functions with:
                l(1) =   0
                l(2) =   0
                l(3) =   1
                l(4) =   1
                l(5) =   2
                l(6) =   2
     Q(r) pseudized with  8 coefficients,  rinner =    1.300   1.300   1.300
                                                       1.300   1.300

     atomic species   valence    mass     pseudopotential
        Sr            10.00    87.62000     Sr( 1.00)
        Se             6.00    78.97100     Se( 1.00)
        S              6.00    32.06000     S ( 1.00)

      2 Sym. Ops., with inversion, found

                                    s                        frac. trans.

      isym =  1     identity

 cryst.   s( 1) = (     1          0          0      )
                  (     0          1          0      )
                  (     0          0          1      )

 cart.    s( 1) = (  1.0000000  0.0000000  0.0000000 )
                  (  0.0000000  1.0000000  0.0000000 )
                  (  0.0000000  0.0000000  1.0000000 )

      isym =  2     inversion

 cryst.   s( 2) = (    -1          0          0      )
                  (     0         -1          0      )
                  (     0          0         -1      )

 cart.    s( 2) = ( -1.0000000 -0.0000000 -0.0000000 )
                  (  0.0000000 -1.0000000 -0.0000000 )
                  (  0.0000000  0.0000000 -1.0000000 )

   Cartesian axes

     site n.     atom                  positions (alat units)
         1           Sr  tau(   1) = (   1.1677629   0.3520226   0.1177280  )
         2           Sr  tau(   2) = (   0.8327287   0.2510264   0.8673697  )
         3           Sr  tau(   3) = (   0.3404423   0.1026265   0.6196935  )
         4           Sr  tau(   4) = (   1.6600492   0.5004225   0.3654043  )
         5           Se  tau(   5) = (   1.0002458   0.3015245   0.4925489  )
         6           S   tau(   6) = (   0.4990636   0.1504429   0.2457908  )
         7           S   tau(   7) = (   0.0000000   0.0000000   0.0000000  )
         8           S   tau(   8) = (   1.5014279   0.4526061   0.7393070  )

   Crystallographic axes

     site n.     atom                  positions (cryst. coord.)
         1           Sr  tau(   1) = (  0.6260480  0.6260480  0.1195090  )
         2           Sr  tau(   2) = (  0.3739520  0.3739520  0.8804910  )
         3           Sr  tau(   3) = (  0.1283560  0.1283560  0.6290680  )
         4           Sr  tau(   4) = (  0.8716440  0.8716440  0.3709320  )
         5           Se  tau(   5) = (  0.5000000  0.5000000  0.5000000  )
         6           S   tau(   6) = (  0.2494670  0.2494670  0.2495090  )
         7           S   tau(   7) = (  0.0000000  0.0000000  0.0000000  )
         8           S   tau(   8) = (  0.7505330  0.7505330  0.7504910  )

     number of k points=    14
                       cart. coord. in units 2pi/alat
        k(    1) = (   0.0000000   0.0000000   0.0000000), wk =   0.0740741
        k(    2) = (   0.0000000   0.0000000   0.3383759), wk =   0.1481481
        k(    3) = (   0.0000000   0.6031243  -0.0308397), wk =   0.1481481
        k(    4) = (   0.0000000   0.6031243   0.3075362), wk =   0.1481481
        k(    5) = (   0.0000000   0.6031243  -0.3692156), wk =   0.1481481
        k(    6) = (   0.3333333  -0.5026408  -0.0308397), wk =   0.1481481
        k(    7) = (   0.3333333  -0.5026408   0.3075362), wk =   0.1481481
        k(    8) = (   0.3333333  -0.5026408  -0.3692156), wk =   0.1481481
        k(    9) = (   0.3333333   0.1004835  -0.0616795), wk =   0.1481481
        k(   10) = (   0.3333333   0.1004835   0.2766964), wk =   0.1481481
        k(   11) = (   0.3333333   0.1004835  -0.4000554), wk =   0.1481481
        k(   12) = (   0.3333333  -1.1057651  -0.0000000), wk =   0.1481481
        k(   13) = (   0.3333333  -1.1057651   0.3383759), wk =   0.1481481
        k(   14) = (   0.3333333  -1.1057651  -0.3383759), wk =   0.1481481

                       cryst. coord.
        k(    1) = (   0.0000000   0.0000000   0.0000000), wk =   0.0740741
        k(    2) = (   0.0000000   0.0000000   0.3333333), wk =   0.1481481
        k(    3) = (   0.0000000   0.3333333  -0.0000000), wk =   0.1481481
        k(    4) = (   0.0000000   0.3333333   0.3333333), wk =   0.1481481
        k(    5) = (   0.0000000   0.3333333  -0.3333333), wk =   0.1481481
        k(    6) = (   0.3333333   0.0000000   0.0000000), wk =   0.1481481
        k(    7) = (   0.3333333   0.0000000   0.3333333), wk =   0.1481481
        k(    8) = (   0.3333333   0.0000000  -0.3333333), wk =   0.1481481
        k(    9) = (   0.3333333   0.3333333   0.0000000), wk =   0.1481481
        k(   10) = (   0.3333333   0.3333333   0.3333333), wk =   0.1481481
        k(   11) = (   0.3333333   0.3333333  -0.3333333), wk =   0.1481481
        k(   12) = (   0.3333333  -0.3333333  -0.0000000), wk =   0.1481481
        k(   13) = (   0.3333333  -0.3333333   0.3333333), wk =   0.1481481
        k(   14) = (   0.3333333  -0.3333333  -0.3333333), wk =   0.1481481

     Check: negative core charge=   -0.000003

     Initial potential from superposition of free atoms

     starting charge      63.8652, renormalised to      64.0000

     negative rho (up, down):  2.552E-01 0.000E+00
     Starting wfcs are   68 randomized atomic wfcs

     Self-consistent Calculation

     iteration #  1     ecut=    30.00 Ry     beta= 0.70
     Davidson diagonalization with overlap

     ethr =  1.00E-02,  avg # of iterations =  5.4

     negative rho (up, down):  2.598E-01 0.000E+00

     total energy              =    -397.45362816 Ry
     estimated scf accuracy    <       0.71430387 Ry

[...]

     c_bands:  1 eigenvalues not converged
     ethr =  8.82E-06,  avg # of iterations = 10.4

[...]

     total energy              =    -397.72939138 Ry
     estimated scf accuracy    <       0.00001178 Ry

     iteration #  7     ecut=    30.00 Ry     beta= 0.70
     Davidson diagonalization with overlap

     ethr =  1.84E-08,  avg # of iterations =  2.0

     negative rho (up, down):  2.671E-01 0.000E+00

     End of self-consistent calculation

          k = 0.0000 0.0000 0.0000 (  4299 PWs)   bands (ev):

   -28.0375 -28.0275 -28.0070 -28.0021 -10.3128 -10.2262 -10.2155 -10.0797
   -10.0726 -10.0432 -10.0364 -10.0089 -10.0072  -9.9920  -9.9882  -9.9873
    -5.2720  -4.7691  -4.6951  -4.5126   3.1347   3.7483   3.8309   4.4921
     4.5590   4.5673   4.5752   4.7347   4.9355   5.6214   5.6295   5.6678
     8.9580   9.3830   9.4874   9.9373   9.9405   9.9442  10.7408  10.7855
    10.7858  11.8248  11.8285  12.0589  12.4145  12.4236  12.7327  12.7417
    12.7487  12.8142  12.8606  12.9320  13.2325  13.4967  14.3085  14.3527
    14.6710  14.7872  14.8649  14.8964  15.0850  16.0206  16.0472  16.2162

     occupation numbers
     1.0000   1.0000   1.0000   1.0000   1.0000   1.0000   1.0000   1.0000
     1.0000   1.0000   1.0000   1.0000   1.0000   1.0000   1.0000   1.0000
     1.0000   1.0000   1.0000   1.0000   1.0000   1.0000   1.0000   1.0000
     1.0000   1.0000   1.0000   1.0000   1.0000   1.0000   1.0000   1.0000
     0.0000   0.0000   0.0000   0.0000   0.0000   0.0000   0.0000   0.0000
     0.0000   0.0000   0.0000   0.0000   0.0000   0.0000   0.0000   0.0000
     0.0000   0.0000   0.0000   0.0000   0.0000   0.0000   0.0000   0.0000
     0.0000   0.0000   0.0000   0.0000   0.0000   0.0000   0.0000   0.0000

[...]

          k = 0.3333-1.1058-0.3384 (  4315 PWs)   bands (ev):

   -28.0282 -28.0278 -28.0027 -28.0017 -10.2508 -10.2388 -10.1959 -10.1681
   -10.0771 -10.0729 -10.0648 -10.0561 -10.0495 -10.0343 -10.0331 -10.0068
    -4.9660  -4.7649  -4.6760  -4.5894   3.4927   3.6112   3.9016   3.9294
     4.4806   4.6103   4.6434   4.6804   4.7597   4.9312   5.1970   5.2080
     8.4061   9.0029  10.2295  10.5055  10.8785  11.3103  11.5293  11.5602
    11.6139  11.6400  12.2770  12.3072  12.7009  12.7450  12.7609  12.7838
    12.8306  12.9858  13.0384  13.1571  13.5551  14.0865  14.3301  14.7673
    14.8600  14.8920  15.0641  15.5212  15.7556  15.8252  16.0930  16.4183

     occupation numbers
     1.0000   1.0000   1.0000   1.0000   1.0000   1.0000   1.0000   1.0000
     1.0000   1.0000   1.0000   1.0000   1.0000   1.0000   1.0000   1.0000
     1.0000   1.0000   1.0000   1.0000   1.0000   1.0000   1.0000   1.0000
     1.0000   1.0000   1.0000   1.0000   1.0000   1.0000   1.0000   1.0000
     0.0000   0.0000   0.0000   0.0000   0.0000   0.0000   0.0000   0.0000
     0.0000   0.0000   0.0000   0.0000   0.0000   0.0000   0.0000   0.0000
     0.0000   0.0000   0.0000   0.0000   0.0000   0.0000   0.0000   0.0000
     0.0000   0.0000   0.0000   0.0000   0.0000   0.0000   0.0000   0.0000

     highest occupied, lowest unoccupied level (ev):     5.6678    8.2602

!    total energy              =    -397.72939421 Ry
     estimated scf accuracy    <       0.00000090 Ry

     The total energy is the sum of the following terms:
     one-electron contribution =     -62.43416175 Ry
     hartree contribution      =      53.52025669 Ry
     xc contribution           =    -128.48840065 Ry
     ewald contribution        =    -260.32708850 Ry

     convergence has been achieved in   7 iterations

     Writing all to output data dir calculations_bands/myprefix.save/

     General routines

     Parallel routines

   This run was terminated on:   9:14: 1   6Jun2023

   JOB DONE.