     Program PWSCF v.7.0 starts on  6Jun2023 at  2:48:44

     K-points division:     npool     =       2
     R & G space division:  proc/nbgrp/npool/nimage =       4

     Reading input from espresso_13275.pwi
Warning: card &CELL ignored
Warning: card / ignored

     Current dimensions of program PWSCF are:
     Max number of different atomic species (ntypx) = 10
     Max number of k-points (npk) =  40000
     Max angular momentum in pseudopotentials (lmaxx) =  4
     file O.pbe-n-kjpaw_psl.0.1.UPF: wavefunction(s)  2P renormalized

     Using Slab Decomposition

     bravais-lattice index     =            0
     lattice parameter (alat)  =       9.9098  a.u.
     unit-cell volume          =     978.6312 (a.u.)^3
     number of atoms/cell      =           16
     number of atomic types    =            3
     number of electrons       =       116.00
     number of Kohn-Sham states=           64
     kinetic-energy cutoff     =      30.0000  Ry
     charge density cutoff     =     240.0000  Ry
     scf convergence threshold =      1.0E-06
     mixing beta               =       0.7000
     number of iterations used =            8  plain     mixing
     Exchange-correlation= SLA  PW   PBX  PBC
                           (   1   4   3   4   0   0   0)

     celldm(1)=   9.909760  celldm(2)=   0.000000  celldm(3)=   0.000000
     celldm(4)=   0.000000  celldm(5)=   0.000000  celldm(6)=   0.000000

     crystal axes: (cart. coord. in units of alat)
               a(1) = (   1.000000   0.000000   0.000000 )
               a(2) = (  -0.000000   1.094342   0.000000 )
               a(3) = (   0.405523   0.000001   0.918917 )

     reciprocal axes: (cart. coord. in units 2 pi/alat)
               b(1) = (  1.000000  0.000000 -0.441306 )
               b(2) = (  0.000000  0.913791 -0.000001 )
               b(3) = (  0.000000  0.000000  1.088237 )

     PseudoPot. # 1 for Li read from file:
     /home/pragov/projects/rrg-bengioy-ad/pragov/crystal_structure_design/SSSP/li_pbe_v1.4.uspp.F.UPF
     MD5 check sum: e912e257baa3777c20ea3d68f190483c
     Pseudo is Ultrasoft, Zval =  3.0
     Generated by new atomic code, or converted to UPF format
     Using radial grid of  751 points,  5 beta functions with:
                l(1) =   0
                l(2) =   0
                l(3) =   0
                l(4) =   1
                l(5) =   1
     Q(r) pseudized with 10 coefficients,  rinner =    1.150   1.150   1.150

     PseudoPot. # 2 for Cr read from file:
     /home/pragov/projects/rrg-bengioy-ad/pragov/crystal_structure_design/SSSP/cr_pbe_v1.5.uspp.F.UPF
     MD5 check sum: 0d52af634a40206e4dee301ad30da4bf
     Pseudo is Ultrasoft + core correction, Zval = 14.0
     Generated by new atomic code, or converted to UPF format
     Using radial grid of  857 points,  6 beta functions with:
                l(1) =   0
                l(2) =   0
                l(3) =   1
                l(4) =   1
                l(5) =   2
                l(6) =   2
     Q(r) pseudized with  8 coefficients,  rinner =    0.950   0.950   0.950
                                                       0.950   0.950

     PseudoPot. # 3 for O  read from file:
     /home/pragov/projects/rrg-bengioy-ad/pragov/crystal_structure_design/SSSP/O.pbe-n-kjpaw_psl.0.1.UPF
     MD5 check sum: 0234752ac141de4415c5fc33072bef88
     Pseudo is Projector augmented-wave + core cor, Zval =  6.0
     Generated using "atomic" code by A. Dal Corso  v.5.0.99 svn rev. 10869
     Shape of augmentation charge: BESSEL
     Using radial grid of 1095 points,  4 beta functions with:
                l(1) =   0
                l(2) =   0
                l(3) =   1
                l(4) =   1
     Q(r) pseudized with 0 coefficients

     atomic species   valence    mass     pseudopotential
        Li             3.00     6.94000     Li( 1.00)
        Cr            14.00    51.99610     Cr( 1.00)
        O              6.00    15.99900     O ( 1.00)

     No symmetry found

                                    s                        frac. trans.

      isym =  1     identity

 cryst.   s( 1) = (     1          0          0      )
                  (     0          1          0      )
                  (     0          0          1      )

 cart.    s( 1) = (  1.0000000 -0.0000000  0.0000000 )
                  (  0.0000000  1.0000000 -0.0000000 )
                  (  0.0000000  0.0000000  1.0000000 )

   Cartesian axes

     site n.     atom                  positions (alat units)
         1           Li  tau(   1) = (   0.5000000   0.2736293   0.0000000  )
         2           Li  tau(   2) = (   0.2027625   0.8208009   0.4594587  )
         3           Li  tau(   3) = (   0.7027621   1.0942977   0.4594578  )
         4           Li  tau(   4) = (  -0.0000001   0.5471262   0.0000000  )
         5           Cr  tau(   5) = (   0.7027706   0.5460564   0.4594679  )
         6           Cr  tau(   6) = (   0.4999929   0.8218673   0.0000000  )
         7           Cr  tau(   7) = (   1.4055210   1.0932707   0.9189147  )
         8           Cr  tau(   8) = (   1.2027574   0.2746661   0.4594560  )
         9           O   tau(   9) = (   0.8790785   0.2730408   0.2473175  )
        10           O   tau(  10) = (   0.5818491   0.8202069   0.7067716  )
        11           O   tau(  11) = (   1.0264371   0.5477222   0.6716056  )
        12           O   tau(  12) = (   0.3236827   0.0005441   0.2121404  )
        13           O   tau(  13) = (   0.5264444   0.2730413   0.6715991  )
        14           O   tau(  14) = (   0.8236732   0.8202042   0.2121441  )
        15           O   tau(  15) = (   1.0818408   0.0005457   0.7067753  )
        16           O   tau(  16) = (   0.3790894   0.5477229   0.2473129  )

   Crystallographic axes

     site n.     atom                  positions (cryst. coord.)
         1           Li  tau(   1) = (  0.5000000  0.2500400  0.0000000  )
         2           Li  tau(   2) = (  0.0000010  0.7500400  0.5000000  )
         3           Li  tau(   3) = (  0.5000010  0.9999590  0.4999990  )
         4           Li  tau(   4) = ( -0.0000000  0.4999590  0.0000000  )
         5           Cr  tau(   5) = (  0.5000050  0.4989810  0.5000100  )
         6           Cr  tau(   6) = (  0.4999930  0.7510150  0.0000000  )
         7           Cr  tau(   7) = (  0.9999990  0.9990200  0.9999970  )
         8           Cr  tau(   8) = (  0.9999970  0.2509870  0.4999970  )
         9           O   tau(   9) = (  0.7699360  0.2495020  0.2691400  )
        10           O   tau(  10) = (  0.2699470  0.7494970  0.7691350  )
        11           O   tau(  11) = (  0.7300540  0.5005030  0.7308660  )
        12           O   tau(  12) = (  0.2300640  0.0004970  0.2308590  )
        13           O   tau(  13) = (  0.2300640  0.2495020  0.7308590  )
        14           O   tau(  14) = (  0.7300530  0.7494950  0.2308630  )
        15           O   tau(  15) = (  0.7699370  0.0004980  0.7691390  )
        16           O   tau(  16) = (  0.2699490  0.5005040  0.2691350  )

     number of k points=    14
                       cart. coord. in units 2pi/alat
        k(    1) = (   0.0000000   0.0000000   0.0000000), wk =   0.0740741
        k(    2) = (   0.0000000   0.0000000   0.3627457), wk =   0.1481481
        k(    3) = (   0.0000000   0.3045970  -0.0000003), wk =   0.1481481
        k(    4) = (   0.0000000   0.3045970   0.3627453), wk =   0.1481481
        k(    5) = (   0.0000000   0.3045970  -0.3627460), wk =   0.1481481
        k(    6) = (   0.3333333   0.0000001  -0.1471018), wk =   0.1481481
        k(    7) = (   0.3333333   0.0000001   0.2156438), wk =   0.1481481
        k(    8) = (   0.3333333   0.0000001  -0.5098475), wk =   0.1481481
        k(    9) = (   0.3333333   0.3045971  -0.1471022), wk =   0.1481481
        k(   10) = (   0.3333333   0.3045971   0.2156435), wk =   0.1481481
        k(   11) = (   0.3333333   0.3045971  -0.5098478), wk =   0.1481481
        k(   12) = (   0.3333333  -0.3045969  -0.1471015), wk =   0.1481481
        k(   13) = (   0.3333333  -0.3045969   0.2156441), wk =   0.1481481
        k(   14) = (   0.3333333  -0.3045969  -0.5098472), wk =   0.1481481

                       cryst. coord.
        k(    1) = (   0.0000000   0.0000000   0.0000000), wk =   0.0740741
        k(    2) = (   0.0000000   0.0000000   0.3333333), wk =   0.1481481
        k(    3) = (   0.0000000   0.3333333  -0.0000000), wk =   0.1481481
        k(    4) = (   0.0000000   0.3333333   0.3333333), wk =   0.1481481
        k(    5) = (   0.0000000   0.3333333  -0.3333333), wk =   0.1481481
        k(    6) = (   0.3333333  -0.0000000  -0.0000000), wk =   0.1481481
        k(    7) = (   0.3333333  -0.0000000   0.3333333), wk =   0.1481481
        k(    8) = (   0.3333333  -0.0000000  -0.3333333), wk =   0.1481481
        k(    9) = (   0.3333333   0.3333333   0.0000000), wk =   0.1481481
        k(   10) = (   0.3333333   0.3333333   0.3333333), wk =   0.1481481
        k(   11) = (   0.3333333   0.3333333  -0.3333333), wk =   0.1481481
        k(   12) = (   0.3333333  -0.3333333  -0.0000000), wk =   0.1481481
        k(   13) = (   0.3333333  -0.3333333   0.3333333), wk =   0.1481481
        k(   14) = (   0.3333333  -0.3333333  -0.3333333), wk =   0.1481481

     Check: negative core charge=   -0.000020

     Initial potential from superposition of free atoms

     starting charge     110.1970, renormalised to     116.0000

     negative rho (up, down):  7.311E-03 0.000E+00
     Starting wfcs are   92 randomized atomic wfcs
     Checking if some PAW data can be deallocated...

     Self-consistent Calculation

     iteration #  1     ecut=    30.00 Ry     beta= 0.70
     Davidson diagonalization with overlap

     ethr =  1.00E-02,  avg # of iterations =  3.0

     negative rho (up, down):  1.398E-02 0.000E+00

     total energy              =   -1088.46815184 Ry
     estimated scf accuracy    <       8.22964401 Ry

[...]

     total energy              =   -1093.50301434 Ry
     estimated scf accuracy    <       0.00000142 Ry

     iteration # 21     ecut=    30.00 Ry     beta= 0.70
     Davidson diagonalization with overlap

     ethr =  1.22E-09,  avg # of iterations =  5.6

     negative rho (up, down):  7.132E-03 0.000E+00

     End of self-consistent calculation

          k = 0.0000 0.0000 0.0000 (  2733 PWs)   bands (ev):

   -61.8644 -61.8555 -61.8547 -61.8462 -34.7076 -34.6975 -34.6971 -34.6889
   -33.2729 -33.2627 -33.2475 -33.1946 -33.1706 -33.1684 -33.1602 -33.1601
   -33.1575 -33.1568 -33.1458 -33.1372  -9.5397  -8.5210  -8.5094  -8.4683
    -8.3707  -8.3527  -8.3065  -8.2045   3.3513   3.3595   4.1372   4.2498
     4.2625   4.5618   4.5811   4.5817   4.5822   4.9963   4.9975   5.2570
     5.6637   5.7034   5.7791   5.8050   5.8075   6.7407   6.7411   7.5599
     7.5622   7.6793   7.7636   7.7668   9.3946  10.2247  10.2677  10.2794
    10.6992  10.7127  10.7216  10.7605  11.0119  11.0556  11.0570  11.3617

     occupation numbers
     1.0000   1.0000   1.0000   1.0000   1.0000   1.0000   1.0000   1.0000
     1.0000   1.0000   1.0000   1.0000   1.0000   1.0000   1.0000   1.0000
     1.0000   1.0000   1.0000   1.0000   1.0000   1.0000   1.0000   1.0000
     1.0000   1.0000   1.0000   1.0000   1.0000   1.0000   1.0000   1.0000
     1.0000   1.0000   1.0000   1.0000   1.0000   1.0000   1.0000   1.0000
     1.0000   1.0000   1.0000   1.0000   1.0000   1.0000   1.0000   1.0000
     1.0000   1.0000   1.0000   1.0000   1.0000   1.0000   1.0000   1.0000
     1.0000   1.0000   0.0000   0.0000   0.0000   0.0000   0.0000   0.0000

[...]

          k = 0.3333-0.3046-0.5098 (  2715 PWs)   bands (ev):

   -61.8590 -61.8574 -61.8527 -61.8510 -34.7026 -34.7012 -34.6956 -34.6934
   -33.2573 -33.2453 -33.2203 -33.2166 -33.1927 -33.1908 -33.1742 -33.1730
   -33.1392 -33.1369 -33.1357 -33.1355  -8.9233  -8.9006  -8.6667  -8.4427
    -8.4022  -8.3873  -8.3351  -8.3297   3.7852   3.8131   3.8943   4.4780
     4.5002   4.5101   4.6099   4.7250   4.8241   5.0603   5.2373   5.4699
     5.6267   5.6277   5.7036   6.0047   6.1616   6.7015   6.7250   6.7452
     6.8189   6.8751   6.9924   7.1511   9.8343  10.0807  10.4156  10.5802
    10.6460  10.7768  10.8786  10.9155  10.9351  11.0347  11.0551  11.2154

     occupation numbers
     1.0000   1.0000   1.0000   1.0000   1.0000   1.0000   1.0000   1.0000
     1.0000   1.0000   1.0000   1.0000   1.0000   1.0000   1.0000   1.0000
     1.0000   1.0000   1.0000   1.0000   1.0000   1.0000   1.0000   1.0000
     1.0000   1.0000   1.0000   1.0000   1.0000   1.0000   1.0000   1.0000
     1.0000   1.0000   1.0000   1.0000   1.0000   1.0000   1.0000   1.0000
     1.0000   1.0000   1.0000   1.0000   1.0000   1.0000   1.0000   1.0000
     1.0000   1.0000   1.0000   1.0000   1.0000   1.0000   1.0000   1.0000
     1.0000   1.0000   0.0000   0.0000   0.0000   0.0000   0.0000   0.0000

     highest occupied, lowest unoccupied level (ev):    10.8133   10.6826

!    total energy              =   -1093.50301452 Ry
     estimated scf accuracy    <       0.00000035 Ry

     The total energy is the sum of the following terms:
     one-electron contribution =    -458.72026244 Ry
     hartree contribution      =     280.61016312 Ry
     xc contribution           =    -162.73486663 Ry
     ewald contribution        =    -676.49712253 Ry
     one-center paw contrib.   =     -76.16092604 Ry
      -> PAW hartree energy AE =       0.00000000 Ry
      -> PAW hartree energy PS =       0.00000000 Ry
      -> PAW xc energy AE      =       0.00000000 Ry
      -> PAW xc energy PS      =       0.00000000 Ry
      -> total E_H with PAW    =     280.61016312 Ry
      -> total E_XC with PAW   =    -162.73486663 Ry

     convergence has been achieved in  21 iterations

     Writing all to output data dir calculations_bands/myprefix.save/

     General routines

     Parallel routines

     PAW routines

   This run was terminated on:   2:49: 4   6Jun2023

   JOB DONE.