     Program PWSCF v.7.0 starts on  6Jun2023 at 20:53:11

     K-points division:     npool     =       2
     R & G space division:  proc/nbgrp/npool/nimage =       4

     Reading input from espresso_21129.pwi
Warning: card &CELL ignored
Warning: card / ignored

     Current dimensions of program PWSCF are:
     Max number of different atomic species (ntypx) = 10
     Max number of k-points (npk) =  40000
     Max angular momentum in pseudopotentials (lmaxx) =  4

     Using Slab Decomposition

     bravais-lattice index     =            0
     lattice parameter (alat)  =       8.2762  a.u.
     unit-cell volume          =     363.2172 (a.u.)^3
     number of atoms/cell      =            2
     number of atomic types    =            2
     number of electrons       =        20.00
     number of Kohn-Sham states=           64
     kinetic-energy cutoff     =      30.0000  Ry
     charge density cutoff     =     240.0000  Ry
     scf convergence threshold =      1.0E-06
     mixing beta               =       0.7000
     number of iterations used =            8  plain     mixing
     Exchange-correlation= PBE
                           (   1   4   3   4   0   0   0)

     celldm(1)=   8.276219  celldm(2)=   0.000000  celldm(3)=   0.000000
     celldm(4)=   0.000000  celldm(5)=   0.000000  celldm(6)=   0.000000

     crystal axes: (cart. coord. in units of alat)
               a(1) = (   1.000000   0.000000   0.000000 )
               a(2) = (   0.559936   0.828536   0.000000 )
               a(3) = (   0.559936   0.297401   0.773320 )

     reciprocal axes: (cart. coord. in units 2 pi/alat)
               b(1) = (  1.000000 -0.675814 -0.464165 )
               b(2) = (  0.000000  1.206949 -0.464165 )
               b(3) = (  0.000000  0.000000  1.293126 )

     PseudoPot. # 1 for Sb read from file:
     /home/pragov/projects/rrg-bengioy-ad/pragov/crystal_structure_design/SSSP/sb_pbe_v1.4.uspp.F.UPF
     MD5 check sum: 9bc50dfb53373b713f5709b9110fe27f
     Pseudo is Ultrasoft + core correction, Zval = 15.0
     Generated by new atomic code, or converted to UPF format
     Using radial grid of  891 points,  6 beta functions with:
                l(1) =   0
                l(2) =   0
                l(3) =   1
                l(4) =   1
                l(5) =   2
                l(6) =   2
     Q(r) pseudized with  8 coefficients,  rinner =    1.350   1.350   1.350
                                                       1.350   1.350

     PseudoPot. # 2 for As read from file:
     /home/pragov/projects/rrg-bengioy-ad/pragov/crystal_structure_design/SSSP/As.pbe-n-rrkjus_psl.0.2.UPF
     MD5 check sum: 767315de957beeeb34f87d97bf945c8f
     Pseudo is Ultrasoft + core correction, Zval =  5.0
     Generated using "atomic" code by A. Dal Corso  v.5.0.99 svn rev. 10869
     Using radial grid of 1209 points,  4 beta functions with:
                l(1) =   0
                l(2) =   0
                l(3) =   1
                l(4) =   1
     Q(r) pseudized with 0 coefficients

     atomic species   valence    mass     pseudopotential
        Sb            15.00   121.76000     Sb( 1.00)
        As             5.00    74.92159     As( 1.00)

     No symmetry found

                                    s                        frac. trans.

      isym =  1     identity

 cryst.   s( 1) = (     1          0          0      )
                  (     0          1          0      )
                  (     0          0          1      )

 cart.    s( 1) = (  1.0000000  0.0000000  0.0000000 )
                  (  0.0000000  1.0000000 -0.0000000 )
                  (  0.0000000  0.0000000  1.0000000 )

   Cartesian axes

     site n.     atom                  positions (alat units)
         1           Sb  tau(   1) = (   0.4879310   0.2591569   0.1779951  )
         2           As  tau(   2) = (   1.6319413   0.8667801   0.5953250  )

   Crystallographic axes

     site n.     atom                  positions (cryst. coord.)
         1           Sb  tau(   1) = (  0.2301700  0.2301700  0.2301700  )
         2           As  tau(   2) = (  0.7698300  0.7698300  0.7698300  )

     number of k points=    14
                       cart. coord. in units 2pi/alat
        k(    1) = (   0.0000000   0.0000000   0.0000000), wk =   0.0740741
        k(    2) = (   0.0000000   0.0000000   0.4310419), wk =   0.1481481
        k(    3) = (   0.0000000   0.4023162  -0.1547217), wk =   0.1481481
        k(    4) = (   0.0000000   0.4023162   0.2763202), wk =   0.1481481
        k(    5) = (   0.0000000   0.4023162  -0.5857636), wk =   0.1481481
        k(    6) = (   0.3333333  -0.2252714  -0.1547217), wk =   0.1481481
        k(    7) = (   0.3333333  -0.2252714   0.2763202), wk =   0.1481481
        k(    8) = (   0.3333333  -0.2252714  -0.5857636), wk =   0.1481481
        k(    9) = (   0.3333333   0.1770448  -0.3094433), wk =   0.1481481
        k(   10) = (   0.3333333   0.1770448   0.1215986), wk =   0.1481481
        k(   11) = (   0.3333333   0.1770448  -0.7404852), wk =   0.1481481
        k(   12) = (   0.3333333  -0.6275876   0.0000000), wk =   0.1481481
        k(   13) = (   0.3333333  -0.6275876   0.4310419), wk =   0.1481481
        k(   14) = (   0.3333333  -0.6275876  -0.4310419), wk =   0.1481481

                       cryst. coord.
        k(    1) = (   0.0000000   0.0000000   0.0000000), wk =   0.0740741
        k(    2) = (   0.0000000   0.0000000   0.3333333), wk =   0.1481481
        k(    3) = (   0.0000000   0.3333333   0.0000000), wk =   0.1481481
        k(    4) = (   0.0000000   0.3333333   0.3333333), wk =   0.1481481
        k(    5) = (   0.0000000   0.3333333  -0.3333333), wk =   0.1481481
        k(    6) = (   0.3333333  -0.0000000  -0.0000000), wk =   0.1481481
        k(    7) = (   0.3333333  -0.0000000   0.3333333), wk =   0.1481481
        k(    8) = (   0.3333333  -0.0000000  -0.3333333), wk =   0.1481481
        k(    9) = (   0.3333333   0.3333333  -0.0000000), wk =   0.1481481
        k(   10) = (   0.3333333   0.3333333   0.3333333), wk =   0.1481481
        k(   11) = (   0.3333333   0.3333333  -0.3333333), wk =   0.1481481
        k(   12) = (   0.3333333  -0.3333333  -0.0000000), wk =   0.1481481
        k(   13) = (   0.3333333  -0.3333333   0.3333333), wk =   0.1481481
        k(   14) = (   0.3333333  -0.3333333  -0.3333333), wk =   0.1481481

     Check: negative core charge=   -0.000002

     Initial potential from superposition of free atoms

     starting charge      18.9998, renormalised to      20.0000
     Starting wfcs are   13 randomized atomic wfcs +   51 random wfcs

     Self-consistent Calculation

     iteration #  1     ecut=    30.00 Ry     beta= 0.70
     Davidson diagonalization with overlap

     ethr =  1.00E-02,  avg # of iterations =  6.9

     total energy              =    -202.76231055 Ry
     estimated scf accuracy    <       0.85309163 Ry

[...]

     total energy              =    -203.13419367 Ry
     estimated scf accuracy    <       0.00000123 Ry

     iteration #  7     ecut=    30.00 Ry     beta= 0.70
     Davidson diagonalization with overlap

     ethr =  6.15E-09,  avg # of iterations =  1.0

     End of self-consistent calculation

          k = 0.0000 0.0000 0.0000 (  1003 PWs)   bands (ev):

   -20.9631 -20.9631 -20.9454 -20.9368 -20.9368  -4.8733   2.9708   6.4187
     6.7629   6.7629  10.6040  11.4433  11.4433  14.5285  14.5285  14.6930
    16.3375  16.3996  16.3996  16.7494  28.8745  28.8745  28.9119  30.0662
    30.0662  30.2035  32.2023  32.3160  32.3160  33.8200  33.8200  36.4777
    37.3886  37.3886  39.6670  39.6670  39.7866  40.0433  40.8633  41.8676
    42.4581  42.4581  42.7452  43.3992  44.3224  44.3224  44.5644  44.5644
    44.7862  45.4598  45.4598  45.6412  46.3243  48.5697  48.8229  48.8229
    49.1659  49.1660  51.0944  51.6243  51.6243  51.8801  52.0897  52.0897

     occupation numbers
     1.0000   1.0000   1.0000   1.0000   1.0000   1.0000   1.0000   1.0000
     1.0000   1.0000   0.0000   0.0000   0.0000   0.0000   0.0000   0.0000
     0.0000   0.0000   0.0000   0.0000   0.0000   0.0000   0.0000   0.0000
     0.0000   0.0000   0.0000   0.0000   0.0000   0.0000   0.0000   0.0000
     0.0000   0.0000   0.0000   0.0000   0.0000   0.0000   0.0000   0.0000
     0.0000   0.0000   0.0000   0.0000   0.0000   0.0000   0.0000   0.0000
     0.0000   0.0000   0.0000   0.0000   0.0000   0.0000   0.0000   0.0000
     0.0000   0.0000   0.0000   0.0000   0.0000   0.0000   0.0000   0.0000

[...]

          k = 0.3333-0.6276-0.4310 (  1005 PWs)   bands (ev):

   -20.9615 -20.9556 -20.9410 -20.9395 -20.9342  -2.7775  -0.5176   3.3860
     5.7210   6.4906  10.8365  11.0721  13.8190  14.3033  16.4386  17.3398
    19.6544  21.8473  22.2777  23.3818  24.0828  24.4728  25.2640  25.4161
    27.3080  27.8290  28.2497  28.2515  29.0109  30.2299  32.6727  34.4298
    34.7980  35.6056  37.5906  37.8451  39.5589  40.0615  40.2988  40.5943
    42.0403  42.0410  43.1274  43.8107  45.9711  46.3488  46.5829  47.0718
    48.3501  48.8858  49.6280  50.3365  50.4311  51.2325  51.7402  52.6288
    53.3786  53.8533  54.0817  55.4235  55.5158  56.2731  57.2603  57.9182

     occupation numbers
     1.0000   1.0000   1.0000   1.0000   1.0000   1.0000   1.0000   1.0000
     1.0000   1.0000   0.0000   0.0000   0.0000   0.0000   0.0000   0.0000
     0.0000   0.0000   0.0000   0.0000   0.0000   0.0000   0.0000   0.0000
     0.0000   0.0000   0.0000   0.0000   0.0000   0.0000   0.0000   0.0000
     0.0000   0.0000   0.0000   0.0000   0.0000   0.0000   0.0000   0.0000
     0.0000   0.0000   0.0000   0.0000   0.0000   0.0000   0.0000   0.0000
     0.0000   0.0000   0.0000   0.0000   0.0000   0.0000   0.0000   0.0000
     0.0000   0.0000   0.0000   0.0000   0.0000   0.0000   0.0000   0.0000

     highest occupied, lowest unoccupied level (ev):     7.7445    9.2268

!    total energy              =    -203.13419386 Ry
     estimated scf accuracy    <       0.00000015 Ry

     The total energy is the sum of the following terms:
     one-electron contribution =     -90.23646626 Ry
     hartree contribution      =      55.18584125 Ry
     xc contribution           =     -53.16819297 Ry
     ewald contribution        =    -114.91537588 Ry

     convergence has been achieved in   7 iterations

     Writing all to output data dir calculations_bands/myprefix.save/

     General routines

     Parallel routines

   This run was terminated on:  20:53:15   6Jun2023

   JOB DONE.