     Program PWSCF v.7.0 starts on 23Jun2023 at 10:48:21

     K-points division:     npool     =       2
     R & G space division:  proc/nbgrp/npool/nimage =       4

     Reading input from espresso_9449.pwi
Warning: card &CELL ignored
Warning: card / ignored

     Current dimensions of program PWSCF are:
     Max number of different atomic species (ntypx) = 10
     Max number of k-points (npk) =  40000
     Max angular momentum in pseudopotentials (lmaxx) =  4
     file Fe.pbe-spn-kjpaw_psl.0.2.1.UPF: wavefunction(s)  3D renormalized
     Message from routine setup:
     using ibrav=0 with symmetry is DISCOURAGED, use correct ibrav instead

     Using Slab Decomposition

     bravais-lattice index     =            0
     lattice parameter (alat)  =       6.6783  a.u.
     unit-cell volume          =     899.5228 (a.u.)^3
     number of atoms/cell      =           12
     number of atomic types    =            3
     number of electrons       =       140.00
     number of Kohn-Sham states=           90
     kinetic-energy cutoff     =      30.0000  Ry
     charge density cutoff     =     240.0000  Ry
     scf convergence threshold =      1.0E-06
     mixing beta               =       0.7000
     number of iterations used =            8  plain     mixing
     Exchange-correlation= PBE
                           (   1   4   3   4   0   0   0)

     celldm(1)=   6.678283  celldm(2)=   0.000000  celldm(3)=   0.000000
     celldm(4)=   0.000000  celldm(5)=   0.000000  celldm(6)=   0.000000

     crystal axes: (cart. coord. in units of alat)
               a(1) = (   1.000000   0.000000   0.000000 )
               a(2) = (   0.000000   1.628047   0.000000 )
               a(3) = (   0.000000   0.000000   1.855030 )

     reciprocal axes: (cart. coord. in units 2 pi/alat)
               b(1) = (  1.000000  0.000000  0.000000 )
               b(2) = (  0.000000  0.614233  0.000000 )
               b(3) = (  0.000000  0.000000  0.539075 )

     PseudoPot. # 1 for Cr read from file:
     /home/pragov/projects/rrg-bengioy-ad/pragov/crystal_structure_design/SSSP/cr_pbe_v1.5.uspp.F.UPF
     MD5 check sum: 0d52af634a40206e4dee301ad30da4bf
     Pseudo is Ultrasoft + core correction, Zval = 14.0
     Generated by new atomic code, or converted to UPF format
     Using radial grid of  857 points,  6 beta functions with:
                l(1) =   0
                l(2) =   0
                l(3) =   1
                l(4) =   1
                l(5) =   2
                l(6) =   2
     Q(r) pseudized with  8 coefficients,  rinner =    0.950   0.950   0.950
                                                       0.950   0.950

     PseudoPot. # 2 for Fe read from file:
     /home/pragov/projects/rrg-bengioy-ad/pragov/crystal_structure_design/SSSP/Fe.pbe-spn-kjpaw_psl.0.2.1.UPF
     MD5 check sum: e86618425769142926afa95317d90200
     Pseudo is Projector augmented-wave + core cor, Zval = 16.0
     Generated using "atomic" code by A. Dal Corso  v.5.0.99 svn rev. 10869
     Shape of augmentation charge: PSQ
     Using radial grid of 1191 points,  6 beta functions with:
                l(1) =   0
                l(2) =   0
                l(3) =   1
                l(4) =   1
                l(5) =   2
                l(6) =   2
     Q(r) pseudized with 0 coefficients

     PseudoPot. # 3 for P  read from file:
     /home/pragov/projects/rrg-bengioy-ad/pragov/crystal_structure_design/SSSP/P.pbe-n-rrkjus_psl.1.0.0.UPF
     MD5 check sum: 8b930f418f0a4573dca56cd030ffe088
     Pseudo is Ultrasoft + core correction, Zval =  5.0
     Generated using "atomic" code by A. Dal Corso  v.5.1
     Using radial grid of 1147 points,  6 beta functions with:
                l(1) =   0
                l(2) =   0
                l(3) =   1
                l(4) =   1
                l(5) =   2
                l(6) =   2
     Q(r) pseudized with 0 coefficients

     atomic species   valence    mass     pseudopotential
        Cr            14.00    51.99610     Cr( 1.00)
        Fe            16.00    55.84500     Fe( 1.00)
        P              5.00    30.97376     P ( 1.00)

      8 Sym. Ops., with inversion, found ( 6 have fractional translation)

                                    s                        frac. trans.

      isym =  1     identity

 cryst.   s( 1) = (     1          0          0      )
                  (     0          1          0      )
                  (     0          0          1      )

 cart.    s( 1) = (  1.0000000  0.0000000  0.0000000 )
                  (  0.0000000  1.0000000  0.0000000 )
                  (  0.0000000  0.0000000  1.0000000 )

      isym =  2     180 deg rotation - cart. axis [0,0,1]

 cryst.   s( 2) = (    -1          0          0      )    f =(  0.0000000 )
                  (     0         -1          0      )       ( -0.5000000 )
                  (     0          0          1      )       ( -0.5000000 )

 cart.    s( 2) = ( -1.0000000  0.0000000  0.0000000 )    f =(  0.0000000 )
                  (  0.0000000 -1.0000000  0.0000000 )       ( -0.8140235 )
                  (  0.0000000  0.0000000  1.0000000 )       ( -0.9275148 )

[...]

      isym =  4     180 deg rotation - cart. axis [1,0,0]

[...]

      isym =  5     inversion

 cryst.   s( 5) = (    -1          0          0      )
                  (     0         -1          0      )
                  (     0          0         -1      )

 cart.    s( 5) = ( -1.0000000  0.0000000  0.0000000 )
                  (  0.0000000 -1.0000000  0.0000000 )
                  (  0.0000000  0.0000000 -1.0000000 )

      isym =  6     inv. 180 deg rotation - cart. axis [0,0,1]

[...]

      isym =  8     inv. 180 deg rotation - cart. axis [1,0,0]

 cryst.   s( 8) = (    -1          0          0      )    f =(  0.5000000 )
                  (     0          1          0      )       (  0.0000000 )
                  (     0          0          1      )       (  0.0000000 )

 cart.    s( 8) = ( -1.0000000  0.0000000  0.0000000 )    f =(  0.5000000 )
                  (  0.0000000  1.0000000  0.0000000 )       (  0.0000000 )
                  (  0.0000000  0.0000000  1.0000000 )       (  0.0000000 )

   Cartesian axes

     site n.     atom                  positions (alat units)
         1           Cr  tau(   1) = (   0.7500000   1.5894281   0.3155665  )
         2           Cr  tau(   2) = (   0.2500000   0.0386189   1.5394630  )
         3           Cr  tau(   3) = (   0.7500000   0.7754046   0.6119483  )
         4           Cr  tau(   4) = (   0.2500000   0.8526424   1.2430812  )
         5           Fe  tau(   5) = (   0.2500000   1.0487765   0.1147707  )
         6           Fe  tau(   6) = (   0.7500000   0.5792705   1.7402588  )
         7           Fe  tau(   7) = (   0.2500000   0.2347530   0.8127441  )
         8           Fe  tau(   8) = (   0.7500000   1.3932940   1.0422854  )
         9           P   tau(   9) = (   0.2500000   0.4319485   0.2285879  )
        10           P   tau(  10) = (   0.7500000   1.1960985   1.6264416  )
        11           P   tau(  11) = (   0.2500000   1.2459721   0.6989269  )
        12           P   tau(  12) = (   0.7500000   0.3820750   1.1561026  )

   Crystallographic axes

     site n.     atom                  positions (cryst. coord.)
         1           Cr  tau(   1) = (  0.7500000  0.9762790  0.1701140  )
         2           Cr  tau(   2) = (  0.2500000  0.0237210  0.8298860  )
         3           Cr  tau(   3) = (  0.7500000  0.4762790  0.3298860  )
         4           Cr  tau(   4) = (  0.2500000  0.5237210  0.6701140  )
         5           Fe  tau(   5) = (  0.2500000  0.6441930  0.0618700  )
         6           Fe  tau(   6) = (  0.7500000  0.3558070  0.9381300  )
         7           Fe  tau(   7) = (  0.2500000  0.1441930  0.4381300  )
         8           Fe  tau(   8) = (  0.7500000  0.8558070  0.5618700  )
         9           P   tau(   9) = (  0.2500000  0.2653170  0.1232260  )
        10           P   tau(  10) = (  0.7500000  0.7346830  0.8767740  )
        11           P   tau(  11) = (  0.2500000  0.7653170  0.3767740  )
        12           P   tau(  12) = (  0.7500000  0.2346830  0.6232260  )

     number of k points=     8
                       cart. coord. in units 2pi/alat
        k(    1) = (   0.0000000   0.0000000   0.0000000), wk =   0.0740741
        k(    2) = (   0.0000000   0.0000000   0.1796917), wk =   0.1481481
        k(    3) = (   0.0000000   0.2047443   0.0000000), wk =   0.1481481
        k(    4) = (   0.0000000   0.2047443   0.1796917), wk =   0.2962963
        k(    5) = (   0.3333333   0.0000000   0.0000000), wk =   0.1481481
        k(    6) = (   0.3333333   0.0000000   0.1796917), wk =   0.2962963
        k(    7) = (   0.3333333   0.2047443   0.0000000), wk =   0.2962963
        k(    8) = (   0.3333333   0.2047443   0.1796917), wk =   0.5925926

                       cryst. coord.
        k(    1) = (   0.0000000   0.0000000   0.0000000), wk =   0.0740741
        k(    2) = (   0.0000000   0.0000000   0.3333333), wk =   0.1481481
        k(    3) = (   0.0000000   0.3333333   0.0000000), wk =   0.1481481
        k(    4) = (   0.0000000   0.3333333   0.3333333), wk =   0.2962963
        k(    5) = (   0.3333333   0.0000000   0.0000000), wk =   0.1481481
        k(    6) = (   0.3333333   0.0000000   0.3333333), wk =   0.2962963
        k(    7) = (   0.3333333   0.3333333   0.0000000), wk =   0.2962963
        k(    8) = (   0.3333333   0.3333333   0.3333333), wk =   0.5925926

     Check: negative core charge=   -0.000159

     Initial potential from superposition of free atoms

     starting charge     135.9975, renormalised to     140.0000

     negative rho (up, down):  6.819E-03 0.000E+00
     Starting wfcs are  108 randomized atomic wfcs
     Checking if some PAW data can be deallocated...

     Self-consistent Calculation

     iteration #  1     ecut=    30.00 Ry     beta= 0.70
     Davidson diagonalization with overlap

     ethr =  1.00E-02,  avg # of iterations =  3.1

     negative rho (up, down):  3.428E-03 0.000E+00

     total energy              =   -2034.75850027 Ry
     estimated scf accuracy    <      49.30497562 Ry

[...]

     total energy              =   -2074.14135594 Ry
     estimated scf accuracy    <       0.00000216 Ry

     iteration # 18     ecut=    30.00 Ry     beta= 0.70
     Davidson diagonalization with overlap

     ethr =  1.54E-09,  avg # of iterations =  3.5

     negative rho (up, down):  6.948E-03 0.000E+00

     End of self-consistent calculation

          k = 0.0000 0.0000 0.0000 (  2509 PWs)   bands (ev):

   -68.8936 -68.8868 -68.8736 -68.8734 -53.6344 -53.6281 -53.6189 -53.6120
   -34.6619 -34.6593 -34.6350 -34.6295 -34.5714 -34.5634 -34.5405 -34.5176
   -34.4594 -34.4251 -34.4135 -34.4127 -25.0608 -25.0370 -25.0363 -25.0048
   -24.9939 -24.9734 -24.9594 -24.9562 -24.9445 -24.9114 -24.9106 -24.9006
     4.2827   6.3490   6.5493   6.5957  10.9562  11.4109  11.9113  12.1995
    13.0624  13.2992  13.3245  13.5099  13.5172  13.8953  14.4974  14.5623
    15.1138  15.2619  15.3053  15.6852  15.7753  15.8054  16.2225  16.3748
    16.3791  16.4475  16.6460  16.7544  16.7783  16.7810  17.1394  17.3675
    17.4902  17.6161  17.6380  17.7246  18.0005  18.0711  18.5289  18.5380
    18.5474  18.7064  18.7656  18.7885  18.8852  18.9723  19.1303  19.4222
    19.8206  20.0351  21.2587  21.5762  22.2324  22.4412  22.4748  22.7802
    22.8514  23.5177

     occupation numbers
     1.0000   1.0000   1.0000   1.0000   1.0000   1.0000   1.0000   1.0000
     1.0000   1.0000   1.0000   1.0000   1.0000   1.0000   1.0000   1.0000
     1.0000   1.0000   1.0000   1.0000   1.0000   1.0000   1.0000   1.0000
     1.0000   1.0000   1.0000   1.0000   1.0000   1.0000   1.0000   1.0000
     1.0000   1.0000   1.0000   1.0000   1.0000   1.0000   1.0000   1.0000
     1.0000   1.0000   1.0000   1.0000   1.0000   1.0000   1.0000   1.0000
     1.0000   1.0000   1.0000   1.0000   1.0000   1.0000   1.0000   1.0000
     1.0000   1.0000   1.0000   1.0000   1.0000   1.0000   1.0000   1.0000
     1.0000   1.0000   1.0000   1.0000   1.0000   1.0000   0.0000   0.0000
     0.0000   0.0000   0.0000   0.0000   0.0000   0.0000   0.0000   0.0000
     0.0000   0.0000   0.0000   0.0000   0.0000   0.0000   0.0000   0.0000
     0.0000   0.0000

[...]

          k = 0.3333 0.2047 0.1797 (  2493 PWs)   bands (ev):

   -68.8833 -68.8817 -68.8760 -68.8721 -53.6274 -53.6259 -53.6190 -53.6176
   -34.6366 -34.6324 -34.6293 -34.6199 -34.5637 -34.5588 -34.5486 -34.5369
   -34.4203 -34.4183 -34.4083 -34.3964 -25.0474 -25.0436 -25.0298 -25.0286
   -24.9933 -24.9863 -24.9673 -24.9641 -24.9234 -24.9186 -24.9068 -24.9040
     5.8988   6.3678   6.6094   6.8179  11.2862  11.4381  11.6456  11.9967
    12.7884  13.0176  13.1986  13.3482  13.7861  13.8856  14.0415  14.0655
    15.2545  15.3644  15.3955  15.5326  15.6986  15.7675  15.9339  16.1060
    16.1498  16.3150  16.5346  16.6220  17.0015  17.1404  17.1869  17.2487
    17.3706  17.5588  17.6270  17.7476  18.0053  18.0205  18.2160  18.2796
    18.6170  18.7137  18.8857  18.9341  18.9733  19.0818  19.2122  19.3557
    20.2148  20.3692  20.5736  20.7218  21.0709  21.4893  21.7111  21.8846
    23.3333  23.6450

     occupation numbers
     1.0000   1.0000   1.0000   1.0000   1.0000   1.0000   1.0000   1.0000
     1.0000   1.0000   1.0000   1.0000   1.0000   1.0000   1.0000   1.0000
     1.0000   1.0000   1.0000   1.0000   1.0000   1.0000   1.0000   1.0000
     1.0000   1.0000   1.0000   1.0000   1.0000   1.0000   1.0000   1.0000
     1.0000   1.0000   1.0000   1.0000   1.0000   1.0000   1.0000   1.0000
     1.0000   1.0000   1.0000   1.0000   1.0000   1.0000   1.0000   1.0000
     1.0000   1.0000   1.0000   1.0000   1.0000   1.0000   1.0000   1.0000
     1.0000   1.0000   1.0000   1.0000   1.0000   1.0000   1.0000   1.0000
     1.0000   1.0000   1.0000   1.0000   1.0000   1.0000   0.0000   0.0000
     0.0000   0.0000   0.0000   0.0000   0.0000   0.0000   0.0000   0.0000
     0.0000   0.0000   0.0000   0.0000   0.0000   0.0000   0.0000   0.0000
     0.0000   0.0000

     highest occupied, lowest unoccupied level (ev):    18.1840   18.0180

!    total energy              =   -2074.14135605 Ry
     estimated scf accuracy    <       0.00000023 Ry

     The total energy is the sum of the following terms:
     one-electron contribution =    -781.43391495 Ry
     hartree contribution      =     479.43888251 Ry
     xc contribution           =    -247.46405595 Ry
     ewald contribution        =   -1220.37979877 Ry
     one-center paw contrib.   =    -304.30246890 Ry
      -> PAW hartree energy AE =       0.00000000 Ry
      -> PAW hartree energy PS =       0.00000000 Ry
      -> PAW xc energy AE      =       0.00000000 Ry
      -> PAW xc energy PS      =       0.00000000 Ry
      -> total E_H with PAW    =     479.43888251 Ry
      -> total E_XC with PAW   =    -247.46405595 Ry

     convergence has been achieved in  18 iterations

     Writing all to output data dir calculations_bands/myprefix.save/

     General routines

     Parallel routines

     PAW routines

   This run was terminated on:  10:48:37  23Jun2023

   JOB DONE.