     Program PWSCF v.7.0 starts on  6Jun2023 at 23:12:10

     K-points division:     npool     =       2
     R & G space division:  proc/nbgrp/npool/nimage =       4

     Reading input from espresso_789.pwi
Warning: card &CELL ignored
Warning: card / ignored

     Current dimensions of program PWSCF are:
     Max number of different atomic species (ntypx) = 10
     Max number of k-points (npk) =  40000
     Max angular momentum in pseudopotentials (lmaxx) =  4
     file Ba.pbe-spn-kjpaw_psl.1.0.0.UPF: wavefunction(s)  5S 6S renormalized
     file Mg.pbe-n-kjpaw_psl.0.3.0.UPF: wavefunction(s)  3S renormalized
     file C.pbe-n-kjpaw_psl.1.0.0.UPF: wavefunction(s)  2S 2P renormalized
     file O.pbe-n-kjpaw_psl.0.1.UPF: wavefunction(s)  2P renormalized
     Message from routine setup:
     using ibrav=0 with symmetry is DISCOURAGED, use correct ibrav instead

     Using Slab Decomposition

     bravais-lattice index     =            0
     lattice parameter (alat)  =       9.5705  a.u.
     unit-cell volume          =    1720.4374 (a.u.)^3
     number of atoms/cell      =           20
     number of atomic types    =            4
     number of electrons       =       112.00
     number of Kohn-Sham states=           64
     kinetic-energy cutoff     =      30.0000  Ry
     charge density cutoff     =     240.0000  Ry
     scf convergence threshold =      1.0E-06
     mixing beta               =       0.7000
     number of iterations used =            8  plain     mixing
     Exchange-correlation= SLA  PW   PBX  PBC
                           (   1   4   3   4   0   0   0)

     celldm(1)=   9.570490  celldm(2)=   0.000000  celldm(3)=   0.000000
     celldm(4)=   0.000000  celldm(5)=   0.000000  celldm(6)=   0.000000

     crystal axes: (cart. coord. in units of alat)
               a(1) = (   1.000000   0.000000   0.000000 )
               a(2) = (  -0.500000   0.868931   0.000000 )
               a(3) = (   0.000000  -0.562548   2.258660 )

     reciprocal axes: (cart. coord. in units 2 pi/alat)
               b(1) = (  1.000000  0.575420  0.143315 )
               b(2) = (  0.000000  1.150839  0.286631 )
               b(3) = (  0.000000  0.000000  0.442740 )

     PseudoPot. # 1 for Ba read from file:
     /home/pragov/projects/rrg-bengioy-ad/pragov/crystal_structure_design/SSSP/Ba.pbe-spn-kjpaw_psl.1.0.0.UPF
     MD5 check sum: c432291d3e53af55f19d5e8866385beb
     Pseudo is Projector augmented-wave + core cor, Zval = 10.0
     Generated using "atomic" code by A. Dal Corso  v.5.1
     Shape of augmentation charge: PSQ
     Using radial grid of 1251 points,  7 beta functions with:
                l(1) =   0
                l(2) =   0
                l(3) =   0
                l(4) =   1
                l(5) =   1
                l(6) =   2
                l(7) =   2
     Q(r) pseudized with 0 coefficients

     PseudoPot. # 2 for Mg read from file:
     /home/pragov/projects/rrg-bengioy-ad/pragov/crystal_structure_design/SSSP/Mg.pbe-n-kjpaw_psl.0.3.0.UPF
     MD5 check sum: 24ecedc7f3e3cbe212e682f4413594e4
     Pseudo is Projector augmented-wave + core cor, Zval =  2.0
     Generated using "atomic" code by A. Dal Corso  v.5.0.99 svn rev. 10869
     Shape of augmentation charge: PSQ
     Using radial grid of 1129 points,  4 beta functions with:
                l(1) =   0
                l(2) =   0
                l(3) =   1
                l(4) =   1
     Q(r) pseudized with 0 coefficients

     PseudoPot. # 3 for C  read from file:
     /home/pragov/projects/rrg-bengioy-ad/pragov/crystal_structure_design/SSSP/C.pbe-n-kjpaw_psl.1.0.0.UPF
     MD5 check sum: 5d2aebdfa2cae82b50a7e79e9516da0f
     Pseudo is Projector augmented-wave + core cor, Zval =  4.0
     Generated using "atomic" code by A. Dal Corso  v.5.1
     Shape of augmentation charge: PSQ
     Using radial grid of 1073 points,  4 beta functions with:
                l(1) =   0
                l(2) =   0
                l(3) =   1
                l(4) =   1
     Q(r) pseudized with 0 coefficients

     PseudoPot. # 4 for O  read from file:
     /home/pragov/projects/rrg-bengioy-ad/pragov/crystal_structure_design/SSSP/O.pbe-n-kjpaw_psl.0.1.UPF
     MD5 check sum: 0234752ac141de4415c5fc33072bef88
     Pseudo is Projector augmented-wave + core cor, Zval =  6.0
     Generated using "atomic" code by A. Dal Corso  v.5.0.99 svn rev. 10869
     Shape of augmentation charge: BESSEL
     Using radial grid of 1095 points,  4 beta functions with:
                l(1) =   0
                l(2) =   0
                l(3) =   1
                l(4) =   1
     Q(r) pseudized with 0 coefficients

     atomic species   valence    mass     pseudopotential
        Ba            10.00   137.32700     Ba( 1.00)
        Mg             2.00    24.30500     Mg( 1.00)
        C              4.00    12.01100     C ( 1.00)
        O              6.00    15.99900     O ( 1.00)

      4 Sym. Ops., with inversion, found ( 2 have fractional translation)

                                    s                        frac. trans.

      isym =  1     identity

 cryst.   s( 1) = (     1          0          0      )
                  (     0          1          0      )
                  (     0          0          1      )

 cart.    s( 1) = (  1.0000000  0.0000000  0.0000000 )
                  (  0.0000000  1.0000000 -0.0000000 )
                  (  0.0000000  0.0000000  1.0000000 )

      isym =  2     180 deg rotation - cart. axis [1,0,0]

 cryst.   s( 2) = (     1          0          0      )    f =( -0.0000000 )
                  (    -1         -1          0      )       ( -0.0000000 )
                  (     0          0         -1      )       (  0.5000000 )

 cart.    s( 2) = (  1.0000000  0.0000002  0.0000001 )    f =(  0.0000000 )
                  (  0.0000000 -1.0000000  0.0000000 )       ( -0.2812738 )
                  (  0.0000000  0.0000000 -1.0000000 )       (  1.1293301 )

      isym =  3     inversion

 cryst.   s( 3) = (    -1          0          0      )
                  (     0         -1          0      )
                  (     0          0         -1      )

 cart.    s( 3) = ( -1.0000000 -0.0000000 -0.0000000 )
                  (  0.0000000 -1.0000000  0.0000000 )
                  (  0.0000000  0.0000000 -1.0000000 )

      isym =  4     inv. 180 deg rotation - cart. axis [1,0,0]

 cryst.   s( 4) = (    -1          0          0      )    f =( -0.0000000 )
                  (     1          1          0      )       (  0.0000000 )
                  (     0          0          1      )       ( -0.5000000 )

 cart.    s( 4) = ( -1.0000000 -0.0000002 -0.0000001 )    f =( -0.0000000 )
                  (  0.0000000  1.0000000 -0.0000000 )       (  0.2812738 )
                  (  0.0000000  0.0000000  1.0000000 )       ( -1.1293301 )

   Cartesian axes

     site n.     atom                  positions (alat units)
         1           Ba  tau(   1) = (  -0.2729171   0.4470207   1.6939952  )
         2           Ba  tau(   2) = (   0.2729169   0.7282945   0.5646651  )
         3           Mg  tau(   3) = (  -0.2500000   0.4344657   0.0000000  )
         4           Mg  tau(   4) = (   0.2500000   0.1531919   1.1293301  )
         5           C   tau(   5) = (   0.7238380  -0.1431457   1.3739611  )
         6           C   tau(   6) = (   0.2238379   0.1682556   2.0140293  )
         7           C   tau(   7) = (  -0.2238381   0.4495294   0.8846992  )
         8           C   tau(   8) = (   0.2761620   0.1381281   0.2446310  )
         9           O   tau(   9) = (   0.5540959   0.3270109   0.9082525  )
        10           O   tau(  10) = (   0.0540960   0.2606467   0.2210777  )
        11           O   tau(  11) = (  -0.0540960  -0.0206271   1.3504078  )
        12           O   tau(  12) = (   0.4459039   0.0457371   2.0375826  )
        13           O   tau(  13) = (   0.7159330  -0.4440147   2.0012340  )
        14           O   tau(  14) = (   0.2159329   0.4691246   1.3867564  )
        15           O   tau(  15) = (  -0.2159331   0.7503985   0.2574263  )
        16           O   tau(  16) = (   0.2840670  -0.1627409   0.8719038  )
        17           O   tau(  17) = (   0.5052065  -0.0107096   1.4074412  )
        18           O   tau(  18) = (   0.0052064   0.0358196   1.9805492  )
        19           O   tau(  19) = (  -0.0052066   0.3170934   0.8512190  )
        20           O   tau(  20) = (   0.4947935   0.2705642   0.2781111  )

   Crystallographic axes

     site n.     atom                  positions (cryst. coord.)
         1           Ba  tau(   1) = (  0.2270830  1.0000000  0.7500000  )
         2           Ba  tau(   2) = (  0.7729170  1.0000000  0.2500000  )
         3           Mg  tau(   3) = (  0.0000000  0.5000000  0.0000000  )
         4           Mg  tau(   4) = (  0.5000000  0.5000000  0.5000000  )
         5           C   tau(   5) = (  0.8383790  0.2290820  0.6083080  )
         6           C   tau(   6) = (  0.6092970  0.7709180  0.8916920  )
         7           C   tau(   7) = (  0.1616210  0.7709180  0.3916920  )
         8           C   tau(   8) = (  0.3907030  0.2290820  0.1083080  )
         9           O   tau(   9) = (  0.8724310  0.6366700  0.4021200  )
        10           O   tau(  10) = (  0.2357610  0.3633300  0.0978800  )
        11           O   tau(  11) = (  0.1275690  0.3633300  0.5978800  )
        12           O   tau(  12) = (  0.7642390  0.6366700  0.9021200  )
        13           O   tau(  13) = (  0.7472460  0.0626260  0.8860270  )
        14           O   tau(  14) = (  0.6846200  0.9373740  0.6139730  )
        15           O   tau(  15) = (  0.2527540  0.9373740  0.1139730  )
        16           O   tau(  16) = (  0.3153800  0.0626260  0.3860270  )
        17           O   tau(  17) = (  0.7007520  0.3910910  0.6231310  )
        18           O   tau(  18) = (  0.3096610  0.6089090  0.8768690  )
        19           O   tau(  19) = (  0.2992480  0.6089090  0.3768690  )
        20           O   tau(  20) = (  0.6903390  0.3910910  0.1231310  )

     number of k points=    10
                       cart. coord. in units 2pi/alat
        k(    1) = (   0.0000000   0.0000000   0.0000000), wk =   0.0740741
        k(    2) = (   0.0000000   0.0000000   0.1475801), wk =   0.1481481
        k(    3) = (   0.0000000   0.3836129   0.0955436), wk =   0.1481481
        k(    4) = (   0.0000000   0.3836129   0.2431237), wk =   0.1481481
        k(    5) = (   0.0000000   0.3836129  -0.0520365), wk =   0.1481481
        k(    6) = (   0.3333333   0.1918065   0.0477718), wk =   0.2962963
        k(    7) = (   0.3333333   0.1918065   0.1953519), wk =   0.2962963
        k(    8) = (   0.3333333   0.1918065  -0.0998083), wk =   0.2962963
        k(    9) = (   0.3333333   0.5754195   0.1433154), wk =   0.1481481
        k(   10) = (   0.3333333   0.5754195   0.2908955), wk =   0.2962963

                       cryst. coord.
        k(    1) = (   0.0000000   0.0000000   0.0000000), wk =   0.0740741
        k(    2) = (   0.0000000   0.0000000   0.3333333), wk =   0.1481481
        k(    3) = (   0.0000000   0.3333333  -0.0000000), wk =   0.1481481
        k(    4) = (   0.0000000   0.3333333   0.3333333), wk =   0.1481481
        k(    5) = (   0.0000000   0.3333333  -0.3333333), wk =   0.1481481
        k(    6) = (   0.3333333   0.0000000   0.0000000), wk =   0.2962963
        k(    7) = (   0.3333333   0.0000000   0.3333333), wk =   0.2962963
        k(    8) = (   0.3333333   0.0000000  -0.3333333), wk =   0.2962963
        k(    9) = (   0.3333333   0.3333333  -0.0000000), wk =   0.1481481
        k(   10) = (   0.3333333   0.3333333   0.3333333), wk =   0.2962963

     Check: negative core charge=   -0.000015

     Initial potential from superposition of free atoms

     starting charge     111.9640, renormalised to     112.0000
     Starting wfcs are   82 randomized atomic wfcs
     Checking if some PAW data can be deallocated...

     Self-consistent Calculation

     iteration #  1     ecut=    30.00 Ry     beta= 0.70
     Davidson diagonalization with overlap

     ethr =  1.00E-02,  avg # of iterations =  5.0

     negative rho (up, down):  4.655E-03 0.000E+00

     total energy              =   -1512.81535669 Ry
     estimated scf accuracy    <       2.90132966 Ry

[...]

     negative rho (up, down):  1.858E-03 0.000E+00

[...]

     total energy              =   -1514.03513836 Ry
     estimated scf accuracy    <       0.00000240 Ry

     iteration # 11     ecut=    30.00 Ry     beta= 0.70
     Davidson diagonalization with overlap

     ethr =  2.14E-09,  avg # of iterations =  2.0

     End of self-consistent calculation

          k = 0.0000 0.0000 0.0000 (  4799 PWs)   bands (ev):

   -20.6244 -20.6217 -16.9456 -16.9322 -16.7946 -16.7888 -13.7766 -13.7711
   -13.7659 -13.7613 -13.7100 -13.6875 -13.6630 -13.6401  -5.8423  -5.8356
    -5.8334  -5.8326  -5.8297  -5.8188  -3.8824  -3.8451  -3.4565  -3.3471
    -1.4809  -1.3084  -1.2790  -1.0951  -1.0883  -1.0235  -1.0107  -0.8981
    -0.8678  -0.8108  -0.6878  -0.0899   2.5595   2.6053   2.7100   2.7501
     3.0417   3.0453   3.1074   3.1226   3.1959   3.2597   3.3419   3.4013
     3.6168   3.6468   3.7385   3.8566   4.9560   5.0367   5.1189   5.2084
     9.4480   9.4493   9.7512  10.0995  10.1992  11.1216  11.4846  12.0593

     occupation numbers
     1.0000   1.0000   1.0000   1.0000   1.0000   1.0000   1.0000   1.0000
     1.0000   1.0000   1.0000   1.0000   1.0000   1.0000   1.0000   1.0000
     1.0000   1.0000   1.0000   1.0000   1.0000   1.0000   1.0000   1.0000
     1.0000   1.0000   1.0000   1.0000   1.0000   1.0000   1.0000   1.0000
     1.0000   1.0000   1.0000   1.0000   1.0000   1.0000   1.0000   1.0000
     1.0000   1.0000   1.0000   1.0000   1.0000   1.0000   1.0000   1.0000
     1.0000   1.0000   1.0000   1.0000   1.0000   1.0000   1.0000   1.0000
     0.0000   0.0000   0.0000   0.0000   0.0000   0.0000   0.0000   0.0000

[...]

          k = 0.3333 0.5754 0.2909 (  4765 PWs)   bands (ev):

   -20.5935 -20.5934 -16.8326 -16.8297 -16.8172 -16.8143 -13.9924 -13.9904
   -13.8322 -13.8273 -13.7364 -13.7293 -13.7143 -13.7108  -5.8442  -5.8343
    -5.7808  -5.7804  -5.7713  -5.7641  -2.6465  -2.6401  -2.5928  -2.5901
    -2.0921  -2.0903  -1.6450  -1.6423  -0.8018  -0.7643  -0.7435  -0.7330
    -0.6943  -0.6790  -0.5426  -0.5321   2.2734   2.3102   2.3674   2.4725
     2.7564   2.8390   2.9010   2.9403   3.0601   3.0804   3.2162   3.2636
     3.4214   3.5016   3.5665   3.6257   4.3016   4.3185   4.4467   4.4786
    10.3983  10.4679  10.5343  10.5626  11.0374  11.1917  11.8005  11.8433

     occupation numbers
     1.0000   1.0000   1.0000   1.0000   1.0000   1.0000   1.0000   1.0000
     1.0000   1.0000   1.0000   1.0000   1.0000   1.0000   1.0000   1.0000
     1.0000   1.0000   1.0000   1.0000   1.0000   1.0000   1.0000   1.0000
     1.0000   1.0000   1.0000   1.0000   1.0000   1.0000   1.0000   1.0000
     1.0000   1.0000   1.0000   1.0000   1.0000   1.0000   1.0000   1.0000
     1.0000   1.0000   1.0000   1.0000   1.0000   1.0000   1.0000   1.0000
     1.0000   1.0000   1.0000   1.0000   1.0000   1.0000   1.0000   1.0000
     0.0000   0.0000   0.0000   0.0000   0.0000   0.0000   0.0000   0.0000

     highest occupied, lowest unoccupied level (ev):     5.2084    9.4480

!    total energy              =   -1514.03513860 Ry

     total all-electron energy =    -35455.548893 Ry
     estimated scf accuracy    <       0.00000023 Ry

     The total energy is the sum of the following terms:
     one-electron contribution =    -204.23179314 Ry
     hartree contribution      =     166.84027790 Ry
     xc contribution           =    -152.21292418 Ry
     ewald contribution        =    -373.14693582 Ry
     one-center paw contrib.   =    -951.28376336 Ry
      -> PAW hartree energy AE =      57.71026885 Ry
      -> PAW hartree energy PS =     -57.48342214 Ry
      -> PAW xc energy AE      =    -820.92543105 Ry
      -> PAW xc energy PS      =      39.52610774 Ry
      -> total E_H with PAW    =     167.06712462 Ry
      -> total E_XC with PAW   =    -933.61224749 Ry

     convergence has been achieved in  11 iterations

     Writing all to output data dir calculations_bands/myprefix.save/

     General routines

     Parallel routines

     PAW routines

   This run was terminated on:  23:12:29   6Jun2023

   JOB DONE.