     Program PWSCF v.7.0 starts on  2Jun2023 at 21:37:18

     Reading input from espresso_86.pwi
Warning: card &CELL ignored
Warning: card / ignored

     Current dimensions of program PWSCF are:
     Max number of different atomic species (ntypx) = 10
     Max number of k-points (npk) =  40000
     Max angular momentum in pseudopotentials (lmaxx) =  4
     Message from routine setup:
     using ibrav=0 with symmetry is DISCOURAGED, use correct ibrav instead

     Subspace diagonalization in iterative solution of the eigenvalue problem:
     a serial algorithm will be used

     Using Slab Decomposition

     bravais-lattice index     =            0
     lattice parameter (alat)  =      10.5264  a.u.
     unit-cell volume          =     830.3235 (a.u.)^3
     number of atoms/cell      =           10
     number of atomic types    =            3
     number of electrons       =        84.00
     number of Kohn-Sham states=           64
     kinetic-energy cutoff     =      30.0000  Ry
     charge density cutoff     =     240.0000  Ry
     scf convergence threshold =      1.0E-06
     mixing beta               =       0.7000
     number of iterations used =            8  plain     mixing
     Exchange-correlation= PBE
                           (   1   4   3   4   0   0   0)

     celldm(1)=  10.526376  celldm(2)=   0.000000  celldm(3)=   0.000000
     celldm(4)=   0.000000  celldm(5)=   0.000000  celldm(6)=   0.000000

     crystal axes: (cart. coord. in units of alat)
               a(1) = (   1.000000   0.000000   0.000000 )
               a(2) = (   0.495478   0.868620   0.000000 )
               a(3) = (   0.495478   0.287789   0.819560 )

     reciprocal axes: (cart. coord. in units 2 pi/alat)
               b(1) = (  1.000000 -0.570420 -0.404263 )
               b(2) = (  0.000000  1.151251 -0.404263 )
               b(3) = (  0.000000  0.000000  1.220167 )

     PseudoPot. # 1 for La read from file:
     /home/pragov/projects/rrg-bengioy-ad/pragov/crystal_structure_design/SSSP/La.GGA-PBE-paw-v1.0.UPF
     MD5 check sum: 436541e95c1ad8901025bd0b0ed42ae2
     Pseudo is Projector augmented-wave + core cor, Zval = 11.0
     Generated using ATOMPAW code
     Shape of augmentation charge: BESSEL
     Using radial grid of 1101 points,  8 beta functions with:
                l(1) =   0
                l(2) =   0
                l(3) =   1
                l(4) =   1
                l(5) =   2
                l(6) =   2
                l(7) =   3
                l(8) =   3
     Q(r) pseudized with 0 coefficients

     PseudoPot. # 2 for Os read from file:
     /home/pragov/projects/rrg-bengioy-ad/pragov/crystal_structure_design/SSSP/Os_pbe_v1.2.uspp.F.UPF
     MD5 check sum: a3fb40a04f0c37c25c34bbc47164c9a8
     Pseudo is Ultrasoft + core correction, Zval = 16.0
     Generated by new atomic code, or converted to UPF format
     Using radial grid of  983 points,  8 beta functions with:
                l(1) =   0
                l(2) =   0
                l(3) =   1
                l(4) =   1
                l(5) =   2
                l(6) =   2
                l(7) =   3
                l(8) =   3
     Q(r) pseudized with  8 coefficients,  rinner =    1.150   1.150   1.150
                                                       1.150   1.150   1.150
                                                       1.150

     PseudoPot. # 3 for N  read from file:
     /home/pragov/projects/rrg-bengioy-ad/pragov/crystal_structure_design/SSSP/N.pbe-n-radius_5.UPF
     MD5 check sum: 16739722b17309cd8fe442a2ace49922
     Pseudo is Ultrasoft + core correction, Zval =  5.0
     Generated using "atomic" code by A. Dal Corso  v.5.1
     Using radial grid of 1085 points,  4 beta functions with:
                l(1) =   0
                l(2) =   0
                l(3) =   1
                l(4) =   1
     Q(r) pseudized with 0 coefficients

     atomic species   valence    mass     pseudopotential
        La            11.00   138.90547     La( 1.00)
        Os            16.00   190.23000     Os( 1.00)
        N              5.00    14.00700     N ( 1.00)

      2 Sym. Ops., with inversion, found

                                    s                        frac. trans.

      isym =  1     identity

 cryst.   s( 1) = (     1          0          0      )
                  (     0          1          0      )
                  (     0          0          1      )

 cart.    s( 1) = (  1.0000000  0.0000000  0.0000000 )
                  (  0.0000000  1.0000000 -0.0000000 )
                  (  0.0000000  0.0000000  1.0000000 )

      isym =  2     inversion

 cryst.   s( 2) = (    -1          0          0      )
                  (     0         -1          0      )
                  (     0          0         -1      )

 cart.    s( 2) = ( -1.0000000 -0.0000000 -0.0000000 )
                  (  0.0000000 -1.0000000  0.0000000 )
                  (  0.0000000  0.0000000 -1.0000000 )

   Cartesian axes

     site n.     atom                  positions (alat units)
         1           La  tau(   1) = (   0.4977392   0.2891024   0.2048900  )
         2           La  tau(   2) = (   1.4932177   0.8673071   0.6146700  )
         3           Os  tau(   3) = (   0.0000000   0.0000000   0.0000000  )
         4           Os  tau(   4) = (   0.9954785   0.5782047   0.4097800  )
         5           N   tau(   5) = (   1.2233158   0.7615692   0.2048900  )
         6           N   tau(   6) = (   1.2676411   0.4203550   0.5786684  )
         7           N   tau(   7) = (   0.7676411   0.3948402   0.6146700  )
         8           N   tau(   8) = (   0.9932177   0.8417923   0.6506716  )
         9           N   tau(   9) = (   0.9977392   0.3146171   0.1688884  )
        10           N   tau(  10) = (   0.7233158   0.7360545   0.2408916  )

   Crystallographic axes

     site n.     atom                  positions (cryst. coord.)
         1           La  tau(   1) = (  0.2500000  0.2500000  0.2500000  )
         2           La  tau(   2) = (  0.7500000  0.7500000  0.7500000  )
         3           Os  tau(   3) = (  0.0000000  0.0000000  0.0000000  )
         4           Os  tau(   4) = (  0.5000000  0.5000000  0.5000000  )
         5           N   tau(   5) = (  0.7060720  0.7939280  0.2500000  )
         6           N   tau(   6) = (  0.7939280  0.2500000  0.7060720  )
         7           N   tau(   7) = (  0.2939280  0.2060720  0.7500000  )
         8           N   tau(   8) = (  0.2500000  0.7060720  0.7939280  )
         9           N   tau(   9) = (  0.7500000  0.2939280  0.2060720  )
        10           N   tau(  10) = (  0.2060720  0.7500000  0.2939280  )

     number of k points=    14
                       cart. coord. in units 2pi/alat
        k(    1) = (   0.0000000   0.0000000   0.0000000), wk =   0.0740741
        k(    2) = (   0.0000000   0.0000000   0.4067223), wk =   0.1481481
        k(    3) = (   0.0000000   0.3837504  -0.1347543), wk =   0.1481481
        k(    4) = (   0.0000000   0.3837504   0.2719680), wk =   0.1481481
        k(    5) = (   0.0000000   0.3837504  -0.5414766), wk =   0.1481481
        k(    6) = (   0.3333333  -0.1901400  -0.1347543), wk =   0.1481481
        k(    7) = (   0.3333333  -0.1901400   0.2719680), wk =   0.1481481
        k(    8) = (   0.3333333  -0.1901400  -0.5414766), wk =   0.1481481
        k(    9) = (   0.3333333   0.1936103  -0.2695086), wk =   0.1481481
        k(   10) = (   0.3333333   0.1936103   0.1372137), wk =   0.1481481
        k(   11) = (   0.3333333   0.1936103  -0.6762309), wk =   0.1481481
        k(   12) = (   0.3333333  -0.5738904  -0.0000000), wk =   0.1481481
        k(   13) = (   0.3333333  -0.5738904   0.4067223), wk =   0.1481481
        k(   14) = (   0.3333333  -0.5738904  -0.4067223), wk =   0.1481481

                       cryst. coord.
        k(    1) = (   0.0000000   0.0000000   0.0000000), wk =   0.0740741
        k(    2) = (   0.0000000   0.0000000   0.3333333), wk =   0.1481481
        k(    3) = (   0.0000000   0.3333333  -0.0000000), wk =   0.1481481
        k(    4) = (   0.0000000   0.3333333   0.3333333), wk =   0.1481481
        k(    5) = (   0.0000000   0.3333333  -0.3333333), wk =   0.1481481
        k(    6) = (   0.3333333   0.0000000   0.0000000), wk =   0.1481481
        k(    7) = (   0.3333333   0.0000000   0.3333333), wk =   0.1481481
        k(    8) = (   0.3333333   0.0000000  -0.3333333), wk =   0.1481481
        k(    9) = (   0.3333333   0.3333333  -0.0000000), wk =   0.1481481
        k(   10) = (   0.3333333   0.3333333   0.3333333), wk =   0.1481481
        k(   11) = (   0.3333333   0.3333333  -0.3333333), wk =   0.1481481
        k(   12) = (   0.3333333  -0.3333333   0.0000000), wk =   0.1481481
        k(   13) = (   0.3333333  -0.3333333   0.3333333), wk =   0.1481481
        k(   14) = (   0.3333333  -0.3333333  -0.3333333), wk =   0.1481481

     Check: negative core charge=   -0.000002

     Initial potential from superposition of free atoms

     starting charge      82.9828, renormalised to      84.0000

     negative rho (up, down):  2.531E-01 0.000E+00
     Starting wfcs are  114 randomized atomic wfcs
     Checking if some PAW data can be deallocated...

     Self-consistent Calculation

     iteration #  1     ecut=    30.00 Ry     beta= 0.70
     Davidson diagonalization with overlap

     ethr =  1.00E-02,  avg # of iterations =  2.0

     negative rho (up, down):  2.897E-01 0.000E+00

     total energy              =   -1432.53384011 Ry
     estimated scf accuracy    <       4.00015570 Ry

[...]

     c_bands:  1 eigenvalues not converged
     c_bands:  1 eigenvalues not converged
     ethr =  2.53E-06,  avg # of iterations = 11.4

[...]

     total energy              =   -1434.90243976 Ry
     estimated scf accuracy    <       0.00000548 Ry

     iteration # 13     ecut=    30.00 Ry     beta= 0.70
     Davidson diagonalization with overlap

     ethr =  6.52E-09,  avg # of iterations =  2.1

     negative rho (up, down):  2.666E-01 0.000E+00

     End of self-consistent calculation

          k = 0.0000 0.0000 0.0000 (  2277 PWs)   bands (ev):

   -72.2903 -72.2896 -31.6095 -31.6092 -31.6054 -31.6051 -31.5724 -31.5684
   -15.8714 -15.7210  -0.4073  -0.4072  -0.3022  -0.0829   0.2544   0.2544
     0.4552   1.4989   1.4993   2.0429   2.1700   2.1705   7.9315   8.2431
     8.2434  10.0462  10.0464  10.0667  11.9145  11.9147  12.0070  12.6044
    12.7090  12.7091  13.6669  13.8277  13.8279  14.7483  14.7485  15.1078
    15.1079  15.1792  15.2226  17.0621  17.0622  17.7032  17.9486  17.9489
    18.8593  18.8594  19.1847  19.2089  19.2089  19.3394  19.3789  19.4627
    19.4627  19.4895  19.5030  19.5888  19.6795  19.6795  19.8774  19.8775

     occupation numbers
     1.0000   1.0000   1.0000   1.0000   1.0000   1.0000   1.0000   1.0000
     1.0000   1.0000   1.0000   1.0000   1.0000   1.0000   1.0000   1.0000
     1.0000   1.0000   1.0000   1.0000   1.0000   1.0000   1.0000   1.0000
     1.0000   1.0000   1.0000   1.0000   1.0000   1.0000   1.0000   1.0000
     1.0000   1.0000   1.0000   1.0000   1.0000   1.0000   1.0000   1.0000
     1.0000   1.0000   0.0000   0.0000   0.0000   0.0000   0.0000   0.0000
     0.0000   0.0000   0.0000   0.0000   0.0000   0.0000   0.0000   0.0000
     0.0000   0.0000   0.0000   0.0000   0.0000   0.0000   0.0000   0.0000

[...]

          k = 0.3333-0.5739-0.4067 (  2306 PWs)   bands (ev):

   -72.2900 -72.2898 -31.6117 -31.6115 -31.6064 -31.6064 -31.5713 -31.5707
   -15.7907 -15.7898  -1.4303  -1.0721  -0.6509   0.0388   0.1158   0.5180
     1.3575   1.5137   2.2967   2.5254   2.5734   2.9469   8.1059   8.9202
     9.0953   9.5203   9.8098  10.4509  10.5602  10.6232  10.6240  10.7517
    11.8457  12.7717  12.9303  13.5100  13.7175  13.8480  13.9386  14.8824
    15.4318  16.1589  16.2993  16.3846  16.7156  16.8634  18.8568  18.9165
    19.0461  19.0480  19.1863  19.2366  19.2803  19.3042  19.3097  19.3582
    19.3646  19.3889  19.4686  19.4696  19.6081  19.9754  20.8366  21.3866

     occupation numbers
     1.0000   1.0000   1.0000   1.0000   1.0000   1.0000   1.0000   1.0000
     1.0000   1.0000   1.0000   1.0000   1.0000   1.0000   1.0000   1.0000
     1.0000   1.0000   1.0000   1.0000   1.0000   1.0000   1.0000   1.0000
     1.0000   1.0000   1.0000   1.0000   1.0000   1.0000   1.0000   1.0000
     1.0000   1.0000   1.0000   1.0000   1.0000   1.0000   1.0000   1.0000
     1.0000   1.0000   0.0000   0.0000   0.0000   0.0000   0.0000   0.0000
     0.0000   0.0000   0.0000   0.0000   0.0000   0.0000   0.0000   0.0000
     0.0000   0.0000   0.0000   0.0000   0.0000   0.0000   0.0000   0.0000

     highest occupied, lowest unoccupied level (ev):    16.3286   15.2226

!    total energy              =   -1434.90244106 Ry
     estimated scf accuracy    <       0.00000034 Ry

     The total energy is the sum of the following terms:
     one-electron contribution =    -118.52686469 Ry
     hartree contribution      =     113.25702654 Ry
     xc contribution           =    -124.94965963 Ry
     ewald contribution        =    -508.46712767 Ry
     one-center paw contrib.   =    -796.21581561 Ry
      -> PAW hartree energy AE =      70.57364243 Ry
      -> PAW hartree energy PS =     -70.66043309 Ry
      -> PAW xc energy AE      =    -810.82234897 Ry
      -> PAW xc energy PS      =      14.69332402 Ry
      -> total E_H with PAW    =     113.17023588 Ry
      -> total E_XC with PAW   =    -921.07868458 Ry

     convergence has been achieved in  13 iterations

     Writing all to output data dir calculations_bands/myprefix.save/

     General routines

     Parallel routines

     PAW routines

   This run was terminated on:  21:40:55   2Jun2023

   JOB DONE.