     Program PWSCF v.7.0 starts on  6Jun2023 at 13:48:43

     K-points division:     npool     =       2
     R & G space division:  proc/nbgrp/npool/nimage =       4

     Reading input from espresso_16847.pwi
Warning: card &CELL ignored
Warning: card / ignored

     Current dimensions of program PWSCF are:
     Max number of different atomic species (ntypx) = 10
     Max number of k-points (npk) =  40000
     Max angular momentum in pseudopotentials (lmaxx) =  4
     file O.pbe-n-kjpaw_psl.0.1.UPF: wavefunction(s)  2P renormalized
     Message from routine setup:
     using ibrav=0 with symmetry is DISCOURAGED, use correct ibrav instead

     Using Slab Decomposition

     bravais-lattice index     =            0
     lattice parameter (alat)  =      11.3417  a.u.
     unit-cell volume          =    1718.9614 (a.u.)^3
     number of atoms/cell      =           12
     number of atomic types    =            4
     number of electrons       =       110.00
     number of Kohn-Sham states=           64
     kinetic-energy cutoff     =      30.0000  Ry
     charge density cutoff     =     240.0000  Ry
     scf convergence threshold =      1.0E-06
     mixing beta               =       0.7000
     number of iterations used =            8  plain     mixing
     Exchange-correlation= SLA  PW   PBX  PBC
                           (   1   4   3   4   0   0   0)

     celldm(1)=  11.341747  celldm(2)=   0.000000  celldm(3)=   0.000000
     celldm(4)=   0.000000  celldm(5)=   0.000000  celldm(6)=   0.000000

     crystal axes: (cart. coord. in units of alat)
               a(1) = (   1.000000   0.000000   0.000000 )
               a(2) = (  -0.500000   0.866025   0.000000 )
               a(3) = (   0.000000   0.000000   1.360491 )

     reciprocal axes: (cart. coord. in units 2 pi/alat)
               b(1) = (  1.000000  0.577350  0.000000 )
               b(2) = (  0.000000  1.154701  0.000000 )
               b(3) = (  0.000000  0.000000  0.735029 )

     PseudoPot. # 1 for Cs read from file:
     /home/pragov/projects/rrg-bengioy-ad/pragov/crystal_structure_design/SSSP/Cs_pbe_v1.uspp.F.UPF
     MD5 check sum: 3476d69cb178dfad3ffaa59df4e07ca4
     Pseudo is Ultrasoft + core correction, Zval =  9.0
     Generated by new atomic code, or converted to UPF format
     Using radial grid of  905 points,  6 beta functions with:
                l(1) =   0
                l(2) =   0
                l(3) =   1
                l(4) =   1
                l(5) =   2
                l(6) =   2
     Q(r) pseudized with  6 coefficients,  rinner =    1.500   1.500   1.500
                                                       1.500   1.500

     PseudoPot. # 2 for Lu read from file:
     /home/pragov/projects/rrg-bengioy-ad/pragov/crystal_structure_design/SSSP/Lu.GGA-PBE-paw-v1.0.UPF
     MD5 check sum: 9ceca61ee0c17e9380a83635bfffa61d
     Pseudo is Projector augmented-wave + core cor, Zval = 25.0
     Generated using ATOMPAW code
     Shape of augmentation charge: BESSEL
     Using radial grid of 1118 points,  8 beta functions with:
                l(1) =   0
                l(2) =   0
                l(3) =   1
                l(4) =   1
                l(5) =   2
                l(6) =   2
                l(7) =   3
                l(8) =   3
     Q(r) pseudized with 0 coefficients

     PseudoPot. # 3 for Mo read from file:
     /home/pragov/projects/rrg-bengioy-ad/pragov/crystal_structure_design/SSSP/Mo_ONCV_PBE-1.0.oncvpsp.upf
     MD5 check sum: 1b5d28e075c9ccadda658a603575cd1f
     Pseudo is Norm-conserving, Zval = 14.0
     Generated using ONCVPSP code by D. R. Hamann
     Using radial grid of 1526 points,  6 beta functions with:
                l(1) =   0
                l(2) =   0
                l(3) =   1
                l(4) =   1
                l(5) =   2
                l(6) =   2

     PseudoPot. # 4 for O  read from file:
     /home/pragov/projects/rrg-bengioy-ad/pragov/crystal_structure_design/SSSP/O.pbe-n-kjpaw_psl.0.1.UPF
     MD5 check sum: 0234752ac141de4415c5fc33072bef88
     Pseudo is Projector augmented-wave + core cor, Zval =  6.0
     Generated using "atomic" code by A. Dal Corso  v.5.0.99 svn rev. 10869
     Shape of augmentation charge: BESSEL
     Using radial grid of 1095 points,  4 beta functions with:
                l(1) =   0
                l(2) =   0
                l(3) =   1
                l(4) =   1
     Q(r) pseudized with 0 coefficients

     atomic species   valence    mass     pseudopotential
        Cs             9.00   132.90545     Cs( 1.00)
        Lu            25.00   174.96680     Lu( 1.00)
        Mo            14.00    95.95000     Mo( 1.00)
        O              6.00    15.99900     O ( 1.00)

     12 Sym. Ops., with inversion, found

                                    s                        frac. trans.

      isym =  1     identity

 cryst.   s( 1) = (     1          0          0      )
                  (     0          1          0      )
                  (     0          0          1      )

 cart.    s( 1) = (  1.0000000 -0.0000000  0.0000000 )
                  (  0.0000000  1.0000000  0.0000000 )
                  (  0.0000000  0.0000000  1.0000000 )

      isym =  2     180 deg rotation - cart. axis [1,0,0]

[...]

      isym =  3     120 deg rotation - cryst. axis [0,0,1]

[...]

      isym =  6     180 deg rotation - cryst. axis [1,1,0]

[...]

      isym =  7     inversion

[...]

      isym =  8     inv. 180 deg rotation - cart. axis [1,0,0]

[...]

      isym =  9     inv. 120 deg rotation - cryst. axis [0,0,1]

 cryst.   s( 9) = (     0         -1          0      )
                  (     1          1          0      )
                  (     0          0         -1      )

 cart.    s( 9) = (  0.5000000  0.8660254  0.0000000 )
                  ( -0.8660254  0.5000000  0.0000000 )
                  (  0.0000000  0.0000000 -1.0000000 )

[...]

 cryst.   s(10) = (     1          1          0      )
                  (    -1          0          0      )
                  (     0          0         -1      )

 cart.    s(10) = (  0.5000000 -0.8660254  0.0000000 )
                  (  0.8660254  0.5000000  0.0000000 )
                  (  0.0000000  0.0000000 -1.0000000 )

[...]

      isym = 12     inv. 180 deg rotation - cryst. axis [1,1,0]

 cryst.   s(12) = (     0         -1          0      )
                  (    -1          0          0      )
                  (     0          0          1      )

 cart.    s(12) = (  0.5000000 -0.8660254  0.0000000 )
                  ( -0.8660254 -0.5000000  0.0000000 )
                  (  0.0000000  0.0000000  1.0000000 )

   Cartesian axes

     site n.     atom                  positions (alat units)
         1           Cs  tau(   1) = (   0.0000000   0.0000000   0.0000000  )
         2           Lu  tau(   2) = (   0.0000000   0.0000000   0.6802454  )
         3           Mo  tau(   3) = (  -0.0000005   0.5773506   0.3618919  )
         4           Mo  tau(   4) = (   0.5000005   0.2886748   0.9985990  )
         5           O   tau(   5) = (  -0.2476265   0.7203175   0.4580474  )
         6           O   tau(   6) = (   0.7476265   0.1457079   0.9024435  )
         7           O   tau(   7) = (   0.0000000   0.2914158   0.4580474  )
         8           O   tau(   8) = (   0.5000000   0.5746096   0.9024435  )
         9           O   tau(   9) = (   0.2476265   0.7203175   0.4580474  )
        10           O   tau(  10) = (   0.2523735   0.1457079   0.9024435  )
        11           O   tau(  11) = (  -0.0000005   0.5773506   0.0694286  )
        12           O   tau(  12) = (   0.5000005   0.2886748   1.2910623  )

   Crystallographic axes

     site n.     atom                  positions (cryst. coord.)
         1           Cs  tau(   1) = (  0.0000000  0.0000000  0.0000000  )
         2           Lu  tau(   2) = (  0.0000000  0.0000000  0.5000000  )
         3           Mo  tau(   3) = (  0.3333330  0.6666670  0.2660010  )
         4           Mo  tau(   4) = (  0.6666670  0.3333330  0.7339990  )
         5           O   tau(   5) = (  0.1682490  0.8317510  0.3366780  )
         6           O   tau(   6) = (  0.8317510  0.1682490  0.6633220  )
         7           O   tau(   7) = (  0.1682490  0.3364980  0.3366780  )
         8           O   tau(   8) = (  0.8317510  0.6635020  0.6633220  )
         9           O   tau(   9) = (  0.6635020  0.8317510  0.3366780  )
        10           O   tau(  10) = (  0.3364980  0.1682490  0.6633220  )
        11           O   tau(  11) = (  0.3333330  0.6666670  0.0510320  )
        12           O   tau(  12) = (  0.6666670  0.3333330  0.9489680  )

     number of k points=     7
                       cart. coord. in units 2pi/alat
        k(    1) = (   0.0000000   0.0000000   0.0000000), wk =   0.0740741
        k(    2) = (   0.0000000   0.0000000   0.2450096), wk =   0.1481481
        k(    3) = (   0.0000000   0.3849002   0.0000000), wk =   0.4444444
        k(    4) = (   0.0000000   0.3849002   0.2450096), wk =   0.4444444
        k(    5) = (   0.3333333   0.5773503   0.0000000), wk =   0.1481481
        k(    6) = (   0.3333333   0.5773503   0.2450096), wk =   0.2962963
        k(    7) = (   0.0000000   0.3849002  -0.2450096), wk =   0.4444444

                       cryst. coord.
        k(    1) = (   0.0000000   0.0000000   0.0000000), wk =   0.0740741
        k(    2) = (   0.0000000   0.0000000   0.3333333), wk =   0.1481481
        k(    3) = (   0.0000000   0.3333333   0.0000000), wk =   0.4444444
        k(    4) = (   0.0000000   0.3333333   0.3333333), wk =   0.4444444
        k(    5) = (   0.3333333   0.3333333   0.0000000), wk =   0.1481481
        k(    6) = (   0.3333333   0.3333333   0.3333333), wk =   0.2962963
        k(    7) = (   0.0000000   0.3333333  -0.3333333), wk =   0.4444444

     Check: negative core charge=   -0.000011

     Initial potential from superposition of free atoms

     starting charge     109.9549, renormalised to     110.0000
     Starting wfcs are   97 randomized atomic wfcs
     Checking if some PAW data can be deallocated...

     Self-consistent Calculation

     iteration #  1     ecut=    30.00 Ry     beta= 0.70
     Davidson diagonalization with overlap

     ethr =  1.00E-02,  avg # of iterations =  2.0

     total energy              =   -1748.63410137 Ry
     estimated scf accuracy    <       4.69259232 Ry

[...]

     c_bands:  1 eigenvalues not converged
     ethr =  2.58E-06,  avg # of iterations = 11.3

[...]

     total energy              =   -1751.35733124 Ry
     estimated scf accuracy    <       0.00000866 Ry

     iteration # 10     ecut=    30.00 Ry     beta= 0.70
     Davidson diagonalization with overlap

     ethr =  7.87E-09,  avg # of iterations =  2.0

     End of self-consistent calculation

          k = 0.0000 0.0000 0.0000 (  4743 PWs)   bands (ev):

   -57.8075 -57.8074 -50.1839 -32.1192 -32.1189 -32.0911 -32.0910 -32.0909
   -32.0909 -21.0603 -21.0449 -21.0449 -15.6744 -13.6666 -13.2802 -13.2149
   -13.2147 -12.9524 -12.9523 -12.8599 -12.7756  -2.6047  -2.5840  -2.5840
    -1.1490  -0.9743  -0.9742  -0.4658  -0.4657  -0.4401  -0.4401  -0.3378
     0.0311   0.0312   0.1365   0.6999   1.2053   1.2053   1.3047   1.3755
     1.3755   1.3863   1.3985   1.4213   1.5068   1.5069   1.6849   1.6849
     2.1970   2.4614   2.4615   2.5859   2.5860   2.5880   2.6836   6.4831
     6.4831   7.1364   7.1364   8.0497   8.6758   8.6758   8.7678   8.7787

     occupation numbers
     1.0000   1.0000   1.0000   1.0000   1.0000   1.0000   1.0000   1.0000
     1.0000   1.0000   1.0000   1.0000   1.0000   1.0000   1.0000   1.0000
     1.0000   1.0000   1.0000   1.0000   1.0000   1.0000   1.0000   1.0000
     1.0000   1.0000   1.0000   1.0000   1.0000   1.0000   1.0000   1.0000
     1.0000   1.0000   1.0000   1.0000   1.0000   1.0000   1.0000   1.0000
     1.0000   1.0000   1.0000   1.0000   1.0000   1.0000   1.0000   1.0000
     1.0000   1.0000   1.0000   1.0000   1.0000   1.0000   1.0000   0.0000
     0.0000   0.0000   0.0000   0.0000   0.0000   0.0000   0.0000   0.0000

[...]

          k = 0.0000 0.3849-0.2450 (  4772 PWs)   bands (ev):

   -57.8076 -57.8075 -50.1839 -32.1190 -32.1190 -32.0913 -32.0913 -32.0912
   -32.0911 -21.0585 -21.0466 -21.0449 -15.6652 -13.5616 -13.4290 -13.2131
   -13.1489 -12.9972 -12.9531 -12.8372 -12.7897  -2.6840  -2.6175  -2.5635
    -1.2731  -0.9949  -0.9479  -0.5675  -0.5492  -0.4800  -0.2175  -0.1692
    -0.1414  -0.0213   0.4984   0.6242   1.1502   1.1784   1.1933   1.3282
     1.3734   1.3859   1.3963   1.5257   1.6018   1.7677   1.7977   1.9358
     2.1106   2.1908   2.2775   2.4986   2.5371   2.5600   2.5603   6.7277
     6.9283   6.9922   7.1900   8.1865   8.5507   8.5702   8.8110   8.8863

     occupation numbers
     1.0000   1.0000   1.0000   1.0000   1.0000   1.0000   1.0000   1.0000
     1.0000   1.0000   1.0000   1.0000   1.0000   1.0000   1.0000   1.0000
     1.0000   1.0000   1.0000   1.0000   1.0000   1.0000   1.0000   1.0000
     1.0000   1.0000   1.0000   1.0000   1.0000   1.0000   1.0000   1.0000
     1.0000   1.0000   1.0000   1.0000   1.0000   1.0000   1.0000   1.0000
     1.0000   1.0000   1.0000   1.0000   1.0000   1.0000   1.0000   1.0000
     1.0000   1.0000   1.0000   1.0000   1.0000   1.0000   1.0000   0.0000
     0.0000   0.0000   0.0000   0.0000   0.0000   0.0000   0.0000   0.0000

     highest occupied, lowest unoccupied level (ev):     2.6836    6.4831

!    total energy              =   -1751.35733162 Ry
     estimated scf accuracy    <       0.00000060 Ry

     The total energy is the sum of the following terms:
     one-electron contribution =   -1054.56333905 Ry
     hartree contribution      =     524.87913160 Ry
     xc contribution           =    -161.84539710 Ry
     ewald contribution        =    -492.80485919 Ry
     one-center paw contrib.   =    -567.02286788 Ry
      -> PAW hartree energy AE =     490.58492777 Ry
      -> PAW hartree energy PS =    -422.02991079 Ry
      -> PAW xc energy AE      =    -599.35262546 Ry
      -> PAW xc energy PS      =      40.00270300 Ry
      -> total E_H with PAW    =     593.43414858 Ry
      -> total E_XC with PAW   =    -721.19531957 Ry

     convergence has been achieved in  10 iterations

     Writing all to output data dir calculations_bands/myprefix.save/

     General routines

     Parallel routines

     PAW routines

   This run was terminated on:  13:49: 1   6Jun2023

   JOB DONE.