     Program PWSCF v.7.0 starts on  6Jun2023 at 20:55:31

     K-points division:     npool     =       2
     R & G space division:  proc/nbgrp/npool/nimage =       4

     Reading input from espresso_21139.pwi
Warning: card &CELL ignored
Warning: card / ignored

     Current dimensions of program PWSCF are:
     Max number of different atomic species (ntypx) = 10
     Max number of k-points (npk) =  40000
     Max angular momentum in pseudopotentials (lmaxx) =  4
     file O.pbe-n-kjpaw_psl.0.1.UPF: wavefunction(s)  2P renormalized
     Message from routine setup:
     using ibrav=0 with symmetry is DISCOURAGED, use correct ibrav instead

     Using Slab Decomposition

     bravais-lattice index     =            0
     lattice parameter (alat)  =       8.9547  a.u.
     unit-cell volume          =    1217.1638 (a.u.)^3
     number of atoms/cell      =           18
     number of atomic types    =            4
     number of electrons       =        80.00
     number of Kohn-Sham states=           64
     kinetic-energy cutoff     =      30.0000  Ry
     charge density cutoff     =     240.0000  Ry
     scf convergence threshold =      1.0E-06
     mixing beta               =       0.7000
     number of iterations used =            8  plain     mixing
     Exchange-correlation=  SLA  PW   PBX  PBC
                           (   1   4   3   4   0   0   0)

     celldm(1)=   8.954715  celldm(2)=   0.000000  celldm(3)=   0.000000
     celldm(4)=   0.000000  celldm(5)=   0.000000  celldm(6)=   0.000000

     crystal axes: (cart. coord. in units of alat)
               a(1) = (   1.000000   0.000000   0.000000 )
               a(2) = (   0.021350   1.295689   0.000000 )
               a(3) = (  -0.205050  -0.237544   1.308257 )

     reciprocal axes: (cart. coord. in units 2 pi/alat)
               b(1) = (  1.000000 -0.016478  0.153743 )
               b(2) = (  0.000000  0.771790  0.140136 )
               b(3) = (  0.000000  0.000000  0.764376 )

     PseudoPot. # 1 for B  read from file:
     /home/pragov/projects/rrg-bengioy-ad/pragov/crystal_structure_design/SSSP/b_pbe_v1.4.uspp.F.UPF
     MD5 check sum: cc6de2960df11db49a60e589f9ebb39b
     Pseudo is Ultrasoft + core correction, Zval =  3.0
     Generated by new atomic code, or converted to UPF format
     Using radial grid of  781 points,  4 beta functions with:
                l(1) =   0
                l(2) =   0
                l(3) =   1
                l(4) =   1
     Q(r) pseudized with  8 coefficients,  rinner =    1.100   1.100   1.100

     PseudoPot. # 2 for H  read from file:
     /home/pragov/projects/rrg-bengioy-ad/pragov/crystal_structure_design/SSSP/H.pbe-rrkjus_psl.1.0.0.UPF
     MD5 check sum: f52b6d4d1c606e5624b1dc7b2218f220
     Pseudo is Ultrasoft, Zval =  1.0
     Generated using "atomic" code by A. Dal Corso  v.5.1
     Using radial grid of  929 points,  2 beta functions with:
                l(1) =   0
                l(2) =   0
     Q(r) pseudized with 0 coefficients

     PseudoPot. # 3 for O  read from file:
     /home/pragov/projects/rrg-bengioy-ad/pragov/crystal_structure_design/SSSP/O.pbe-n-kjpaw_psl.0.1.UPF
     MD5 check sum: 0234752ac141de4415c5fc33072bef88
     Pseudo is Projector augmented-wave + core cor, Zval =  6.0
     Generated using "atomic" code by A. Dal Corso  v.5.0.99 svn rev. 10869
     Shape of augmentation charge: BESSEL
     Using radial grid of 1095 points,  4 beta functions with:
                l(1) =   0
                l(2) =   0
                l(3) =   1
                l(4) =   1
     Q(r) pseudized with 0 coefficients

     PseudoPot. # 4 for F  read from file:
     /home/pragov/projects/rrg-bengioy-ad/pragov/crystal_structure_design/SSSP/f_pbe_v1.4.uspp.F.UPF
     MD5 check sum: 4c38b6a325caf53ec0e86aed9459de46
     Pseudo is Ultrasoft, Zval =  7.0
     Generated by new atomic code, or converted to UPF format
     Using radial grid of  799 points,  4 beta functions with:
                l(1) =   0
                l(2) =   0
                l(3) =   1
                l(4) =   1
     Q(r) pseudized with  8 coefficients,  rinner =    0.950   0.950   0.950

     atomic species   valence    mass     pseudopotential
        B              3.00    10.81000     B ( 1.00)
        H              1.00     1.00800     H ( 1.00)
        O              6.00    15.99900     O ( 1.00)
        F              7.00    18.99840     F ( 1.00)

      2 Sym. Ops., with inversion, found

                                    s                        frac. trans.

      isym =  1     identity

 cryst.   s( 1) = (     1          0          0      )
                  (     0          1          0      )
                  (     0          0          1      )

 cart.    s( 1) = (  1.0000000 -0.0000000  0.0000000 )
                  (  0.0000000  1.0000000 -0.0000000 )
                  (  0.0000000  0.0000000  1.0000000 )

      isym =  2     inversion

 cryst.   s( 2) = (    -1          0          0      )
                  (     0         -1          0      )
                  (     0          0         -1      )

 cart.    s( 2) = ( -1.0000000  0.0000000 -0.0000000 )
                  (  0.0000000 -1.0000000  0.0000000 )
                  (  0.0000000  0.0000000 -1.0000000 )

   Cartesian axes

     site n.     atom                  positions (alat units)
         1           B   tau(   1) = (   0.2724953   0.0713646   1.0443501  )
         2           B   tau(   2) = (   0.5438051   0.9867798   0.2639068  )
         3           H   tau(   3) = (   0.1364487   0.3439219   0.2144442  )
         4           H   tau(   4) = (   0.6798516   0.7142226   1.0938127  )
         5           H   tau(   5) = (   0.1647636   0.2919808   0.5613037  )
         6           H   tau(   6) = (   0.6515367   0.7661637   0.7469532  )
         7           H   tau(   7) = (   0.9002694   0.1441711   0.3822361  )
         8           H   tau(   8) = (  -0.0839691   0.9139734   0.9260209  )
         9           O   tau(   9) = (   0.0303940   0.3115282   0.3963966  )
        10           O   tau(  10) = (   0.7859063   0.7466163   0.9118603  )
        11           F   tau(  11) = (   0.0845088   0.1915184   1.2445370  )
        12           F   tau(  12) = (   0.7317915   0.8666260   0.0637200  )
        13           F   tau(  13) = (   0.1291343  -0.1464273   0.8890993  )
        14           F   tau(  14) = (   0.6871660   1.2045717   0.4191577  )
        15           F   tau(  15) = (   0.3442658   0.2865321   0.8426169  )
        16           F   tau(  16) = (   0.4720345   0.7716123   0.4656401  )
        17           F   tau(  17) = (   0.5128487  -0.0350317   1.1719876  )
        18           F   tau(  18) = (   0.3034516   1.0931761   0.1362694  )

   Crystallographic axes

     site n.     atom                  positions (cryst. coord.)
         1           B   tau(   1) = (  0.4318810  0.2014300  0.7982760  )
         2           B   tau(   2) = (  0.5681190  0.7985700  0.2017240  )
         3           H   tau(   3) = (  0.1637510  0.2954870  0.1639160  )
         4           H   tau(   4) = (  0.8362490  0.7045130  0.8360840  )
         5           H   tau(   5) = (  0.2462490  0.3040070  0.4290470  )
         6           H   tau(   6) = (  0.7537510  0.6959930  0.5709530  )
         7           H   tau(   7) = (  0.9566600  0.1648350  0.2921720  )
         8           H   tau(   8) = (  0.0433400  0.8351650  0.7078280  )
         9           O   tau(   9) = (  0.0862040  0.2959840  0.3029960  )
        10           O   tau(  10) = (  0.9137960  0.7040160  0.6970040  )
        11           F   tau(  11) = (  0.2726920  0.3222170  0.9512940  )
        12           F   tau(  12) = (  0.7273080  0.6777830  0.0487060  )
        13           F   tau(  13) = (  0.2682400  0.0115840  0.6796060  )
        14           F   tau(  14) = (  0.7317600  0.9884160  0.3203940  )
        15           F   tau(  15) = (  0.4690910  0.3392240  0.6440760  )
        16           F   tau(  16) = (  0.5309090  0.6607760  0.3559240  )
        17           F   tau(  17) = (  0.6936110  0.1372010  0.8958390  )
        18           F   tau(  18) = (  0.3063890  0.8627990  0.1041610  )

     number of k points=    14
                       cart. coord. in units 2pi/alat
        k(    1) = (   0.0000000   0.0000000   0.0000000), wk =   0.0740741
        k(    2) = (   0.0000000   0.0000000   0.2547919), wk =   0.1481481
        k(    3) = (   0.0000000   0.2572634   0.0467121), wk =   0.1481481
        k(    4) = (   0.0000000   0.2572634   0.3015041), wk =   0.1481481
        k(    5) = (   0.0000000   0.2572634  -0.2080798), wk =   0.1481481
        k(    6) = (   0.3333333  -0.0054926   0.0512477), wk =   0.1481481
        k(    7) = (   0.3333333  -0.0054926   0.3060397), wk =   0.1481481
        k(    8) = (   0.3333333  -0.0054926  -0.2035442), wk =   0.1481481
        k(    9) = (   0.3333333   0.2517708   0.0979598), wk =   0.1481481
        k(   10) = (   0.3333333   0.2517708   0.3527518), wk =   0.1481481
        k(   11) = (   0.3333333   0.2517708  -0.1568321), wk =   0.1481481
        k(   12) = (   0.3333333  -0.2627560   0.0045356), wk =   0.1481481
        k(   13) = (   0.3333333  -0.2627560   0.2593275), wk =   0.1481481
        k(   14) = (   0.3333333  -0.2627560  -0.2502564), wk =   0.1481481

                       cryst. coord.
        k(    1) = (   0.0000000   0.0000000   0.0000000), wk =   0.0740741
        k(    2) = (   0.0000000   0.0000000   0.3333333), wk =   0.1481481
        k(    3) = (   0.0000000   0.3333333   0.0000000), wk =   0.1481481
        k(    4) = (   0.0000000   0.3333333   0.3333333), wk =   0.1481481
        k(    5) = (   0.0000000   0.3333333  -0.3333333), wk =   0.1481481
        k(    6) = (   0.3333333   0.0000000  -0.0000000), wk =   0.1481481
        k(    7) = (   0.3333333   0.0000000   0.3333333), wk =   0.1481481
        k(    8) = (   0.3333333   0.0000000  -0.3333333), wk =   0.1481481
        k(    9) = (   0.3333333   0.3333333   0.0000000), wk =   0.1481481
        k(   10) = (   0.3333333   0.3333333   0.3333333), wk =   0.1481481
        k(   11) = (   0.3333333   0.3333333  -0.3333333), wk =   0.1481481
        k(   12) = (   0.3333333  -0.3333333  -0.0000000), wk =   0.1481481
        k(   13) = (   0.3333333  -0.3333333   0.3333333), wk =   0.1481481
        k(   14) = (   0.3333333  -0.3333333  -0.3333333), wk =   0.1481481

     Check: negative core charge=   -0.000006

     Initial potential from superposition of free atoms

     starting charge      79.9994, renormalised to      80.0000
     Starting wfcs are   54 randomized atomic wfcs +   10 random wfcs
     Checking if some PAW data can be deallocated...

     Self-consistent Calculation

     iteration #  1     ecut=    30.00 Ry     beta= 0.70
     Davidson diagonalization with overlap

     ethr =  1.00E-02,  avg # of iterations =  6.1

     total energy              =    -492.48515573 Ry
     estimated scf accuracy    <       1.14860188 Ry

[...]

     total energy              =    -492.89402327 Ry
     estimated scf accuracy    <       0.00000224 Ry

     iteration #  7     ecut=    30.00 Ry     beta= 0.70
     Davidson diagonalization with overlap

     ethr =  2.80E-09,  avg # of iterations =  2.0

     End of self-consistent calculation

          k = 0.0000 0.0000 0.0000 (  3367 PWs)   bands (ev):

   -24.3498 -24.1884 -23.0013 -22.9875 -22.9440 -22.9377 -22.7062 -22.7045
   -21.6403 -21.6003  -9.2185  -9.0172  -8.9326  -8.8071  -7.9850  -7.3105
    -6.4850  -6.3240  -6.2051  -6.0202  -5.9229  -5.8492  -4.3325  -4.3094
    -3.9683  -3.8906  -3.7598  -3.5115  -3.5056  -3.3943  -3.2825  -3.2107
    -3.1163  -3.0099  -2.6711  -2.6494  -2.4486  -2.3864  -2.3382  -2.2970
     5.3627   8.3991   9.3845   9.6667   9.8371  10.5884  10.7724  11.2580
    11.6483  11.6998  11.8551  12.1979  12.3803  12.6955  12.8846  12.9208
    13.2726  13.7603  13.8504  13.9773  13.9844  14.1541  14.6175  14.8585

     occupation numbers
     1.0000   1.0000   1.0000   1.0000   1.0000   1.0000   1.0000   1.0000
     1.0000   1.0000   1.0000   1.0000   1.0000   1.0000   1.0000   1.0000
     1.0000   1.0000   1.0000   1.0000   1.0000   1.0000   1.0000   1.0000
     1.0000   1.0000   1.0000   1.0000   1.0000   1.0000   1.0000   1.0000
     1.0000   1.0000   1.0000   1.0000   1.0000   1.0000   1.0000   1.0000
     0.0000   0.0000   0.0000   0.0000   0.0000   0.0000   0.0000   0.0000
     0.0000   0.0000   0.0000   0.0000   0.0000   0.0000   0.0000   0.0000
     0.0000   0.0000   0.0000   0.0000   0.0000   0.0000   0.0000   0.0000

[...]

          k = 0.3333-0.2628-0.2503 (  3375 PWs)   bands (ev):

   -24.2564 -24.2140 -23.0519 -22.9935 -22.9570 -22.9321 -22.7381 -22.7319
   -21.6125 -21.5826  -9.2458  -9.0402  -8.9673  -8.9356  -7.6481  -7.3547
    -6.4955  -6.1917  -6.1572  -6.0680  -5.9800  -5.8884  -4.3392  -4.3027
    -3.9749  -3.8635  -3.7255  -3.6443  -3.5743  -3.4634  -3.3426  -3.1741
    -3.0884  -3.0450  -2.6831  -2.6368  -2.4232  -2.3899  -2.3432  -2.3254
     7.2067   8.0517   8.8937   9.4324   9.8847  10.2424  10.3995  10.8918
    11.1818  11.4653  11.9449  12.0460  12.1636  12.4799  12.8800  13.1454
    13.1984  13.6306  14.0122  14.2931  14.5966  14.6180  14.9950  15.1161

     occupation numbers
     1.0000   1.0000   1.0000   1.0000   1.0000   1.0000   1.0000   1.0000
     1.0000   1.0000   1.0000   1.0000   1.0000   1.0000   1.0000   1.0000
     1.0000   1.0000   1.0000   1.0000   1.0000   1.0000   1.0000   1.0000
     1.0000   1.0000   1.0000   1.0000   1.0000   1.0000   1.0000   1.0000
     1.0000   1.0000   1.0000   1.0000   1.0000   1.0000   1.0000   1.0000
     0.0000   0.0000   0.0000   0.0000   0.0000   0.0000   0.0000   0.0000
     0.0000   0.0000   0.0000   0.0000   0.0000   0.0000   0.0000   0.0000
     0.0000   0.0000   0.0000   0.0000   0.0000   0.0000   0.0000   0.0000

     highest occupied, lowest unoccupied level (ev):    -2.2719    5.3627

!    total energy              =    -492.89402358 Ry
     estimated scf accuracy    <       0.00000040 Ry

     The total energy is the sum of the following terms:
     one-electron contribution =    -320.21357778 Ry
     hartree contribution      =     196.27087260 Ry
     xc contribution           =    -100.05093912 Ry
     ewald contribution        =    -249.89649416 Ry
     one-center paw contrib.   =     -19.00388513 Ry
      -> PAW hartree energy AE =       0.00000000 Ry
      -> PAW hartree energy PS =       0.00000000 Ry
      -> PAW xc energy AE      =       0.00000000 Ry
      -> PAW xc energy PS      =       0.00000000 Ry
      -> total E_H with PAW    =     196.27087260 Ry
      -> total E_XC with PAW   =    -100.05093912 Ry

     convergence has been achieved in   7 iterations

     Writing all to output data dir calculations_bands/myprefix.save/

     General routines

     Parallel routines

     PAW routines

   This run was terminated on:  20:55:41   6Jun2023

   JOB DONE.