     Program PWSCF v.7.0 starts on  6Jun2023 at  2: 0:35

     K-points division:     npool     =       2
     R & G space division:  proc/nbgrp/npool/nimage =       4

     Reading input from espresso_13168.pwi
Warning: card &CELL ignored
Warning: card / ignored

     Current dimensions of program PWSCF are:
     Max number of different atomic species (ntypx) = 10
     Max number of k-points (npk) =  40000
     Max angular momentum in pseudopotentials (lmaxx) =  4
     file O.pbe-n-kjpaw_psl.0.1.UPF: wavefunction(s)  2P renormalized

     Using Slab Decomposition

     bravais-lattice index     =            0
     lattice parameter (alat)  =      28.7807  a.u.
     unit-cell volume          =     717.4383 (a.u.)^3
     number of atoms/cell      =           12
     number of atomic types    =            3
     number of electrons       =        76.00
     number of Kohn-Sham states=           64
     kinetic-energy cutoff     =      30.0000  Ry
     charge density cutoff     =     240.0000  Ry
     scf convergence threshold =      1.0E-06
     mixing beta               =       0.7000
     number of iterations used =            8  plain     mixing
     Exchange-correlation= SLA  PW   PBX  PBC
                           (   1   4   3   4   0   0   0)

     celldm(1)=  28.780715  celldm(2)=   0.000000  celldm(3)=   0.000000
     celldm(4)=   0.000000  celldm(5)=   0.000000  celldm(6)=   0.000000

     crystal axes: (cart. coord. in units of alat)
               a(1) = (   1.000000   0.000000   0.000000 )
               a(2) = (   0.616653   0.184149   0.000000 )
               a(3) = (   0.616696   0.085066   0.163422 )

     reciprocal axes: (cart. coord. in units 2 pi/alat)
               b(1) = (  1.000000 -3.348660 -2.030570 )
               b(2) = (  0.000000  5.430380 -2.826676 )
               b(3) = (  0.000000  0.000000  6.119134 )

     PseudoPot. # 1 for Li read from file:
     /home/pragov/projects/rrg-bengioy-ad/pragov/crystal_structure_design/SSSP/li_pbe_v1.4.uspp.F.UPF
     MD5 check sum: e912e257baa3777c20ea3d68f190483c
     Pseudo is Ultrasoft, Zval =  3.0
     Generated by new atomic code, or converted to UPF format
     Using radial grid of  751 points,  5 beta functions with:
                l(1) =   0
                l(2) =   0
                l(3) =   0
                l(4) =   1
                l(5) =   1
     Q(r) pseudized with 10 coefficients,  rinner =    1.150   1.150   1.150

     PseudoPot. # 2 for Cr read from file:
     /home/pragov/projects/rrg-bengioy-ad/pragov/crystal_structure_design/SSSP/cr_pbe_v1.5.uspp.F.UPF
     MD5 check sum: 0d52af634a40206e4dee301ad30da4bf
     Pseudo is Ultrasoft + core correction, Zval = 14.0
     Generated by new atomic code, or converted to UPF format
     Using radial grid of  857 points,  6 beta functions with:
                l(1) =   0
                l(2) =   0
                l(3) =   1
                l(4) =   1
                l(5) =   2
                l(6) =   2
     Q(r) pseudized with  8 coefficients,  rinner =    0.950   0.950   0.950
                                                       0.950   0.950

     PseudoPot. # 3 for O  read from file:
     /home/pragov/projects/rrg-bengioy-ad/pragov/crystal_structure_design/SSSP/O.pbe-n-kjpaw_psl.0.1.UPF
     MD5 check sum: 0234752ac141de4415c5fc33072bef88
     Pseudo is Projector augmented-wave + core cor, Zval =  6.0
     Generated using "atomic" code by A. Dal Corso  v.5.0.99 svn rev. 10869
     Shape of augmentation charge: BESSEL
     Using radial grid of 1095 points,  4 beta functions with:
                l(1) =   0
                l(2) =   0
                l(3) =   1
                l(4) =   1
     Q(r) pseudized with 0 coefficients

     atomic species   valence    mass     pseudopotential
        Li             3.00     6.94000     Li( 1.00)
        Cr            14.00    51.99610     Cr( 1.00)
        O              6.00    15.99900     O ( 1.00)

     No symmetry found

                                    s                        frac. trans.

      isym =  1     identity

 cryst.   s( 1) = (     1          0          0      )
                  (     0          1          0      )
                  (     0          0          1      )

 cart.    s( 1) = (  1.0000000  0.0000000  0.0000000 )
                  (  0.0000000  1.0000000 -0.0000000 )
                  (  0.0000000  0.0000000  1.0000000 )

   Cartesian axes

     site n.     atom                  positions (alat units)
         1           Li  tau(   1) = (   1.2833737   0.0850635   0.1634136  )
         2           Li  tau(   2) = (   0.7833496   0.1345995   0.0817163  )
         3           Li  tau(   3) = (   1.1219265   0.1335282   0.0810580  )
         4           Li  tau(   4) = (   1.4447487   0.1356838   0.0823634  )
         5           Cr  tau(   5) = (   1.2381136   0.2642797   0.1604564  )
         6           Cr  tau(   6) = (   0.3286041   0.0049648   0.0029065  )
         7           O   tau(   7) = (   0.5632063   0.0764556   0.0463770  )
         8           O   tau(   8) = (   0.9013608   0.0715279   0.0433328  )
         9           O   tau(   9) = (   1.0034504   0.1927026   0.1171203  )
        10           O   tau(  10) = (   1.2321762   0.0625115   0.0379822  )
        11           O   tau(  11) = (   1.3344975   0.2067006   0.1254640  )
        12           O   tau(  12) = (   1.6653106   0.1977316   0.1200515  )

   Crystallographic axes

     site n.     atom                  positions (cryst. coord.)
         1           Li  tau(   1) = (  0.6667020  0.0000100  0.9999500  )
         2           Li  tau(   2) = (  0.1666910  0.4999410  0.5000330  )
         3           Li  tau(   3) = (  0.5101920  0.4959840  0.4960050  )
         4           Li  tau(   4) = (  0.8231450  0.5040000  0.5039930  )
         5           Cr  tau(   5) = (  0.0273130  0.9815810  0.9818540  )
         6           Cr  tau(   6) = (  0.3060770  0.0187450  0.0177850  )
         7           O   tau(   7) = (  0.2130110  0.2840900  0.2837870  )
         8           O   tau(   8) = (  0.5738480  0.2659360  0.2651590  )
         9           O   tau(   9) = (  0.1203340  0.7153870  0.7166750  )
        10           O   tau(  10) = (  0.9457210  0.2320980  0.2324180  )
        11           O   tau(  11) = (  0.3875640  0.7678170  0.7677310  )
        12           O   tau(  12) = (  0.7594020  0.7344110  0.7346110  )

     number of k points=    14
                       cart. coord. in units 2pi/alat
        k(    1) = (   0.0000000   0.0000000   0.0000000), wk =   0.0740741
        k(    2) = (   0.0000000   0.0000000   2.0397115), wk =   0.1481481
        k(    3) = (   0.0000000   1.8101266  -0.9422252), wk =   0.1481481
        k(    4) = (   0.0000000   1.8101266   1.0974863), wk =   0.1481481
        k(    5) = (   0.0000000   1.8101266  -2.9819367), wk =   0.1481481
        k(    6) = (   0.3333333  -1.1162199  -0.6768568), wk =   0.1481481
        k(    7) = (   0.3333333  -1.1162199   1.3628547), wk =   0.1481481
        k(    8) = (   0.3333333  -1.1162199  -2.7165682), wk =   0.1481481
        k(    9) = (   0.3333333   0.6939068  -1.6190820), wk =   0.1481481
        k(   10) = (   0.3333333   0.6939068   0.4206295), wk =   0.1481481
        k(   11) = (   0.3333333   0.6939068  -3.6587935), wk =   0.1481481
        k(   12) = (   0.3333333  -2.9263465   0.2653685), wk =   0.1481481
        k(   13) = (   0.3333333  -2.9263465   2.3050800), wk =   0.1481481
        k(   14) = (   0.3333333  -2.9263465  -1.7743430), wk =   0.1481481

                       cryst. coord.
        k(    1) = (   0.0000000   0.0000000   0.0000000), wk =   0.0740741
        k(    2) = (   0.0000000   0.0000000   0.3333333), wk =   0.1481481
        k(    3) = (   0.0000000   0.3333333   0.0000000), wk =   0.1481481
        k(    4) = (   0.0000000   0.3333333   0.3333333), wk =   0.1481481
        k(    5) = (   0.0000000   0.3333333  -0.3333333), wk =   0.1481481
        k(    6) = (   0.3333333   0.0000000   0.0000000), wk =   0.1481481
        k(    7) = (   0.3333333   0.0000000   0.3333333), wk =   0.1481481
        k(    8) = (   0.3333333   0.0000000  -0.3333333), wk =   0.1481481
        k(    9) = (   0.3333333   0.3333333   0.0000000), wk =   0.1481481
        k(   10) = (   0.3333333   0.3333333   0.3333333), wk =   0.1481481
        k(   11) = (   0.3333333   0.3333333  -0.3333333), wk =   0.1481481
        k(   12) = (   0.3333333  -0.3333333   0.0000000), wk =   0.1481481
        k(   13) = (   0.3333333  -0.3333333   0.3333333), wk =   0.1481481
        k(   14) = (   0.3333333  -0.3333333  -0.3333333), wk =   0.1481481

     Check: negative core charge=   -0.000019

     Initial potential from superposition of free atoms

     starting charge      72.1970, renormalised to      76.0000

     negative rho (up, down):  8.474E-04 0.000E+00
     Starting wfcs are   64 randomized atomic wfcs
     Checking if some PAW data can be deallocated...

     Self-consistent Calculation

     iteration #  1     ecut=    30.00 Ry     beta= 0.70
     Davidson diagonalization with overlap

     ethr =  1.00E-02,  avg # of iterations =  4.7

     negative rho (up, down):  6.589E-03 0.000E+00

     total energy              =    -654.38380263 Ry
     estimated scf accuracy    <       7.73650890 Ry

[...]

     total energy              =    -659.30631975 Ry
     estimated scf accuracy    <       0.00000106 Ry

     iteration # 23     ecut=    30.00 Ry     beta= 0.70
     Davidson diagonalization with overlap

     ethr =  1.40E-09,  avg # of iterations =  1.0

     negative rho (up, down):  1.211E-03 0.000E+00

     End of self-consistent calculation

          k = 0.0000 0.0000 0.0000 (  1985 PWs)   bands (ev):

   -64.4946 -64.4888 -36.6263 -36.6160 -36.1550 -36.0971 -36.0317 -36.0165
   -35.6958 -35.6864 -35.6129 -35.6066 -11.2886 -10.3580 -10.0487  -9.9502
    -9.8825  -9.8369   1.9278   2.0746   2.2366   2.6952   3.1736   3.4484
     3.5575   3.9522   4.2105   4.8594   5.0894   5.2063   5.5552   5.6246
     5.7114   5.9075   6.0912   6.1149   7.9576   8.0455   8.7255   8.7717
     8.9589   9.0560  10.4751  11.1860  11.1993  11.2078  13.7798  15.5470
    16.3049  16.8082  18.2337  18.3006  20.1004  20.3054  20.5591  21.1766
    21.5251  21.9675  22.4063  22.7380  22.9812  23.0429  23.2179  24.2999

     occupation numbers
     1.0000   1.0000   1.0000   1.0000   1.0000   1.0000   1.0000   1.0000
     1.0000   1.0000   1.0000   1.0000   1.0000   1.0000   1.0000   1.0000
     1.0000   1.0000   1.0000   1.0000   1.0000   1.0000   1.0000   1.0000
     1.0000   1.0000   1.0000   1.0000   1.0000   1.0000   1.0000   1.0000
     1.0000   1.0000   1.0000   1.0000   1.0000   1.0000   0.0000   0.0000
     0.0000   0.0000   0.0000   0.0000   0.0000   0.0000   0.0000   0.0000
     0.0000   0.0000   0.0000   0.0000   0.0000   0.0000   0.0000   0.0000
     0.0000   0.0000   0.0000   0.0000   0.0000   0.0000   0.0000   0.0000

[...]

          k = 0.3333-2.9263-1.7743 (  1985 PWs)   bands (ev):

   -64.4945 -64.4888 -36.6259 -36.6164 -36.1529 -36.0913 -36.0532 -35.9992
   -35.6982 -35.6862 -35.6134 -35.6059 -11.2325 -10.4952 -10.0473  -9.9344
    -9.8525  -9.8072   1.9092   1.9972   2.3822   2.7836   3.4245   3.4380
     3.5529   3.9013   4.0816   4.8731   4.9963   5.2990   5.3435   5.6277
     5.6400   5.8311   6.0124   6.0969   7.9093   8.0906   8.7329   8.8215
     8.8660   9.2302  10.7389  11.0458  11.1934  11.2000  14.4855  15.5855
    15.9494  16.4800  17.1295  19.4195  19.7563  20.3798  20.7503  20.9594
    21.6457  22.3672  22.4122  22.7438  22.8224  23.3481  23.6165  24.2045

     occupation numbers
     1.0000   1.0000   1.0000   1.0000   1.0000   1.0000   1.0000   1.0000
     1.0000   1.0000   1.0000   1.0000   1.0000   1.0000   1.0000   1.0000
     1.0000   1.0000   1.0000   1.0000   1.0000   1.0000   1.0000   1.0000
     1.0000   1.0000   1.0000   1.0000   1.0000   1.0000   1.0000   1.0000
     1.0000   1.0000   1.0000   1.0000   1.0000   1.0000   0.0000   0.0000
     0.0000   0.0000   0.0000   0.0000   0.0000   0.0000   0.0000   0.0000
     0.0000   0.0000   0.0000   0.0000   0.0000   0.0000   0.0000   0.0000
     0.0000   0.0000   0.0000   0.0000   0.0000   0.0000   0.0000   0.0000

     highest occupied, lowest unoccupied level (ev):     8.5416    8.5425

!    total energy              =    -659.30631926 Ry
     estimated scf accuracy    <       0.00000061 Ry

     The total energy is the sum of the following terms:
     one-electron contribution =    -327.85863431 Ry
     hartree contribution      =     193.79752983 Ry
     xc contribution           =    -103.08013265 Ry
     ewald contribution        =    -365.02368710 Ry
     one-center paw contrib.   =     -57.14139503 Ry
      -> PAW hartree energy AE =       0.00000000 Ry
      -> PAW hartree energy PS =       0.00000000 Ry
      -> PAW xc energy AE      =       0.00000000 Ry
      -> PAW xc energy PS      =       0.00000000 Ry
      -> total E_H with PAW    =     193.79752983 Ry
      -> total E_XC with PAW   =    -103.08013265 Ry

     convergence has been achieved in  23 iterations

     Writing all to output data dir calculations_bands/myprefix.save/

     General routines

     Parallel routines

     PAW routines

   This run was terminated on:   2: 1:24   6Jun2023

   JOB DONE.