     Program PWSCF v.7.0 starts on  7Jun2023 at  2:32:26

     K-points division:     npool     =       2
     R & G space division:  proc/nbgrp/npool/nimage =       4

     Reading input from espresso_1304.pwi
Warning: card &CELL ignored
Warning: card / ignored

     Current dimensions of program PWSCF are:
     Max number of different atomic species (ntypx) = 10
     Max number of k-points (npk) =  40000
     Max angular momentum in pseudopotentials (lmaxx) =  4
     Message from routine setup:
     using ibrav=0 with symmetry is DISCOURAGED, use correct ibrav instead

     Using Slab Decomposition

     bravais-lattice index     =            0
     lattice parameter (alat)  =      15.7490  a.u.
     unit-cell volume          =     809.8952 (a.u.)^3
     number of atoms/cell      =            4
     number of atomic types    =            3
     number of electrons       =        46.00
     number of Kohn-Sham states=           64
     kinetic-energy cutoff     =      30.0000  Ry
     charge density cutoff     =     240.0000  Ry
     scf convergence threshold =      1.0E-06
     mixing beta               =       0.7000
     number of iterations used =            8  plain     mixing
     Exchange-correlation= SLA  PW   PBE  PBE
                           (   1   4   3   4   0   0   0)

     celldm(1)=  15.748962  celldm(2)=   0.000000  celldm(3)=   0.000000
     celldm(4)=   0.000000  celldm(5)=   0.000000  celldm(6)=   0.000000

     crystal axes: (cart. coord. in units of alat)
               a(1) = (   1.000000   0.000000   0.000000 )
               a(2) = (   0.874971   0.484176   0.000000 )
               a(3) = (   0.874971   0.225945   0.428223 )

     reciprocal axes: (cart. coord. in units 2 pi/alat)
               b(1) = (  1.000000 -1.807135 -1.089755 )
               b(2) = (  0.000000  2.065366 -1.089755 )
               b(3) = (  0.000000  0.000000  2.335231 )

     PseudoPot. # 1 for Rb read from file:
     /home/pragov/projects/rrg-bengioy-ad/pragov/crystal_structure_design/SSSP/Rb_ONCV_PBE-1.0.oncvpsp.upf
     MD5 check sum: 55a5172d6bfbce6759a58e35d43f6aa9
     Pseudo is Norm-conserving, Zval =  9.0
     Generated using ONCVPSP code by D. R. Hamann
     Using radial grid of 2308 points,  6 beta functions with:
                l(1) =   0
                l(2) =   0
                l(3) =   1
                l(4) =   1
                l(5) =   2
                l(6) =   2

     PseudoPot. # 2 for Lu read from file:
     /home/pragov/projects/rrg-bengioy-ad/pragov/crystal_structure_design/SSSP/Lu.GGA-PBE-paw-v1.0.UPF
     MD5 check sum: 9ceca61ee0c17e9380a83635bfffa61d
     Pseudo is Projector augmented-wave + core cor, Zval = 25.0
     Generated using ATOMPAW code
     Shape of augmentation charge: BESSEL
     Using radial grid of 1118 points,  8 beta functions with:
                l(1) =   0
                l(2) =   0
                l(3) =   1
                l(4) =   1
                l(5) =   2
                l(6) =   2
                l(7) =   3
                l(8) =   3
     Q(r) pseudized with 0 coefficients

     PseudoPot. # 3 for Se read from file:
     /home/pragov/projects/rrg-bengioy-ad/pragov/crystal_structure_design/SSSP/Se_pbe_v1.uspp.F.UPF
     MD5 check sum: 1b3568f3a8ae88f9a2a0ad0698632c85
     Pseudo is Ultrasoft + core correction, Zval =  6.0
     Generated by new atomic code, or converted to UPF format
     Using radial grid of  877 points,  6 beta functions with:
                l(1) =   0
                l(2) =   0
                l(3) =   1
                l(4) =   1
                l(5) =   2
                l(6) =   2
     Q(r) pseudized with  8 coefficients,  rinner =    1.300   1.300   1.300
                                                       1.300   1.300

     atomic species   valence    mass     pseudopotential
        Rb             9.00    85.46780     Rb( 1.00)
        Lu            25.00   174.96680     Lu( 1.00)
        Se             6.00    78.97100     Se( 1.00)

      2 Sym. Ops., with inversion, found

                                    s                        frac. trans.

      isym =  1     identity

 cryst.   s( 1) = (     1          0          0      )
                  (     0          1          0      )
                  (     0          0          1      )

 cart.    s( 1) = (  1.0000000  0.0000000  0.0000000 )
                  (  0.0000000  1.0000000 -0.0000000 )
                  (  0.0000000  0.0000000  1.0000000 )

      isym =  2     inversion

 cryst.   s( 2) = (    -1          0          0      )
                  (     0         -1          0      )
                  (     0          0         -1      )

 cart.    s( 2) = ( -1.0000000 -0.0000000 -0.0000000 )
                  (  0.0000000 -1.0000000  0.0000000 )
                  (  0.0000000  0.0000000 -1.0000000 )

   Cartesian axes

     site n.     atom                  positions (alat units)
         1           Rb  tau(   1) = (   0.0000000   0.0000000   0.0000000  )
         2           Lu  tau(   2) = (   1.3749709   0.3550601   0.2141116  )
         3           Se  tau(   3) = (   0.6342136   0.1637736   0.0987602  )
         4           Se  tau(   4) = (   2.1157282   0.5463466   0.3294629  )

   Crystallographic axes

     site n.     atom                  positions (cryst. coord.)
         1           Rb  tau(   1) = (  0.0000000  0.0000000  0.0000000  )
         2           Lu  tau(   2) = (  0.5000000  0.5000000  0.5000000  )
         3           Se  tau(   3) = (  0.2306280  0.2306280  0.2306280  )
         4           Se  tau(   4) = (  0.7693720  0.7693720  0.7693720  )

     number of k points=    14
                       cart. coord. in units 2pi/alat
        k(    1) = (   0.0000000   0.0000000   0.0000000), wk =   0.0740741
        k(    2) = (   0.0000000   0.0000000   0.7784104), wk =   0.1481481
        k(    3) = (   0.0000000   0.6884554  -0.3632518), wk =   0.1481481
        k(    4) = (   0.0000000   0.6884554   0.4151586), wk =   0.1481481
        k(    5) = (   0.0000000   0.6884554  -1.1416621), wk =   0.1481481
        k(    6) = (   0.3333333  -0.6023784  -0.3632518), wk =   0.1481481
        k(    7) = (   0.3333333  -0.6023784   0.4151586), wk =   0.1481481
        k(    8) = (   0.3333333  -0.6023784  -1.1416621), wk =   0.1481481
        k(    9) = (   0.3333333   0.0860770  -0.7265035), wk =   0.1481481
        k(   10) = (   0.3333333   0.0860770   0.0519069), wk =   0.1481481
        k(   11) = (   0.3333333   0.0860770  -1.5049139), wk =   0.1481481
        k(   12) = (   0.3333333  -1.2908338   0.0000000), wk =   0.1481481
        k(   13) = (   0.3333333  -1.2908338   0.7784104), wk =   0.1481481
        k(   14) = (   0.3333333  -1.2908338  -0.7784104), wk =   0.1481481

                       cryst. coord.
        k(    1) = (   0.0000000   0.0000000   0.0000000), wk =   0.0740741
        k(    2) = (   0.0000000   0.0000000   0.3333333), wk =   0.1481481
        k(    3) = (   0.0000000   0.3333333   0.0000000), wk =   0.1481481
        k(    4) = (   0.0000000   0.3333333   0.3333333), wk =   0.1481481
        k(    5) = (   0.0000000   0.3333333  -0.3333333), wk =   0.1481481
        k(    6) = (   0.3333333  -0.0000000   0.0000000), wk =   0.1481481
        k(    7) = (   0.3333333  -0.0000000   0.3333333), wk =   0.1481481
        k(    8) = (   0.3333333  -0.0000000  -0.3333333), wk =   0.1481481
        k(    9) = (   0.3333333   0.3333333   0.0000000), wk =   0.1481481
        k(   10) = (   0.3333333   0.3333333   0.3333333), wk =   0.1481481
        k(   11) = (   0.3333333   0.3333333  -0.3333333), wk =   0.1481481
        k(   12) = (   0.3333333  -0.3333333  -0.0000000), wk =   0.1481481
        k(   13) = (   0.3333333  -0.3333333   0.3333333), wk =   0.1481481
        k(   14) = (   0.3333333  -0.3333333  -0.3333333), wk =   0.1481481

     Initial potential from superposition of free atoms

     starting charge      45.9713, renormalised to      46.0000
     Starting wfcs are   45 randomized atomic wfcs +   19 random wfcs
     Checking if some PAW data can be deallocated...

     Self-consistent Calculation

     iteration #  1     ecut=    30.00 Ry     beta= 0.70
     Davidson diagonalization with overlap

     ethr =  1.00E-02,  avg # of iterations =  7.0

     Threshold (ethr) on eigenvalues was too large:
     Diagonalizing with lowered threshold

     Davidson diagonalization with overlap

[...]

     total energy              =   -1216.68668056 Ry
     estimated scf accuracy    <       0.22064017 Ry

[...]

     total energy              =   -1216.76861778 Ry
     estimated scf accuracy    <       0.00000702 Ry

     iteration #  7     ecut=    30.00 Ry     beta= 0.70
     Davidson diagonalization with overlap

     ethr =  1.53E-08,  avg # of iterations =  4.4

     End of self-consistent calculation

          k = 0.0000 0.0000 0.0000 (  2241 PWs)   bands (ev):

   -48.9245 -19.6793 -19.6076 -19.5178 -19.5178  -5.2249  -4.8600  -3.6526
    -3.6526  -3.3220   2.5455   2.5456   2.5578   2.5657   2.5750   2.5751
     2.6058   3.4767   5.1689   5.1689   6.4580   6.8070   6.8071   9.3135
     9.8464  10.0203  10.0203  11.6513  11.9823  11.9823  12.6592  13.8496
    13.8496  15.2079  15.2080  15.4936  15.8842  15.8842  16.3782  18.8097
    19.0359  19.0359  20.4546  20.5025  20.7624  20.7624  20.9109  22.3239
    22.4878  22.4878  24.2441  24.2441  24.8361  26.9604  26.9604  27.2307
    27.2307  28.9247  29.2525  29.2526  29.7155  31.2231  31.2231  31.3419

     occupation numbers
     1.0000   1.0000   1.0000   1.0000   1.0000   1.0000   1.0000   1.0000
     1.0000   1.0000   1.0000   1.0000   1.0000   1.0000   1.0000   1.0000
     1.0000   1.0000   1.0000   1.0000   1.0000   1.0000   1.0000   0.0000
     0.0000   0.0000   0.0000   0.0000   0.0000   0.0000   0.0000   0.0000
     0.0000   0.0000   0.0000   0.0000   0.0000   0.0000   0.0000   0.0000
     0.0000   0.0000   0.0000   0.0000   0.0000   0.0000   0.0000   0.0000
     0.0000   0.0000   0.0000   0.0000   0.0000   0.0000   0.0000   0.0000
     0.0000   0.0000   0.0000   0.0000   0.0000   0.0000   0.0000   0.0000

[...]

          k = 0.3333-1.2908-0.7784 (  2241 PWs)   bands (ev):

   -48.9235 -19.6534 -19.5959 -19.5700 -19.5293  -4.8397  -4.7009  -3.8164
    -3.7316  -3.5449   2.5524   2.5575   2.5591   2.5664   2.5744   2.5831
     2.5857   3.6663   4.2798   5.1196   5.3107   6.0297   6.1725   8.9685
    10.8909  11.0300  11.2394  12.3870  12.4018  12.5734  13.0428  13.3159
    14.4542  14.9872  15.8290  15.9073  16.4507  16.7403  17.4118  18.4708
    18.6713  18.8508  19.2278  19.8631  21.6237  22.0885  22.3736  22.5134
    23.6753  23.9673  24.0467  24.7259  24.7507  25.1302  25.8640  26.1592
    26.3459  27.2992  27.5340  28.2083  28.6536  29.7996  29.9635  30.4715

     occupation numbers
     1.0000   1.0000   1.0000   1.0000   1.0000   1.0000   1.0000   1.0000
     1.0000   1.0000   1.0000   1.0000   1.0000   1.0000   1.0000   1.0000
     1.0000   1.0000   1.0000   1.0000   1.0000   1.0000   1.0000   0.0000
     0.0000   0.0000   0.0000   0.0000   0.0000   0.0000   0.0000   0.0000
     0.0000   0.0000   0.0000   0.0000   0.0000   0.0000   0.0000   0.0000
     0.0000   0.0000   0.0000   0.0000   0.0000   0.0000   0.0000   0.0000
     0.0000   0.0000   0.0000   0.0000   0.0000   0.0000   0.0000   0.0000
     0.0000   0.0000   0.0000   0.0000   0.0000   0.0000   0.0000   0.0000

     highest occupied, lowest unoccupied level (ev):     6.8071    8.9685

!    total energy              =   -1216.76862585 Ry
     estimated scf accuracy    <       0.00000007 Ry

     The total energy is the sum of the following terms:
     one-electron contribution =    -622.62670530 Ry
     hartree contribution      =     288.56643223 Ry
     xc contribution           =    -108.45593575 Ry
     ewald contribution        =    -283.45855698 Ry
     one-center paw contrib.   =    -490.79386005 Ry
      -> PAW hartree energy AE =       0.00000000 Ry
      -> PAW hartree energy PS =       0.00000000 Ry
      -> PAW xc energy AE      =       0.00000000 Ry
      -> PAW xc energy PS      =       0.00000000 Ry
      -> total E_H with PAW    =     288.56643223 Ry
      -> total E_XC with PAW   =    -108.45593575 Ry

     convergence has been achieved in   7 iterations

     Writing all to output data dir calculations_bands/myprefix.save/

     General routines

     Parallel routines

     PAW routines

   This run was terminated on:   2:32:46   7Jun2023

   JOB DONE.