     Program PWSCF v.7.0 starts on 23Jun2023 at  7:37:38

     K-points division:     npool     =       2
     R & G space division:  proc/nbgrp/npool/nimage =       4

     Reading input from espresso_16108.pwi
Warning: card &CELL ignored
Warning: card / ignored

     Current dimensions of program PWSCF are:
     Max number of different atomic species (ntypx) = 10
     Max number of k-points (npk) =  40000
     Max angular momentum in pseudopotentials (lmaxx) =  4
     file K.pbe-spn-kjpaw_psl.1.0.0.UPF: wavefunction(s)  3S renormalized
     file In.pbe-dn-rrkjus_psl.0.2.2.UPF: wavefunction(s)  5S renormalized

     Using Slab Decomposition

     bravais-lattice index     =            0
     lattice parameter (alat)  =      17.0266  a.u.
     unit-cell volume          =    4568.3260 (a.u.)^3
     number of atoms/cell      =           20
     number of atomic types    =            3
     number of electrons       =       164.00
     number of Kohn-Sham states=           90
     kinetic-energy cutoff     =      30.0000  Ry
     charge density cutoff     =     240.0000  Ry
     scf convergence threshold =      1.0E-06
     mixing beta               =       0.7000
     number of iterations used =            8  plain     mixing
     Exchange-correlation= PBE
                           (   1   4   3   4   0   0   0)

     celldm(1)=  17.026580  celldm(2)=   0.000000  celldm(3)=   0.000000
     celldm(4)=   0.000000  celldm(5)=   0.000000  celldm(6)=   0.000000

     crystal axes: (cart. coord. in units of alat)
               a(1) = (   1.000000   0.000000   0.000000 )
               a(2) = (  -0.493561   0.872039   0.000000 )
               a(3) = (  -0.326166  -0.001797   1.061302 )

     reciprocal axes: (cart. coord. in units 2 pi/alat)
               b(1) = (  1.000000  0.565985  0.308284 )
               b(2) = (  0.000000  1.146738  0.001942 )
               b(3) = (  0.000000  0.000000  0.942238 )

     PseudoPot. # 1 for K  read from file:
     /home/pragov/projects/rrg-bengioy-ad/pragov/crystal_structure_design/SSSP/K.pbe-spn-kjpaw_psl.1.0.0.UPF
     MD5 check sum: 7d58810084cac21f60fbe77ea2b688fd
     Pseudo is Projector augmented-wave + core cor, Zval =  9.0
     Generated using "atomic" code by A. Dal Corso  v.5.1
     Shape of augmentation charge: PSQ
     Using radial grid of 1165 points,  6 beta functions with:
                l(1) =   0
                l(2) =   0
                l(3) =   1
                l(4) =   1
                l(5) =   2
                l(6) =   2
     Q(r) pseudized with 0 coefficients

     PseudoPot. # 2 for In read from file:
     /home/pragov/projects/rrg-bengioy-ad/pragov/crystal_structure_design/SSSP/In.pbe-dn-rrkjus_psl.0.2.2.UPF
     MD5 check sum: 25e7c42c3b55b68f4bf926be2e7201a4
     Pseudo is Ultrasoft + core correction, Zval = 13.0
     Generated using "atomic" code by A. Dal Corso  v.5.0.99 svn rev. 10869
     Using radial grid of 1241 points,  6 beta functions with:
                l(1) =   0
                l(2) =   0
                l(3) =   1
                l(4) =   1
                l(5) =   2
                l(6) =   2
     Q(r) pseudized with 0 coefficients

     PseudoPot. # 3 for P  read from file:
     /home/pragov/projects/rrg-bengioy-ad/pragov/crystal_structure_design/SSSP/P.pbe-n-rrkjus_psl.1.0.0.UPF
     MD5 check sum: 8b930f418f0a4573dca56cd030ffe088
     Pseudo is Ultrasoft + core correction, Zval =  5.0
     Generated using "atomic" code by A. Dal Corso  v.5.1
     Using radial grid of 1147 points,  6 beta functions with:
                l(1) =   0
                l(2) =   0
                l(3) =   1
                l(4) =   1
                l(5) =   2
                l(6) =   2
     Q(r) pseudized with 0 coefficients

     atomic species   valence    mass     pseudopotential
        K              9.00    39.09830     K ( 1.00)
        In            13.00   114.81800     In( 1.00)
        P              5.00    30.97376     P ( 1.00)

     No symmetry found

                                    s                        frac. trans.

      isym =  1     identity

 cryst.   s( 1) = (     1          0          0      )
                  (     0          1          0      )
                  (     0          0          1      )

 cart.    s( 1) = (  1.0000000  0.0000000  0.0000000 )
                  (  0.0000000  1.0000000 -0.0000000 )
                  (  0.0000000  0.0000000  1.0000000 )

   Cartesian axes

     site n.     atom                  positions (alat units)
         1           K   tau(   1) = (   0.4706141   0.1114503   0.6544734  )
         2           K   tau(   2) = (  -0.2909146   0.7469148   0.4167586  )
         3           K   tau(   3) = (   0.3639867   0.7092044   0.6634605  )
         4           K   tau(   4) = (  -0.2010597   0.1662262   0.4151338  )
         5           K   tau(   5) = (   0.2692453   0.3897109   0.4241580  )
         6           K   tau(   6) = (  -0.0779211   0.4878421   0.6313423  )
         7           K   tau(   7) = (   0.5853346   0.4247856   0.1504428  )
         8           K   tau(   8) = (  -0.4128192   0.4382270   0.9030644  )
         9           K   tau(   9) = (   0.3834255   0.0794207   1.0446750  )
        10           K   tau(  10) = (  -0.1956227   0.7648077   0.0019008  )
        11           K   tau(  11) = (  -0.0407464   0.5441774   1.0027706  )
        12           K   tau(  12) = (   0.1067791   0.1835953   0.1165183  )
        13           In  tau(  13) = (   0.0941861   0.7202308   0.2718112  )
        14           In  tau(  14) = (   0.0866514   0.1533777   0.7957179  )
        15           P   tau(  15) = (  -0.0601961   0.4816190   0.2472622  )
        16           P   tau(  16) = (   0.2471530   0.3860651   0.8088027  )
        17           P   tau(  17) = (   0.4557261   0.1016792   0.2753273  )
        18           P   tau(  18) = (  -0.2855261   0.7632974   0.7863179  )
        19           P   tau(  19) = (   0.3780555   0.7172124   0.2591117  )
        20           P   tau(  20) = (  -0.1938059   0.1726532   0.8091200  )

   Crystallographic axes

     site n.     atom                  positions (cryst. coord.)
         1           K   tau(   1) = (  0.7354570  0.1290750  0.6166700  )
         2           K   tau(   2) = (  0.2603080  0.8573250  0.3926860  )
         3           K   tau(   3) = (  0.9699200  0.8145600  0.6251380  )
         4           K   tau(   4) = (  0.0210010  0.1914240  0.3911550  )
         5           K   tau(   5) = (  0.6205770  0.4477200  0.3996580  )
         6           K   tau(   6) = (  0.3928230  0.5606530  0.5948750  )
         7           K   tau(   7) = (  0.8721360  0.4874100  0.1417530  )
         8           K   tau(   8) = (  0.1136110  0.5042850  0.8509020  )
         9           K   tau(   9) = (  0.7504330  0.0931030  0.9843330  )
        10           K   tau(  10) = (  0.2378330  0.8770380  0.0017910  )
        11           K   tau(  11) = (  0.5763880  0.6259760  0.9448490  )
        12           K   tau(  12) = (  0.2466120  0.2107620  0.1097880  )
        13           In  tau(  13) = (  0.5856210  0.8264440  0.2561110  )
        14           In  tau(  14) = (  0.4187680  0.1774290  0.7497560  )
        15           P   tau(  15) = (  0.2886200  0.5527710  0.2329800  )
        16           P   tau(  16) = (  0.7150010  0.4442860  0.7620850  )
        17           P   tau(  17) = (  0.5981540  0.1171340  0.2594240  )
        18           P   tau(  18) = (  0.3888980  0.8768290  0.7408990  )
        19           P   tau(  19) = (  0.8638670  0.8229580  0.2441450  )
        20           P   tau(  20) = (  0.1533520  0.1995590  0.7623840  )

     number of k points=    14
                       cart. coord. in units 2pi/alat
        k(    1) = (   0.0000000   0.0000000   0.0000000), wk =   0.0740741
        k(    2) = (   0.0000000   0.0000000   0.3140795), wk =   0.1481481
        k(    3) = (   0.0000000   0.3822461   0.0006472), wk =   0.1481481
        k(    4) = (   0.0000000   0.3822461   0.3147267), wk =   0.1481481
        k(    5) = (   0.0000000   0.3822461  -0.3134323), wk =   0.1481481
        k(    6) = (   0.3333333   0.1886617   0.1027613), wk =   0.1481481
        k(    7) = (   0.3333333   0.1886617   0.4168408), wk =   0.1481481
        k(    8) = (   0.3333333   0.1886617  -0.2113182), wk =   0.1481481
        k(    9) = (   0.3333333   0.5709078   0.1034085), wk =   0.1481481
        k(   10) = (   0.3333333   0.5709078   0.4174880), wk =   0.1481481
        k(   11) = (   0.3333333   0.5709078  -0.2106710), wk =   0.1481481
        k(   12) = (   0.3333333  -0.1935844   0.1021142), wk =   0.1481481
        k(   13) = (   0.3333333  -0.1935844   0.4161936), wk =   0.1481481
        k(   14) = (   0.3333333  -0.1935844  -0.2119653), wk =   0.1481481

                       cryst. coord.
        k(    1) = (   0.0000000   0.0000000   0.0000000), wk =   0.0740741
        k(    2) = (   0.0000000   0.0000000   0.3333333), wk =   0.1481481
        k(    3) = (   0.0000000   0.3333333  -0.0000000), wk =   0.1481481
        k(    4) = (   0.0000000   0.3333333   0.3333333), wk =   0.1481481
        k(    5) = (   0.0000000   0.3333333  -0.3333333), wk =   0.1481481
        k(    6) = (   0.3333333   0.0000000   0.0000000), wk =   0.1481481
        k(    7) = (   0.3333333   0.0000000   0.3333333), wk =   0.1481481
        k(    8) = (   0.3333333   0.0000000  -0.3333333), wk =   0.1481481
        k(    9) = (   0.3333333   0.3333333   0.0000000), wk =   0.1481481
        k(   10) = (   0.3333333   0.3333333   0.3333333), wk =   0.1481481
        k(   11) = (   0.3333333   0.3333333  -0.3333333), wk =   0.1481481
        k(   12) = (   0.3333333  -0.3333333   0.0000000), wk =   0.1481481
        k(   13) = (   0.3333333  -0.3333333   0.3333333), wk =   0.1481481
        k(   14) = (   0.3333333  -0.3333333  -0.3333333), wk =   0.1481481

     Check: negative core charge=   -0.000003

     Initial potential from superposition of free atoms

     starting charge     163.7656, renormalised to     164.0000
     Starting wfcs are  138 randomized atomic wfcs
     Checking if some PAW data can be deallocated...

     Self-consistent Calculation

     iteration #  1     ecut=    30.00 Ry     beta= 0.70
     Davidson diagonalization with overlap

     ethr =  1.00E-02,  avg # of iterations =  3.9

     total energy              =   -1729.42993733 Ry
     estimated scf accuracy    <       2.25511263 Ry

[...]

     total energy              =   -1730.54727351 Ry
     estimated scf accuracy    <       0.00000547 Ry

     iteration # 10     ecut=    30.00 Ry     beta= 0.70
     Davidson diagonalization with overlap

     ethr =  3.34E-09,  avg # of iterations =  2.1

     End of self-consistent calculation

          k = 0.0000 0.0000 0.0000 ( 12663 PWs)   bands (ev):

   -26.7050 -26.6442 -26.5805 -26.5078 -26.4852 -26.4712 -26.4349 -26.3401
   -26.3153 -26.2777 -26.1939 -26.1442 -10.4204 -10.3195 -10.2983 -10.2599
   -10.2038 -10.1874 -10.1468 -10.1263 -10.1176 -10.0921 -10.0772 -10.0506
   -10.0417 -10.0176  -9.9990  -9.9820  -9.9718  -9.9556  -9.9290  -9.9156
    -9.9091  -9.8948  -9.8795  -9.8499  -9.8236  -9.8123  -9.8078  -9.7969
    -9.7712  -9.7558  -9.7346  -9.7232  -9.7171  -9.7080  -9.6826  -9.6695
    -9.6612  -9.6510  -9.6461  -9.6297  -9.6112  -9.5934  -9.5856  -9.5794
    -9.5730  -9.5637  -4.6139  -4.4445  -3.8925  -3.8205  -3.8096  -3.7720
     0.1607   0.2395   2.3846   2.5362   2.5689   2.6722   2.6979   3.2308
     3.5811   3.6137   3.7841   3.8183   3.8215   3.8860   3.9471   3.9829
     4.0013   4.0424   4.8195   5.6552   6.0277   6.2441   6.9241   7.0738
     7.1330   7.3478

     occupation numbers
     1.0000   1.0000   1.0000   1.0000   1.0000   1.0000   1.0000   1.0000
     1.0000   1.0000   1.0000   1.0000   1.0000   1.0000   1.0000   1.0000
     1.0000   1.0000   1.0000   1.0000   1.0000   1.0000   1.0000   1.0000
     1.0000   1.0000   1.0000   1.0000   1.0000   1.0000   1.0000   1.0000
     1.0000   1.0000   1.0000   1.0000   1.0000   1.0000   1.0000   1.0000
     1.0000   1.0000   1.0000   1.0000   1.0000   1.0000   1.0000   1.0000
     1.0000   1.0000   1.0000   1.0000   1.0000   1.0000   1.0000   1.0000
     1.0000   1.0000   1.0000   1.0000   1.0000   1.0000   1.0000   1.0000
     1.0000   1.0000   1.0000   1.0000   1.0000   1.0000   1.0000   1.0000
     1.0000   1.0000   1.0000   1.0000   1.0000   1.0000   1.0000   1.0000
     1.0000   1.0000   0.0000   0.0000   0.0000   0.0000   0.0000   0.0000
     0.0000   0.0000

[...]

          k = 0.3333-0.1936-0.2120 ( 12667 PWs)   bands (ev):

   -26.7048 -26.6442 -26.5807 -26.5082 -26.4853 -26.4707 -26.4349 -26.3401
   -26.3152 -26.2777 -26.1939 -26.1442 -10.4209 -10.3237 -10.2926 -10.2584
   -10.2013 -10.1862 -10.1641 -10.1095 -10.1003 -10.0864 -10.0779 -10.0621
   -10.0401 -10.0222 -10.0005  -9.9897  -9.9751  -9.9535  -9.9290  -9.9247
    -9.9028  -9.8952  -9.8792  -9.8529  -9.8206  -9.8163  -9.8049  -9.7974
    -9.7689  -9.7555  -9.7431  -9.7198  -9.7124  -9.7027  -9.6873  -9.6705
    -9.6614  -9.6506  -9.6444  -9.6348  -9.6145  -9.5888  -9.5851  -9.5788
    -9.5728  -9.5653  -4.5391  -4.4380  -3.9093  -3.8619  -3.8295  -3.7965
     0.1719   0.2655   2.4765   2.5290   2.6310   2.7540   2.8102   3.0242
     3.5070   3.6058   3.6275   3.6696   3.7656   3.8289   3.9065   3.9514
     3.9674   4.0270   5.5444   5.8515   6.1560   6.3750   6.6882   6.7816
     6.8890   7.1466

     occupation numbers
     1.0000   1.0000   1.0000   1.0000   1.0000   1.0000   1.0000   1.0000
     1.0000   1.0000   1.0000   1.0000   1.0000   1.0000   1.0000   1.0000
     1.0000   1.0000   1.0000   1.0000   1.0000   1.0000   1.0000   1.0000
     1.0000   1.0000   1.0000   1.0000   1.0000   1.0000   1.0000   1.0000
     1.0000   1.0000   1.0000   1.0000   1.0000   1.0000   1.0000   1.0000
     1.0000   1.0000   1.0000   1.0000   1.0000   1.0000   1.0000   1.0000
     1.0000   1.0000   1.0000   1.0000   1.0000   1.0000   1.0000   1.0000
     1.0000   1.0000   1.0000   1.0000   1.0000   1.0000   1.0000   1.0000
     1.0000   1.0000   1.0000   1.0000   1.0000   1.0000   1.0000   1.0000
     1.0000   1.0000   1.0000   1.0000   1.0000   1.0000   1.0000   1.0000
     1.0000   1.0000   0.0000   0.0000   0.0000   0.0000   0.0000   0.0000
     0.0000   0.0000

     highest occupied, lowest unoccupied level (ev):     4.0733    4.8195

!    total energy              =   -1730.54727384 Ry
     estimated scf accuracy    <       0.00000092 Ry

     The total energy is the sum of the following terms:
     one-electron contribution =    -464.93983759 Ry
     hartree contribution      =     294.10497151 Ry
     xc contribution           =    -256.55704278 Ry
     ewald contribution        =    -638.14450856 Ry
     one-center paw contrib.   =    -665.01085642 Ry
      -> PAW hartree energy AE =     113.30317045 Ry
      -> PAW hartree energy PS =    -112.67209972 Ry
      -> PAW xc energy AE      =    -198.67769617 Ry
      -> PAW xc energy PS      =      31.79372596 Ry
      -> total E_H with PAW    =     294.73604224 Ry
      -> total E_XC with PAW   =    -423.44101298 Ry

     convergence has been achieved in  10 iterations

     Writing all to output data dir calculations_bands/myprefix.save/

     General routines

     Parallel routines

     PAW routines

   This run was terminated on:   7:38:30  23Jun2023

   JOB DONE.