     Program PWSCF v.7.0 starts on  4Jun2023 at 15:15:35

     K-points division:     npool     =       2
     R & G space division:  proc/nbgrp/npool/nimage =       4

     Reading input from espresso_2366.pwi
Warning: card &CELL ignored
Warning: card / ignored

     Current dimensions of program PWSCF are:
     Max number of different atomic species (ntypx) = 10
     Max number of k-points (npk) =  40000
     Max angular momentum in pseudopotentials (lmaxx) =  4

     Using Slab Decomposition

     bravais-lattice index     =            0
     lattice parameter (alat)  =       9.7269  a.u.
     unit-cell volume          =     231.1693 (a.u.)^3
     number of atoms/cell      =            5
     number of atomic types    =            2
     number of electrons       =        22.00
     number of Kohn-Sham states=           64
     kinetic-energy cutoff     =      30.0000  Ry
     charge density cutoff     =     240.0000  Ry
     scf convergence threshold =      1.0E-06
     mixing beta               =       0.7000
     number of iterations used =            8  plain     mixing
     Exchange-correlation= PBE
                           (   1   4   3   4   0   0   0)

     celldm(1)=   9.726906  celldm(2)=   0.000000  celldm(3)=   0.000000
     celldm(4)=   0.000000  celldm(5)=   0.000000  celldm(6)=   0.000000

     crystal axes: (cart. coord. in units of alat)
               a(1) = (   1.000000   0.000000   0.000000 )
               a(2) = (   0.846957   0.531662   0.000000 )
               a(3) = (   0.846957   0.243804   0.472466 )

     reciprocal axes: (cart. coord. in units 2 pi/alat)
               b(1) = (  1.000000 -1.593037 -0.970586 )
               b(2) = (  0.000000  1.880895 -0.970586 )
               b(3) = (  0.000000  0.000000  2.116554 )

     PseudoPot. # 1 for Be read from file:
     /home/pragov/projects/rrg-bengioy-ad/pragov/crystal_structure_design/SSSP/be_pbe_v1.4.uspp.F.UPF
     MD5 check sum: 5ecff1440924c7c98ad504bef30f5264
     Pseudo is Ultrasoft, Zval =  4.0
     Generated by new atomic code, or converted to UPF format
     Using radial grid of  769 points,  6 beta functions with:
                l(1) =   0
                l(2) =   0
                l(3) =   0
                l(4) =   1
                l(5) =   1
                l(6) =   2
     Q(r) pseudized with 10 coefficients,  rinner =    1.000   1.000   1.000
                                                       1.000   1.000

     PseudoPot. # 2 for N  read from file:
     /home/pragov/projects/rrg-bengioy-ad/pragov/crystal_structure_design/SSSP/N.pbe-n-radius_5.UPF
     MD5 check sum: 16739722b17309cd8fe442a2ace49922
     Pseudo is Ultrasoft + core correction, Zval =  5.0
     Generated using "atomic" code by A. Dal Corso  v.5.1
     Using radial grid of 1085 points,  4 beta functions with:
                l(1) =   0
                l(2) =   0
                l(3) =   1
                l(4) =   1
     Q(r) pseudized with 0 coefficients

     atomic species   valence    mass     pseudopotential
        Be             4.00     9.01218     Be( 1.00)
        N              5.00    14.00700     N ( 1.00)

     No symmetry found

                                    s                        frac. trans.

      isym =  1     identity

 cryst.   s( 1) = (     1          0          0      )
                  (     0          1          0      )
                  (     0          0          1      )

 cart.    s( 1) = (  1.0000000 -0.0000000  0.0000000 )
                  (  0.0000000  1.0000000  0.0000000 )
                  (  0.0000000  0.0000000  1.0000000 )

   Cartesian axes

     site n.     atom                  positions (alat units)
         1           Be  tau(   1) = (   0.3797906   0.1093259   0.0666087  )
         2           Be  tau(   2) = (   1.8385853   0.5292519   0.3224562  )
         3           Be  tau(   3) = (   2.4543897   0.7065163   0.4304576  )
         4           N   tau(   4) = (   2.1436117   0.6170563   0.3759525  )
         5           N   tau(   5) = (   0.7855775   0.2261350   0.1377768  )

   Crystallographic axes

     site n.     atom                  positions (cryst. coord.)
         1           Be  tau(   1) = (  0.1409810  0.1409810  0.1409810  )
         2           Be  tau(   2) = (  0.6824960  0.6824960  0.6824960  )
         3           Be  tau(   3) = (  0.9110870  0.9110870  0.9110870  )
         4           N   tau(   4) = (  0.7957240  0.7957240  0.7957240  )
         5           N   tau(   5) = (  0.2916120  0.2916120  0.2916120  )

     number of k points=    14
                       cart. coord. in units 2pi/alat
        k(    1) = (   0.0000000   0.0000000   0.0000000), wk =   0.0740741
        k(    2) = (   0.0000000   0.0000000   0.7055181), wk =   0.1481481
        k(    3) = (   0.0000000   0.6269651  -0.3235286), wk =   0.1481481
        k(    4) = (   0.0000000   0.6269651   0.3819895), wk =   0.1481481
        k(    5) = (   0.0000000   0.6269651  -1.0290468), wk =   0.1481481
        k(    6) = (   0.3333333  -0.5310123  -0.3235286), wk =   0.1481481
        k(    7) = (   0.3333333  -0.5310123   0.3819895), wk =   0.1481481
        k(    8) = (   0.3333333  -0.5310123  -1.0290468), wk =   0.1481481
        k(    9) = (   0.3333333   0.0959527  -0.6470573), wk =   0.1481481
        k(   10) = (   0.3333333   0.0959527   0.0584608), wk =   0.1481481
        k(   11) = (   0.3333333   0.0959527  -1.3525754), wk =   0.1481481
        k(   12) = (   0.3333333  -1.1579774  -0.0000000), wk =   0.1481481
        k(   13) = (   0.3333333  -1.1579774   0.7055181), wk =   0.1481481
        k(   14) = (   0.3333333  -1.1579774  -0.7055181), wk =   0.1481481

                       cryst. coord.
        k(    1) = (   0.0000000   0.0000000   0.0000000), wk =   0.0740741
        k(    2) = (   0.0000000   0.0000000   0.3333333), wk =   0.1481481
        k(    3) = (   0.0000000   0.3333333   0.0000000), wk =   0.1481481
        k(    4) = (   0.0000000   0.3333333   0.3333333), wk =   0.1481481
        k(    5) = (   0.0000000   0.3333333  -0.3333333), wk =   0.1481481
        k(    6) = (   0.3333333  -0.0000000  -0.0000000), wk =   0.1481481
        k(    7) = (   0.3333333  -0.0000000   0.3333333), wk =   0.1481481
        k(    8) = (   0.3333333  -0.0000000  -0.3333333), wk =   0.1481481
        k(    9) = (   0.3333333   0.3333333   0.0000000), wk =   0.1481481
        k(   10) = (   0.3333333   0.3333333   0.3333333), wk =   0.1481481
        k(   11) = (   0.3333333   0.3333333  -0.3333333), wk =   0.1481481
        k(   12) = (   0.3333333  -0.3333333  -0.0000000), wk =   0.1481481
        k(   13) = (   0.3333333  -0.3333333   0.3333333), wk =   0.1481481
        k(   14) = (   0.3333333  -0.3333333  -0.3333333), wk =   0.1481481

     Check: negative core charge=   -0.000004

     Initial potential from superposition of free atoms

     starting charge      21.9995, renormalised to      22.0000
     Starting wfcs are   23 randomized atomic wfcs +   41 random wfcs

     Self-consistent Calculation

     iteration #  1     ecut=    30.00 Ry     beta= 0.70
     Davidson diagonalization with overlap

     ethr =  1.00E-02,  avg # of iterations =  5.8

     total energy              =    -125.13876165 Ry
     estimated scf accuracy    <       0.74934094 Ry

[...]

     total energy              =    -125.42724142 Ry
     estimated scf accuracy    <       0.00000519 Ry

     iteration #  7     ecut=    30.00 Ry     beta= 0.70
     Davidson diagonalization with overlap

     ethr =  2.36E-08,  avg # of iterations =  1.0

     End of self-consistent calculation

          k = 0.0000 0.0000 0.0000 (   665 PWs)   bands (ev):

   -90.3736 -90.1958 -88.9807  -8.0448  -5.8981   0.8061   7.2025   7.2025
     7.9159   8.3509   8.3509  14.2683  16.1025  16.6456  16.6456  19.1009
    19.9779  19.9779  20.7866  24.4374  24.4374  24.7492  28.0787  29.7012
    29.7012  30.7715  31.8123  31.8123  35.2251  35.2513  35.2513  37.2735
    39.2865  45.2415  45.2415  47.4452  48.3890  48.3890  50.4930  50.4930
    51.7250  52.7211  54.8448  54.8448  56.1276  60.4558  60.4559  62.0728
    65.4260  65.4260  65.7536  65.7536  68.3580  68.3580  68.8680  69.4227
    69.4227  71.0261  72.9269  73.2046  73.2046  73.7312  75.4486  75.9901

     occupation numbers
     1.0000   1.0000   1.0000   1.0000   1.0000   1.0000   1.0000   1.0000
     1.0000   1.0000   1.0000   0.0000   0.0000   0.0000   0.0000   0.0000
     0.0000   0.0000   0.0000   0.0000   0.0000   0.0000   0.0000   0.0000
     0.0000   0.0000   0.0000   0.0000   0.0000   0.0000   0.0000   0.0000
     0.0000   0.0000   0.0000   0.0000   0.0000   0.0000   0.0000   0.0000
     0.0000   0.0000   0.0000   0.0000   0.0000   0.0000   0.0000   0.0000
     0.0000   0.0000   0.0000   0.0000   0.0000   0.0000   0.0000   0.0000
     0.0000   0.0000   0.0000   0.0000   0.0000   0.0000   0.0000   0.0000

[...]

          k = 0.3333-1.1580-0.7055 (   640 PWs)   bands (ev):

   -90.3597 -90.1817 -88.9661  -6.2809  -5.6867   2.0363   3.9917   4.5921
     5.5281   6.5060   7.0657  12.6609  15.9941  17.7415  18.7188  19.1757
    20.9182  21.6004  22.2720  22.9950  25.2563  26.5963  27.6649  31.0825
    33.1136  33.4616  33.9578  35.2401  36.9632  38.2810  38.7226  40.5707
    41.4956  41.7678  43.7986  45.3622  47.2988  48.0268  49.2999  50.8100
    51.5664  52.8250  53.0040  55.0370  56.7772  58.0956  58.3450  59.3032
    59.5138  61.8624  62.6246  62.8977  63.6787  64.3447  65.7543  67.5551
    68.6911  69.9075  70.9112  71.0921  73.1226  73.1582  74.2172  74.7145

     occupation numbers
     1.0000   1.0000   1.0000   1.0000   1.0000   1.0000   1.0000   1.0000
     1.0000   1.0000   1.0000   0.0000   0.0000   0.0000   0.0000   0.0000
     0.0000   0.0000   0.0000   0.0000   0.0000   0.0000   0.0000   0.0000
     0.0000   0.0000   0.0000   0.0000   0.0000   0.0000   0.0000   0.0000
     0.0000   0.0000   0.0000   0.0000   0.0000   0.0000   0.0000   0.0000
     0.0000   0.0000   0.0000   0.0000   0.0000   0.0000   0.0000   0.0000
     0.0000   0.0000   0.0000   0.0000   0.0000   0.0000   0.0000   0.0000
     0.0000   0.0000   0.0000   0.0000   0.0000   0.0000   0.0000   0.0000

     highest occupied, lowest unoccupied level (ev):     8.3509   12.6609

!    total energy              =    -125.42724277 Ry
     estimated scf accuracy    <       0.00000035 Ry

     The total energy is the sum of the following terms:
     one-electron contribution =     -46.99230203 Ry
     hartree contribution      =      21.76814184 Ry
     xc contribution           =     -26.51704518 Ry
     ewald contribution        =     -73.68603741 Ry

     convergence has been achieved in   7 iterations

     Writing all to output data dir calculations_bands/myprefix.save/

     General routines

     Parallel routines

   This run was terminated on:  15:15:41   4Jun2023

   JOB DONE.