     Program PWSCF v.7.0 starts on  4Jun2023 at 16:22:13

     K-points division:     npool     =       2
     R & G space division:  proc/nbgrp/npool/nimage =       4

     Reading input from espresso_2535.pwi
Warning: card &CELL ignored
Warning: card / ignored

     Current dimensions of program PWSCF are:
     Max number of different atomic species (ntypx) = 10
     Max number of k-points (npk) =  40000
     Max angular momentum in pseudopotentials (lmaxx) =  4
     Message from routine setup:
     using ibrav=0 with symmetry is DISCOURAGED, use correct ibrav instead

     Using Slab Decomposition

     bravais-lattice index     =            0
     lattice parameter (alat)  =       6.9565  a.u.
     unit-cell volume          =     948.0187 (a.u.)^3
     number of atoms/cell      =            6
     number of atomic types    =            3
     number of electrons       =        86.00
     number of Kohn-Sham states=           64
     kinetic-energy cutoff     =      30.0000  Ry
     charge density cutoff     =     240.0000  Ry
     scf convergence threshold =      1.0E-06
     mixing beta               =       0.7000
     number of iterations used =            8  plain     mixing
     Exchange-correlation= PBE
                           (   1   4   3   4   0   0   0)

     celldm(1)=   6.956511  celldm(2)=   0.000000  celldm(3)=   0.000000
     celldm(4)=   0.000000  celldm(5)=   0.000000  celldm(6)=   0.000000

     crystal axes: (cart. coord. in units of alat)
               a(1) = (   1.000000   0.000000   0.000000 )
               a(2) = (  -0.500000   1.412348   0.000000 )
               a(3) = (   0.500000   0.271608   1.993888 )

     reciprocal axes: (cart. coord. in units 2 pi/alat)
               b(1) = (  1.000000  0.354021 -0.298991 )
               b(2) = (  0.000000  0.708041 -0.096450 )
               b(3) = (  0.000000  0.000000  0.501533 )

     PseudoPot. # 1 for Hf read from file:
     /home/pragov/projects/rrg-bengioy-ad/pragov/crystal_structure_design/SSSP/Hf-sp.oncvpsp.upf
     MD5 check sum: 417ed15784afe83d2e06dacf143de3f8
     Pseudo is Norm-conserving + core correction, Zval = 12.0
     Generated using ONCVPSP code by D. R. Hamann
     Using radial grid of 1656 points,  8 beta functions with:
                l(1) =   0
                l(2) =   0
                l(3) =   1
                l(4) =   1
                l(5) =   2
                l(6) =   2
                l(7) =   3
                l(8) =   3

     PseudoPot. # 2 for Sb read from file:
     /home/pragov/projects/rrg-bengioy-ad/pragov/crystal_structure_design/SSSP/sb_pbe_v1.4.uspp.F.UPF
     MD5 check sum: 9bc50dfb53373b713f5709b9110fe27f
     Pseudo is Ultrasoft + core correction, Zval = 15.0
     Generated by new atomic code, or converted to UPF format
     Using radial grid of  891 points,  6 beta functions with:
                l(1) =   0
                l(2) =   0
                l(3) =   1
                l(4) =   1
                l(5) =   2
                l(6) =   2
     Q(r) pseudized with  8 coefficients,  rinner =    1.350   1.350   1.350
                                                       1.350   1.350

     PseudoPot. # 3 for Mo read from file:
     /home/pragov/projects/rrg-bengioy-ad/pragov/crystal_structure_design/SSSP/Mo_ONCV_PBE-1.0.oncvpsp.upf
     MD5 check sum: 1b5d28e075c9ccadda658a603575cd1f
     Pseudo is Norm-conserving, Zval = 14.0
     Generated using ONCVPSP code by D. R. Hamann
     Using radial grid of 1526 points,  6 beta functions with:
                l(1) =   0
                l(2) =   0
                l(3) =   1
                l(4) =   1
                l(5) =   2
                l(6) =   2

     atomic species   valence    mass     pseudopotential
        Hf            12.00   178.49000     Hf( 1.00)
        Sb            15.00   121.76000     Sb( 1.00)
        Mo            14.00    95.95000     Mo( 1.00)

      2 Sym. Ops. (no inversion) found

                                    s                        frac. trans.

      isym =  1     identity

 cryst.   s( 1) = (     1          0          0      )
                  (     0          1          0      )
                  (     0          0          1      )

 cart.    s( 1) = (  1.0000000  0.0000000  0.0000000 )
                  (  0.0000000  1.0000000  0.0000000 )
                  (  0.0000000  0.0000000  1.0000000 )

      isym =  2     inv. 180 deg rotation - cart. axis [1,0,0]

 cryst.   s( 2) = (    -1          0          0      )
                  (     1          1          0      )
                  (    -1          0          1      )

 cart.    s( 2) = ( -1.0000000 -0.0000002  0.0000002 )
                  (  0.0000000  1.0000000  0.0000000 )
                  (  0.0000000  0.0000000  1.0000000 )

   Cartesian axes

     site n.     atom                  positions (alat units)
         1           Hf  tau(   1) = (  -0.0000000   1.4721695   1.6174163  )
         2           Sb  tau(   2) = (   0.5000000   1.2175813   1.0422573  )
         3           Sb  tau(   3) = (   0.5000000   0.4551206   0.9032175  )
         4           Sb  tau(   4) = (   1.0000001   0.6738340   1.7987625  )
         5           Sb  tau(   5) = (  -0.0000001   1.0206547   0.2395477  )
         6           Mo  tau(   6) = (   1.0000000   0.2125067   0.3804618  )

   Crystallographic axes

     site n.     atom                  positions (cryst. coord.)
         1           Hf  tau(   1) = (  0.0375850  0.8863570  0.8111870  )
         2           Sb  tau(   2) = (  0.6194230  0.7615720  0.5227260  )
         3           Sb  tau(   3) = (  0.3910680  0.2351290  0.4529930  )
         4           Sb  tau(   4) = (  0.7007370  0.3036120  0.9021380  )
         5           Sb  tau(   5) = (  0.2897100  0.6995610  0.1201410  )
         6           Mo  tau(   6) = (  0.9614770  0.1137680  0.1908140  )

     number of k points=    10
                       cart. coord. in units 2pi/alat
        k(    1) = (   0.0000000   0.0000000   0.0000000), wk =   0.0740741
        k(    2) = (   0.0000000   0.0000000   0.1671775), wk =   0.1481481
        k(    3) = (   0.0000000   0.2360136  -0.0321499), wk =   0.1481481
        k(    4) = (   0.0000000   0.2360136   0.1350276), wk =   0.1481481
        k(    5) = (   0.0000000   0.2360136  -0.1993274), wk =   0.1481481
        k(    6) = (   0.3333333   0.1180069  -0.0996637), wk =   0.2962963
        k(    7) = (   0.3333333   0.1180069   0.0675138), wk =   0.2962963
        k(    8) = (   0.3333333   0.1180069  -0.2668413), wk =   0.2962963
        k(    9) = (   0.3333333   0.3540205  -0.1318136), wk =   0.2962963
        k(   10) = (   0.3333333   0.3540205  -0.2989912), wk =   0.1481481

                       cryst. coord.
        k(    1) = (   0.0000000   0.0000000   0.0000000), wk =   0.0740741
        k(    2) = (   0.0000000   0.0000000   0.3333333), wk =   0.1481481
        k(    3) = (   0.0000000   0.3333333   0.0000000), wk =   0.1481481
        k(    4) = (   0.0000000   0.3333333   0.3333333), wk =   0.1481481
        k(    5) = (   0.0000000   0.3333333  -0.3333333), wk =   0.1481481
        k(    6) = (   0.3333333   0.0000000   0.0000000), wk =   0.2962963
        k(    7) = (   0.3333333   0.0000000   0.3333333), wk =   0.2962963
        k(    8) = (   0.3333333   0.0000000  -0.3333333), wk =   0.2962963
        k(    9) = (   0.3333333   0.3333333   0.0000000), wk =   0.2962963
        k(   10) = (   0.3333333   0.3333333  -0.3333333), wk =   0.1481481

     Check: negative core charge=   -0.000005

     Initial potential from superposition of free atoms

     starting charge      81.9971, renormalised to      86.0000
     Starting wfcs are   56 randomized atomic wfcs +    8 random wfcs

     Self-consistent Calculation

     iteration #  1     ecut=    30.00 Ry     beta= 0.70
     Davidson diagonalization with overlap

     ethr =  1.00E-02,  avg # of iterations =  5.9

     total energy              =    -988.31392382 Ry
     estimated scf accuracy    <       3.27338481 Ry

[...]

     total energy              =    -989.67475546 Ry
     estimated scf accuracy    <       0.00000563 Ry

     iteration # 11     ecut=    30.00 Ry     beta= 0.70
     Davidson diagonalization with overlap

     ethr =  6.55E-09,  avg # of iterations =  2.0

     End of self-consistent calculation

          k = 0.0000 0.0000 0.0000 (  2617 PWs)   bands (ev):

   -48.3203 -47.4788 -21.5643 -21.5571 -21.5245 -17.1214 -17.0614 -17.0191
   -15.4696 -15.4237 -15.3822 -15.3650 -15.3645 -15.3596 -15.3374 -15.3358
   -15.3141 -15.3070 -15.3054 -15.3028 -15.2913 -15.2741 -15.2524 -15.1001
   -15.0968 -15.0558 -15.0478 -15.0366   1.3096   3.1506   4.8028   6.1683
     8.2624   8.8597   9.5997  11.0123  11.7511  11.7962  11.9556  12.4861
    12.6354  13.1848  13.2203  14.5006  14.7693  15.3028  15.8730  16.5447
    16.5563  17.2415  17.4670  17.8773  17.9211  18.4730  18.6711  19.6179
    19.9283  20.2061  22.0515  22.7473  22.7795  23.3668  23.4469  23.8173

     occupation numbers
     1.0000   1.0000   1.0000   1.0000   1.0000   1.0000   1.0000   1.0000
     1.0000   1.0000   1.0000   1.0000   1.0000   1.0000   1.0000   1.0000
     1.0000   1.0000   1.0000   1.0000   1.0000   1.0000   1.0000   1.0000
     1.0000   1.0000   1.0000   1.0000   1.0000   1.0000   1.0000   1.0000
     1.0000   1.0000   1.0000   1.0000   1.0000   1.0000   1.0000   1.0000
     1.0000   1.0000   1.0000   0.0000   0.0000   0.0000   0.0000   0.0000
     0.0000   0.0000   0.0000   0.0000   0.0000   0.0000   0.0000   0.0000
     0.0000   0.0000   0.0000   0.0000   0.0000   0.0000   0.0000   0.0000

[...]

          k = 0.3333 0.3540-0.2990 (  2646 PWs)   bands (ev):

   -48.3294 -47.4772 -21.6022 -21.5544 -21.5228 -17.1221 -17.0939 -17.0625
   -15.5038 -15.4521 -15.3898 -15.3737 -15.3601 -15.3415 -15.3287 -15.3245
   -15.3193 -15.3157 -15.3074 -15.2999 -15.2772 -15.2617 -15.2553 -15.1031
   -15.0908 -15.0645 -15.0490 -15.0386   3.7947   3.9175   4.3215   4.5150
     8.2125   8.9886  10.2848  10.4602  10.8490  11.0862  11.2878  11.8365
    12.3484  12.7447  13.0773  13.9569  14.3515  14.6782  15.2779  15.6566
    16.7182  17.0237  17.6136  17.8018  18.2729  18.2956  19.4151  19.8155
    20.7378  21.1987  21.3739  21.7428  22.1012  23.2710  23.9149  24.4600

     occupation numbers
     1.0000   1.0000   1.0000   1.0000   1.0000   1.0000   1.0000   1.0000
     1.0000   1.0000   1.0000   1.0000   1.0000   1.0000   1.0000   1.0000
     1.0000   1.0000   1.0000   1.0000   1.0000   1.0000   1.0000   1.0000
     1.0000   1.0000   1.0000   1.0000   1.0000   1.0000   1.0000   1.0000
     1.0000   1.0000   1.0000   1.0000   1.0000   1.0000   1.0000   1.0000
     1.0000   1.0000   1.0000   0.0000   0.0000   0.0000   0.0000   0.0000
     0.0000   0.0000   0.0000   0.0000   0.0000   0.0000   0.0000   0.0000
     0.0000   0.0000   0.0000   0.0000   0.0000   0.0000   0.0000   0.0000

     highest occupied, lowest unoccupied level (ev):    13.5804   13.9569

!    total energy              =    -989.67475646 Ry
     estimated scf accuracy    <       0.00000056 Ry

     The total energy is the sum of the following terms:
     one-electron contribution =    -345.35008175 Ry
     hartree contribution      =     222.32262940 Ry
     xc contribution           =    -220.56459677 Ry
     ewald contribution        =    -646.08270735 Ry

     convergence has been achieved in  11 iterations

     Writing all to output data dir calculations_bands/myprefix.save/

     General routines

     Parallel routines

   This run was terminated on:  16:22:22   4Jun2023

   JOB DONE.