     Program PWSCF v.7.0 starts on  6Jun2023 at  7:14:13

     K-points division:     npool     =       2
     R & G space division:  proc/nbgrp/npool/nimage =       4

     Reading input from espresso_13903.pwi
Warning: card &CELL ignored
Warning: card / ignored

     Current dimensions of program PWSCF are:
     Max number of different atomic species (ntypx) = 10
     Max number of k-points (npk) =  40000
     Max angular momentum in pseudopotentials (lmaxx) =  4

     Using Slab Decomposition

     bravais-lattice index     =            0
     lattice parameter (alat)  =      15.5481  a.u.
     unit-cell volume          =    2658.5227 (a.u.)^3
     number of atoms/cell      =           10
     number of atomic types    =            3
     number of electrons       =        86.00
     number of Kohn-Sham states=           64
     kinetic-energy cutoff     =      30.0000  Ry
     charge density cutoff     =     240.0000  Ry
     scf convergence threshold =      1.0E-06
     mixing beta               =       0.7000
     number of iterations used =            8  plain     mixing
     Exchange-correlation=  SLA  PW   PBX  PBC
                           (   1   4   3   4   0   0   0)

     celldm(1)=  15.548060  celldm(2)=   0.000000  celldm(3)=   0.000000
     celldm(4)=   0.000000  celldm(5)=   0.000000  celldm(6)=   0.000000

     crystal axes: (cart. coord. in units of alat)
               a(1) = (   1.000000   0.000000   0.000000 )
               a(2) = (   0.499805   0.866138   0.000000 )
               a(3) = (   0.499805   0.288638   0.816629 )

     reciprocal axes: (cart. coord. in units 2 pi/alat)
               b(1) = (  1.000000 -0.577051 -0.408076 )
               b(2) = (  0.000000  1.154551 -0.408076 )
               b(3) = (  0.000000  0.000000  1.224546 )

     PseudoPot. # 1 for Rb read from file:
     /home/pragov/projects/rrg-bengioy-ad/pragov/crystal_structure_design/SSSP/Rb_ONCV_PBE-1.0.oncvpsp.upf
     MD5 check sum: 55a5172d6bfbce6759a58e35d43f6aa9
     Pseudo is Norm-conserving, Zval =  9.0
     Generated using ONCVPSP code by D. R. Hamann
     Using radial grid of 2308 points,  6 beta functions with:
                l(1) =   0
                l(2) =   0
                l(3) =   1
                l(4) =   1
                l(5) =   2
                l(6) =   2

     PseudoPot. # 2 for Tl read from file:
     /home/pragov/projects/rrg-bengioy-ad/pragov/crystal_structure_design/SSSP/Tl_pbe_v1.2.uspp.F.UPF
     MD5 check sum: b76cf1f7e72655a2b2c53cf6385d7059
     Pseudo is Ultrasoft + core correction, Zval = 13.0
     Generated by new atomic code, or converted to UPF format
     Using radial grid of  899 points,  6 beta functions with:
                l(1) =   0
                l(2) =   0
                l(3) =   1
                l(4) =   1
                l(5) =   2
                l(6) =   2
     Q(r) pseudized with  6 coefficients,  rinner =    1.100   1.100   1.100
                                                       1.100   1.100

     PseudoPot. # 3 for Br read from file:
     /home/pragov/projects/rrg-bengioy-ad/pragov/crystal_structure_design/SSSP/br_pbe_v1.4.uspp.F.UPF
     MD5 check sum: d3ffb7b29f6225aa16fe06858fb2a80b
     Pseudo is Ultrasoft + core correction, Zval =  7.0
     Generated by new atomic code, or converted to UPF format
     Using radial grid of  879 points,  6 beta functions with:
                l(1) =   0
                l(2) =   0
                l(3) =   1
                l(4) =   1
                l(5) =   2
                l(6) =   2
     Q(r) pseudized with  8 coefficients,  rinner =    1.100   1.100   1.100
                                                       1.100   1.100

     atomic species   valence    mass     pseudopotential
        Rb             9.00    85.46780     Rb( 1.00)
        Tl            13.00   204.38000     Tl( 1.00)
        Br             7.00    79.90400     Br( 1.00)

     No symmetry found

                                    s                        frac. trans.

      isym =  1     identity

 cryst.   s( 1) = (     1          0          0      )
                  (     0          1          0      )
                  (     0          0          1      )

 cart.    s( 1) = (  1.0000000  0.0000000 -0.0000000 )
                  (  0.0000000  1.0000000  0.0000000 )
                  (  0.0000000  0.0000000  1.0000000 )

   Cartesian axes

     site n.     atom                  positions (alat units)
         1           Rb  tau(   1) = (   1.4525213   0.8388311   0.5932009  )
         2           Rb  tau(   2) = (   0.4527159   0.2614435   0.1848864  )
         3           Tl  tau(   3) = (   1.9903866   1.1494484   0.8128618  )
         4           Tl  tau(   4) = (   0.9905812   0.5720607   0.4045474  )
         5           Br  tau(   5) = (   1.0024868   0.2427526   0.2620840  )
         6           Br  tau(   6) = (   0.7113055   0.4960261   0.6169272  )
         7           Br  tau(   7) = (   0.7851413   0.7043556   0.1415381  )
         8           Br  tau(   8) = (   1.2851413   0.6569221   0.2086128  )
         9           Br  tau(   9) = (   1.0022922   0.9053874   0.5498526  )
        10           Br  tau(  10) = (   1.2113055   0.4582125   0.6703985  )

   Crystallographic axes

     site n.     atom                  positions (cryst. coord.)
         1           Rb  tau(   1) = (  0.7264020  0.7264020  0.7264020  )
         2           Rb  tau(   2) = (  0.2264020  0.2264020  0.2264020  )
         3           Tl  tau(   3) = (  0.9953870  0.9953870  0.9953870  )
         4           Tl  tau(   4) = (  0.4953870  0.4953870  0.4953870  )
         5           Br  tau(   5) = (  0.7554560  0.1733200  0.3209340  )
         6           Br  tau(   6) = (  0.1733200  0.3209340  0.7554560  )
         7           Br  tau(   7) = (  0.3209340  0.7554560  0.1733200  )
         8           Br  tau(   8) = (  0.8209340  0.6733200  0.2554560  )
         9           Br  tau(   9) = (  0.2554560  0.8209340  0.6733200  )
        10           Br  tau(  10) = (  0.6733200  0.2554560  0.8209340  )

     number of k points=    14
                       cart. coord. in units 2pi/alat
        k(    1) = (   0.0000000   0.0000000   0.0000000), wk =   0.0740741
        k(    2) = (   0.0000000   0.0000000   0.4081821), wk =   0.1481481
        k(    3) = (   0.0000000   0.3848503  -0.1360254), wk =   0.1481481
        k(    4) = (   0.0000000   0.3848503   0.2721567), wk =   0.1481481
        k(    5) = (   0.0000000   0.3848503  -0.5442075), wk =   0.1481481
        k(    6) = (   0.3333333  -0.1923502  -0.1360254), wk =   0.1481481
        k(    7) = (   0.3333333  -0.1923502   0.2721567), wk =   0.1481481
        k(    8) = (   0.3333333  -0.1923502  -0.5442075), wk =   0.1481481
        k(    9) = (   0.3333333   0.1925000  -0.2720508), wk =   0.1481481
        k(   10) = (   0.3333333   0.1925000   0.1361313), wk =   0.1481481
        k(   11) = (   0.3333333   0.1925000  -0.6802329), wk =   0.1481481
        k(   12) = (   0.3333333  -0.5772005  -0.0000000), wk =   0.1481481
        k(   13) = (   0.3333333  -0.5772005   0.4081821), wk =   0.1481481
        k(   14) = (   0.3333333  -0.5772005  -0.4081821), wk =   0.1481481

                       cryst. coord.
        k(    1) = (   0.0000000   0.0000000   0.0000000), wk =   0.0740741
        k(    2) = (   0.0000000   0.0000000   0.3333333), wk =   0.1481481
        k(    3) = (   0.0000000   0.3333333  -0.0000000), wk =   0.1481481
        k(    4) = (   0.0000000   0.3333333   0.3333333), wk =   0.1481481
        k(    5) = (   0.0000000   0.3333333  -0.3333333), wk =   0.1481481
        k(    6) = (   0.3333333   0.0000000  -0.0000000), wk =   0.1481481
        k(    7) = (   0.3333333   0.0000000   0.3333333), wk =   0.1481481
        k(    8) = (   0.3333333   0.0000000  -0.3333333), wk =   0.1481481
        k(    9) = (   0.3333333   0.3333333  -0.0000000), wk =   0.1481481
        k(   10) = (   0.3333333   0.3333333   0.3333333), wk =   0.1481481
        k(   11) = (   0.3333333   0.3333333  -0.3333333), wk =   0.1481481
        k(   12) = (   0.3333333  -0.3333333   0.0000000), wk =   0.1481481
        k(   13) = (   0.3333333  -0.3333333   0.3333333), wk =   0.1481481
        k(   14) = (   0.3333333  -0.3333333  -0.3333333), wk =   0.1481481

     Check: negative core charge=   -0.000003

     Initial potential from superposition of free atoms

     starting charge      85.9406, renormalised to      86.0000

     negative rho (up, down):  1.015E-01 0.000E+00
     Starting wfcs are   52 randomized atomic wfcs +   12 random wfcs

     Self-consistent Calculation

     iteration #  1     ecut=    30.00 Ry     beta= 0.70
     Davidson diagonalization with overlap

     ethr =  1.00E-02,  avg # of iterations =  6.1

     Threshold (ethr) on eigenvalues was too large:
     Diagonalizing with lowered threshold

     Davidson diagonalization with overlap

[...]

     negative rho (up, down):  1.063E-01 0.000E+00

     total energy              =    -669.53870834 Ry
     estimated scf accuracy    <       0.24336325 Ry

[...]

     c_bands:  1 eigenvalues not converged
     c_bands:  1 eigenvalues not converged
     ethr =  1.22E-06,  avg # of iterations = 12.3

[...]

     total energy              =    -669.62887898 Ry
     estimated scf accuracy    <       0.00000149 Ry

     iteration #  8     ecut=    30.00 Ry     beta= 0.70
     Davidson diagonalization with overlap

     ethr =  1.73E-09,  avg # of iterations =  2.0

     negative rho (up, down):  1.072E-01 0.000E+00

     End of self-consistent calculation

          k = 0.0000 0.0000 0.0000 (  7391 PWs)   bands (ev):

   -23.3947 -23.3940 -11.5035 -11.2569 -11.2568 -11.2346 -11.2345 -11.2113
    -7.9922  -7.9922  -7.8556  -7.8535  -7.8535  -7.8452  -7.8406  -7.8406
    -7.7059  -7.7059  -7.4835  -7.4814  -7.4715  -7.4715  -7.4448  -7.4448
    -3.8475  -1.5018  -0.6989  -0.6989  -0.5539   0.3585   0.3839   0.3839
     0.8001   1.0606   1.0606   1.1248   1.1248   1.1681   1.1682   1.2437
     1.3939   1.3940   1.5655   4.1011   6.1542   6.1542   6.1589   6.3748
     7.8752   8.3552   8.3552   8.9842   8.9843   9.2343   9.3193   9.3193
     9.5695   9.6330  10.1001  10.1002  10.7296  10.7296  10.9606  11.2055

     occupation numbers
     1.0000   1.0000   1.0000   1.0000   1.0000   1.0000   1.0000   1.0000
     1.0000   1.0000   1.0000   1.0000   1.0000   1.0000   1.0000   1.0000
     1.0000   1.0000   1.0000   1.0000   1.0000   1.0000   1.0000   1.0000
     1.0000   1.0000   1.0000   1.0000   1.0000   1.0000   1.0000   1.0000
     1.0000   1.0000   1.0000   1.0000   1.0000   1.0000   1.0000   1.0000
     1.0000   1.0000   1.0000   0.0000   0.0000   0.0000   0.0000   0.0000
     0.0000   0.0000   0.0000   0.0000   0.0000   0.0000   0.0000   0.0000
     0.0000   0.0000   0.0000   0.0000   0.0000   0.0000   0.0000   0.0000

[...]

          k = 0.3333-0.5772-0.4082 (  7394 PWs)   bands (ev):

   -23.3943 -23.3943 -11.3780 -11.3741 -11.2477 -11.2425 -11.2358 -11.2356
    -7.9334  -7.9242  -7.8514  -7.8497  -7.8490  -7.8468  -7.8437  -7.8433
    -7.7847  -7.7733  -7.4795  -7.4792  -7.4626  -7.4586  -7.4566  -7.4516
    -2.9766  -2.9640  -0.4693  -0.2313  -0.0087   0.3205   0.3444   0.4175
     0.6311   0.7733   0.8860   1.0292   1.0335   1.0583   1.1065   1.1173
     1.1574   1.2996   2.5868   2.6836   6.7616   7.2264   7.2614   8.0905
     8.0966   8.4408   8.4991   8.8947   8.8969   9.0729   9.1180   9.1436
     9.3852   9.5921   9.8598   9.9288  10.0864  10.1725  10.2873  10.4017

     occupation numbers
     1.0000   1.0000   1.0000   1.0000   1.0000   1.0000   1.0000   1.0000
     1.0000   1.0000   1.0000   1.0000   1.0000   1.0000   1.0000   1.0000
     1.0000   1.0000   1.0000   1.0000   1.0000   1.0000   1.0000   1.0000
     1.0000   1.0000   1.0000   1.0000   1.0000   1.0000   1.0000   1.0000
     1.0000   1.0000   1.0000   1.0000   1.0000   1.0000   1.0000   1.0000
     1.0000   1.0000   1.0000   0.0000   0.0000   0.0000   0.0000   0.0000
     0.0000   0.0000   0.0000   0.0000   0.0000   0.0000   0.0000   0.0000
     0.0000   0.0000   0.0000   0.0000   0.0000   0.0000   0.0000   0.0000

     highest occupied, lowest unoccupied level (ev):     2.5868    2.6717

!    total energy              =    -669.62887934 Ry
     estimated scf accuracy    <       0.00000003 Ry

     The total energy is the sum of the following terms:
     one-electron contribution =    -177.80324046 Ry
     hartree contribution      =     126.53549615 Ry
     xc contribution           =    -295.94751205 Ry
     ewald contribution        =    -322.41362298 Ry

     convergence has been achieved in   8 iterations

     Writing all to output data dir calculations_bands/myprefix.save/

     General routines

     Parallel routines

   This run was terminated on:   7:14:38   6Jun2023

   JOB DONE.