     Program PWSCF v.7.0 starts on  4Jun2023 at 19:23:14

     K-points division:     npool     =       2
     R & G space division:  proc/nbgrp/npool/nimage =       4

     Reading input from espresso_5139.pwi
Warning: card &CELL ignored
Warning: card / ignored

     Current dimensions of program PWSCF are:
     Max number of different atomic species (ntypx) = 10
     Max number of k-points (npk) =  40000
     Max angular momentum in pseudopotentials (lmaxx) =  4
     file O.pbe-n-kjpaw_psl.0.1.UPF: wavefunction(s)  2P renormalized
     Message from routine setup:
     using ibrav=0 with symmetry is DISCOURAGED, use correct ibrav instead

     Using Slab Decomposition

     bravais-lattice index     =            0
     lattice parameter (alat)  =      19.3828  a.u.
     unit-cell volume          =    1905.1882 (a.u.)^3
     number of atoms/cell      =           18
     number of atomic types    =            4
     number of electrons       =       126.00
     number of Kohn-Sham states=           64
     kinetic-energy cutoff     =      30.0000  Ry
     charge density cutoff     =     240.0000  Ry
     scf convergence threshold =      1.0E-06
     mixing beta               =       0.7000
     number of iterations used =            8  plain     mixing
     Exchange-correlation= SLA  PW   PBX  PBC
                           (   1   4   3   4   0   0   0)

     celldm(1)=  19.382804  celldm(2)=   0.000000  celldm(3)=   0.000000
     celldm(4)=   0.000000  celldm(5)=   0.000000  celldm(6)=   0.000000

     crystal axes: (cart. coord. in units of alat)
               a(1) = (   1.000000   0.000000   0.000000 )
               a(2) = (   0.717687   0.696366   0.000000 )
               a(3) = (  -0.858843  -0.348183   0.375708 )

     reciprocal axes: (cart. coord. in units 2 pi/alat)
               b(1) = (  1.000000 -1.030617  1.330820 )
               b(2) = (  0.000000  1.436027  1.330820 )
               b(3) = (  0.000000  0.000000  2.661641 )

     PseudoPot. # 1 for Nd read from file:
     /home/pragov/projects/rrg-bengioy-ad/pragov/crystal_structure_design/SSSP/Nd.GGA-PBE-paw-v1.0.UPF
     MD5 check sum: 1d1e94942b6eb1cde76049b71bb7dcb0
     Pseudo is Projector augmented-wave + core cor, Zval = 14.0
     Generated using ATOMPAW code
     Shape of augmentation charge: BESSEL
     Using radial grid of 1105 points,  8 beta functions with:
                l(1) =   0
                l(2) =   0
                l(3) =   1
                l(4) =   1
                l(5) =   2
                l(6) =   2
                l(7) =   3
                l(8) =   3
     Q(r) pseudized with 0 coefficients

     PseudoPot. # 2 for Te read from file:
     /home/pragov/projects/rrg-bengioy-ad/pragov/crystal_structure_design/SSSP/Te_pbe_v1.uspp.F.UPF
     MD5 check sum: c319670d6894cc26e93307826a071b75
     Pseudo is Ultrasoft + core correction, Zval =  6.0
     Generated by new atomic code, or converted to UPF format
     Using radial grid of  891 points,  5 beta functions with:
                l(1) =   0
                l(2) =   0
                l(3) =   1
                l(4) =   1
                l(5) =   2
     Q(r) pseudized with  6 coefficients,  rinner =    1.800   1.800   1.800
                                                       1.800   1.800

     PseudoPot. # 3 for Br read from file:
     /home/pragov/projects/rrg-bengioy-ad/pragov/crystal_structure_design/SSSP/br_pbe_v1.4.uspp.F.UPF
     MD5 check sum: d3ffb7b29f6225aa16fe06858fb2a80b
     Pseudo is Ultrasoft + core correction, Zval =  7.0
     Generated by new atomic code, or converted to UPF format
     Using radial grid of  879 points,  6 beta functions with:
                l(1) =   0
                l(2) =   0
                l(3) =   1
                l(4) =   1
                l(5) =   2
                l(6) =   2
     Q(r) pseudized with  8 coefficients,  rinner =    1.100   1.100   1.100
                                                       1.100   1.100

     PseudoPot. # 4 for O  read from file:
     /home/pragov/projects/rrg-bengioy-ad/pragov/crystal_structure_design/SSSP/O.pbe-n-kjpaw_psl.0.1.UPF
     MD5 check sum: 0234752ac141de4415c5fc33072bef88
     Pseudo is Projector augmented-wave + core cor, Zval =  6.0
     Generated using "atomic" code by A. Dal Corso  v.5.0.99 svn rev. 10869
     Shape of augmentation charge: BESSEL
     Using radial grid of 1095 points,  4 beta functions with:
                l(1) =   0
                l(2) =   0
                l(3) =   1
                l(4) =   1
     Q(r) pseudized with 0 coefficients

     atomic species   valence    mass     pseudopotential
        Nd            14.00   144.24200     Nd( 1.00)
        Te             6.00   127.60000     Te( 1.00)
        Br             7.00    79.90400     Br( 1.00)
        O              6.00    15.99900     O ( 1.00)

      4 Sym. Ops., with inversion, found

                                    s                        frac. trans.

      isym =  1     identity

 cryst.   s( 1) = (     1          0          0      )
                  (     0          1          0      )
                  (     0          0          1      )

 cart.    s( 1) = (  1.0000000 -0.0000000 -0.0000000 )
                  (  0.0000000  1.0000000  0.0000000 )
                  (  0.0000000  0.0000000  1.0000000 )

      isym =  2     180 deg rotation - cart. axis [0,0,1]

[...]

      isym =  3     inversion

[...]

      isym =  4     inv. 180 deg rotation - cart. axis [0,0,1]

 cryst.   s( 4) = (     1          0          0      )
                  (     0          1          0      )
                  (    -1         -1         -1      )

 cart.    s( 4) = (  1.0000000 -0.0000000 -0.0000000 )
                  (  0.0000000  1.0000000 -0.0000000 )
                  (  0.0000000  0.0000000 -1.0000000 )

   Cartesian axes

     site n.     atom                  positions (alat units)
         1           Nd  tau(   1) = (   0.5000000   0.0000000   0.1878540  )
         2           Nd  tau(   2) = (   0.3588434   0.3481830   0.1878540  )
         3           Te  tau(   3) = (   1.4970208   0.6069059   0.0000000  )
         4           Te  tau(   4) = (   0.6760816   0.2740896   0.0000000  )
         5           Te  tau(   5) = (   0.2206661   0.0894600   0.0000000  )
         6           Te  tau(   6) = (   1.0416053   0.4222763   0.0000000  )
         7           Br  tau(   7) = (   0.0705783  -0.1740915   0.1878540  )
         8           Br  tau(   8) = (  -0.0705783   0.1740915   0.1878540  )
         9           O   tau(   9) = (   0.6534207   0.0756058   0.0000000  )
        10           O   tau(  10) = (  -0.2713335  -0.1100011   0.2002798  )
        11           O   tau(  11) = (   1.1301770   0.4581841   0.1754282  )
        12           O   tau(  12) = (   1.3214114   0.5357122   0.0000000  )
        13           O   tau(  13) = (   0.5875116   0.2381826   0.1754282  )
        14           O   tau(  14) = (   0.3962755   0.1606537   0.0000000  )
        15           O   tau(  15) = (   1.0642662   0.6207601   0.0000000  )
        16           O   tau(  16) = (   0.2713318   0.1100004   0.2002798  )
        17           O   tau(  17) = (   1.1960861   0.2956074   0.0000000  )
        18           O   tau(  18) = (   0.5216008   0.4007586   0.0000000  )

   Crystallographic axes

     site n.     atom                  positions (cryst. coord.)
         1           Nd  tau(   1) = (  0.7500000  0.2500000  0.5000000  )
         2           Nd  tau(   2) = (  0.2500000  0.7500000  0.5000000  )
         3           Te  tau(   3) = (  0.8715330  0.8715330  0.0000000  )
         4           Te  tau(   4) = (  0.3936000  0.3936000  0.0000000  )
         5           Te  tau(   5) = (  0.1284670  0.1284670  0.0000000  )
         6           Te  tau(   6) = (  0.6064000  0.6064000  0.0000000  )
         7           Br  tau(   7) = (  0.5000000  0.0000000  0.5000000  )
         8           Br  tau(   8) = (  0.0000000  0.5000000  0.5000000  )
         9           O   tau(   9) = (  0.5755000  0.1085720  0.0000000  )
        10           O   tau(  10) = (  0.1085720  0.1085720  0.5330730  )
        11           O   tau(  11) = (  0.8914280  0.8914280  0.4669270  )
        12           O   tau(  12) = (  0.7692970  0.7692970  0.0000000  )
        13           O   tau(  13) = (  0.5755000  0.5755000  0.4669270  )
        14           O   tau(  14) = (  0.2307030  0.2307030  0.0000000  )
        15           O   tau(  15) = (  0.4245000  0.8914280  0.0000000  )
        16           O   tau(  16) = (  0.4245000  0.4245000  0.5330730  )
        17           O   tau(  17) = (  0.8914280  0.4245000  0.0000000  )
        18           O   tau(  18) = (  0.1085720  0.5755000  0.0000000  )

     number of k points=    10
                       cart. coord. in units 2pi/alat
        k(    1) = (   0.0000000   0.0000000   0.0000000), wk =   0.0740741
        k(    2) = (   0.0000000   0.0000000   0.8872136), wk =   0.1481481
        k(    3) = (   0.0000000   0.4786755   0.4436068), wk =   0.2962963
        k(    4) = (   0.0000000   0.4786755   1.3308204), wk =   0.1481481
        k(    5) = (   0.3333333  -0.3435391   0.4436068), wk =   0.2962963
        k(    6) = (   0.3333333  -0.3435391   1.3308204), wk =   0.1481481
        k(    7) = (   0.3333333   0.1351364   0.8872136), wk =   0.2962963
        k(    8) = (   0.3333333   0.1351364  -0.0000000), wk =   0.1481481
        k(    9) = (   0.3333333  -0.8222146  -0.0000000), wk =   0.1481481
        k(   10) = (   0.3333333  -0.8222146   0.8872136), wk =   0.2962963

                       cryst. coord.
        k(    1) = (   0.0000000   0.0000000   0.0000000), wk =   0.0740741
        k(    2) = (   0.0000000   0.0000000   0.3333333), wk =   0.1481481
        k(    3) = (   0.0000000   0.3333333  -0.0000000), wk =   0.2962963
        k(    4) = (   0.0000000   0.3333333   0.3333333), wk =   0.1481481
        k(    5) = (   0.3333333  -0.0000000   0.0000000), wk =   0.2962963
        k(    6) = (   0.3333333  -0.0000000   0.3333333), wk =   0.1481481
        k(    7) = (   0.3333333   0.3333333   0.0000000), wk =   0.2962963
        k(    8) = (   0.3333333   0.3333333  -0.3333333), wk =   0.1481481
        k(    9) = (   0.3333333  -0.3333333   0.0000000), wk =   0.1481481
        k(   10) = (   0.3333333  -0.3333333   0.3333333), wk =   0.2962963

     Check: negative core charge=   -0.000005

     Initial potential from superposition of free atoms

     starting charge     125.9867, renormalised to     126.0000
     Starting wfcs are  128 randomized atomic wfcs
     Checking if some PAW data can be deallocated...

     Self-consistent Calculation

     iteration #  1     ecut=    30.00 Ry     beta= 0.70
     Davidson diagonalization with overlap

     ethr =  1.00E-02,  avg # of iterations =  1.5

     total energy              =   -1687.42786120 Ry
     estimated scf accuracy    <       5.66793746 Ry

[...]

     c_bands:  1 eigenvalues not converged
     c_bands:  2 eigenvalues not converged
     ethr =  3.11E-03,  avg # of iterations = 10.7

[...]

     ethr =  1.17E-09,  avg # of iterations =  3.1

     total energy              =   -1690.73994321 Ry
     estimated scf accuracy    <       0.00000844 Ry

     iteration # 61     ecut=    30.00 Ry     beta= 0.70
     Davidson diagonalization with overlap

     c_bands:  1 eigenvalues not converged
     c_bands:  1 eigenvalues not converged
     ethr =  1.17E-09,  avg # of iterations = 14.2

     End of self-consistent calculation

          k = 0.0000 0.0000 0.0000 (  5287 PWs)   bands (ev):

   -27.5425 -27.4824 -12.2650 -12.0709 -10.7411 -10.7411 -10.1825 -10.1824
    -9.8719  -9.4837  -9.2098  -9.1585  -8.7921  -8.6160  -8.6156  -8.2675
    -8.2488  -8.2485  -5.2226  -4.7416  -4.3552  -3.9684  -0.8511  -0.6788
     1.1760   1.1760   1.2108   1.2108   3.0991   3.2200   3.7640   3.8487
     3.8487   4.1694   4.2228   4.2229   4.7924   5.0140   5.1164   5.3720
     5.7665   5.8302   5.8658   5.8658   5.8871   6.0185   6.0186   6.3660
     6.3660   6.3774   6.3774   6.6966   6.7086   6.7086   7.0855   7.1907
     7.2012   7.4885   7.5927   7.5927   9.5286   9.5293   9.5856   9.6066

     occupation numbers
     1.0000   1.0000   1.0000   1.0000   1.0000   1.0000   1.0000   1.0000
     1.0000   1.0000   1.0000   1.0000   1.0000   1.0000   1.0000   1.0000
     1.0000   1.0000   1.0000   1.0000   1.0000   1.0000   1.0000   1.0000
     1.0000   1.0000   1.0000   1.0000   1.0000   1.0000   1.0000   1.0000
     1.0000   1.0000   1.0000   1.0000   1.0000   1.0000   1.0000   1.0000
     1.0000   1.0000   1.0000   1.0000   1.0000   1.0000   1.0000   1.0000
     1.0000   1.0000   1.0000   1.0000   1.0000   1.0000   1.0000   1.0000
     1.0000   1.0000   1.0000   1.0000   1.0000   1.0000   1.0000   0.0000

[...]

          k = 0.3333-0.8222 0.8872 (  5283 PWs)   bands (ev):

   -27.5270 -27.4969 -11.9365 -11.9034 -11.3680 -11.0156 -10.4827 -10.0173
    -9.7218  -9.4392  -9.3889  -9.3558  -8.5412  -8.3786  -8.3484  -8.3222
    -8.3020  -8.2402  -5.0910  -4.8493  -3.5742  -3.3604  -1.9697  -1.8198
     1.5610   1.7983   1.9841   1.9963   2.6300   3.0259   3.6165   3.7171
     3.7806   3.9386   4.2118   4.5480   4.5558   4.6520   4.8563   4.8984
     5.0644   5.2323   5.3982   5.7197   6.1394   6.2200   6.2886   6.3924
     6.3974   6.4445   6.8161   6.9193   6.9424   6.9820   7.0282   7.0631
     7.1100   7.2474   7.4156   7.7888   9.5648   9.5756   9.6087   9.6234

     occupation numbers
     1.0000   1.0000   1.0000   1.0000   1.0000   1.0000   1.0000   1.0000
     1.0000   1.0000   1.0000   1.0000   1.0000   1.0000   1.0000   1.0000
     1.0000   1.0000   1.0000   1.0000   1.0000   1.0000   1.0000   1.0000
     1.0000   1.0000   1.0000   1.0000   1.0000   1.0000   1.0000   1.0000
     1.0000   1.0000   1.0000   1.0000   1.0000   1.0000   1.0000   1.0000
     1.0000   1.0000   1.0000   1.0000   1.0000   1.0000   1.0000   1.0000
     1.0000   1.0000   1.0000   1.0000   1.0000   1.0000   1.0000   1.0000
     1.0000   1.0000   1.0000   1.0000   1.0000   1.0000   1.0000   0.0000

     highest occupied, lowest unoccupied level (ev):     9.6217    9.6066

!    total energy              =   -1690.73994283 Ry
     estimated scf accuracy    <       0.00000062 Ry

     The total energy is the sum of the following terms:
     one-electron contribution =    -422.28630825 Ry
     hartree contribution      =     300.43741670 Ry
     xc contribution           =    -212.37079741 Ry
     ewald contribution        =    -401.08529762 Ry
     one-center paw contrib.   =    -955.43495625 Ry
      -> PAW hartree energy AE =     159.11924212 Ry
      -> PAW hartree energy PS =    -158.34999774 Ry
      -> PAW xc energy AE      =    -885.71639921 Ry
      -> PAW xc energy PS      =      24.80897241 Ry
      -> total E_H with PAW    =     301.20666109 Ry
      -> total E_XC with PAW   =   -1073.27822421 Ry

     convergence has been achieved in  61 iterations

     Writing all to output data dir calculations_bands/myprefix.save/

     General routines

     Parallel routines

     PAW routines

   This run was terminated on:  19:36:48   4Jun2023

   JOB DONE.