     Program PWSCF v.7.0 starts on  7Jun2023 at  6:28:31

     K-points division:     npool     =       2
     R & G space division:  proc/nbgrp/npool/nimage =       4

     Reading input from espresso_4050.pwi
Warning: card &CELL ignored
Warning: card / ignored

     Current dimensions of program PWSCF are:
     Max number of different atomic species (ntypx) = 10
     Max number of k-points (npk) =  40000
     Max angular momentum in pseudopotentials (lmaxx) =  4
     file Mg.pbe-n-kjpaw_psl.0.3.0.UPF: wavefunction(s)  3S renormalized

     Using Slab Decomposition

     bravais-lattice index     =            0
     lattice parameter (alat)  =      12.4559  a.u.
     unit-cell volume          =    1025.0590 (a.u.)^3
     number of atoms/cell      =            6
     number of atomic types    =            2
     number of electrons       =        32.00
     number of Kohn-Sham states=           64
     kinetic-energy cutoff     =      30.0000  Ry
     charge density cutoff     =     240.0000  Ry
     scf convergence threshold =      1.0E-06
     mixing beta               =       0.7000
     number of iterations used =            8  plain     mixing
     Exchange-correlation= SLA  PW   PBX  PBC
                           (   1   4   3   4   0   0   0)

     celldm(1)=  12.455888  celldm(2)=   0.000000  celldm(3)=   0.000000
     celldm(4)=   0.000000  celldm(5)=   0.000000  celldm(6)=   0.000000

     crystal axes: (cart. coord. in units of alat)
               a(1) = (   1.000000   0.000000   0.000000 )
               a(2) = (   0.883676   0.468099   0.000000 )
               a(3) = (   0.364461   0.090570   1.133148 )

     reciprocal axes: (cart. coord. in units 2 pi/alat)
               b(1) = (  1.000000 -1.887796 -0.170749 )
               b(2) = (  0.000000  2.136299 -0.170749 )
               b(3) = (  0.000000  0.000000  0.882497 )

     PseudoPot. # 1 for Ce read from file:
     /home/pragov/projects/rrg-bengioy-ad/pragov/crystal_structure_design/SSSP/Ce.GGA-PBE-paw-v1.0.UPF
     MD5 check sum: f2b950f613061344c13339c8d844425d
     Pseudo is Projector augmented-wave + core cor, Zval = 12.0
     Generated using ATOMPAW code
     Shape of augmentation charge: BESSEL
     Using radial grid of 1102 points,  8 beta functions with:
                l(1) =   0
                l(2) =   0
                l(3) =   1
                l(4) =   1
                l(5) =   2
                l(6) =   2
                l(7) =   3
                l(8) =   3
     Q(r) pseudized with 0 coefficients

     PseudoPot. # 2 for Mg read from file:
     /home/pragov/projects/rrg-bengioy-ad/pragov/crystal_structure_design/SSSP/Mg.pbe-n-kjpaw_psl.0.3.0.UPF
     MD5 check sum: 24ecedc7f3e3cbe212e682f4413594e4
     Pseudo is Projector augmented-wave + core cor, Zval =  2.0
     Generated using "atomic" code by A. Dal Corso  v.5.0.99 svn rev. 10869
     Shape of augmentation charge: PSQ
     Using radial grid of 1129 points,  4 beta functions with:
                l(1) =   0
                l(2) =   0
                l(3) =   1
                l(4) =   1
     Q(r) pseudized with 0 coefficients

     atomic species   valence    mass     pseudopotential
        Ce            12.00   140.11600     Ce( 1.00)
        Mg             2.00    24.30500     Mg( 1.00)

     No symmetry found

                                    s                        frac. trans.

      isym =  1     identity

 cryst.   s( 1) = (     1          0          0      )
                  (     0          1          0      )
                  (     0          0          1      )

 cart.    s( 1) = (  1.0000000  0.0000000  0.0000000 )
                  (  0.0000000  1.0000000  0.0000000 )
                  (  0.0000000  0.0000000  1.0000000 )

   Cartesian axes

     site n.     atom                  positions (alat units)
         1           Ce  tau(   1) = (   1.2365415   0.3072844   0.3473133  )
         2           Ce  tau(   2) = (   2.0171915   0.5012784   0.6585778  )
         3           Mg  tau(   3) = (   2.2394445   0.5565090   1.1300480  )
         4           Mg  tau(   4) = (   0.7393534   0.1837316   0.3669111  )
         5           Mg  tau(   5) = (   1.5167118   0.3769076   0.7683935  )
         6           Mg  tau(   6) = (   0.8686145   0.2158534   1.0724897  )

   Crystallographic axes

     site n.     atom                  positions (cryst. coord.)
         1           Ce  tau(   1) = (  0.5971480  0.5971480  0.3065030  )
         2           Ce  tau(   2) = (  0.9584290  0.9584290  0.5811930  )
         3           Mg  tau(   3) = (  0.9959150  0.9959150  0.9972640  )
         4           Mg  tau(   4) = (  0.3298560  0.3298560  0.3237980  )
         5           Mg  tau(   5) = (  0.6739850  0.6739850  0.6781050  )
         6           Mg  tau(   6) = (  0.2780010  0.2780010  0.9464690  )

     number of k points=    14
                       cart. coord. in units 2pi/alat
        k(    1) = (   0.0000000   0.0000000   0.0000000), wk =   0.0740741
        k(    2) = (   0.0000000   0.0000000   0.2941657), wk =   0.1481481
        k(    3) = (   0.0000000   0.7120996  -0.0569163), wk =   0.1481481
        k(    4) = (   0.0000000   0.7120996   0.2372494), wk =   0.1481481
        k(    5) = (   0.0000000   0.7120996  -0.3510820), wk =   0.1481481
        k(    6) = (   0.3333333  -0.6292652  -0.0569163), wk =   0.1481481
        k(    7) = (   0.3333333  -0.6292652   0.2372494), wk =   0.1481481
        k(    8) = (   0.3333333  -0.6292652  -0.3510820), wk =   0.1481481
        k(    9) = (   0.3333333   0.0828344  -0.1138325), wk =   0.1481481
        k(   10) = (   0.3333333   0.0828344   0.1803331), wk =   0.1481481
        k(   11) = (   0.3333333   0.0828344  -0.4079982), wk =   0.1481481
        k(   12) = (   0.3333333  -1.3413648  -0.0000000), wk =   0.1481481
        k(   13) = (   0.3333333  -1.3413648   0.2941657), wk =   0.1481481
        k(   14) = (   0.3333333  -1.3413648  -0.2941657), wk =   0.1481481

                       cryst. coord.
        k(    1) = (   0.0000000   0.0000000   0.0000000), wk =   0.0740741
        k(    2) = (   0.0000000   0.0000000   0.3333333), wk =   0.1481481
        k(    3) = (   0.0000000   0.3333333   0.0000000), wk =   0.1481481
        k(    4) = (   0.0000000   0.3333333   0.3333333), wk =   0.1481481
        k(    5) = (   0.0000000   0.3333333  -0.3333333), wk =   0.1481481
        k(    6) = (   0.3333333  -0.0000000  -0.0000000), wk =   0.1481481
        k(    7) = (   0.3333333  -0.0000000   0.3333333), wk =   0.1481481
        k(    8) = (   0.3333333  -0.0000000  -0.3333333), wk =   0.1481481
        k(    9) = (   0.3333333   0.3333333  -0.0000000), wk =   0.1481481
        k(   10) = (   0.3333333   0.3333333   0.3333333), wk =   0.1481481
        k(   11) = (   0.3333333   0.3333333  -0.3333333), wk =   0.1481481
        k(   12) = (   0.3333333  -0.3333333  -0.0000000), wk =   0.1481481
        k(   13) = (   0.3333333  -0.3333333   0.3333333), wk =   0.1481481
        k(   14) = (   0.3333333  -0.3333333  -0.3333333), wk =   0.1481481

     Initial potential from superposition of free atoms

     starting charge      31.9823, renormalised to      32.0000
     Starting wfcs are   80 randomized atomic wfcs
     Checking if some PAW data can be deallocated...

     Self-consistent Calculation

     iteration #  1     ecut=    30.00 Ry     beta= 0.70
     Davidson diagonalization with overlap

     ethr =  1.00E-02,  avg # of iterations =  6.8

     total energy              =   -1091.68076716 Ry
     estimated scf accuracy    <       7.15800955 Ry

[...]

     total energy              =   -1098.52588827 Ry
     estimated scf accuracy    <       0.00000101 Ry

     iteration # 26     ecut=    30.00 Ry     beta= 0.70
     Davidson diagonalization with overlap

     ethr =  3.17E-09,  avg # of iterations =  2.1

     End of self-consistent calculation

          k = 0.0000 0.0000 0.0000 (  2821 PWs)   bands (ev):

   -27.4529 -26.5685 -11.3533 -10.1685  -9.3908  -9.3066  -8.3958  -8.1479
     1.6825   4.0030   4.1495   5.2873   5.3455   6.5691   7.2481   7.3635
     7.5443   7.6797   7.7718   7.7883   8.0029   8.0110   8.0667   8.1118
     8.1623   8.3593   8.4043   8.4834   8.4910   8.5563   8.6317   9.8255
     9.9405  10.5315  10.7553  11.6738  11.9269  12.2108  12.4395  13.5424
    14.3289  15.1689  15.4095  15.8341  16.7337  16.9613  16.9849  17.2098
    17.8099  17.8885  18.3215  19.1296  19.4316  19.8269  19.8573  20.1950
    20.3213  20.5454  20.7350  20.9506  21.4107  21.8434  22.5598  22.7093

     occupation numbers
     1.0000   1.0000   1.0000   1.0000   1.0000   1.0000   1.0000   1.0000
     1.0000   1.0000   1.0000   1.0000   1.0000   1.0000   1.0000   1.0000
     0.0000   0.0000   0.0000   0.0000   0.0000   0.0000   0.0000   0.0000
     0.0000   0.0000   0.0000   0.0000   0.0000   0.0000   0.0000   0.0000
     0.0000   0.0000   0.0000   0.0000   0.0000   0.0000   0.0000   0.0000
     0.0000   0.0000   0.0000   0.0000   0.0000   0.0000   0.0000   0.0000
     0.0000   0.0000   0.0000   0.0000   0.0000   0.0000   0.0000   0.0000
     0.0000   0.0000   0.0000   0.0000   0.0000   0.0000   0.0000   0.0000

[...]

          k = 0.3333-1.3414-0.2942 (  2846 PWs)   bands (ev):

   -27.0249 -26.5577 -11.3578 -11.2371  -9.7541  -9.3284  -9.2746  -8.4158
     4.0702   4.4397   5.5171   6.0047   6.5414   6.7016   6.9903   7.4179
     7.6549   7.7953   7.8205   7.9753   8.0324   8.0571   8.1298   8.1995
     8.2488   8.2950   8.4100   8.5010   8.5452   8.7377   9.1128   9.7695
     9.9437  10.1639  10.5567  11.0394  11.3592  11.7498  12.3603  12.6278
    13.1131  13.2740  13.5618  13.9585  15.0184  15.0896  15.4939  16.0209
    16.6898  17.1329  17.4348  18.1836  18.5149  19.2122  19.5366  19.8622
    20.5690  20.8243  21.3496  21.9248  22.4196  22.6992  23.0464  23.2794

     occupation numbers
     1.0000   1.0000   1.0000   1.0000   1.0000   1.0000   1.0000   1.0000
     1.0000   1.0000   1.0000   1.0000   1.0000   1.0000   1.0000   1.0000
     0.0000   0.0000   0.0000   0.0000   0.0000   0.0000   0.0000   0.0000
     0.0000   0.0000   0.0000   0.0000   0.0000   0.0000   0.0000   0.0000
     0.0000   0.0000   0.0000   0.0000   0.0000   0.0000   0.0000   0.0000
     0.0000   0.0000   0.0000   0.0000   0.0000   0.0000   0.0000   0.0000
     0.0000   0.0000   0.0000   0.0000   0.0000   0.0000   0.0000   0.0000
     0.0000   0.0000   0.0000   0.0000   0.0000   0.0000   0.0000   0.0000

     highest occupied, lowest unoccupied level (ev):     7.6692    7.5443

!    total energy              =   -1098.52588787 Ry

     total all-electron energy =     -2566.742723 Ry
     estimated scf accuracy    <       0.00000068 Ry

     The total energy is the sum of the following terms:
     one-electron contribution =     -87.83505399 Ry
     hartree contribution      =      59.06478872 Ry
     xc contribution           =     -27.19483038 Ry
     ewald contribution        =    -100.76402946 Ry
     one-center paw contrib.   =    -941.79676276 Ry
      -> PAW hartree energy AE =      45.22949113 Ry
      -> PAW hartree energy PS =     -44.94905361 Ry
      -> PAW xc energy AE      =    -417.27540489 Ry
      -> PAW xc energy PS      =       8.69933237 Ry
      -> total E_H with PAW    =      59.34522624 Ry
      -> total E_XC with PAW   =    -435.77090291 Ry

     convergence has been achieved in  26 iterations

     Writing all to output data dir calculations_bands/myprefix.save/

     General routines

     Parallel routines

     PAW routines

   This run was terminated on:   6:29:16   7Jun2023

   JOB DONE.