     Program PWSCF v.7.0 starts on  7Jun2023 at  5:58:58

     K-points division:     npool     =       2
     R & G space division:  proc/nbgrp/npool/nimage =       4

     Reading input from espresso_25089.pwi
Warning: card &CELL ignored
Warning: card / ignored

     Current dimensions of program PWSCF are:
     Max number of different atomic species (ntypx) = 10
     Max number of k-points (npk) =  40000
     Max angular momentum in pseudopotentials (lmaxx) =  4
     file O.pbe-n-kjpaw_psl.0.1.UPF: wavefunction(s)  2P renormalized
     Message from routine setup:
     using ibrav=0 with symmetry is DISCOURAGED, use correct ibrav instead

     Using Slab Decomposition

     bravais-lattice index     =            0
     lattice parameter (alat)  =      12.0781  a.u.
     unit-cell volume          =    1740.1210 (a.u.)^3
     number of atoms/cell      =           14
     number of atomic types    =            4
     number of electrons       =       126.00
     number of Kohn-Sham states=           64
     kinetic-energy cutoff     =      30.0000  Ry
     charge density cutoff     =     240.0000  Ry
     scf convergence threshold =      1.0E-06
     mixing beta               =       0.7000
     number of iterations used =            8  plain     mixing
     Exchange-correlation= SLA  PW   PBX  PBC
                           (   1   4   3   4   0   0   0)

     celldm(1)=  12.078088  celldm(2)=   0.000000  celldm(3)=   0.000000
     celldm(4)=   0.000000  celldm(5)=   0.000000  celldm(6)=   0.000000

     crystal axes: (cart. coord. in units of alat)
               a(1) = (   1.000000   0.000000   0.000000 )
               a(2) = (   0.325452   0.945559   0.000000 )
               a(3) = (   0.262050   0.186942   1.044471 )

     reciprocal axes: (cart. coord. in units 2 pi/alat)
               b(1) = (  1.000000 -0.344190 -0.189288 )
               b(2) = (  0.000000  1.057576 -0.189288 )
               b(3) = (  0.000000  0.000000  0.957422 )

     PseudoPot. # 1 for Gd read from file:
     /home/pragov/projects/rrg-bengioy-ad/pragov/crystal_structure_design/SSSP/Gd.GGA-PBE-paw-v1.0.UPF
     MD5 check sum: 3e8e0d208da550914ae52eaf991d13de
     Pseudo is Projector augmented-wave + core cor, Zval = 18.0
     Generated using ATOMPAW code
     Shape of augmentation charge: BESSEL
     Using radial grid of 1110 points,  8 beta functions with:
                l(1) =   0
                l(2) =   0
                l(3) =   1
                l(4) =   1
                l(5) =   2
                l(6) =   2
                l(7) =   3
                l(8) =   3
     Q(r) pseudized with 0 coefficients

     PseudoPot. # 2 for Mo read from file:
     /home/pragov/projects/rrg-bengioy-ad/pragov/crystal_structure_design/SSSP/Mo_ONCV_PBE-1.0.oncvpsp.upf
     MD5 check sum: 1b5d28e075c9ccadda658a603575cd1f
     Pseudo is Norm-conserving, Zval = 14.0
     Generated using ONCVPSP code by D. R. Hamann
     Using radial grid of 1526 points,  6 beta functions with:
                l(1) =   0
                l(2) =   0
                l(3) =   1
                l(4) =   1
                l(5) =   2
                l(6) =   2

     PseudoPot. # 3 for Cl read from file:
     /home/pragov/projects/rrg-bengioy-ad/pragov/crystal_structure_design/SSSP/cl_pbe_v1.4.uspp.F.UPF
     MD5 check sum: fc6f6913ecf08c9257cb748ef0700058
     Pseudo is Ultrasoft + core correction, Zval =  7.0
     Generated by new atomic code, or converted to UPF format
     Using radial grid of  909 points,  6 beta functions with:
                l(1) =   0
                l(2) =   0
                l(3) =   1
                l(4) =   1
                l(5) =   2
                l(6) =   2
     Q(r) pseudized with  8 coefficients,  rinner =    1.300   1.300   1.300
                                                       1.300   1.300

     PseudoPot. # 4 for O  read from file:
     /home/pragov/projects/rrg-bengioy-ad/pragov/crystal_structure_design/SSSP/O.pbe-n-kjpaw_psl.0.1.UPF
     MD5 check sum: 0234752ac141de4415c5fc33072bef88
     Pseudo is Projector augmented-wave + core cor, Zval =  6.0
     Generated using "atomic" code by A. Dal Corso  v.5.0.99 svn rev. 10869
     Shape of augmentation charge: BESSEL
     Using radial grid of 1095 points,  4 beta functions with:
                l(1) =   0
                l(2) =   0
                l(3) =   1
                l(4) =   1
     Q(r) pseudized with 0 coefficients

     atomic species   valence    mass     pseudopotential
        Gd            18.00   157.25000     Gd( 1.00)
        Mo            14.00    95.95000     Mo( 1.00)
        Cl             7.00    35.45000     Cl( 1.00)
        O              6.00    15.99900     O ( 1.00)

      2 Sym. Ops., with inversion, found

                                    s                        frac. trans.

      isym =  1     identity

 cryst.   s( 1) = (     1          0          0      )
                  (     0          1          0      )
                  (     0          0          1      )

 cart.    s( 1) = (  1.0000000  0.0000000 -0.0000000 )
                  (  0.0000000  1.0000000  0.0000000 )
                  (  0.0000000  0.0000000  1.0000000 )

      isym =  2     inversion

 cryst.   s( 2) = (    -1          0          0      )
                  (     0         -1          0      )
                  (     0          0         -1      )

 cart.    s( 2) = ( -1.0000000 -0.0000000  0.0000000 )
                  (  0.0000000 -1.0000000 -0.0000000 )
                  (  0.0000000  0.0000000 -1.0000000 )

   Cartesian axes

     site n.     atom                  positions (alat units)
         1           Gd  tau(   1) = (   1.0620265   0.7576349   0.1192170  )
         2           Gd  tau(   2) = (   0.5254746   0.3748663   0.9252540  )
         3           Mo  tau(   3) = (   0.5505142   0.3927292   0.2801543  )
         4           Mo  tau(   4) = (   1.0369869   0.7397720   0.7643167  )
         5           Cl  tau(   5) = (   1.5120858   1.0787010   0.8008168  )
         6           Cl  tau(   6) = (   0.0754153   0.0538002   0.2436542  )
         7           O   tau(   7) = (   1.0585700   0.7551691   0.4884385  )
         8           O   tau(   8) = (   0.5674870   0.1353993   0.1600735  )
         9           O   tau(   9) = (   0.5289311   0.3773321   0.5560325  )
        10           O   tau(  10) = (   1.0200141   0.9971019   0.8843975  )
        11           O   tau(  11) = (   1.2747836   0.6399748   0.8843975  )
        12           O   tau(  12) = (   0.8169551   0.5828044   0.8318898  )
        13           O   tau(  13) = (   0.3127175   0.4925264   0.1600735  )
        14           O   tau(  14) = (   0.7705461   0.5496968   0.2125812  )

   Crystallographic axes

     site n.     atom                  positions (cryst. coord.)
         1           Gd  tau(   1) = (  0.7786900  0.7786900  0.1141410  )
         2           Gd  tau(   2) = (  0.2213100  0.2213100  0.8858590  )
         3           Mo  tau(   3) = (  0.3623110  0.3623110  0.2682260  )
         4           Mo  tau(   4) = (  0.6376890  0.6376890  0.7317740  )
         5           Cl  tau(   5) = (  0.9892230  0.9892230  0.7667200  )
         6           Cl  tau(   6) = (  0.0107770  0.0107770  0.2332800  )
         7           O   tau(   7) = (  0.7061930  0.7061930  0.4676420  )
         8           O   tau(   8) = (  0.4905840  0.1128950  0.1532580  )
         9           O   tau(   9) = (  0.2938070  0.2938070  0.5323580  )
        10           O   tau(  10) = (  0.5094160  0.8871050  0.8467420  )
        11           O   tau(  11) = (  0.8871050  0.5094160  0.8467420  )
        12           O   tau(  12) = (  0.4588930  0.4588930  0.7964700  )
        13           O   tau(  13) = (  0.1128950  0.4905840  0.1532580  )
        14           O   tau(  14) = (  0.5411070  0.5411070  0.2035300  )

     number of k points=    14
                       cart. coord. in units 2pi/alat
        k(    1) = (   0.0000000   0.0000000   0.0000000), wk =   0.0740741
        k(    2) = (   0.0000000   0.0000000   0.3191408), wk =   0.1481481
        k(    3) = (   0.0000000   0.3525253  -0.0630960), wk =   0.1481481
        k(    4) = (   0.0000000   0.3525253   0.2560448), wk =   0.1481481
        k(    5) = (   0.0000000   0.3525253  -0.3822368), wk =   0.1481481
        k(    6) = (   0.3333333  -0.1147299  -0.0630960), wk =   0.1481481
        k(    7) = (   0.3333333  -0.1147299   0.2560448), wk =   0.1481481
        k(    8) = (   0.3333333  -0.1147299  -0.3822368), wk =   0.1481481
        k(    9) = (   0.3333333   0.2377954  -0.1261920), wk =   0.1481481
        k(   10) = (   0.3333333   0.2377954   0.1929488), wk =   0.1481481
        k(   11) = (   0.3333333   0.2377954  -0.4453328), wk =   0.1481481
        k(   12) = (   0.3333333  -0.4672552  -0.0000000), wk =   0.1481481
        k(   13) = (   0.3333333  -0.4672552   0.3191408), wk =   0.1481481
        k(   14) = (   0.3333333  -0.4672552  -0.3191408), wk =   0.1481481

                       cryst. coord.
        k(    1) = (   0.0000000   0.0000000   0.0000000), wk =   0.0740741
        k(    2) = (   0.0000000   0.0000000   0.3333333), wk =   0.1481481
        k(    3) = (   0.0000000   0.3333333   0.0000000), wk =   0.1481481
        k(    4) = (   0.0000000   0.3333333   0.3333333), wk =   0.1481481
        k(    5) = (   0.0000000   0.3333333  -0.3333333), wk =   0.1481481
        k(    6) = (   0.3333333  -0.0000000   0.0000000), wk =   0.1481481
        k(    7) = (   0.3333333  -0.0000000   0.3333333), wk =   0.1481481
        k(    8) = (   0.3333333  -0.0000000  -0.3333333), wk =   0.1481481
        k(    9) = (   0.3333333   0.3333333   0.0000000), wk =   0.1481481
        k(   10) = (   0.3333333   0.3333333   0.3333333), wk =   0.1481481
        k(   11) = (   0.3333333   0.3333333  -0.3333333), wk =   0.1481481
        k(   12) = (   0.3333333  -0.3333333   0.0000000), wk =   0.1481481
        k(   13) = (   0.3333333  -0.3333333   0.3333333), wk =   0.1481481
        k(   14) = (   0.3333333  -0.3333333  -0.3333333), wk =   0.1481481

     Check: negative core charge=   -0.000010

     Initial potential from superposition of free atoms

     starting charge     125.9877, renormalised to     126.0000

     negative rho (up, down):  2.934E-02 0.000E+00
     Starting wfcs are  124 randomized atomic wfcs
     Checking if some PAW data can be deallocated...

     Self-consistent Calculation

     iteration #  1     ecut=    30.00 Ry     beta= 0.70
     Davidson diagonalization with overlap

     ethr =  1.00E-02,  avg # of iterations =  2.0

     negative rho (up, down):  2.987E-02 0.000E+00

     total energy              =   -2038.30000817 Ry
     estimated scf accuracy    <       5.02440460 Ry

[...]

     c_bands:  2 eigenvalues not converged
     ethr =  4.26E-06,  avg # of iterations = 11.1

[...]

     total energy              =   -2041.89787341 Ry
     estimated scf accuracy    <       0.00000181 Ry

     iteration # 74     ecut=    30.00 Ry     beta= 0.70
     Davidson diagonalization with overlap

     ethr =  8.61E-10,  avg # of iterations =  9.8

     negative rho (up, down):  2.943E-02 0.000E+00

     End of self-consistent calculation

          k = 0.0000 0.0000 0.0000 (  4849 PWs)   bands (ev):

   -56.5550 -56.5547 -36.0502 -36.0437 -30.8908 -30.8902 -30.8413 -30.8340
   -30.7864 -30.7861 -14.5424 -14.2081 -14.2078 -14.1558 -14.1065 -14.1004
   -12.3646 -12.0660 -11.6448 -11.5514 -11.4874 -11.4676 -11.3957 -11.3098
    -7.8997  -7.7072   0.0960   0.3498   0.4033   0.6399   0.7696   0.7789
     0.8509   0.9988   1.1345   1.2278   1.2609   1.9666   2.0146   2.3617
     2.5643   2.8927   2.9845   3.0465   3.1860   3.2426   3.4397   3.5015
     3.5449   3.7287   3.8425   3.9345   4.3134   4.3723   4.5110   4.6601
     5.5175   5.5402   5.5520   5.5768   5.6276   5.6323   5.6395   5.6469

     occupation numbers
     1.0000   1.0000   1.0000   1.0000   1.0000   1.0000   1.0000   1.0000
     1.0000   1.0000   1.0000   1.0000   1.0000   1.0000   1.0000   1.0000
     1.0000   1.0000   1.0000   1.0000   1.0000   1.0000   1.0000   1.0000
     1.0000   1.0000   1.0000   1.0000   1.0000   1.0000   1.0000   1.0000
     1.0000   1.0000   1.0000   1.0000   1.0000   1.0000   1.0000   1.0000
     1.0000   1.0000   1.0000   1.0000   1.0000   1.0000   1.0000   1.0000
     1.0000   1.0000   1.0000   1.0000   1.0000   1.0000   1.0000   1.0000
     1.0000   1.0000   1.0000   1.0000   1.0000   1.0000   1.0000   0.0000

[...]

          k = 0.3333-0.4673-0.3191 (  4821 PWs)   bands (ev):

   -56.5550 -56.5546 -36.0478 -36.0462 -30.8904 -30.8900 -30.8411 -30.8339
   -30.7865 -30.7859 -14.5203 -14.3525 -14.2140 -14.1444 -14.1309 -14.0313
   -12.0823 -11.9361 -11.7521 -11.7058 -11.5141 -11.4937 -11.4229 -11.2976
    -7.8698  -7.7569   0.1011   0.1838   0.3186   0.5870   0.6217   0.7510
     0.8319   1.0647   1.1527   1.4624   1.7658   1.9886   2.3446   2.5799
     2.6857   2.7505   2.8625   3.0265   3.2246   3.2425   3.3901   3.4695
     3.5427   3.6327   3.7854   3.8413   4.1078   4.2412   4.2969   4.3419
     5.5354   5.5674   5.5930   5.6013   5.6127   5.6364   5.6427   5.6745

     occupation numbers
     1.0000   1.0000   1.0000   1.0000   1.0000   1.0000   1.0000   1.0000
     1.0000   1.0000   1.0000   1.0000   1.0000   1.0000   1.0000   1.0000
     1.0000   1.0000   1.0000   1.0000   1.0000   1.0000   1.0000   1.0000
     1.0000   1.0000   1.0000   1.0000   1.0000   1.0000   1.0000   1.0000
     1.0000   1.0000   1.0000   1.0000   1.0000   1.0000   1.0000   1.0000
     1.0000   1.0000   1.0000   1.0000   1.0000   1.0000   1.0000   1.0000
     1.0000   1.0000   1.0000   1.0000   1.0000   1.0000   1.0000   1.0000
     1.0000   1.0000   1.0000   1.0000   1.0000   1.0000   1.0000   0.0000

     highest occupied, lowest unoccupied level (ev):     5.6555    5.6469

!    total energy              =   -2041.89787507 Ry
     estimated scf accuracy    <       0.00000061 Ry

     The total energy is the sum of the following terms:
     one-electron contribution =    -649.08083781 Ry
     hartree contribution      =     381.17634585 Ry
     xc contribution           =    -154.01561275 Ry
     ewald contribution        =    -611.82834516 Ry
     one-center paw contrib.   =   -1008.14942520 Ry
      -> PAW hartree energy AE =     362.50335909 Ry
      -> PAW hartree energy PS =    -343.64209639 Ry
      -> PAW xc energy AE      =    -993.18468660 Ry
      -> PAW xc energy PS      =      42.40639686 Ry
      -> total E_H with PAW    =     400.03760855 Ry
      -> total E_XC with PAW   =   -1104.79390250 Ry

     convergence has been achieved in  74 iterations

     Writing all to output data dir calculations_bands/myprefix.save/

     General routines

     Parallel routines

     PAW routines

   This run was terminated on:   6: 1:59   7Jun2023

   JOB DONE.