     Program PWSCF v.7.0 starts on  7Jun2023 at 12: 1:15

     K-points division:     npool     =       2
     R & G space division:  proc/nbgrp/npool/nimage =       4

     Reading input from espresso_8750.pwi
Warning: card &CELL ignored
Warning: card / ignored

     Current dimensions of program PWSCF are:
     Max number of different atomic species (ntypx) = 10
     Max number of k-points (npk) =  40000
     Max angular momentum in pseudopotentials (lmaxx) =  4
     file K.pbe-spn-kjpaw_psl.1.0.0.UPF: wavefunction(s)  3S renormalized
     file Cd.pbe-dn-rrkjus_psl.0.3.1.UPF: wavefunction(s)  4D renormalized
     file O.pbe-n-kjpaw_psl.0.1.UPF: wavefunction(s)  2P renormalized
     Message from routine setup:
     using ibrav=0 with symmetry is DISCOURAGED, use correct ibrav instead

     Using Slab Decomposition

     bravais-lattice index     =            0
     lattice parameter (alat)  =      11.4225  a.u.
     unit-cell volume          =    1757.7475 (a.u.)^3
     number of atoms/cell      =           19
     number of atomic types    =            5
     number of electrons       =       122.00
     number of Kohn-Sham states=           64
     kinetic-energy cutoff     =      30.0000  Ry
     charge density cutoff     =     240.0000  Ry
     scf convergence threshold =      1.0E-06
     mixing beta               =       0.7000
     number of iterations used =            8  plain     mixing
     Exchange-correlation= SLA  PW   PBX  PBC
                           (   1   4   3   4   0   0   0)

     celldm(1)=  11.422518  celldm(2)=   0.000000  celldm(3)=   0.000000
     celldm(4)=   0.000000  celldm(5)=   0.000000  celldm(6)=   0.000000

     crystal axes: (cart. coord. in units of alat)
               a(1) = (   1.000000   0.000000   0.000000 )
               a(2) = (  -0.366022   1.012774   0.000000 )
               a(3) = (  -0.144470  -0.514355   1.164551 )

     reciprocal axes: (cart. coord. in units 2 pi/alat)
               b(1) = (  1.000000  0.361405  0.283681 )
               b(2) = (  0.000000  0.987387  0.436106 )
               b(3) = (  0.000000  0.000000  0.858700 )

     PseudoPot. # 1 for K  read from file:
     /home/pragov/projects/rrg-bengioy-ad/pragov/crystal_structure_design/SSSP/K.pbe-spn-kjpaw_psl.1.0.0.UPF
     MD5 check sum: 7d58810084cac21f60fbe77ea2b688fd
     Pseudo is Projector augmented-wave + core cor, Zval =  9.0
     Generated using "atomic" code by A. Dal Corso  v.5.1
     Shape of augmentation charge: PSQ
     Using radial grid of 1165 points,  6 beta functions with:
                l(1) =   0
                l(2) =   0
                l(3) =   1
                l(4) =   1
                l(5) =   2
                l(6) =   2
     Q(r) pseudized with 0 coefficients

     PseudoPot. # 2 for Cr read from file:
     /home/pragov/projects/rrg-bengioy-ad/pragov/crystal_structure_design/SSSP/cr_pbe_v1.5.uspp.F.UPF
     MD5 check sum: 0d52af634a40206e4dee301ad30da4bf
     Pseudo is Ultrasoft + core correction, Zval = 14.0
     Generated by new atomic code, or converted to UPF format
     Using radial grid of  857 points,  6 beta functions with:
                l(1) =   0
                l(2) =   0
                l(3) =   1
                l(4) =   1
                l(5) =   2
                l(6) =   2
     Q(r) pseudized with  8 coefficients,  rinner =    0.950   0.950   0.950
                                                       0.950   0.950

     PseudoPot. # 3 for Cd read from file:
     /home/pragov/projects/rrg-bengioy-ad/pragov/crystal_structure_design/SSSP/Cd.pbe-dn-rrkjus_psl.0.3.1.UPF
     MD5 check sum: 558e9f355611b531a870a69ef6ace9e2
     Pseudo is Ultrasoft + core correction, Zval = 12.0
     Generated using "atomic" code by A. Dal Corso  v.5.0.99 svn rev. 10869
     Using radial grid of 1239 points,  6 beta functions with:
                l(1) =   0
                l(2) =   0
                l(3) =   1
                l(4) =   1
                l(5) =   2
                l(6) =   2
     Q(r) pseudized with 0 coefficients

     PseudoPot. # 4 for H  read from file:
     /home/pragov/projects/rrg-bengioy-ad/pragov/crystal_structure_design/SSSP/H.pbe-rrkjus_psl.1.0.0.UPF
     MD5 check sum: f52b6d4d1c606e5624b1dc7b2218f220
     Pseudo is Ultrasoft, Zval =  1.0
     Generated using "atomic" code by A. Dal Corso  v.5.1
     Using radial grid of  929 points,  2 beta functions with:
                l(1) =   0
                l(2) =   0
     Q(r) pseudized with 0 coefficients

     PseudoPot. # 5 for O  read from file:
     /home/pragov/projects/rrg-bengioy-ad/pragov/crystal_structure_design/SSSP/O.pbe-n-kjpaw_psl.0.1.UPF
     MD5 check sum: 0234752ac141de4415c5fc33072bef88
     Pseudo is Projector augmented-wave + core cor, Zval =  6.0
     Generated using "atomic" code by A. Dal Corso  v.5.0.99 svn rev. 10869
     Shape of augmentation charge: BESSEL
     Using radial grid of 1095 points,  4 beta functions with:
                l(1) =   0
                l(2) =   0
                l(3) =   1
                l(4) =   1
     Q(r) pseudized with 0 coefficients

     atomic species   valence    mass     pseudopotential
        K              9.00    39.09830     K ( 1.00)
        Cr            14.00    51.99610     Cr( 1.00)
        Cd            12.00   112.41400     Cd( 1.00)
        H              1.00     1.00800     H ( 1.00)
        O              6.00    15.99900     O ( 1.00)

      2 Sym. Ops., with inversion, found

                                    s                        frac. trans.

      isym =  1     identity

 cryst.   s( 1) = (     1          0          0      )
                  (     0          1          0      )
                  (     0          0          1      )

 cart.    s( 1) = (  1.0000000  0.0000000 -0.0000000 )
                  (  0.0000000  1.0000000 -0.0000000 )
                  (  0.0000000  0.0000000  1.0000000 )

      isym =  2     inversion

 cryst.   s( 2) = (    -1          0          0      )
                  (     0         -1          0      )
                  (     0          0         -1      )

 cart.    s( 2) = ( -1.0000000 -0.0000000  0.0000000 )
                  (  0.0000000 -1.0000000  0.0000000 )
                  (  0.0000000  0.0000000 -1.0000000 )

   Cartesian axes

     site n.     atom                  positions (alat units)
         1           K   tau(   1) = (   0.0582454   0.5886945   0.2843495  )
         2           K   tau(   2) = (   0.4312631  -0.0902759   0.8802012  )
         3           Cr  tau(   3) = (   0.5137781   0.2301555   0.2797286  )
         4           Cr  tau(   4) = (  -0.0242695   0.2682631   0.8848222  )
         5           Cd  tau(   5) = (   0.0000000   0.0000000   0.0000000  )
         6           H   tau(   6) = (   0.0173287  -0.0774101   0.4664247  )
         7           H   tau(   7) = (   0.4721798   0.5758287   0.6981261  )
         8           H   tau(   8) = (   0.5789624   0.6996684   0.3653685  )
         9           H   tau(   9) = (  -0.0894539  -0.2012497   0.7991823  )
        10           O   tau(  10) = (  -0.3330693   0.8368133   0.3348549  )
        11           O   tau(  11) = (   0.5202691   0.0047513   0.4285232  )
        12           O   tau(  12) = (  -0.0307606   0.4936674   0.7360275  )
        13           O   tau(  13) = (   0.4767373   0.4531965   0.4419098  )
        14           O   tau(  14) = (   0.0127712   0.0452221   0.7226410  )
        15           O   tau(  15) = (   0.3013441   0.2225405   0.1000337  )
        16           O   tau(  16) = (   0.1881644   0.2758781   1.0645170  )
        17           O   tau(  17) = (   0.7520063   0.2602006   0.1382077  )
        18           O   tau(  18) = (  -0.2624978   0.2382180   1.0263431  )
        19           O   tau(  19) = (   0.8225779  -0.3383947   0.8296958  )

   Crystallographic axes

     site n.     atom                  positions (cryst. coord.)
         1           K   tau(   1) = (  0.3516670  0.7052760  0.2441710  )
         2           K   tau(   2) = (  0.6483330  0.2947240  0.7558290  )
         3           Cr  tau(   3) = (  0.6763110  0.3492440  0.2402030  )
         4           Cr  tau(   4) = (  0.3236890  0.6507560  0.7597970  )
         5           Cd  tau(   5) = (  0.0000000  0.0000000  0.0000000  )
         6           H   tau(   6) = (  0.1216680  0.1269770  0.4005190  )
         7           H   tau(   7) = (  0.8783320  0.8730230  0.5994810  )
         8           H   tau(   8) = (  0.9354740  0.8501830  0.3137420  )
         9           H   tau(   9) = (  0.0645260  0.1498170  0.6862580  )
        10           O   tau(  10) = (  0.0643510  0.9722910  0.2875400  )
        11           O   tau(  11) = (  0.6435500  0.1915730  0.3679730  )
        12           O   tau(  12) = (  0.3564500  0.8084270  0.6320270  )
        13           O   tau(  13) = (  0.7658860  0.6402000  0.3794680  )
        14           O   tau(  14) = (  0.2341140  0.3598000  0.6205320  )
        15           O   tau(  15) = (  0.4101490  0.2633590  0.0858990  )
        16           O   tau(  16) = (  0.5898510  0.7366410  0.9141010  )
        17           O   tau(  17) = (  0.8852510  0.3171920  0.1186790  )
        18           O   tau(  18) = (  0.1147490  0.6828080  0.8813210  )
        19           O   tau(  19) = (  0.9356490  0.0277090  0.7124600  )

     number of k points=    14
                       cart. coord. in units 2pi/alat
        k(    1) = (   0.0000000   0.0000000   0.0000000), wk =   0.0740741
        k(    2) = (   0.0000000   0.0000000   0.2862334), wk =   0.1481481
        k(    3) = (   0.0000000   0.3291290   0.1453688), wk =   0.1481481
        k(    4) = (   0.0000000   0.3291290   0.4316022), wk =   0.1481481
        k(    5) = (   0.0000000   0.3291290  -0.1408646), wk =   0.1481481
        k(    6) = (   0.3333333   0.1204683   0.0945602), wk =   0.1481481
        k(    7) = (   0.3333333   0.1204683   0.3807936), wk =   0.1481481
        k(    8) = (   0.3333333   0.1204683  -0.1916732), wk =   0.1481481
        k(    9) = (   0.3333333   0.4495974   0.2399290), wk =   0.1481481
        k(   10) = (   0.3333333   0.4495974   0.5261624), wk =   0.1481481
        k(   11) = (   0.3333333   0.4495974  -0.0463044), wk =   0.1481481
        k(   12) = (   0.3333333  -0.2086607  -0.0508085), wk =   0.1481481
        k(   13) = (   0.3333333  -0.2086607   0.2354249), wk =   0.1481481
        k(   14) = (   0.3333333  -0.2086607  -0.3370419), wk =   0.1481481

                       cryst. coord.
        k(    1) = (   0.0000000   0.0000000   0.0000000), wk =   0.0740741
        k(    2) = (   0.0000000   0.0000000   0.3333333), wk =   0.1481481
        k(    3) = (   0.0000000   0.3333333  -0.0000000), wk =   0.1481481
        k(    4) = (   0.0000000   0.3333333   0.3333333), wk =   0.1481481
        k(    5) = (   0.0000000   0.3333333  -0.3333333), wk =   0.1481481
        k(    6) = (   0.3333333   0.0000000  -0.0000000), wk =   0.1481481
        k(    7) = (   0.3333333   0.0000000   0.3333333), wk =   0.1481481
        k(    8) = (   0.3333333   0.0000000  -0.3333333), wk =   0.1481481
        k(    9) = (   0.3333333   0.3333333  -0.0000000), wk =   0.1481481
        k(   10) = (   0.3333333   0.3333333   0.3333333), wk =   0.1481481
        k(   11) = (   0.3333333   0.3333333  -0.3333333), wk =   0.1481481
        k(   12) = (   0.3333333  -0.3333333   0.0000000), wk =   0.1481481
        k(   13) = (   0.3333333  -0.3333333   0.3333333), wk =   0.1481481
        k(   14) = (   0.3333333  -0.3333333  -0.3333333), wk =   0.1481481

     Check: negative core charge=   -0.000013

     Initial potential from superposition of free atoms

     starting charge     119.9574, renormalised to     122.0000

     negative rho (up, down):  6.160E-04 0.000E+00
     Starting wfcs are   89 randomized atomic wfcs
     Checking if some PAW data can be deallocated...

     Self-consistent Calculation

     iteration #  1     ecut=    30.00 Ry     beta= 0.70
     Davidson diagonalization with overlap

     ethr =  1.00E-02,  avg # of iterations =  2.0

     negative rho (up, down):  7.560E-03 0.000E+00

     total energy              =   -1118.33980469 Ry
     estimated scf accuracy    <       3.94002362 Ry

[...]

     total energy              =   -1120.68060014 Ry
     estimated scf accuracy    <       0.00000205 Ry

     iteration # 13     ecut=    30.00 Ry     beta= 0.70
     Davidson diagonalization with overlap

     ethr =  1.68E-09,  avg # of iterations =  4.9

     negative rho (up, down):  3.808E-03 0.000E+00

     End of self-consistent calculation

          k = 0.0000 0.0000 0.0000 (  4867 PWs)   bands (ev):

   -69.4612 -69.4612 -40.8873 -40.8864 -40.8283 -40.8272 -40.8108 -40.8106
   -24.6742 -24.6670 -16.7669 -16.5591 -14.1460 -14.0725 -13.7173 -13.6987
   -13.6309 -13.6257 -13.5752 -13.5514  -8.2093  -8.1925  -8.1886  -8.1743
    -8.1571  -8.1407  -4.5745  -4.5432  -3.8569  -3.4846  -3.1604  -3.1441
    -2.9771  -2.2117  -1.5234  -1.0309  -0.8418  -0.8152  -0.6658  -0.6119
    -0.5706  -0.5322  -0.5058  -0.3353  -0.2934  -0.1182  -0.0967   0.5232
     0.8041   0.9089   1.0613   1.1384   1.1442   1.2510   1.5320   1.8727
     2.0264   2.0605   2.2232   2.2315   2.3925   5.0868   5.2806   5.3451

     occupation numbers
     1.0000   1.0000   1.0000   1.0000   1.0000   1.0000   1.0000   1.0000
     1.0000   1.0000   1.0000   1.0000   1.0000   1.0000   1.0000   1.0000
     1.0000   1.0000   1.0000   1.0000   1.0000   1.0000   1.0000   1.0000
     1.0000   1.0000   1.0000   1.0000   1.0000   1.0000   1.0000   1.0000
     1.0000   1.0000   1.0000   1.0000   1.0000   1.0000   1.0000   1.0000
     1.0000   1.0000   1.0000   1.0000   1.0000   1.0000   1.0000   1.0000
     1.0000   1.0000   1.0000   1.0000   1.0000   1.0000   1.0000   1.0000
     1.0000   1.0000   1.0000   1.0000   1.0000   0.0000   0.0000   0.0000

[...]

          k = 0.3333-0.2087-0.3370 (  4882 PWs)   bands (ev):

   -69.4613 -69.4612 -40.8870 -40.8858 -40.8277 -40.8265 -40.8134 -40.8118
   -24.6721 -24.6687 -16.7488 -16.5791 -14.1405 -14.0742 -13.7330 -13.6978
   -13.6452 -13.6195 -13.5619 -13.5530  -8.1973  -8.1835  -8.1812  -8.1692
    -8.1631  -8.1489  -4.6286  -4.4667  -3.7742  -3.4695  -3.1597  -3.1513
    -2.9881  -2.2026  -1.8873  -1.0370  -0.9790  -0.9267  -0.7447  -0.6669
    -0.5814  -0.5650  -0.4874  -0.4449  -0.3333   0.3056   0.5435   0.7177
     0.7231   0.8861   1.0696   1.1140   1.1815   1.2553   1.3607   1.8461
     2.0333   2.0881   2.1055   2.2575   2.2994   5.1663   5.3234   5.3664

     occupation numbers
     1.0000   1.0000   1.0000   1.0000   1.0000   1.0000   1.0000   1.0000
     1.0000   1.0000   1.0000   1.0000   1.0000   1.0000   1.0000   1.0000
     1.0000   1.0000   1.0000   1.0000   1.0000   1.0000   1.0000   1.0000
     1.0000   1.0000   1.0000   1.0000   1.0000   1.0000   1.0000   1.0000
     1.0000   1.0000   1.0000   1.0000   1.0000   1.0000   1.0000   1.0000
     1.0000   1.0000   1.0000   1.0000   1.0000   1.0000   1.0000   1.0000
     1.0000   1.0000   1.0000   1.0000   1.0000   1.0000   1.0000   1.0000
     1.0000   1.0000   1.0000   1.0000   1.0000   0.0000   0.0000   0.0000

     highest occupied, lowest unoccupied level (ev):     2.4906    5.0868

!    total energy              =   -1120.68060050 Ry
     estimated scf accuracy    <       0.00000003 Ry

     The total energy is the sum of the following terms:
     one-electron contribution =    -579.48216134 Ry
     hartree contribution      =     342.25710618 Ry
     xc contribution           =    -186.70064290 Ry
     ewald contribution        =    -490.64097077 Ry
     one-center paw contrib.   =    -206.11393168 Ry
      -> PAW hartree energy AE =      75.50169763 Ry
      -> PAW hartree energy PS =     -75.08104005 Ry
      -> PAW xc energy AE      =    -132.45076166 Ry
      -> PAW xc energy PS      =      21.19529701 Ry
      -> total E_H with PAW    =     342.67776376 Ry
      -> total E_XC with PAW   =    -297.95610755 Ry

     convergence has been achieved in  13 iterations

     Writing all to output data dir calculations_bands/myprefix.save/

     General routines

     Parallel routines

     PAW routines

   This run was terminated on:  12: 1:41   7Jun2023

   JOB DONE.