     Program PWSCF v.7.0 starts on  7Jun2023 at  5: 6:43

     K-points division:     npool     =       2
     R & G space division:  proc/nbgrp/npool/nimage =       4

     Reading input from espresso_1684.pwi
Warning: card &CELL ignored
Warning: card / ignored

     Current dimensions of program PWSCF are:
     Max number of different atomic species (ntypx) = 10
     Max number of k-points (npk) =  40000
     Max angular momentum in pseudopotentials (lmaxx) =  4
     file Mg.pbe-n-kjpaw_psl.0.3.0.UPF: wavefunction(s)  3S renormalized
     file Fe.pbe-spn-kjpaw_psl.0.2.1.UPF: wavefunction(s)  3D renormalized
     file O.pbe-n-kjpaw_psl.0.1.UPF: wavefunction(s)  2P renormalized

     Using Slab Decomposition

     bravais-lattice index     =            0
     lattice parameter (alat)  =       5.7026  a.u.
     unit-cell volume          =    1324.3245 (a.u.)^3
     number of atoms/cell      =           20
     number of atomic types    =            3
     number of electrons       =       108.00
     number of Kohn-Sham states=           64
     kinetic-energy cutoff     =      30.0000  Ry
     charge density cutoff     =     240.0000  Ry
     scf convergence threshold =      1.0E-06
     mixing beta               =       0.7000
     number of iterations used =            8  plain     mixing
     Exchange-correlation= SLA  PW   PBX  PBC
                           (   1   4   3   4   0   0   0)

     celldm(1)=   5.702603  celldm(2)=   0.000000  celldm(3)=   0.000000
     celldm(4)=   0.000000  celldm(5)=   0.000000  celldm(6)=   0.000000

     crystal axes: (cart. coord. in units of alat)
               a(1) = (   1.000000   0.000000   0.000000 )
               a(2) = (   0.501381   0.867610   0.000000 )
               a(3) = (   0.489503   0.299252   8.230966 )

     reciprocal axes: (cart. coord. in units 2 pi/alat)
               b(1) = (  1.000000 -0.577887 -0.038461 )
               b(2) = (  0.000000  1.152592 -0.041905 )
               b(3) = (  0.000000  0.000000  0.121492 )

     PseudoPot. # 1 for Mg read from file:
     /home/pragov/projects/rrg-bengioy-ad/pragov/crystal_structure_design/SSSP/Mg.pbe-n-kjpaw_psl.0.3.0.UPF
     MD5 check sum: 24ecedc7f3e3cbe212e682f4413594e4
     Pseudo is Projector augmented-wave + core cor, Zval =  2.0
     Generated using "atomic" code by A. Dal Corso  v.5.0.99 svn rev. 10869
     Shape of augmentation charge: PSQ
     Using radial grid of 1129 points,  4 beta functions with:
                l(1) =   0
                l(2) =   0
                l(3) =   1
                l(4) =   1
     Q(r) pseudized with 0 coefficients

     PseudoPot. # 2 for Fe read from file:
     /home/pragov/projects/rrg-bengioy-ad/pragov/crystal_structure_design/SSSP/Fe.pbe-spn-kjpaw_psl.0.2.1.UPF
     MD5 check sum: e86618425769142926afa95317d90200
     Pseudo is Projector augmented-wave + core cor, Zval = 16.0
     Generated using "atomic" code by A. Dal Corso  v.5.0.99 svn rev. 10869
     Shape of augmentation charge: PSQ
     Using radial grid of 1191 points,  6 beta functions with:
                l(1) =   0
                l(2) =   0
                l(3) =   1
                l(4) =   1
                l(5) =   2
                l(6) =   2
     Q(r) pseudized with 0 coefficients

     PseudoPot. # 3 for O  read from file:
     /home/pragov/projects/rrg-bengioy-ad/pragov/crystal_structure_design/SSSP/O.pbe-n-kjpaw_psl.0.1.UPF
     MD5 check sum: 0234752ac141de4415c5fc33072bef88
     Pseudo is Projector augmented-wave + core cor, Zval =  6.0
     Generated using "atomic" code by A. Dal Corso  v.5.0.99 svn rev. 10869
     Shape of augmentation charge: BESSEL
     Using radial grid of 1095 points,  4 beta functions with:
                l(1) =   0
                l(2) =   0
                l(3) =   1
                l(4) =   1
     Q(r) pseudized with 0 coefficients

     atomic species   valence    mass     pseudopotential
        Mg             2.00    24.30500     Mg( 1.00)
        Fe            16.00    55.84500     Fe( 1.00)
        O              6.00    15.99900     O ( 1.00)

     No symmetry found

                                    s                        frac. trans.

      isym =  1     identity

 cryst.   s( 1) = (     1          0          0      )
                  (     0          1          0      )
                  (     0          0          1      )

 cart.    s( 1) = (  1.0000000  0.0000000  0.0000000 )
                  (  0.0000000  1.0000000 -0.0000000 )
                  (  0.0000000  0.0000000  1.0000000 )

   Cartesian axes

     site n.     atom                  positions (alat units)
         1           Mg  tau(   1) = (   0.4992485   0.2900815   0.8364390  )
         2           Mg  tau(   2) = (   1.4949532   0.8737700   4.9521853  )
         3           Mg  tau(   3) = (   0.4959301   0.2930899   3.2788053  )
         4           Mg  tau(   4) = (   1.4916369   0.8767697   7.3945269  )
         5           Mg  tau(   5) = (   0.9988072   0.5804554   1.6502099  )
         6           Mg  tau(   6) = (   0.4929131   0.2963249   5.7658246  )
         7           Mg  tau(   7) = (   1.4979718   0.8705300   2.4651249  )
         8           Mg  tau(   8) = (   0.9920813   0.5863980   6.5807231  )
         9           Fe  tau(   9) = (   0.9954327   0.5834528   4.1154912  )
        10           Fe  tau(  10) = (   0.9999900   0.0000208   0.0000000  )
        11           O   tau(  11) = (   0.4976883   0.2916774   2.0573875  )
        12           O   tau(  12) = (   1.4932006   0.8751753   6.1735948  )
        13           O   tau(  13) = (   1.4933155   0.8655968   3.6760893  )
        14           O   tau(  14) = (   0.9968420   0.5915958   7.7921402  )
        15           O   tau(  15) = (   0.9940369   0.5752614   0.4388257  )
        16           O   tau(  16) = (   0.4975639   0.3012781   4.5548848  )
        17           O   tau(  17) = (   0.9968621   0.5815751   2.8719486  )
        18           O   tau(  18) = (   0.4913457   0.2978596   6.9883123  )
        19           O   tau(  19) = (   1.4995481   0.8689966   1.2427195  )
        20           O   tau(  20) = (   0.9940244   0.5852760   5.3589432  )

   Crystallographic axes

     site n.     atom                  positions (cryst. coord.)
         1           Mg  tau(   1) = (  0.2994440  0.2992950  0.1016210  )
         2           Mg  tau(   2) = (  0.7995480  0.7995810  0.6016530  )
         3           Mg  tau(   3) = (  0.2004520  0.2004160  0.3983500  )
         4           Mg  tau(   4) = (  0.7005640  0.7006930  0.8983790  )
         5           Mg  tau(   5) = (  0.5999010  0.5998770  0.2004880  )
         6           Mg  tau(   6) = (  0.0999130  0.0999270  0.7005040  )
         7           Mg  tau(   7) = (  0.9000930  0.9000660  0.2994940  )
         8           Mg  tau(   8) = (  0.4001100  0.4001150  0.7995080  )
         9           Fe  tau(   9) = (  0.4999780  0.5000250  0.5000010  )
        10           Fe  tau(  10) = (  0.9999780  0.0000240  0.0000000  )
        11           O   tau(  11) = (  0.2500030  0.2499710  0.2499570  )
        12           O   tau(  12) = (  0.7500070  0.7500180  0.7500450  )
        13           O   tau(  13) = (  0.8517130  0.8436350  0.4466170  )
        14           O   tau(  14) = (  0.3552750  0.3553420  0.9466860  )
        15           O   tau(  15) = (  0.6447230  0.6446530  0.0533140  )
        16           O   tau(  16) = (  0.1482750  0.1563800  0.5533840  )
        17           O   tau(  17) = (  0.5503200  0.5499710  0.3489200  )
        18           O   tau(  18) = (  0.0504410  0.0504680  0.8490270  )
        19           O   tau(  19) = (  0.9495700  0.9495230  0.1509810  )
        20           O   tau(  20) = (  0.4496920  0.4500200  0.6510710  )

     number of k points=    14
                       cart. coord. in units 2pi/alat
        k(    1) = (   0.0000000   0.0000000   0.0000000), wk =   0.0740741
        k(    2) = (   0.0000000   0.0000000   0.0404975), wk =   0.1481481
        k(    3) = (   0.0000000   0.3841974  -0.0139682), wk =   0.1481481
        k(    4) = (   0.0000000   0.3841974   0.0265293), wk =   0.1481481
        k(    5) = (   0.0000000   0.3841974  -0.0544657), wk =   0.1481481
        k(    6) = (   0.3333333  -0.1926292  -0.0128202), wk =   0.1481481
        k(    7) = (   0.3333333  -0.1926292   0.0276772), wk =   0.1481481
        k(    8) = (   0.3333333  -0.1926292  -0.0533177), wk =   0.1481481
        k(    9) = (   0.3333333   0.1915683  -0.0267884), wk =   0.1481481
        k(   10) = (   0.3333333   0.1915683   0.0137090), wk =   0.1481481
        k(   11) = (   0.3333333   0.1915683  -0.0672859), wk =   0.1481481
        k(   12) = (   0.3333333  -0.5768266   0.0011480), wk =   0.1481481
        k(   13) = (   0.3333333  -0.5768266   0.0416455), wk =   0.1481481
        k(   14) = (   0.3333333  -0.5768266  -0.0393495), wk =   0.1481481

                       cryst. coord.
        k(    1) = (   0.0000000   0.0000000   0.0000000), wk =   0.0740741
        k(    2) = (   0.0000000   0.0000000   0.3333333), wk =   0.1481481
        k(    3) = (   0.0000000   0.3333333  -0.0000000), wk =   0.1481481
        k(    4) = (   0.0000000   0.3333333   0.3333333), wk =   0.1481481
        k(    5) = (   0.0000000   0.3333333  -0.3333333), wk =   0.1481481
        k(    6) = (   0.3333333   0.0000000   0.0000000), wk =   0.1481481
        k(    7) = (   0.3333333   0.0000000   0.3333333), wk =   0.1481481
        k(    8) = (   0.3333333   0.0000000  -0.3333333), wk =   0.1481481
        k(    9) = (   0.3333333   0.3333333   0.0000000), wk =   0.1481481
        k(   10) = (   0.3333333   0.3333333   0.3333333), wk =   0.1481481
        k(   11) = (   0.3333333   0.3333333  -0.3333333), wk =   0.1481481
        k(   12) = (   0.3333333  -0.3333333   0.0000000), wk =   0.1481481
        k(   13) = (   0.3333333  -0.3333333   0.3333333), wk =   0.1481481
        k(   14) = (   0.3333333  -0.3333333  -0.3333333), wk =   0.1481481

     Check: negative core charge=   -0.000054

     Initial potential from superposition of free atoms

     starting charge     107.9917, renormalised to     108.0000
     Starting wfcs are   98 randomized atomic wfcs
     Checking if some PAW data can be deallocated...

     Self-consistent Calculation

     iteration #  1     ecut=    30.00 Ry     beta= 0.70
     Davidson diagonalization with overlap

     ethr =  1.00E-02,  avg # of iterations =  2.4

     total energy              =   -1343.32906088 Ry
     estimated scf accuracy    <       3.34845992 Ry

[...]

     negative rho (up, down):  2.144E-04 0.000E+00

[...]

     total energy              =   -1344.78453336 Ry
     estimated scf accuracy    <       0.00000553 Ry

     iteration # 19     ecut=    30.00 Ry     beta= 0.70
     Davidson diagonalization with overlap

     ethr =  5.12E-09,  avg # of iterations =  3.6

     End of self-consistent calculation

          k = 0.0000 0.0000 0.0000 (  3575 PWs)   bands (ev):

   -77.8089 -77.7601 -43.5347 -43.4842 -43.3290 -43.3260 -43.2806 -43.2773
   -10.8605 -10.7785 -10.7444 -10.5332 -10.4572 -10.1800 -10.0967  -9.8553
    -9.7864  -9.6900   1.8464   2.1592   2.2219   3.0503   3.1092   4.3403
     4.3535   5.0469   5.0719   5.0848   5.1130   5.5909   5.7151   5.8050
     5.8100   5.8453   5.8506   5.9194   5.9220   6.0629   6.0658   6.1001
     6.1025   6.2677   6.2787   6.2984   6.3057   6.3466   6.3886   6.3905
     8.0717   8.1246   8.1503   8.1871   8.1960   8.2379   9.9211   9.9749
    10.0228  10.0733  10.7050  11.3336  11.3385  12.5008  12.6317  13.5223

     occupation numbers
     1.0000   1.0000   1.0000   1.0000   1.0000   1.0000   1.0000   1.0000
     1.0000   1.0000   1.0000   1.0000   1.0000   1.0000   1.0000   1.0000
     1.0000   1.0000   1.0000   1.0000   1.0000   1.0000   1.0000   1.0000
     1.0000   1.0000   1.0000   1.0000   1.0000   1.0000   1.0000   1.0000
     1.0000   1.0000   1.0000   1.0000   1.0000   1.0000   1.0000   1.0000
     1.0000   1.0000   1.0000   1.0000   1.0000   1.0000   1.0000   1.0000
     1.0000   1.0000   1.0000   1.0000   1.0000   1.0000   0.0000   0.0000
     0.0000   0.0000   0.0000   0.0000   0.0000   0.0000   0.0000   0.0000

[...]

          k = 0.3333-0.5768-0.0393 (  3727 PWs)   bands (ev):

   -77.8125 -77.7637 -43.5251 -43.4756 -43.4216 -43.4187 -43.3737 -43.3700
    -9.6011  -9.5989  -9.5579  -9.5557  -9.4847  -9.4783  -9.4616  -9.4563
    -9.4537  -9.4523   2.8979   2.9072   2.9086   2.9305   2.9728   2.9891
     3.0744   3.0966   3.1378   3.1544   3.4450   3.4703   3.5409   3.5933
     3.6497   3.6899   3.8697   3.8842   3.9518   3.9697   4.7443   4.7585
     4.7869   4.7907   5.2527   5.2733   5.2892   5.2962   5.3892   5.4163
     8.5182   8.5653   8.5717   8.5839   8.6221   8.6336  10.1110  10.1642
    10.1795  10.2273  16.5422  16.5493  16.7311  16.7505  16.7561  16.7735

     occupation numbers
     1.0000   1.0000   1.0000   1.0000   1.0000   1.0000   1.0000   1.0000
     1.0000   1.0000   1.0000   1.0000   1.0000   1.0000   1.0000   1.0000
     1.0000   1.0000   1.0000   1.0000   1.0000   1.0000   1.0000   1.0000
     1.0000   1.0000   1.0000   1.0000   1.0000   1.0000   1.0000   1.0000
     1.0000   1.0000   1.0000   1.0000   1.0000   1.0000   1.0000   1.0000
     1.0000   1.0000   1.0000   1.0000   1.0000   1.0000   1.0000   1.0000
     1.0000   1.0000   1.0000   1.0000   1.0000   1.0000   0.0000   0.0000
     0.0000   0.0000   0.0000   0.0000   0.0000   0.0000   0.0000   0.0000

     highest occupied, lowest unoccupied level (ev):     8.7724    9.9204

!    total energy              =   -1344.78453546 Ry

     total all-electron energy =     -9802.280200 Ry
     estimated scf accuracy    <       0.00000024 Ry

     The total energy is the sum of the following terms:
     one-electron contribution =    -836.37302084 Ry
     hartree contribution      =     484.24446244 Ry
     xc contribution           =    -158.65331925 Ry
     ewald contribution        =    -336.41957627 Ry
     one-center paw contrib.   =    -497.58308154 Ry
      -> PAW hartree energy AE =       2.84198743 Ry
      -> PAW hartree energy PS =      -2.83781172 Ry
      -> PAW xc energy AE      =     -98.03281784 Ry
      -> PAW xc energy PS      =       4.16629667 Ry
      -> total E_H with PAW    =     484.24863815 Ry
      -> total E_XC with PAW   =    -252.51984042 Ry

     convergence has been achieved in  19 iterations

     Writing all to output data dir calculations_bands/myprefix.save/

     General routines

     Parallel routines

     PAW routines

   This run was terminated on:   5: 7: 9   7Jun2023

   JOB DONE.