     Program PWSCF v.7.0 starts on  6Jun2023 at  2: 2:45

     K-points division:     npool     =       2
     R & G space division:  proc/nbgrp/npool/nimage =       4

     Reading input from espresso_13172.pwi
Warning: card &CELL ignored
Warning: card / ignored

     Current dimensions of program PWSCF are:
     Max number of different atomic species (ntypx) = 10
     Max number of k-points (npk) =  40000
     Max angular momentum in pseudopotentials (lmaxx) =  4
     file O.pbe-n-kjpaw_psl.0.1.UPF: wavefunction(s)  2P renormalized
     Message from routine setup:
     using ibrav=0 with symmetry is DISCOURAGED, use correct ibrav instead

     Using Slab Decomposition

     bravais-lattice index     =            0
     lattice parameter (alat)  =      11.4450  a.u.
     unit-cell volume          =    1061.9933 (a.u.)^3
     number of atoms/cell      =           14
     number of atomic types    =            4
     number of electrons       =       120.00
     number of Kohn-Sham states=           64
     kinetic-energy cutoff     =      30.0000  Ry
     charge density cutoff     =     240.0000  Ry
     scf convergence threshold =      1.0E-06
     mixing beta               =       0.7000
     number of iterations used =            8  plain     mixing
     Exchange-correlation= SLA  PW   PBX  PBC
                           (   1   4   3   4   0   0   0)

     celldm(1)=  11.444958  celldm(2)=   0.000000  celldm(3)=   0.000000
     celldm(4)=   0.000000  celldm(5)=   0.000000  celldm(6)=   0.000000

     crystal axes: (cart. coord. in units of alat)
               a(1) = (   1.000000   0.000000   0.000000 )
               a(2) = (  -0.004944   0.999988   0.000000 )
               a(3) = (  -0.479766  -0.517668   0.708410 )

     reciprocal axes: (cart. coord. in units 2 pi/alat)
               b(1) = (  1.000000  0.004944  0.680857 )
               b(2) = (  0.000000  1.000012  0.730756 )
               b(3) = (  0.000000  0.000000  1.411613 )

     PseudoPot. # 1 for Li read from file:
     /home/pragov/projects/rrg-bengioy-ad/pragov/crystal_structure_design/SSSP/li_pbe_v1.4.uspp.F.UPF
     MD5 check sum: e912e257baa3777c20ea3d68f190483c
     Pseudo is Ultrasoft, Zval =  3.0
     Generated by new atomic code, or converted to UPF format
     Using radial grid of  751 points,  5 beta functions with:
                l(1) =   0
                l(2) =   0
                l(3) =   0
                l(4) =   1
                l(5) =   1
     Q(r) pseudized with 10 coefficients,  rinner =    1.150   1.150   1.150

     PseudoPot. # 2 for Ru read from file:
     /home/pragov/projects/rrg-bengioy-ad/pragov/crystal_structure_design/SSSP/Ru_ONCV_PBE-1.0.oncvpsp.upf
     MD5 check sum: be037bb81c227cfb9b1461a9f099f4bd
     Pseudo is Norm-conserving, Zval = 16.0
     Generated using ONCVPSP code by D. R. Hamann
     Using radial grid of 1458 points,  6 beta functions with:
                l(1) =   0
                l(2) =   0
                l(3) =   1
                l(4) =   1
                l(5) =   2
                l(6) =   2

     PseudoPot. # 3 for Rh read from file:
     /home/pragov/projects/rrg-bengioy-ad/pragov/crystal_structure_design/SSSP/Rh_ONCV_PBE-1.0.oncvpsp.upf
     MD5 check sum: ba07c69523b14cacd10683cd4c4284c1
     Pseudo is Norm-conserving, Zval = 17.0
     Generated using ONCVPSP code by D. R. Hamann
     Using radial grid of 1442 points,  6 beta functions with:
                l(1) =   0
                l(2) =   0
                l(3) =   1
                l(4) =   1
                l(5) =   2
                l(6) =   2

     PseudoPot. # 4 for O  read from file:
     /home/pragov/projects/rrg-bengioy-ad/pragov/crystal_structure_design/SSSP/O.pbe-n-kjpaw_psl.0.1.UPF
     MD5 check sum: 0234752ac141de4415c5fc33072bef88
     Pseudo is Projector augmented-wave + core cor, Zval =  6.0
     Generated using "atomic" code by A. Dal Corso  v.5.0.99 svn rev. 10869
     Shape of augmentation charge: BESSEL
     Using radial grid of 1095 points,  4 beta functions with:
                l(1) =   0
                l(2) =   0
                l(3) =   1
                l(4) =   1
     Q(r) pseudized with 0 coefficients

     atomic species   valence    mass     pseudopotential
        Li             3.00     6.94000     Li( 1.00)
        Ru            16.00   101.07000     Ru( 1.00)
        Rh            17.00   102.90550     Rh( 1.00)
        O              6.00    15.99900     O ( 1.00)

      2 Sym. Ops., with inversion, found

                                    s                        frac. trans.

      isym =  1     identity

 cryst.   s( 1) = (     1          0          0      )
                  (     0          1          0      )
                  (     0          0          1      )

 cart.    s( 1) = (  1.0000000 -0.0000000 -0.0000000 )
                  (  0.0000000  1.0000000 -0.0000000 )
                  (  0.0000000  0.0000000  1.0000000 )

      isym =  2     inversion

 cryst.   s( 2) = (    -1          0          0      )
                  (     0         -1          0      )
                  (     0          0         -1      )

 cart.    s( 2) = ( -1.0000000  0.0000000  0.0000000 )
                  (  0.0000000 -1.0000000  0.0000000 )
                  (  0.0000000  0.0000000 -1.0000000 )

   Cartesian axes

     site n.     atom                  positions (alat units)
         1           Li  tau(   1) = (   0.7528280   0.4964394   0.1771024  )
         2           Li  tau(   2) = (  -0.2375384  -0.0141196   0.5313073  )
         3           Ru  tau(   3) = (   0.5000000   0.0000000   0.0000000  )
         4           Ru  tau(   4) = (   0.2576448   0.2411599   0.3542048  )
         5           Rh  tau(   5) = (   0.0000000   0.0000000   0.0000000  )
         6           Rh  tau(   6) = (   0.2601169  -0.2588340   0.3542048  )
         7           O   tau(   7) = (   0.4903312  -0.0046900   0.3386893  )
         8           O   tau(   8) = (   0.2530026   0.2314681   0.0155156  )
         9           O   tau(   9) = (   0.0316936  -0.0057322   0.3397214  )
        10           O   tau(  10) = (   0.2492848   0.7728187   0.0144834  )
        11           O   tau(  11) = (   0.0249583   0.4870098   0.3697204  )
        12           O   tau(  12) = (   0.2622869   0.2508517   0.6928941  )
        13           O   tau(  13) = (   0.4835959   0.4880520   0.3686883  )
        14           O   tau(  14) = (   0.2660048  -0.2904989   0.6939263  )

   Crystallographic axes

     site n.     atom                  positions (cryst. coord.)
         1           Li  tau(   1) = (  0.8758640  0.6258640  0.2500000  )
         2           Li  tau(   2) = (  0.1241360  0.3741360  0.7500000  )
         3           Ru  tau(   3) = (  0.5000000  0.0000000  0.0000000  )
         4           Ru  tau(   4) = (  0.5000000  0.5000000  0.5000000  )
         5           Rh  tau(   5) = (  0.0000000  0.0000000  0.0000000  )
         6           Rh  tau(   6) = (  0.5000000  0.0000000  0.5000000  )
         7           O   tau(   7) = (  0.7209070  0.2428090  0.4780980  )
         8           O   tau(   8) = (  0.2647110  0.2428090  0.0219020  )
         9           O   tau(   9) = (  0.2629670  0.2425210  0.4795550  )
        10           O   tau(  10) = (  0.2629670  0.7834120  0.0204450  )
        11           O   tau(  11) = (  0.2790930  0.7571910  0.5219020  )
        12           O   tau(  12) = (  0.7352890  0.7571910  0.9780980  )
        13           O   tau(  13) = (  0.7370330  0.7574790  0.5204450  )
        14           O   tau(  14) = (  0.7370330  0.2165880  0.9795550  )

     number of k points=    14
                       cart. coord. in units 2pi/alat
        k(    1) = (   0.0000000   0.0000000   0.0000000), wk =   0.0740741
        k(    2) = (   0.0000000   0.0000000   0.4705375), wk =   0.1481481
        k(    3) = (   0.0000000   0.3333374   0.2435852), wk =   0.1481481
        k(    4) = (   0.0000000   0.3333374   0.7141227), wk =   0.1481481
        k(    5) = (   0.0000000   0.3333374  -0.2269523), wk =   0.1481481
        k(    6) = (   0.3333333   0.0016481   0.2269523), wk =   0.1481481
        k(    7) = (   0.3333333   0.0016481   0.6974898), wk =   0.1481481
        k(    8) = (   0.3333333   0.0016481  -0.2435852), wk =   0.1481481
        k(    9) = (   0.3333333   0.3349855   0.4705375), wk =   0.1481481
        k(   10) = (   0.3333333   0.3349855   0.9410750), wk =   0.1481481
        k(   11) = (   0.3333333   0.3349855  -0.0000000), wk =   0.1481481
        k(   12) = (   0.3333333  -0.3316893  -0.0166329), wk =   0.1481481
        k(   13) = (   0.3333333  -0.3316893   0.4539047), wk =   0.1481481
        k(   14) = (   0.3333333  -0.3316893  -0.4871704), wk =   0.1481481

                       cryst. coord.
        k(    1) = (   0.0000000   0.0000000   0.0000000), wk =   0.0740741
        k(    2) = (   0.0000000   0.0000000   0.3333333), wk =   0.1481481
        k(    3) = (   0.0000000   0.3333333  -0.0000000), wk =   0.1481481
        k(    4) = (   0.0000000   0.3333333   0.3333333), wk =   0.1481481
        k(    5) = (   0.0000000   0.3333333  -0.3333333), wk =   0.1481481
        k(    6) = (   0.3333333   0.0000000   0.0000000), wk =   0.1481481
        k(    7) = (   0.3333333   0.0000000   0.3333333), wk =   0.1481481
        k(    8) = (   0.3333333   0.0000000  -0.3333333), wk =   0.1481481
        k(    9) = (   0.3333333   0.3333333   0.0000000), wk =   0.1481481
        k(   10) = (   0.3333333   0.3333333   0.3333333), wk =   0.1481481
        k(   11) = (   0.3333333   0.3333333  -0.3333333), wk =   0.1481481
        k(   12) = (   0.3333333  -0.3333333  -0.0000000), wk =   0.1481481
        k(   13) = (   0.3333333  -0.3333333   0.3333333), wk =   0.1481481
        k(   14) = (   0.3333333  -0.3333333  -0.3333333), wk =   0.1481481

     Check: negative core charge=   -0.000015

     Initial potential from superposition of free atoms

     starting charge     119.0965, renormalised to     120.0000
     Starting wfcs are   82 randomized atomic wfcs
     Checking if some PAW data can be deallocated...

     Self-consistent Calculation

     iteration #  1     ecut=    30.00 Ry     beta= 0.70
     Davidson diagonalization with overlap

     ethr =  1.00E-02,  avg # of iterations =  2.0

     total energy              =   -1170.87407122 Ry
     estimated scf accuracy    <       2.99905025 Ry

[...]

     c_bands:  1 eigenvalues not converged
     ethr =  6.73E-06,  avg # of iterations =  4.7

[...]

     c_bands:  1 eigenvalues not converged
     ethr =  2.08E-06,  avg # of iterations =  6.0

[...]

     total energy              =   -1172.65293873 Ry
     estimated scf accuracy    <       0.00000181 Ry

     iteration # 19     ecut=    30.00 Ry     beta= 0.70
     Davidson diagonalization with overlap

     ethr =  1.38E-09,  avg # of iterations =  1.0

     End of self-consistent calculation

          k = 0.0000 0.0000 0.0000 (  2925 PWs)   bands (ev):

   -68.4421 -68.4357 -62.9878 -62.9712 -36.4469 -36.3638 -36.3042 -36.2672
   -36.2530 -36.2349 -33.7699 -33.7694 -33.0884 -33.0573 -33.0190 -32.8671
   -32.8620 -32.8464  -9.1870  -8.5201  -8.4022  -8.2956  -7.9853  -7.9779
    -7.8415  -7.7380   2.9676   3.5013   3.5509   3.6304   4.1299   4.1488
     4.8253   4.8441   4.8442   5.3881   5.4010   5.4834   5.5771   5.6908
     5.8179   6.8306   6.9695   7.0947   7.0972   7.2412   7.3380   7.8187
     7.9334   7.9971   8.0099   8.0345   9.0807   9.3093   9.5308   9.7036
     9.9149  10.0231  10.0787  10.4627  10.4949  10.5817  12.7259  12.7296

     occupation numbers
     1.0000   1.0000   1.0000   1.0000   1.0000   1.0000   1.0000   1.0000
     1.0000   1.0000   1.0000   1.0000   1.0000   1.0000   1.0000   1.0000
     1.0000   1.0000   1.0000   1.0000   1.0000   1.0000   1.0000   1.0000
     1.0000   1.0000   1.0000   1.0000   1.0000   1.0000   1.0000   1.0000
     1.0000   1.0000   1.0000   1.0000   1.0000   1.0000   1.0000   1.0000
     1.0000   1.0000   1.0000   1.0000   1.0000   1.0000   1.0000   1.0000
     1.0000   1.0000   1.0000   1.0000   1.0000   1.0000   1.0000   1.0000
     1.0000   1.0000   1.0000   1.0000   0.0000   0.0000   0.0000   0.0000

[...]

          k = 0.3333-0.3317-0.4872 (  2956 PWs)   bands (ev):

   -68.4421 -68.4357 -62.9837 -62.9754 -36.4447 -36.3632 -36.3036 -36.2673
   -36.2522 -36.2350 -33.7701 -33.7700 -33.0492 -33.0342 -33.0294 -32.9177
   -32.8651 -32.8554  -8.6692  -8.5745  -8.2698  -8.2414  -8.2024  -8.1859
    -7.9700  -7.9271   3.9568   4.0840   4.1801   4.3551   4.4094   4.5125
     4.5678   4.7058   4.7616   4.8181   4.8946   4.9367   5.4129   5.6265
     5.7637   6.2345   6.2673   6.6032   6.7311   6.7391   6.9395   6.9845
     7.2394   7.6013   9.0533   9.2653   9.4267   9.7092   9.7614   9.9740
    10.0296  10.2534  10.2809  10.4498  10.5406  10.6164  12.1488  12.3217

     occupation numbers
     1.0000   1.0000   1.0000   1.0000   1.0000   1.0000   1.0000   1.0000
     1.0000   1.0000   1.0000   1.0000   1.0000   1.0000   1.0000   1.0000
     1.0000   1.0000   1.0000   1.0000   1.0000   1.0000   1.0000   1.0000
     1.0000   1.0000   1.0000   1.0000   1.0000   1.0000   1.0000   1.0000
     1.0000   1.0000   1.0000   1.0000   1.0000   1.0000   1.0000   1.0000
     1.0000   1.0000   1.0000   1.0000   1.0000   1.0000   1.0000   1.0000
     1.0000   1.0000   1.0000   1.0000   1.0000   1.0000   1.0000   1.0000
     1.0000   1.0000   1.0000   1.0000   0.0000   0.0000   0.0000   0.0000

     highest occupied, lowest unoccupied level (ev):    10.5201   10.3809

!    total energy              =   -1172.65293839 Ry
     estimated scf accuracy    <       0.00000050 Ry

     The total energy is the sum of the following terms:
     one-electron contribution =    -572.59664473 Ry
     hartree contribution      =     339.78279266 Ry
     xc contribution           =    -149.21911277 Ry
     ewald contribution        =    -714.39966460 Ry
     one-center paw contrib.   =     -76.22030894 Ry
      -> PAW hartree energy AE =       0.00000000 Ry
      -> PAW hartree energy PS =       0.00000000 Ry
      -> PAW xc energy AE      =       0.00000000 Ry
      -> PAW xc energy PS      =       0.00000000 Ry
      -> total E_H with PAW    =     339.78279266 Ry
      -> total E_XC with PAW   =    -149.21911277 Ry

     convergence has been achieved in  19 iterations

     Writing all to output data dir calculations_bands/myprefix.save/

     General routines

     Parallel routines

     PAW routines

   This run was terminated on:   2: 3: 4   6Jun2023

   JOB DONE.