     Program PWSCF v.7.0 starts on  6Jun2023 at  6: 5:18

     K-points division:     npool     =       2
     R & G space division:  proc/nbgrp/npool/nimage =       4

     Reading input from espresso_13745.pwi
Warning: card &CELL ignored
Warning: card / ignored

     Current dimensions of program PWSCF are:
     Max number of different atomic species (ntypx) = 10
     Max number of k-points (npk) =  40000
     Max angular momentum in pseudopotentials (lmaxx) =  4
     file Ba.pbe-spn-kjpaw_psl.1.0.0.UPF: wavefunction(s)  5S 6S renormalized
     file O.pbe-n-kjpaw_psl.0.1.UPF: wavefunction(s)  2P renormalized
     Message from routine setup:
     using ibrav=0 with symmetry is DISCOURAGED, use correct ibrav instead

     Using Slab Decomposition

     bravais-lattice index     =            0
     lattice parameter (alat)  =      10.9512  a.u.
     unit-cell volume          =    1364.5890 (a.u.)^3
     number of atoms/cell      =           14
     number of atomic types    =            3
     number of electrons       =       114.00
     number of Kohn-Sham states=           64
     kinetic-energy cutoff     =      30.0000  Ry
     charge density cutoff     =     240.0000  Ry
     scf convergence threshold =      1.0E-06
     mixing beta               =       0.7000
     number of iterations used =            8  plain     mixing
     Exchange-correlation= SLA  PW   PBX  PBC
                           (   1   4   3   4   0   0   0)

     celldm(1)=  10.951207  celldm(2)=   0.000000  celldm(3)=   0.000000
     celldm(4)=   0.000000  celldm(5)=   0.000000  celldm(6)=   0.000000

     crystal axes: (cart. coord. in units of alat)
               a(1) = (   1.000000   0.000000   0.000000 )
               a(2) = (   0.518029   0.855363   0.000000 )
               a(3) = (   0.031463   0.017728   1.214690 )

     reciprocal axes: (cart. coord. in units 2 pi/alat)
               b(1) = (  1.000000 -0.605625 -0.017063 )
               b(2) = (  0.000000  1.169094 -0.017063 )
               b(3) = (  0.000000  0.000000  0.823256 )

     PseudoPot. # 1 for Ba read from file:
     /home/pragov/projects/rrg-bengioy-ad/pragov/crystal_structure_design/SSSP/Ba.pbe-spn-kjpaw_psl.1.0.0.UPF
     MD5 check sum: c432291d3e53af55f19d5e8866385beb
     Pseudo is Projector augmented-wave + core cor, Zval = 10.0
     Generated using "atomic" code by A. Dal Corso  v.5.1
     Shape of augmentation charge: PSQ
     Using radial grid of 1251 points,  7 beta functions with:
                l(1) =   0
                l(2) =   0
                l(3) =   0
                l(4) =   1
                l(5) =   1
                l(6) =   2
                l(7) =   2
     Q(r) pseudized with 0 coefficients

     PseudoPot. # 2 for Ti read from file:
     /home/pragov/projects/rrg-bengioy-ad/pragov/crystal_structure_design/SSSP/ti_pbe_v1.4.uspp.F.UPF
     MD5 check sum: 88a00a6731bd790ddea75d31a80cb452
     Pseudo is Ultrasoft + core correction, Zval = 12.0
     Generated by new atomic code, or converted to UPF format
     Using radial grid of  851 points,  6 beta functions with:
                l(1) =   0
                l(2) =   0
                l(3) =   1
                l(4) =   1
                l(5) =   2
                l(6) =   2
     Q(r) pseudized with  6 coefficients,  rinner =    1.000   1.000   1.000
                                                       1.000   1.000

     PseudoPot. # 3 for O  read from file:
     /home/pragov/projects/rrg-bengioy-ad/pragov/crystal_structure_design/SSSP/O.pbe-n-kjpaw_psl.0.1.UPF
     MD5 check sum: 0234752ac141de4415c5fc33072bef88
     Pseudo is Projector augmented-wave + core cor, Zval =  6.0
     Generated using "atomic" code by A. Dal Corso  v.5.0.99 svn rev. 10869
     Shape of augmentation charge: BESSEL
     Using radial grid of 1095 points,  4 beta functions with:
                l(1) =   0
                l(2) =   0
                l(3) =   1
                l(4) =   1
     Q(r) pseudized with 0 coefficients

     atomic species   valence    mass     pseudopotential
        Ba            10.00   137.32700     Ba( 1.00)
        Ti            12.00    47.86700     Ti( 1.00)
        O              6.00    15.99900     O ( 1.00)

      2 Sym. Ops., with inversion, found

                                    s                        frac. trans.

      isym =  1     identity

 cryst.   s( 1) = (     1          0          0      )
                  (     0          1          0      )
                  (     0          0          1      )

 cart.    s( 1) = (  1.0000000  0.0000000  0.0000000 )
                  (  0.0000000  1.0000000  0.0000000 )
                  (  0.0000000  0.0000000  1.0000000 )

      isym =  2     inversion

 cryst.   s( 2) = (    -1          0          0      )
                  (     0         -1          0      )
                  (     0          0         -1      )

 cart.    s( 2) = ( -1.0000000 -0.0000000 -0.0000000 )
                  (  0.0000000 -1.0000000 -0.0000000 )
                  (  0.0000000  0.0000000 -1.0000000 )

   Cartesian axes

     site n.     atom                  positions (alat units)
         1           Ba  tau(   1) = (   1.0154683   0.5721854   0.2032309  )
         2           Ba  tau(   2) = (   0.5340232   0.3009058   1.0114588  )
         3           Ba  tau(   3) = (   0.0157313   0.0088641   0.6073449  )
         4           Ti  tau(   4) = (   1.0572923   0.5957520   0.8308866  )
         5           Ti  tau(   5) = (   0.4921992   0.2773393   0.3838031  )
         6           Ti  tau(   6) = (   0.0000000   0.0000000   0.0000000  )
         7           O   tau(   7) = (   0.7594964   0.1505677   0.2099822  )
         8           O   tau(   8) = (   0.5157313   0.0088641   0.6073449  )
         9           O   tau(   9) = (   0.5222312   0.5716467   0.2099822  )
        10           O   tau(  10) = (   0.2747458   0.4365456   0.6073449  )
        11           O   tau(  11) = (   0.7899951   0.7225235   1.0047075  )
        12           O   tau(  12) = (   0.2577433   0.1452305   0.1960473  )
        13           O   tau(  13) = (   1.0272603   0.3014445   1.0047075  )
        14           O   tau(  14) = (   1.2917482   0.7278608   1.0186424  )

   Crystallographic axes

     site n.     atom                  positions (cryst. coord.)
         1           Ba  tau(   1) = (  0.6654710  0.6654710  0.1673110  )
         2           Ba  tau(   2) = (  0.3345290  0.3345290  0.8326890  )
         3           Ba  tau(   3) = (  0.0000000  0.0000000  0.5000000  )
         4           Ti  tau(   4) = (  0.6823130  0.6823130  0.6840320  )
         5           Ti  tau(   5) = (  0.3176870  0.3176870  0.3159680  )
         6           Ti  tau(   6) = (  0.0000000  0.0000000  0.0000000  )
         7           O   tau(   7) = (  0.6647260  0.1724450  0.1728690  )
         8           O   tau(   8) = (  0.5000000  0.0000000  0.5000000  )
         9           O   tau(   9) = (  0.1724450  0.6647260  0.1728690  )
        10           O   tau(  10) = ( -0.0000000  0.5000000  0.5000000  )
        11           O   tau(  11) = (  0.3352740  0.8275550  0.8271310  )
        12           O   tau(  12) = (  0.1664430  0.1664430  0.1613970  )
        13           O   tau(  13) = (  0.8275550  0.3352740  0.8271310  )
        14           O   tau(  14) = (  0.8335570  0.8335570  0.8386030  )

     number of k points=    14
                       cart. coord. in units 2pi/alat
        k(    1) = (   0.0000000   0.0000000   0.0000000), wk =   0.0740741
        k(    2) = (   0.0000000   0.0000000   0.2744185), wk =   0.1481481
        k(    3) = (   0.0000000   0.3896981  -0.0056876), wk =   0.1481481
        k(    4) = (   0.0000000   0.3896981   0.2687309), wk =   0.1481481
        k(    5) = (   0.0000000   0.3896981  -0.2801061), wk =   0.1481481
        k(    6) = (   0.3333333  -0.2018749  -0.0056876), wk =   0.1481481
        k(    7) = (   0.3333333  -0.2018749   0.2687309), wk =   0.1481481
        k(    8) = (   0.3333333  -0.2018749  -0.2801061), wk =   0.1481481
        k(    9) = (   0.3333333   0.1878232  -0.0113751), wk =   0.1481481
        k(   10) = (   0.3333333   0.1878232   0.2630434), wk =   0.1481481
        k(   11) = (   0.3333333   0.1878232  -0.2857937), wk =   0.1481481
        k(   12) = (   0.3333333  -0.5915729   0.0000000), wk =   0.1481481
        k(   13) = (   0.3333333  -0.5915729   0.2744185), wk =   0.1481481
        k(   14) = (   0.3333333  -0.5915729  -0.2744185), wk =   0.1481481

                       cryst. coord.
        k(    1) = (   0.0000000   0.0000000   0.0000000), wk =   0.0740741
        k(    2) = (   0.0000000   0.0000000   0.3333333), wk =   0.1481481
        k(    3) = (   0.0000000   0.3333333  -0.0000000), wk =   0.1481481
        k(    4) = (   0.0000000   0.3333333   0.3333333), wk =   0.1481481
        k(    5) = (   0.0000000   0.3333333  -0.3333333), wk =   0.1481481
        k(    6) = (   0.3333333   0.0000000   0.0000000), wk =   0.1481481
        k(    7) = (   0.3333333   0.0000000   0.3333333), wk =   0.1481481
        k(    8) = (   0.3333333   0.0000000  -0.3333333), wk =   0.1481481
        k(    9) = (   0.3333333   0.3333333   0.0000000), wk =   0.1481481
        k(   10) = (   0.3333333   0.3333333   0.3333333), wk =   0.1481481
        k(   11) = (   0.3333333   0.3333333  -0.3333333), wk =   0.1481481
        k(   12) = (   0.3333333  -0.3333333   0.0000000), wk =   0.1481481
        k(   13) = (   0.3333333  -0.3333333   0.3333333), wk =   0.1481481
        k(   14) = (   0.3333333  -0.3333333  -0.3333333), wk =   0.1481481

     Check: negative core charge=   -0.000012

     Initial potential from superposition of free atoms

     starting charge     110.9488, renormalised to     114.0000

     negative rho (up, down):  3.753E-03 0.000E+00
     Starting wfcs are   77 randomized atomic wfcs
     Checking if some PAW data can be deallocated...

     Self-consistent Calculation

     iteration #  1     ecut=    30.00 Ry     beta= 0.70
     Davidson diagonalization with overlap

     ethr =  1.00E-02,  avg # of iterations =  2.4

     negative rho (up, down):  2.674E-02 0.000E+00

     total energy              =   -2000.04640198 Ry
     estimated scf accuracy    <       1.81299602 Ry

[...]

     total energy              =   -2000.98001605 Ry
     estimated scf accuracy    <       0.00000134 Ry

     iteration # 16     ecut=    30.00 Ry     beta= 0.70
     Davidson diagonalization with overlap

     ethr =  1.18E-09,  avg # of iterations =  1.6

     negative rho (up, down):  3.141E-03 0.000E+00

     End of self-consistent calculation

          k = 0.0000 0.0000 0.0000 (  3805 PWs)   bands (ev):

   -46.5047 -46.5039 -46.4560 -22.8258 -22.8243 -22.7929 -22.7905 -22.7814
   -22.7757 -22.7318 -22.7286 -22.6795 -15.7060 -15.5572 -15.5436  -7.5134
    -7.2526  -7.0715  -6.7984  -6.7875  -6.7258  -6.6191  -6.5986  -1.2773
    -1.2165  -1.1603  -1.1297  -0.8913  -0.8731  -0.8319  -0.8162  -0.7585
     5.5241   5.8902   6.1010   6.2905   6.3513   6.4616   6.5083   6.7625
     6.9502   6.9866   7.1514   7.2144   7.2884   7.3023   8.2087   8.3785
     8.4036   8.4215   8.4977   8.6957   9.0710   9.0887   9.1615   9.2164
    11.3556  11.6956  11.7071  11.7266  13.3164  13.3468  13.4781  13.5316

     occupation numbers
     1.0000   1.0000   1.0000   1.0000   1.0000   1.0000   1.0000   1.0000
     1.0000   1.0000   1.0000   1.0000   1.0000   1.0000   1.0000   1.0000
     1.0000   1.0000   1.0000   1.0000   1.0000   1.0000   1.0000   1.0000
     1.0000   1.0000   1.0000   1.0000   1.0000   1.0000   1.0000   1.0000
     1.0000   1.0000   1.0000   1.0000   1.0000   1.0000   1.0000   1.0000
     1.0000   1.0000   1.0000   1.0000   1.0000   1.0000   1.0000   1.0000
     1.0000   1.0000   1.0000   1.0000   1.0000   1.0000   1.0000   1.0000
     1.0000   0.0000   0.0000   0.0000   0.0000   0.0000   0.0000   0.0000

[...]

          k = 0.3333-0.5916-0.2744 (  3781 PWs)   bands (ev):

   -46.5043 -46.5040 -46.4560 -22.8275 -22.8240 -22.7980 -22.7975 -22.7747
   -22.7713 -22.7329 -22.7278 -22.6792 -15.6028 -15.5940 -15.5786  -7.5891
    -7.3591  -7.2804  -6.9361  -6.8154  -6.6651  -6.5894  -6.5863  -1.0879
    -0.9043  -0.8932  -0.8500  -0.8242  -0.7108  -0.6434  -0.6147  -0.6032
     5.5887   5.6845   5.8840   6.1911   6.3255   6.3775   6.5143   6.5663
     6.6743   6.9133   6.9272   7.1632   7.2246   7.3505   7.4568   7.8210
     7.9543   8.0684   8.1307   8.3419   8.4179   8.5329   8.6069   8.9784
    12.2844  12.4178  12.5789  12.6583  12.9925  13.2245  13.3385  13.3957

     occupation numbers
     1.0000   1.0000   1.0000   1.0000   1.0000   1.0000   1.0000   1.0000
     1.0000   1.0000   1.0000   1.0000   1.0000   1.0000   1.0000   1.0000
     1.0000   1.0000   1.0000   1.0000   1.0000   1.0000   1.0000   1.0000
     1.0000   1.0000   1.0000   1.0000   1.0000   1.0000   1.0000   1.0000
     1.0000   1.0000   1.0000   1.0000   1.0000   1.0000   1.0000   1.0000
     1.0000   1.0000   1.0000   1.0000   1.0000   1.0000   1.0000   1.0000
     1.0000   1.0000   1.0000   1.0000   1.0000   1.0000   1.0000   1.0000
     1.0000   0.0000   0.0000   0.0000   0.0000   0.0000   0.0000   0.0000

     highest occupied, lowest unoccupied level (ev):    12.2844   11.6956

!    total energy              =   -2000.98001544 Ry
     estimated scf accuracy    <       0.00000092 Ry

     The total energy is the sum of the following terms:
     one-electron contribution =    -251.00730114 Ry
     hartree contribution      =     191.79291712 Ry
     xc contribution           =    -174.81113234 Ry
     ewald contribution        =    -565.89425169 Ry
     one-center paw contrib.   =   -1201.06024739 Ry
      -> PAW hartree energy AE =      57.84931803 Ry
      -> PAW hartree energy PS =     -57.62579468 Ry
      -> PAW xc energy AE      =    -788.52863769 Ry
      -> PAW xc energy PS      =      38.38661224 Ry
      -> total E_H with PAW    =     192.01644047 Ry
      -> total E_XC with PAW   =    -924.95315780 Ry

     convergence has been achieved in  16 iterations

     Writing all to output data dir calculations_bands/myprefix.save/

     General routines

     Parallel routines

     PAW routines

   This run was terminated on:   6: 5:40   6Jun2023

   JOB DONE.