     Program PWSCF v.7.0 starts on  6Jun2023 at  9:58:36

     K-points division:     npool     =       2
     R & G space division:  proc/nbgrp/npool/nimage =       4

     Reading input from espresso_16215.pwi
Warning: card &CELL ignored
Warning: card / ignored

     Current dimensions of program PWSCF are:
     Max number of different atomic species (ntypx) = 10
     Max number of k-points (npk) =  40000
     Max angular momentum in pseudopotentials (lmaxx) =  4
     Message from routine setup:
     using ibrav=0 with symmetry is DISCOURAGED, use correct ibrav instead

     Using Slab Decomposition

     bravais-lattice index     =            0
     lattice parameter (alat)  =      11.3016  a.u.
     unit-cell volume          =     594.2746 (a.u.)^3
     number of atoms/cell      =            4
     number of atomic types    =            2
     number of electrons       =        58.00
     number of Kohn-Sham states=           64
     kinetic-energy cutoff     =      30.0000  Ry
     charge density cutoff     =     240.0000  Ry
     scf convergence threshold =      1.0E-06
     mixing beta               =       0.7000
     number of iterations used =            8  plain     mixing
     Exchange-correlation= PBE
                           (   1   4   3   4   0   0   0)

     celldm(1)=  11.301596  celldm(2)=   0.000000  celldm(3)=   0.000000
     celldm(4)=   0.000000  celldm(5)=   0.000000  celldm(6)=   0.000000

     crystal axes: (cart. coord. in units of alat)
               a(1) = (   1.000000   0.000000   0.000000 )
               a(2) = (  -0.792281   0.610157   0.000000 )
               a(3) = (   0.000000   0.000000   0.674724 )

     reciprocal axes: (cart. coord. in units 2 pi/alat)
               b(1) = (  1.000000  1.298487  0.000000 )
               b(2) = (  0.000000  1.638923  0.000000 )
               b(3) = (  0.000000  0.000000  1.482087 )

     PseudoPot. # 1 for Ce read from file:
     /home/pragov/projects/rrg-bengioy-ad/pragov/crystal_structure_design/SSSP/Ce.GGA-PBE-paw-v1.0.UPF
     MD5 check sum: f2b950f613061344c13339c8d844425d
     Pseudo is Projector augmented-wave + core cor, Zval = 12.0
     Generated using ATOMPAW code
     Shape of augmentation charge: BESSEL
     Using radial grid of 1102 points,  8 beta functions with:
                l(1) =   0
                l(2) =   0
                l(3) =   1
                l(4) =   1
                l(5) =   2
                l(6) =   2
                l(7) =   3
                l(8) =   3
     Q(r) pseudized with 0 coefficients

     PseudoPot. # 2 for Rh read from file:
     /home/pragov/projects/rrg-bengioy-ad/pragov/crystal_structure_design/SSSP/Rh_ONCV_PBE-1.0.oncvpsp.upf
     MD5 check sum: ba07c69523b14cacd10683cd4c4284c1
     Pseudo is Norm-conserving, Zval = 17.0
     Generated using ONCVPSP code by D. R. Hamann
     Using radial grid of 1442 points,  6 beta functions with:
                l(1) =   0
                l(2) =   0
                l(3) =   1
                l(4) =   1
                l(5) =   2
                l(6) =   2

     atomic species   valence    mass     pseudopotential
        Ce            12.00   140.11600     Ce( 1.00)
        Rh            17.00   102.90550     Rh( 1.00)

      4 Sym. Ops., with inversion, found ( 2 have fractional translation)

                                    s                        frac. trans.

      isym =  1     identity

 cryst.   s( 1) = (     1          0          0      )
                  (     0          1          0      )
                  (     0          0          1      )

 cart.    s( 1) = (  1.0000000  0.0000000  0.0000000 )
                  (  0.0000000  1.0000000  0.0000000 )
                  (  0.0000000  0.0000000  1.0000000 )

      isym =  2     180 deg rotation - cart. axis [0,0,1]

 cryst.   s( 2) = (    -1          0          0      )    f =(  0.0000000 )
                  (     0         -1          0      )       (  0.0000000 )
                  (     0          0          1      )       (  0.5000000 )

 cart.    s( 2) = ( -1.0000000 -0.0000000  0.0000000 )    f =( -0.0000000 )
                  (  0.0000000 -1.0000000  0.0000000 )       (  0.0000000 )
                  (  0.0000000  0.0000000  1.0000000 )       (  0.3373621 )

      isym =  3     inversion

 cryst.   s( 3) = (    -1          0          0      )
                  (     0         -1          0      )
                  (     0          0         -1      )

 cart.    s( 3) = ( -1.0000000 -0.0000000  0.0000000 )
                  (  0.0000000 -1.0000000  0.0000000 )
                  (  0.0000000  0.0000000 -1.0000000 )

      isym =  4     inv. 180 deg rotation - cart. axis [0,0,1]

 cryst.   s( 4) = (     1          0          0      )    f =(  0.0000000 )
                  (     0          1          0      )       (  0.0000000 )
                  (     0          0         -1      )       (  0.5000000 )

 cart.    s( 4) = (  1.0000000  0.0000000  0.0000000 )    f =(  0.0000000 )
                  (  0.0000000  1.0000000  0.0000000 )       (  0.0000000 )
                  (  0.0000000  0.0000000 -1.0000000 )       (  0.3373621 )

   Cartesian axes

     site n.     atom                  positions (alat units)
         1           Ce  tau(   1) = (   0.7544343   0.0835994   0.5060432  )
         2           Ce  tau(   2) = (  -0.5467149   0.5265575   0.1686811  )
         3           Rh  tau(   3) = (   0.2779905   0.2457980   0.5060432  )
         4           Rh  tau(   4) = (  -0.0702711   0.3643588   0.1686811  )

   Crystallographic axes

     site n.     atom                  positions (cryst. coord.)
         1           Ce  tau(   1) = (  0.8629870  0.1370130  0.7500000  )
         2           Ce  tau(   2) = (  0.1370130  0.8629870  0.2500000  )
         3           Rh  tau(   3) = (  0.5971560  0.4028440  0.7500000  )
         4           Rh  tau(   4) = (  0.4028440  0.5971560  0.2500000  )

     number of k points=    10
                       cart. coord. in units 2pi/alat
        k(    1) = (   0.0000000   0.0000000   0.0000000), wk =   0.0740741
        k(    2) = (   0.0000000   0.0000000   0.4940290), wk =   0.1481481
        k(    3) = (   0.0000000   0.5463076   0.0000000), wk =   0.1481481
        k(    4) = (   0.0000000   0.5463076   0.4940290), wk =   0.2962963
        k(    5) = (   0.3333333   0.4328289   0.0000000), wk =   0.1481481
        k(    6) = (   0.3333333   0.4328289   0.4940290), wk =   0.2962963
        k(    7) = (   0.3333333   0.9791365   0.0000000), wk =   0.1481481
        k(    8) = (   0.3333333   0.9791365   0.4940290), wk =   0.2962963
        k(    9) = (   0.3333333  -0.1134787   0.0000000), wk =   0.1481481
        k(   10) = (   0.3333333  -0.1134787   0.4940290), wk =   0.2962963

                       cryst. coord.
        k(    1) = (   0.0000000   0.0000000   0.0000000), wk =   0.0740741
        k(    2) = (   0.0000000   0.0000000   0.3333333), wk =   0.1481481
        k(    3) = (   0.0000000   0.3333333   0.0000000), wk =   0.1481481
        k(    4) = (   0.0000000   0.3333333   0.3333333), wk =   0.2962963
        k(    5) = (   0.3333333   0.0000000   0.0000000), wk =   0.1481481
        k(    6) = (   0.3333333   0.0000000   0.3333333), wk =   0.2962963
        k(    7) = (   0.3333333   0.3333333   0.0000000), wk =   0.1481481
        k(    8) = (   0.3333333   0.3333333   0.3333333), wk =   0.2962963
        k(    9) = (   0.3333333  -0.3333333   0.0000000), wk =   0.1481481
        k(   10) = (   0.3333333  -0.3333333   0.3333333), wk =   0.2962963

     Initial potential from superposition of free atoms

     starting charge      57.9851, renormalised to      58.0000
     Starting wfcs are   84 randomized atomic wfcs
     Checking if some PAW data can be deallocated...

     Self-consistent Calculation

     iteration #  1     ecut=    30.00 Ry     beta= 0.70
     Davidson diagonalization with overlap

     ethr =  1.00E-02,  avg # of iterations =  6.9

     total energy              =   -1396.47334199 Ry
     estimated scf accuracy    <       2.28347736 Ry

[...]

     total energy              =   -1398.14084320 Ry
     estimated scf accuracy    <       0.00000109 Ry

     iteration # 15     ecut=    30.00 Ry     beta= 0.70
     Davidson diagonalization with overlap

     ethr =  1.88E-09,  avg # of iterations =  1.6

     End of self-consistent calculation

          k = 0.0000 0.0000 0.0000 (  1653 PWs)   bands (ev):

   -61.6923 -61.6829 -29.6315 -29.6259 -29.6132 -29.5780 -29.5393 -29.4726
   -17.8554 -17.7083  -1.0686  -0.6757  -0.4478  -0.2984  -0.2896  -0.1222
    11.8781  12.2926  12.6440  13.1213  13.1515  13.2605  13.5995  13.9331
    14.5500  14.8916  15.1598  15.3670  16.7611  16.9760  17.0028  17.0448
    17.1127  17.1349  17.1535  17.2038  17.2125  17.2567  17.3550  17.4129
    17.4148  17.4172  18.5492  18.9953  19.3864  19.6098  20.1028  20.1903
    21.2782  22.4017  22.8391  23.0978  23.8924  25.3909  27.1136  27.6256
    28.1252  28.7985  29.2498  29.9776  31.7506  31.8662  32.2048  33.3209

     occupation numbers
     1.0000   1.0000   1.0000   1.0000   1.0000   1.0000   1.0000   1.0000
     1.0000   1.0000   1.0000   1.0000   1.0000   1.0000   1.0000   1.0000
     1.0000   1.0000   1.0000   1.0000   1.0000   1.0000   1.0000   1.0000
     1.0000   1.0000   1.0000   1.0000   1.0000   0.0000   0.0000   0.0000
     0.0000   0.0000   0.0000   0.0000   0.0000   0.0000   0.0000   0.0000
     0.0000   0.0000   0.0000   0.0000   0.0000   0.0000   0.0000   0.0000
     0.0000   0.0000   0.0000   0.0000   0.0000   0.0000   0.0000   0.0000
     0.0000   0.0000   0.0000   0.0000   0.0000   0.0000   0.0000   0.0000

[...]

          k = 0.3333-0.1135 0.4940 (  1649 PWs)   bands (ev):

   -61.6898 -61.6852 -29.6302 -29.6221 -29.6158 -29.6077 -29.5103 -29.4822
   -17.7718 -17.7335  -1.1187  -0.9781  -0.4839  -0.4700  -0.3659  -0.2701
    13.2195  13.4102  13.4467  13.6218  13.7416  13.9705  14.1646  14.2774
    14.5658  14.6766  14.7212  15.6678  16.3972  16.7792  16.9468  17.0445
    17.0664  17.0737  17.1699  17.1907  17.2462  17.2487  17.2972  17.3506
    17.4079  17.5750  17.6821  18.5838  18.7979  18.9573  19.1699  20.0451
    20.7682  21.3084  21.9010  22.1293  23.4975  25.1412  26.7773  28.5807
    28.6357  29.5055  29.6220  30.4277  30.6529  31.1354  32.6106  33.4415

     occupation numbers
     1.0000   1.0000   1.0000   1.0000   1.0000   1.0000   1.0000   1.0000
     1.0000   1.0000   1.0000   1.0000   1.0000   1.0000   1.0000   1.0000
     1.0000   1.0000   1.0000   1.0000   1.0000   1.0000   1.0000   1.0000
     1.0000   1.0000   1.0000   1.0000   1.0000   0.0000   0.0000   0.0000
     0.0000   0.0000   0.0000   0.0000   0.0000   0.0000   0.0000   0.0000
     0.0000   0.0000   0.0000   0.0000   0.0000   0.0000   0.0000   0.0000
     0.0000   0.0000   0.0000   0.0000   0.0000   0.0000   0.0000   0.0000
     0.0000   0.0000   0.0000   0.0000   0.0000   0.0000   0.0000   0.0000

     highest occupied, lowest unoccupied level (ev):    16.8396   16.7105

!    total energy              =   -1398.14084313 Ry
     estimated scf accuracy    <       0.00000012 Ry

     The total energy is the sum of the following terms:
     one-electron contribution =    -188.35501139 Ry
     hartree contribution      =     128.98039522 Ry
     xc contribution           =     -64.74595233 Ry
     ewald contribution        =    -457.41111743 Ry
     one-center paw contrib.   =    -816.60915720 Ry
      -> PAW hartree energy AE =      43.96519590 Ry
      -> PAW hartree energy PS =     -43.71829580 Ry
      -> PAW xc energy AE      =    -417.10926677 Ry
      -> PAW xc energy PS      =       8.55778807 Ry
      -> total E_H with PAW    =     129.22729532 Ry
      -> total E_XC with PAW   =    -473.29743103 Ry

     convergence has been achieved in  15 iterations

     Writing all to output data dir calculations_bands/myprefix.save/

     General routines

     Parallel routines

     PAW routines

   This run was terminated on:   9:58:55   6Jun2023

   JOB DONE.