     Program PWSCF v.7.0 starts on  5Jun2023 at  3:47:15

     K-points division:     npool     =       2
     R & G space division:  proc/nbgrp/npool/nimage =       4

     Reading input from espresso_9419.pwi
Warning: card &CELL ignored
Warning: card / ignored

     Current dimensions of program PWSCF are:
     Max number of different atomic species (ntypx) = 10
     Max number of k-points (npk) =  40000
     Max angular momentum in pseudopotentials (lmaxx) =  4
     Message from routine setup:
     using ibrav=0 with symmetry is DISCOURAGED, use correct ibrav instead

     Using Slab Decomposition

     bravais-lattice index     =            0
     lattice parameter (alat)  =      15.3194  a.u.
     unit-cell volume          =     449.1695 (a.u.)^3
     number of atoms/cell      =            8
     number of atomic types    =            2
     number of electrons       =        68.00
     number of Kohn-Sham states=           64
     kinetic-energy cutoff     =      30.0000  Ry
     charge density cutoff     =     240.0000  Ry
     scf convergence threshold =      1.0E-06
     mixing beta               =       0.7000
     number of iterations used =            8  plain     mixing
     Exchange-correlation=  SLA  PW   PBX  PBC
                           (   1   4   3   4   0   0   0)

     celldm(1)=  15.319416  celldm(2)=   0.000000  celldm(3)=   0.000000
     celldm(4)=   0.000000  celldm(5)=   0.000000  celldm(6)=   0.000000

     crystal axes: (cart. coord. in units of alat)
               a(1) = (   1.000000   0.000000   0.000000 )
               a(2) = (   0.870824   0.491595   0.000000 )
               a(3) = (  -0.935412  -0.245798   0.254142 )

     reciprocal axes: (cart. coord. in units 2 pi/alat)
               b(1) = (  1.000000 -1.771425  1.967406 )
               b(2) = (  0.000000  2.034195  1.967406 )
               b(3) = (  0.000000  0.000000  3.934812 )

     PseudoPot. # 1 for Cr read from file:
     /home/pragov/projects/rrg-bengioy-ad/pragov/crystal_structure_design/SSSP/cr_pbe_v1.5.uspp.F.UPF
     MD5 check sum: 0d52af634a40206e4dee301ad30da4bf
     Pseudo is Ultrasoft + core correction, Zval = 14.0
     Generated by new atomic code, or converted to UPF format
     Using radial grid of  857 points,  6 beta functions with:
                l(1) =   0
                l(2) =   0
                l(3) =   1
                l(4) =   1
                l(5) =   2
                l(6) =   2
     Q(r) pseudized with  8 coefficients,  rinner =    0.950   0.950   0.950
                                                       0.950   0.950

     PseudoPot. # 2 for B  read from file:
     /home/pragov/projects/rrg-bengioy-ad/pragov/crystal_structure_design/SSSP/b_pbe_v1.4.uspp.F.UPF
     MD5 check sum: cc6de2960df11db49a60e589f9ebb39b
     Pseudo is Ultrasoft + core correction, Zval =  3.0
     Generated by new atomic code, or converted to UPF format
     Using radial grid of  781 points,  4 beta functions with:
                l(1) =   0
                l(2) =   0
                l(3) =   1
                l(4) =   1
     Q(r) pseudized with  8 coefficients,  rinner =    1.100   1.100   1.100

     atomic species   valence    mass     pseudopotential
        Cr            14.00    51.99610     Cr( 1.00)
        B              3.00    10.81000     B ( 1.00)

      4 Sym. Ops., with inversion, found ( 2 have fractional translation)

                                    s                        frac. trans.

      isym =  1     identity

 cryst.   s( 1) = (     1          0          0      )
                  (     0          1          0      )
                  (     0          0          1      )

 cart.    s( 1) = (  1.0000000  0.0000000 -0.0000000 )
                  (  0.0000000  1.0000000 -0.0000000 )
                  (  0.0000000  0.0000000  1.0000000 )

      isym =  2     180 deg rotation - cart. axis [0,0,1]

 cryst.   s( 2) = (    -1          0          0      )
                  (     0         -1          0      )
                  (     1          1          1      )

 cart.    s( 2) = ( -1.0000000 -0.0000000 -0.0000000 )
                  (  0.0000000 -1.0000000 -0.0000000 )
                  (  0.0000000  0.0000000  1.0000000 )

      isym =  3     inversion

 cryst.   s( 3) = (    -1          0          0      )    f =(  0.2500000 )
                  (     0         -1          0      )       ( -0.2500000 )
                  (     0          0         -1      )       ( -0.5000000 )

 cart.    s( 3) = ( -1.0000000 -0.0000000  0.0000000 )    f =(  0.5000000 )
                  (  0.0000000 -1.0000000  0.0000000 )       (  0.0000000 )
                  (  0.0000000  0.0000000 -1.0000000 )       ( -0.1270709 )

      isym =  4     inv. 180 deg rotation - cart. axis [0,0,1]

 cryst.   s( 4) = (     1          0          0      )    f =(  0.2500000 )
                  (     0          1          0      )       ( -0.2500000 )
                  (    -1         -1         -1      )       ( -0.5000000 )

 cart.    s( 4) = (  1.0000000  0.0000000  0.0000000 )    f =(  0.5000000 )
                  (  0.0000000  1.0000000  0.0000000 )       ( -0.0000000 )
                  (  0.0000000  0.0000000 -1.0000000 )       ( -0.1270709 )

   Cartesian axes

     site n.     atom                  positions (alat units)
         1           Cr  tau(   1) = (   0.3696655   0.0971367   0.0000000  )
         2           Cr  tau(   2) = (   0.8696655   0.0971367   0.1270709  )
         3           Cr  tau(   3) = (   0.1303345  -0.0971367   0.1270709  )
         4           Cr  tau(   4) = (   1.5011585   0.3944583   0.0000000  )
         5           B   tau(   5) = (   0.6411126   0.1684647   0.0000000  )
         6           B   tau(   6) = (   0.1411126   0.1684647   0.1270709  )
         7           B   tau(   7) = (   0.7297113   0.3231303   0.1270709  )
         8           B   tau(   8) = (   1.2297113   0.3231303   0.0000000  )

   Crystallographic axes

     site n.     atom                  positions (cryst. coord.)
         1           Cr  tau(   1) = (  0.1975950  0.1975950  0.0000000  )
         2           Cr  tau(   2) = (  0.9475950  0.4475950  0.5000000  )
         3           Cr  tau(   3) = (  0.5524050  0.0524050  0.5000000  )
         4           Cr  tau(   4) = (  0.8024050  0.8024050  0.0000000  )
         5           B   tau(   5) = (  0.3426900  0.3426900  0.0000000  )
         6           B   tau(   6) = (  0.0926900  0.5926900  0.5000000  )
         7           B   tau(   7) = (  0.4073100  0.9073100  0.5000000  )
         8           B   tau(   8) = (  0.6573100  0.6573100  0.0000000  )

     number of k points=    10
                       cart. coord. in units 2pi/alat
        k(    1) = (   0.0000000   0.0000000   0.0000000), wk =   0.0740741
        k(    2) = (   0.0000000   0.0000000   1.3116039), wk =   0.1481481
        k(    3) = (   0.0000000   0.6780649   0.6558019), wk =   0.2962963
        k(    4) = (   0.0000000   0.6780649   1.9674058), wk =   0.1481481
        k(    5) = (   0.3333333  -0.5904751   0.6558019), wk =   0.2962963
        k(    6) = (   0.3333333  -0.5904751   1.9674058), wk =   0.1481481
        k(    7) = (   0.3333333   0.0875898   1.3116039), wk =   0.2962963
        k(    8) = (   0.3333333   0.0875898   0.0000000), wk =   0.1481481
        k(    9) = (   0.3333333  -1.2685400   0.0000000), wk =   0.1481481
        k(   10) = (   0.3333333  -1.2685400   1.3116039), wk =   0.2962963

                       cryst. coord.
        k(    1) = (   0.0000000   0.0000000   0.0000000), wk =   0.0740741
        k(    2) = (   0.0000000   0.0000000   0.3333333), wk =   0.1481481
        k(    3) = (   0.0000000   0.3333333  -0.0000000), wk =   0.2962963
        k(    4) = (   0.0000000   0.3333333   0.3333333), wk =   0.1481481
        k(    5) = (   0.3333333   0.0000000  -0.0000000), wk =   0.2962963
        k(    6) = (   0.3333333   0.0000000   0.3333333), wk =   0.1481481
        k(    7) = (   0.3333333   0.3333333  -0.0000000), wk =   0.2962963
        k(    8) = (   0.3333333   0.3333333  -0.3333333), wk =   0.1481481
        k(    9) = (   0.3333333  -0.3333333   0.0000000), wk =   0.1481481
        k(   10) = (   0.3333333  -0.3333333   0.3333333), wk =   0.2962963

     Check: negative core charge=   -0.000015

     Initial potential from superposition of free atoms

     starting charge      63.9988, renormalised to      68.0000

     negative rho (up, down):  2.005E-03 0.000E+00
     Starting wfcs are   56 randomized atomic wfcs +    8 random wfcs

     Self-consistent Calculation

     iteration #  1     ecut=    30.00 Ry     beta= 0.70
     Davidson diagonalization with overlap

     ethr =  1.00E-02,  avg # of iterations =  6.5

     negative rho (up, down):  1.199E-02 0.000E+00

     total energy              =    -720.03672474 Ry
     estimated scf accuracy    <      12.96913658 Ry

[...]

     total energy              =    -727.77410225 Ry
     estimated scf accuracy    <       0.00000459 Ry

     iteration # 10     ecut=    30.00 Ry     beta= 0.70
     Davidson diagonalization with overlap

     ethr =  6.75E-09,  avg # of iterations =  1.8

     negative rho (up, down):  2.716E-03 0.000E+00

     End of self-consistent calculation

          k = 0.0000 0.0000 0.0000 (  1253 PWs)   bands (ev):

   -53.7029 -53.6684 -53.6199 -53.5858 -25.1563 -25.0614 -25.0614 -25.0572
   -25.0572 -24.9585 -24.9366 -24.8922 -24.8922 -24.8695 -24.8695 -24.7332
     4.9381   5.9048   9.4377  11.1227  14.0078  14.4464  14.6117  14.8412
    14.8412  15.1281  15.1281  15.2311  16.2676  16.4902  17.7212  17.7825
    17.7825  18.0481  18.4646  18.4646  18.6590  18.6945  18.7962  19.0800
    20.1851  20.1851  21.5934  21.5934  22.3627  24.3518  24.4653  24.4653
    26.4251  26.4251  26.6101  27.1055  27.2409  28.8068  29.9386  30.2949
    32.5494  34.2618  34.3604  34.5241  34.5241  37.2504  37.5976  37.5976

     occupation numbers
     1.0000   1.0000   1.0000   1.0000   1.0000   1.0000   1.0000   1.0000
     1.0000   1.0000   1.0000   1.0000   1.0000   1.0000   1.0000   1.0000
     1.0000   1.0000   1.0000   1.0000   1.0000   1.0000   1.0000   1.0000
     1.0000   1.0000   1.0000   1.0000   1.0000   1.0000   1.0000   1.0000
     1.0000   1.0000   0.0000   0.0000   0.0000   0.0000   0.0000   0.0000
     0.0000   0.0000   0.0000   0.0000   0.0000   0.0000   0.0000   0.0000
     0.0000   0.0000   0.0000   0.0000   0.0000   0.0000   0.0000   0.0000
     0.0000   0.0000   0.0000   0.0000   0.0000   0.0000   0.0000   0.0000

[...]

          k = 0.3333-1.2685 1.3116 (  1243 PWs)   bands (ev):

   -53.6623 -53.6546 -53.6138 -53.6056 -25.1922 -25.1887 -25.1732 -25.0627
   -25.0198 -24.9925 -24.9336 -24.9289 -24.9282 -24.8768 -24.8129 -24.7467
     6.6149   6.8401  10.6159  11.1218  11.9464  12.7494  14.0497  14.3726
    15.1048  15.2147  15.2879  15.3357  15.9599  16.1395  16.7753  16.9194
    17.3469  17.7085  18.5971  18.7205  18.9648  19.0290  19.0579  19.3735
    19.4593  20.4249  20.6253  21.6740  22.9310  23.6963  24.6146  25.8704
    25.9538  27.1973  28.5750  28.8001  28.8049  29.5439  29.9687  30.4270
    32.9342  33.5348  34.1622  34.5330  35.2473  35.4930  36.2590  37.6067

     occupation numbers
     1.0000   1.0000   1.0000   1.0000   1.0000   1.0000   1.0000   1.0000
     1.0000   1.0000   1.0000   1.0000   1.0000   1.0000   1.0000   1.0000
     1.0000   1.0000   1.0000   1.0000   1.0000   1.0000   1.0000   1.0000
     1.0000   1.0000   1.0000   1.0000   1.0000   1.0000   1.0000   1.0000
     1.0000   1.0000   0.0000   0.0000   0.0000   0.0000   0.0000   0.0000
     0.0000   0.0000   0.0000   0.0000   0.0000   0.0000   0.0000   0.0000
     0.0000   0.0000   0.0000   0.0000   0.0000   0.0000   0.0000   0.0000
     0.0000   0.0000   0.0000   0.0000   0.0000   0.0000   0.0000   0.0000

     highest occupied, lowest unoccupied level (ev):    18.7874   18.2586

!    total energy              =    -727.77410270 Ry
     estimated scf accuracy    <       0.00000010 Ry

     The total energy is the sum of the following terms:
     one-electron contribution =    -250.86239697 Ry
     hartree contribution      =     165.44454367 Ry
     xc contribution           =    -102.17000883 Ry
     ewald contribution        =    -540.18624058 Ry

     convergence has been achieved in  10 iterations

     Writing all to output data dir calculations_bands/myprefix.save/

     General routines

     Parallel routines

   This run was terminated on:   3:48: 3   5Jun2023

   JOB DONE.