     Program PWSCF v.7.0 starts on  7Jun2023 at  4:41:21

     K-points division:     npool     =       2
     R & G space division:  proc/nbgrp/npool/nimage =       4

     Reading input from espresso_1606.pwi
Warning: card &CELL ignored
Warning: card / ignored

     Current dimensions of program PWSCF are:
     Max number of different atomic species (ntypx) = 10
     Max number of k-points (npk) =  40000
     Max angular momentum in pseudopotentials (lmaxx) =  4
     file Ga.pbe-dn-kjpaw_psl.1.0.0.UPF: wavefunction(s)  4S renormalized
     Message from routine setup:
     using ibrav=0 with symmetry is DISCOURAGED, use correct ibrav instead

     Using Slab Decomposition

     bravais-lattice index     =            0
     lattice parameter (alat)  =      12.6626  a.u.
     unit-cell volume          =    1199.0801 (a.u.)^3
     number of atoms/cell      =            8
     number of atomic types    =            3
     number of electrons       =        88.00
     number of Kohn-Sham states=           64
     kinetic-energy cutoff     =      30.0000  Ry
     charge density cutoff     =     240.0000  Ry
     scf convergence threshold =      1.0E-06
     mixing beta               =       0.7000
     number of iterations used =            8  plain     mixing
     Exchange-correlation=  SLA  PW   PBX  PBC
                           (   1   4   3   4   0   0   0)

     celldm(1)=  12.662557  celldm(2)=   0.000000  celldm(3)=   0.000000
     celldm(4)=   0.000000  celldm(5)=   0.000000  celldm(6)=   0.000000

     crystal axes: (cart. coord. in units of alat)
               a(1) = (   1.000000   0.000000   0.000000 )
               a(2) = (   0.254217   0.967147   0.000000 )
               a(3) = (  -0.627108  -0.483574   0.610649 )

     reciprocal axes: (cart. coord. in units 2 pi/alat)
               b(1) = (  1.000000 -0.262852  0.818802 )
               b(2) = (  0.000000  1.033969  0.818802 )
               b(3) = (  0.000000  0.000000  1.637603 )

     PseudoPot. # 1 for Ga read from file:
     /home/pragov/projects/rrg-bengioy-ad/pragov/crystal_structure_design/SSSP/Ga.pbe-dn-kjpaw_psl.1.0.0.UPF
     MD5 check sum: a27b4342b1af7e5f338de752e9ed7044
     Pseudo is Projector augmented-wave + core cor, Zval = 13.0
     Generated using "atomic" code by A. Dal Corso  v.5.1
     Shape of augmentation charge: PSQ
     Using radial grid of 1205 points,  6 beta functions with:
                l(1) =   0
                l(2) =   0
                l(3) =   1
                l(4) =   1
                l(5) =   2
                l(6) =   2
     Q(r) pseudized with 0 coefficients

     PseudoPot. # 2 for Ag read from file:
     /home/pragov/projects/rrg-bengioy-ad/pragov/crystal_structure_design/SSSP/Ag_ONCV_PBE-1.0.oncvpsp.upf
     MD5 check sum: 94f47bd0669c641108e45594df92fabc
     Pseudo is Norm-conserving, Zval = 19.0
     Generated using ONCVPSP code by D. R. Hamann
     Using radial grid of 1398 points,  6 beta functions with:
                l(1) =   0
                l(2) =   0
                l(3) =   1
                l(4) =   1
                l(5) =   2
                l(6) =   2

     PseudoPot. # 3 for S  read from file:
     /home/pragov/projects/rrg-bengioy-ad/pragov/crystal_structure_design/SSSP/s_pbe_v1.4.uspp.F.UPF
     MD5 check sum: 88d86576ff6df21479756cfb9bdac1df
     Pseudo is Ultrasoft + core correction, Zval =  6.0
     Generated by new atomic code, or converted to UPF format
     Using radial grid of  907 points,  6 beta functions with:
                l(1) =   0
                l(2) =   0
                l(3) =   1
                l(4) =   1
                l(5) =   2
                l(6) =   2
     Q(r) pseudized with  8 coefficients,  rinner =    1.300   1.300   1.300
                                                       1.300   1.300

     atomic species   valence    mass     pseudopotential
        Ga            13.00    69.72300     Ga( 1.00)
        Ag            19.00   107.86820     Ag( 1.00)
        S              6.00    32.06000     S ( 1.00)

      2 Sym. Ops. (no inversion) found ( 1 have fractional translation)

                                    s                        frac. trans.

      isym =  1     identity

 cryst.   s( 1) = (     1          0          0      )
                  (     0          1          0      )
                  (     0          0          1      )

 cart.    s( 1) = (  1.0000000  0.0000000 -0.0000000 )
                  (  0.0000000  1.0000000  0.0000000 )
                  (  0.0000000  0.0000000  1.0000000 )

      isym =  2     inv. 180 deg rotation - cart. axis [0,0,1]

 cryst.   s( 2) = (     1          0          0      )    f =(  0.2500000 )
                  (     0          1          0      )       ( -0.2500000 )
                  (    -1         -1         -1      )       ( -0.5000000 )

 cart.    s( 2) = (  1.0000000  0.0000000 -0.0000000 )    f =(  0.5000000 )
                  (  0.0000000  1.0000000 -0.0000000 )       (  0.0000000 )
                  (  0.0000000  0.0000000 -1.0000000 )       ( -0.3053243 )

   Cartesian axes

     site n.     atom                  positions (alat units)
         1           Ga  tau(   1) = (   0.1271084   0.4835736   0.3053243  )
         2           Ga  tau(   2) = (   0.6271084   0.4835736   0.0000000  )
         3           Ag  tau(   3) = (   0.0000000   0.0000000   0.0000000  )
         4           Ag  tau(   4) = (   0.5000000   0.0000000   0.3053243  )
         5           S   tau(   5) = (   0.4563523   0.3808084   0.2824323  )
         6           S   tau(   6) = (  -0.0156898   0.3445520   0.5877565  )
         7           S   tau(   7) = (  -0.1427981  -0.1390216   0.3282163  )
         8           S   tau(   8) = (   0.9563523   0.3808084   0.0228920  )

   Crystallographic axes

     site n.     atom                  positions (cryst. coord.)
         1           Ga  tau(   1) = (  0.2500000  0.7500000  0.5000000  )
         2           Ga  tau(   2) = (  0.5000000  0.5000000  0.0000000  )
         3           Ag  tau(   3) = (  0.0000000  0.0000000  0.0000000  )
         4           Ag  tau(   4) = (  0.7500000  0.2500000  0.5000000  )
         5           S   tau(   5) = (  0.5875120  0.6250000  0.4625120  )
         6           S   tau(   6) = (  0.3750000  0.8375120  0.9625120  )
         7           S   tau(   7) = (  0.1624880  0.1250000  0.5374880  )
         8           S   tau(   8) = (  0.8750000  0.4124880  0.0374880  )

     number of k points=    10
                       cart. coord. in units 2pi/alat
        k(    1) = (   0.0000000   0.0000000   0.0000000), wk =   0.0740741
        k(    2) = (   0.0000000   0.0000000   0.5458677), wk =   0.1481481
        k(    3) = (   0.0000000   0.3446562   0.2729339), wk =   0.2962963
        k(    4) = (   0.0000000   0.3446562   0.8188016), wk =   0.1481481
        k(    5) = (   0.3333333  -0.0876174   0.2729339), wk =   0.2962963
        k(    6) = (   0.3333333  -0.0876174   0.8188016), wk =   0.1481481
        k(    7) = (   0.3333333   0.2570388   0.5458677), wk =   0.2962963
        k(    8) = (   0.3333333   0.2570388  -0.0000000), wk =   0.1481481
        k(    9) = (   0.3333333  -0.4322736   0.0000000), wk =   0.1481481
        k(   10) = (   0.3333333  -0.4322736   0.5458677), wk =   0.2962963

                       cryst. coord.
        k(    1) = (   0.0000000   0.0000000   0.0000000), wk =   0.0740741
        k(    2) = (   0.0000000   0.0000000   0.3333333), wk =   0.1481481
        k(    3) = (   0.0000000   0.3333333   0.0000000), wk =   0.2962963
        k(    4) = (   0.0000000   0.3333333   0.3333333), wk =   0.1481481
        k(    5) = (   0.3333333   0.0000000  -0.0000000), wk =   0.2962963
        k(    6) = (   0.3333333   0.0000000   0.3333333), wk =   0.1481481
        k(    7) = (   0.3333333   0.3333333   0.0000000), wk =   0.2962963
        k(    8) = (   0.3333333   0.3333333  -0.3333333), wk =   0.1481481
        k(    9) = (   0.3333333  -0.3333333  -0.0000000), wk =   0.1481481
        k(   10) = (   0.3333333  -0.3333333   0.3333333), wk =   0.2962963

     Check: negative core charge=   -0.000002

     Initial potential from superposition of free atoms

     starting charge      87.9934, renormalised to      88.0000
     Starting wfcs are   54 randomized atomic wfcs +   10 random wfcs
     Checking if some PAW data can be deallocated...

     Self-consistent Calculation

     iteration #  1     ecut=    30.00 Ry     beta= 0.70
     Davidson diagonalization with overlap

     ethr =  1.00E-02,  avg # of iterations =  5.8

     Threshold (ethr) on eigenvalues was too large:
     Diagonalizing with lowered threshold

     Davidson diagonalization with overlap

[...]

     total energy              =   -1226.45819623 Ry
     estimated scf accuracy    <       0.42142038 Ry

[...]

     total energy              =   -1226.60694474 Ry
     estimated scf accuracy    <       0.00000993 Ry

     iteration #  7     ecut=    30.00 Ry     beta= 0.70
     Davidson diagonalization with overlap

     ethr =  1.13E-08,  avg # of iterations =  2.2

     End of self-consistent calculation

          k = 0.0000 0.0000 0.0000 (  3297 PWs)   bands (ev):

   -84.6399 -84.6399 -47.6970 -47.6956 -47.6885 -47.6885 -47.6864 -47.6864
    -8.1162  -8.1157  -8.1157  -7.9646  -7.9489  -7.9489  -7.8908  -7.8805
    -7.8783  -7.8628  -6.6489  -5.0122  -5.0122  -4.9696  -0.4073   1.8877
     2.5603   2.6316   2.8323   2.8323   3.1800   3.3280   3.3280   3.5226
     3.8602   3.8602   4.0851   4.2767   4.6119   4.7598   5.2829   5.2829
     5.3667   6.8240   6.8240   7.0717   7.8568   9.9822  10.5083  11.5003
    11.8718  11.8718  12.4572  12.5560  12.7367  12.7367  15.1841  15.1841
    15.1872  15.6748  16.5445  17.2734  17.6123  17.6123  17.9146  18.1885

     occupation numbers
     1.0000   1.0000   1.0000   1.0000   1.0000   1.0000   1.0000   1.0000
     1.0000   1.0000   1.0000   1.0000   1.0000   1.0000   1.0000   1.0000
     1.0000   1.0000   1.0000   1.0000   1.0000   1.0000   1.0000   1.0000
     1.0000   1.0000   1.0000   1.0000   1.0000   1.0000   1.0000   1.0000
     1.0000   1.0000   1.0000   1.0000   1.0000   1.0000   1.0000   1.0000
     1.0000   1.0000   1.0000   1.0000   0.0000   0.0000   0.0000   0.0000
     0.0000   0.0000   0.0000   0.0000   0.0000   0.0000   0.0000   0.0000
     0.0000   0.0000   0.0000   0.0000   0.0000   0.0000   0.0000   0.0000

[...]

          k = 0.3333-0.4323 0.5459 (  3346 PWs)   bands (ev):

   -84.6400 -84.6400 -47.7050 -47.7024 -47.6893 -47.6891 -47.6886 -47.6878
    -8.1236  -8.1170  -8.0714  -8.0345  -7.9533  -7.9431  -7.8886  -7.8863
    -7.8702  -7.8676  -5.9961  -5.7047  -5.1841  -5.0172   0.4191   0.9213
     2.5775   2.8326   2.8617   3.2582   3.2678   3.2781   3.4578   3.5177
     3.8784   4.0263   4.1802   4.3576   4.4813   4.7097   4.9549   5.3873
     5.5765   5.6914   6.4134   6.7354   9.7936  10.1370  10.3850  11.2469
    11.6875  11.6956  12.6236  12.7740  13.2281  13.6104  13.8280  14.1350
    15.2013  15.2181  15.7110  15.9701  16.1818  16.7286  16.9499  18.2583

     occupation numbers
     1.0000   1.0000   1.0000   1.0000   1.0000   1.0000   1.0000   1.0000
     1.0000   1.0000   1.0000   1.0000   1.0000   1.0000   1.0000   1.0000
     1.0000   1.0000   1.0000   1.0000   1.0000   1.0000   1.0000   1.0000
     1.0000   1.0000   1.0000   1.0000   1.0000   1.0000   1.0000   1.0000
     1.0000   1.0000   1.0000   1.0000   1.0000   1.0000   1.0000   1.0000
     1.0000   1.0000   1.0000   1.0000   0.0000   0.0000   0.0000   0.0000
     0.0000   0.0000   0.0000   0.0000   0.0000   0.0000   0.0000   0.0000
     0.0000   0.0000   0.0000   0.0000   0.0000   0.0000   0.0000   0.0000

     highest occupied, lowest unoccupied level (ev):     7.0717    7.8568

!    total energy              =   -1226.60694650 Ry
     estimated scf accuracy    <       0.00000070 Ry

     The total energy is the sum of the following terms:
     one-electron contribution =    -621.40274683 Ry
     hartree contribution      =     354.19720960 Ry
     xc contribution           =    -164.18172495 Ry
     ewald contribution        =    -573.30910146 Ry
     one-center paw contrib.   =    -221.91058286 Ry
      -> PAW hartree energy AE =     140.19303446 Ry
      -> PAW hartree energy PS =    -138.00608915 Ry
      -> PAW xc energy AE      =    -150.76645925 Ry
      -> PAW xc energy PS      =      37.62422251 Ry
      -> total E_H with PAW    =     356.38415491 Ry
      -> total E_XC with PAW   =    -277.32396169 Ry

     convergence has been achieved in   7 iterations

     Writing all to output data dir calculations_bands/myprefix.save/

     General routines

     Parallel routines

     PAW routines

   This run was terminated on:   4:41:32   7Jun2023

   JOB DONE.