     Program PWSCF v.7.0 starts on  6Jun2023 at  2:57:12

     K-points division:     npool     =       2
     R & G space division:  proc/nbgrp/npool/nimage =       4

     Reading input from espresso_13291.pwi
Warning: card &CELL ignored
Warning: card / ignored

     Current dimensions of program PWSCF are:
     Max number of different atomic species (ntypx) = 10
     Max number of k-points (npk) =  40000
     Max angular momentum in pseudopotentials (lmaxx) =  4
     file Ba.pbe-spn-kjpaw_psl.1.0.0.UPF: wavefunction(s)  5S 6S renormalized
     Message from routine setup:
     using ibrav=0 with symmetry is DISCOURAGED, use correct ibrav instead

     Using Slab Decomposition

     bravais-lattice index     =            0
     lattice parameter (alat)  =      15.6050  a.u.
     unit-cell volume          =    2273.2512 (a.u.)^3
     number of atoms/cell      =           14
     number of atomic types    =            3
     number of electrons       =       122.00
     number of Kohn-Sham states=           64
     kinetic-energy cutoff     =      30.0000  Ry
     charge density cutoff     =     240.0000  Ry
     scf convergence threshold =      1.0E-06
     mixing beta               =       0.7000
     number of iterations used =            8  plain     mixing
     Exchange-correlation= PBE
                           (   1   4   3   4   0   0   0)

     celldm(1)=  15.605040  celldm(2)=   0.000000  celldm(3)=   0.000000
     celldm(4)=   0.000000  celldm(5)=   0.000000  celldm(6)=   0.000000

     crystal axes: (cart. coord. in units of alat)
               a(1) = (   1.000000   0.000000   0.000000 )
               a(2) = (  -0.500000   0.866025   0.000000 )
               a(3) = (   0.000000   0.000000   0.690752 )

     reciprocal axes: (cart. coord. in units 2 pi/alat)
               b(1) = (  1.000000  0.577350  0.000000 )
               b(2) = (  0.000000  1.154701  0.000000 )
               b(3) = (  0.000000  0.000000  1.447698 )

     PseudoPot. # 1 for Ba read from file:
     /home/pragov/projects/rrg-bengioy-ad/pragov/crystal_structure_design/SSSP/Ba.pbe-spn-kjpaw_psl.1.0.0.UPF
     MD5 check sum: c432291d3e53af55f19d5e8866385beb
     Pseudo is Projector augmented-wave + core cor, Zval = 10.0
     Generated using "atomic" code by A. Dal Corso  v.5.1
     Shape of augmentation charge: PSQ
     Using radial grid of 1251 points,  7 beta functions with:
                l(1) =   0
                l(2) =   0
                l(3) =   0
                l(4) =   1
                l(5) =   1
                l(6) =   2
                l(7) =   2
     Q(r) pseudized with 0 coefficients

     PseudoPot. # 2 for Os read from file:
     /home/pragov/projects/rrg-bengioy-ad/pragov/crystal_structure_design/SSSP/Os_pbe_v1.2.uspp.F.UPF
     MD5 check sum: a3fb40a04f0c37c25c34bbc47164c9a8
     Pseudo is Ultrasoft + core correction, Zval = 16.0
     Generated by new atomic code, or converted to UPF format
     Using radial grid of  983 points,  8 beta functions with:
                l(1) =   0
                l(2) =   0
                l(3) =   1
                l(4) =   1
                l(5) =   2
                l(6) =   2
                l(7) =   3
                l(8) =   3
     Q(r) pseudized with  8 coefficients,  rinner =    1.150   1.150   1.150
                                                       1.150   1.150   1.150
                                                       1.150

     PseudoPot. # 3 for N  read from file:
     /home/pragov/projects/rrg-bengioy-ad/pragov/crystal_structure_design/SSSP/N.pbe-n-radius_5.UPF
     MD5 check sum: 16739722b17309cd8fe442a2ace49922
     Pseudo is Ultrasoft + core correction, Zval =  5.0
     Generated using "atomic" code by A. Dal Corso  v.5.1
     Using radial grid of 1085 points,  4 beta functions with:
                l(1) =   0
                l(2) =   0
                l(3) =   1
                l(4) =   1
     Q(r) pseudized with 0 coefficients

     atomic species   valence    mass     pseudopotential
        Ba            10.00   137.32700     Ba( 1.00)
        Os            16.00   190.23000     Os( 1.00)
        N              5.00    14.00700     N ( 1.00)

     12 Sym. Ops., with inversion, found ( 6 have fractional translation)

                                    s                        frac. trans.

      isym =  1     identity

 cryst.   s( 1) = (     1          0          0      )
                  (     0          1          0      )
                  (     0          0          1      )

 cart.    s( 1) = (  1.0000000  0.0000000  0.0000000 )
                  (  0.0000000  1.0000000  0.0000000 )
                  (  0.0000000  0.0000000  1.0000000 )

      isym =  2     180 deg rotation - cart. axis [0,0,1]

 cryst.   s( 2) = (    -1          0          0      )    f =(  0.0000000 )
                  (     0         -1          0      )       (  0.0000000 )
                  (     0          0          1      )       (  0.5000000 )

 cart.    s( 2) = ( -1.0000000 -0.0000000  0.0000000 )    f =( -0.0000000 )
                  (  0.0000000 -1.0000000  0.0000000 )       (  0.0000000 )
                  (  0.0000000  0.0000000  1.0000000 )       (  0.3453760 )

      isym =  3      60 deg rotation - cryst. axis [0,0,1]

[...]

      isym =  6     120 deg rotation - cryst. axis [0,0,-1]

[...]

      isym =  7     inversion

 cryst.   s( 7) = (    -1          0          0      )
                  (     0         -1          0      )
                  (     0          0         -1      )

 cart.    s( 7) = ( -1.0000000 -0.0000000  0.0000000 )
                  (  0.0000000 -1.0000000  0.0000000 )
                  (  0.0000000  0.0000000 -1.0000000 )

      isym =  8     inv. 180 deg rotation - cart. axis [0,0,1]

[...]

      isym =  9     inv.  60 deg rotation - cryst. axis [0,0,1]

 cryst.   s( 9) = (    -1         -1          0      )    f =(  0.0000010 )
                  (     1          0          0      )       (  0.0000000 )
                  (     0          0         -1      )       (  0.5000000 )

 cart.    s( 9) = ( -0.5000000  0.8660254  0.0000000 )    f =(  0.0000010 )
                  ( -0.8660254 -0.5000000  0.0000000 )       (  0.0000000 )
                  (  0.0000000  0.0000000 -1.0000000 )       (  0.3453760 )

[...]

 cryst.   s(10) = (     0          1          0      )    f =(  0.0000000 )
                  (    -1         -1          0      )       ( -0.0000010 )
                  (     0          0         -1      )       (  0.5000000 )

 cart.    s(10) = ( -0.5000000 -0.8660254  0.0000000 )    f =(  0.0000005 )
                  (  0.8660254 -0.5000000  0.0000000 )       ( -0.0000009 )
                  (  0.0000000  0.0000000 -1.0000000 )       (  0.3453760 )

[...]

 cryst.   s(11) = (     0         -1          0      )
                  (     1          1          0      )
                  (     0          0         -1      )

 cart.    s(11) = (  0.5000000  0.8660254  0.0000000 )
                  ( -0.8660254  0.5000000  0.0000000 )
                  (  0.0000000  0.0000000 -1.0000000 )

      isym = 12     inv. 120 deg rotation - cryst. axis [0,0,-1]

 cryst.   s(12) = (     1          1          0      )
                  (    -1          0          0      )
                  (     0          0         -1      )

 cart.    s(12) = (  0.5000000 -0.8660254  0.0000000 )
                  (  0.8660254  0.5000000  0.0000000 )
                  (  0.0000000  0.0000000 -1.0000000 )

   Cartesian axes

     site n.     atom                  positions (alat units)
         1           Ba  tau(   1) = (   0.3101795   0.0853304   0.1726880  )
         2           Ba  tau(   2) = (   0.7710115   0.2259590   0.1726880  )
         3           Ba  tau(   3) = (   0.4188075   0.5547369   0.1726880  )
         4           Ba  tau(   4) = (   0.1898205   0.7806951   0.5180639  )
         5           Ba  tau(   5) = (  -0.2710115   0.6400664   0.5180639  )
         6           Ba  tau(   6) = (   0.0811925   0.3112885   0.5180639  )
         7           Os  tau(   7) = (   0.5000005   0.2886749   0.5180639  )
         8           Os  tau(   8) = (  -0.0000005   0.5773506   0.1726880  )
         9           N   tau(   9) = (   0.3747240   0.1030536   0.5180639  )
        10           N   tau(  10) = (   0.7233910   0.2729937   0.5180639  )
        11           N   tau(  11) = (   0.4018850   0.4899781   0.5180639  )
        12           N   tau(  12) = (   0.1252760   0.7629719   0.1726880  )
        13           N   tau(  13) = (  -0.2233910   0.5930317   0.1726880  )
        14           N   tau(  14) = (   0.0981150   0.3760473   0.1726880  )

   Crystallographic axes

     site n.     atom                  positions (cryst. coord.)
         1           Ba  tau(   1) = (  0.3594450  0.0985310  0.2500000  )
         2           Ba  tau(   2) = (  0.9014690  0.2609150  0.2500000  )
         3           Ba  tau(   3) = (  0.7390850  0.6405550  0.2500000  )
         4           Ba  tau(   4) = (  0.6405550  0.9014690  0.7500000  )
         5           Ba  tau(   5) = (  0.0985310  0.7390850  0.7500000  )
         6           Ba  tau(   6) = (  0.2609150  0.3594450  0.7500000  )
         7           Os  tau(   7) = (  0.6666670  0.3333330  0.7500000  )
         8           Os  tau(   8) = (  0.3333330  0.6666670  0.2500000  )
         9           N   tau(   9) = (  0.4342220  0.1189960  0.7500000  )
        10           N   tau(  10) = (  0.8810040  0.3152260  0.7500000  )
        11           N   tau(  11) = (  0.6847740  0.5657780  0.7500000  )
        12           N   tau(  12) = (  0.5657780  0.8810040  0.2500000  )
        13           N   tau(  13) = (  0.1189960  0.6847740  0.2500000  )
        14           N   tau(  14) = (  0.3152260  0.4342220  0.2500000  )

     number of k points=     6
                       cart. coord. in units 2pi/alat
        k(    1) = (   0.0000000   0.0000000   0.0000000), wk =   0.0740741
        k(    2) = (   0.0000000   0.0000000   0.4825659), wk =   0.1481481
        k(    3) = (   0.0000000   0.3849002   0.0000000), wk =   0.4444444
        k(    4) = (   0.0000000   0.3849002   0.4825659), wk =   0.8888889
        k(    5) = (   0.3333333   0.5773502   0.0000000), wk =   0.1481481
        k(    6) = (   0.3333333   0.5773502   0.4825659), wk =   0.2962963

                       cryst. coord.
        k(    1) = (   0.0000000   0.0000000   0.0000000), wk =   0.0740741
        k(    2) = (   0.0000000   0.0000000   0.3333333), wk =   0.1481481
        k(    3) = (   0.0000000   0.3333333   0.0000000), wk =   0.4444444
        k(    4) = (   0.0000000   0.3333333   0.3333333), wk =   0.8888889
        k(    5) = (   0.3333333   0.3333333   0.0000000), wk =   0.1481481
        k(    6) = (   0.3333333   0.3333333   0.3333333), wk =   0.2962963

     Check: negative core charge=   -0.000002

     Initial potential from superposition of free atoms

     starting charge     120.8979, renormalised to     122.0000

     negative rho (up, down):  2.515E-01 0.000E+00
     Starting wfcs are   80 randomized atomic wfcs
     Checking if some PAW data can be deallocated...

     Self-consistent Calculation

     iteration #  1     ecut=    30.00 Ry     beta= 0.70
     Davidson diagonalization with overlap

     ethr =  1.00E-02,  avg # of iterations =  4.0

     negative rho (up, down):  2.481E-01 0.000E+00

     total energy              =   -3132.53863160 Ry
     estimated scf accuracy    <       5.41426625 Ry

[...]

     total energy              =   -3135.77915256 Ry
     estimated scf accuracy    <       0.00000442 Ry

     iteration # 14     ecut=    30.00 Ry     beta= 0.70
     Davidson diagonalization with overlap

     ethr =  3.63E-09,  avg # of iterations =  4.2

     negative rho (up, down):  2.551E-01 0.000E+00

     End of self-consistent calculation

          k = 0.0000 0.0000 0.0000 (  6313 PWs)   bands (ev):

   -77.1585 -77.1584 -36.8007 -36.8006 -36.8004 -36.8004 -36.0834 -36.0823
   -17.9624 -17.8535 -17.8535 -17.7962 -17.7962 -17.7945  -4.8437  -4.7427
    -4.4317  -4.4315  -4.2163  -4.2161  -3.6661  -3.6324  -3.3559  -3.3038
    -3.3038  -3.1480  -3.1479  -3.0267  -3.0267  -3.0231  -3.0230  -3.0052
    -2.7753  -2.7061  -2.6324  -2.6324  -2.5689  -2.5688   4.9642   4.9643
     4.9981   4.9982   5.3844   5.3912   5.6978   5.6980   5.9028   5.9029
     6.8690   6.8690   7.0626   7.0626   7.3790   7.4960   7.4979   7.5176
     7.8507   8.0496   9.9961  10.6241  10.6241  10.7567  10.7568  10.8476

     occupation numbers
     1.0000   1.0000   1.0000   1.0000   1.0000   1.0000   1.0000   1.0000
     1.0000   1.0000   1.0000   1.0000   1.0000   1.0000   1.0000   1.0000
     1.0000   1.0000   1.0000   1.0000   1.0000   1.0000   1.0000   1.0000
     1.0000   1.0000   1.0000   1.0000   1.0000   1.0000   1.0000   1.0000
     1.0000   1.0000   1.0000   1.0000   1.0000   1.0000   1.0000   1.0000
     1.0000   1.0000   1.0000   1.0000   1.0000   1.0000   1.0000   1.0000
     1.0000   1.0000   1.0000   1.0000   1.0000   1.0000   1.0000   1.0000
     1.0000   1.0000   1.0000   1.0000   1.0000   0.0000   0.0000   0.0000

[...]

          k = 0.3333 0.5774 0.4826 (  6300 PWs)   bands (ev):

   -77.1585 -77.1584 -36.8008 -36.8006 -36.8005 -36.8002 -36.0827 -36.0826
   -17.8766 -17.8766 -17.8678 -17.8160 -17.8160 -17.7969  -5.3065  -5.3065
    -4.5762  -4.5320  -4.5320  -4.4155  -3.3972  -3.3243  -3.3242  -3.1342
    -3.1341  -3.1008  -2.9865  -2.9055  -2.9055  -2.8838  -2.8427  -2.8427
    -2.5712  -2.5711  -2.5607  -2.4404  -2.4403  -2.3670   4.5949   4.5949
     4.6549   4.6949   5.3573   5.3573   5.4827   5.5368   5.5369   5.5863
     6.7959   6.7959   7.3822   7.3822   7.5582   7.5582   7.5795   7.6182
     7.6579   7.6580   9.8909  10.1915  10.2583  10.2584  10.3046  10.7297

     occupation numbers
     1.0000   1.0000   1.0000   1.0000   1.0000   1.0000   1.0000   1.0000
     1.0000   1.0000   1.0000   1.0000   1.0000   1.0000   1.0000   1.0000
     1.0000   1.0000   1.0000   1.0000   1.0000   1.0000   1.0000   1.0000
     1.0000   1.0000   1.0000   1.0000   1.0000   1.0000   1.0000   1.0000
     1.0000   1.0000   1.0000   1.0000   1.0000   1.0000   1.0000   1.0000
     1.0000   1.0000   1.0000   1.0000   1.0000   1.0000   1.0000   1.0000
     1.0000   1.0000   1.0000   1.0000   1.0000   1.0000   1.0000   1.0000
     1.0000   1.0000   1.0000   1.0000   1.0000   0.0000   0.0000   0.0000

     highest occupied, lowest unoccupied level (ev):    10.6241   10.2584

!    total energy              =   -3135.77915308 Ry
     estimated scf accuracy    <       0.00000078 Ry

     The total energy is the sum of the following terms:
     one-electron contribution =    -343.28174135 Ry
     hartree contribution      =     226.47870328 Ry
     xc contribution           =    -228.63654201 Ry
     ewald contribution        =    -540.61041448 Ry
     one-center paw contrib.   =   -2249.72915852 Ry
      -> PAW hartree energy AE =      57.70591670 Ry
      -> PAW hartree energy PS =     -57.49115022 Ry
      -> PAW xc energy AE      =    -788.48874182 Ry
      -> PAW xc energy PS      =      38.36425584 Ry
      -> total E_H with PAW    =     226.69346975 Ry
      -> total E_XC with PAW   =    -978.76102799 Ry

     convergence has been achieved in  14 iterations

     Writing all to output data dir calculations_bands/myprefix.save/

     General routines

     Parallel routines

     PAW routines

   This run was terminated on:   2:57:41   6Jun2023

   JOB DONE.