     Program PWSCF v.7.0 starts on  5Jun2023 at  2:15:29

     K-points division:     npool     =       2
     R & G space division:  proc/nbgrp/npool/nimage =       4

     Reading input from espresso_9350.pwi
Warning: card &CELL ignored
Warning: card / ignored

     Current dimensions of program PWSCF are:
     Max number of different atomic species (ntypx) = 10
     Max number of k-points (npk) =  40000
     Max angular momentum in pseudopotentials (lmaxx) =  4
     Message from routine setup:
     using ibrav=0 with symmetry is DISCOURAGED, use correct ibrav instead

     Using Slab Decomposition

     bravais-lattice index     =            0
     lattice parameter (alat)  =      12.1063  a.u.
     unit-cell volume          =    1442.8838 (a.u.)^3
     number of atoms/cell      =           10
     number of atomic types    =            2
     number of electrons       =        80.00
     number of Kohn-Sham states=           64
     kinetic-energy cutoff     =      30.0000  Ry
     charge density cutoff     =     240.0000  Ry
     scf convergence threshold =      1.0E-06
     mixing beta               =       0.7000
     number of iterations used =            8  plain     mixing
     Exchange-correlation=  SLA  PW   PBX  PBC
                           (   1   4   3   4   0   0   0)

     celldm(1)=  12.106264  celldm(2)=   0.000000  celldm(3)=   0.000000
     celldm(4)=   0.000000  celldm(5)=   0.000000  celldm(6)=   0.000000

     crystal axes: (cart. coord. in units of alat)
               a(1) = (   1.000000   0.000000   0.000000 )
               a(2) = (  -0.499721   0.866187   0.000000 )
               a(3) = (   0.165874   0.287195   0.938835 )

     reciprocal axes: (cart. coord. in units 2 pi/alat)
               b(1) = (  1.000000  0.576920 -0.353163 )
               b(2) = (  0.000000  1.154486 -0.353163 )
               b(3) = (  0.000000  0.000000  1.065149 )

     PseudoPot. # 1 for Sc read from file:
     /home/pragov/projects/rrg-bengioy-ad/pragov/crystal_structure_design/SSSP/Sc_ONCV_PBE-1.0.oncvpsp.upf
     MD5 check sum: e21af8023abb52e52cb7cd3133e4a229
     Pseudo is Norm-conserving, Zval = 11.0
     Generated using ONCVPSP code by D. R. Hamann
     Using radial grid of 1662 points,  6 beta functions with:
                l(1) =   0
                l(2) =   0
                l(3) =   1
                l(4) =   1
                l(5) =   2
                l(6) =   2

     PseudoPot. # 2 for S  read from file:
     /home/pragov/projects/rrg-bengioy-ad/pragov/crystal_structure_design/SSSP/s_pbe_v1.4.uspp.F.UPF
     MD5 check sum: 88d86576ff6df21479756cfb9bdac1df
     Pseudo is Ultrasoft + core correction, Zval =  6.0
     Generated by new atomic code, or converted to UPF format
     Using radial grid of  907 points,  6 beta functions with:
                l(1) =   0
                l(2) =   0
                l(3) =   1
                l(4) =   1
                l(5) =   2
                l(6) =   2
     Q(r) pseudized with  8 coefficients,  rinner =    1.300   1.300   1.300
                                                       1.300   1.300

     atomic species   valence    mass     pseudopotential
        Sc            11.00    44.95591     Sc( 1.00)
        S              6.00    32.06000     S ( 1.00)

      2 Sym. Ops., with inversion, found

                                    s                        frac. trans.

      isym =  1     identity

 cryst.   s( 1) = (     1          0          0      )
                  (     0          1          0      )
                  (     0          0          1      )

 cart.    s( 1) = (  1.0000000  0.0000000 -0.0000000 )
                  (  0.0000000  1.0000000 -0.0000000 )
                  (  0.0000000  0.0000000  1.0000000 )

      isym =  2     inversion

 cryst.   s( 2) = (    -1          0          0      )
                  (     0         -1          0      )
                  (     0          0         -1      )

 cart.    s( 2) = ( -1.0000000 -0.0000000  0.0000000 )
                  (  0.0000000 -1.0000000  0.0000000 )
                  (  0.0000000  0.0000000 -1.0000000 )

   Cartesian axes

     site n.     atom                  positions (alat units)
         1           Sc  tau(   1) = (   0.5822790   0.4327598   0.4694177  )
         2           Sc  tau(   2) = (   0.0838739   0.7206213   0.4694177  )
         3           Sc  tau(   3) = (   0.0829368   0.1435973   0.4694177  )
         4           Sc  tau(   4) = (   0.2501397   0.4330933   0.0000000  )
         5           S   tau(   5) = (   0.7394559   0.7201747   0.6978289  )
         6           S   tau(   6) = (   0.2542843   1.0003930   0.6978289  )
         7           S   tau(   7) = (   0.2544513   0.4405585   0.7000295  )
         8           S   tau(   8) = (  -0.0733030   0.4332064   0.2410066  )
         9           S   tau(   9) = (   0.4117011   0.7128234   0.2388059  )
        10           S   tau(  10) = (   0.4118686   0.1529881   0.2410066  )

   Crystallographic axes

     site n.     atom                  positions (cryst. coord.)
         1           Sc  tau(   1) = (  0.6661660  0.3338340  0.5000000  )
         2           Sc  tau(   2) = (  0.3338340  0.6661660  0.5000000  )
         3           Sc  tau(   3) = (  0.0000000  0.0000000  0.5000000  )
         4           Sc  tau(   4) = (  0.5000000  0.5000000  0.0000000  )
         5           S   tau(   5) = (  0.9084920  0.5849840  0.7432920  )
         6           S   tau(   6) = (  0.5849840  0.9084920  0.7432920  )
         7           S   tau(   7) = (  0.2613940  0.2613940  0.7456360  )
         8           S   tau(   8) = (  0.0915080  0.4150160  0.2567080  )
         9           S   tau(   9) = (  0.7386060  0.7386070  0.2543640  )
        10           S   tau(  10) = (  0.4150160  0.0915080  0.2567080  )

     number of k points=    14
                       cart. coord. in units 2pi/alat
        k(    1) = (   0.0000000   0.0000000   0.0000000), wk =   0.0740741
        k(    2) = (   0.0000000   0.0000000   0.3550498), wk =   0.1481481
        k(    3) = (   0.0000000   0.3848285  -0.1177210), wk =   0.1481481
        k(    4) = (   0.0000000   0.3848285   0.2373288), wk =   0.1481481
        k(    5) = (   0.0000000   0.3848285  -0.4727708), wk =   0.1481481
        k(    6) = (   0.3333333   0.1923068  -0.1177210), wk =   0.1481481
        k(    7) = (   0.3333333   0.1923068   0.2373288), wk =   0.1481481
        k(    8) = (   0.3333333   0.1923068  -0.4727708), wk =   0.1481481
        k(    9) = (   0.3333333   0.5771353  -0.2354420), wk =   0.1481481
        k(   10) = (   0.3333333   0.5771353   0.1196078), wk =   0.1481481
        k(   11) = (   0.3333333   0.5771353  -0.5904918), wk =   0.1481481
        k(   12) = (   0.3333333  -0.1925218  -0.0000000), wk =   0.1481481
        k(   13) = (   0.3333333  -0.1925218   0.3550498), wk =   0.1481481
        k(   14) = (   0.3333333  -0.1925218  -0.3550498), wk =   0.1481481

                       cryst. coord.
        k(    1) = (   0.0000000   0.0000000   0.0000000), wk =   0.0740741
        k(    2) = (   0.0000000   0.0000000   0.3333333), wk =   0.1481481
        k(    3) = (   0.0000000   0.3333333   0.0000000), wk =   0.1481481
        k(    4) = (   0.0000000   0.3333333   0.3333333), wk =   0.1481481
        k(    5) = (   0.0000000   0.3333333  -0.3333333), wk =   0.1481481
        k(    6) = (   0.3333333   0.0000000   0.0000000), wk =   0.1481481
        k(    7) = (   0.3333333   0.0000000   0.3333333), wk =   0.1481481
        k(    8) = (   0.3333333   0.0000000  -0.3333333), wk =   0.1481481
        k(    9) = (   0.3333333   0.3333333  -0.0000000), wk =   0.1481481
        k(   10) = (   0.3333333   0.3333333   0.3333333), wk =   0.1481481
        k(   11) = (   0.3333333   0.3333333  -0.3333333), wk =   0.1481481
        k(   12) = (   0.3333333  -0.3333333   0.0000000), wk =   0.1481481
        k(   13) = (   0.3333333  -0.3333333   0.3333333), wk =   0.1481481
        k(   14) = (   0.3333333  -0.3333333  -0.3333333), wk =   0.1481481

     Initial potential from superposition of free atoms

     starting charge      79.9892, renormalised to      80.0000
     Starting wfcs are   64 randomized atomic wfcs

     Self-consistent Calculation

     iteration #  1     ecut=    30.00 Ry     beta= 0.70
     Davidson diagonalization with overlap

     ethr =  1.00E-02,  avg # of iterations =  5.6

     Threshold (ethr) on eigenvalues was too large:
     Diagonalizing with lowered threshold

     Davidson diagonalization with overlap

[...]

     total energy              =    -513.15411201 Ry
     estimated scf accuracy    <       0.68676386 Ry

[...]

     total energy              =    -513.43694007 Ry
     estimated scf accuracy    <       0.00000759 Ry

     iteration #  9     ecut=    30.00 Ry     beta= 0.70
     Davidson diagonalization with overlap

     ethr =  9.49E-09,  avg # of iterations =  2.0

     End of self-consistent calculation

          k = 0.0000 0.0000 0.0000 (  4005 PWs)   bands (ev):

   -42.7909 -42.5571 -42.5175 -42.5116 -21.3883 -21.3661 -21.3572 -21.1885
   -21.1486 -21.1394 -21.1281 -21.1187 -21.1056 -21.0849 -21.0654 -21.0514
    -5.8324  -4.6098  -4.5824  -4.5769  -4.5488  -4.5055   2.3289   3.0739
     3.3199   3.4130   3.4710   3.9049   3.9346   4.2441   4.2693   4.3386
     4.5235   5.0258   5.0591   5.0784   5.4751   6.6768   6.6823   6.7009
     8.7967   8.9283   8.9314   9.3498   9.4520   9.6288   9.6370   9.9419
    10.0296  10.0637  10.1571  10.2136  10.2663  10.2713  11.0730  11.2363
    11.3754  11.7105  12.3034  12.3572  12.3767  12.4424  14.0584  14.5906

     occupation numbers
     1.0000   1.0000   1.0000   1.0000   1.0000   1.0000   1.0000   1.0000
     1.0000   1.0000   1.0000   1.0000   1.0000   1.0000   1.0000   1.0000
     1.0000   1.0000   1.0000   1.0000   1.0000   1.0000   1.0000   1.0000
     1.0000   1.0000   1.0000   1.0000   1.0000   1.0000   1.0000   1.0000
     1.0000   1.0000   1.0000   1.0000   1.0000   1.0000   1.0000   1.0000
     0.0000   0.0000   0.0000   0.0000   0.0000   0.0000   0.0000   0.0000
     0.0000   0.0000   0.0000   0.0000   0.0000   0.0000   0.0000   0.0000
     0.0000   0.0000   0.0000   0.0000   0.0000   0.0000   0.0000   0.0000

[...]

          k = 0.3333-0.1925-0.3550 (  4007 PWs)   bands (ev):

   -42.7908 -42.5568 -42.5165 -42.5130 -21.3826 -21.3676 -21.3560 -21.1959
   -21.1522 -21.1386 -21.1077 -21.1054 -21.1032 -21.0942 -21.0814 -21.0590
    -5.3499  -4.8524  -4.7617  -4.6769  -4.6214  -4.5610   2.7538   3.0952
     3.2128   3.4239   3.5382   4.0716   4.3098   4.3462   4.5117   4.6445
     4.7446   4.9626   5.0569   5.2309   5.3962   5.5331   5.8546   5.9871
     8.5897   8.7943   8.9243   9.3031   9.4513   9.6931   9.8742   9.9242
    10.1045  10.1849  10.3150  10.3537  10.3954  10.6614  10.8967  11.1996
    11.3345  11.5909  11.9806  12.0649  13.9715  14.0111  14.4626  14.5540

     occupation numbers
     1.0000   1.0000   1.0000   1.0000   1.0000   1.0000   1.0000   1.0000
     1.0000   1.0000   1.0000   1.0000   1.0000   1.0000   1.0000   1.0000
     1.0000   1.0000   1.0000   1.0000   1.0000   1.0000   1.0000   1.0000
     1.0000   1.0000   1.0000   1.0000   1.0000   1.0000   1.0000   1.0000
     1.0000   1.0000   1.0000   1.0000   1.0000   1.0000   1.0000   1.0000
     0.0000   0.0000   0.0000   0.0000   0.0000   0.0000   0.0000   0.0000
     0.0000   0.0000   0.0000   0.0000   0.0000   0.0000   0.0000   0.0000
     0.0000   0.0000   0.0000   0.0000   0.0000   0.0000   0.0000   0.0000

     highest occupied, lowest unoccupied level (ev):     6.7009    7.9680

!    total energy              =    -513.43694191 Ry
     estimated scf accuracy    <       0.00000011 Ry

     The total energy is the sum of the following terms:
     one-electron contribution =    -201.49189733 Ry
     hartree contribution      =     122.96956404 Ry
     xc contribution           =     -98.54800453 Ry
     ewald contribution        =    -336.36660409 Ry

     convergence has been achieved in   9 iterations

     Writing all to output data dir calculations_bands/myprefix.save/

     General routines

     Parallel routines

   This run was terminated on:   2:16:25   5Jun2023

   JOB DONE.