     Program PWSCF v.7.0 starts on  6Jun2023 at 13: 4: 9

     K-points division:     npool     =       2
     R & G space division:  proc/nbgrp/npool/nimage =       4

     Reading input from espresso_16717.pwi
Warning: card &CELL ignored
Warning: card / ignored

     Current dimensions of program PWSCF are:
     Max number of different atomic species (ntypx) = 10
     Max number of k-points (npk) =  40000
     Max angular momentum in pseudopotentials (lmaxx) =  4
     file O.pbe-n-kjpaw_psl.0.1.UPF: wavefunction(s)  2P renormalized
     Message from routine setup:
     using ibrav=0 with symmetry is DISCOURAGED, use correct ibrav instead

     Using Slab Decomposition

     bravais-lattice index     =            0
     lattice parameter (alat)  =      10.5535  a.u.
     unit-cell volume          =     918.1086 (a.u.)^3
     number of atoms/cell      =           14
     number of atomic types    =            3
     number of electrons       =       126.00
     number of Kohn-Sham states=           64
     kinetic-energy cutoff     =      30.0000  Ry
     charge density cutoff     =     240.0000  Ry
     scf convergence threshold =      1.0E-06
     mixing beta               =       0.7000
     number of iterations used =            8  plain     mixing
     Exchange-correlation= SLA  PW   PBX  PBC
                           (   1   4   3   4   0   0   0)

     celldm(1)=  10.553536  celldm(2)=   0.000000  celldm(3)=   0.000000
     celldm(4)=   0.000000  celldm(5)=   0.000000  celldm(6)=   0.000000

     crystal axes: (cart. coord. in units of alat)
               a(1) = (   1.000000   0.000000   0.000000 )
               a(2) = (  -0.497209   0.925030   0.000000 )
               a(3) = (   0.484705   0.301574   0.844392 )

     reciprocal axes: (cart. coord. in units 2 pi/alat)
               b(1) = (  1.000000  0.537506 -0.765998 )
               b(2) = (  0.000000  1.081046 -0.386095 )
               b(3) = (  0.000000  0.000000  1.184284 )

     PseudoPot. # 1 for Li read from file:
     /home/pragov/projects/rrg-bengioy-ad/pragov/crystal_structure_design/SSSP/li_pbe_v1.4.uspp.F.UPF
     MD5 check sum: e912e257baa3777c20ea3d68f190483c
     Pseudo is Ultrasoft, Zval =  3.0
     Generated by new atomic code, or converted to UPF format
     Using radial grid of  751 points,  5 beta functions with:
                l(1) =   0
                l(2) =   0
                l(3) =   0
                l(4) =   1
                l(5) =   1
     Q(r) pseudized with 10 coefficients,  rinner =    1.150   1.150   1.150

     PseudoPot. # 2 for Ni read from file:
     /home/pragov/projects/rrg-bengioy-ad/pragov/crystal_structure_design/SSSP/ni_pbe_v1.4.uspp.F.UPF
     MD5 check sum: 1ee80287db30b12d2bc1f57a5b5d6409
     Pseudo is Ultrasoft + core correction, Zval = 18.0
     Generated by new atomic code, or converted to UPF format
     Using radial grid of  865 points,  6 beta functions with:
                l(1) =   0
                l(2) =   0
                l(3) =   1
                l(4) =   1
                l(5) =   2
                l(6) =   2
     Q(r) pseudized with 10 coefficients,  rinner =    0.980   0.980   0.980
                                                       0.980   0.980

     PseudoPot. # 3 for O  read from file:
     /home/pragov/projects/rrg-bengioy-ad/pragov/crystal_structure_design/SSSP/O.pbe-n-kjpaw_psl.0.1.UPF
     MD5 check sum: 0234752ac141de4415c5fc33072bef88
     Pseudo is Projector augmented-wave + core cor, Zval =  6.0
     Generated using "atomic" code by A. Dal Corso  v.5.0.99 svn rev. 10869
     Shape of augmentation charge: BESSEL
     Using radial grid of 1095 points,  4 beta functions with:
                l(1) =   0
                l(2) =   0
                l(3) =   1
                l(4) =   1
     Q(r) pseudized with 0 coefficients

     atomic species   valence    mass     pseudopotential
        Li             3.00     6.94000     Li( 1.00)
        Ni            18.00    58.69340     Ni( 1.00)
        O              6.00    15.99900     O ( 1.00)

      2 Sym. Ops., with inversion, found

                                    s                        frac. trans.

      isym =  1     identity

 cryst.   s( 1) = (     1          0          0      )
                  (     0          1          0      )
                  (     0          0          1      )

 cart.    s( 1) = (  1.0000000 -0.0000000  0.0000000 )
                  (  0.0000000  1.0000000  0.0000000 )
                  (  0.0000000  0.0000000  1.0000000 )

      isym =  2     inversion

 cryst.   s( 2) = (    -1          0          0      )
                  (     0         -1          0      )
                  (     0          0         -1      )

 cart.    s( 2) = ( -1.0000000  0.0000000 -0.0000000 )
                  (  0.0000000 -1.0000000 -0.0000000 )
                  (  0.0000000  0.0000000 -1.0000000 )

   Cartesian axes

     site n.     atom                  positions (alat units)
         1           Li  tau(   1) = (   0.2513955   0.4625150   0.0000000  )
         2           Li  tau(   2) = (   0.4937479   0.6133020   0.4221961  )
         3           Ni  tau(   3) = (   0.5000000   0.0000000   0.0000000  )
         4           Ni  tau(   4) = (   0.7423525   0.1507870   0.4221961  )
         5           Ni  tau(   5) = (   0.2423525   0.1507870   0.4221961  )
         6           Ni  tau(   6) = (   0.0000000   0.0000000   0.0000000  )
         7           O   tau(   7) = (  -0.0140913   0.9649166   0.6309417  )
         8           O   tau(   8) = (  -0.2564473   0.8141318   0.2087464  )
         9           O   tau(   9) = (   1.0015876   0.2616877   0.2134514  )
        10           O   tau(  10) = (   1.2439431   0.4124722   0.6356458  )
        11           O   tau(  11) = (   0.2540075   0.7911914   0.1797753  )
        12           O   tau(  12) = (   0.4963653   0.9419749   0.6019799  )
        13           O   tau(  13) = (   0.7334883   0.4354126   0.6646169  )
        14           O   tau(  14) = (   0.4911296   0.2846291   0.2424124  )

   Crystallographic axes

     site n.     atom                  positions (cryst. coord.)
         1           Li  tau(   1) = (  0.5000000  0.5000000  0.0000000  )
         2           Li  tau(   2) = (  0.5000000  0.5000000  0.5000000  )
         3           Ni  tau(   3) = (  0.5000000  0.0000000  0.0000000  )
         4           Ni  tau(   4) = (  0.5000000 -0.0000000  0.5000000  )
         5           Ni  tau(   5) = ( -0.0000000 -0.0000000  0.5000000  )
         6           Ni  tau(   6) = (  0.0000000  0.0000000  0.0000000  )
         7           O   tau(   7) = (  0.0212570  0.7995160  0.7472140  )
         8           O   tau(   8) = (  0.0212540  0.7995180  0.2472150  )
         9           O   tau(   9) = (  0.9787430  0.2004840  0.2527870  )
        10           O   tau(  10) = (  0.9787460  0.2004820  0.7527850  )
        11           O   tau(  11) = (  0.5415700  0.7859040  0.2129050  )
        12           O   tau(  12) = (  0.5415670  0.7858970  0.7129150  )
        13           O   tau(  13) = (  0.4584300  0.2140960  0.7870950  )
        14           O   tau(  14) = (  0.4584320  0.2141030  0.2870850  )

     number of k points=    14
                       cart. coord. in units 2pi/alat
        k(    1) = (   0.0000000   0.0000000   0.0000000), wk =   0.0740741
        k(    2) = (   0.0000000   0.0000000   0.3947612), wk =   0.1481481
        k(    3) = (   0.0000000   0.3603486  -0.1286982), wk =   0.1481481
        k(    4) = (   0.0000000   0.3603486   0.2660631), wk =   0.1481481
        k(    5) = (   0.0000000   0.3603486  -0.5234594), wk =   0.1481481
        k(    6) = (   0.3333333   0.1791686  -0.2553326), wk =   0.1481481
        k(    7) = (   0.3333333   0.1791686   0.1394286), wk =   0.1481481
        k(    8) = (   0.3333333   0.1791686  -0.6500939), wk =   0.1481481
        k(    9) = (   0.3333333   0.5395173  -0.3840308), wk =   0.1481481
        k(   10) = (   0.3333333   0.5395173   0.0107304), wk =   0.1481481
        k(   11) = (   0.3333333   0.5395173  -0.7787920), wk =   0.1481481
        k(   12) = (   0.3333333  -0.1811800  -0.1266344), wk =   0.1481481
        k(   13) = (   0.3333333  -0.1811800   0.2681268), wk =   0.1481481
        k(   14) = (   0.3333333  -0.1811800  -0.5213957), wk =   0.1481481

                       cryst. coord.
        k(    1) = (   0.0000000   0.0000000   0.0000000), wk =   0.0740741
        k(    2) = (   0.0000000   0.0000000   0.3333333), wk =   0.1481481
        k(    3) = (   0.0000000   0.3333333   0.0000000), wk =   0.1481481
        k(    4) = (   0.0000000   0.3333333   0.3333333), wk =   0.1481481
        k(    5) = (   0.0000000   0.3333333  -0.3333333), wk =   0.1481481
        k(    6) = (   0.3333333  -0.0000000   0.0000000), wk =   0.1481481
        k(    7) = (   0.3333333  -0.0000000   0.3333333), wk =   0.1481481
        k(    8) = (   0.3333333  -0.0000000  -0.3333333), wk =   0.1481481
        k(    9) = (   0.3333333   0.3333333   0.0000000), wk =   0.1481481
        k(   10) = (   0.3333333   0.3333333   0.3333333), wk =   0.1481481
        k(   11) = (   0.3333333   0.3333333  -0.3333333), wk =   0.1481481
        k(   12) = (   0.3333333  -0.3333333   0.0000000), wk =   0.1481481
        k(   13) = (   0.3333333  -0.3333333   0.3333333), wk =   0.1481481
        k(   14) = (   0.3333333  -0.3333333  -0.3333333), wk =   0.1481481

     Check: negative core charge=   -0.000019

     Initial potential from superposition of free atoms

     starting charge     117.0985, renormalised to     126.0000
     Starting wfcs are   94 randomized atomic wfcs
     Checking if some PAW data can be deallocated...

     Self-consistent Calculation

     iteration #  1     ecut=    30.00 Ry     beta= 0.70
     Davidson diagonalization with overlap

     ethr =  1.00E-02,  avg # of iterations =  5.1

     total energy              =   -1598.33920628 Ry
     estimated scf accuracy    <     183.07539846 Ry

[...]

     negative rho (up, down):  1.894E-05 0.000E+00

[...]

     negative rho (up, down):  6.411E-07 0.000E+00

[...]

     c_bands:  1 eigenvalues not converged
     ethr =  7.38E-04,  avg # of iterations = 16.4

[...]

     total energy              =   -1734.16525815 Ry
     estimated scf accuracy    <       0.00000173 Ry

     iteration # 53     ecut=    30.00 Ry     beta= 0.70
     Davidson diagonalization with overlap

     ethr =  1.07E-09,  avg # of iterations =  1.0

     End of self-consistent calculation

          k = 0.0000 0.0000 0.0000 (  2565 PWs)   bands (ev):

   -96.9279 -96.9235 -96.0656 -96.0613 -57.3177 -57.3048 -57.2196 -57.2170
   -57.1135 -57.1023 -56.6358 -56.6350 -56.4309 -56.4246 -56.0345 -56.0294
   -35.9307 -35.9143 -11.7480 -10.2590 -10.0660 -10.0471  -9.9529  -9.9452
    -9.9359  -9.8903   1.0191   1.1909   1.3615   1.7411   2.5162   2.5515
     2.6377   2.6904   2.7268   2.9320   3.4102   3.4827   3.8051   4.0431
     4.2564   4.8730   4.8789   5.1468   5.2902   5.3624   5.4431   5.6891
     5.7820   5.8752   5.9940   6.1589   6.2102   6.4209   6.4348   6.4846
     6.5202   6.5656   6.7365   6.7941   7.0745   7.1206   9.0791   9.0806

     occupation numbers
     1.0000   1.0000   1.0000   1.0000   1.0000   1.0000   1.0000   1.0000
     1.0000   1.0000   1.0000   1.0000   1.0000   1.0000   1.0000   1.0000
     1.0000   1.0000   1.0000   1.0000   1.0000   1.0000   1.0000   1.0000
     1.0000   1.0000   1.0000   1.0000   1.0000   1.0000   1.0000   1.0000
     1.0000   1.0000   1.0000   1.0000   1.0000   1.0000   1.0000   1.0000
     1.0000   1.0000   1.0000   1.0000   1.0000   1.0000   1.0000   1.0000
     1.0000   1.0000   1.0000   1.0000   1.0000   1.0000   1.0000   1.0000
     1.0000   1.0000   1.0000   1.0000   1.0000   1.0000   1.0000   0.0000

[...]

          k = 0.3333-0.1812-0.5214 (  2541 PWs)   bands (ev):

   -96.9266 -96.9222 -96.0644 -96.0599 -57.3059 -57.3045 -57.2209 -57.2088
   -57.1095 -57.1014 -56.6345 -56.6314 -56.4264 -56.4178 -56.0324 -56.0250
   -35.9265 -35.9177 -11.1108 -10.8721 -10.5900  -9.9396  -9.9177  -9.8981
    -9.8635  -9.8075   1.9886   2.1579   2.3348   2.3540   2.3881   2.4445
     2.6276   2.6702   2.7267   2.8449   3.0970   3.3735   3.6263   3.8080
     3.9221   4.0282   4.2214   4.3119   4.4174   4.5617   4.8338   5.8604
     6.0026   6.1962   6.2258   6.3012   6.3027   6.5330   6.8388   6.8845
     7.0124   7.0891   7.1441   7.2049   7.2967   7.3511   8.5730   8.5818

     occupation numbers
     1.0000   1.0000   1.0000   1.0000   1.0000   1.0000   1.0000   1.0000
     1.0000   1.0000   1.0000   1.0000   1.0000   1.0000   1.0000   1.0000
     1.0000   1.0000   1.0000   1.0000   1.0000   1.0000   1.0000   1.0000
     1.0000   1.0000   1.0000   1.0000   1.0000   1.0000   1.0000   1.0000
     1.0000   1.0000   1.0000   1.0000   1.0000   1.0000   1.0000   1.0000
     1.0000   1.0000   1.0000   1.0000   1.0000   1.0000   1.0000   1.0000
     1.0000   1.0000   1.0000   1.0000   1.0000   1.0000   1.0000   1.0000
     1.0000   1.0000   1.0000   1.0000   1.0000   1.0000   1.0000   0.0000

     highest occupied, lowest unoccupied level (ev):     9.0791    8.5261

!    total energy              =   -1734.16525801 Ry
     estimated scf accuracy    <       0.00000020 Ry

     The total energy is the sum of the following terms:
     one-electron contribution =   -1411.94259465 Ry
     hartree contribution      =     759.84311861 Ry
     xc contribution           =    -207.54044818 Ry
     ewald contribution        =    -798.26837046 Ry
     one-center paw contrib.   =     -76.25696332 Ry
      -> PAW hartree energy AE =       0.00000000 Ry
      -> PAW hartree energy PS =       0.00000000 Ry
      -> PAW xc energy AE      =       0.00000000 Ry
      -> PAW xc energy PS      =       0.00000000 Ry
      -> total E_H with PAW    =     759.84311861 Ry
      -> total E_XC with PAW   =    -207.54044818 Ry

     convergence has been achieved in  53 iterations

     Writing all to output data dir calculations_bands/myprefix.save/

     General routines

     Parallel routines

     PAW routines

   This run was terminated on:  13: 5: 9   6Jun2023

   JOB DONE.