     Program PWSCF v.7.0 starts on  6Jun2023 at  2:49:25

     K-points division:     npool     =       2
     R & G space division:  proc/nbgrp/npool/nimage =       4

     Reading input from espresso_13280.pwi
Warning: card &CELL ignored
Warning: card / ignored

     Current dimensions of program PWSCF are:
     Max number of different atomic species (ntypx) = 10
     Max number of k-points (npk) =  40000
     Max angular momentum in pseudopotentials (lmaxx) =  4
     file Ba.pbe-spn-kjpaw_psl.1.0.0.UPF: wavefunction(s)  5S 6S renormalized
     file Nb.pbe-spn-kjpaw_psl.0.3.0.UPF: wavefunction(s)  4S 4P renormalized
     file O.pbe-n-kjpaw_psl.0.1.UPF: wavefunction(s)  2P renormalized
     Message from routine setup:
     using ibrav=0 with symmetry is DISCOURAGED, use correct ibrav instead

     Using Slab Decomposition

     bravais-lattice index     =            0
     lattice parameter (alat)  =      11.5898  a.u.
     unit-cell volume          =    1109.9990 (a.u.)^3
     number of atoms/cell      =           10
     number of atomic types    =            4
     number of electrons       =        84.00
     number of Kohn-Sham states=           64
     kinetic-energy cutoff     =      30.0000  Ry
     charge density cutoff     =     240.0000  Ry
     scf convergence threshold =      1.0E-06
     mixing beta               =       0.7000
     number of iterations used =            8  plain     mixing
     Exchange-correlation= SLA  PW   PBX  PBC
                           (   1   4   3   4   0   0   0)

     celldm(1)=  11.589778  celldm(2)=   0.000000  celldm(3)=   0.000000
     celldm(4)=   0.000000  celldm(5)=   0.000000  celldm(6)=   0.000000

     crystal axes: (cart. coord. in units of alat)
               a(1) = (   1.000000   0.000000   0.000000 )
               a(2) = (   0.494408   0.869230   0.000000 )
               a(3) = (   0.494408   0.287575   0.820281 )

     reciprocal axes: (cart. coord. in units 2 pi/alat)
               b(1) = (  1.000000 -0.568789 -0.403324 )
               b(2) = (  0.000000  1.150444 -0.403324 )
               b(3) = (  0.000000  0.000000  1.219094 )

     PseudoPot. # 1 for Ba read from file:
     /home/pragov/projects/rrg-bengioy-ad/pragov/crystal_structure_design/SSSP/Ba.pbe-spn-kjpaw_psl.1.0.0.UPF
     MD5 check sum: c432291d3e53af55f19d5e8866385beb
     Pseudo is Projector augmented-wave + core cor, Zval = 10.0
     Generated using "atomic" code by A. Dal Corso  v.5.1
     Shape of augmentation charge: PSQ
     Using radial grid of 1251 points,  7 beta functions with:
                l(1) =   0
                l(2) =   0
                l(3) =   0
                l(4) =   1
                l(5) =   1
                l(6) =   2
                l(7) =   2
     Q(r) pseudized with 0 coefficients

     PseudoPot. # 2 for Nb read from file:
     /home/pragov/projects/rrg-bengioy-ad/pragov/crystal_structure_design/SSSP/Nb.pbe-spn-kjpaw_psl.0.3.0.UPF
     MD5 check sum: 411d72ad547312f8017e2943ceca08cc
     Pseudo is Projector augmented-wave + core cor, Zval = 13.0
     Generated using "atomic" code by A. Dal Corso  v.5.0.99 svn rev. 10869
     Shape of augmentation charge: PSQ
     Using radial grid of 1227 points,  6 beta functions with:
                l(1) =   0
                l(2) =   0
                l(3) =   1
                l(4) =   1
                l(5) =   2
                l(6) =   2
     Q(r) pseudized with 0 coefficients

     PseudoPot. # 3 for Bi read from file:
     /home/pragov/projects/rrg-bengioy-ad/pragov/crystal_structure_design/SSSP/Bi_pbe_v1.uspp.F.UPF
     MD5 check sum: cceb9f28ec65b6d7ff33140f5b0b1758
     Pseudo is Ultrasoft + core correction, Zval = 15.0
     Generated by new atomic code, or converted to UPF format
     Using radial grid of  899 points,  6 beta functions with:
                l(1) =   0
                l(2) =   0
                l(3) =   1
                l(4) =   1
                l(5) =   2
                l(6) =   2
     Q(r) pseudized with  6 coefficients,  rinner =    1.000   1.000   1.000
                                                       1.000   1.000

     PseudoPot. # 4 for O  read from file:
     /home/pragov/projects/rrg-bengioy-ad/pragov/crystal_structure_design/SSSP/O.pbe-n-kjpaw_psl.0.1.UPF
     MD5 check sum: 0234752ac141de4415c5fc33072bef88
     Pseudo is Projector augmented-wave + core cor, Zval =  6.0
     Generated using "atomic" code by A. Dal Corso  v.5.0.99 svn rev. 10869
     Shape of augmentation charge: BESSEL
     Using radial grid of 1095 points,  4 beta functions with:
                l(1) =   0
                l(2) =   0
                l(3) =   1
                l(4) =   1
     Q(r) pseudized with 0 coefficients

     atomic species   valence    mass     pseudopotential
        Ba            10.00   137.32700     Ba( 1.00)
        Nb            13.00    92.90637     Nb( 1.00)
        Bi            15.00   208.98040     Bi( 1.00)
        O              6.00    15.99900     O ( 1.00)

      2 Sym. Ops., with inversion, found

                                    s                        frac. trans.

      isym =  1     identity

 cryst.   s( 1) = (     1          0          0      )
                  (     0          1          0      )
                  (     0          0          1      )

 cart.    s( 1) = (  1.0000000 -0.0000000 -0.0000000 )
                  (  0.0000000  1.0000000 -0.0000000 )
                  (  0.0000000  0.0000000  1.0000000 )

      isym =  2     inversion

 cryst.   s( 2) = (    -1          0          0      )
                  (     0         -1          0      )
                  (     0          0         -1      )

 cart.    s( 2) = ( -1.0000000  0.0000000  0.0000000 )
                  (  0.0000000 -1.0000000  0.0000000 )
                  (  0.0000000  0.0000000 -1.0000000 )

   Cartesian axes

     site n.     atom                  positions (alat units)
         1           Ba  tau(   1) = (   0.4995152   0.2905454   0.2060234  )
         2           Ba  tau(   2) = (   1.4893016   0.8662593   0.6142577  )
         3           Nb  tau(   3) = (   0.9944084   0.5784023   0.4101406  )
         4           Bi  tau(   4) = (   0.0000000   0.0000000   0.0000000  )
         5           O   tau(   5) = (   0.9933672   0.2818636   0.2623284  )
         6           O   tau(   6) = (   0.7361333   0.4871191   0.5965437  )
         7           O   tau(   7) = (   0.7873690   0.6949663   0.1792027  )
         8           O   tau(   8) = (   0.9954496   0.8749410   0.5579528  )
         9           O   tau(   9) = (   1.2014478   0.4618384   0.6410784  )
        10           O   tau(  10) = (   1.2526835   0.6696855   0.2237374  )

   Crystallographic axes

     site n.     atom                  positions (cryst. coord.)
         1           Ba  tau(   1) = (  0.2511620  0.2511620  0.2511620  )
         2           Ba  tau(   2) = (  0.7488380  0.7488380  0.7488380  )
         3           Nb  tau(   3) = (  0.5000000  0.5000000  0.5000000  )
         4           Bi  tau(   4) = (  0.0000000  0.0000000  0.0000000  )
         5           O   tau(   5) = (  0.7272430  0.2184650  0.3198030  )
         6           O   tau(   6) = (  0.2184650  0.3198030  0.7272430  )
         7           O   tau(   7) = (  0.3198030  0.7272430  0.2184650  )
         8           O   tau(   8) = (  0.2727570  0.7815350  0.6801970  )
         9           O   tau(   9) = (  0.6801970  0.2727570  0.7815350  )
        10           O   tau(  10) = (  0.7815350  0.6801970  0.2727570  )

     number of k points=    14
                       cart. coord. in units 2pi/alat
        k(    1) = (   0.0000000   0.0000000   0.0000000), wk =   0.0740741
        k(    2) = (   0.0000000   0.0000000   0.4063648), wk =   0.1481481
        k(    3) = (   0.0000000   0.3834813  -0.1344412), wk =   0.1481481
        k(    4) = (   0.0000000   0.3834813   0.2719235), wk =   0.1481481
        k(    5) = (   0.0000000   0.3834813  -0.5408060), wk =   0.1481481
        k(    6) = (   0.3333333  -0.1895964  -0.1344412), wk =   0.1481481
        k(    7) = (   0.3333333  -0.1895964   0.2719235), wk =   0.1481481
        k(    8) = (   0.3333333  -0.1895964  -0.5408060), wk =   0.1481481
        k(    9) = (   0.3333333   0.1938849  -0.2688825), wk =   0.1481481
        k(   10) = (   0.3333333   0.1938849   0.1374823), wk =   0.1481481
        k(   11) = (   0.3333333   0.1938849  -0.6752472), wk =   0.1481481
        k(   12) = (   0.3333333  -0.5730777  -0.0000000), wk =   0.1481481
        k(   13) = (   0.3333333  -0.5730777   0.4063648), wk =   0.1481481
        k(   14) = (   0.3333333  -0.5730777  -0.4063648), wk =   0.1481481

                       cryst. coord.
        k(    1) = (   0.0000000   0.0000000   0.0000000), wk =   0.0740741
        k(    2) = (   0.0000000   0.0000000   0.3333333), wk =   0.1481481
        k(    3) = (   0.0000000   0.3333333  -0.0000000), wk =   0.1481481
        k(    4) = (   0.0000000   0.3333333   0.3333333), wk =   0.1481481
        k(    5) = (   0.0000000   0.3333333  -0.3333333), wk =   0.1481481
        k(    6) = (   0.3333333  -0.0000000   0.0000000), wk =   0.1481481
        k(    7) = (   0.3333333  -0.0000000   0.3333333), wk =   0.1481481
        k(    8) = (   0.3333333  -0.0000000  -0.3333333), wk =   0.1481481
        k(    9) = (   0.3333333   0.3333333  -0.0000000), wk =   0.1481481
        k(   10) = (   0.3333333   0.3333333   0.3333333), wk =   0.1481481
        k(   11) = (   0.3333333   0.3333333  -0.3333333), wk =   0.1481481
        k(   12) = (   0.3333333  -0.3333333   0.0000000), wk =   0.1481481
        k(   13) = (   0.3333333  -0.3333333   0.3333333), wk =   0.1481481
        k(   14) = (   0.3333333  -0.3333333  -0.3333333), wk =   0.1481481

     Check: negative core charge=   -0.000012

     Initial potential from superposition of free atoms

     starting charge      82.9638, renormalised to      84.0000

     negative rho (up, down):  3.873E-02 0.000E+00
     Starting wfcs are   53 randomized atomic wfcs +   11 random wfcs
     Checking if some PAW data can be deallocated...

     Self-consistent Calculation

     iteration #  1     ecut=    30.00 Ry     beta= 0.70
     Davidson diagonalization with overlap

     ethr =  1.00E-02,  avg # of iterations =  6.1

     negative rho (up, down):  6.457E-02 0.000E+00

     total energy              =   -1640.65601411 Ry
     estimated scf accuracy    <       3.56235334 Ry

[...]

     total energy              =   -1642.46482069 Ry
     estimated scf accuracy    <       0.00000121 Ry

     iteration # 13     ecut=    30.00 Ry     beta= 0.70
     Davidson diagonalization with overlap

     ethr =  1.44E-09,  avg # of iterations =  3.0

     negative rho (up, down):  3.750E-02 0.000E+00

     End of self-consistent calculation

          k = 0.0000 0.0000 0.0000 (  3113 PWs)   bands (ev):

   -45.7517 -21.8558 -21.8470 -21.8470 -16.5903 -16.5065 -12.5227 -12.5227
   -12.4609 -12.4466 -12.4466  -7.9104  -7.1096  -7.1095  -6.9490  -6.9488
    -6.8972  -2.0383  -1.9584  -1.9584  -1.7376  -1.6938  -1.6938  -0.1414
     5.7589   5.7590   5.9238   5.9239   6.0087   6.3034   6.3214   6.3214
     7.8682   7.9971   8.0048   8.0049   8.2999   8.2999   8.3436   8.6468
     8.6468   9.1140  12.5219  12.5458  12.5458  13.1371  13.5746  13.5746
    13.8818  13.8818  14.8113  16.1598  16.1598  16.3280  17.0639  17.0639
    17.1615  17.1615  17.3196  17.6543  17.6543  18.8220  20.7641  20.7646

     occupation numbers
     1.0000   1.0000   1.0000   1.0000   1.0000   1.0000   1.0000   1.0000
     1.0000   1.0000   1.0000   1.0000   1.0000   1.0000   1.0000   1.0000
     1.0000   1.0000   1.0000   1.0000   1.0000   1.0000   1.0000   1.0000
     1.0000   1.0000   1.0000   1.0000   1.0000   1.0000   1.0000   1.0000
     1.0000   1.0000   1.0000   1.0000   1.0000   1.0000   1.0000   1.0000
     1.0000   1.0000   0.0000   0.0000   0.0000   0.0000   0.0000   0.0000
     0.0000   0.0000   0.0000   0.0000   0.0000   0.0000   0.0000   0.0000
     0.0000   0.0000   0.0000   0.0000   0.0000   0.0000   0.0000   0.0000

[...]

          k = 0.3333-0.5731-0.4064 (  3088 PWs)   bands (ev):

   -45.7515 -21.8563 -21.8475 -21.8470 -16.5446 -16.5415 -12.5231 -12.5197
   -12.4595 -12.4462 -12.4453  -7.7119  -7.5650  -7.3213  -6.9623  -6.9400
    -6.7182  -1.7542  -1.7388  -1.6966  -1.6690  -1.6292  -1.6208   0.0684
     4.8072   5.0674   5.7100   5.8931   6.2123   6.3217   6.3960   7.1197
     7.2186   7.4077   7.5887   7.7229   7.8808   8.1379   8.2847   8.3708
     8.5204   9.1504  12.3863  12.7298  12.8911  13.6172  14.3000  14.7471
    15.5336  15.5597  15.7268  15.9135  16.2494  16.3566  16.4817  16.6995
    16.9323  17.0659  17.5569  18.2918  18.6305  19.5253  19.6940  20.6074

     occupation numbers
     1.0000   1.0000   1.0000   1.0000   1.0000   1.0000   1.0000   1.0000
     1.0000   1.0000   1.0000   1.0000   1.0000   1.0000   1.0000   1.0000
     1.0000   1.0000   1.0000   1.0000   1.0000   1.0000   1.0000   1.0000
     1.0000   1.0000   1.0000   1.0000   1.0000   1.0000   1.0000   1.0000
     1.0000   1.0000   1.0000   1.0000   1.0000   1.0000   1.0000   1.0000
     1.0000   1.0000   0.0000   0.0000   0.0000   0.0000   0.0000   0.0000
     0.0000   0.0000   0.0000   0.0000   0.0000   0.0000   0.0000   0.0000
     0.0000   0.0000   0.0000   0.0000   0.0000   0.0000   0.0000   0.0000

     highest occupied, lowest unoccupied level (ev):     9.7147   12.1930

!    total energy              =   -1642.46482095 Ry
     estimated scf accuracy    <       0.00000091 Ry

     The total energy is the sum of the following terms:
     one-electron contribution =    -151.51541279 Ry
     hartree contribution      =     130.61207979 Ry
     xc contribution           =    -178.77378066 Ry
     ewald contribution        =    -427.23126208 Ry
     one-center paw contrib.   =   -1015.55644522 Ry
      -> PAW hartree energy AE =      57.26148703 Ry
      -> PAW hartree energy PS =     -57.03743241 Ry
      -> PAW xc energy AE      =    -788.43003872 Ry
      -> PAW xc energy PS      =      38.29742019 Ry
      -> total E_H with PAW    =     130.83613442 Ry
      -> total E_XC with PAW   =    -928.90639919 Ry

     convergence has been achieved in  13 iterations

     Writing all to output data dir calculations_bands/myprefix.save/

     General routines

     Parallel routines

     PAW routines

   This run was terminated on:   2:49:47   6Jun2023

   JOB DONE.