     Program PWSCF v.7.0 starts on  6Jun2023 at 20:27:46

     K-points division:     npool     =       2
     R & G space division:  proc/nbgrp/npool/nimage =       4

     Reading input from espresso_289.pwi
Warning: card &CELL ignored
Warning: card / ignored

     Current dimensions of program PWSCF are:
     Max number of different atomic species (ntypx) = 10
     Max number of k-points (npk) =  40000
     Max angular momentum in pseudopotentials (lmaxx) =  4
     Message from routine setup:
     using ibrav=0 with symmetry is DISCOURAGED, use correct ibrav instead

     Using Slab Decomposition

     bravais-lattice index     =            0
     lattice parameter (alat)  =      14.3108  a.u.
     unit-cell volume          =    1057.3367 (a.u.)^3
     number of atoms/cell      =            6
     number of atomic types    =            2
     number of electrons       =        46.00
     number of Kohn-Sham states=           64
     kinetic-energy cutoff     =      30.0000  Ry
     charge density cutoff     =     240.0000  Ry
     scf convergence threshold =      1.0E-06
     mixing beta               =       0.7000
     number of iterations used =            8  plain     mixing
     Exchange-correlation= SLA  PW   PBE  PBE
                           (   1   4   3   4   0   0   0)

     celldm(1)=  14.310827  celldm(2)=   0.000000  celldm(3)=   0.000000
     celldm(4)=   0.000000  celldm(5)=   0.000000  celldm(6)=   0.000000

     crystal axes: (cart. coord. in units of alat)
               a(1) = (   1.000000   0.000000   0.000000 )
               a(2) = (   0.570180   0.821520   0.000000 )
               a(3) = (  -0.716223  -0.542386   0.439138 )

     reciprocal axes: (cart. coord. in units 2 pi/alat)
               b(1) = (  1.000000 -0.694055  0.773738 )
               b(2) = (  0.000000  1.217256  1.503450 )
               b(3) = (  0.000000  0.000000  2.277189 )

     PseudoPot. # 1 for Y  read from file:
     /home/pragov/projects/rrg-bengioy-ad/pragov/crystal_structure_design/SSSP/Y_pbe_v1.uspp.F.UPF
     MD5 check sum: 2cf71db95cafeb975fc457bd7f14888e
     Pseudo is Ultrasoft + core correction, Zval = 11.0
     Generated by new atomic code, or converted to UPF format
     Using radial grid of  885 points,  6 beta functions with:
                l(1) =   0
                l(2) =   0
                l(3) =   1
                l(4) =   1
                l(5) =   2
                l(6) =   2
     Q(r) pseudized with  6 coefficients,  rinner =    1.200   1.200   1.200
                                                       1.200   1.200

     PseudoPot. # 2 for Se read from file:
     /home/pragov/projects/rrg-bengioy-ad/pragov/crystal_structure_design/SSSP/Se_pbe_v1.uspp.F.UPF
     MD5 check sum: 1b3568f3a8ae88f9a2a0ad0698632c85
     Pseudo is Ultrasoft + core correction, Zval =  6.0
     Generated by new atomic code, or converted to UPF format
     Using radial grid of  877 points,  6 beta functions with:
                l(1) =   0
                l(2) =   0
                l(3) =   1
                l(4) =   1
                l(5) =   2
                l(6) =   2
     Q(r) pseudized with  8 coefficients,  rinner =    1.300   1.300   1.300
                                                       1.300   1.300

     atomic species   valence    mass     pseudopotential
        Y             11.00    88.90584     Y ( 1.00)
        Se             6.00    78.97100     Se( 1.00)

      2 Sym. Ops., with inversion, found

                                    s                        frac. trans.

      isym =  1     identity

 cryst.   s( 1) = (     1          0          0      )
                  (     0          1          0      )
                  (     0          0          1      )

 cart.    s( 1) = (  1.0000000 -0.0000000  0.0000000 )
                  (  0.0000000  1.0000000  0.0000000 )
                  (  0.0000000  0.0000000  1.0000000 )

      isym =  2     inversion

 cryst.   s( 2) = (    -1          0          0      )
                  (     0         -1          0      )
                  (     0          0         -1      )

 cart.    s( 2) = ( -1.0000000  0.0000000 -0.0000000 )
                  (  0.0000000 -1.0000000 -0.0000000 )
                  (  0.0000000  0.0000000 -1.0000000 )

   Cartesian axes

     site n.     atom                  positions (alat units)
         1           Y   tau(   1) = (   1.3341802   0.6980447   0.0000000  )
         2           Y   tau(   2) = (   0.2359996   0.1234753   0.0000000  )
         3           Se  tau(   3) = (   0.4669125  -0.1011399   0.2195690  )
         4           Se  tau(   4) = (   0.3870441   0.3802741   0.2195690  )
         5           Se  tau(   5) = (   0.8668471   0.2544965   0.1265174  )
         6           Se  tau(   6) = (  -0.0128905   0.0246378   0.3126206  )

   Crystallographic axes

     site n.     atom                  positions (cryst. coord.)
         1           Y   tau(   1) = (  0.8496990  0.8496990  0.0000000  )
         2           Y   tau(   2) = (  0.1503010  0.1503010  0.0000000  )
         3           Se  tau(   3) = (  0.7069980  0.2069980  0.5000000  )
         4           Se  tau(   4) = (  0.2930020  0.7930020  0.5000000  )
         5           Se  tau(   5) = (  0.7881040  0.5000000  0.2881040  )
         6           Se  tau(   6) = (  0.2118960  0.5000000  0.7118960  )

     number of k points=    14
                       cart. coord. in units 2pi/alat
        k(    1) = (   0.0000000   0.0000000   0.0000000), wk =   0.0740741
        k(    2) = (   0.0000000   0.0000000   0.7590629), wk =   0.1481481
        k(    3) = (   0.0000000   0.4057520   0.5011502), wk =   0.1481481
        k(    4) = (   0.0000000   0.4057520   1.2602131), wk =   0.1481481
        k(    5) = (   0.0000000   0.4057520  -0.2579127), wk =   0.1481481
        k(    6) = (   0.3333333  -0.2313516   0.2579127), wk =   0.1481481
        k(    7) = (   0.3333333  -0.2313516   1.0169756), wk =   0.1481481
        k(    8) = (   0.3333333  -0.2313516  -0.5011502), wk =   0.1481481
        k(    9) = (   0.3333333   0.1744004   0.7590629), wk =   0.1481481
        k(   10) = (   0.3333333   0.1744004   1.5181258), wk =   0.1481481
        k(   11) = (   0.3333333   0.1744004  -0.0000000), wk =   0.1481481
        k(   12) = (   0.3333333  -0.6371035  -0.2432374), wk =   0.1481481
        k(   13) = (   0.3333333  -0.6371035   0.5158254), wk =   0.1481481
        k(   14) = (   0.3333333  -0.6371035  -1.0023003), wk =   0.1481481

                       cryst. coord.
        k(    1) = (   0.0000000   0.0000000   0.0000000), wk =   0.0740741
        k(    2) = (   0.0000000   0.0000000   0.3333333), wk =   0.1481481
        k(    3) = (   0.0000000   0.3333333   0.0000000), wk =   0.1481481
        k(    4) = (   0.0000000   0.3333333   0.3333333), wk =   0.1481481
        k(    5) = (   0.0000000   0.3333333  -0.3333333), wk =   0.1481481
        k(    6) = (   0.3333333  -0.0000000   0.0000000), wk =   0.1481481
        k(    7) = (   0.3333333  -0.0000000   0.3333333), wk =   0.1481481
        k(    8) = (   0.3333333  -0.0000000  -0.3333333), wk =   0.1481481
        k(    9) = (   0.3333333   0.3333333   0.0000000), wk =   0.1481481
        k(   10) = (   0.3333333   0.3333333   0.3333333), wk =   0.1481481
        k(   11) = (   0.3333333   0.3333333  -0.3333333), wk =   0.1481481
        k(   12) = (   0.3333333  -0.3333333  -0.0000000), wk =   0.1481481
        k(   13) = (   0.3333333  -0.3333333   0.3333333), wk =   0.1481481
        k(   14) = (   0.3333333  -0.3333333  -0.3333333), wk =   0.1481481

     Check: negative core charge=   -0.000002

     Initial potential from superposition of free atoms

     starting charge      45.9908, renormalised to      46.0000

     negative rho (up, down):  8.819E-02 0.000E+00
     Starting wfcs are   42 randomized atomic wfcs +   22 random wfcs

     Self-consistent Calculation

     iteration #  1     ecut=    30.00 Ry     beta= 0.70
     Davidson diagonalization with overlap

     ethr =  1.00E-02,  avg # of iterations =  6.6

     Threshold (ethr) on eigenvalues was too large:
     Diagonalizing with lowered threshold

     Davidson diagonalization with overlap

[...]

     negative rho (up, down):  8.874E-02 0.000E+00

     total energy              =    -349.99894308 Ry
     estimated scf accuracy    <       0.25016299 Ry

[...]

     total energy              =    -350.09006995 Ry
     estimated scf accuracy    <       0.00000792 Ry

     iteration #  7     ecut=    30.00 Ry     beta= 0.70
     Davidson diagonalization with overlap

     ethr =  1.72E-08,  avg # of iterations =  1.1

     negative rho (up, down):  8.896E-02 0.000E+00

     End of self-consistent calculation

          k = 0.0000 0.0000 0.0000 (  2945 PWs)   bands (ev):

   -35.1692 -35.1632 -15.2812 -15.1701 -15.1282 -15.1154 -15.1091 -15.1021
    -7.1464  -4.6532  -4.0386  -3.9769   1.9995   2.6333   4.0197   4.0779
     5.5332   5.5399   6.1652   6.5185   6.6379   7.0960   7.2218   8.6614
     9.8465  10.1161  10.4712  10.6887  10.7119  11.0611  11.2480  11.2684
    11.2903  11.8707  12.2022  12.7115  13.0162  14.1114  16.3265  16.3455
    16.9151  17.0799  17.8114  18.2497  18.6167  18.6183  18.7192  18.8806
    19.2398  19.6875  19.7396  20.2095  20.4684  20.5202  23.0372  23.3942
    23.8126  23.9364  24.1291  24.3587  24.4944  24.5890  24.8113  25.1495

     occupation numbers
     1.0000   1.0000   1.0000   1.0000   1.0000   1.0000   1.0000   1.0000
     1.0000   1.0000   1.0000   1.0000   1.0000   1.0000   1.0000   1.0000
     1.0000   1.0000   1.0000   1.0000   1.0000   1.0000   1.0000   0.0000
     0.0000   0.0000   0.0000   0.0000   0.0000   0.0000   0.0000   0.0000
     0.0000   0.0000   0.0000   0.0000   0.0000   0.0000   0.0000   0.0000
     0.0000   0.0000   0.0000   0.0000   0.0000   0.0000   0.0000   0.0000
     0.0000   0.0000   0.0000   0.0000   0.0000   0.0000   0.0000   0.0000
     0.0000   0.0000   0.0000   0.0000   0.0000   0.0000   0.0000   0.0000

[...]

          k = 0.3333-0.6371-1.0023 (  2923 PWs)   bands (ev):

   -35.1633 -35.1624 -15.2347 -15.2067 -15.2015 -15.1647 -15.1192 -15.0952
    -6.9821  -4.4625  -4.0981  -3.8748   2.1706   2.8026   3.3753   4.6678
     4.7637   5.2917   5.4621   5.6127   6.1692   6.1717   6.3997  10.1563
    10.1941  10.6378  10.8917  10.9961  11.3303  11.3459  11.3473  11.3558
    11.7333  12.1758  12.3070  12.6012  15.7609  16.0067  16.3767  16.5200
    16.6303  16.7375  17.3788  17.4357  17.4928  17.5652  18.5950  18.7791
    19.3169  20.0379  20.2133  21.2555  21.2797  21.6678  22.7252  23.4393
    23.6132  23.7282  23.9252  24.1916  24.2900  24.3974  24.4548  24.5115

     occupation numbers
     1.0000   1.0000   1.0000   1.0000   1.0000   1.0000   1.0000   1.0000
     1.0000   1.0000   1.0000   1.0000   1.0000   1.0000   1.0000   1.0000
     1.0000   1.0000   1.0000   1.0000   1.0000   1.0000   1.0000   0.0000
     0.0000   0.0000   0.0000   0.0000   0.0000   0.0000   0.0000   0.0000
     0.0000   0.0000   0.0000   0.0000   0.0000   0.0000   0.0000   0.0000
     0.0000   0.0000   0.0000   0.0000   0.0000   0.0000   0.0000   0.0000
     0.0000   0.0000   0.0000   0.0000   0.0000   0.0000   0.0000   0.0000
     0.0000   0.0000   0.0000   0.0000   0.0000   0.0000   0.0000   0.0000

     highest occupied, lowest unoccupied level (ev):     7.3639    8.2247

!    total energy              =    -350.09007180 Ry
     estimated scf accuracy    <       0.00000092 Ry

     The total energy is the sum of the following terms:
     one-electron contribution =     -46.50142460 Ry
     hartree contribution      =      40.72626201 Ry
     xc contribution           =    -162.90859568 Ry
     ewald contribution        =    -181.40631353 Ry

     convergence has been achieved in   7 iterations

     Writing all to output data dir calculations_bands/myprefix.save/

     General routines

     Parallel routines

   This run was terminated on:  20:27:59   6Jun2023

   JOB DONE.