     Program PWSCF v.7.0 starts on  4Jun2023 at 15:24: 8

     K-points division:     npool     =       2
     R & G space division:  proc/nbgrp/npool/nimage =       4

     Reading input from espresso_2383.pwi
Warning: card &CELL ignored
Warning: card / ignored

     Current dimensions of program PWSCF are:
     Max number of different atomic species (ntypx) = 10
     Max number of k-points (npk) =  40000
     Max angular momentum in pseudopotentials (lmaxx) =  4
     file Al.pbe-n-kjpaw_psl.1.0.0.UPF: wavefunction(s)  3S 3P renormalized
     file In.pbe-dn-rrkjus_psl.0.2.2.UPF: wavefunction(s)  5S renormalized

     Using Slab Decomposition

     bravais-lattice index     =            0
     lattice parameter (alat)  =      13.2683  a.u.
     unit-cell volume          =    1280.9612 (a.u.)^3
     number of atoms/cell      =            8
     number of atomic types    =            4
     number of electrons       =        78.00
     number of Kohn-Sham states=           64
     kinetic-energy cutoff     =      30.0000  Ry
     charge density cutoff     =     240.0000  Ry
     scf convergence threshold =      1.0E-06
     mixing beta               =       0.7000
     number of iterations used =            8  plain     mixing
     Exchange-correlation= SLA  PW   PBE  PBE
                           (   1   4   3   4   0   0   0)

     celldm(1)=  13.268257  celldm(2)=   0.000000  celldm(3)=   0.000000
     celldm(4)=   0.000000  celldm(5)=   0.000000  celldm(6)=   0.000000

     crystal axes: (cart. coord. in units of alat)
               a(1) = (   1.000000   0.000000   0.000000 )
               a(2) = (   0.326670   0.945138   0.000000 )
               a(3) = (  -0.663335  -0.472569   0.580228 )

     reciprocal axes: (cart. coord. in units 2 pi/alat)
               b(1) = (  1.000000 -0.345632  0.861730 )
               b(2) = (  0.000000  1.058046  0.861730 )
               b(3) = (  0.000000  0.000000  1.723460 )

     PseudoPot. # 1 for Al read from file:
     /home/pragov/projects/rrg-bengioy-ad/pragov/crystal_structure_design/SSSP/Al.pbe-n-kjpaw_psl.1.0.0.UPF
     MD5 check sum: cfc449ca30b5f3223ec38ddd88ac046d
     Pseudo is Projector augmented-wave + core cor, Zval =  3.0
     Generated using "atomic" code by A. Dal Corso  v.5.1
     Shape of augmentation charge: PSQ
     Using radial grid of 1135 points,  6 beta functions with:
                l(1) =   0
                l(2) =   0
                l(3) =   1
                l(4) =   1
                l(5) =   2
                l(6) =   2
     Q(r) pseudized with 0 coefficients

     PseudoPot. # 2 for In read from file:
     /home/pragov/projects/rrg-bengioy-ad/pragov/crystal_structure_design/SSSP/In.pbe-dn-rrkjus_psl.0.2.2.UPF
     MD5 check sum: 25e7c42c3b55b68f4bf926be2e7201a4
     Pseudo is Ultrasoft + core correction, Zval = 13.0
     Generated using "atomic" code by A. Dal Corso  v.5.0.99 svn rev. 10869
     Using radial grid of 1241 points,  6 beta functions with:
                l(1) =   0
                l(2) =   0
                l(3) =   1
                l(4) =   1
                l(5) =   2
                l(6) =   2
     Q(r) pseudized with 0 coefficients

     PseudoPot. # 3 for Cu read from file:
     /home/pragov/projects/rrg-bengioy-ad/pragov/crystal_structure_design/SSSP/Cu_pbe_v1.2.uspp.F.UPF
     MD5 check sum: 6e991ff952a84172a2a52a1c1e996048
     Pseudo is Ultrasoft + core correction, Zval = 19.0
     Generated by new atomic code, or converted to UPF format
     Using radial grid of  867 points,  6 beta functions with:
                l(1) =   0
                l(2) =   0
                l(3) =   1
                l(4) =   1
                l(5) =   2
                l(6) =   2
     Q(r) pseudized with  8 coefficients,  rinner =    1.150   1.150   1.150
                                                       1.150   1.150

     PseudoPot. # 4 for Se read from file:
     /home/pragov/projects/rrg-bengioy-ad/pragov/crystal_structure_design/SSSP/Se_pbe_v1.uspp.F.UPF
     MD5 check sum: 1b3568f3a8ae88f9a2a0ad0698632c85
     Pseudo is Ultrasoft + core correction, Zval =  6.0
     Generated by new atomic code, or converted to UPF format
     Using radial grid of  877 points,  6 beta functions with:
                l(1) =   0
                l(2) =   0
                l(3) =   1
                l(4) =   1
                l(5) =   2
                l(6) =   2
     Q(r) pseudized with  8 coefficients,  rinner =    1.300   1.300   1.300
                                                       1.300   1.300

     atomic species   valence    mass     pseudopotential
        Al             3.00    26.98154     Al( 1.00)
        In            13.00   114.81800     In( 1.00)
        Cu            19.00    63.54600     Cu( 1.00)
        Se             6.00    78.97100     Se( 1.00)

     No symmetry found

                                    s                        frac. trans.

      isym =  1     identity

 cryst.   s( 1) = (     1          0          0      )
                  (     0          1          0      )
                  (     0          0          1      )

 cart.    s( 1) = (  1.0000000  0.0000000  0.0000000 )
                  (  0.0000000  1.0000000 -0.0000000 )
                  (  0.0000000  0.0000000  1.0000000 )

   Cartesian axes

     site n.     atom                  positions (alat units)
         1           Al  tau(   1) = (   0.5000000   0.0000000   0.2901142  )
         2           In  tau(   2) = (   0.6633351   0.4725692   0.0000000  )
         3           Cu  tau(   3) = (   0.1633351   0.4725692   0.2901142  )
         4           Cu  tau(   4) = (   0.0000000   0.0000000   0.0000000  )
         5           Se  tau(   5) = (  -0.1763739  -0.1232753   0.2727050  )
         6           Se  tau(   6) = (   0.4892067   0.3461418   0.3075233  )
         7           Se  tau(   7) = (   0.6601525   0.8478841   0.0019351  )
         8           Se  tau(   8) = (   0.3536849  -0.1256122   0.5782932  )

   Crystallographic axes

     site n.     atom                  positions (cryst. coord.)
         1           Al  tau(   1) = (  0.7500000  0.2500000  0.5000000  )
         2           In  tau(   2) = (  0.5000000  0.5000000  0.0000000  )
         3           Cu  tau(   3) = (  0.2500000  0.7500000  0.5000000  )
         4           Cu  tau(   4) = (  0.0000000  0.0000000  0.0000000  )
         5           Se  tau(   5) = (  0.1012320  0.1045670  0.4699960  )
         6           Se  tau(   6) = (  0.6345710  0.6312360  0.5300040  )
         7           Se  tau(   7) = (  0.3687640  0.8987680  0.0033350  )
         8           Se  tau(   8) = (  0.8954330  0.3654290  0.9966650  )

     number of k points=    14
                       cart. coord. in units 2pi/alat
        k(    1) = (   0.0000000   0.0000000   0.0000000), wk =   0.0740741
        k(    2) = (   0.0000000   0.0000000   0.5744865), wk =   0.1481481
        k(    3) = (   0.0000000   0.3526820   0.2872433), wk =   0.1481481
        k(    4) = (   0.0000000   0.3526820   0.8617298), wk =   0.1481481
        k(    5) = (   0.3333333  -0.1152107   0.2872433), wk =   0.1481481
        k(    6) = (   0.3333333  -0.1152107   0.8617298), wk =   0.1481481
        k(    7) = (   0.3333333   0.2374713   0.5744865), wk =   0.1481481
        k(    8) = (   0.3333333   0.2374713  -0.0000000), wk =   0.1481481
        k(    9) = (   0.3333333  -0.4678928   0.0000000), wk =   0.1481481
        k(   10) = (   0.3333333  -0.4678928   0.5744865), wk =   0.1481481
        k(   11) = (   0.0000000  -0.3526820   0.2872433), wk =   0.1481481
        k(   12) = (  -0.3333333   0.1152107   0.2872433), wk =   0.1481481
        k(   13) = (  -0.3333333  -0.2374713   0.5744865), wk =   0.1481481
        k(   14) = (  -0.3333333   0.4678928   0.5744865), wk =   0.1481481

                       cryst. coord.
        k(    1) = (   0.0000000   0.0000000   0.0000000), wk =   0.0740741
        k(    2) = (   0.0000000   0.0000000   0.3333333), wk =   0.1481481
        k(    3) = (   0.0000000   0.3333333  -0.0000000), wk =   0.1481481
        k(    4) = (   0.0000000   0.3333333   0.3333333), wk =   0.1481481
        k(    5) = (   0.3333333   0.0000000  -0.0000000), wk =   0.1481481
        k(    6) = (   0.3333333   0.0000000   0.3333333), wk =   0.1481481
        k(    7) = (   0.3333333   0.3333333  -0.0000000), wk =   0.1481481
        k(    8) = (   0.3333333   0.3333333  -0.3333333), wk =   0.1481481
        k(    9) = (   0.3333333  -0.3333333   0.0000000), wk =   0.1481481
        k(   10) = (   0.3333333  -0.3333333   0.3333333), wk =   0.1481481
        k(   11) = (   0.0000000  -0.3333333   0.3333333), wk =   0.1481481
        k(   12) = (  -0.3333333  -0.0000000   0.3333333), wk =   0.1481481
        k(   13) = (  -0.3333333  -0.3333333   0.6666667), wk =   0.1481481
        k(   14) = (  -0.3333333   0.3333333   0.3333333), wk =   0.1481481

     Initial potential from superposition of free atoms

     starting charge      75.9937, renormalised to      78.0000
     Starting wfcs are   55 randomized atomic wfcs +    9 random wfcs
     Checking if some PAW data can be deallocated...

     Self-consistent Calculation

     iteration #  1     ecut=    30.00 Ry     beta= 0.70
     Davidson diagonalization with overlap

     ethr =  1.00E-02,  avg # of iterations =  6.4

     total energy              =   -1165.84445301 Ry
     estimated scf accuracy    <       1.32937186 Ry

[...]

     total energy              =   -1166.47534994 Ry
     estimated scf accuracy    <       0.00000179 Ry

     iteration # 12     ecut=    30.00 Ry     beta= 0.70
     Davidson diagonalization with overlap

     ethr =  2.29E-09,  avg # of iterations =  5.0

     End of self-consistent calculation

          k = 0.0000 0.0000 0.0000 (  3555 PWs)   bands (ev):

  -104.9138-104.8791 -62.3292 -62.3018 -62.3018 -62.2882 -62.2720 -62.2720
    -8.4243  -8.4200  -8.4200  -8.2281  -8.2150  -7.4667  -6.2064  -6.2011
    -6.2011   0.0585   0.9620   1.8436   2.2786   2.4248   2.6966   2.6966
     3.3350   3.3350   3.6586   3.6586   3.6779   4.8164   4.8481   4.9553
     5.1631   5.1954   5.1954   5.2888   6.5275   6.5275   6.5572   6.7489
     8.5797   8.9794  10.5562  10.5562  11.1365  11.3462  11.3463  11.6034
    11.6910  12.8135  12.8135  13.0309  13.3825  15.9053  16.0314  16.2116
    16.5720  16.5720  16.7154  16.9599  17.3900  18.2208  18.2208  18.6169

     occupation numbers
     1.0000   1.0000   1.0000   1.0000   1.0000   1.0000   1.0000   1.0000
     1.0000   1.0000   1.0000   1.0000   1.0000   1.0000   1.0000   1.0000
     1.0000   1.0000   1.0000   1.0000   1.0000   1.0000   1.0000   1.0000
     1.0000   1.0000   1.0000   1.0000   1.0000   1.0000   1.0000   1.0000
     1.0000   1.0000   1.0000   1.0000   1.0000   1.0000   1.0000   0.0000
     0.0000   0.0000   0.0000   0.0000   0.0000   0.0000   0.0000   0.0000
     0.0000   0.0000   0.0000   0.0000   0.0000   0.0000   0.0000   0.0000
     0.0000   0.0000   0.0000   0.0000   0.0000   0.0000   0.0000   0.0000

[...]

          k = 0.0000-0.3527 0.2872 (  3564 PWs)   bands (ev):

[...]

          k =-0.3333 0.1152 0.2872 (  3564 PWs)   bands (ev):

[...]

          k =-0.3333 0.4679 0.5745 (  3552 PWs)   bands (ev):

  -104.9138-104.8791 -62.3298 -62.3020 -62.3010 -62.2888 -62.2721 -62.2710
    -8.4485  -8.4278  -8.4210  -8.2274  -8.2144  -6.7744  -6.7145  -6.5144
    -6.2046   0.4704   0.7732   1.9657   2.1455   2.4241   2.8821   2.9887
     3.1455   3.3959   3.5134   3.5754   3.6939   4.9043   4.9580   4.9877
     5.1165   5.2014   5.3014   5.4578   5.6711   5.8969   6.1782   8.3639
     8.8872   9.6638   9.7557  10.4857  10.7685  10.8516  11.3960  11.7351
    12.1850  12.7249  13.2008  13.8206  14.0058  14.5611  14.6961  14.8552
    15.0276  15.1844  17.0064  17.4659  17.9705  18.2014  18.5884  18.8424

     occupation numbers
     1.0000   1.0000   1.0000   1.0000   1.0000   1.0000   1.0000   1.0000
     1.0000   1.0000   1.0000   1.0000   1.0000   1.0000   1.0000   1.0000
     1.0000   1.0000   1.0000   1.0000   1.0000   1.0000   1.0000   1.0000
     1.0000   1.0000   1.0000   1.0000   1.0000   1.0000   1.0000   1.0000
     1.0000   1.0000   1.0000   1.0000   1.0000   1.0000   1.0000   0.0000
     0.0000   0.0000   0.0000   0.0000   0.0000   0.0000   0.0000   0.0000
     0.0000   0.0000   0.0000   0.0000   0.0000   0.0000   0.0000   0.0000
     0.0000   0.0000   0.0000   0.0000   0.0000   0.0000   0.0000   0.0000

     highest occupied, lowest unoccupied level (ev):     6.5572    6.7489

!    total energy              =   -1166.47535068 Ry
     estimated scf accuracy    <       0.00000002 Ry

     The total energy is the sum of the following terms:
     one-electron contribution =    -935.43488579 Ry
     hartree contribution      =     502.98508246 Ry
     xc contribution           =    -246.81976914 Ry
     ewald contribution        =    -452.53646471 Ry
     one-center paw contrib.   =     -34.66931350 Ry
      -> PAW hartree energy AE =       1.33723672 Ry
      -> PAW hartree energy PS =      -1.33301535 Ry
      -> PAW xc energy AE      =     -36.55142179 Ry
      -> PAW xc energy PS      =       1.87788693 Ry
      -> total E_H with PAW    =     502.98930383 Ry
      -> total E_XC with PAW   =    -281.49330401 Ry

     convergence has been achieved in  12 iterations

     Writing all to output data dir calculations_bands/myprefix.save/

     General routines

     Parallel routines

     PAW routines

   This run was terminated on:  15:24:26   4Jun2023

   JOB DONE.