     Program PWSCF v.7.0 starts on  4Jun2023 at 22:52:39

     K-points division:     npool     =       2
     R & G space division:  proc/nbgrp/npool/nimage =       4

     Reading input from espresso_5258.pwi
Warning: card &CELL ignored
Warning: card / ignored

     Current dimensions of program PWSCF are:
     Max number of different atomic species (ntypx) = 10
     Max number of k-points (npk) =  40000
     Max angular momentum in pseudopotentials (lmaxx) =  4
     file Fe.pbe-spn-kjpaw_psl.0.2.1.UPF: wavefunction(s)  3D renormalized
     file O.pbe-n-kjpaw_psl.0.1.UPF: wavefunction(s)  2P renormalized
     Message from routine setup:
     using ibrav=0 with symmetry is DISCOURAGED, use correct ibrav instead

     Using Slab Decomposition

     bravais-lattice index     =            0
     lattice parameter (alat)  =       5.8691  a.u.
     unit-cell volume          =     985.1430 (a.u.)^3
     number of atoms/cell      =           12
     number of atomic types    =            3
     number of electrons       =       118.00
     number of Kohn-Sham states=           64
     kinetic-energy cutoff     =      30.0000  Ry
     charge density cutoff     =     240.0000  Ry
     scf convergence threshold =      1.0E-06
     mixing beta               =       0.7000
     number of iterations used =            8  plain     mixing
     Exchange-correlation=  SLA  PW   PBX  PBC
                           (   1   4   3   4   0   0   0)

     celldm(1)=   5.869127  celldm(2)=   0.000000  celldm(3)=   0.000000
     celldm(4)=   0.000000  celldm(5)=   0.000000  celldm(6)=   0.000000

     crystal axes: (cart. coord. in units of alat)
               a(1) = (   1.000000   0.000000   0.000000 )
               a(2) = (   0.000000   1.561982   0.000000 )
               a(3) = (   0.000000   0.000000   3.119628 )

     reciprocal axes: (cart. coord. in units 2 pi/alat)
               b(1) = (  1.000000  0.000000  0.000000 )
               b(2) = (  0.000000  0.640212  0.000000 )
               b(3) = (  0.000000  0.000000  0.320551 )

     PseudoPot. # 1 for Fe read from file:
     /home/pragov/projects/rrg-bengioy-ad/pragov/crystal_structure_design/SSSP/Fe.pbe-spn-kjpaw_psl.0.2.1.UPF
     MD5 check sum: e86618425769142926afa95317d90200
     Pseudo is Projector augmented-wave + core cor, Zval = 16.0
     Generated using "atomic" code by A. Dal Corso  v.5.0.99 svn rev. 10869
     Shape of augmentation charge: PSQ
     Using radial grid of 1191 points,  6 beta functions with:
                l(1) =   0
                l(2) =   0
                l(3) =   1
                l(4) =   1
                l(5) =   2
                l(6) =   2
     Q(r) pseudized with 0 coefficients

     PseudoPot. # 2 for O  read from file:
     /home/pragov/projects/rrg-bengioy-ad/pragov/crystal_structure_design/SSSP/O.pbe-n-kjpaw_psl.0.1.UPF
     MD5 check sum: 0234752ac141de4415c5fc33072bef88
     Pseudo is Projector augmented-wave + core cor, Zval =  6.0
     Generated using "atomic" code by A. Dal Corso  v.5.0.99 svn rev. 10869
     Shape of augmentation charge: BESSEL
     Using radial grid of 1095 points,  4 beta functions with:
                l(1) =   0
                l(2) =   0
                l(3) =   1
                l(4) =   1
     Q(r) pseudized with 0 coefficients

     PseudoPot. # 3 for F  read from file:
     /home/pragov/projects/rrg-bengioy-ad/pragov/crystal_structure_design/SSSP/f_pbe_v1.4.uspp.F.UPF
     MD5 check sum: 4c38b6a325caf53ec0e86aed9459de46
     Pseudo is Ultrasoft, Zval =  7.0
     Generated by new atomic code, or converted to UPF format
     Using radial grid of  799 points,  4 beta functions with:
                l(1) =   0
                l(2) =   0
                l(3) =   1
                l(4) =   1
     Q(r) pseudized with  8 coefficients,  rinner =    0.950   0.950   0.950

     atomic species   valence    mass     pseudopotential
        Fe            16.00    55.84500     Fe( 1.00)
        O              6.00    15.99900     O ( 1.00)
        F              7.00    18.99840     F ( 1.00)

      4 Sym. Ops. (no inversion) found ( 2 have fractional translation)

                                    s                        frac. trans.

      isym =  1     identity

 cryst.   s( 1) = (     1          0          0      )
                  (     0          1          0      )
                  (     0          0          1      )

 cart.    s( 1) = (  1.0000000  0.0000000  0.0000000 )
                  (  0.0000000  1.0000000  0.0000000 )
                  (  0.0000000  0.0000000  1.0000000 )

      isym =  2     180 deg rotation - cart. axis [0,1,0]

 cryst.   s( 2) = (    -1          0          0      )    f =(  0.5000000 )
                  (     0          1          0      )       (  0.5000000 )
                  (     0          0         -1      )       ( -0.0000000 )

 cart.    s( 2) = ( -1.0000000  0.0000000  0.0000000 )    f =(  0.5000000 )
                  (  0.0000000  1.0000000  0.0000000 )       (  0.7809911 )
                  (  0.0000000  0.0000000 -1.0000000 )       ( -0.0000000 )

      isym =  3     inv. 180 deg rotation - cart. axis [0,0,1]

 cryst.   s( 3) = (     1          0          0      )    f =(  0.5000000 )
                  (     0          1          0      )       (  0.5000000 )
                  (     0          0         -1      )       ( -0.0000000 )

 cart.    s( 3) = (  1.0000000  0.0000000  0.0000000 )    f =(  0.5000000 )
                  (  0.0000000  1.0000000  0.0000000 )       (  0.7809911 )
                  (  0.0000000  0.0000000 -1.0000000 )       ( -0.0000000 )

      isym =  4     inv. 180 deg rotation - cart. axis [1,0,0]

 cryst.   s( 4) = (    -1          0          0      )
                  (     0          1          0      )
                  (     0          0          1      )

 cart.    s( 4) = ( -1.0000000  0.0000000  0.0000000 )
                  (  0.0000000  1.0000000  0.0000000 )
                  (  0.0000000  0.0000000  1.0000000 )

   Cartesian axes

     site n.     atom                  positions (alat units)
         1           Fe  tau(   1) = (   0.5000000   0.8309839   1.1293240  )
         2           Fe  tau(   2) = (   0.5000000   0.7446001   2.7146502  )
         3           Fe  tau(   3) = (   0.0000000   0.0499928   1.9903038  )
         4           Fe  tau(   4) = (   0.0000000   1.5255912   0.4049776  )
         5           O   tau(   5) = (   0.0000000   1.0801701   0.8868291  )
         6           O   tau(   6) = (   0.5000000   0.2991790   2.2327987  )
         7           F   tau(   7) = (   0.0000000   1.0967427   2.3946201  )
         8           F   tau(   8) = (   0.5000000   1.2551293   1.6489167  )
         9           F   tau(   9) = (   0.5000000   1.2403045   0.0624737  )
        10           F   tau(  10) = (   0.5000000   0.3157516   0.7250077  )
        11           F   tau(  11) = (   0.0000000   0.4593134   3.0571541  )
        12           F   tau(  12) = (   0.0000000   0.4741382   1.4707111  )

   Crystallographic axes

     site n.     atom                  positions (cryst. coord.)
         1           Fe  tau(   1) = (  0.5000000  0.5320060  0.3620060  )
         2           Fe  tau(   2) = (  0.5000000  0.4767020  0.8701840  )
         3           Fe  tau(   3) = (  0.0000000  0.0320060  0.6379940  )
         4           Fe  tau(   4) = (  0.0000000  0.9767020  0.1298160  )
         5           O   tau(   5) = (  0.0000000  0.6915380  0.2842740  )
         6           O   tau(   6) = (  0.5000000  0.1915380  0.7157260  )
         7           F   tau(   7) = (  0.0000000  0.7021480  0.7675980  )
         8           F   tau(   8) = (  0.5000000  0.8035490  0.5285620  )
         9           F   tau(   9) = (  0.5000000  0.7940580  0.0200260  )
        10           F   tau(  10) = (  0.5000000  0.2021480  0.2324020  )
        11           F   tau(  11) = (  0.0000000  0.2940580  0.9799740  )
        12           F   tau(  12) = (  0.0000000  0.3035490  0.4714380  )

     number of k points=     8
                       cart. coord. in units 2pi/alat
        k(    1) = (   0.0000000   0.0000000   0.0000000), wk =   0.0740741
        k(    2) = (   0.0000000   0.0000000   0.1068504), wk =   0.1481481
        k(    3) = (   0.0000000   0.2134040   0.0000000), wk =   0.1481481
        k(    4) = (   0.0000000   0.2134040   0.1068504), wk =   0.2962963
        k(    5) = (   0.3333333   0.0000000   0.0000000), wk =   0.1481481
        k(    6) = (   0.3333333   0.0000000   0.1068504), wk =   0.2962963
        k(    7) = (   0.3333333   0.2134040   0.0000000), wk =   0.2962963
        k(    8) = (   0.3333333   0.2134040   0.1068504), wk =   0.5925926

                       cryst. coord.
        k(    1) = (   0.0000000   0.0000000   0.0000000), wk =   0.0740741
        k(    2) = (   0.0000000   0.0000000   0.3333333), wk =   0.1481481
        k(    3) = (   0.0000000   0.3333333   0.0000000), wk =   0.1481481
        k(    4) = (   0.0000000   0.3333333   0.3333333), wk =   0.2962963
        k(    5) = (   0.3333333   0.0000000   0.0000000), wk =   0.1481481
        k(    6) = (   0.3333333   0.0000000   0.3333333), wk =   0.2962963
        k(    7) = (   0.3333333   0.3333333   0.0000000), wk =   0.2962963
        k(    8) = (   0.3333333   0.3333333   0.3333333), wk =   0.5925926

     Check: negative core charge=   -0.000164

     Initial potential from superposition of free atoms

     starting charge     117.9982, renormalised to     118.0000
     Starting wfcs are   84 randomized atomic wfcs
     Checking if some PAW data can be deallocated...

     Self-consistent Calculation

     iteration #  1     ecut=    30.00 Ry     beta= 0.70
     Davidson diagonalization with overlap

     ethr =  1.00E-02,  avg # of iterations =  2.0

     total energy              =   -1689.87556854 Ry
     estimated scf accuracy    <       1.70035578 Ry

[...]

     negative rho (up, down):  1.006E-05 0.000E+00

[...]

     total energy              =   -1690.77929641 Ry
     estimated scf accuracy    <       0.00000189 Ry

     iteration # 18     ecut=    30.00 Ry     beta= 0.70
     Davidson diagonalization with overlap

     ethr =  1.60E-09,  avg # of iterations =  2.4

     negative rho (up, down):  8.078E-08 0.000E+00

     End of self-consistent calculation

          k = 0.0000 0.0000 0.0000 (  2711 PWs)   bands (ev):

   -80.8657 -80.8638 -80.5791 -80.5769 -46.5310 -46.5194 -46.5189 -46.5133
   -46.2386 -46.2322 -46.1875 -46.1777 -46.1434 -46.1371 -46.0898 -46.0876
   -17.3542 -16.9744 -16.8947 -16.8589 -16.3025 -16.0125 -11.6777 -11.6340
    -0.6665   0.1100   0.4078   0.7401   0.8157   1.0612   1.0789   1.1125
     1.2527   1.6941   1.7226   1.8103   1.8731   1.8929   2.1137   2.1764
     2.2060   2.6949   2.8667   3.0340   3.3411   3.5017   4.0157   4.0536
     5.4380   5.4471   5.5393   5.5686   5.7631   5.8449   5.9220   6.0113
     6.0800   6.0901   6.5358   6.6621   6.7665   7.3681   7.4683   7.4867

     occupation numbers
     1.0000   1.0000   1.0000   1.0000   1.0000   1.0000   1.0000   1.0000
     1.0000   1.0000   1.0000   1.0000   1.0000   1.0000   1.0000   1.0000
     1.0000   1.0000   1.0000   1.0000   1.0000   1.0000   1.0000   1.0000
     1.0000   1.0000   1.0000   1.0000   1.0000   1.0000   1.0000   1.0000
     1.0000   1.0000   1.0000   1.0000   1.0000   1.0000   1.0000   1.0000
     1.0000   1.0000   1.0000   1.0000   1.0000   1.0000   1.0000   1.0000
     1.0000   1.0000   1.0000   1.0000   1.0000   1.0000   1.0000   1.0000
     1.0000   1.0000   1.0000   0.0000   0.0000   0.0000   0.0000   0.0000

[...]

          k = 0.3333 0.2134 0.1069 (  2747 PWs)   bands (ev):

   -80.8686 -80.8679 -80.5827 -80.5804 -46.5806 -46.5773 -46.5318 -46.5296
   -46.2403 -46.2339 -46.2022 -46.1946 -46.1880 -46.1853 -46.0979 -46.0934
   -17.1070 -17.0172 -16.8219 -16.8091 -16.1313 -16.0575 -11.4901 -11.4869
    -0.0220   0.0864   0.4015   0.5151   0.5688   0.7671   0.9579   1.0083
     1.1997   1.2876   1.5419   1.6177   1.7894   1.8588   2.1132   2.3164
     2.5341   2.5548   2.6559   2.7703   3.0243   3.1840   3.5814   3.7108
     5.5624   5.6369   5.7592   5.7819   5.8407   5.8896   5.9240   5.9697
     6.0052   6.0900   6.6250   6.6502   6.9109   7.0756   7.3047   7.5114

     occupation numbers
     1.0000   1.0000   1.0000   1.0000   1.0000   1.0000   1.0000   1.0000
     1.0000   1.0000   1.0000   1.0000   1.0000   1.0000   1.0000   1.0000
     1.0000   1.0000   1.0000   1.0000   1.0000   1.0000   1.0000   1.0000
     1.0000   1.0000   1.0000   1.0000   1.0000   1.0000   1.0000   1.0000
     1.0000   1.0000   1.0000   1.0000   1.0000   1.0000   1.0000   1.0000
     1.0000   1.0000   1.0000   1.0000   1.0000   1.0000   1.0000   1.0000
     1.0000   1.0000   1.0000   1.0000   1.0000   1.0000   1.0000   1.0000
     1.0000   1.0000   1.0000   0.0000   0.0000   0.0000   0.0000   0.0000

     highest occupied, lowest unoccupied level (ev):     6.6875    6.5944

!    total energy              =   -1690.77929663 Ry
     estimated scf accuracy    <       0.00000007 Ry

     The total energy is the sum of the following terms:
     one-electron contribution =    -848.50324803 Ry
     hartree contribution      =     477.57507660 Ry
     xc contribution           =    -208.99438229 Ry
     ewald contribution        =    -787.51815608 Ry
     one-center paw contrib.   =    -323.33858682 Ry
      -> PAW hartree energy AE =     413.03854646 Ry
      -> PAW hartree energy PS =    -411.46623980 Ry
      -> PAW xc energy AE      =    -221.98052056 Ry
      -> PAW xc energy PS      =      68.26811021 Ry
      -> total E_H with PAW    =     479.14738326 Ry
      -> total E_XC with PAW   =    -362.70679265 Ry

     convergence has been achieved in  18 iterations

     Writing all to output data dir calculations_bands/myprefix.save/

     General routines

     Parallel routines

     PAW routines

   This run was terminated on:  22:54:16   4Jun2023

   JOB DONE.