     Program PWSCF v.7.0 starts on  7Jun2023 at  3:19: 8

     K-points division:     npool     =       2
     R & G space division:  proc/nbgrp/npool/nimage =       4

     Reading input from espresso_1401.pwi
Warning: card &CELL ignored
Warning: card / ignored

     Current dimensions of program PWSCF are:
     Max number of different atomic species (ntypx) = 10
     Max number of k-points (npk) =  40000
     Max angular momentum in pseudopotentials (lmaxx) =  4
     file Mg.pbe-n-kjpaw_psl.0.3.0.UPF: wavefunction(s)  3S renormalized
     Message from routine setup:
     using ibrav=0 with symmetry is DISCOURAGED, use correct ibrav instead

     Using Slab Decomposition

     bravais-lattice index     =            0
     lattice parameter (alat)  =      10.6095  a.u.
     unit-cell volume          =     760.1928 (a.u.)^3
     number of atoms/cell      =            6
     number of atomic types    =            2
     number of electrons       =        52.00
     number of Kohn-Sham states=           64
     kinetic-energy cutoff     =      30.0000  Ry
     charge density cutoff     =     240.0000  Ry
     scf convergence threshold =      1.0E-06
     mixing beta               =       0.7000
     number of iterations used =            8  plain     mixing
     Exchange-correlation=  SLA  PW   PBX  PBC
                           (   1   4   3   4   0   0   0)

     celldm(1)=  10.609463  celldm(2)=   0.000000  celldm(3)=   0.000000
     celldm(4)=   0.000000  celldm(5)=   0.000000  celldm(6)=   0.000000

     crystal axes: (cart. coord. in units of alat)
               a(1) = (   1.000000   0.000000   0.000000 )
               a(2) = (   0.866559   0.499075   0.000000 )
               a(3) = (   0.344709   0.092167   1.275492 )

     reciprocal axes: (cart. coord. in units 2 pi/alat)
               b(1) = (  1.000000 -1.736329 -0.144788 )
               b(2) = (  0.000000  2.003707 -0.144788 )
               b(3) = (  0.000000  0.000000  0.784011 )

     PseudoPot. # 1 for Mg read from file:
     /home/pragov/projects/rrg-bengioy-ad/pragov/crystal_structure_design/SSSP/Mg.pbe-n-kjpaw_psl.0.3.0.UPF
     MD5 check sum: 24ecedc7f3e3cbe212e682f4413594e4
     Pseudo is Projector augmented-wave + core cor, Zval =  2.0
     Generated using "atomic" code by A. Dal Corso  v.5.0.99 svn rev. 10869
     Shape of augmentation charge: PSQ
     Using radial grid of 1129 points,  4 beta functions with:
                l(1) =   0
                l(2) =   0
                l(3) =   1
                l(4) =   1
     Q(r) pseudized with 0 coefficients

     PseudoPot. # 2 for Ti read from file:
     /home/pragov/projects/rrg-bengioy-ad/pragov/crystal_structure_design/SSSP/ti_pbe_v1.4.uspp.F.UPF
     MD5 check sum: 88a00a6731bd790ddea75d31a80cb452
     Pseudo is Ultrasoft + core correction, Zval = 12.0
     Generated by new atomic code, or converted to UPF format
     Using radial grid of  851 points,  6 beta functions with:
                l(1) =   0
                l(2) =   0
                l(3) =   1
                l(4) =   1
                l(5) =   2
                l(6) =   2
     Q(r) pseudized with  6 coefficients,  rinner =    1.000   1.000   1.000
                                                       1.000   1.000

     atomic species   valence    mass     pseudopotential
        Mg             2.00    24.30500     Mg( 1.00)
        Ti            12.00    47.86700     Ti( 1.00)

      2 Sym. Ops., with inversion, found

                                    s                        frac. trans.

      isym =  1     identity

 cryst.   s( 1) = (     1          0          0      )
                  (     0          1          0      )
                  (     0          0          1      )

 cart.    s( 1) = (  1.0000000  0.0000000  0.0000000 )
                  (  0.0000000  1.0000000  0.0000000 )
                  (  0.0000000  0.0000000  1.0000000 )

      isym =  2     inversion

 cryst.   s( 2) = (    -1          0          0      )
                  (     0         -1          0      )
                  (     0          0         -1      )

 cart.    s( 2) = ( -1.0000000 -0.0000000 -0.0000000 )
                  (  0.0000000 -1.0000000 -0.0000000 )
                  (  0.0000000  0.0000000 -1.0000000 )

   Cartesian axes

     site n.     atom                  positions (alat units)
         1           Mg  tau(   1) = (   1.3493110   0.3607749   0.6097526  )
         2           Mg  tau(   2) = (   0.8619565   0.2304674   0.6657390  )
         3           Ti  tau(   3) = (   0.6173783   0.1650728   0.1639466  )
         4           Ti  tau(   4) = (   0.1259385   0.0336731   0.2085595  )
         5           Ti  tau(   5) = (   2.0853290   0.5575692   1.0669322  )
         6           Ti  tau(   6) = (   1.5938891   0.4261695   1.1115450  )

   Crystallographic axes

     site n.     atom                  positions (cryst. coord.)
         1           Mg  tau(   1) = (  0.6346020  0.6346020  0.4780530  )
         2           Mg  tau(   2) = (  0.3653980  0.3653980  0.5219470  )
         3           Ti  tau(   3) = (  0.3070200  0.3070200  0.1285360  )
         4           Ti  tau(   4) = (  0.0372740  0.0372740  0.1635130  )
         5           Ti  tau(   5) = (  0.9627260  0.9627260  0.8364870  )
         6           Ti  tau(   6) = (  0.6929800  0.6929800  0.8714640  )

     number of k points=    14
                       cart. coord. in units 2pi/alat
        k(    1) = (   0.0000000   0.0000000   0.0000000), wk =   0.0740741
        k(    2) = (   0.0000000   0.0000000   0.2613371), wk =   0.1481481
        k(    3) = (   0.0000000   0.6679022  -0.0482627), wk =   0.1481481
        k(    4) = (   0.0000000   0.6679022   0.2130744), wk =   0.1481481
        k(    5) = (   0.0000000   0.6679022  -0.3095999), wk =   0.1481481
        k(    6) = (   0.3333333  -0.5787765  -0.0482627), wk =   0.1481481
        k(    7) = (   0.3333333  -0.5787765   0.2130744), wk =   0.1481481
        k(    8) = (   0.3333333  -0.5787765  -0.3095999), wk =   0.1481481
        k(    9) = (   0.3333333   0.0891257  -0.0965254), wk =   0.1481481
        k(   10) = (   0.3333333   0.0891257   0.1648117), wk =   0.1481481
        k(   11) = (   0.3333333   0.0891257  -0.3578626), wk =   0.1481481
        k(   12) = (   0.3333333  -1.2466787  -0.0000000), wk =   0.1481481
        k(   13) = (   0.3333333  -1.2466787   0.2613371), wk =   0.1481481
        k(   14) = (   0.3333333  -1.2466787  -0.2613371), wk =   0.1481481

                       cryst. coord.
        k(    1) = (   0.0000000   0.0000000   0.0000000), wk =   0.0740741
        k(    2) = (   0.0000000   0.0000000   0.3333333), wk =   0.1481481
        k(    3) = (   0.0000000   0.3333333  -0.0000000), wk =   0.1481481
        k(    4) = (   0.0000000   0.3333333   0.3333333), wk =   0.1481481
        k(    5) = (   0.0000000   0.3333333  -0.3333333), wk =   0.1481481
        k(    6) = (   0.3333333  -0.0000000  -0.0000000), wk =   0.1481481
        k(    7) = (   0.3333333  -0.0000000   0.3333333), wk =   0.1481481
        k(    8) = (   0.3333333  -0.0000000  -0.3333333), wk =   0.1481481
        k(    9) = (   0.3333333   0.3333333  -0.0000000), wk =   0.1481481
        k(   10) = (   0.3333333   0.3333333   0.3333333), wk =   0.1481481
        k(   11) = (   0.3333333   0.3333333  -0.3333333), wk =   0.1481481
        k(   12) = (   0.3333333  -0.3333333  -0.0000000), wk =   0.1481481
        k(   13) = (   0.3333333  -0.3333333   0.3333333), wk =   0.1481481
        k(   14) = (   0.3333333  -0.3333333  -0.3333333), wk =   0.1481481

     Check: negative core charge=   -0.000006

     Initial potential from superposition of free atoms

     starting charge      47.9980, renormalised to      52.0000

     negative rho (up, down):  6.179E-03 0.000E+00
     Starting wfcs are   48 randomized atomic wfcs +   16 random wfcs
     Checking if some PAW data can be deallocated...

     Self-consistent Calculation

     iteration #  1     ecut=    30.00 Ry     beta= 0.70
     Davidson diagonalization with overlap

     ethr =  1.00E-02,  avg # of iterations =  5.9

     negative rho (up, down):  7.161E-03 0.000E+00

     total energy              =    -543.23962362 Ry
     estimated scf accuracy    <       2.32331826 Ry

[...]

     total energy              =    -544.20754851 Ry
     estimated scf accuracy    <       0.00000193 Ry

     iteration # 11     ecut=    30.00 Ry     beta= 0.70
     Davidson diagonalization with overlap

     ethr =  3.70E-09,  avg # of iterations =  1.0

     negative rho (up, down):  3.588E-03 0.000E+00

     End of self-consistent calculation

          k = 0.0000 0.0000 0.0000 (  2101 PWs)   bands (ev):

   -47.1049 -47.0308 -46.9618 -46.9615 -23.5999 -23.5990 -23.5054 -23.2128
   -23.1939 -23.1311 -23.1309 -23.0922 -23.0809 -23.0278 -23.0221 -23.0015
     3.0709   6.0861   6.1169   7.2728   7.4171   8.2527   8.6903   8.8273
     8.9305   9.3103   9.4900  10.2565  10.3824  10.8900  11.1162  11.1540
    11.4410  11.5615  11.5700  11.6805  12.2543  12.4052  12.4154  12.7622
    13.0044  13.4109  14.6250  14.9055  15.4657  18.0637  18.7523  19.4089
    19.5708  20.9346  21.7534  21.9356  22.3505  23.5373  24.0320  24.5548
    24.9131  24.9218  25.8330  26.2199  26.3878  26.6167  26.6894  27.2431

     occupation numbers
     1.0000   1.0000   1.0000   1.0000   1.0000   1.0000   1.0000   1.0000
     1.0000   1.0000   1.0000   1.0000   1.0000   1.0000   1.0000   1.0000
     1.0000   1.0000   1.0000   1.0000   1.0000   1.0000   1.0000   1.0000
     1.0000   1.0000   0.0000   0.0000   0.0000   0.0000   0.0000   0.0000
     0.0000   0.0000   0.0000   0.0000   0.0000   0.0000   0.0000   0.0000
     0.0000   0.0000   0.0000   0.0000   0.0000   0.0000   0.0000   0.0000
     0.0000   0.0000   0.0000   0.0000   0.0000   0.0000   0.0000   0.0000
     0.0000   0.0000   0.0000   0.0000   0.0000   0.0000   0.0000   0.0000

[...]

          k = 0.3333-1.2467-0.2613 (  2117 PWs)   bands (ev):

   -47.0315 -47.0128 -46.9633 -46.9270 -23.5307 -23.4975 -23.4898 -23.3985
   -23.3293 -23.3108 -23.2456 -23.1881 -23.1503 -23.1248 -23.0962 -23.0814
     6.2364   6.4292   7.2386   7.7495   7.9315   8.5282   8.7863   8.8664
     8.9808   9.5312   9.7858  10.2261  10.3973  10.6490  10.7378  11.0335
    11.3729  11.4069  11.9162  12.3028  12.5996  12.7098  12.8061  13.0961
    13.3448  13.8621  15.3462  15.9351  16.3245  16.5818  16.7610  17.6385
    18.0924  18.9362  19.5966  20.1004  20.5380  20.9861  21.5596  22.0035
    22.2907  22.5649  22.8865  23.1510  24.0068  25.6251  25.8367  26.4239

     occupation numbers
     1.0000   1.0000   1.0000   1.0000   1.0000   1.0000   1.0000   1.0000
     1.0000   1.0000   1.0000   1.0000   1.0000   1.0000   1.0000   1.0000
     1.0000   1.0000   1.0000   1.0000   1.0000   1.0000   1.0000   1.0000
     1.0000   1.0000   0.0000   0.0000   0.0000   0.0000   0.0000   0.0000
     0.0000   0.0000   0.0000   0.0000   0.0000   0.0000   0.0000   0.0000
     0.0000   0.0000   0.0000   0.0000   0.0000   0.0000   0.0000   0.0000
     0.0000   0.0000   0.0000   0.0000   0.0000   0.0000   0.0000   0.0000
     0.0000   0.0000   0.0000   0.0000   0.0000   0.0000   0.0000   0.0000

     highest occupied, lowest unoccupied level (ev):     9.5810    9.4900

!    total energy              =    -544.20754868 Ry
     estimated scf accuracy    <       0.00000008 Ry

     The total energy is the sum of the following terms:
     one-electron contribution =    -344.62788266 Ry
     hartree contribution      =     184.20498987 Ry
     xc contribution           =     -75.38170001 Ry
     ewald contribution        =    -245.77129454 Ry
     one-center paw contrib.   =     -62.63166134 Ry
      -> PAW hartree energy AE =       1.08842828 Ry
      -> PAW hartree energy PS =      -1.08584327 Ry
      -> PAW xc energy AE      =     -32.77382447 Ry
      -> PAW xc energy PS      =       1.45540880 Ry
      -> total E_H with PAW    =     184.20757488 Ry
      -> total E_XC with PAW   =    -106.70011569 Ry

     convergence has been achieved in  11 iterations

     Writing all to output data dir calculations_bands/myprefix.save/

     General routines

     Parallel routines

     PAW routines

   This run was terminated on:   3:19:22   7Jun2023

   JOB DONE.