     Program PWSCF v.7.0 starts on  5Jun2023 at 18:40:30

     K-points division:     npool     =       2
     R & G space division:  proc/nbgrp/npool/nimage =       4

     Reading input from espresso_11110.pwi
Warning: card &CELL ignored
Warning: card / ignored

     Current dimensions of program PWSCF are:
     Max number of different atomic species (ntypx) = 10
     Max number of k-points (npk) =  40000
     Max angular momentum in pseudopotentials (lmaxx) =  4
     file Ba.pbe-spn-kjpaw_psl.1.0.0.UPF: wavefunction(s)  5S 6S renormalized
     file O.pbe-n-kjpaw_psl.0.1.UPF: wavefunction(s)  2P renormalized
     Message from routine setup:
     using ibrav=0 with symmetry is DISCOURAGED, use correct ibrav instead

     Using Slab Decomposition

     bravais-lattice index     =            0
     lattice parameter (alat)  =       7.5023  a.u.
     unit-cell volume          =    1094.4094 (a.u.)^3
     number of atoms/cell      =           12
     number of atomic types    =            4
     number of electrons       =       110.00
     number of Kohn-Sham states=           64
     kinetic-energy cutoff     =      30.0000  Ry
     charge density cutoff     =     240.0000  Ry
     scf convergence threshold =      1.0E-06
     mixing beta               =       0.7000
     number of iterations used =            8  plain     mixing
     Exchange-correlation= SLA  PW   PBX  PBC
                           (   1   4   3   4   0   0   0)

     celldm(1)=   7.502320  celldm(2)=   0.000000  celldm(3)=   0.000000
     celldm(4)=   0.000000  celldm(5)=   0.000000  celldm(6)=   0.000000

     crystal axes: (cart. coord. in units of alat)
               a(1) = (   1.000000   0.000000   0.000000 )
               a(2) = (   0.000000   1.000000   0.000000 )
               a(3) = (  -0.500000  -0.500000   2.591749 )

     reciprocal axes: (cart. coord. in units 2 pi/alat)
               b(1) = (  1.000000 -0.000000  0.192920 )
               b(2) = (  0.000000  1.000000  0.192920 )
               b(3) = (  0.000000  0.000000  0.385840 )

     PseudoPot. # 1 for Ba read from file:
     /home/pragov/projects/rrg-bengioy-ad/pragov/crystal_structure_design/SSSP/Ba.pbe-spn-kjpaw_psl.1.0.0.UPF
     MD5 check sum: c432291d3e53af55f19d5e8866385beb
     Pseudo is Projector augmented-wave + core cor, Zval = 10.0
     Generated using "atomic" code by A. Dal Corso  v.5.1
     Shape of augmentation charge: PSQ
     Using radial grid of 1251 points,  7 beta functions with:
                l(1) =   0
                l(2) =   0
                l(3) =   0
                l(4) =   1
                l(5) =   1
                l(6) =   2
                l(7) =   2
     Q(r) pseudized with 0 coefficients

     PseudoPot. # 2 for Nd read from file:
     /home/pragov/projects/rrg-bengioy-ad/pragov/crystal_structure_design/SSSP/Nd.GGA-PBE-paw-v1.0.UPF
     MD5 check sum: 1d1e94942b6eb1cde76049b71bb7dcb0
     Pseudo is Projector augmented-wave + core cor, Zval = 14.0
     Generated using ATOMPAW code
     Shape of augmentation charge: BESSEL
     Using radial grid of 1105 points,  8 beta functions with:
                l(1) =   0
                l(2) =   0
                l(3) =   1
                l(4) =   1
                l(5) =   2
                l(6) =   2
                l(7) =   3
                l(8) =   3
     Q(r) pseudized with 0 coefficients

     PseudoPot. # 3 for Mn read from file:
     /home/pragov/projects/rrg-bengioy-ad/pragov/crystal_structure_design/SSSP/mn_pbe_v1.5.uspp.F.UPF
     MD5 check sum: 82ef2b46521d7a7d9e736dc3972e4928
     Pseudo is Ultrasoft + core correction, Zval = 15.0
     Generated by new atomic code, or converted to UPF format
     Using radial grid of  859 points,  6 beta functions with:
                l(1) =   0
                l(2) =   0
                l(3) =   1
                l(4) =   1
                l(5) =   2
                l(6) =   2
     Q(r) pseudized with  8 coefficients,  rinner =    0.950   0.950   0.950
                                                       0.950   0.950

     PseudoPot. # 4 for O  read from file:
     /home/pragov/projects/rrg-bengioy-ad/pragov/crystal_structure_design/SSSP/O.pbe-n-kjpaw_psl.0.1.UPF
     MD5 check sum: 0234752ac141de4415c5fc33072bef88
     Pseudo is Projector augmented-wave + core cor, Zval =  6.0
     Generated using "atomic" code by A. Dal Corso  v.5.0.99 svn rev. 10869
     Shape of augmentation charge: BESSEL
     Using radial grid of 1095 points,  4 beta functions with:
                l(1) =   0
                l(2) =   0
                l(3) =   1
                l(4) =   1
     Q(r) pseudized with 0 coefficients

     atomic species   valence    mass     pseudopotential
        Ba            10.00   137.32700     Ba( 1.00)
        Nd            14.00   144.24200     Nd( 1.00)
        Mn            15.00    54.93804     Mn( 1.00)
        O              6.00    15.99900     O ( 1.00)

     16 Sym. Ops., with inversion, found

                                    s                        frac. trans.

      isym =  1     identity

 cryst.   s( 1) = (     1          0          0      )
                  (     0          1          0      )
                  (     0          0          1      )

 cart.    s( 1) = (  1.0000000 -0.0000000 -0.0000000 )
                  (  0.0000000  1.0000000 -0.0000000 )
                  (  0.0000000  0.0000000  1.0000000 )

      isym =  2     180 deg rotation - cart. axis [0,0,1]

[...]

      isym =  8      90 deg rotation - cart. axis [0,0,1]

[...]

      isym =  9     inversion

 cryst.   s( 9) = (    -1          0          0      )
                  (     0         -1          0      )
                  (     0          0         -1      )

 cart.    s( 9) = ( -1.0000000  0.0000000  0.0000000 )
                  (  0.0000000 -1.0000000  0.0000000 )
                  (  0.0000000  0.0000000 -1.0000000 )

      isym = 10     inv. 180 deg rotation - cart. axis [0,0,1]

 cryst.   s(10) = (     1          0          0      )
                  (     0          1          0      )
                  (    -1         -1         -1      )

 cart.    s(10) = (  1.0000000 -0.0000000  0.0000003 )
                  (  0.0000000  1.0000000  0.0000001 )
                  (  0.0000000  0.0000000 -1.0000000 )

[...]

      isym = 16     inv.  90 deg rotation - cart. axis [0,0,1]

 cryst.   s(16) = (     0         -1          0      )
                  (     1          0          0      )
                  (    -1          0         -1      )

 cart.    s(16) = ( -0.0000001  0.9999998  0.0000002 )
                  ( -1.0000002  0.0000001 -0.0000001 )
                  (  0.0000000  0.0000000 -1.0000000 )

   Cartesian axes

     site n.     atom                  positions (alat units)
         1           Ba  tau(   1) = (   0.5000000   0.4999991   0.0000000  )
         2           Nd  tau(   2) = (  -0.0000007  -0.0000016   1.6480593  )
         3           Nd  tau(   3) = (   0.4999994   0.5000016   0.9436894  )
         4           Mn  tau(   4) = (   0.5000013   0.5000005   2.0714266  )
         5           Mn  tau(   5) = (   0.0000004  -0.0000005   0.5203221  )
         6           O   tau(   6) = (   0.5000007  -0.0000001   2.0276701  )
         7           O   tau(   7) = (  -0.0000012   0.4999990   2.0276701  )
         8           O   tau(   8) = (   0.0000015   0.5000016   0.5640760  )
         9           O   tau(   9) = (   0.4999994  -0.0000005   0.5640760  )
        10           O   tau(  10) = (   0.4999988   0.5000010   1.5206463  )
        11           O   tau(  11) = (   0.0000000   0.0000000   0.0000000  )
        12           O   tau(  12) = (  -0.0000001  -0.0000011   1.0711024  )

   Crystallographic axes

     site n.     atom                  positions (cryst. coord.)
         1           Ba  tau(   1) = (  0.5000000  0.4999990  0.0000000  )
         2           Nd  tau(   2) = (  0.3179430  0.3179420  0.6358870  )
         3           Nd  tau(   3) = (  0.6820560  0.6820580  0.3641130  )
         4           Mn  tau(   4) = (  0.8996210  0.8996200  0.7992390  )
         5           Mn  tau(   5) = (  0.1003810  0.1003800  0.2007610  )
         6           O   tau(   6) = (  0.8911790  0.3911780  0.7823560  )
         7           O   tau(   7) = (  0.3911770  0.8911770  0.7823560  )
         8           O   tau(   8) = (  0.1088230  0.6088230  0.2176430  )
         9           O   tau(   9) = (  0.6088210  0.1088210  0.2176430  )
        10           O   tau(  10) = (  0.7933620  0.7933640  0.5867260  )
        11           O   tau(  11) = (  0.0000000  0.0000000  0.0000000  )
        12           O   tau(  12) = (  0.2066370  0.2066360  0.4132740  )

     number of k points=     6
                       cart. coord. in units 2pi/alat
        k(    1) = (   0.0000000   0.0000000   0.0000000), wk =   0.0740741
        k(    2) = (   0.0000000   0.0000000   0.1286133), wk =   0.1481481
        k(    3) = (   0.0000000   0.3333333   0.0643067), wk =   0.5925926
        k(    4) = (   0.0000000   0.3333333   0.1929200), wk =   0.2962963
        k(    5) = (   0.3333333   0.3333332   0.1286134), wk =   0.5925926
        k(    6) = (   0.3333333   0.3333332   0.0000001), wk =   0.2962963

                       cryst. coord.
        k(    1) = (   0.0000000   0.0000000   0.0000000), wk =   0.0740741
        k(    2) = (   0.0000000   0.0000000   0.3333333), wk =   0.1481481
        k(    3) = (   0.0000000   0.3333333   0.0000000), wk =   0.5925926
        k(    4) = (   0.0000000   0.3333333   0.3333333), wk =   0.2962963
        k(    5) = (   0.3333333   0.3333333  -0.0000000), wk =   0.5925926
        k(    6) = (   0.3333333   0.3333333  -0.3333333), wk =   0.2962963

     Check: negative core charge=   -0.000019

     Initial potential from superposition of free atoms

     starting charge     108.9705, renormalised to     110.0000
     Starting wfcs are  123 randomized atomic wfcs
     Checking if some PAW data can be deallocated...

     Self-consistent Calculation

     iteration #  1     ecut=    30.00 Ry     beta= 0.70
     Davidson diagonalization with overlap

     ethr =  1.00E-02,  avg # of iterations =  2.0

     total energy              =   -2204.30474343 Ry
     estimated scf accuracy    <      23.59910518 Ry

[...]

     c_bands:  1 eigenvalues not converged
     ethr =  1.69E-09,  avg # of iterations = 11.3

[...]

     total energy              =   -2225.34567924 Ry
     estimated scf accuracy    <       0.00000313 Ry

     iteration # 49     ecut=    30.00 Ry     beta= 0.70
     Davidson diagonalization with overlap

     ethr =  1.69E-09,  avg # of iterations =  1.0

     End of self-consistent calculation

          k = 0.0000 0.0000 0.0000 (  3053 PWs)   bands (ev):

   -67.4710 -67.4707 -36.2713 -36.2713 -36.2670 -36.2670 -36.0366 -36.0361
   -24.6483 -24.6067 -14.5813  -7.8358  -7.7943  -6.5327  -6.0929  -6.0884
    -5.7889  -5.7889  -5.7839  -5.6699  -5.6699  -5.2854  -4.4601  -3.8932
     0.1635   0.4365   0.4365   7.0327   7.0327   7.1201   7.1201   7.3354
     7.5345   7.5967   8.2703   8.3975   8.4623   8.4623   8.8243   9.0005
     9.0005   9.3658   9.3658   9.7176   9.7176   9.8738   9.9610   9.9610
    11.0246  11.0528  11.4724  11.4724  12.3031  12.3284  12.3284  12.4072
    12.4203  12.4761  12.4761  12.5113  12.5261  12.5261  12.5325  12.5774

     occupation numbers
     1.0000   1.0000   1.0000   1.0000   1.0000   1.0000   1.0000   1.0000
     1.0000   1.0000   1.0000   1.0000   1.0000   1.0000   1.0000   1.0000
     1.0000   1.0000   1.0000   1.0000   1.0000   1.0000   1.0000   1.0000
     1.0000   1.0000   1.0000   1.0000   1.0000   1.0000   1.0000   1.0000
     1.0000   1.0000   1.0000   1.0000   1.0000   1.0000   1.0000   1.0000
     1.0000   1.0000   1.0000   1.0000   1.0000   1.0000   1.0000   1.0000
     1.0000   1.0000   1.0000   1.0000   1.0000   1.0000   1.0000   0.0000
     0.0000   0.0000   0.0000   0.0000   0.0000   0.0000   0.0000   0.0000

[...]

          k = 0.3333 0.3333 0.0000 (  3029 PWs)   bands (ev):

   -67.4707 -67.4703 -36.2724 -36.2697 -36.2685 -36.2677 -36.0382 -36.0346
   -24.6011 -24.5905 -14.4593  -7.5790  -7.3047  -7.0589  -7.0525  -7.0095
    -6.3079  -5.4843  -5.3969  -5.0308  -4.9355  -4.9080  -4.3673  -4.2232
    -0.0132   0.1160   0.2734   5.7802   5.7851   6.8258   6.8612   6.8841
     7.0492   7.5773   7.6975   7.7918   7.8611   8.0234   8.4109   8.6074
     8.7615   8.8522   9.2557   9.3777   9.6328   9.6823   9.7531  10.2218
    12.0526  12.0721  12.2318  12.3147  12.3677  12.3881  12.4120  12.4202
    12.4755  12.4984  12.5716  12.5808  12.6007  12.6073  12.6137  12.6534

     occupation numbers
     1.0000   1.0000   1.0000   1.0000   1.0000   1.0000   1.0000   1.0000
     1.0000   1.0000   1.0000   1.0000   1.0000   1.0000   1.0000   1.0000
     1.0000   1.0000   1.0000   1.0000   1.0000   1.0000   1.0000   1.0000
     1.0000   1.0000   1.0000   1.0000   1.0000   1.0000   1.0000   1.0000
     1.0000   1.0000   1.0000   1.0000   1.0000   1.0000   1.0000   1.0000
     1.0000   1.0000   1.0000   1.0000   1.0000   1.0000   1.0000   1.0000
     1.0000   1.0000   1.0000   1.0000   1.0000   1.0000   1.0000   0.0000
     0.0000   0.0000   0.0000   0.0000   0.0000   0.0000   0.0000   0.0000

     highest occupied, lowest unoccupied level (ev):    12.4154   12.4072

!    total energy              =   -2225.34567824 Ry
     estimated scf accuracy    <       0.00000095 Ry

     The total energy is the sum of the following terms:
     one-electron contribution =    -367.80048313 Ry
     hartree contribution      =     261.05327195 Ry
     xc contribution           =    -152.75093679 Ry
     ewald contribution        =    -664.08556148 Ry
     one-center paw contrib.   =   -1301.76196879 Ry
      -> PAW hartree energy AE =     108.84736279 Ry
      -> PAW hartree energy PS =    -108.42601088 Ry
      -> PAW xc energy AE      =    -837.06121926 Ry
      -> PAW xc energy PS      =      31.61536399 Ry
      -> total E_H with PAW    =     261.47462385 Ry
      -> total E_XC with PAW   =    -958.19679206 Ry

     convergence has been achieved in  49 iterations

     Writing all to output data dir calculations_bands/myprefix.save/

     General routines

     Parallel routines

     PAW routines

   This run was terminated on:  18:41:33   5Jun2023

   JOB DONE.