     Program PWSCF v.7.0 starts on  6Jun2023 at 22: 2:17

     K-points division:     npool     =       2
     R & G space division:  proc/nbgrp/npool/nimage =       4

     Reading input from espresso_544.pwi
Warning: card &CELL ignored
Warning: card / ignored

     Current dimensions of program PWSCF are:
     Max number of different atomic species (ntypx) = 10
     Max number of k-points (npk) =  40000
     Max angular momentum in pseudopotentials (lmaxx) =  4
     file O.pbe-n-kjpaw_psl.0.1.UPF: wavefunction(s)  2P renormalized
     Message from routine setup:
     using ibrav=0 with symmetry is DISCOURAGED, use correct ibrav instead

     Using Slab Decomposition

     bravais-lattice index     =            0
     lattice parameter (alat)  =      17.8114  a.u.
     unit-cell volume          =    2018.2750 (a.u.)^3
     number of atoms/cell      =           14
     number of atomic types    =            3
     number of electrons       =       120.00
     number of Kohn-Sham states=           64
     kinetic-energy cutoff     =      30.0000  Ry
     charge density cutoff     =     240.0000  Ry
     scf convergence threshold =      1.0E-06
     mixing beta               =       0.7000
     number of iterations used =            8  plain     mixing
     Exchange-correlation= SLA  PW   PBX  PBC
                           (   1   4   3   4   0   0   0)

     celldm(1)=  17.811418  celldm(2)=   0.000000  celldm(3)=   0.000000
     celldm(4)=   0.000000  celldm(5)=   0.000000  celldm(6)=   0.000000

     crystal axes: (cart. coord. in units of alat)
               a(1) = (   1.000000   0.000000   0.000000 )
               a(2) = (  -0.500000   0.866025   0.000000 )
               a(3) = (   0.000000   0.000000   0.412434 )

     reciprocal axes: (cart. coord. in units 2 pi/alat)
               b(1) = (  1.000000  0.577350  0.000000 )
               b(2) = (  0.000000  1.154701  0.000000 )
               b(3) = (  0.000000  0.000000  2.424632 )

     PseudoPot. # 1 for Tl read from file:
     /home/pragov/projects/rrg-bengioy-ad/pragov/crystal_structure_design/SSSP/Tl_pbe_v1.2.uspp.F.UPF
     MD5 check sum: b76cf1f7e72655a2b2c53cf6385d7059
     Pseudo is Ultrasoft + core correction, Zval = 13.0
     Generated by new atomic code, or converted to UPF format
     Using radial grid of  899 points,  6 beta functions with:
                l(1) =   0
                l(2) =   0
                l(3) =   1
                l(4) =   1
                l(5) =   2
                l(6) =   2
     Q(r) pseudized with  6 coefficients,  rinner =    1.100   1.100   1.100
                                                       1.100   1.100

     PseudoPot. # 2 for B  read from file:
     /home/pragov/projects/rrg-bengioy-ad/pragov/crystal_structure_design/SSSP/b_pbe_v1.4.uspp.F.UPF
     MD5 check sum: cc6de2960df11db49a60e589f9ebb39b
     Pseudo is Ultrasoft + core correction, Zval =  3.0
     Generated by new atomic code, or converted to UPF format
     Using radial grid of  781 points,  4 beta functions with:
                l(1) =   0
                l(2) =   0
                l(3) =   1
                l(4) =   1
     Q(r) pseudized with  8 coefficients,  rinner =    1.100   1.100   1.100

     PseudoPot. # 3 for O  read from file:
     /home/pragov/projects/rrg-bengioy-ad/pragov/crystal_structure_design/SSSP/O.pbe-n-kjpaw_psl.0.1.UPF
     MD5 check sum: 0234752ac141de4415c5fc33072bef88
     Pseudo is Projector augmented-wave + core cor, Zval =  6.0
     Generated using "atomic" code by A. Dal Corso  v.5.0.99 svn rev. 10869
     Shape of augmentation charge: BESSEL
     Using radial grid of 1095 points,  4 beta functions with:
                l(1) =   0
                l(2) =   0
                l(3) =   1
                l(4) =   1
     Q(r) pseudized with 0 coefficients

     atomic species   valence    mass     pseudopotential
        Tl            13.00   204.38000     Tl( 1.00)
        B              3.00    10.81000     B ( 1.00)
        O              6.00    15.99900     O ( 1.00)

     12 Sym. Ops., with inversion, found ( 6 have fractional translation)

                                    s                        frac. trans.

      isym =  1     identity

 cryst.   s( 1) = (     1          0          0      )
                  (     0          1          0      )
                  (     0          0          1      )

 cart.    s( 1) = (  1.0000000 -0.0000000  0.0000000 )
                  (  0.0000000  1.0000000  0.0000000 )
                  (  0.0000000  0.0000000  1.0000000 )

      isym =  2     180 deg rotation - cart. axis [0,0,1]

 cryst.   s( 2) = (    -1          0          0      )    f =(  0.0000000 )
                  (     0         -1          0      )       (  0.0000000 )
                  (     0          0          1      )       (  0.5000000 )

 cart.    s( 2) = ( -1.0000000  0.0000000  0.0000000 )    f =(  0.0000000 )
                  (  0.0000000 -1.0000000  0.0000000 )       (  0.0000000 )
                  (  0.0000000  0.0000000  1.0000000 )       (  0.2062169 )

      isym =  3      60 deg rotation - cryst. axis [0,0,1]

[...]

      isym =  6     120 deg rotation - cryst. axis [0,0,-1]

[...]

      isym =  7     inversion

 cryst.   s( 7) = (    -1          0          0      )
                  (     0         -1          0      )
                  (     0          0         -1      )

 cart.    s( 7) = ( -1.0000000  0.0000000  0.0000000 )
                  (  0.0000000 -1.0000000  0.0000000 )
                  (  0.0000000  0.0000000 -1.0000000 )

      isym =  8     inv. 180 deg rotation - cart. axis [0,0,1]

[...]

      isym =  9     inv.  60 deg rotation - cryst. axis [0,0,1]

 cryst.   s( 9) = (    -1         -1          0      )    f =(  0.0000000 )
                  (     1          0          0      )       ( -0.0000000 )
                  (     0          0         -1      )       (  0.5000000 )

 cart.    s( 9) = ( -0.4999999  0.8660254  0.0000000 )    f =(  0.0000000 )
                  ( -0.8660254 -0.5000001  0.0000000 )       ( -0.0000000 )
                  (  0.0000000  0.0000000 -1.0000000 )       (  0.2062169 )

[...]

 cryst.   s(10) = (     0          1          0      )    f =( -0.0000000 )
                  (    -1         -1          0      )       (  0.0000000 )
                  (     0          0         -1      )       (  0.5000000 )

 cart.    s(10) = ( -0.5000001 -0.8660254  0.0000000 )    f =( -0.0000000 )
                  (  0.8660254 -0.4999999  0.0000000 )       (  0.0000000 )
                  (  0.0000000  0.0000000 -1.0000000 )       (  0.2062169 )

[...]

 cryst.   s(11) = (     0         -1          0      )
                  (     1          1          0      )
                  (     0          0         -1      )

 cart.    s(11) = (  0.5000001  0.8660254  0.0000000 )
                  ( -0.8660254  0.4999999  0.0000000 )
                  (  0.0000000  0.0000000 -1.0000000 )

      isym = 12     inv. 120 deg rotation - cryst. axis [0,0,-1]

 cryst.   s(12) = (     1          1          0      )
                  (    -1          0          0      )
                  (     0          0         -1      )

 cart.    s(12) = (  0.4999999 -0.8660254  0.0000000 )
                  (  0.8660254  0.5000001  0.0000000 )
                  (  0.0000000  0.0000000 -1.0000000 )

   Cartesian axes

     site n.     atom                  positions (alat units)
         1           Tl  tau(   1) = (   0.3740070   0.5591545   0.3093253  )
         2           Tl  tau(   2) = (  -0.2972385   0.6034768   0.1031084  )
         3           Tl  tau(   3) = (   0.1712454   0.8217031   0.1031084  )
         4           Tl  tau(   4) = (   0.3287545   0.0443223   0.3093253  )
         5           Tl  tau(   5) = (   0.7972385   0.2625486   0.3093253  )
         6           Tl  tau(   6) = (   0.1259930   0.3068709   0.1031084  )
         7           B   tau(   7) = (  -0.0000005   0.5773505   0.3093253  )
         8           B   tau(   8) = (   0.5000005   0.2886748   0.1031084  )
         9           O   tau(   9) = (   0.0163955   0.7246407   0.3093253  )
        10           O   tau(  10) = (   0.3806405   0.3765193   0.1031084  )
        11           O   tau(  11) = (   0.6357550   0.3481214   0.1031084  )
        12           O   tau(  12) = (  -0.1357550   0.5179040   0.3093253  )
        13           O   tau(  13) = (   0.4836045   0.1413847   0.1031084  )
        14           O   tau(  14) = (   0.1193595   0.4895061   0.3093253  )

   Crystallographic axes

     site n.     atom                  positions (cryst. coord.)
         1           Tl  tau(   1) = (  0.6968350  0.6456560  0.7500000  )
         2           Tl  tau(   2) = (  0.0511790  0.6968350  0.2500000  )
         3           Tl  tau(   3) = (  0.6456560  0.9488210  0.2500000  )
         4           Tl  tau(   4) = (  0.3543440  0.0511790  0.7500000  )
         5           Tl  tau(   5) = (  0.9488210  0.3031650  0.7500000  )
         6           Tl  tau(   6) = (  0.3031650  0.3543440  0.2500000  )
         7           B   tau(   7) = (  0.3333330  0.6666670  0.7500000  )
         8           B   tau(   8) = (  0.6666670  0.3333330  0.2500000  )
         9           O   tau(   9) = (  0.4347670  0.8367430  0.7500000  )
        10           O   tau(  10) = (  0.5980240  0.4347670  0.2500000  )
        11           O   tau(  11) = (  0.8367430  0.4019760  0.2500000  )
        12           O   tau(  12) = (  0.1632570  0.5980240  0.7500000  )
        13           O   tau(  13) = (  0.5652330  0.1632570  0.2500000  )
        14           O   tau(  14) = (  0.4019760  0.5652330  0.7500000  )

     number of k points=     6
                       cart. coord. in units 2pi/alat
        k(    1) = (   0.0000000   0.0000000   0.0000000), wk =   0.0740741
        k(    2) = (   0.0000000   0.0000000   0.8082105), wk =   0.1481481
        k(    3) = (   0.0000000   0.3849002   0.0000000), wk =   0.4444444
        k(    4) = (   0.0000000   0.3849002   0.8082105), wk =   0.8888889
        k(    5) = (   0.3333333   0.5773503   0.0000000), wk =   0.1481481
        k(    6) = (   0.3333333   0.5773503   0.8082105), wk =   0.2962963

                       cryst. coord.
        k(    1) = (   0.0000000   0.0000000   0.0000000), wk =   0.0740741
        k(    2) = (   0.0000000   0.0000000   0.3333333), wk =   0.1481481
        k(    3) = (   0.0000000   0.3333333   0.0000000), wk =   0.4444444
        k(    4) = (   0.0000000   0.3333333   0.3333333), wk =   0.8888889
        k(    5) = (   0.3333333   0.3333333   0.0000000), wk =   0.1481481
        k(    6) = (   0.3333333   0.3333333   0.3333333), wk =   0.2962963

     Check: negative core charge=   -0.000009

     Initial potential from superposition of free atoms

     starting charge     119.9702, renormalised to     120.0000

     negative rho (up, down):  3.006E-01 0.000E+00
     Starting wfcs are   86 randomized atomic wfcs
     Checking if some PAW data can be deallocated...

     Self-consistent Calculation

     iteration #  1     ecut=    30.00 Ry     beta= 0.70
     Davidson diagonalization with overlap

     ethr =  1.00E-02,  avg # of iterations =  2.0

     negative rho (up, down):  3.014E-01 0.000E+00

     total energy              =   -1130.92896577 Ry
     estimated scf accuracy    <       3.19237369 Ry

[...]

     total energy              =   -1132.66314293 Ry
     estimated scf accuracy    <       0.00000493 Ry

     iteration # 11     ecut=    30.00 Ry     beta= 0.70
     Davidson diagonalization with overlap

     ethr =  1.97E-09,  avg # of iterations =  3.2

     negative rho (up, down):  3.043E-01 0.000E+00

     End of self-consistent calculation

          k = 0.0000 0.0000 0.0000 (  5629 PWs)   bands (ev):

   -13.3764 -13.2846 -12.0867 -12.0866 -11.9652 -11.9651  -4.5716  -4.5332
    -4.5332  -4.4960  -4.4721  -4.4601  -4.4600  -4.4595  -4.4440  -4.4440
    -4.4283  -4.4283  -4.4221  -4.3980  -4.3798  -4.3798  -4.3750  -4.3750
    -4.3338  -4.3337  -4.3250  -4.3106  -4.3105  -4.2456  -4.2455  -4.2427
    -4.2186  -4.2186  -4.2153  -4.2128  -1.5873  -0.2411  -0.2411  -0.1641
    -0.1640   0.2494   1.1918   1.7447   1.7448   1.8500   1.9529   1.9875
     1.9876   2.0953   3.8478   3.8479   4.1969   4.1971   4.6287   4.6287
     4.6973   4.6974   4.9070   5.9623   7.2905   7.4116   9.5957   9.5957

     occupation numbers
     1.0000   1.0000   1.0000   1.0000   1.0000   1.0000   1.0000   1.0000
     1.0000   1.0000   1.0000   1.0000   1.0000   1.0000   1.0000   1.0000
     1.0000   1.0000   1.0000   1.0000   1.0000   1.0000   1.0000   1.0000
     1.0000   1.0000   1.0000   1.0000   1.0000   1.0000   1.0000   1.0000
     1.0000   1.0000   1.0000   1.0000   1.0000   1.0000   1.0000   1.0000
     1.0000   1.0000   1.0000   1.0000   1.0000   1.0000   1.0000   1.0000
     1.0000   1.0000   1.0000   1.0000   1.0000   1.0000   1.0000   1.0000
     1.0000   1.0000   1.0000   1.0000   0.0000   0.0000   0.0000   0.0000

[...]

          k = 0.3333 0.5774 0.8082 (  5577 PWs)   bands (ev):

   -13.2935 -13.2934 -12.0322 -12.0010 -12.0010 -11.9707  -4.5330  -4.5330
    -4.5074  -4.4922  -4.4922  -4.4742  -4.4551  -4.4550  -4.4450  -4.4273
    -4.4273  -4.3844  -4.3624  -4.3575  -4.3575  -4.3199  -4.3083  -4.3083
    -4.2911  -4.2883  -4.2883  -4.2854  -4.2708  -4.2708  -4.2552  -4.2552
    -4.2515  -4.2171  -4.2043  -4.2043  -0.7275  -0.7274   0.1346   0.2358
     0.2359   0.2618   0.9795   0.9796   1.1324   1.6487   1.6488   2.4085
     2.8303   2.8303   3.5492   3.6469   3.9474   3.9475   4.2771   4.2771
     4.4449   4.9372   5.2795   5.2795   8.1653   8.1654   8.4916   9.0797

     occupation numbers
     1.0000   1.0000   1.0000   1.0000   1.0000   1.0000   1.0000   1.0000
     1.0000   1.0000   1.0000   1.0000   1.0000   1.0000   1.0000   1.0000
     1.0000   1.0000   1.0000   1.0000   1.0000   1.0000   1.0000   1.0000
     1.0000   1.0000   1.0000   1.0000   1.0000   1.0000   1.0000   1.0000
     1.0000   1.0000   1.0000   1.0000   1.0000   1.0000   1.0000   1.0000
     1.0000   1.0000   1.0000   1.0000   1.0000   1.0000   1.0000   1.0000
     1.0000   1.0000   1.0000   1.0000   1.0000   1.0000   1.0000   1.0000
     1.0000   1.0000   1.0000   1.0000   0.0000   0.0000   0.0000   0.0000

     highest occupied, lowest unoccupied level (ev):     5.9623    7.2905

!    total energy              =   -1132.66314364 Ry
     estimated scf accuracy    <       0.00000039 Ry

     The total energy is the sum of the following terms:
     one-electron contribution =    -372.56987704 Ry
     hartree contribution      =     271.37635685 Ry
     xc contribution           =    -423.11960848 Ry
     ewald contribution        =    -551.21751999 Ry
     one-center paw contrib.   =     -57.13249499 Ry
      -> PAW hartree energy AE =       0.00000000 Ry
      -> PAW hartree energy PS =       0.00000000 Ry
      -> PAW xc energy AE      =       0.00000000 Ry
      -> PAW xc energy PS      =       0.00000000 Ry
      -> total E_H with PAW    =     271.37635685 Ry
      -> total E_XC with PAW   =    -423.11960848 Ry

     convergence has been achieved in  11 iterations

     Writing all to output data dir calculations_bands/myprefix.save/

     General routines

     Parallel routines

     PAW routines

   This run was terminated on:  22: 2:30   6Jun2023

   JOB DONE.