     Program PWSCF v.7.0 starts on  6Jun2023 at  1:43:28

     K-points division:     npool     =       2
     R & G space division:  proc/nbgrp/npool/nimage =       4

     Reading input from espresso_13123.pwi
Warning: card &CELL ignored
Warning: card / ignored

     Current dimensions of program PWSCF are:
     Max number of different atomic species (ntypx) = 10
     Max number of k-points (npk) =  40000
     Max angular momentum in pseudopotentials (lmaxx) =  4
     file Ba.pbe-spn-kjpaw_psl.1.0.0.UPF: wavefunction(s)  5S 6S renormalized
     file In.pbe-dn-rrkjus_psl.0.2.2.UPF: wavefunction(s)  5S renormalized
     file O.pbe-n-kjpaw_psl.0.1.UPF: wavefunction(s)  2P renormalized
     Message from routine setup:
     using ibrav=0 with symmetry is DISCOURAGED, use correct ibrav instead

     Using Slab Decomposition

     bravais-lattice index     =            0
     lattice parameter (alat)  =      21.5357  a.u.
     unit-cell volume          =    1344.5947 (a.u.)^3
     number of atoms/cell      =           11
     number of atomic types    =            3
     number of electrons       =        92.00
     number of Kohn-Sham states=           64
     kinetic-energy cutoff     =      30.0000  Ry
     charge density cutoff     =     240.0000  Ry
     scf convergence threshold =      1.0E-06
     mixing beta               =       0.7000
     number of iterations used =            8  plain     mixing
     Exchange-correlation= SLA  PW   PBX  PBC
                           (   1   4   3   4   0   0   0)

     celldm(1)=  21.535709  celldm(2)=   0.000000  celldm(3)=   0.000000
     celldm(4)=   0.000000  celldm(5)=   0.000000  celldm(6)=   0.000000

     crystal axes: (cart. coord. in units of alat)
               a(1) = (   1.000000   0.000000   0.000000 )
               a(2) = (   0.860420   0.509586   0.000000 )
               a(3) = (  -0.930210  -0.254793   0.264178 )

     reciprocal axes: (cart. coord. in units 2 pi/alat)
               b(1) = (  1.000000 -1.688470  1.892663 )
               b(2) = (  0.000000  1.962379  1.892663 )
               b(3) = (  0.000000  0.000000  3.785326 )

     PseudoPot. # 1 for Ba read from file:
     /home/pragov/projects/rrg-bengioy-ad/pragov/crystal_structure_design/SSSP/Ba.pbe-spn-kjpaw_psl.1.0.0.UPF
     MD5 check sum: c432291d3e53af55f19d5e8866385beb
     Pseudo is Projector augmented-wave + core cor, Zval = 10.0
     Generated using "atomic" code by A. Dal Corso  v.5.1
     Shape of augmentation charge: PSQ
     Using radial grid of 1251 points,  7 beta functions with:
                l(1) =   0
                l(2) =   0
                l(3) =   0
                l(4) =   1
                l(5) =   1
                l(6) =   2
                l(7) =   2
     Q(r) pseudized with 0 coefficients

     PseudoPot. # 2 for In read from file:
     /home/pragov/projects/rrg-bengioy-ad/pragov/crystal_structure_design/SSSP/In.pbe-dn-rrkjus_psl.0.2.2.UPF
     MD5 check sum: 25e7c42c3b55b68f4bf926be2e7201a4
     Pseudo is Ultrasoft + core correction, Zval = 13.0
     Generated using "atomic" code by A. Dal Corso  v.5.0.99 svn rev. 10869
     Using radial grid of 1241 points,  6 beta functions with:
                l(1) =   0
                l(2) =   0
                l(3) =   1
                l(4) =   1
                l(5) =   2
                l(6) =   2
     Q(r) pseudized with 0 coefficients

     PseudoPot. # 3 for O  read from file:
     /home/pragov/projects/rrg-bengioy-ad/pragov/crystal_structure_design/SSSP/O.pbe-n-kjpaw_psl.0.1.UPF
     MD5 check sum: 0234752ac141de4415c5fc33072bef88
     Pseudo is Projector augmented-wave + core cor, Zval =  6.0
     Generated using "atomic" code by A. Dal Corso  v.5.0.99 svn rev. 10869
     Shape of augmentation charge: BESSEL
     Using radial grid of 1095 points,  4 beta functions with:
                l(1) =   0
                l(2) =   0
                l(3) =   1
                l(4) =   1
     Q(r) pseudized with 0 coefficients

     atomic species   valence    mass     pseudopotential
        Ba            10.00   137.32700     Ba( 1.00)
        In            13.00   114.81800     In( 1.00)
        O              6.00    15.99900     O ( 1.00)

      4 Sym. Ops., with inversion, found

                                    s                        frac. trans.

      isym =  1     identity

 cryst.   s( 1) = (     1          0          0      )
                  (     0          1          0      )
                  (     0          0          1      )

 cart.    s( 1) = (  1.0000000  0.0000000 -0.0000000 )
                  (  0.0000000  1.0000000  0.0000000 )
                  (  0.0000000  0.0000000  1.0000000 )

      isym =  2     180 deg rotation - cart. axis [0,0,1]

[...]

      isym =  3     inversion

[...]

      isym =  4     inv. 180 deg rotation - cart. axis [0,0,1]

 cryst.   s( 4) = (     1          0          0      )
                  (     0          1          0      )
                  (    -1         -1         -1      )

 cart.    s( 4) = (  1.0000000  0.0000000  0.0000000 )
                  (  0.0000000  1.0000000  0.0000000 )
                  (  0.0000000  0.0000000 -1.0000000 )

   Cartesian axes

     site n.     atom                  positions (alat units)
         1           Ba  tau(   1) = (   1.2707059   0.3480577   0.0000000  )
         2           Ba  tau(   2) = (   0.5897141   0.1615279   0.0000000  )
         3           Ba  tau(   3) = (   0.9302100   0.2547928   0.0000000  )
         4           In  tau(   4) = (   1.6690999   0.4571814   0.0000000  )
         5           In  tau(   5) = (   0.1913200   0.0524043   0.0000000  )
         6           O   tau(   6) = (   1.4908959   0.4083697   0.0000000  )
         7           O   tau(   7) = (   0.3695240   0.1012159   0.0000000  )
         8           O   tau(   8) = (   0.7392015   0.3394284   0.1320890  )
         9           O   tau(   9) = (   0.8089916   0.0846356   0.1320890  )
        10           O   tau(  10) = (   0.1910084  -0.0846356   0.1320890  )
        11           O   tau(  11) = (   0.1212184   0.1701573   0.1320890  )

   Crystallographic axes

     site n.     atom                  positions (cryst. coord.)
         1           Ba  tau(   1) = (  0.6830210  0.6830210  0.0000000  )
         2           Ba  tau(   2) = (  0.3169790  0.3169790  0.0000000  )
         3           Ba  tau(   3) = (  0.5000000  0.5000000  0.0000000  )
         4           In  tau(   4) = (  0.8971630  0.8971630  0.0000000  )
         5           In  tau(   5) = (  0.1028370  0.1028370  0.0000000  )
         6           O   tau(   6) = (  0.8013760  0.8013760  0.0000000  )
         7           O   tau(   7) = (  0.1986240  0.1986240  0.0000000  )
         8           O   tau(   8) = (  0.4160870  0.9160870  0.5000000  )
         9           O   tau(   9) = (  0.9160870  0.4160870  0.5000000  )
        10           O   tau(  10) = (  0.5839130  0.0839130  0.5000000  )
        11           O   tau(  11) = (  0.0839130  0.5839130  0.5000000  )

     number of k points=    10
                       cart. coord. in units 2pi/alat
        k(    1) = (   0.0000000   0.0000000   0.0000000), wk =   0.0740741
        k(    2) = (   0.0000000   0.0000000   1.2617754), wk =   0.1481481
        k(    3) = (   0.0000000   0.6541262   0.6308877), wk =   0.2962963
        k(    4) = (   0.0000000   0.6541262   1.8926631), wk =   0.1481481
        k(    5) = (   0.3333333  -0.5628232   0.6308877), wk =   0.2962963
        k(    6) = (   0.3333333  -0.5628232   1.8926631), wk =   0.1481481
        k(    7) = (   0.3333333   0.0913030   1.2617754), wk =   0.2962963
        k(    8) = (   0.3333333   0.0913030   0.0000000), wk =   0.1481481
        k(    9) = (   0.3333333  -1.2169495  -0.0000000), wk =   0.1481481
        k(   10) = (   0.3333333  -1.2169495   1.2617754), wk =   0.2962963

                       cryst. coord.
        k(    1) = (   0.0000000   0.0000000   0.0000000), wk =   0.0740741
        k(    2) = (   0.0000000   0.0000000   0.3333333), wk =   0.1481481
        k(    3) = (   0.0000000   0.3333333  -0.0000000), wk =   0.2962963
        k(    4) = (   0.0000000   0.3333333   0.3333333), wk =   0.1481481
        k(    5) = (   0.3333333  -0.0000000  -0.0000000), wk =   0.2962963
        k(    6) = (   0.3333333  -0.0000000   0.3333333), wk =   0.1481481
        k(    7) = (   0.3333333   0.3333333   0.0000000), wk =   0.2962963
        k(    8) = (   0.3333333   0.3333333  -0.3333333), wk =   0.1481481
        k(    9) = (   0.3333333  -0.3333333  -0.0000000), wk =   0.1481481
        k(   10) = (   0.3333333  -0.3333333   0.3333333), wk =   0.2962963

     Check: negative core charge=   -0.000007

     Initial potential from superposition of free atoms

     starting charge      91.9415, renormalised to      92.0000
     Starting wfcs are   57 randomized atomic wfcs +    7 random wfcs
     Checking if some PAW data can be deallocated...

     Self-consistent Calculation

     iteration #  1     ecut=    30.00 Ry     beta= 0.70
     Davidson diagonalization with overlap

     ethr =  1.00E-02,  avg # of iterations =  6.6

     negative rho (up, down):  2.135E-02 0.000E+00

     total energy              =   -1847.14441511 Ry
     estimated scf accuracy    <       3.02682996 Ry

[...]

     negative rho (up, down):  9.123E-05 0.000E+00

[...]

     total energy              =   -1848.67448715 Ry
     estimated scf accuracy    <       0.00000205 Ry

     iteration # 14     ecut=    30.00 Ry     beta= 0.70
     Davidson diagonalization with overlap

     ethr =  2.23E-09,  avg # of iterations =  1.0

     End of self-consistent calculation

          k = 0.0000 0.0000 0.0000 (  3697 PWs)   bands (ev):

   -17.6153 -17.5379 -16.9477  -8.7897  -8.6100  -8.3043  -8.2782  -7.9110
    -7.9098  -4.5779  -4.5779  -4.5693  -4.5693  -4.4251  -4.4247  -4.2024
    -4.1410  -3.4021  -3.3875  -2.7667  -2.7667  -2.6956  -2.6092  -2.6092
    -2.4103  -2.1327  -2.1327  -1.7463   4.8527   4.8527   5.0589   5.0589
     5.2101   5.3360   6.6114   6.6518   7.1618   7.1618   7.1930   7.5283
     7.5283   7.6601   7.6601   7.6752   7.7633   7.7633   9.0331  10.3679
    11.7444  12.4855  12.7624  13.0633  13.5053  14.2731  14.2731  14.6582
    15.1893  15.3786  15.4979  15.7067  15.9092  15.9092  16.8644  17.1596

     occupation numbers
     1.0000   1.0000   1.0000   1.0000   1.0000   1.0000   1.0000   1.0000
     1.0000   1.0000   1.0000   1.0000   1.0000   1.0000   1.0000   1.0000
     1.0000   1.0000   1.0000   1.0000   1.0000   1.0000   1.0000   1.0000
     1.0000   1.0000   1.0000   1.0000   1.0000   1.0000   1.0000   1.0000
     1.0000   1.0000   1.0000   1.0000   1.0000   1.0000   1.0000   1.0000
     1.0000   1.0000   1.0000   1.0000   1.0000   1.0000   0.0000   0.0000
     0.0000   0.0000   0.0000   0.0000   0.0000   0.0000   0.0000   0.0000
     0.0000   0.0000   0.0000   0.0000   0.0000   0.0000   0.0000   0.0000

[...]

          k = 0.3333-1.2169 1.2618 (  3725 PWs)   bands (ev):

   -17.5695 -17.5316 -16.9168  -8.5737  -8.5529  -8.1868  -8.1277  -7.9798
    -7.9781  -4.6003  -4.5750  -4.5625  -4.5558  -4.4784  -4.4709  -4.3717
    -4.3112  -3.9493  -3.8353  -2.7736  -2.7372  -2.6558  -2.5670  -2.5634
    -2.4825  -2.1376  -2.0964  -1.9008   4.1782   4.2592   5.1125   5.1381
     5.6518   6.0395   6.6080   6.7149   6.7463   6.9910   7.0479   7.0574
     7.1226   7.2360   7.4257   7.5749   7.5913   7.6559  11.1802  12.3107
    12.9661  13.6094  13.6719  14.1986  14.3870  14.4354  14.6479  14.8194
    15.1735  15.2154  15.4977  15.7160  15.7868  15.8256  16.6818  16.9386

     occupation numbers
     1.0000   1.0000   1.0000   1.0000   1.0000   1.0000   1.0000   1.0000
     1.0000   1.0000   1.0000   1.0000   1.0000   1.0000   1.0000   1.0000
     1.0000   1.0000   1.0000   1.0000   1.0000   1.0000   1.0000   1.0000
     1.0000   1.0000   1.0000   1.0000   1.0000   1.0000   1.0000   1.0000
     1.0000   1.0000   1.0000   1.0000   1.0000   1.0000   1.0000   1.0000
     1.0000   1.0000   1.0000   1.0000   1.0000   1.0000   0.0000   0.0000
     0.0000   0.0000   0.0000   0.0000   0.0000   0.0000   0.0000   0.0000
     0.0000   0.0000   0.0000   0.0000   0.0000   0.0000   0.0000   0.0000

     highest occupied, lowest unoccupied level (ev):     8.0595    9.0331

!    total energy              =   -1848.67448717 Ry
     estimated scf accuracy    <          6.2E-09 Ry

     The total energy is the sum of the following terms:
     one-electron contribution =    -199.07187254 Ry
     hartree contribution      =     168.59188352 Ry
     xc contribution           =    -201.23713145 Ry
     ewald contribution        =    -434.92792394 Ry
     one-center paw contrib.   =   -1182.02944277 Ry
      -> PAW hartree energy AE =      57.42068094 Ry
      -> PAW hartree energy PS =     -57.19829259 Ry
      -> PAW xc energy AE      =    -788.45409136 Ry
      -> PAW xc energy PS      =      38.32137160 Ry
      -> total E_H with PAW    =     168.81427187 Ry
      -> total E_XC with PAW   =    -951.36985120 Ry

     convergence has been achieved in  14 iterations

     Writing all to output data dir calculations_bands/myprefix.save/

     General routines

     Parallel routines

     PAW routines

   This run was terminated on:   1:44: 1   6Jun2023

   JOB DONE.