     Program PWSCF v.7.0 starts on  2Jun2023 at 22:24:50

     Reading input from espresso_103.pwi
Warning: card &CELL ignored
Warning: card / ignored

     Current dimensions of program PWSCF are:
     Max number of different atomic species (ntypx) = 10
     Max number of k-points (npk) =  40000
     Max angular momentum in pseudopotentials (lmaxx) =  4
     file Al.pbe-n-kjpaw_psl.1.0.0.UPF: wavefunction(s)  3S 3P renormalized
     Message from routine setup:
     using ibrav=0 with symmetry is DISCOURAGED, use correct ibrav instead

     Subspace diagonalization in iterative solution of the eigenvalue problem:
     a serial algorithm will be used

     Using Slab Decomposition

     bravais-lattice index     =            0
     lattice parameter (alat)  =       9.4061  a.u.
     unit-cell volume          =     600.5615 (a.u.)^3
     number of atoms/cell      =            6
     number of atomic types    =            3
     number of electrons       =        86.00
     number of Kohn-Sham states=           64
     kinetic-energy cutoff     =      30.0000  Ry
     charge density cutoff     =     240.0000  Ry
     scf convergence threshold =      1.0E-06
     mixing beta               =       0.7000
     number of iterations used =            8  plain     mixing
     Exchange-correlation=  SLA  PW   PBX  PBC
                           (   1   4   3   4   0   0   0)

     celldm(1)=   9.406144  celldm(2)=   0.000000  celldm(3)=   0.000000
     celldm(4)=   0.000000  celldm(5)=   0.000000  celldm(6)=   0.000000

     crystal axes: (cart. coord. in units of alat)
               a(1) = (   1.000000   0.000000   0.000000 )
               a(2) = (  -0.461034   0.887383   0.000000 )
               a(3) = (   0.000000   0.000000   0.813227 )

     reciprocal axes: (cart. coord. in units 2 pi/alat)
               b(1) = (  1.000000  0.519543  0.000000 )
               b(2) = (  0.000000  1.126910  0.000000 )
               b(3) = (  0.000000  0.000000  1.229669 )

     PseudoPot. # 1 for La read from file:
     /home/pragov/projects/rrg-bengioy-ad/pragov/crystal_structure_design/SSSP/La.GGA-PBE-paw-v1.0.UPF
     MD5 check sum: 436541e95c1ad8901025bd0b0ed42ae2
     Pseudo is Projector augmented-wave + core cor, Zval = 11.0
     Generated using ATOMPAW code
     Shape of augmentation charge: BESSEL
     Using radial grid of 1101 points,  8 beta functions with:
                l(1) =   0
                l(2) =   0
                l(3) =   1
                l(4) =   1
                l(5) =   2
                l(6) =   2
                l(7) =   3
                l(8) =   3
     Q(r) pseudized with 0 coefficients

     PseudoPot. # 2 for Al read from file:
     /home/pragov/projects/rrg-bengioy-ad/pragov/crystal_structure_design/SSSP/Al.pbe-n-kjpaw_psl.1.0.0.UPF
     MD5 check sum: cfc449ca30b5f3223ec38ddd88ac046d
     Pseudo is Projector augmented-wave + core cor, Zval =  3.0
     Generated using "atomic" code by A. Dal Corso  v.5.1
     Shape of augmentation charge: PSQ
     Using radial grid of 1135 points,  6 beta functions with:
                l(1) =   0
                l(2) =   0
                l(3) =   1
                l(4) =   1
                l(5) =   2
                l(6) =   2
     Q(r) pseudized with 0 coefficients

     PseudoPot. # 3 for Ni read from file:
     /home/pragov/projects/rrg-bengioy-ad/pragov/crystal_structure_design/SSSP/ni_pbe_v1.4.uspp.F.UPF
     MD5 check sum: 1ee80287db30b12d2bc1f57a5b5d6409
     Pseudo is Ultrasoft + core correction, Zval = 18.0
     Generated by new atomic code, or converted to UPF format
     Using radial grid of  865 points,  6 beta functions with:
                l(1) =   0
                l(2) =   0
                l(3) =   1
                l(4) =   1
                l(5) =   2
                l(6) =   2
     Q(r) pseudized with 10 coefficients,  rinner =    0.980   0.980   0.980
                                                       0.980   0.980

     atomic species   valence    mass     pseudopotential
        La            11.00   138.90547     La( 1.00)
        Al             3.00    26.98154     Al( 1.00)
        Ni            18.00    58.69340     Ni( 1.00)

      4 Sym. Ops., with inversion, found

                                    s                        frac. trans.

      isym =  1     identity

 cryst.   s( 1) = (     1          0          0      )
                  (     0          1          0      )
                  (     0          0          1      )

 cart.    s( 1) = (  1.0000000  0.0000000  0.0000000 )
                  (  0.0000000  1.0000000  0.0000000 )
                  (  0.0000000  0.0000000  1.0000000 )

      isym =  2     180 deg rotation - cart. axis [0,0,1]

[...]

      isym =  3     inversion

[...]

      isym =  4     inv. 180 deg rotation - cart. axis [0,0,1]

 cryst.   s( 4) = (     1          0          0      )
                  (     0          1          0      )
                  (     0          0         -1      )

 cart.    s( 4) = (  1.0000000  0.0000000  0.0000000 )
                  (  0.0000000  1.0000000  0.0000000 )
                  (  0.0000000  0.0000000 -1.0000000 )

   Cartesian axes

     site n.     atom                  positions (alat units)
         1           La  tau(   1) = (   0.2694831   0.4436913   0.0000000  )
         2           Al  tau(   2) = (   0.0000000   0.0000000   0.4066134  )
         3           Ni  tau(   3) = (  -0.2165005   0.7388614   0.0000000  )
         4           Ni  tau(   4) = (   0.7554668   0.1485212   0.0000000  )
         5           Ni  tau(   5) = (  -0.2305169   0.4436913   0.4066134  )
         6           Ni  tau(   6) = (   0.5000000   0.0000000   0.4066134  )

   Crystallographic axes

     site n.     atom                  positions (cryst. coord.)
         1           La  tau(   1) = (  0.5000000  0.5000000  0.0000000  )
         2           Al  tau(   2) = (  0.0000000  0.0000000  0.5000000  )
         3           Ni  tau(   3) = (  0.1673700  0.8326300  0.0000000  )
         4           Ni  tau(   4) = (  0.8326300  0.1673700  0.0000000  )
         5           Ni  tau(   5) = ( -0.0000000  0.5000000  0.5000000  )
         6           Ni  tau(   6) = (  0.5000000  0.0000000  0.5000000  )

     number of k points=    10
                       cart. coord. in units 2pi/alat
        k(    1) = (   0.0000000   0.0000000   0.0000000), wk =   0.0740741
        k(    2) = (   0.0000000   0.0000000   0.4098898), wk =   0.1481481
        k(    3) = (   0.0000000   0.3756365   0.0000000), wk =   0.1481481
        k(    4) = (   0.0000000   0.3756365   0.4098898), wk =   0.2962963
        k(    5) = (   0.3333333   0.1731811   0.0000000), wk =   0.1481481
        k(    6) = (   0.3333333   0.1731811   0.4098898), wk =   0.2962963
        k(    7) = (   0.3333333   0.5488177   0.0000000), wk =   0.1481481
        k(    8) = (   0.3333333   0.5488177   0.4098898), wk =   0.2962963
        k(    9) = (   0.3333333  -0.2024554   0.0000000), wk =   0.1481481
        k(   10) = (   0.3333333  -0.2024554   0.4098898), wk =   0.2962963

                       cryst. coord.
        k(    1) = (   0.0000000   0.0000000   0.0000000), wk =   0.0740741
        k(    2) = (   0.0000000   0.0000000   0.3333333), wk =   0.1481481
        k(    3) = (   0.0000000   0.3333333   0.0000000), wk =   0.1481481
        k(    4) = (   0.0000000   0.3333333   0.3333333), wk =   0.2962963
        k(    5) = (   0.3333333  -0.0000000   0.0000000), wk =   0.1481481
        k(    6) = (   0.3333333  -0.0000000   0.3333333), wk =   0.2962963
        k(    7) = (   0.3333333   0.3333333   0.0000000), wk =   0.1481481
        k(    8) = (   0.3333333   0.3333333   0.3333333), wk =   0.2962963
        k(    9) = (   0.3333333  -0.3333333   0.0000000), wk =   0.1481481
        k(   10) = (   0.3333333  -0.3333333   0.3333333), wk =   0.2962963

     Check: negative core charge=   -0.000007

     Initial potential from superposition of free atoms

     starting charge      77.9892, renormalised to      86.0000
     Starting wfcs are   88 randomized atomic wfcs
     Checking if some PAW data can be deallocated...

     Self-consistent Calculation

     iteration #  1     ecut=    30.00 Ry     beta= 0.70
     Davidson diagonalization with overlap

     ethr =  1.00E-02,  avg # of iterations =  6.8

     total energy              =   -1610.54418995 Ry
     estimated scf accuracy    <     337.92760224 Ry

[...]

     negative rho (up, down):  1.548E-03 0.000E+00

[...]

     total energy              =   -1870.40308130 Ry
     estimated scf accuracy    <       0.00000486 Ry

     iteration # 32     ecut=    30.00 Ry     beta= 0.70
     Davidson diagonalization with overlap

     ethr =  5.65E-09,  avg # of iterations =  1.4

     End of self-consistent calculation

          k = 0.0000 0.0000 0.0000 (  1687 PWs)   bands (ev):

   -88.6149 -88.6030 -88.6028 -88.6001 -49.1047 -49.0647 -49.0602 -49.0209
   -48.9317 -48.9008 -48.9000 -48.8908 -48.8675 -48.8572 -48.8522 -48.8261
   -17.1275  -1.0914  -1.0606  -0.8079   6.2922  10.7701  11.2895  11.3275
    11.4325  11.7682  11.8548  11.9891  12.2654  12.4897  12.5076  12.6662
    12.8659  13.1155  13.4267  13.5461  13.5544  13.7568  13.8552  13.8761
    14.5062  14.6366  14.7298  15.0532  15.3431  15.3546  16.0516  16.7598
    17.7685  17.7767  17.7772  18.1094  18.1281  18.1374  18.2538  18.6177
    19.2335  20.8391  22.3824  22.4849  23.0991  23.4195  24.4878  24.6528

     occupation numbers
     1.0000   1.0000   1.0000   1.0000   1.0000   1.0000   1.0000   1.0000
     1.0000   1.0000   1.0000   1.0000   1.0000   1.0000   1.0000   1.0000
     1.0000   1.0000   1.0000   1.0000   1.0000   1.0000   1.0000   1.0000
     1.0000   1.0000   1.0000   1.0000   1.0000   1.0000   1.0000   1.0000
     1.0000   1.0000   1.0000   1.0000   1.0000   1.0000   1.0000   1.0000
     1.0000   1.0000   1.0000   0.0000   0.0000   0.0000   0.0000   0.0000
     0.0000   0.0000   0.0000   0.0000   0.0000   0.0000   0.0000   0.0000
     0.0000   0.0000   0.0000   0.0000   0.0000   0.0000   0.0000   0.0000

[...]

          k = 0.3333-0.2025 0.4099 (  1666 PWs)   bands (ev):

   -88.6080 -88.6032 -88.6002 -88.5995 -49.1151 -49.0610 -49.0088 -49.0020
   -48.9444 -48.9316 -48.8972 -48.8762 -48.8540 -48.8517 -48.8396 -48.8161
   -17.0995  -1.1705  -1.1244  -1.0578   8.1507   9.8049  10.7318  10.9061
    11.5311  11.8592  12.0761  12.2717  12.2793  12.5084  12.6013  12.8999
    12.9129  13.0031  13.1371  13.1799  13.6938  13.7027  13.7909  13.8489
    13.9608  14.0141  14.2196  15.2986  15.4521  15.6789  15.9651  17.5791
    17.6148  17.6603  17.8600  17.8776  17.9370  17.9511  18.8921  19.3298
    19.8157  21.3704  21.3803  22.0727  23.1930  23.6449  24.7924  25.5056

     occupation numbers
     1.0000   1.0000   1.0000   1.0000   1.0000   1.0000   1.0000   1.0000
     1.0000   1.0000   1.0000   1.0000   1.0000   1.0000   1.0000   1.0000
     1.0000   1.0000   1.0000   1.0000   1.0000   1.0000   1.0000   1.0000
     1.0000   1.0000   1.0000   1.0000   1.0000   1.0000   1.0000   1.0000
     1.0000   1.0000   1.0000   1.0000   1.0000   1.0000   1.0000   1.0000
     1.0000   1.0000   1.0000   0.0000   0.0000   0.0000   0.0000   0.0000
     0.0000   0.0000   0.0000   0.0000   0.0000   0.0000   0.0000   0.0000
     0.0000   0.0000   0.0000   0.0000   0.0000   0.0000   0.0000   0.0000

     highest occupied, lowest unoccupied level (ev):    14.7298   14.4837

!    total energy              =   -1870.40308122 Ry
     estimated scf accuracy    <       0.00000043 Ry

     The total energy is the sum of the following terms:
     one-electron contribution =   -1073.56629152 Ry
     hartree contribution      =     584.97003489 Ry
     xc contribution           =    -153.62134615 Ry
     ewald contribution        =    -795.38186102 Ry
     one-center paw contrib.   =    -432.80361742 Ry
      -> PAW hartree energy AE =      37.45075293 Ry
      -> PAW hartree energy PS =     -37.48862351 Ry
      -> PAW xc energy AE      =    -442.21300330 Ry
      -> PAW xc energy PS      =       9.44725646 Ry
      -> total E_H with PAW    =     584.93216431 Ry
      -> total E_XC with PAW   =    -586.38709298 Ry

     convergence has been achieved in  32 iterations

     Writing all to output data dir calculations_bands/myprefix.save/

     General routines

     Parallel routines

     PAW routines

   This run was terminated on:  22:29:40   2Jun2023

   JOB DONE.