     Program PWSCF v.7.0 starts on  6Jun2023 at  5:21:39

     K-points division:     npool     =       2
     R & G space division:  proc/nbgrp/npool/nimage =       4

     Reading input from espresso_13628.pwi
Warning: card &CELL ignored
Warning: card / ignored

     Current dimensions of program PWSCF are:
     Max number of different atomic species (ntypx) = 10
     Max number of k-points (npk) =  40000
     Max angular momentum in pseudopotentials (lmaxx) =  4
     file C.pbe-n-kjpaw_psl.1.0.0.UPF: wavefunction(s)  2S 2P renormalized
     Message from routine setup:
     using ibrav=0 with symmetry is DISCOURAGED, use correct ibrav instead

     Using Slab Decomposition

     bravais-lattice index     =            0
     lattice parameter (alat)  =       8.2078  a.u.
     unit-cell volume          =    1046.3812 (a.u.)^3
     number of atoms/cell      =           14
     number of atomic types    =            2
     number of electrons       =        82.00
     number of Kohn-Sham states=           64
     kinetic-energy cutoff     =      30.0000  Ry
     charge density cutoff     =     240.0000  Ry
     scf convergence threshold =      1.0E-06
     mixing beta               =       0.7000
     number of iterations used =            8  plain     mixing
     Exchange-correlation= SLA  PW   PBX  PBC
                           (   1   4   3   4   0   0   0)

     celldm(1)=   8.207779  celldm(2)=   0.000000  celldm(3)=   0.000000
     celldm(4)=   0.000000  celldm(5)=   0.000000  celldm(6)=   0.000000

     crystal axes: (cart. coord. in units of alat)
               a(1) = (   1.000000   0.000000   0.000000 )
               a(2) = (  -0.500000   0.866025   0.000000 )
               a(3) = (   0.000000   0.000000   2.185156 )

     reciprocal axes: (cart. coord. in units 2 pi/alat)
               b(1) = (  1.000000  0.577350  0.000000 )
               b(2) = (  0.000000  1.154700  0.000000 )
               b(3) = (  0.000000  0.000000  0.457633 )

     PseudoPot. # 1 for Eu read from file:
     /home/pragov/projects/rrg-bengioy-ad/pragov/crystal_structure_design/SSSP/Eu.GGA-PBE-paw-v1.0.UPF
     MD5 check sum: acec5fd9176fb57ec8e299eae1ecaf48
     Pseudo is Projector augmented-wave + core cor, Zval = 17.0
     Generated using ATOMPAW code
     Shape of augmentation charge: BESSEL
     Using radial grid of 1109 points,  8 beta functions with:
                l(1) =   0
                l(2) =   0
                l(3) =   1
                l(4) =   1
                l(5) =   2
                l(6) =   2
                l(7) =   3
                l(8) =   3
     Q(r) pseudized with 0 coefficients

     PseudoPot. # 2 for C  read from file:
     /home/pragov/projects/rrg-bengioy-ad/pragov/crystal_structure_design/SSSP/C.pbe-n-kjpaw_psl.1.0.0.UPF
     MD5 check sum: 5d2aebdfa2cae82b50a7e79e9516da0f
     Pseudo is Projector augmented-wave + core cor, Zval =  4.0
     Generated using "atomic" code by A. Dal Corso  v.5.1
     Shape of augmentation charge: PSQ
     Using radial grid of 1073 points,  4 beta functions with:
                l(1) =   0
                l(2) =   0
                l(3) =   1
                l(4) =   1
     Q(r) pseudized with 0 coefficients

     atomic species   valence    mass     pseudopotential
        Eu            17.00   151.96400     Eu( 1.00)
        C              4.00    12.01100     C ( 1.00)

     24 Sym. Ops., with inversion, found (12 have fractional translation)

                                    s                        frac. trans.

      isym =  1     identity

 cryst.   s( 1) = (     1          0          0      )
                  (     0          1          0      )
                  (     0          0          1      )

 cart.    s( 1) = (  1.0000000  0.0000000  0.0000000 )
                  (  0.0000000  1.0000000  0.0000000 )
                  (  0.0000000  0.0000000  1.0000000 )

      isym =  2     180 deg rotation - cart. axis [0,0,1]

 cryst.   s( 2) = (    -1          0          0      )    f =(  0.0000000 )
                  (     0         -1          0      )       (  0.0000000 )
                  (     0          0          1      )       ( -0.5000000 )

 cart.    s( 2) = ( -1.0000000 -0.0000000  0.0000000 )    f =(  0.0000000 )
                  (  0.0000000 -1.0000000  0.0000000 )       (  0.0000000 )
                  (  0.0000000  0.0000000  1.0000000 )       ( -1.0925778 )

[...]

      isym =  4     180 deg rotation - cart. axis [1,0,0]

[...]

      isym =  5      60 deg rotation - cryst. axis [0,0,1]

[...]

 cryst.   s( 8) = (    -1         -1          0      )
                  (     1          0          0      )
                  (     0          0          1      )

 cart.    s( 8) = ( -0.5000002  0.8660253  0.0000000 )
                  ( -0.8660255 -0.4999998  0.0000000 )
                  (  0.0000000  0.0000000  1.0000000 )

[...]

 cryst.   s( 9) = (     0         -1          0      )    f =(  0.0000000 )
                  (    -1          0          0      )       (  0.0000000 )
                  (     0          0         -1      )       (  0.5000000 )

 cart.    s( 9) = (  0.4999998 -0.8660255  0.0000000 )    f =(  0.0000000 )
                  ( -0.8660255 -0.4999998  0.0000000 )       (  0.0000000 )
                  (  0.0000000  0.0000000 -1.0000000 )       (  1.0925778 )

[...]

 cryst.   s(10) = (     1          1          0      )    f =(  0.0000000 )
                  (     0         -1          0      )       ( -0.0000010 )
                  (     0          0         -1      )       (  0.5000000 )

 cart.    s(10) = (  0.5000002  0.8660251  0.0000000 )    f =(  0.0000005 )
                  (  0.8660255 -0.5000002  0.0000000 )       ( -0.0000009 )
                  (  0.0000000  0.0000000 -1.0000000 )       (  1.0925778 )

[...]

 cryst.   s(11) = (    -1         -1          0      )
                  (     0          1          0      )
                  (     0          0         -1      )

 cart.    s(11) = ( -0.5000002 -0.8660251  0.0000000 )
                  ( -0.8660255  0.5000002  0.0000000 )
                  (  0.0000000  0.0000000 -1.0000000 )

      isym = 12     180 deg rotation - cryst. axis [1,1,0]

[...]

      isym = 13     inversion

[...]

      isym = 14     inv. 180 deg rotation - cart. axis [0,0,1]

[...]

      isym = 16     inv. 180 deg rotation - cart. axis [1,0,0]

[...]

      isym = 17     inv.  60 deg rotation - cryst. axis [0,0,1]

[...]

 cryst.   s(22) = (    -1         -1          0      )    f =(  0.0000000 )
                  (     0          1          0      )       ( -0.0000010 )
                  (     0          0          1      )       ( -0.5000000 )

 cart.    s(22) = ( -0.5000002 -0.8660251  0.0000000 )    f =(  0.0000005 )
                  ( -0.8660255  0.5000002  0.0000000 )       ( -0.0000009 )
                  (  0.0000000  0.0000000  1.0000000 )       ( -1.0925778 )

[...]

      isym = 24     inv. 180 deg rotation - cryst. axis [1,1,0]

 cryst.   s(24) = (     0         -1          0      )
                  (    -1          0          0      )
                  (     0          0          1      )

 cart.    s(24) = (  0.4999998 -0.8660255  0.0000000 )
                  ( -0.8660255 -0.4999998  0.0000000 )
                  (  0.0000000  0.0000000  1.0000000 )

   Cartesian axes

     site n.     atom                  positions (alat units)
         1           Eu  tau(   1) = (  -0.0000004   0.5773506   0.5462889  )
         2           Eu  tau(   2) = (   0.5000006   0.2886749   1.6388667  )
         3           C   tau(   3) = (   0.1667456   0.2888117   1.0925778  )
         4           C   tau(   4) = (   0.6665090   0.0000000   1.0925778  )
         5           C   tau(   5) = (  -0.3332544   0.5772138   1.0925778  )
         6           C   tau(   6) = (   0.3332546   0.5772138   1.0925778  )
         7           C   tau(   7) = (   0.8332546   0.2888117   1.0925778  )
         8           C   tau(   8) = (   0.3334910   0.0000000   1.0925778  )
         9           C   tau(   9) = (   0.3332546   0.5772138   0.0000000  )
        10           C   tau(  10) = (   0.3334910   0.0000000   0.0000000  )
        11           C   tau(  11) = (   0.8332546   0.2888117   0.0000000  )
        12           C   tau(  12) = (   0.1667456   0.2888117   0.0000000  )
        13           C   tau(  13) = (  -0.3332544   0.5772138   0.0000000  )
        14           C   tau(  14) = (   0.6665090   0.0000000   0.0000000  )

   Crystallographic axes

     site n.     atom                  positions (cryst. coord.)
         1           Eu  tau(   1) = (  0.3333330  0.6666670  0.2500000  )
         2           Eu  tau(   2) = (  0.6666670  0.3333330  0.7500000  )
         3           C   tau(   3) = (  0.3334910  0.3334910  0.5000000  )
         4           C   tau(   4) = (  0.6665090  0.0000000  0.5000000  )
         5           C   tau(   5) = ( -0.0000000  0.6665090  0.5000000  )
         6           C   tau(   6) = (  0.6665090  0.6665090  0.5000000  )
         7           C   tau(   7) = (  1.0000000  0.3334910  0.5000000  )
         8           C   tau(   8) = (  0.3334910  0.0000000  0.5000000  )
         9           C   tau(   9) = (  0.6665090  0.6665090  0.0000000  )
        10           C   tau(  10) = (  0.3334910  0.0000000  0.0000000  )
        11           C   tau(  11) = (  1.0000000  0.3334910  0.0000000  )
        12           C   tau(  12) = (  0.3334910  0.3334910  0.0000000  )
        13           C   tau(  13) = ( -0.0000000  0.6665090  0.0000000  )
        14           C   tau(  14) = (  0.6665090  0.0000000  0.0000000  )

     number of k points=     6
                       cart. coord. in units 2pi/alat
        k(    1) = (   0.0000000   0.0000000   0.0000000), wk =   0.0740741
        k(    2) = (   0.0000000   0.0000000   0.1525444), wk =   0.1481481
        k(    3) = (   0.0000000   0.3849001   0.0000000), wk =   0.4444444
        k(    4) = (   0.0000000   0.3849001   0.1525444), wk =   0.8888889
        k(    5) = (   0.3333333   0.5773502   0.0000000), wk =   0.1481481
        k(    6) = (   0.3333333   0.5773502   0.1525444), wk =   0.2962963

                       cryst. coord.
        k(    1) = (   0.0000000   0.0000000   0.0000000), wk =   0.0740741
        k(    2) = (   0.0000000   0.0000000   0.3333333), wk =   0.1481481
        k(    3) = (   0.0000000   0.3333333   0.0000000), wk =   0.4444444
        k(    4) = (   0.0000000   0.3333333   0.3333333), wk =   0.8888889
        k(    5) = (   0.3333333   0.3333333   0.0000000), wk =   0.1481481
        k(    6) = (   0.3333333   0.3333333   0.3333333), wk =   0.2962963

     Check: negative core charge=   -0.000026

     Initial potential from superposition of free atoms

     starting charge      81.9901, renormalised to      82.0000
     Starting wfcs are  112 randomized atomic wfcs
     Checking if some PAW data can be deallocated...

     Self-consistent Calculation

     iteration #  1     ecut=    30.00 Ry     beta= 0.70
     Davidson diagonalization with overlap

     ethr =  1.00E-02,  avg # of iterations =  3.0

     total energy              =   -1501.07743476 Ry
     estimated scf accuracy    <       3.86987390 Ry

[...]

     total energy              =   -1505.36949291 Ry
     estimated scf accuracy    <       0.00000628 Ry

     iteration # 71     ecut=    30.00 Ry     beta= 0.70
     Davidson diagonalization with overlap

     ethr =  7.66E-09,  avg # of iterations =  2.2

     End of self-consistent calculation

          k = 0.0000 0.0000 0.0000 (  2881 PWs)   bands (ev):

   -29.8141 -29.8130 -10.3085  -9.2067  -9.1164  -8.7715  -8.7715  -8.7517
    -8.7517  -7.5951  -2.5876  -2.5876  -2.4413  -2.4413  -2.3839  -2.3839
    -2.3467  -2.3467  -0.3747  -0.1242  -0.0903  -0.0327   1.9670   3.0577
     7.1151   7.1151   7.1304   7.1304   8.6494   8.6494   9.1931   9.1931
     9.2782   9.2782   9.3217   9.3217   9.7997  11.1374  11.3577  11.4127
    11.4174  11.4262  11.5458  11.5458  11.6854  11.6854  11.7922  11.7922
    11.8865  11.8876  11.9205  11.9205  13.9853  13.9853  14.8111  14.8111
    15.2961  16.0538  16.0539  17.1592  17.1592  17.5447  17.6167  18.4438

     occupation numbers
     1.0000   1.0000   1.0000   1.0000   1.0000   1.0000   1.0000   1.0000
     1.0000   1.0000   1.0000   1.0000   1.0000   1.0000   1.0000   1.0000
     1.0000   1.0000   1.0000   1.0000   1.0000   1.0000   1.0000   1.0000
     1.0000   1.0000   1.0000   1.0000   1.0000   1.0000   1.0000   1.0000
     1.0000   1.0000   1.0000   1.0000   1.0000   1.0000   1.0000   1.0000
     1.0000   0.0000   0.0000   0.0000   0.0000   0.0000   0.0000   0.0000
     0.0000   0.0000   0.0000   0.0000   0.0000   0.0000   0.0000   0.0000
     0.0000   0.0000   0.0000   0.0000   0.0000   0.0000   0.0000   0.0000

[...]

          k = 0.3333 0.5774 0.1525 (  2922 PWs)   bands (ev):

   -29.8077 -29.8077  -9.3872  -9.3872  -8.9295  -8.8713  -8.8713  -8.8703
    -6.7272  -6.7272  -6.5263  -6.4170  -6.0993  -6.0993   0.4752   0.4944
     0.5279   0.5279   0.6036   0.6036   4.3067   4.3846   4.4036   4.4036
     4.4623   4.4623   4.8405   4.8405   5.0237   5.1714   5.5257   5.5257
    11.3742  11.3953  11.3953  11.4082  11.4432  11.4432  11.5189  11.5189
    11.5845  11.5865  11.5865  11.6548  11.7637  11.7637  12.4871  12.5176
    12.7250  12.7250  13.7244  13.7244  14.6672  14.6672  14.7051  14.9656
    15.2275  15.2275  15.6847  16.0541  16.0541  16.3928  17.0775  17.0785

     occupation numbers
     1.0000   1.0000   1.0000   1.0000   1.0000   1.0000   1.0000   1.0000
     1.0000   1.0000   1.0000   1.0000   1.0000   1.0000   1.0000   1.0000
     1.0000   1.0000   1.0000   1.0000   1.0000   1.0000   1.0000   1.0000
     1.0000   1.0000   1.0000   1.0000   1.0000   1.0000   1.0000   1.0000
     1.0000   1.0000   1.0000   1.0000   1.0000   1.0000   1.0000   1.0000
     1.0000   0.0000   0.0000   0.0000   0.0000   0.0000   0.0000   0.0000
     0.0000   0.0000   0.0000   0.0000   0.0000   0.0000   0.0000   0.0000
     0.0000   0.0000   0.0000   0.0000   0.0000   0.0000   0.0000   0.0000

     highest occupied, lowest unoccupied level (ev):    11.5845   11.4262

!    total energy              =   -1505.36949280 Ry

     total all-electron energy =     -2198.538667 Ry
     estimated scf accuracy    <       0.00000054 Ry

     The total energy is the sum of the following terms:
     one-electron contribution =    -183.04586523 Ry
     hartree contribution      =     145.69336459 Ry
     xc contribution           =     -96.28955654 Ry
     ewald contribution        =    -383.64717512 Ry
     one-center paw contrib.   =    -988.08026050 Ry
      -> PAW hartree energy AE =     317.97328045 Ry
      -> PAW hartree energy PS =    -303.68936853 Ry
      -> PAW xc energy AE      =    -966.87920198 Ry
      -> PAW xc energy PS      =      38.49377893 Ry
      -> total E_H with PAW    =     159.97727651 Ry
      -> total E_XC with PAW   =   -1024.67497959 Ry

     convergence has been achieved in  71 iterations

     Writing all to output data dir calculations_bands/myprefix.save/

     General routines

     Parallel routines

     PAW routines

   This run was terminated on:   5:23:28   6Jun2023

   JOB DONE.