     Program PWSCF v.7.0 starts on 23Jun2023 at  6:50:21

     K-points division:     npool     =       2
     R & G space division:  proc/nbgrp/npool/nimage =       4

     Reading input from espresso_2339.pwi
Warning: card &CELL ignored
Warning: card / ignored

     Current dimensions of program PWSCF are:
     Max number of different atomic species (ntypx) = 10
     Max number of k-points (npk) =  40000
     Max angular momentum in pseudopotentials (lmaxx) =  4
     Message from routine setup:
     using ibrav=0 with symmetry is DISCOURAGED, use correct ibrav instead

     Using Slab Decomposition

     bravais-lattice index     =            0
     lattice parameter (alat)  =       6.3264  a.u.
     unit-cell volume          =    1487.0174 (a.u.)^3
     number of atoms/cell      =           16
     number of atomic types    =            3
     number of electrons       =       164.00
     number of Kohn-Sham states=           90
     kinetic-energy cutoff     =      30.0000  Ry
     charge density cutoff     =     240.0000  Ry
     scf convergence threshold =      1.0E-06
     mixing beta               =       0.7000
     number of iterations used =            8  plain     mixing
     Exchange-correlation= PBE
                           (   1   4   3   4   0   0   0)

     celldm(1)=   6.326393  celldm(2)=   0.000000  celldm(3)=   0.000000
     celldm(4)=   0.000000  celldm(5)=   0.000000  celldm(6)=   0.000000

     crystal axes: (cart. coord. in units of alat)
               a(1) = (   1.000000   0.000000   0.000000 )
               a(2) = (   0.000000   1.618127   0.000000 )
               a(3) = (   0.000000   0.000000   3.629402 )

     reciprocal axes: (cart. coord. in units 2 pi/alat)
               b(1) = (  1.000000  0.000000  0.000000 )
               b(2) = (  0.000000  0.617999  0.000000 )
               b(3) = (  0.000000  0.000000  0.275528 )

     PseudoPot. # 1 for Ta read from file:
     /home/pragov/projects/rrg-bengioy-ad/pragov/crystal_structure_design/SSSP/Ta_pbe_v1.uspp.F.UPF
     MD5 check sum: f8bbe9446314a3b8ea5d9f3e3836c939
     Pseudo is Ultrasoft + core correction, Zval = 13.0
     Generated by new atomic code, or converted to UPF format
     Using radial grid of  921 points,  7 beta functions with:
                l(1) =   0
                l(2) =   0
                l(3) =   1
                l(4) =   1
                l(5) =   2
                l(6) =   2
                l(7) =   3
     Q(r) pseudized with  6 coefficients,  rinner =    1.300   1.300   1.300
                                                       1.300   1.300   1.300
                                                       1.300

     PseudoPot. # 2 for Ni read from file:
     /home/pragov/projects/rrg-bengioy-ad/pragov/crystal_structure_design/SSSP/ni_pbe_v1.4.uspp.F.UPF
     MD5 check sum: 1ee80287db30b12d2bc1f57a5b5d6409
     Pseudo is Ultrasoft + core correction, Zval = 18.0
     Generated by new atomic code, or converted to UPF format
     Using radial grid of  865 points,  6 beta functions with:
                l(1) =   0
                l(2) =   0
                l(3) =   1
                l(4) =   1
                l(5) =   2
                l(6) =   2
     Q(r) pseudized with 10 coefficients,  rinner =    0.980   0.980   0.980
                                                       0.980   0.980

     PseudoPot. # 3 for P  read from file:
     /home/pragov/projects/rrg-bengioy-ad/pragov/crystal_structure_design/SSSP/P.pbe-n-rrkjus_psl.1.0.0.UPF
     MD5 check sum: 8b930f418f0a4573dca56cd030ffe088
     Pseudo is Ultrasoft + core correction, Zval =  5.0
     Generated using "atomic" code by A. Dal Corso  v.5.1
     Using radial grid of 1147 points,  6 beta functions with:
                l(1) =   0
                l(2) =   0
                l(3) =   1
                l(4) =   1
                l(5) =   2
                l(6) =   2
     Q(r) pseudized with 0 coefficients

     atomic species   valence    mass     pseudopotential
        Ta            13.00   180.94788     Ta( 1.00)
        Ni            18.00    58.69340     Ni( 1.00)
        P              5.00    30.97376     P ( 1.00)

      8 Sym. Ops., with inversion, found ( 6 have fractional translation)

                                    s                        frac. trans.

      isym =  1     identity

 cryst.   s( 1) = (     1          0          0      )
                  (     0          1          0      )
                  (     0          0          1      )

 cart.    s( 1) = (  1.0000000  0.0000000  0.0000000 )
                  (  0.0000000  1.0000000  0.0000000 )
                  (  0.0000000  0.0000000  1.0000000 )

      isym =  2     180 deg rotation - cart. axis [0,0,1]

 cryst.   s( 2) = (    -1          0          0      )    f =(  0.0000000 )
                  (     0         -1          0      )       ( -0.5000000 )
                  (     0          0          1      )       (  0.5000000 )

 cart.    s( 2) = ( -1.0000000  0.0000000  0.0000000 )    f =(  0.0000000 )
                  (  0.0000000 -1.0000000  0.0000000 )       ( -0.8090633 )
                  (  0.0000000  0.0000000  1.0000000 )       (  1.8147008 )

[...]

      isym =  4     180 deg rotation - cart. axis [1,0,0]

[...]

      isym =  5     inversion

 cryst.   s( 5) = (    -1          0          0      )
                  (     0         -1          0      )
                  (     0          0         -1      )

 cart.    s( 5) = ( -1.0000000  0.0000000  0.0000000 )
                  (  0.0000000 -1.0000000  0.0000000 )
                  (  0.0000000  0.0000000 -1.0000000 )

      isym =  6     inv. 180 deg rotation - cart. axis [0,0,1]

[...]

      isym =  8     inv. 180 deg rotation - cart. axis [1,0,0]

 cryst.   s( 8) = (    -1          0          0      )    f =(  0.5000000 )
                  (     0          1          0      )       (  0.0000000 )
                  (     0          0          1      )       (  0.0000000 )

 cart.    s( 8) = ( -1.0000000  0.0000000  0.0000000 )    f =(  0.5000000 )
                  (  0.0000000  1.0000000  0.0000000 )       (  0.0000000 )
                  (  0.0000000  0.0000000  1.0000000 )       (  0.0000000 )

   Cartesian axes

     site n.     atom                  positions (alat units)
         1           Ta  tau(   1) = (   0.2500000   0.0247509   3.0107592  )
         2           Ta  tau(   2) = (   0.2500000   0.8338142   2.4333432  )
         3           Ta  tau(   3) = (   0.7500000   1.5933758   0.6186424  )
         4           Ta  tau(   4) = (   0.7500000   0.7843125   1.1960584  )
         5           Ni  tau(   5) = (   0.2500000   0.0351587   2.1239621  )
         6           Ni  tau(   6) = (   0.2500000   0.8442220   3.3201403  )
         7           Ni  tau(   7) = (   0.7500000   1.5829680   1.5054395  )
         8           Ni  tau(   8) = (   0.7500000   0.7739047   0.3092613  )
         9           P   tau(   9) = (   0.2500000   0.2239649   1.1234159  )
        10           P   tau(  10) = (   0.2500000   1.0330283   0.6912849  )
        11           P   tau(  11) = (   0.7500000   1.3941618   2.5059857  )
        12           P   tau(  12) = (   0.7500000   0.5850984   2.9381167  )
        13           P   tau(  13) = (   0.2500000   0.3074214   0.1293011  )
        14           P   tau(  14) = (   0.2500000   1.1164848   1.6853997  )
        15           P   tau(  15) = (   0.7500000   1.3107053   3.5001005  )
        16           P   tau(  16) = (   0.7500000   0.5016419   1.9440019  )

   Crystallographic axes

     site n.     atom                  positions (cryst. coord.)
         1           Ta  tau(   1) = (  0.2500000  0.0152960  0.8295470  )
         2           Ta  tau(   2) = (  0.2500000  0.5152960  0.6704530  )
         3           Ta  tau(   3) = (  0.7500000  0.9847040  0.1704530  )
         4           Ta  tau(   4) = (  0.7500000  0.4847040  0.3295470  )
         5           Ni  tau(   5) = (  0.2500000  0.0217280  0.5852100  )
         6           Ni  tau(   6) = (  0.2500000  0.5217280  0.9147900  )
         7           Ni  tau(   7) = (  0.7500000  0.9782720  0.4147900  )
         8           Ni  tau(   8) = (  0.7500000  0.4782720  0.0852100  )
         9           P   tau(   9) = (  0.2500000  0.1384100  0.3095320  )
        10           P   tau(  10) = (  0.2500000  0.6384100  0.1904680  )
        11           P   tau(  11) = (  0.7500000  0.8615900  0.6904680  )
        12           P   tau(  12) = (  0.7500000  0.3615900  0.8095320  )
        13           P   tau(  13) = (  0.2500000  0.1899860  0.0356260  )
        14           P   tau(  14) = (  0.2500000  0.6899860  0.4643740  )
        15           P   tau(  15) = (  0.7500000  0.8100140  0.9643740  )
        16           P   tau(  16) = (  0.7500000  0.3100140  0.5356260  )

     number of k points=     8
                       cart. coord. in units 2pi/alat
        k(    1) = (   0.0000000   0.0000000   0.0000000), wk =   0.0740741
        k(    2) = (   0.0000000   0.0000000   0.0918425), wk =   0.1481481
        k(    3) = (   0.0000000   0.2059995   0.0000000), wk =   0.1481481
        k(    4) = (   0.0000000   0.2059995   0.0918425), wk =   0.2962963
        k(    5) = (   0.3333333   0.0000000   0.0000000), wk =   0.1481481
        k(    6) = (   0.3333333   0.0000000   0.0918425), wk =   0.2962963
        k(    7) = (   0.3333333   0.2059995   0.0000000), wk =   0.2962963
        k(    8) = (   0.3333333   0.2059995   0.0918425), wk =   0.5925926

                       cryst. coord.
        k(    1) = (   0.0000000   0.0000000   0.0000000), wk =   0.0740741
        k(    2) = (   0.0000000   0.0000000   0.3333333), wk =   0.1481481
        k(    3) = (   0.0000000   0.3333333   0.0000000), wk =   0.1481481
        k(    4) = (   0.0000000   0.3333333   0.3333333), wk =   0.2962963
        k(    5) = (   0.3333333   0.0000000   0.0000000), wk =   0.1481481
        k(    6) = (   0.3333333   0.0000000   0.3333333), wk =   0.2962963
        k(    7) = (   0.3333333   0.3333333   0.0000000), wk =   0.2962963
        k(    8) = (   0.3333333   0.3333333   0.3333333), wk =   0.5925926

     Check: negative core charge=   -0.000003

     Initial potential from superposition of free atoms

     starting charge     155.9943, renormalised to     164.0000

     negative rho (up, down):  3.935E-01 0.000E+00
     Starting wfcs are  136 randomized atomic wfcs

     Self-consistent Calculation

     iteration #  1     ecut=    30.00 Ry     beta= 0.70
     Davidson diagonalization with overlap

     ethr =  1.00E-02,  avg # of iterations =  4.0

     negative rho (up, down):  3.749E-01 0.000E+00

     total energy              =   -2003.38623886 Ry
     estimated scf accuracy    <      70.78889978 Ry

[...]

     total energy              =   -2053.13769721 Ry
     estimated scf accuracy    <       0.00000432 Ry

     iteration # 16     ecut=    30.00 Ry     beta= 0.70
     Davidson diagonalization with overlap

     ethr =  2.63E-09,  avg # of iterations =  5.2

     negative rho (up, down):  3.800E-01 0.000E+00

     End of self-consistent calculation

          k = 0.0000 0.0000 0.0000 (  4167 PWs)   bands (ev):

   -88.2718 -88.2713 -88.2673 -88.2659 -52.3621 -52.3619 -52.3547 -52.3546
   -48.7039 -48.7002 -48.6885 -48.6834 -48.6377 -48.6376 -48.6375 -48.6348
   -48.4955 -48.4920 -48.4746 -48.4739 -18.9532 -18.9530 -18.9263 -18.9169
   -18.8643 -18.8636 -18.8535 -18.8442 -18.8426 -18.8419 -18.8028 -18.8024
     1.5322   2.4326   2.5694   4.4341   4.5996   4.9461   5.4270   5.5272
     8.5431   8.6079   8.7614   9.7843  10.3848  10.4323  10.7135  10.9329
    11.4577  11.5699  11.6103  11.7159  11.7427  11.9727  12.1265  12.2978
    12.5262  12.6526  12.6850  12.7427  12.8283  12.8292  13.0809  13.0910
    13.1751  13.2192  13.2678  13.2990  13.4232  13.7810  13.8833  14.0471
    14.0865  14.3341  14.5064  14.7310  14.8033  14.9281  14.9779  15.3108
    15.6806  16.1271  16.2910  16.5342  16.6348  16.7667  16.9564  17.2620
    17.6272  17.9064

     occupation numbers
     1.0000   1.0000   1.0000   1.0000   1.0000   1.0000   1.0000   1.0000
     1.0000   1.0000   1.0000   1.0000   1.0000   1.0000   1.0000   1.0000
     1.0000   1.0000   1.0000   1.0000   1.0000   1.0000   1.0000   1.0000
     1.0000   1.0000   1.0000   1.0000   1.0000   1.0000   1.0000   1.0000
     1.0000   1.0000   1.0000   1.0000   1.0000   1.0000   1.0000   1.0000
     1.0000   1.0000   1.0000   1.0000   1.0000   1.0000   1.0000   1.0000
     1.0000   1.0000   1.0000   1.0000   1.0000   1.0000   1.0000   1.0000
     1.0000   1.0000   1.0000   1.0000   1.0000   1.0000   1.0000   1.0000
     1.0000   1.0000   1.0000   1.0000   1.0000   1.0000   1.0000   1.0000
     1.0000   1.0000   1.0000   1.0000   1.0000   1.0000   1.0000   1.0000
     1.0000   1.0000   0.0000   0.0000   0.0000   0.0000   0.0000   0.0000
     0.0000   0.0000

[...]

          k = 0.3333 0.2060 0.0918 (  4121 PWs)   bands (ev):

   -88.2688 -88.2686 -88.2659 -88.2657 -52.3550 -52.3550 -52.3514 -52.3514
   -48.6883 -48.6873 -48.6854 -48.6836 -48.6363 -48.6351 -48.6343 -48.6333
   -48.4872 -48.4857 -48.4774 -48.4754 -19.0172 -19.0169 -19.0013 -19.0011
   -18.9299 -18.9289 -18.9147 -18.9127 -18.8143 -18.8126 -18.7923 -18.7914
     3.4357   3.6457   4.3250   4.4321   4.5178   4.6374   5.5003   5.5776
     8.9331   9.0725   9.2004   9.3119   9.7717   9.9006  10.1237  10.3220
    10.4623  10.6589  11.1436  11.3617  11.4202  11.6455  11.9665  12.0657
    12.1201  12.2232  12.4159  12.4820  12.6177  12.7195  12.7558  12.8440
    13.1481  13.1743  13.2644  13.3371  13.4877  13.5305  13.6555  13.7407
    13.9884  14.0483  14.1106  14.1479  14.5734  14.6433  14.8287  15.0422
    15.0725  15.3831  15.9116  16.1532  17.0025  17.1925  17.3450  17.6080
    17.8662  18.1418

     occupation numbers
     1.0000   1.0000   1.0000   1.0000   1.0000   1.0000   1.0000   1.0000
     1.0000   1.0000   1.0000   1.0000   1.0000   1.0000   1.0000   1.0000
     1.0000   1.0000   1.0000   1.0000   1.0000   1.0000   1.0000   1.0000
     1.0000   1.0000   1.0000   1.0000   1.0000   1.0000   1.0000   1.0000
     1.0000   1.0000   1.0000   1.0000   1.0000   1.0000   1.0000   1.0000
     1.0000   1.0000   1.0000   1.0000   1.0000   1.0000   1.0000   1.0000
     1.0000   1.0000   1.0000   1.0000   1.0000   1.0000   1.0000   1.0000
     1.0000   1.0000   1.0000   1.0000   1.0000   1.0000   1.0000   1.0000
     1.0000   1.0000   1.0000   1.0000   1.0000   1.0000   1.0000   1.0000
     1.0000   1.0000   1.0000   1.0000   1.0000   1.0000   1.0000   1.0000
     1.0000   1.0000   0.0000   0.0000   0.0000   0.0000   0.0000   0.0000
     0.0000   0.0000

     highest occupied, lowest unoccupied level (ev):    16.1602   15.8187

!    total energy              =   -2053.13769783 Ry
     estimated scf accuracy    <       0.00000010 Ry

     The total energy is the sum of the following terms:
     one-electron contribution =   -1198.62758200 Ry
     hartree contribution      =     689.00946909 Ry
     xc contribution           =    -347.34477080 Ry
     ewald contribution        =   -1196.17481412 Ry

     convergence has been achieved in  16 iterations

     Writing all to output data dir calculations_bands/myprefix.save/

     General routines

     Parallel routines

   This run was terminated on:   6:50:43  23Jun2023

   JOB DONE.