     Program PWSCF v.7.0 starts on  5Jun2023 at 23:37:39

     K-points division:     npool     =       2
     R & G space division:  proc/nbgrp/npool/nimage =       4

     Reading input from espresso_12368.pwi
Warning: card &CELL ignored
Warning: card / ignored

     Current dimensions of program PWSCF are:
     Max number of different atomic species (ntypx) = 10
     Max number of k-points (npk) =  40000
     Max angular momentum in pseudopotentials (lmaxx) =  4
     Message from routine setup:
     using ibrav=0 with symmetry is DISCOURAGED, use correct ibrav instead

     Using Slab Decomposition

     bravais-lattice index     =            0
     lattice parameter (alat)  =       7.8010  a.u.
     unit-cell volume          =    1135.2134 (a.u.)^3
     number of atoms/cell      =           10
     number of atomic types    =            3
     number of electrons       =       116.00
     number of Kohn-Sham states=           64
     kinetic-energy cutoff     =      30.0000  Ry
     charge density cutoff     =     240.0000  Ry
     scf convergence threshold =      1.0E-06
     mixing beta               =       0.7000
     number of iterations used =            8  plain     mixing
     Exchange-correlation= SLA  PW   PBE  PBE
                           (   1   4   3   4   0   0   0)

     celldm(1)=   7.800973  celldm(2)=   0.000000  celldm(3)=   0.000000
     celldm(4)=   0.000000  celldm(5)=   0.000000  celldm(6)=   0.000000

     crystal axes: (cart. coord. in units of alat)
               a(1) = (   1.000000   0.000000   0.000000 )
               a(2) = (   0.000000   1.000000   0.000000 )
               a(3) = (   0.000000   0.000000   2.391284 )

     reciprocal axes: (cart. coord. in units 2 pi/alat)
               b(1) = (  1.000000  0.000000  0.000000 )
               b(2) = (  0.000000  1.000000  0.000000 )
               b(3) = (  0.000000  0.000000  0.418185 )

     PseudoPot. # 1 for Dy read from file:
     /home/pragov/projects/rrg-bengioy-ad/pragov/crystal_structure_design/SSSP/Dy.GGA-PBE-paw-v1.0.UPF
     MD5 check sum: 733414aae3e3693a823ce0c917a68f08
     Pseudo is Projector augmented-wave + core cor, Zval = 20.0
     Generated using ATOMPAW code
     Shape of augmentation charge: BESSEL
     Using radial grid of 1112 points,  8 beta functions with:
                l(1) =   0
                l(2) =   0
                l(3) =   1
                l(4) =   1
                l(5) =   2
                l(6) =   2
                l(7) =   3
                l(8) =   3
     Q(r) pseudized with 0 coefficients

     PseudoPot. # 2 for Si read from file:
     /home/pragov/projects/rrg-bengioy-ad/pragov/crystal_structure_design/SSSP/Si.pbe-n-rrkjus_psl.1.0.0.UPF
     MD5 check sum: 0b0bb1205258b0d07b9f9672cf965d36
     Pseudo is Ultrasoft + core correction, Zval =  4.0
     Generated using "atomic" code by A. Dal Corso  v.5.1
     Using radial grid of 1141 points,  6 beta functions with:
                l(1) =   0
                l(2) =   0
                l(3) =   1
                l(4) =   1
                l(5) =   2
                l(6) =   2
     Q(r) pseudized with 0 coefficients

     PseudoPot. # 3 for Ir read from file:
     /home/pragov/projects/rrg-bengioy-ad/pragov/crystal_structure_design/SSSP/Ir_pbe_v1.2.uspp.F.UPF
     MD5 check sum: 8836f839c3459d2b385c504ce6d91f2c
     Pseudo is Ultrasoft + core correction, Zval = 15.0
     Generated by new atomic code, or converted to UPF format
     Using radial grid of  983 points,  7 beta functions with:
                l(1) =   0
                l(2) =   0
                l(3) =   1
                l(4) =   1
                l(5) =   1
                l(6) =   2
                l(7) =   2
     Q(r) pseudized with  8 coefficients,  rinner =    1.400   1.400   1.400
                                                       1.400   1.400

     atomic species   valence    mass     pseudopotential
        Dy            20.00   162.50000     Dy( 1.00)
        Si             4.00    28.08500     Si( 1.00)
        Ir            15.00   192.21700     Ir( 1.00)

     16 Sym. Ops., with inversion, found ( 8 have fractional translation)

                                    s                        frac. trans.

      isym =  1     identity

 cryst.   s( 1) = (     1          0          0      )
                  (     0          1          0      )
                  (     0          0          1      )

 cart.    s( 1) = (  1.0000000  0.0000000  0.0000000 )
                  (  0.0000000  1.0000000  0.0000000 )
                  (  0.0000000  0.0000000  1.0000000 )

      isym =  2     180 deg rotation - cart. axis [0,0,1]

[...]

 cryst.   s( 3) = (    -1          0          0      )    f =(  0.5000000 )
                  (     0          1          0      )       (  0.5000000 )
                  (     0          0         -1      )       (  0.0000000 )

 cart.    s( 3) = ( -1.0000000  0.0000000  0.0000000 )    f =(  0.5000000 )
                  (  0.0000000  1.0000000  0.0000000 )       (  0.5000000 )
                  (  0.0000000  0.0000000 -1.0000000 )       (  0.0000000 )

[...]

 cryst.   s( 6) = (     0         -1          0      )
                  (    -1          0          0      )
                  (     0          0         -1      )

 cart.    s( 6) = (  0.0000000 -1.0000000  0.0000000 )
                  ( -1.0000000  0.0000000  0.0000000 )
                  (  0.0000000  0.0000000 -1.0000000 )

[...]

      isym =  8      90 deg rotation - cart. axis [0,0,1]

[...]

      isym =  9     inversion

 cryst.   s( 9) = (    -1          0          0      )    f =(  0.5000000 )
                  (     0         -1          0      )       (  0.5000000 )
                  (     0          0         -1      )       (  0.0000000 )

 cart.    s( 9) = ( -1.0000000  0.0000000  0.0000000 )    f =(  0.5000000 )
                  (  0.0000000 -1.0000000  0.0000000 )       (  0.5000000 )
                  (  0.0000000  0.0000000 -1.0000000 )       (  0.0000000 )

      isym = 10     inv. 180 deg rotation - cart. axis [0,0,1]

 cryst.   s(10) = (     1          0          0      )    f =( -0.5000000 )
                  (     0          1          0      )       (  0.5000000 )
                  (     0          0         -1      )       (  0.0000000 )

 cart.    s(10) = (  1.0000000  0.0000000  0.0000000 )    f =( -0.5000000 )
                  (  0.0000000  1.0000000  0.0000000 )       (  0.5000000 )
                  (  0.0000000  0.0000000 -1.0000000 )       (  0.0000000 )

[...]

 cryst.   s(11) = (     1          0          0      )
                  (     0         -1          0      )
                  (     0          0          1      )

 cart.    s(11) = (  1.0000000  0.0000000  0.0000000 )
                  (  0.0000000 -1.0000000  0.0000000 )
                  (  0.0000000  0.0000000  1.0000000 )

[...]

 cryst.   s(14) = (     0          1          0      )    f =( -0.5000000 )
                  (     1          0          0      )       (  0.5000000 )
                  (     0          0          1      )       (  0.0000000 )

 cart.    s(14) = (  0.0000000  1.0000000  0.0000000 )    f =( -0.5000000 )
                  (  1.0000000  0.0000000  0.0000000 )       (  0.5000000 )
                  (  0.0000000  0.0000000  1.0000000 )       (  0.0000000 )

[...]

      isym = 16     inv.  90 deg rotation - cart. axis [0,0,1]

 cryst.   s(16) = (     0         -1          0      )
                  (     1          0          0      )
                  (     0          0         -1      )

 cart.    s(16) = (  0.0000000  1.0000000  0.0000000 )
                  ( -1.0000000  0.0000000  0.0000000 )
                  (  0.0000000  0.0000000 -1.0000000 )

   Cartesian axes

     site n.     atom                  positions (alat units)
         1           Dy  tau(   1) = (   0.0000000   0.5000000   0.6096627  )
         2           Dy  tau(   2) = (   0.5000000   0.0000000   1.7816217  )
         3           Si  tau(   3) = (   0.0000000   0.0000000   1.1956422  )
         4           Si  tau(   4) = (   0.5000000   0.5000000   1.1956422  )
         5           Si  tau(   5) = (   0.0000000   0.5000000   2.0778635  )
         6           Si  tau(   6) = (   0.5000000   0.0000000   0.3134209  )
         7           Ir  tau(   7) = (   0.0000000   0.0000000   0.0000000  )
         8           Ir  tau(   8) = (   0.5000000   0.5000000   0.0000000  )
         9           Ir  tau(   9) = (   0.0000000   0.5000000   1.5033359  )
        10           Ir  tau(  10) = (   0.5000000   0.0000000   0.8879485  )

   Crystallographic axes

     site n.     atom                  positions (cryst. coord.)
         1           Dy  tau(   1) = (  0.0000000  0.5000000  0.2549520  )
         2           Dy  tau(   2) = (  0.5000000  0.0000000  0.7450480  )
         3           Si  tau(   3) = (  0.0000000  0.0000000  0.5000000  )
         4           Si  tau(   4) = (  0.5000000  0.5000000  0.5000000  )
         5           Si  tau(   5) = (  0.0000000  0.5000000  0.8689320  )
         6           Si  tau(   6) = (  0.5000000  0.0000000  0.1310680  )
         7           Ir  tau(   7) = (  0.0000000  0.0000000  0.0000000  )
         8           Ir  tau(   8) = (  0.5000000  0.5000000  0.0000000  )
         9           Ir  tau(   9) = (  0.0000000  0.5000000  0.6286730  )
        10           Ir  tau(  10) = (  0.5000000  0.0000000  0.3713270  )

     number of k points=     6
                       cart. coord. in units 2pi/alat
        k(    1) = (   0.0000000   0.0000000   0.0000000), wk =   0.0740741
        k(    2) = (   0.0000000   0.0000000   0.1393951), wk =   0.1481481
        k(    3) = (   0.0000000   0.3333333   0.0000000), wk =   0.2962963
        k(    4) = (   0.0000000   0.3333333   0.1393951), wk =   0.5925926
        k(    5) = (   0.3333333   0.3333333   0.0000000), wk =   0.2962963
        k(    6) = (   0.3333333   0.3333333   0.1393951), wk =   0.5925926

                       cryst. coord.
        k(    1) = (   0.0000000   0.0000000   0.0000000), wk =   0.0740741
        k(    2) = (   0.0000000   0.0000000   0.3333333), wk =   0.1481481
        k(    3) = (   0.0000000   0.3333333   0.0000000), wk =   0.2962963
        k(    4) = (   0.0000000   0.3333333   0.3333333), wk =   0.5925926
        k(    5) = (   0.3333333   0.3333333   0.0000000), wk =   0.2962963
        k(    6) = (   0.3333333   0.3333333   0.3333333), wk =   0.5925926

     Initial potential from superposition of free atoms

     starting charge     113.9900, renormalised to     116.0000

     negative rho (up, down):  1.458E+00 0.000E+00
     Starting wfcs are  128 randomized atomic wfcs
     Checking if some PAW data can be deallocated...

     Self-consistent Calculation

     iteration #  1     ecut=    30.00 Ry     beta= 0.70
     Davidson diagonalization with overlap

     ethr =  1.00E-02,  avg # of iterations =  2.0

     negative rho (up, down):  1.139E+00 0.000E+00

     total energy              =   -2320.63240022 Ry
     estimated scf accuracy    <       8.76174569 Ry

[...]

     total energy              =   -2327.45567459 Ry
     estimated scf accuracy    <       0.00000433 Ry

     iteration # 27     ecut=    30.00 Ry     beta= 0.70
     Davidson diagonalization with overlap

     ethr =  3.73E-09,  avg # of iterations =  3.3

     negative rho (up, down):  1.244E+00 0.000E+00

     End of self-consistent calculation

          k = 0.0000 0.0000 0.0000 (  3153 PWs)   bands (ev):

   -32.9568 -32.9568 -32.7751 -32.7751 -32.6930 -32.6525 -32.5645 -32.5577
   -32.4239 -32.4239 -32.4204 -32.4204 -28.6709 -28.6700  -4.9658  -4.9367
    -4.8104  -4.8104  -4.8092  -4.8092   4.8513   5.8736   7.2146   9.4846
     9.8349  10.4551  11.0208  11.0208  11.1007  11.2229  11.3034  11.3034
    11.6908  13.1546  13.2051  13.4690  13.4690  13.5128  13.5128  13.6040
    13.9190  14.2646  14.7953  15.3388  15.6092  15.6092  16.0822  16.0822
    16.1155  16.1155  16.1994  16.2101  16.2101  16.2504  16.2682  16.3040
    16.3393  16.3436  16.3436  16.3543  16.7868  16.7868  16.9153  17.9924

     occupation numbers
     1.0000   1.0000   1.0000   1.0000   1.0000   1.0000   1.0000   1.0000
     1.0000   1.0000   1.0000   1.0000   1.0000   1.0000   1.0000   1.0000
     1.0000   1.0000   1.0000   1.0000   1.0000   1.0000   1.0000   1.0000
     1.0000   1.0000   1.0000   1.0000   1.0000   1.0000   1.0000   1.0000
     1.0000   1.0000   1.0000   1.0000   1.0000   1.0000   1.0000   1.0000
     1.0000   1.0000   1.0000   1.0000   1.0000   1.0000   1.0000   1.0000
     1.0000   1.0000   1.0000   1.0000   1.0000   1.0000   1.0000   1.0000
     1.0000   1.0000   0.0000   0.0000   0.0000   0.0000   0.0000   0.0000

[...]

          k = 0.3333 0.3333 0.1394 (  3161 PWs)   bands (ev):

   -32.9741 -32.9293 -32.8080 -32.7623 -32.6773 -32.6671 -32.5613 -32.5597
   -32.4269 -32.4261 -32.4232 -32.4221 -28.6661 -28.6660  -4.9242  -4.9211
    -4.8975  -4.8938  -4.8892  -4.8859   6.6750   7.1134   7.7437   8.2053
     9.7455  10.3298  10.5279  10.9015  11.7962  12.0319  12.2718  12.3807
    12.6911  12.7034  12.8298  12.8546  12.9727  13.0662  13.1538  13.7222
    13.7871  14.0399  14.0650  14.5499  14.7112  15.0162  15.1130  15.2028
    15.8225  15.9725  16.0226  16.1269  16.1471  16.1523  16.1596  16.2059
    16.2566  16.2597  16.2645  16.2912  16.3021  16.3239  16.3583  16.6386

     occupation numbers
     1.0000   1.0000   1.0000   1.0000   1.0000   1.0000   1.0000   1.0000
     1.0000   1.0000   1.0000   1.0000   1.0000   1.0000   1.0000   1.0000
     1.0000   1.0000   1.0000   1.0000   1.0000   1.0000   1.0000   1.0000
     1.0000   1.0000   1.0000   1.0000   1.0000   1.0000   1.0000   1.0000
     1.0000   1.0000   1.0000   1.0000   1.0000   1.0000   1.0000   1.0000
     1.0000   1.0000   1.0000   1.0000   1.0000   1.0000   1.0000   1.0000
     1.0000   1.0000   1.0000   1.0000   1.0000   1.0000   1.0000   1.0000
     1.0000   1.0000   0.0000   0.0000   0.0000   0.0000   0.0000   0.0000

     highest occupied, lowest unoccupied level (ev):    16.3436   16.2645

!    total energy              =   -2327.45567439 Ry
     estimated scf accuracy    <       0.00000033 Ry

     The total energy is the sum of the following terms:
     one-electron contribution =    -449.34279766 Ry
     hartree contribution      =     302.11922998 Ry
     xc contribution           =    -282.49861232 Ry
     ewald contribution        =    -937.14036519 Ry
     one-center paw contrib.   =    -960.59312919 Ry
      -> PAW hartree energy AE =     513.65737452 Ry
      -> PAW hartree energy PS =    -477.37716837 Ry
      -> PAW xc energy AE      =   -1050.13981961 Ry
      -> PAW xc energy PS      =      53.26648427 Ry
      -> total E_H with PAW    =     338.39943612 Ry
      -> total E_XC with PAW   =   -1279.37194766 Ry

     convergence has been achieved in  27 iterations

     Writing all to output data dir calculations_bands/myprefix.save/

     General routines

     Parallel routines

     PAW routines

   This run was terminated on:  23:38:23   5Jun2023

   JOB DONE.