     Program PWSCF v.7.0 starts on 23Jun2023 at  3:23:11

     K-points division:     npool     =       2
     R & G space division:  proc/nbgrp/npool/nimage =       4

     Reading input from espresso_90.pwi
Warning: card &CELL ignored
Warning: card / ignored

     Current dimensions of program PWSCF are:
     Max number of different atomic species (ntypx) = 10
     Max number of k-points (npk) =  40000
     Max angular momentum in pseudopotentials (lmaxx) =  4
     Message from routine setup:
     using ibrav=0 with symmetry is DISCOURAGED, use correct ibrav instead

     Using Slab Decomposition

     bravais-lattice index     =            0
     lattice parameter (alat)  =      10.8212  a.u.
     unit-cell volume          =    1925.7685 (a.u.)^3
     number of atoms/cell      =           18
     number of atomic types    =            3
     number of electrons       =       162.00
     number of Kohn-Sham states=           90
     kinetic-energy cutoff     =      30.0000  Ry
     charge density cutoff     =     240.0000  Ry
     scf convergence threshold =      1.0E-06
     mixing beta               =       0.7000
     number of iterations used =            8  plain     mixing
     Exchange-correlation=  SLA  PW   PBX  PBC
                           (   1   4   3   4   0   0   0)

     celldm(1)=  10.821209  celldm(2)=   0.000000  celldm(3)=   0.000000
     celldm(4)=   0.000000  celldm(5)=   0.000000  celldm(6)=   0.000000

     crystal axes: (cart. coord. in units of alat)
               a(1) = (   1.000000   0.000000   0.000000 )
               a(2) = (   0.000000   1.069378   0.000000 )
               a(3) = (   0.000000  -0.304249   1.421169 )

     reciprocal axes: (cart. coord. in units 2 pi/alat)
               b(1) = (  1.000000  0.000000  0.000000 )
               b(2) = (  0.000000  0.935123  0.200194 )
               b(3) = (  0.000000  0.000000  0.703646 )

     PseudoPot. # 1 for Dy read from file:
     /home/pragov/projects/rrg-bengioy-ad/pragov/crystal_structure_design/SSSP/Dy.GGA-PBE-paw-v1.0.UPF
     MD5 check sum: 733414aae3e3693a823ce0c917a68f08
     Pseudo is Projector augmented-wave + core cor, Zval = 20.0
     Generated using ATOMPAW code
     Shape of augmentation charge: BESSEL
     Using radial grid of 1112 points,  8 beta functions with:
                l(1) =   0
                l(2) =   0
                l(3) =   1
                l(4) =   1
                l(5) =   2
                l(6) =   2
                l(7) =   3
                l(8) =   3
     Q(r) pseudized with 0 coefficients

     PseudoPot. # 2 for Zr read from file:
     /home/pragov/projects/rrg-bengioy-ad/pragov/crystal_structure_design/SSSP/Zr_pbe_v1.uspp.F.UPF
     MD5 check sum: 5db81b1e868ab7776c4564c113de050b
     Pseudo is Ultrasoft + core correction, Zval = 12.0
     Generated by new atomic code, or converted to UPF format
     Using radial grid of  887 points,  6 beta functions with:
                l(1) =   0
                l(2) =   0
                l(3) =   1
                l(4) =   1
                l(5) =   2
                l(6) =   2
     Q(r) pseudized with  6 coefficients,  rinner =    1.200   1.200   1.200
                                                       1.200   1.200

     PseudoPot. # 3 for F  read from file:
     /home/pragov/projects/rrg-bengioy-ad/pragov/crystal_structure_design/SSSP/f_pbe_v1.4.uspp.F.UPF
     MD5 check sum: 4c38b6a325caf53ec0e86aed9459de46
     Pseudo is Ultrasoft, Zval =  7.0
     Generated by new atomic code, or converted to UPF format
     Using radial grid of  799 points,  4 beta functions with:
                l(1) =   0
                l(2) =   0
                l(3) =   1
                l(4) =   1
     Q(r) pseudized with  8 coefficients,  rinner =    0.950   0.950   0.950

     atomic species   valence    mass     pseudopotential
        Dy            20.00   162.50000     Dy( 1.00)
        Zr            12.00    91.22400     Zr( 1.00)
        F              7.00    18.99840     F ( 1.00)

      2 Sym. Ops. (no inversion) found ( 1 have fractional translation)

                                    s                        frac. trans.

      isym =  1     identity

 cryst.   s( 1) = (     1          0          0      )
                  (     0          1          0      )
                  (     0          0          1      )

 cart.    s( 1) = (  1.0000000  0.0000000  0.0000000 )
                  (  0.0000000  1.0000000 -0.0000000 )
                  (  0.0000000  0.0000000  1.0000000 )

      isym =  2     180 deg rotation - cart. axis [1,0,0]

 cryst.   s( 2) = (     1          0          0      )    f =(  0.5000000 )
                  (     0         -1          0      )       (  0.0000000 )
                  (     0          0         -1      )       (  0.0000000 )

 cart.    s( 2) = (  1.0000000  0.0000000  0.0000000 )    f =(  0.5000000 )
                  (  0.0000000 -1.0000000  0.0000000 )       (  0.0000000 )
                  (  0.0000000  0.0000000 -1.0000000 )       (  0.0000000 )

   Cartesian axes

     site n.     atom                  positions (alat units)
         1           Dy  tau(   1) = (   0.6973880   0.4921636   0.9715977  )
         2           Dy  tau(   2) = (   0.1973880   0.2729655   0.4495711  )
         3           Zr  tau(   3) = (   0.7072100   0.7997603   0.3178984  )
         4           Zr  tau(   4) = (   0.2072100  -0.0346313   1.1032704  )
         5           F   tau(   5) = (   0.8910190   0.3417265   0.6791780  )
         6           F   tau(   6) = (   0.3910190   0.4234026   0.7419908  )
         7           F   tau(   7) = (   0.4278040   0.7548274   1.0919252  )
         8           F   tau(   8) = (   0.9278040   0.0103016   0.3292436  )
         9           F   tau(   9) = (   0.9447290   0.7924470   1.0789229  )
        10           F   tau(  10) = (   0.4447290  -0.0273180   0.3422459  )
        11           F   tau(  11) = (   0.9934070   0.2497795   1.1179355  )
        12           F   tau(  12) = (   0.4934070   0.5153495   0.3032334  )
        13           F   tau(  13) = (   0.7023610   0.5099589   1.3845624  )
        14           F   tau(  14) = (   0.2023610   0.2551702   0.0366065  )
        15           F   tau(  15) = (   0.7093750   0.7751939   0.6733413  )
        16           F   tau(  16) = (   0.2093750  -0.0100648   0.7478276  )
        17           F   tau(  17) = (   0.5030680   0.1680647   1.1105596  )
        18           F   tau(  18) = (   0.0030680   0.5970643   0.3106092  )

   Crystallographic axes

     site n.     atom                  positions (cryst. coord.)
         1           Dy  tau(   1) = (  0.6973880  0.6547420  0.6836610  )
         2           Dy  tau(   2) = (  0.1973880  0.3452580  0.3163390  )
         3           Zr  tau(   3) = (  0.7072100  0.8115160  0.2236880  )
         4           Zr  tau(   4) = (  0.2072100  0.1884840  0.7763120  )
         5           F   tau(   5) = (  0.8910190  0.4555240  0.4779010  )
         6           F   tau(   6) = (  0.3910190  0.5444760  0.5220990  )
         7           F   tau(   7) = (  0.4278040  0.9244540  0.7683290  )
         8           F   tau(   8) = (  0.9278040  0.0755460  0.2316710  )
         9           F   tau(   9) = (  0.9447290  0.9570300  0.7591800  )
        10           F   tau(  10) = (  0.4447290  0.0429700  0.2408200  )
        11           F   tau(  11) = (  0.9934070  0.4573790  0.7866310  )
        12           F   tau(  12) = (  0.4934070  0.5426210  0.2133690  )
        13           F   tau(  13) = (  0.7023610  0.7540560  0.9742420  )
        14           F   tau(  14) = (  0.2023610  0.2459440  0.0257580  )
        15           F   tau(  15) = (  0.7093750  0.8597010  0.4737940  )
        16           F   tau(  16) = (  0.2093750  0.1402990  0.5262060  )
        17           F   tau(  17) = (  0.5030680  0.3794890  0.7814410  )
        18           F   tau(  18) = (  0.0030680  0.6205110  0.2185590  )

     number of k points=    10
                       cart. coord. in units 2pi/alat
        k(    1) = (   0.0000000   0.0000000   0.0000000), wk =   0.0740741
        k(    2) = (   0.0000000   0.0000000   0.2345487), wk =   0.1481481
        k(    3) = (   0.0000000   0.3117078   0.0667314), wk =   0.1481481
        k(    4) = (   0.0000000   0.3117078   0.3012802), wk =   0.1481481
        k(    5) = (   0.0000000   0.3117078  -0.1678173), wk =   0.1481481
        k(    6) = (   0.3333333   0.0000000   0.0000000), wk =   0.1481481
        k(    7) = (   0.3333333   0.0000000   0.2345487), wk =   0.2962963
        k(    8) = (   0.3333333   0.3117078   0.0667314), wk =   0.2962963
        k(    9) = (   0.3333333   0.3117078   0.3012802), wk =   0.2962963
        k(   10) = (   0.3333333   0.3117078  -0.1678173), wk =   0.2962963

                       cryst. coord.
        k(    1) = (   0.0000000   0.0000000   0.0000000), wk =   0.0740741
        k(    2) = (   0.0000000   0.0000000   0.3333333), wk =   0.1481481
        k(    3) = (   0.0000000   0.3333333  -0.0000000), wk =   0.1481481
        k(    4) = (   0.0000000   0.3333333   0.3333333), wk =   0.1481481
        k(    5) = (   0.0000000   0.3333333  -0.3333333), wk =   0.1481481
        k(    6) = (   0.3333333   0.0000000   0.0000000), wk =   0.1481481
        k(    7) = (   0.3333333   0.0000000   0.3333333), wk =   0.2962963
        k(    8) = (   0.3333333   0.3333333  -0.0000000), wk =   0.2962963
        k(    9) = (   0.3333333   0.3333333   0.3333333), wk =   0.2962963
        k(   10) = (   0.3333333   0.3333333  -0.3333333), wk =   0.2962963

     Check: negative core charge=   -0.000002

     Initial potential from superposition of free atoms

     starting charge     161.9881, renormalised to     162.0000

     negative rho (up, down):  1.221E-01 0.000E+00
     Starting wfcs are  146 randomized atomic wfcs
     Checking if some PAW data can be deallocated...

     Self-consistent Calculation

     iteration #  1     ecut=    30.00 Ry     beta= 0.70
     Davidson diagonalization with overlap

     ethr =  1.00E-02,  avg # of iterations =  1.3

     negative rho (up, down):  1.279E-01 0.000E+00

     total energy              =   -2432.85983066 Ry
     estimated scf accuracy    <       3.19277322 Ry

[...]

     total energy              =   -2435.40539474 Ry
     estimated scf accuracy    <       0.00000302 Ry

     iteration #145     ecut=    30.00 Ry     beta= 0.70
     Davidson diagonalization with overlap

     ethr =  1.26E-09,  avg # of iterations =  1.0

     negative rho (up, down):  1.321E-01 0.000E+00

     End of self-consistent calculation

          k = 0.0000 0.0000 0.0000 (  5339 PWs)   bands (ev):

   -44.7898 -44.7898 -40.4758 -40.4714 -23.2451 -23.2447 -23.2174 -23.2128
   -23.2056 -23.2047 -18.7013 -18.6199 -18.4640 -18.3926 -18.3311 -18.3156
   -18.2540 -18.2403 -17.9851 -17.9651 -17.9473 -17.6481 -17.4752 -17.3711
   -16.0316 -15.9540 -15.7001 -15.6979 -15.2752 -15.1624  -1.7067  -1.4289
    -1.4205  -1.2191  -1.0472  -0.7639  -0.6942  -0.6354  -0.5544  -0.5407
    -0.3125  -0.2478  -0.2032  -0.0423   0.0276   0.1132   0.2049   0.2480
     0.3322   0.4202   0.5073   0.5178   0.6619   0.6874   0.7735   0.8021
     0.8452   0.9605   0.9786   1.0156   1.0573   1.0887   1.1523   1.3274
     1.3345   1.3670   1.4502   1.5991   1.6639   1.7486   1.7890   1.8653
     3.6262   3.6281   3.6679   3.6909   3.7144   3.7280   3.7622   3.7625
     3.9331   3.9349   3.9524   3.9673   3.9956   4.0129   8.1666   8.1705
     8.3021   8.3469

     occupation numbers
     1.0000   1.0000   1.0000   1.0000   1.0000   1.0000   1.0000   1.0000
     1.0000   1.0000   1.0000   1.0000   1.0000   1.0000   1.0000   1.0000
     1.0000   1.0000   1.0000   1.0000   1.0000   1.0000   1.0000   1.0000
     1.0000   1.0000   1.0000   1.0000   1.0000   1.0000   1.0000   1.0000
     1.0000   1.0000   1.0000   1.0000   1.0000   1.0000   1.0000   1.0000
     1.0000   1.0000   1.0000   1.0000   1.0000   1.0000   1.0000   1.0000
     1.0000   1.0000   1.0000   1.0000   1.0000   1.0000   1.0000   1.0000
     1.0000   1.0000   1.0000   1.0000   1.0000   1.0000   1.0000   1.0000
     1.0000   1.0000   1.0000   1.0000   1.0000   1.0000   1.0000   1.0000
     1.0000   1.0000   1.0000   1.0000   1.0000   1.0000   1.0000   1.0000
     1.0000   0.0000   0.0000   0.0000   0.0000   0.0000   0.0000   0.0000
     0.0000   0.0000

[...]

          k = 0.3333 0.3117-0.1678 (  5344 PWs)   bands (ev):

   -44.7898 -44.7898 -40.4747 -40.4725 -23.2452 -23.2424 -23.2142 -23.2124
   -23.2066 -23.2043 -18.8190 -18.7195 -18.6059 -18.5479 -18.3875 -18.3253
   -18.2700 -18.0404 -17.9849 -17.7184 -17.6870 -17.5517 -17.4283 -17.3723
   -16.0790 -16.0132 -15.7792 -15.7547 -15.2661 -15.2107  -1.5747  -1.4547
    -1.2716  -1.1771  -0.8994  -0.8408  -0.5717  -0.4915  -0.4182  -0.3679
    -0.2700  -0.2197  -0.1603  -0.0217   0.0598   0.1123   0.1596   0.2638
     0.3150   0.4086   0.4484   0.5159   0.5440   0.6403   0.6823   0.7331
     0.7673   0.8105   0.8825   0.9811   1.0528   1.0999   1.1435   1.2077
     1.2447   1.2791   1.3787   1.4459   1.5363   1.5947   1.8037   1.8314
     3.6360   3.6481   3.6617   3.6910   3.7252   3.7302   3.7547   3.7615
     3.9408   3.9460   3.9571   3.9653   3.9965   4.0109   8.2956   8.3150
     8.3352   8.3593

     occupation numbers
     1.0000   1.0000   1.0000   1.0000   1.0000   1.0000   1.0000   1.0000
     1.0000   1.0000   1.0000   1.0000   1.0000   1.0000   1.0000   1.0000
     1.0000   1.0000   1.0000   1.0000   1.0000   1.0000   1.0000   1.0000
     1.0000   1.0000   1.0000   1.0000   1.0000   1.0000   1.0000   1.0000
     1.0000   1.0000   1.0000   1.0000   1.0000   1.0000   1.0000   1.0000
     1.0000   1.0000   1.0000   1.0000   1.0000   1.0000   1.0000   1.0000
     1.0000   1.0000   1.0000   1.0000   1.0000   1.0000   1.0000   1.0000
     1.0000   1.0000   1.0000   1.0000   1.0000   1.0000   1.0000   1.0000
     1.0000   1.0000   1.0000   1.0000   1.0000   1.0000   1.0000   1.0000
     1.0000   1.0000   1.0000   1.0000   1.0000   1.0000   1.0000   1.0000
     1.0000   0.0000   0.0000   0.0000   0.0000   0.0000   0.0000   0.0000
     0.0000   0.0000

     highest occupied, lowest unoccupied level (ev):     3.9443    3.9349

!    total energy              =   -2435.40539426 Ry
     estimated scf accuracy    <       0.00000031 Ry

     The total energy is the sum of the following terms:
     one-electron contribution =    -977.78979365 Ry
     hartree contribution      =     563.32968189 Ry
     xc contribution           =    -222.00068630 Ry
     ewald contribution        =    -838.03078971 Ry
     one-center paw contrib.   =    -960.91380650 Ry
      -> PAW hartree energy AE =     501.67795672 Ry
      -> PAW hartree energy PS =    -465.70906256 Ry
      -> PAW xc energy AE      =   -1049.43197205 Ry
      -> PAW xc energy PS      =      52.54927140 Ry
      -> total E_H with PAW    =     599.29857604 Ry
      -> total E_XC with PAW   =   -1218.88338695 Ry

     convergence has been achieved in 145 iterations

     Writing all to output data dir calculations_bands/myprefix.save/

     General routines

     Parallel routines

     PAW routines

   This run was terminated on:   3:30:32  23Jun2023

   JOB DONE.