     Program PWSCF v.7.0 starts on  6Jun2023 at  1:20:32

     K-points division:     npool     =       2
     R & G space division:  proc/nbgrp/npool/nimage =       4

     Reading input from espresso_13080.pwi
Warning: card &CELL ignored
Warning: card / ignored

     Current dimensions of program PWSCF are:
     Max number of different atomic species (ntypx) = 10
     Max number of k-points (npk) =  40000
     Max angular momentum in pseudopotentials (lmaxx) =  4
     file O.pbe-n-kjpaw_psl.0.1.UPF: wavefunction(s)  2P renormalized
     Message from routine setup:
     using ibrav=0 with symmetry is DISCOURAGED, use correct ibrav instead

     Using Slab Decomposition

     bravais-lattice index     =            0
     lattice parameter (alat)  =       9.7696  a.u.
     unit-cell volume          =     359.7851 (a.u.)^3
     number of atoms/cell      =            6
     number of atomic types    =            3
     number of electrons       =        36.00
     number of Kohn-Sham states=           64
     kinetic-energy cutoff     =      30.0000  Ry
     charge density cutoff     =     240.0000  Ry
     scf convergence threshold =      1.0E-06
     mixing beta               =       0.7000
     number of iterations used =            8  plain     mixing
     Exchange-correlation= SLA  PW   PBX  PBC
                           (   1   4   3   4   0   0   0)

     celldm(1)=   9.769646  celldm(2)=   0.000000  celldm(3)=   0.000000
     celldm(4)=   0.000000  celldm(5)=   0.000000  celldm(6)=   0.000000

     crystal axes: (cart. coord. in units of alat)
               a(1) = (   1.000000   0.000000   0.000000 )
               a(2) = (   0.540074   0.841617   0.000000 )
               a(3) = (  -0.702582  -0.544244   0.458450 )

     reciprocal axes: (cart. coord. in units 2 pi/alat)
               b(1) = (  1.000000 -0.641710  0.770717 )
               b(2) = (  0.000000  1.188188  1.410546 )
               b(3) = (  0.000000  0.000000  2.181263 )

     PseudoPot. # 1 for Li read from file:
     /home/pragov/projects/rrg-bengioy-ad/pragov/crystal_structure_design/SSSP/li_pbe_v1.4.uspp.F.UPF
     MD5 check sum: e912e257baa3777c20ea3d68f190483c
     Pseudo is Ultrasoft, Zval =  3.0
     Generated by new atomic code, or converted to UPF format
     Using radial grid of  751 points,  5 beta functions with:
                l(1) =   0
                l(2) =   0
                l(3) =   0
                l(4) =   1
                l(5) =   1
     Q(r) pseudized with 10 coefficients,  rinner =    1.150   1.150   1.150

     PseudoPot. # 2 for Ti read from file:
     /home/pragov/projects/rrg-bengioy-ad/pragov/crystal_structure_design/SSSP/ti_pbe_v1.4.uspp.F.UPF
     MD5 check sum: 88a00a6731bd790ddea75d31a80cb452
     Pseudo is Ultrasoft + core correction, Zval = 12.0
     Generated by new atomic code, or converted to UPF format
     Using radial grid of  851 points,  6 beta functions with:
                l(1) =   0
                l(2) =   0
                l(3) =   1
                l(4) =   1
                l(5) =   2
                l(6) =   2
     Q(r) pseudized with  6 coefficients,  rinner =    1.000   1.000   1.000
                                                       1.000   1.000

     PseudoPot. # 3 for O  read from file:
     /home/pragov/projects/rrg-bengioy-ad/pragov/crystal_structure_design/SSSP/O.pbe-n-kjpaw_psl.0.1.UPF
     MD5 check sum: 0234752ac141de4415c5fc33072bef88
     Pseudo is Projector augmented-wave + core cor, Zval =  6.0
     Generated using "atomic" code by A. Dal Corso  v.5.0.99 svn rev. 10869
     Shape of augmentation charge: BESSEL
     Using radial grid of 1095 points,  4 beta functions with:
                l(1) =   0
                l(2) =   0
                l(3) =   1
                l(4) =   1
     Q(r) pseudized with 0 coefficients

     atomic species   valence    mass     pseudopotential
        Li             3.00     6.94000     Li( 1.00)
        Ti            12.00    47.86700     Ti( 1.00)
        O              6.00    15.99900     O ( 1.00)

      2 Sym. Ops., with inversion, found

                                    s                        frac. trans.

      isym =  1     identity

 cryst.   s( 1) = (     1          0          0      )
                  (     0          1          0      )
                  (     0          0          1      )

 cart.    s( 1) = (  1.0000000  0.0000000  0.0000000 )
                  (  0.0000000  1.0000000  0.0000000 )
                  (  0.0000000  0.0000000  1.0000000 )

      isym =  2     inversion

 cryst.   s( 2) = (    -1          0          0      )
                  (     0         -1          0      )
                  (     0          0         -1      )

 cart.    s( 2) = ( -1.0000000 -0.0000000 -0.0000000 )
                  (  0.0000000 -1.0000000 -0.0000000 )
                  (  0.0000000  0.0000000 -1.0000000 )

   Cartesian axes

     site n.     atom                  positions (alat units)
         1           Li  tau(   1) = (   1.0318558   0.5638871   0.0000000  )
         2           Li  tau(   2) = (   0.5082183   0.2777304   0.0000000  )
         3           Ti  tau(   3) = (   0.0000000   0.0000000   0.0000000  )
         4           O   tau(   4) = (   0.1487089  -0.2721222   0.2292250  )
         5           O   tau(   5) = (   0.1461441   0.2729547   0.2292250  )
         6           O   tau(   6) = (   0.6913479   0.0244183   0.2292250  )

   Crystallographic axes

     site n.     atom                  positions (cryst. coord.)
         1           Li  tau(   1) = (  0.6700040  0.6700040  0.0000000  )
         2           Li  tau(   2) = (  0.3299960  0.3299960  0.0000000  )
         3           Ti  tau(   3) = (  0.0000000  0.0000000  0.0000000  )
         4           O   tau(   4) = (  0.5000000  0.0000000  0.5000000  )
         5           O   tau(   5) = (  0.1476540  0.6476540  0.5000000  )
         6           O   tau(   6) = (  0.8523460  0.3523460  0.5000000  )

     number of k points=    14
                       cart. coord. in units 2pi/alat
        k(    1) = (   0.0000000   0.0000000   0.0000000), wk =   0.0740741
        k(    2) = (   0.0000000   0.0000000   0.7270876), wk =   0.1481481
        k(    3) = (   0.0000000   0.3960628   0.4701820), wk =   0.1481481
        k(    4) = (   0.0000000   0.3960628   1.1972697), wk =   0.1481481
        k(    5) = (   0.0000000   0.3960628  -0.2569056), wk =   0.1481481
        k(    6) = (   0.3333333  -0.2139032   0.2569056), wk =   0.1481481
        k(    7) = (   0.3333333  -0.2139032   0.9839933), wk =   0.1481481
        k(    8) = (   0.3333333  -0.2139032  -0.4701820), wk =   0.1481481
        k(    9) = (   0.3333333   0.1821595   0.7270876), wk =   0.1481481
        k(   10) = (   0.3333333   0.1821595   1.4541753), wk =   0.1481481
        k(   11) = (   0.3333333   0.1821595   0.0000000), wk =   0.1481481
        k(   12) = (   0.3333333  -0.6099660  -0.2132764), wk =   0.1481481
        k(   13) = (   0.3333333  -0.6099660   0.5138113), wk =   0.1481481
        k(   14) = (   0.3333333  -0.6099660  -0.9403640), wk =   0.1481481

                       cryst. coord.
        k(    1) = (   0.0000000   0.0000000   0.0000000), wk =   0.0740741
        k(    2) = (   0.0000000   0.0000000   0.3333333), wk =   0.1481481
        k(    3) = (   0.0000000   0.3333333  -0.0000000), wk =   0.1481481
        k(    4) = (   0.0000000   0.3333333   0.3333333), wk =   0.1481481
        k(    5) = (   0.0000000   0.3333333  -0.3333333), wk =   0.1481481
        k(    6) = (   0.3333333  -0.0000000  -0.0000000), wk =   0.1481481
        k(    7) = (   0.3333333  -0.0000000   0.3333333), wk =   0.1481481
        k(    8) = (   0.3333333  -0.0000000  -0.3333333), wk =   0.1481481
        k(    9) = (   0.3333333   0.3333333  -0.0000000), wk =   0.1481481
        k(   10) = (   0.3333333   0.3333333   0.3333333), wk =   0.1481481
        k(   11) = (   0.3333333   0.3333333  -0.3333333), wk =   0.1481481
        k(   12) = (   0.3333333  -0.3333333  -0.0000000), wk =   0.1481481
        k(   13) = (   0.3333333  -0.3333333   0.3333333), wk =   0.1481481
        k(   14) = (   0.3333333  -0.3333333  -0.3333333), wk =   0.1481481

     Check: negative core charge=   -0.000017

     Initial potential from superposition of free atoms

     starting charge      34.0985, renormalised to      36.0000

     negative rho (up, down):  1.384E-03 0.000E+00
     Starting wfcs are   32 randomized atomic wfcs +   32 random wfcs
     Checking if some PAW data can be deallocated...

     Self-consistent Calculation

     iteration #  1     ecut=    30.00 Ry     beta= 0.70
     Davidson diagonalization with overlap

     ethr =  1.00E-02,  avg # of iterations =  5.9

     negative rho (up, down):  2.027E-03 0.000E+00

     total energy              =    -273.29072650 Ry
     estimated scf accuracy    <       0.87643530 Ry

[...]

     total energy              =    -273.73151438 Ry
     estimated scf accuracy    <       0.00001875 Ry

     iteration # 10     ecut=    30.00 Ry     beta= 0.70
     Davidson diagonalization with overlap

     ethr =  5.21E-08,  avg # of iterations =  1.0

     negative rho (up, down):  1.234E-03 0.000E+00

     End of self-consistent calculation

          k = 0.0000 0.0000 0.0000 (  1009 PWs)   bands (ev):

   -49.5913 -35.9210 -35.8871 -25.8981 -25.8071 -25.6313 -10.4992  -9.4385
    -9.0880   2.5299   3.6731   3.7556   4.0424   4.9453   5.9628   6.6482
     6.6553   6.9359   9.5481   9.7126  10.2959  11.5468  12.9501  14.3013
    18.5653  18.7343  19.9577  21.9812  22.6209  22.7930  23.8134  25.5478
    26.9394  27.4934  28.0401  28.7675  28.7731  30.0902  30.0927  32.1415
    32.7825  33.4191  33.8675  36.0815  36.1095  36.5169  39.6157  40.5066
    41.6213  42.2409  43.2922  45.2487  45.9556  46.3021  46.7431  46.7718
    47.5648  48.1341  49.1632  50.9374  51.1516  51.9791  51.9860  52.9397

     occupation numbers
     1.0000   1.0000   1.0000   1.0000   1.0000   1.0000   1.0000   1.0000
     1.0000   1.0000   1.0000   1.0000   1.0000   1.0000   1.0000   1.0000
     1.0000   1.0000   0.0000   0.0000   0.0000   0.0000   0.0000   0.0000
     0.0000   0.0000   0.0000   0.0000   0.0000   0.0000   0.0000   0.0000
     0.0000   0.0000   0.0000   0.0000   0.0000   0.0000   0.0000   0.0000
     0.0000   0.0000   0.0000   0.0000   0.0000   0.0000   0.0000   0.0000
     0.0000   0.0000   0.0000   0.0000   0.0000   0.0000   0.0000   0.0000
     0.0000   0.0000   0.0000   0.0000   0.0000   0.0000   0.0000   0.0000

[...]

          k = 0.3333-0.6100-0.9404 (   997 PWs)   bands (ev):

   -49.5612 -35.9009 -35.8889 -25.9522 -25.8237 -25.7818  -9.6399  -9.6207
    -9.2399   3.0480   3.3012   3.7081   4.1547   5.3392   5.5508   5.6864
     5.8263   6.1679   9.3122   9.7421  10.4317  11.5632  12.3991  17.7257
    17.9905  19.6368  20.0613  21.8191  22.4309  22.7721  23.4390  23.6021
    23.9172  26.0411  26.9840  27.0552  28.1049  30.3147  33.4352  36.2217
    37.3451  37.4324  38.6641  38.6815  39.4060  39.7789  39.9671  40.2693
    41.4502  42.6828  42.7885  43.2105  44.5120  44.6502  46.0703  46.0871
    46.2246  46.5219  46.8835  47.7308  48.5660  50.0057  51.8722  51.9164

     occupation numbers
     1.0000   1.0000   1.0000   1.0000   1.0000   1.0000   1.0000   1.0000
     1.0000   1.0000   1.0000   1.0000   1.0000   1.0000   1.0000   1.0000
     1.0000   1.0000   0.0000   0.0000   0.0000   0.0000   0.0000   0.0000
     0.0000   0.0000   0.0000   0.0000   0.0000   0.0000   0.0000   0.0000
     0.0000   0.0000   0.0000   0.0000   0.0000   0.0000   0.0000   0.0000
     0.0000   0.0000   0.0000   0.0000   0.0000   0.0000   0.0000   0.0000
     0.0000   0.0000   0.0000   0.0000   0.0000   0.0000   0.0000   0.0000
     0.0000   0.0000   0.0000   0.0000   0.0000   0.0000   0.0000   0.0000

     highest occupied, lowest unoccupied level (ev):     6.9359    9.3122

!    total energy              =    -273.73151652 Ry
     estimated scf accuracy    <       0.00000020 Ry

     The total energy is the sum of the following terms:
     one-electron contribution =     -92.20000195 Ry
     hartree contribution      =      60.92573007 Ry
     xc contribution           =     -47.39885890 Ry
     ewald contribution        =    -166.50004620 Ry
     one-center paw contrib.   =     -28.55833954 Ry
      -> PAW hartree energy AE =       0.00000000 Ry
      -> PAW hartree energy PS =       0.00000000 Ry
      -> PAW xc energy AE      =       0.00000000 Ry
      -> PAW xc energy PS      =       0.00000000 Ry
      -> total E_H with PAW    =      60.92573007 Ry
      -> total E_XC with PAW   =     -47.39885890 Ry

     convergence has been achieved in  10 iterations

     Writing all to output data dir calculations_bands/myprefix.save/

     General routines

     Parallel routines

     PAW routines

   This run was terminated on:   1:20:39   6Jun2023

   JOB DONE.