     Program PWSCF v.7.0 starts on  4Jun2023 at 14: 7:29

     K-points division:     npool     =       2
     R & G space division:  proc/nbgrp/npool/nimage =       4

     Reading input from espresso_2160.pwi
Warning: card &CELL ignored
Warning: card / ignored

     Current dimensions of program PWSCF are:
     Max number of different atomic species (ntypx) = 10
     Max number of k-points (npk) =  40000
     Max angular momentum in pseudopotentials (lmaxx) =  4
     Message from routine setup:
     using ibrav=0 with symmetry is DISCOURAGED, use correct ibrav instead

     Using Slab Decomposition

     bravais-lattice index     =            0
     lattice parameter (alat)  =      12.0632  a.u.
     unit-cell volume          =    1755.4435 (a.u.)^3
     number of atoms/cell      =           12
     number of atomic types    =            3
     number of electrons       =       120.00
     number of Kohn-Sham states=           64
     kinetic-energy cutoff     =      30.0000  Ry
     charge density cutoff     =     240.0000  Ry
     scf convergence threshold =      1.0E-06
     mixing beta               =       0.7000
     number of iterations used =            8  plain     mixing
     Exchange-correlation= SLA  PW   PBE  PBE
                           (   1   4   3   4   0   0   0)

     celldm(1)=  12.063193  celldm(2)=   0.000000  celldm(3)=   0.000000
     celldm(4)=   0.000000  celldm(5)=   0.000000  celldm(6)=   0.000000

     crystal axes: (cart. coord. in units of alat)
               a(1) = (   1.000000   0.000000   0.000000 )
               a(2) = (   0.000000   1.000000   0.000000 )
               a(3) = (   0.000000   0.000000   1.000000 )

     reciprocal axes: (cart. coord. in units 2 pi/alat)
               b(1) = (  1.000000  0.000000  0.000000 )
               b(2) = (  0.000000  1.000000  0.000000 )
               b(3) = (  0.000000  0.000000  1.000000 )

     PseudoPot. # 1 for Sr read from file:
     /home/pragov/projects/rrg-bengioy-ad/pragov/crystal_structure_design/SSSP/Sr_pbe_v1.uspp.F.UPF
     MD5 check sum: 6b418c05fbe9db5448babca5e47b7a5b
     Pseudo is Ultrasoft + core correction, Zval = 10.0
     Generated by new atomic code, or converted to UPF format
     Using radial grid of  883 points,  6 beta functions with:
                l(1) =   0
                l(2) =   0
                l(3) =   1
                l(4) =   1
                l(5) =   2
                l(6) =   2
     Q(r) pseudized with  6 coefficients,  rinner =    1.400   1.400   1.400
                                                       1.400   1.400

     PseudoPot. # 2 for P  read from file:
     /home/pragov/projects/rrg-bengioy-ad/pragov/crystal_structure_design/SSSP/P.pbe-n-rrkjus_psl.1.0.0.UPF
     MD5 check sum: 8b930f418f0a4573dca56cd030ffe088
     Pseudo is Ultrasoft + core correction, Zval =  5.0
     Generated using "atomic" code by A. Dal Corso  v.5.1
     Using radial grid of 1147 points,  6 beta functions with:
                l(1) =   0
                l(2) =   0
                l(3) =   1
                l(4) =   1
                l(5) =   2
                l(6) =   2
     Q(r) pseudized with 0 coefficients

     PseudoPot. # 3 for Ir read from file:
     /home/pragov/projects/rrg-bengioy-ad/pragov/crystal_structure_design/SSSP/Ir_pbe_v1.2.uspp.F.UPF
     MD5 check sum: 8836f839c3459d2b385c504ce6d91f2c
     Pseudo is Ultrasoft + core correction, Zval = 15.0
     Generated by new atomic code, or converted to UPF format
     Using radial grid of  983 points,  7 beta functions with:
                l(1) =   0
                l(2) =   0
                l(3) =   1
                l(4) =   1
                l(5) =   1
                l(6) =   2
                l(7) =   2
     Q(r) pseudized with  8 coefficients,  rinner =    1.400   1.400   1.400
                                                       1.400   1.400

     atomic species   valence    mass     pseudopotential
        Sr            10.00    87.62000     Sr( 1.00)
        P              5.00    30.97376     P ( 1.00)
        Ir            15.00   192.21700     Ir( 1.00)

     12 Sym. Ops. (no inversion) found ( 9 have fractional translation)

                                    s                        frac. trans.

      isym =  1     identity

 cryst.   s( 1) = (     1          0          0      )
                  (     0          1          0      )
                  (     0          0          1      )

 cart.    s( 1) = (  1.0000000  0.0000000  0.0000000 )
                  (  0.0000000  1.0000000  0.0000000 )
                  (  0.0000000  0.0000000  1.0000000 )

      isym =  2     180 deg rotation - cart. axis [0,0,1]

 cryst.   s( 2) = (    -1          0          0      )    f =(  0.5000000 )
                  (     0         -1          0      )       (  0.0000000 )
                  (     0          0          1      )       (  0.5000000 )

 cart.    s( 2) = ( -1.0000000  0.0000000  0.0000000 )    f =(  0.5000000 )
                  (  0.0000000 -1.0000000  0.0000000 )       (  0.0000000 )
                  (  0.0000000  0.0000000  1.0000000 )       (  0.5000000 )

[...]

 cryst.   s( 8) = (     0          0          1      )    f =(  0.5000000 )
                  (    -1          0          0      )       (  0.0000000 )
                  (     0         -1          0      )       (  0.5000000 )

 cart.    s( 8) = (  0.0000000 -1.0000000  0.0000000 )    f =(  0.5000000 )
                  (  0.0000000  0.0000000 -1.0000000 )       (  0.0000000 )
                  (  1.0000000  0.0000000  0.0000000 )       (  0.5000000 )

[...]

 cryst.   s( 9) = (     0          1          0      )
                  (     0          0          1      )
                  (     1          0          0      )

 cart.    s( 9) = (  0.0000000  0.0000000  1.0000000 )
                  (  1.0000000  0.0000000  0.0000000 )
                  (  0.0000000  1.0000000  0.0000000 )

[...]

 cryst.   s(10) = (     0         -1          0      )    f =( -0.5000000 )
                  (     0          0         -1      )       (  0.5000000 )
                  (     1          0          0      )       (  0.0000000 )

 cart.    s(10) = (  0.0000000  0.0000000  1.0000000 )    f =( -0.5000000 )
                  ( -1.0000000  0.0000000  0.0000000 )       (  0.5000000 )
                  (  0.0000000 -1.0000000  0.0000000 )       (  0.0000000 )

[...]

      isym = 12     120 deg rotation - cart. axis [-1,-1,1]

 cryst.   s(12) = (     0          1          0      )    f =(  0.0000000 )
                  (     0          0         -1      )       ( -0.5000000 )
                  (    -1          0          0      )       (  0.5000000 )

 cart.    s(12) = (  0.0000000  0.0000000 -1.0000000 )    f =(  0.0000000 )
                  (  1.0000000  0.0000000  0.0000000 )       ( -0.5000000 )
                  (  0.0000000 -1.0000000  0.0000000 )       (  0.5000000 )

   Cartesian axes

     site n.     atom                  positions (alat units)
         1           Sr  tau(   1) = (   0.6189590   0.3810410   0.8810410  )
         2           Sr  tau(   2) = (   0.3810410   0.8810410   0.6189590  )
         3           Sr  tau(   3) = (   0.1189590   0.1189590   0.1189590  )
         4           Sr  tau(   4) = (   0.8810410   0.6189590   0.3810410  )
         5           P   tau(   5) = (   0.1613990   0.3386010   0.6613990  )
         6           P   tau(   6) = (   0.6613990   0.1613990   0.3386010  )
         7           P   tau(   7) = (   0.3386010   0.6613990   0.1613990  )
         8           P   tau(   8) = (   0.8386010   0.8386010   0.8386010  )
         9           Ir  tau(   9) = (   0.5916940   0.9083060   0.0916940  )
        10           Ir  tau(  10) = (   0.0916940   0.5916940   0.9083060  )
        11           Ir  tau(  11) = (   0.4083060   0.4083060   0.4083060  )
        12           Ir  tau(  12) = (   0.9083060   0.0916940   0.5916940  )

   Crystallographic axes

     site n.     atom                  positions (cryst. coord.)
         1           Sr  tau(   1) = (  0.6189590  0.3810410  0.8810410  )
         2           Sr  tau(   2) = (  0.3810410  0.8810410  0.6189590  )
         3           Sr  tau(   3) = (  0.1189590  0.1189590  0.1189590  )
         4           Sr  tau(   4) = (  0.8810410  0.6189590  0.3810410  )
         5           P   tau(   5) = (  0.1613990  0.3386010  0.6613990  )
         6           P   tau(   6) = (  0.6613990  0.1613990  0.3386010  )
         7           P   tau(   7) = (  0.3386010  0.6613990  0.1613990  )
         8           P   tau(   8) = (  0.8386010  0.8386010  0.8386010  )
         9           Ir  tau(   9) = (  0.5916940  0.9083060  0.0916940  )
        10           Ir  tau(  10) = (  0.0916940  0.5916940  0.9083060  )
        11           Ir  tau(  11) = (  0.4083060  0.4083060  0.4083060  )
        12           Ir  tau(  12) = (  0.9083060  0.0916940  0.5916940  )

     number of k points=     4
                       cart. coord. in units 2pi/alat
        k(    1) = (   0.0000000   0.0000000   0.0000000), wk =   0.0740741
        k(    2) = (   0.0000000   0.0000000   0.3333333), wk =   0.4444444
        k(    3) = (   0.0000000   0.3333333   0.3333333), wk =   0.8888889
        k(    4) = (   0.3333333   0.3333333   0.3333333), wk =   0.5925926

                       cryst. coord.
        k(    1) = (   0.0000000   0.0000000   0.0000000), wk =   0.0740741
        k(    2) = (   0.0000000   0.0000000   0.3333333), wk =   0.4444444
        k(    3) = (   0.0000000   0.3333333   0.3333333), wk =   0.8888889
        k(    4) = (   0.3333333   0.3333333   0.3333333), wk =   0.5925926

     Check: negative core charge=   -0.000003

     Initial potential from superposition of free atoms

     starting charge     117.8646, renormalised to     120.0000

     negative rho (up, down):  1.756E+00 0.000E+00
     Starting wfcs are  116 randomized atomic wfcs

     Self-consistent Calculation

     iteration #  1     ecut=    30.00 Ry     beta= 0.70
     Davidson diagonalization with overlap

     ethr =  1.00E-02,  avg # of iterations =  2.0

     negative rho (up, down):  1.462E+00 0.000E+00

     total energy              =   -1061.85330529 Ry
     estimated scf accuracy    <       5.15853586 Ry

[...]

     total energy              =   -1064.70655355 Ry
     estimated scf accuracy    <       0.00000385 Ry

     iteration # 11     ecut=    30.00 Ry     beta= 0.70
     Davidson diagonalization with overlap

     ethr =  2.50E-09,  avg # of iterations =  3.0

     negative rho (up, down):  1.554E+00 0.000E+00

     End of self-consistent calculation

          k = 0.0000 0.0000 0.0000 (  4945 PWs)   bands (ev):

   -36.7624 -36.7624 -36.7624 -36.7583 -36.7583 -36.7574 -36.7574 -36.7574
   -36.3141 -36.3141 -36.3141 -36.3119 -23.1605 -23.1272 -23.1272 -23.1272
    -5.3579  -5.3579  -5.3579  -5.3103  -5.3103  -5.3103  -5.1999  -5.1999
    -5.1271  -5.1271  -5.1271  -5.1088  -0.0264   1.1713   1.1713   1.1713
     6.0381   6.0381   6.0381   6.9279   6.9279   6.9279   7.6801   7.6801
     8.2208   8.2208   8.2208   9.2011   9.3272   9.3272   9.4811   9.4811
     9.4811   9.6450   9.7987   9.7987   9.7987  10.4531  10.4531  10.4531
    10.8733  10.8733  10.8733  11.7004  11.7004  12.7101  12.7101  12.7101

     occupation numbers
     1.0000   1.0000   1.0000   1.0000   1.0000   1.0000   1.0000   1.0000
     1.0000   1.0000   1.0000   1.0000   1.0000   1.0000   1.0000   1.0000
     1.0000   1.0000   1.0000   1.0000   1.0000   1.0000   1.0000   1.0000
     1.0000   1.0000   1.0000   1.0000   1.0000   1.0000   1.0000   1.0000
     1.0000   1.0000   1.0000   1.0000   1.0000   1.0000   1.0000   1.0000
     1.0000   1.0000   1.0000   1.0000   1.0000   1.0000   1.0000   1.0000
     1.0000   1.0000   1.0000   1.0000   1.0000   1.0000   1.0000   1.0000
     1.0000   1.0000   1.0000   1.0000   0.0000   0.0000   0.0000   0.0000

[...]

          k = 0.3333 0.3333 0.3333 (  4875 PWs)   bands (ev):

   -36.7628 -36.7623 -36.7609 -36.7602 -36.7573 -36.7573 -36.7571 -36.7568
   -36.3139 -36.3138 -36.3130 -36.3127 -23.1447 -23.1392 -23.1302 -23.1273
    -5.4368  -5.4169  -5.3544  -5.3279  -5.2921  -5.2428  -5.2142  -5.1639
    -5.1500  -5.1329  -5.1257  -5.0972   0.6031   0.8035   1.0491   1.1580
     6.2291   6.3084   6.7092   6.7253   6.9983   7.0510   7.2870   7.3417
     7.5567   7.7220   8.0604   8.3562   9.2943   9.3479   9.3568   9.4403
     9.4684   9.6534   9.7251   9.8366  10.2515  10.2569  10.3090  10.3206
    11.1683  11.5218  11.6333  12.0861  12.0991  12.7183  13.1596  13.3633

     occupation numbers
     1.0000   1.0000   1.0000   1.0000   1.0000   1.0000   1.0000   1.0000
     1.0000   1.0000   1.0000   1.0000   1.0000   1.0000   1.0000   1.0000
     1.0000   1.0000   1.0000   1.0000   1.0000   1.0000   1.0000   1.0000
     1.0000   1.0000   1.0000   1.0000   1.0000   1.0000   1.0000   1.0000
     1.0000   1.0000   1.0000   1.0000   1.0000   1.0000   1.0000   1.0000
     1.0000   1.0000   1.0000   1.0000   1.0000   1.0000   1.0000   1.0000
     1.0000   1.0000   1.0000   1.0000   1.0000   1.0000   1.0000   1.0000
     1.0000   1.0000   1.0000   1.0000   0.0000   0.0000   0.0000   0.0000

     highest occupied, lowest unoccupied level (ev):    12.0861   11.7004

!    total energy              =   -1064.70655430 Ry
     estimated scf accuracy    <       0.00000001 Ry

     The total energy is the sum of the following terms:
     one-electron contribution =    -269.50394483 Ry
     hartree contribution      =     194.54883803 Ry
     xc contribution           =    -292.81607447 Ry
     ewald contribution        =    -696.93537302 Ry

     convergence has been achieved in  11 iterations

     Writing all to output data dir calculations_bands/myprefix.save/

     General routines

     Parallel routines

   This run was terminated on:  14: 7:38   4Jun2023

   JOB DONE.