     Program PWSCF v.7.0 starts on  7Jun2023 at 10:28:48

     K-points division:     npool     =       2
     R & G space division:  proc/nbgrp/npool/nimage =       4

     Reading input from espresso_9866.pwi
Warning: card &CELL ignored
Warning: card / ignored

     Current dimensions of program PWSCF are:
     Max number of different atomic species (ntypx) = 10
     Max number of k-points (npk) =  40000
     Max angular momentum in pseudopotentials (lmaxx) =  4
     Message from routine setup:
     using ibrav=0 with symmetry is DISCOURAGED, use correct ibrav instead

     Using Slab Decomposition

     bravais-lattice index     =            0
     lattice parameter (alat)  =      12.6464  a.u.
     unit-cell volume          =    1651.4886 (a.u.)^3
     number of atoms/cell      =           10
     number of atomic types    =            2
     number of electrons       =        80.00
     number of Kohn-Sham states=           64
     kinetic-energy cutoff     =      30.0000  Ry
     charge density cutoff     =     240.0000  Ry
     scf convergence threshold =      1.0E-06
     mixing beta               =       0.7000
     number of iterations used =            8  plain     mixing
     Exchange-correlation= SLA  PW   PBE  PBE
                           (   1   4   3   4   0   0   0)

     celldm(1)=  12.646363  celldm(2)=   0.000000  celldm(3)=   0.000000
     celldm(4)=   0.000000  celldm(5)=   0.000000  celldm(6)=   0.000000

     crystal axes: (cart. coord. in units of alat)
               a(1) = (   1.000000   0.000000   0.000000 )
               a(2) = (  -0.488030   0.872827   0.000000 )
               a(3) = (   0.171456   0.292306   0.935515 )

     reciprocal axes: (cart. coord. in units 2 pi/alat)
               b(1) = (  1.000000  0.559138 -0.357980 )
               b(2) = (  0.000000  1.145703 -0.357980 )
               b(3) = (  0.000000  0.000000  1.068930 )

     PseudoPot. # 1 for Sc read from file:
     /home/pragov/projects/rrg-bengioy-ad/pragov/crystal_structure_design/SSSP/Sc_ONCV_PBE-1.0.oncvpsp.upf
     MD5 check sum: e21af8023abb52e52cb7cd3133e4a229
     Pseudo is Norm-conserving, Zval = 11.0
     Generated using ONCVPSP code by D. R. Hamann
     Using radial grid of 1662 points,  6 beta functions with:
                l(1) =   0
                l(2) =   0
                l(3) =   1
                l(4) =   1
                l(5) =   2
                l(6) =   2

     PseudoPot. # 2 for Se read from file:
     /home/pragov/projects/rrg-bengioy-ad/pragov/crystal_structure_design/SSSP/Se_pbe_v1.uspp.F.UPF
     MD5 check sum: 1b3568f3a8ae88f9a2a0ad0698632c85
     Pseudo is Ultrasoft + core correction, Zval =  6.0
     Generated by new atomic code, or converted to UPF format
     Using radial grid of  877 points,  6 beta functions with:
                l(1) =   0
                l(2) =   0
                l(3) =   1
                l(4) =   1
                l(5) =   2
                l(6) =   2
     Q(r) pseudized with  8 coefficients,  rinner =    1.300   1.300   1.300
                                                       1.300   1.300

     atomic species   valence    mass     pseudopotential
        Sc            11.00    44.95591     Sc( 1.00)
        Se             6.00    78.97100     Se( 1.00)

      2 Sym. Ops., with inversion, found

                                    s                        frac. trans.

      isym =  1     identity

 cryst.   s( 1) = (     1          0          0      )
                  (     0          1          0      )
                  (     0          0          1      )

 cart.    s( 1) = (  1.0000000 -0.0000000  0.0000000 )
                  (  0.0000000  1.0000000  0.0000000 )
                  (  0.0000000  0.0000000  1.0000000 )

      isym =  2     inversion

 cryst.   s( 2) = (    -1          0          0      )
                  (     0         -1          0      )
                  (     0          0         -1      )

 cart.    s( 2) = ( -1.0000000  0.0000000 -0.0000000 )
                  (  0.0000000 -1.0000000 -0.0000000 )
                  (  0.0000000  0.0000000 -1.0000000 )

   Cartesian axes

     site n.     atom                  positions (alat units)
         1           Sc  tau(   1) = (   0.9974565   0.2961488   0.7016360  )
         2           Sc  tau(   2) = (  -0.3140307   0.8689834   0.2338787  )
         3           Sc  tau(   3) = (   0.6664221   0.2938841   0.2338787  )
         4           Sc  tau(   4) = (   0.0170037   0.8712481   0.7016360  )
         5           Se  tau(   5) = (   0.3453569   0.8864778   0.4698482  )
         6           Se  tau(   6) = (   0.3380689   0.2786544   0.4656665  )
         7           Se  tau(   7) = (  -0.1582871   0.5825661   0.4677574  )
         8           Se  tau(   8) = (   0.1639572   0.5772202   0.9334238  )
         9           Se  tau(   9) = (   0.5194686   0.5879120   0.0020909  )
        10           Se  tau(  10) = (   0.5000000   0.0000000   0.0000000  )

   Crystallographic axes

     site n.     atom                  positions (cryst. coord.)
         1           Sc  tau(   1) = (  0.9118730  0.0881270  0.7500000  )
         2           Sc  tau(   2) = (  0.0881270  0.9118730  0.2500000  )
         3           Sc  tau(   3) = (  0.7470200  0.2529800  0.2500000  )
         4           Sc  tau(   4) = (  0.2529800  0.7470200  0.7500000  )
         5           Se  tau(   5) = (  0.6728240  0.8474440  0.5022350  )
         6           Se  tau(   6) = (  0.3271760  0.1525560  0.4977650  )
         7           Se  tau(   7) = ( -0.0000000  0.5000000  0.5000000  )
         8           Se  tau(   8) = (  0.1525560  0.3271760  0.9977650  )
         9           Se  tau(   9) = (  0.8474440  0.6728240  0.0022350  )
        10           Se  tau(  10) = (  0.5000000  0.0000000  0.0000000  )

     number of k points=    14
                       cart. coord. in units 2pi/alat
        k(    1) = (   0.0000000   0.0000000   0.0000000), wk =   0.0740741
        k(    2) = (   0.0000000   0.0000000   0.3563101), wk =   0.1481481
        k(    3) = (   0.0000000   0.3819010  -0.1193266), wk =   0.1481481
        k(    4) = (   0.0000000   0.3819010   0.2369835), wk =   0.1481481
        k(    5) = (   0.0000000   0.3819010  -0.4756367), wk =   0.1481481
        k(    6) = (   0.3333333   0.1863793  -0.1193266), wk =   0.1481481
        k(    7) = (   0.3333333   0.1863793   0.2369835), wk =   0.1481481
        k(    8) = (   0.3333333   0.1863793  -0.4756367), wk =   0.1481481
        k(    9) = (   0.3333333   0.5682803  -0.2386532), wk =   0.1481481
        k(   10) = (   0.3333333   0.5682803   0.1176569), wk =   0.1481481
        k(   11) = (   0.3333333   0.5682803  -0.5949633), wk =   0.1481481
        k(   12) = (   0.3333333  -0.1955217  -0.0000000), wk =   0.1481481
        k(   13) = (   0.3333333  -0.1955217   0.3563101), wk =   0.1481481
        k(   14) = (   0.3333333  -0.1955217  -0.3563101), wk =   0.1481481

                       cryst. coord.
        k(    1) = (   0.0000000   0.0000000   0.0000000), wk =   0.0740741
        k(    2) = (   0.0000000   0.0000000   0.3333333), wk =   0.1481481
        k(    3) = (   0.0000000   0.3333333   0.0000000), wk =   0.1481481
        k(    4) = (   0.0000000   0.3333333   0.3333333), wk =   0.1481481
        k(    5) = (   0.0000000   0.3333333  -0.3333333), wk =   0.1481481
        k(    6) = (   0.3333333  -0.0000000  -0.0000000), wk =   0.1481481
        k(    7) = (   0.3333333  -0.0000000   0.3333333), wk =   0.1481481
        k(    8) = (   0.3333333  -0.0000000  -0.3333333), wk =   0.1481481
        k(    9) = (   0.3333333   0.3333333   0.0000000), wk =   0.1481481
        k(   10) = (   0.3333333   0.3333333   0.3333333), wk =   0.1481481
        k(   11) = (   0.3333333   0.3333333  -0.3333333), wk =   0.1481481
        k(   12) = (   0.3333333  -0.3333333   0.0000000), wk =   0.1481481
        k(   13) = (   0.3333333  -0.3333333   0.3333333), wk =   0.1481481
        k(   14) = (   0.3333333  -0.3333333  -0.3333333), wk =   0.1481481

     Initial potential from superposition of free atoms

     starting charge      79.9890, renormalised to      80.0000
     Starting wfcs are   64 randomized atomic wfcs

     Self-consistent Calculation

     iteration #  1     ecut=    30.00 Ry     beta= 0.70
     Davidson diagonalization with overlap

     ethr =  1.00E-02,  avg # of iterations =  5.8

     Threshold (ethr) on eigenvalues was too large:
     Diagonalizing with lowered threshold

     Davidson diagonalization with overlap

[...]

     total energy              =    -630.07683181 Ry
     estimated scf accuracy    <       0.47140647 Ry

[...]

     total energy              =    -630.27716049 Ry
     estimated scf accuracy    <       0.00000127 Ry

     iteration #  9     ecut=    30.00 Ry     beta= 0.70
     Davidson diagonalization with overlap

     ethr =  1.58E-09,  avg # of iterations =  2.0

     End of self-consistent calculation

          k = 0.0000 0.0000 0.0000 (  4553 PWs)   bands (ev):

   -43.1930 -43.1904 -43.1760 -43.1740 -21.8039 -21.7948 -21.7915 -21.7833
   -21.7789 -21.7755 -21.7536 -21.7370 -21.7320 -21.7176 -21.7155 -21.7049
    -6.2400  -5.1740  -5.1552  -5.1276  -5.1252  -5.0944   2.1540   2.7326
     2.8705   3.4356   3.6126   3.6408   3.8419   3.9264   4.0268   4.2831
     4.3932   4.7423   4.8211   5.1917   6.0592   6.6171   6.6697   6.7421
     8.2759   8.3229   8.3670   8.8236   8.9786   9.0276   9.0608   9.1424
     9.2042   9.3020   9.5166   9.5236   9.5976   9.6244  10.1211  10.4177
    10.5048  10.8733  11.1967  11.6027  11.6888  11.9188  13.1092  13.3267

     occupation numbers
     1.0000   1.0000   1.0000   1.0000   1.0000   1.0000   1.0000   1.0000
     1.0000   1.0000   1.0000   1.0000   1.0000   1.0000   1.0000   1.0000
     1.0000   1.0000   1.0000   1.0000   1.0000   1.0000   1.0000   1.0000
     1.0000   1.0000   1.0000   1.0000   1.0000   1.0000   1.0000   1.0000
     1.0000   1.0000   1.0000   1.0000   1.0000   1.0000   1.0000   1.0000
     0.0000   0.0000   0.0000   0.0000   0.0000   0.0000   0.0000   0.0000
     0.0000   0.0000   0.0000   0.0000   0.0000   0.0000   0.0000   0.0000
     0.0000   0.0000   0.0000   0.0000   0.0000   0.0000   0.0000   0.0000

[...]

          k = 0.3333-0.1955-0.3563 (  4581 PWs)   bands (ev):

   -43.1920 -43.1910 -43.1758 -43.1747 -21.8025 -21.7979 -21.7906 -21.7844
   -21.7735 -21.7617 -21.7543 -21.7410 -21.7362 -21.7275 -21.7136 -21.7072
    -5.7983  -5.4068  -5.3139  -5.2105  -5.1761  -5.1531   2.5892   2.8500
     2.9840   3.1962   3.4247   4.0096   4.0923   4.1783   4.3876   4.5132
     4.6488   4.7060   4.9637   5.0404   5.3670   5.6302   5.7830   6.1557
     8.0923   8.3393   8.3713   8.8111   8.9094   9.0706   9.1692   9.2903
     9.4346   9.5377   9.6030   9.6565   9.7002   9.8396  10.0782  10.2348
    10.5724  10.7465  11.0778  11.2951  13.0332  13.2310  13.6098  13.7623

     occupation numbers
     1.0000   1.0000   1.0000   1.0000   1.0000   1.0000   1.0000   1.0000
     1.0000   1.0000   1.0000   1.0000   1.0000   1.0000   1.0000   1.0000
     1.0000   1.0000   1.0000   1.0000   1.0000   1.0000   1.0000   1.0000
     1.0000   1.0000   1.0000   1.0000   1.0000   1.0000   1.0000   1.0000
     1.0000   1.0000   1.0000   1.0000   1.0000   1.0000   1.0000   1.0000
     0.0000   0.0000   0.0000   0.0000   0.0000   0.0000   0.0000   0.0000
     0.0000   0.0000   0.0000   0.0000   0.0000   0.0000   0.0000   0.0000
     0.0000   0.0000   0.0000   0.0000   0.0000   0.0000   0.0000   0.0000

     highest occupied, lowest unoccupied level (ev):     6.7421    7.5866

!    total energy              =    -630.27716074 Ry
     estimated scf accuracy    <       0.00000014 Ry

     The total energy is the sum of the following terms:
     one-electron contribution =    -199.35665439 Ry
     hartree contribution      =     121.14627354 Ry
     xc contribution           =    -226.11866334 Ry
     ewald contribution        =    -325.94811655 Ry

     convergence has been achieved in   9 iterations

     Writing all to output data dir calculations_bands/myprefix.save/

     General routines

     Parallel routines

   This run was terminated on:  10:29: 5   7Jun2023

   JOB DONE.