     Program PWSCF v.7.0 starts on  5Jun2023 at  0: 4: 7

     K-points division:     npool     =       2
     R & G space division:  proc/nbgrp/npool/nimage =       4

     Reading input from espresso_8080.pwi
Warning: card &CELL ignored
Warning: card / ignored

     Current dimensions of program PWSCF are:
     Max number of different atomic species (ntypx) = 10
     Max number of k-points (npk) =  40000
     Max angular momentum in pseudopotentials (lmaxx) =  4
     Message from routine setup:
     using ibrav=0 with symmetry is DISCOURAGED, use correct ibrav instead

     Using Slab Decomposition

     bravais-lattice index     =            0
     lattice parameter (alat)  =      12.1330  a.u.
     unit-cell volume          =    1786.1093 (a.u.)^3
     number of atoms/cell      =           12
     number of atomic types    =            3
     number of electrons       =       128.00
     number of Kohn-Sham states=           64
     kinetic-energy cutoff     =      30.0000  Ry
     charge density cutoff     =     240.0000  Ry
     scf convergence threshold =      1.0E-06
     mixing beta               =       0.7000
     number of iterations used =            8  plain     mixing
     Exchange-correlation= PBE
                           (   1   4   3   4   0   0   0)

     celldm(1)=  12.133032  celldm(2)=   0.000000  celldm(3)=   0.000000
     celldm(4)=   0.000000  celldm(5)=   0.000000  celldm(6)=   0.000000

     crystal axes: (cart. coord. in units of alat)
               a(1) = (   1.000000   0.000000   0.000000 )
               a(2) = (   0.000000   1.000000   0.000000 )
               a(3) = (   0.000000   0.000000   1.000000 )

     reciprocal axes: (cart. coord. in units 2 pi/alat)
               b(1) = (  1.000000  0.000000  0.000000 )
               b(2) = (  0.000000  1.000000  0.000000 )
               b(3) = (  0.000000  0.000000  1.000000 )

     PseudoPot. # 1 for La read from file:
     /home/pragov/projects/rrg-bengioy-ad/pragov/crystal_structure_design/SSSP/La.GGA-PBE-paw-v1.0.UPF
     MD5 check sum: 436541e95c1ad8901025bd0b0ed42ae2
     Pseudo is Projector augmented-wave + core cor, Zval = 11.0
     Generated using ATOMPAW code
     Shape of augmentation charge: BESSEL
     Using radial grid of 1101 points,  8 beta functions with:
                l(1) =   0
                l(2) =   0
                l(3) =   1
                l(4) =   1
                l(5) =   2
                l(6) =   2
                l(7) =   3
                l(8) =   3
     Q(r) pseudized with 0 coefficients

     PseudoPot. # 2 for Si read from file:
     /home/pragov/projects/rrg-bengioy-ad/pragov/crystal_structure_design/SSSP/Si.pbe-n-rrkjus_psl.1.0.0.UPF
     MD5 check sum: 0b0bb1205258b0d07b9f9672cf965d36
     Pseudo is Ultrasoft + core correction, Zval =  4.0
     Generated using "atomic" code by A. Dal Corso  v.5.1
     Using radial grid of 1141 points,  6 beta functions with:
                l(1) =   0
                l(2) =   0
                l(3) =   1
                l(4) =   1
                l(5) =   2
                l(6) =   2
     Q(r) pseudized with 0 coefficients

     PseudoPot. # 3 for Rh read from file:
     /home/pragov/projects/rrg-bengioy-ad/pragov/crystal_structure_design/SSSP/Rh_ONCV_PBE-1.0.oncvpsp.upf
     MD5 check sum: ba07c69523b14cacd10683cd4c4284c1
     Pseudo is Norm-conserving, Zval = 17.0
     Generated using ONCVPSP code by D. R. Hamann
     Using radial grid of 1442 points,  6 beta functions with:
                l(1) =   0
                l(2) =   0
                l(3) =   1
                l(4) =   1
                l(5) =   2
                l(6) =   2

     atomic species   valence    mass     pseudopotential
        La            11.00   138.90547     La( 1.00)
        Si             4.00    28.08500     Si( 1.00)
        Rh            17.00   102.90550     Rh( 1.00)

     12 Sym. Ops. (no inversion) found ( 9 have fractional translation)

                                    s                        frac. trans.

      isym =  1     identity

 cryst.   s( 1) = (     1          0          0      )
                  (     0          1          0      )
                  (     0          0          1      )

 cart.    s( 1) = (  1.0000000  0.0000000  0.0000000 )
                  (  0.0000000  1.0000000  0.0000000 )
                  (  0.0000000  0.0000000  1.0000000 )

      isym =  2     180 deg rotation - cart. axis [0,0,1]

 cryst.   s( 2) = (    -1          0          0      )    f =(  0.5000000 )
                  (     0         -1          0      )       ( -0.0000000 )
                  (     0          0          1      )       (  0.5000000 )

 cart.    s( 2) = ( -1.0000000  0.0000000  0.0000000 )    f =(  0.5000000 )
                  (  0.0000000 -1.0000000  0.0000000 )       ( -0.0000000 )
                  (  0.0000000  0.0000000  1.0000000 )       (  0.5000000 )

[...]

 cryst.   s( 8) = (     0          0          1      )    f =(  0.5000000 )
                  (    -1          0          0      )       ( -0.0000000 )
                  (     0         -1          0      )       (  0.5000000 )

 cart.    s( 8) = (  0.0000000 -1.0000000  0.0000000 )    f =(  0.5000000 )
                  (  0.0000000  0.0000000 -1.0000000 )       ( -0.0000000 )
                  (  1.0000000  0.0000000  0.0000000 )       (  0.5000000 )

[...]

 cryst.   s( 9) = (     0          1          0      )
                  (     0          0          1      )
                  (     1          0          0      )

 cart.    s( 9) = (  0.0000000  0.0000000  1.0000000 )
                  (  1.0000000  0.0000000  0.0000000 )
                  (  0.0000000  1.0000000  0.0000000 )

[...]

 cryst.   s(10) = (     0         -1          0      )    f =( -0.5000000 )
                  (     0          0         -1      )       (  0.5000000 )
                  (     1          0          0      )       (  0.0000000 )

 cart.    s(10) = (  0.0000000  0.0000000  1.0000000 )    f =( -0.5000000 )
                  ( -1.0000000  0.0000000  0.0000000 )       (  0.5000000 )
                  (  0.0000000 -1.0000000  0.0000000 )       (  0.0000000 )

[...]

      isym = 12     120 deg rotation - cart. axis [-1,-1,1]

 cryst.   s(12) = (     0          1          0      )    f =(  0.0000000 )
                  (     0          0         -1      )       (  0.5000000 )
                  (    -1          0          0      )       (  0.5000000 )

 cart.    s(12) = (  0.0000000  0.0000000 -1.0000000 )    f =(  0.0000000 )
                  (  1.0000000  0.0000000  0.0000000 )       (  0.5000000 )
                  (  0.0000000 -1.0000000  0.0000000 )       (  0.5000000 )

   Cartesian axes

     site n.     atom                  positions (alat units)
         1           La  tau(   1) = (   0.3664500   0.8664500   0.6335500  )
         2           La  tau(   2) = (   0.8664500   0.6335500   0.3664500  )
         3           La  tau(   3) = (   0.6335500   0.3664500   0.8664500  )
         4           La  tau(   4) = (   0.1335500   0.1335500   0.1335500  )
         5           Si  tau(   5) = (   0.6615810   0.1615810   0.3384190  )
         6           Si  tau(   6) = (   0.1615810   0.3384190   0.6615810  )
         7           Si  tau(   7) = (   0.3384190   0.6615810   0.1615810  )
         8           Si  tau(   8) = (   0.8384190   0.8384190   0.8384190  )
         9           Rh  tau(   9) = (   0.0770120   0.5770120   0.9229880  )
        10           Rh  tau(  10) = (   0.5770120   0.9229880   0.0770120  )
        11           Rh  tau(  11) = (   0.9229880   0.0770120   0.5770120  )
        12           Rh  tau(  12) = (   0.4229880   0.4229880   0.4229880  )

   Crystallographic axes

     site n.     atom                  positions (cryst. coord.)
         1           La  tau(   1) = (  0.3664500  0.8664500  0.6335500  )
         2           La  tau(   2) = (  0.8664500  0.6335500  0.3664500  )
         3           La  tau(   3) = (  0.6335500  0.3664500  0.8664500  )
         4           La  tau(   4) = (  0.1335500  0.1335500  0.1335500  )
         5           Si  tau(   5) = (  0.6615810  0.1615810  0.3384190  )
         6           Si  tau(   6) = (  0.1615810  0.3384190  0.6615810  )
         7           Si  tau(   7) = (  0.3384190  0.6615810  0.1615810  )
         8           Si  tau(   8) = (  0.8384190  0.8384190  0.8384190  )
         9           Rh  tau(   9) = (  0.0770120  0.5770120  0.9229880  )
        10           Rh  tau(  10) = (  0.5770120  0.9229880  0.0770120  )
        11           Rh  tau(  11) = (  0.9229880  0.0770120  0.5770120  )
        12           Rh  tau(  12) = (  0.4229880  0.4229880  0.4229880  )

     number of k points=     4
                       cart. coord. in units 2pi/alat
        k(    1) = (   0.0000000   0.0000000   0.0000000), wk =   0.0740741
        k(    2) = (   0.0000000   0.0000000   0.3333333), wk =   0.4444444
        k(    3) = (   0.0000000   0.3333333   0.3333333), wk =   0.8888889
        k(    4) = (   0.3333333   0.3333333   0.3333333), wk =   0.5925926

                       cryst. coord.
        k(    1) = (   0.0000000   0.0000000   0.0000000), wk =   0.0740741
        k(    2) = (   0.0000000   0.0000000   0.3333333), wk =   0.4444444
        k(    3) = (   0.0000000   0.3333333   0.3333333), wk =   0.8888889
        k(    4) = (   0.3333333   0.3333333   0.3333333), wk =   0.5925926

     Initial potential from superposition of free atoms

     starting charge     127.9619, renormalised to     128.0000
     Starting wfcs are  184 randomized atomic wfcs
     Checking if some PAW data can be deallocated...

     Self-consistent Calculation

     iteration #  1     ecut=    30.00 Ry     beta= 0.70
     Davidson diagonalization with overlap

     ethr =  1.00E-02,  avg # of iterations =  2.0

     total energy              =   -2745.18105134 Ry
     estimated scf accuracy    <       2.57578374 Ry

[...]

     negative rho (up, down):  1.003E-04 0.000E+00

[...]

     negative rho (up, down):  3.502E-04 0.000E+00

[...]

     c_bands:  1 eigenvalues not converged
     c_bands:  2 eigenvalues not converged
     ethr =  9.57E-10,  avg # of iterations = 17.8

[...]

     total energy              =   -2747.12649492 Ry
     estimated scf accuracy    <       0.00000193 Ry

     iteration # 35     ecut=    30.00 Ry     beta= 0.70
     Davidson diagonalization with overlap

     ethr =  8.82E-10,  avg # of iterations = 10.0

     End of self-consistent calculation

          k = 0.0000 0.0000 0.0000 (  4945 PWs)   bands (ev):

   -65.2180 -65.2178 -65.2178 -65.2178 -33.2081 -33.2081 -33.2081 -33.2055
   -33.2055 -33.2050 -33.2050 -33.2050 -32.9540 -32.9540 -32.9540 -32.9525
   -19.6912 -19.6151 -19.6151 -19.6151  -3.6092  -3.6092  -3.6092  -3.5334
    -3.5334  -3.5334  -3.3245  -3.3245  -3.1938  -3.1938  -3.1938  -3.1761
     4.1708   5.5235   5.5235   5.5235   8.8556   8.8556   8.8556   9.2857
     9.2857   9.2857   9.8935   9.8935  10.1500  10.1500  10.1500  10.4553
    10.4553  10.4553  10.5820  10.5820  10.6736  10.9927  10.9927  10.9927
    11.4297  11.6705  11.6705  11.6705  12.5339  12.5339  12.5339  12.8248

     occupation numbers
     1.0000   1.0000   1.0000   1.0000   1.0000   1.0000   1.0000   1.0000
     1.0000   1.0000   1.0000   1.0000   1.0000   1.0000   1.0000   1.0000
     1.0000   1.0000   1.0000   1.0000   1.0000   1.0000   1.0000   1.0000
     1.0000   1.0000   1.0000   1.0000   1.0000   1.0000   1.0000   1.0000
     1.0000   1.0000   1.0000   1.0000   1.0000   1.0000   1.0000   1.0000
     1.0000   1.0000   1.0000   1.0000   1.0000   1.0000   1.0000   1.0000
     1.0000   1.0000   1.0000   1.0000   1.0000   1.0000   1.0000   1.0000
     1.0000   1.0000   1.0000   1.0000   1.0000   1.0000   1.0000   1.0000

[...]

          k = 0.3333 0.3333 0.3333 (  4941 PWs)   bands (ev):

   -65.2179 -65.2179 -65.2178 -65.2178 -33.2085 -33.2082 -33.2073 -33.2069
   -33.2050 -33.2049 -33.2048 -33.2045 -32.9540 -32.9540 -32.9533 -32.9532
   -19.6552 -19.6427 -19.6221 -19.6156  -3.7264  -3.6953  -3.5997  -3.5515
    -3.5026  -3.4134  -3.3628  -3.2578  -3.2479  -3.1994  -3.1914  -3.1391
     5.0225   5.2504   5.4388   5.5544   8.9577   9.0317   9.1599   9.1901
     9.2032   9.2542   9.5171   9.5898   9.6740   9.7370   9.9688  10.3202
    10.4983  10.5223  10.5793  10.6159  10.7539  10.8473  10.9424  10.9834
    11.2529  11.2656  11.6344  11.6877  12.4050  12.7358  12.8376  13.1166

     occupation numbers
     1.0000   1.0000   1.0000   1.0000   1.0000   1.0000   1.0000   1.0000
     1.0000   1.0000   1.0000   1.0000   1.0000   1.0000   1.0000   1.0000
     1.0000   1.0000   1.0000   1.0000   1.0000   1.0000   1.0000   1.0000
     1.0000   1.0000   1.0000   1.0000   1.0000   1.0000   1.0000   1.0000
     1.0000   1.0000   1.0000   1.0000   1.0000   1.0000   1.0000   1.0000
     1.0000   1.0000   1.0000   1.0000   1.0000   1.0000   1.0000   1.0000
     1.0000   1.0000   1.0000   1.0000   1.0000   1.0000   1.0000   1.0000
     1.0000   1.0000   1.0000   1.0000   1.0000   1.0000   1.0000   1.0000

     highest occupied level (ev):    13.1166

!    total energy              =   -2747.12649516 Ry
     estimated scf accuracy    <       0.00000065 Ry

     The total energy is the sum of the following terms:
     one-electron contribution =    -475.18384652 Ry
     hartree contribution      =     297.65020348 Ry
     xc contribution           =    -147.84522777 Ry
     ewald contribution        =    -829.39539974 Ry
     one-center paw contrib.   =   -1592.35222461 Ry
      -> PAW hartree energy AE =      69.77660252 Ry
      -> PAW hartree energy PS =     -69.86225343 Ry
      -> PAW xc energy AE      =    -810.67778029 Ry
      -> PAW xc energy PS      =      14.58731890 Ry
      -> total E_H with PAW    =     297.56455256 Ry
      -> total E_XC with PAW   =    -943.93568916 Ry

     convergence has been achieved in  35 iterations

     Writing all to output data dir calculations_bands/myprefix.save/

     General routines

     Parallel routines

     PAW routines

   This run was terminated on:   0: 9:43   5Jun2023

   JOB DONE.