     Program PWSCF v.7.0 starts on  7Jun2023 at  5:42:18

     K-points division:     npool     =       2
     R & G space division:  proc/nbgrp/npool/nimage =       4

     Reading input from espresso_25049.pwi
Warning: card &CELL ignored
Warning: card / ignored

     Current dimensions of program PWSCF are:
     Max number of different atomic species (ntypx) = 10
     Max number of k-points (npk) =  40000
     Max angular momentum in pseudopotentials (lmaxx) =  4
     file O.pbe-n-kjpaw_psl.0.1.UPF: wavefunction(s)  2P renormalized
     Message from routine setup:
     using ibrav=0 with symmetry is DISCOURAGED, use correct ibrav instead

     Using Slab Decomposition

     bravais-lattice index     =            0
     lattice parameter (alat)  =      12.3324  a.u.
     unit-cell volume          =     964.0631 (a.u.)^3
     number of atoms/cell      =           14
     number of atomic types    =            3
     number of electrons       =        64.00
     number of Kohn-Sham states=           64
     kinetic-energy cutoff     =      30.0000  Ry
     charge density cutoff     =     240.0000  Ry
     scf convergence threshold =      1.0E-06
     mixing beta               =       0.7000
     number of iterations used =            8  plain     mixing
     Exchange-correlation= SLA  PW   PBX  PBC
                           (   1   4   3   4   0   0   0)

     celldm(1)=  12.332414  celldm(2)=   0.000000  celldm(3)=   0.000000
     celldm(4)=   0.000000  celldm(5)=   0.000000  celldm(6)=   0.000000

     crystal axes: (cart. coord. in units of alat)
               a(1) = (   1.000000   0.000000   0.000000 )
               a(2) = (  -0.500000   0.866025   0.000000 )
               a(3) = (   0.000000   0.000000   0.593513 )

     reciprocal axes: (cart. coord. in units 2 pi/alat)
               b(1) = (  1.000000  0.577350  0.000000 )
               b(2) = (  0.000000  1.154701  0.000000 )
               b(3) = (  0.000000  0.000000  1.684882 )

     PseudoPot. # 1 for La read from file:
     /home/pragov/projects/rrg-bengioy-ad/pragov/crystal_structure_design/SSSP/La.GGA-PBE-paw-v1.0.UPF
     MD5 check sum: 436541e95c1ad8901025bd0b0ed42ae2
     Pseudo is Projector augmented-wave + core cor, Zval = 11.0
     Generated using ATOMPAW code
     Shape of augmentation charge: BESSEL
     Using radial grid of 1101 points,  8 beta functions with:
                l(1) =   0
                l(2) =   0
                l(3) =   1
                l(4) =   1
                l(5) =   2
                l(6) =   2
                l(7) =   3
                l(8) =   3
     Q(r) pseudized with 0 coefficients

     PseudoPot. # 2 for H  read from file:
     /home/pragov/projects/rrg-bengioy-ad/pragov/crystal_structure_design/SSSP/H.pbe-rrkjus_psl.1.0.0.UPF
     MD5 check sum: f52b6d4d1c606e5624b1dc7b2218f220
     Pseudo is Ultrasoft, Zval =  1.0
     Generated using "atomic" code by A. Dal Corso  v.5.1
     Using radial grid of  929 points,  2 beta functions with:
                l(1) =   0
                l(2) =   0
     Q(r) pseudized with 0 coefficients

     PseudoPot. # 3 for O  read from file:
     /home/pragov/projects/rrg-bengioy-ad/pragov/crystal_structure_design/SSSP/O.pbe-n-kjpaw_psl.0.1.UPF
     MD5 check sum: 0234752ac141de4415c5fc33072bef88
     Pseudo is Projector augmented-wave + core cor, Zval =  6.0
     Generated using "atomic" code by A. Dal Corso  v.5.0.99 svn rev. 10869
     Shape of augmentation charge: BESSEL
     Using radial grid of 1095 points,  4 beta functions with:
                l(1) =   0
                l(2) =   0
                l(3) =   1
                l(4) =   1
     Q(r) pseudized with 0 coefficients

     atomic species   valence    mass     pseudopotential
        La            11.00   138.90547     La( 1.00)
        H              1.00     1.00800     H ( 1.00)
        O              6.00    15.99900     O ( 1.00)

      6 Sym. Ops. (no inversion) found ( 3 have fractional translation)

                                    s                        frac. trans.

      isym =  1     identity

 cryst.   s( 1) = (     1          0          0      )
                  (     0          1          0      )
                  (     0          0          1      )

 cart.    s( 1) = (  1.0000000 -0.0000000  0.0000000 )
                  (  0.0000000  1.0000000  0.0000000 )
                  (  0.0000000  0.0000000  1.0000000 )

      isym =  2     180 deg rotation - cart. axis [0,0,1]

 cryst.   s( 2) = (    -1          0          0      )    f =( -0.0000000 )
                  (     0         -1          0      )       ( -0.0000000 )
                  (     0          0          1      )       ( -0.5000000 )

 cart.    s( 2) = ( -1.0000000  0.0000000  0.0000000 )    f =( -0.0000000 )
                  (  0.0000000 -1.0000000  0.0000000 )       ( -0.0000000 )
                  (  0.0000000  0.0000000  1.0000000 )       ( -0.2967567 )

      isym =  3      60 deg rotation - cryst. axis [0,0,1]

[...]

 cryst.   s( 4) = (     0         -1          0      )    f =( -0.0000000 )
                  (     1          1          0      )       ( -0.0000010 )
                  (     0          0          1      )       ( -0.5000000 )

 cart.    s( 4) = (  0.5000001  0.8660254  0.0000000 )    f =(  0.0000005 )
                  ( -0.8660254  0.4999999  0.0000000 )       ( -0.0000009 )
                  (  0.0000000  0.0000000  1.0000000 )       ( -0.2967567 )

[...]

      isym =  6     120 deg rotation - cryst. axis [0,0,-1]

 cryst.   s( 6) = (    -1         -1          0      )
                  (     1          0          0      )
                  (     0          0          1      )

 cart.    s( 6) = ( -0.4999999  0.8660254  0.0000000 )
                  ( -0.8660254 -0.5000001  0.0000000 )
                  (  0.0000000  0.0000000  1.0000000 )

   Cartesian axes

     site n.     atom                  positions (alat units)
         1           La  tau(   1) = (  -0.0000005   0.5773505   0.1834473  )
         2           La  tau(   2) = (   0.5000005   0.2886748   0.4802040  )
         3           H   tau(   3) = (   0.5101280   0.6276657   0.2203389  )
         4           H   tau(   4) = (   0.7885095   0.1104087   0.2203389  )
         5           H   tau(   5) = (   0.2013610   0.1279518   0.2203389  )
         6           H   tau(   6) = (  -0.0101280   0.2383596   0.5170956  )
         7           H   tau(   7) = (  -0.2885096   0.7556167   0.5170956  )
         8           H   tau(   8) = (   0.2986389   0.7380736   0.5170956  )
         9           O   tau(   9) = (   0.6146630   0.5325242   0.1702808  )
        10           O   tau(  10) = (   0.6538470   0.0674495   0.1702808  )
        11           O   tau(  11) = (   0.2314885   0.2660525   0.1702808  )
        12           O   tau(  12) = (  -0.1146630   0.3335012   0.4670375  )
        13           O   tau(  13) = (  -0.1538471   0.7985758   0.4670375  )
        14           O   tau(  14) = (   0.2685115   0.5999728   0.4670375  )

   Crystallographic axes

     site n.     atom                  positions (cryst. coord.)
         1           La  tau(   1) = (  0.3333330  0.6666670  0.3090870  )
         2           La  tau(   2) = (  0.6666670  0.3333330  0.8090870  )
         3           H   tau(   3) = (  0.8725110  0.7247660  0.3712450  )
         4           H   tau(   4) = (  0.8522540  0.1274890  0.3712450  )
         5           H   tau(   5) = (  0.2752340  0.1477460  0.3712450  )
         6           H   tau(   6) = (  0.1274890  0.2752340  0.8712450  )
         7           H   tau(   7) = (  0.1477460  0.8725110  0.8712450  )
         8           H   tau(   8) = (  0.7247660  0.8522540  0.8712450  )
         9           O   tau(   9) = (  0.9221160  0.6149060  0.2869030  )
        10           O   tau(  10) = (  0.6927890  0.0778840  0.2869030  )
        11           O   tau(  11) = (  0.3850940  0.3072110  0.2869030  )
        12           O   tau(  12) = (  0.0778840  0.3850940  0.7869030  )
        13           O   tau(  13) = (  0.3072110  0.9221160  0.7869030  )
        14           O   tau(  14) = (  0.6149060  0.6927890  0.7869030  )

     number of k points=     6
                       cart. coord. in units 2pi/alat
        k(    1) = (   0.0000000   0.0000000   0.0000000), wk =   0.0740741
        k(    2) = (   0.0000000   0.0000000   0.5616273), wk =   0.1481481
        k(    3) = (   0.0000000   0.3849002   0.0000000), wk =   0.4444444
        k(    4) = (   0.0000000   0.3849002   0.5616273), wk =   0.8888889
        k(    5) = (   0.3333333   0.5773503   0.0000000), wk =   0.1481481
        k(    6) = (   0.3333333   0.5773503   0.5616273), wk =   0.2962963

                       cryst. coord.
        k(    1) = (   0.0000000   0.0000000   0.0000000), wk =   0.0740741
        k(    2) = (   0.0000000   0.0000000   0.3333333), wk =   0.1481481
        k(    3) = (   0.0000000   0.3333333   0.0000000), wk =   0.4444444
        k(    4) = (   0.0000000   0.3333333   0.3333333), wk =   0.8888889
        k(    5) = (   0.3333333   0.3333333   0.0000000), wk =   0.1481481
        k(    6) = (   0.3333333   0.3333333   0.3333333), wk =   0.2962963

     Check: negative core charge=   -0.000012

     Initial potential from superposition of free atoms

     starting charge      63.9829, renormalised to      64.0000
     Starting wfcs are   94 randomized atomic wfcs
     Checking if some PAW data can be deallocated...

     Self-consistent Calculation

     iteration #  1     ecut=    30.00 Ry     beta= 0.70
     Davidson diagonalization with overlap

     ethr =  1.00E-02,  avg # of iterations =  4.5

     total energy              =   -1173.12356089 Ry
     estimated scf accuracy    <       2.32913165 Ry

[...]

     total energy              =   -1174.17988576 Ry
     estimated scf accuracy    <       0.00000140 Ry

     iteration #  8     ecut=    30.00 Ry     beta= 0.70
     Davidson diagonalization with overlap

     ethr =  2.19E-09,  avg # of iterations =  3.8

     End of self-consistent calculation

          k = 0.0000 0.0000 0.0000 (  2725 PWs)   bands (ev):

   -24.1137 -24.0244 -12.3334 -12.1844 -12.1843 -12.1323 -12.1322 -11.6042
    -7.6492  -7.4771  -7.4771  -7.4658  -7.4045  -7.4044   0.2653   0.7326
     0.7326   1.0839   1.0840   1.1670   3.1873   3.6339   3.9979   3.9980
     4.0829   4.0830   4.2739   4.6348   4.6349   5.1496   5.1497   5.6445
     9.6653  10.6192  10.8099  10.8100  10.8702  10.8956  10.8956  10.9304
    10.9314  11.0083  11.0083  11.0231  11.0531  11.0531  11.0911  11.7086
    11.8694  11.8694  12.5608  12.5608  13.3107  14.1587  14.1587  14.2638
    14.2638  15.6346  15.7430  15.8754  15.8754  17.5697  17.5697  17.8394

     occupation numbers
     1.0000   1.0000   1.0000   1.0000   1.0000   1.0000   1.0000   1.0000
     1.0000   1.0000   1.0000   1.0000   1.0000   1.0000   1.0000   1.0000
     1.0000   1.0000   1.0000   1.0000   1.0000   1.0000   1.0000   1.0000
     1.0000   1.0000   1.0000   1.0000   1.0000   1.0000   1.0000   1.0000
     0.0000   0.0000   0.0000   0.0000   0.0000   0.0000   0.0000   0.0000
     0.0000   0.0000   0.0000   0.0000   0.0000   0.0000   0.0000   0.0000
     0.0000   0.0000   0.0000   0.0000   0.0000   0.0000   0.0000   0.0000
     0.0000   0.0000   0.0000   0.0000   0.0000   0.0000   0.0000   0.0000

[...]

          k = 0.3333 0.5774 0.5616 (  2679 PWs)   bands (ev):

   -24.0203 -24.0201 -12.4261 -12.3870 -12.3389 -11.8800 -11.8348 -11.8076
    -7.8048  -7.7949  -7.7770  -7.4805  -7.3475  -7.3464   0.3271   0.3440
     0.5583   0.6960   1.3384   1.3668   3.4735   3.8422   4.0022   4.0141
     4.0696   4.2057   4.6000   4.6394   4.6590   5.0982   5.2113   5.3596
    10.6905  10.7072  10.7256  10.7715  10.7866  10.8421  10.8791  10.8841
    10.9330  10.9758  11.0001  11.0232  11.0270  11.0309  11.2177  12.7600
    12.8461  12.8831  13.3430  13.5127  13.5239  13.8277  13.9569  14.2266
    14.2396  14.6673  14.9141  15.1570  16.2704  16.9958  18.7835  19.3672

     occupation numbers
     1.0000   1.0000   1.0000   1.0000   1.0000   1.0000   1.0000   1.0000
     1.0000   1.0000   1.0000   1.0000   1.0000   1.0000   1.0000   1.0000
     1.0000   1.0000   1.0000   1.0000   1.0000   1.0000   1.0000   1.0000
     1.0000   1.0000   1.0000   1.0000   1.0000   1.0000   1.0000   1.0000
     0.0000   0.0000   0.0000   0.0000   0.0000   0.0000   0.0000   0.0000
     0.0000   0.0000   0.0000   0.0000   0.0000   0.0000   0.0000   0.0000
     0.0000   0.0000   0.0000   0.0000   0.0000   0.0000   0.0000   0.0000
     0.0000   0.0000   0.0000   0.0000   0.0000   0.0000   0.0000   0.0000

     highest occupied, lowest unoccupied level (ev):     5.6445    9.6653

!    total energy              =   -1174.17988615 Ry
     estimated scf accuracy    <       0.00000005 Ry

     The total energy is the sum of the following terms:
     one-electron contribution =     -90.00462948 Ry
     hartree contribution      =      83.07853196 Ry
     xc contribution           =     -66.73781450 Ry
     ewald contribution        =    -247.24034638 Ry
     one-center paw contrib.   =    -853.27562775 Ry
      -> PAW hartree energy AE =      68.88525721 Ry
      -> PAW hartree energy PS =     -68.99382196 Ry
      -> PAW xc energy AE      =    -810.56407900 Ry
      -> PAW xc energy PS      =      14.49983807 Ry
      -> total E_H with PAW    =      82.96996722 Ry
      -> total E_XC with PAW   =    -862.80205543 Ry

     convergence has been achieved in   8 iterations

     Writing all to output data dir calculations_bands/myprefix.save/

     General routines

     Parallel routines

     PAW routines

   This run was terminated on:   5:42:41   7Jun2023

   JOB DONE.