     Program PWSCF v.7.0 starts on  7Jun2023 at  0:56:23

     K-points division:     npool     =       2
     R & G space division:  proc/nbgrp/npool/nimage =       4

     Reading input from espresso_1041.pwi
Warning: card &CELL ignored
Warning: card / ignored

     Current dimensions of program PWSCF are:
     Max number of different atomic species (ntypx) = 10
     Max number of k-points (npk) =  40000
     Max angular momentum in pseudopotentials (lmaxx) =  4
     file O.pbe-n-kjpaw_psl.0.1.UPF: wavefunction(s)  2P renormalized
     Message from routine setup:
     using ibrav=0 with symmetry is DISCOURAGED, use correct ibrav instead

     Using Slab Decomposition

     bravais-lattice index     =            0
     lattice parameter (alat)  =       7.2999  a.u.
     unit-cell volume          =     768.0557 (a.u.)^3
     number of atoms/cell      =            8
     number of atomic types    =            3
     number of electrons       =        52.00
     number of Kohn-Sham states=           64
     kinetic-energy cutoff     =      30.0000  Ry
     charge density cutoff     =     240.0000  Ry
     scf convergence threshold =      1.0E-06
     mixing beta               =       0.7000
     number of iterations used =            8  plain     mixing
     Exchange-correlation= SLA  PW   PBX  PBC
                           (   1   4   3   4   0   0   0)

     celldm(1)=   7.299899  celldm(2)=   0.000000  celldm(3)=   0.000000
     celldm(4)=   0.000000  celldm(5)=   0.000000  celldm(6)=   0.000000

     crystal axes: (cart. coord. in units of alat)
               a(1) = (   1.000000   0.000000   0.000000 )
               a(2) = (   0.013341   1.377064   0.000000 )
               a(3) = (   0.086761   0.004335   1.433799 )

     reciprocal axes: (cart. coord. in units 2 pi/alat)
               b(1) = (  1.000000 -0.009688 -0.060482 )
               b(2) = (  0.000000  0.726183 -0.002195 )
               b(3) = (  0.000000  0.000000  0.697448 )

     PseudoPot. # 1 for Na read from file:
     /home/pragov/projects/rrg-bengioy-ad/pragov/crystal_structure_design/SSSP/na_pbe_v1.5.uspp.F.UPF
     MD5 check sum: 44600605ef58000f06b90626533354dc
     Pseudo is Ultrasoft, Zval =  9.0
     Generated by new atomic code, or converted to UPF format
     Using radial grid of  819 points,  5 beta functions with:
                l(1) =   0
                l(2) =   0
                l(3) =   1
                l(4) =   1
                l(5) =   2
     Q(r) pseudized with  8 coefficients,  rinner =    1.250   1.250   1.250
                                                       1.250   1.250

     PseudoPot. # 2 for N  read from file:
     /home/pragov/projects/rrg-bengioy-ad/pragov/crystal_structure_design/SSSP/N.pbe-n-radius_5.UPF
     MD5 check sum: 16739722b17309cd8fe442a2ace49922
     Pseudo is Ultrasoft + core correction, Zval =  5.0
     Generated using "atomic" code by A. Dal Corso  v.5.1
     Using radial grid of 1085 points,  4 beta functions with:
                l(1) =   0
                l(2) =   0
                l(3) =   1
                l(4) =   1
     Q(r) pseudized with 0 coefficients

     PseudoPot. # 3 for O  read from file:
     /home/pragov/projects/rrg-bengioy-ad/pragov/crystal_structure_design/SSSP/O.pbe-n-kjpaw_psl.0.1.UPF
     MD5 check sum: 0234752ac141de4415c5fc33072bef88
     Pseudo is Projector augmented-wave + core cor, Zval =  6.0
     Generated using "atomic" code by A. Dal Corso  v.5.0.99 svn rev. 10869
     Shape of augmentation charge: BESSEL
     Using radial grid of 1095 points,  4 beta functions with:
                l(1) =   0
                l(2) =   0
                l(3) =   1
                l(4) =   1
     Q(r) pseudized with 0 coefficients

     atomic species   valence    mass     pseudopotential
        Na             9.00    22.98977     Na( 1.00)
        N              5.00    14.00700     N ( 1.00)
        O              6.00    15.99900     O ( 1.00)

      2 Sym. Ops., with inversion, found

                                    s                        frac. trans.

      isym =  1     identity

 cryst.   s( 1) = (     1          0          0      )
                  (     0          1          0      )
                  (     0          0          1      )

 cart.    s( 1) = (  1.0000000 -0.0000000 -0.0000000 )
                  (  0.0000000  1.0000000  0.0000000 )
                  (  0.0000000  0.0000000  1.0000000 )

      isym =  2     inversion

 cryst.   s( 2) = (    -1          0          0      )
                  (     0         -1          0      )
                  (     0          0         -1      )

 cart.    s( 2) = ( -1.0000000  0.0000000  0.0000000 )
                  (  0.0000000 -1.0000000 -0.0000000 )
                  (  0.0000000  0.0000000 -1.0000000 )

   Cartesian axes

     site n.     atom                  positions (alat units)
         1           Na  tau(   1) = (   0.7699745   1.0340616   0.2982560  )
         2           Na  tau(   2) = (   0.3301283   0.3473368   1.1355429  )
         3           N   tau(   3) = (   0.8118205   1.0441260   0.9457925  )
         4           N   tau(   4) = (   0.2882823   0.3372723   0.4880063  )
         5           O   tau(   5) = (   0.2577855   0.0798598   0.2845933  )
         6           O   tau(   6) = (   0.2736415   0.6313933   0.3416270  )
         7           O   tau(   7) = (   0.8423172   1.3015386   1.1492056  )
         8           O   tau(   8) = (   0.8264613   0.7500050   1.0921719  )

   Crystallographic axes

     site n.     atom                  positions (cryst. coord.)
         1           Na  tau(   1) = (  0.7419170  0.7502630  0.2080180  )
         2           Na  tau(   2) = (  0.2580830  0.2497370  0.7919820  )
         3           N   tau(   3) = (  0.7445010  0.7561500  0.6596410  )
         4           N   tau(   4) = (  0.2554990  0.2438500  0.3403590  )
         5           O   tau(   5) = (  0.2397990  0.0573680  0.1984890  )
         6           O   tau(   6) = (  0.2468620  0.4577570  0.2382670  )
         7           O   tau(   7) = (  0.7602010  0.9426320  0.8015110  )
         8           O   tau(   8) = (  0.7531380  0.5422430  0.7617330  )

     number of k points=    14
                       cart. coord. in units 2pi/alat
        k(    1) = (   0.0000000   0.0000000   0.0000000), wk =   0.0740741
        k(    2) = (   0.0000000   0.0000000   0.2324826), wk =   0.1481481
        k(    3) = (   0.0000000   0.2420610  -0.0007318), wk =   0.1481481
        k(    4) = (   0.0000000   0.2420610   0.2317508), wk =   0.1481481
        k(    5) = (   0.0000000   0.2420610  -0.2332145), wk =   0.1481481
        k(    6) = (   0.3333333  -0.0032294  -0.0201608), wk =   0.1481481
        k(    7) = (   0.3333333  -0.0032294   0.2123219), wk =   0.1481481
        k(    8) = (   0.3333333  -0.0032294  -0.2526434), wk =   0.1481481
        k(    9) = (   0.3333333   0.2388315  -0.0208926), wk =   0.1481481
        k(   10) = (   0.3333333   0.2388315   0.2115901), wk =   0.1481481
        k(   11) = (   0.3333333   0.2388315  -0.2533752), wk =   0.1481481
        k(   12) = (   0.3333333  -0.2452904  -0.0194289), wk =   0.1481481
        k(   13) = (   0.3333333  -0.2452904   0.2130537), wk =   0.1481481
        k(   14) = (   0.3333333  -0.2452904  -0.2519116), wk =   0.1481481

                       cryst. coord.
        k(    1) = (   0.0000000   0.0000000   0.0000000), wk =   0.0740741
        k(    2) = (   0.0000000   0.0000000   0.3333333), wk =   0.1481481
        k(    3) = (   0.0000000   0.3333333  -0.0000000), wk =   0.1481481
        k(    4) = (   0.0000000   0.3333333   0.3333333), wk =   0.1481481
        k(    5) = (   0.0000000   0.3333333  -0.3333333), wk =   0.1481481
        k(    6) = (   0.3333333   0.0000000  -0.0000000), wk =   0.1481481
        k(    7) = (   0.3333333   0.0000000   0.3333333), wk =   0.1481481
        k(    8) = (   0.3333333   0.0000000  -0.3333333), wk =   0.1481481
        k(    9) = (   0.3333333   0.3333333  -0.0000000), wk =   0.1481481
        k(   10) = (   0.3333333   0.3333333   0.3333333), wk =   0.1481481
        k(   11) = (   0.3333333   0.3333333  -0.3333333), wk =   0.1481481
        k(   12) = (   0.3333333  -0.3333333  -0.0000000), wk =   0.1481481
        k(   13) = (   0.3333333  -0.3333333   0.3333333), wk =   0.1481481
        k(   14) = (   0.3333333  -0.3333333  -0.3333333), wk =   0.1481481

     Check: negative core charge=   -0.000012

     Initial potential from superposition of free atoms

     starting charge      51.9874, renormalised to      52.0000
     Starting wfcs are   34 randomized atomic wfcs +   30 random wfcs
     Checking if some PAW data can be deallocated...

     Self-consistent Calculation

     iteration #  1     ecut=    30.00 Ry     beta= 0.70
     Davidson diagonalization with overlap

     ethr =  1.00E-02,  avg # of iterations =  6.4

     total energy              =    -397.10881190 Ry
     estimated scf accuracy    <       0.74113092 Ry

[...]

     total energy              =    -397.39480358 Ry
     estimated scf accuracy    <       0.00004846 Ry

     iteration #  7     ecut=    30.00 Ry     beta= 0.70
     Davidson diagonalization with overlap

     ethr =  9.32E-08,  avg # of iterations =  6.4

     End of self-consistent calculation

          k = 0.0000 0.0000 0.0000 (  2143 PWs)   bands (ev):

   -48.1185 -48.1174 -22.3626 -22.2882 -20.0865 -20.0551 -20.0266 -20.0225
   -20.0173 -20.0069 -17.9782 -17.8928  -8.6139  -8.3371  -5.1314  -4.6980
    -4.6773  -4.5345  -4.2484  -4.0131  -0.5596  -0.1357   0.5596   0.8966
     1.0299   1.4358   4.3753   4.5598   7.6134   9.3804   9.6207  10.2044
    10.8885  12.8355  13.3864  13.5422  14.0978  15.1701  15.2253  15.3522
    15.5831  15.8158  16.1901  17.1047  18.6113  19.3793  19.5286  19.8250
    20.3143  20.4287  21.0994  21.7964  23.4669  23.6387  23.8076  24.3071
    24.5943  24.6288  24.7521  25.1583  25.5129  26.8848  27.4468  28.0920

     occupation numbers
     1.0000   1.0000   1.0000   1.0000   1.0000   1.0000   1.0000   1.0000
     1.0000   1.0000   1.0000   1.0000   1.0000   1.0000   1.0000   1.0000
     1.0000   1.0000   1.0000   1.0000   1.0000   1.0000   1.0000   1.0000
     1.0000   1.0000   0.0000   0.0000   0.0000   0.0000   0.0000   0.0000
     0.0000   0.0000   0.0000   0.0000   0.0000   0.0000   0.0000   0.0000
     0.0000   0.0000   0.0000   0.0000   0.0000   0.0000   0.0000   0.0000
     0.0000   0.0000   0.0000   0.0000   0.0000   0.0000   0.0000   0.0000
     0.0000   0.0000   0.0000   0.0000   0.0000   0.0000   0.0000   0.0000

[...]

          k = 0.3333-0.2453-0.2519 (  2127 PWs)   bands (ev):

   -48.1176 -48.1171 -22.3204 -22.3134 -20.0610 -20.0499 -20.0450 -20.0376
   -19.9972 -19.9941 -17.9654 -17.9452  -8.4028  -8.2188  -5.2195  -5.0636
    -4.6722  -4.6133  -4.2439  -4.0780  -0.6817  -0.5564   0.3830   0.5400
     1.3744   1.6416   4.2295   4.4058   9.4066   9.7405  10.0477  10.9600
    11.8976  12.3785  12.8339  12.9600  13.6827  14.2702  15.0438  15.4334
    15.8823  16.0756  17.2105  17.4883  18.4862  18.6768  19.4127  20.0848
    20.2022  20.6053  21.3312  21.4741  22.5423  22.8950  23.1483  23.6838
    24.2183  24.7053  25.2179  25.6977  26.1629  27.1402  27.3767  27.7805

     occupation numbers
     1.0000   1.0000   1.0000   1.0000   1.0000   1.0000   1.0000   1.0000
     1.0000   1.0000   1.0000   1.0000   1.0000   1.0000   1.0000   1.0000
     1.0000   1.0000   1.0000   1.0000   1.0000   1.0000   1.0000   1.0000
     1.0000   1.0000   0.0000   0.0000   0.0000   0.0000   0.0000   0.0000
     0.0000   0.0000   0.0000   0.0000   0.0000   0.0000   0.0000   0.0000
     0.0000   0.0000   0.0000   0.0000   0.0000   0.0000   0.0000   0.0000
     0.0000   0.0000   0.0000   0.0000   0.0000   0.0000   0.0000   0.0000
     0.0000   0.0000   0.0000   0.0000   0.0000   0.0000   0.0000   0.0000

     highest occupied, lowest unoccupied level (ev):     1.7941    4.0457

!    total energy              =    -397.39481300 Ry
     estimated scf accuracy    <       0.00000066 Ry

     The total energy is the sum of the following terms:
     one-electron contribution =    -244.32808661 Ry
     hartree contribution      =     141.24536442 Ry
     xc contribution           =     -68.96161001 Ry
     ewald contribution        =    -187.22606832 Ry
     one-center paw contrib.   =     -38.12441250 Ry
      -> PAW hartree energy AE =       0.00000000 Ry
      -> PAW hartree energy PS =       0.00000000 Ry
      -> PAW xc energy AE      =       0.00000000 Ry
      -> PAW xc energy PS      =       0.00000000 Ry
      -> total E_H with PAW    =     141.24536442 Ry
      -> total E_XC with PAW   =     -68.96161001 Ry

     convergence has been achieved in   7 iterations

     Writing all to output data dir calculations_bands/myprefix.save/

     General routines

     Parallel routines

     PAW routines

   This run was terminated on:   0:56:30   7Jun2023

   JOB DONE.