     Program PWSCF v.7.0 starts on  6Jun2023 at  2:32:51

     K-points division:     npool     =       2
     R & G space division:  proc/nbgrp/npool/nimage =       4

     Reading input from espresso_13238.pwi
Warning: card &CELL ignored
Warning: card / ignored

     Current dimensions of program PWSCF are:
     Max number of different atomic species (ntypx) = 10
     Max number of k-points (npk) =  40000
     Max angular momentum in pseudopotentials (lmaxx) =  4
     file Ba.pbe-spn-kjpaw_psl.1.0.0.UPF: wavefunction(s)  5S 6S renormalized
     Message from routine setup:
     using ibrav=0 with symmetry is DISCOURAGED, use correct ibrav instead

     Using Slab Decomposition

     bravais-lattice index     =            0
     lattice parameter (alat)  =      13.0370  a.u.
     unit-cell volume          =    2215.7871 (a.u.)^3
     number of atoms/cell      =           12
     number of atomic types    =            3
     number of electrons       =       112.00
     number of Kohn-Sham states=           64
     kinetic-energy cutoff     =      30.0000  Ry
     charge density cutoff     =     240.0000  Ry
     scf convergence threshold =      1.0E-06
     mixing beta               =       0.7000
     number of iterations used =            8  plain     mixing
     Exchange-correlation=  SLA  PW   PBX  PBC
                           (   1   4   3   4   0   0   0)

     celldm(1)=  13.036950  celldm(2)=   0.000000  celldm(3)=   0.000000
     celldm(4)=   0.000000  celldm(5)=   0.000000  celldm(6)=   0.000000

     crystal axes: (cart. coord. in units of alat)
               a(1) = (   1.000000   0.000000   0.000000 )
               a(2) = (   0.000000   1.000000   0.000000 )
               a(3) = (   0.000000   0.000000   1.000000 )

     reciprocal axes: (cart. coord. in units 2 pi/alat)
               b(1) = (  1.000000  0.000000  0.000000 )
               b(2) = (  0.000000  1.000000  0.000000 )
               b(3) = (  0.000000  0.000000  1.000000 )

     PseudoPot. # 1 for Ba read from file:
     /home/pragov/projects/rrg-bengioy-ad/pragov/crystal_structure_design/SSSP/Ba.pbe-spn-kjpaw_psl.1.0.0.UPF
     MD5 check sum: c432291d3e53af55f19d5e8866385beb
     Pseudo is Projector augmented-wave + core cor, Zval = 10.0
     Generated using "atomic" code by A. Dal Corso  v.5.1
     Shape of augmentation charge: PSQ
     Using radial grid of 1251 points,  7 beta functions with:
                l(1) =   0
                l(2) =   0
                l(3) =   0
                l(4) =   1
                l(5) =   1
                l(6) =   2
                l(7) =   2
     Q(r) pseudized with 0 coefficients

     PseudoPot. # 2 for Si read from file:
     /home/pragov/projects/rrg-bengioy-ad/pragov/crystal_structure_design/SSSP/Si.pbe-n-rrkjus_psl.1.0.0.UPF
     MD5 check sum: 0b0bb1205258b0d07b9f9672cf965d36
     Pseudo is Ultrasoft + core correction, Zval =  4.0
     Generated using "atomic" code by A. Dal Corso  v.5.1
     Using radial grid of 1141 points,  6 beta functions with:
                l(1) =   0
                l(2) =   0
                l(3) =   1
                l(4) =   1
                l(5) =   2
                l(6) =   2
     Q(r) pseudized with 0 coefficients

     PseudoPot. # 3 for Ge read from file:
     /home/pragov/projects/rrg-bengioy-ad/pragov/crystal_structure_design/SSSP/ge_pbe_v1.4.uspp.F.UPF
     MD5 check sum: 9c9eaa91e581c3f09632fb3098b2c6b2
     Pseudo is Ultrasoft + core correction, Zval = 14.0
     Generated by new atomic code, or converted to UPF format
     Using radial grid of  873 points,  6 beta functions with:
                l(1) =   0
                l(2) =   0
                l(3) =   1
                l(4) =   1
                l(5) =   2
                l(6) =   2
     Q(r) pseudized with  8 coefficients,  rinner =    1.400   1.400   1.400
                                                       1.400   1.400

     atomic species   valence    mass     pseudopotential
        Ba            10.00   137.32700     Ba( 1.00)
        Si             4.00    28.08500     Si( 1.00)
        Ge            14.00    72.63000     Ge( 1.00)

     12 Sym. Ops. (no inversion) found ( 9 have fractional translation)

                                    s                        frac. trans.

      isym =  1     identity

 cryst.   s( 1) = (     1          0          0      )
                  (     0          1          0      )
                  (     0          0          1      )

 cart.    s( 1) = (  1.0000000  0.0000000  0.0000000 )
                  (  0.0000000  1.0000000  0.0000000 )
                  (  0.0000000  0.0000000  1.0000000 )

      isym =  2     180 deg rotation - cart. axis [0,0,1]

 cryst.   s( 2) = (    -1          0          0      )    f =(  0.5000000 )
                  (     0         -1          0      )       (  0.0000000 )
                  (     0          0          1      )       (  0.5000000 )

 cart.    s( 2) = ( -1.0000000  0.0000000  0.0000000 )    f =(  0.5000000 )
                  (  0.0000000 -1.0000000  0.0000000 )       (  0.0000000 )
                  (  0.0000000  0.0000000  1.0000000 )       (  0.5000000 )

[...]

 cryst.   s( 8) = (     0          0          1      )    f =(  0.5000000 )
                  (    -1          0          0      )       (  0.0000000 )
                  (     0         -1          0      )       (  0.5000000 )

 cart.    s( 8) = (  0.0000000 -1.0000000  0.0000000 )    f =(  0.5000000 )
                  (  0.0000000  0.0000000 -1.0000000 )       (  0.0000000 )
                  (  1.0000000  0.0000000  0.0000000 )       (  0.5000000 )

[...]

 cryst.   s( 9) = (     0          1          0      )
                  (     0          0          1      )
                  (     1          0          0      )

 cart.    s( 9) = (  0.0000000  0.0000000  1.0000000 )
                  (  1.0000000  0.0000000  0.0000000 )
                  (  0.0000000  1.0000000  0.0000000 )

[...]

 cryst.   s(10) = (     0         -1          0      )    f =( -0.5000000 )
                  (     0          0         -1      )       (  0.5000000 )
                  (     1          0          0      )       ( -0.0000000 )

 cart.    s(10) = (  0.0000000  0.0000000  1.0000000 )    f =( -0.5000000 )
                  ( -1.0000000  0.0000000  0.0000000 )       (  0.5000000 )
                  (  0.0000000 -1.0000000  0.0000000 )       ( -0.0000000 )

[...]

      isym = 12     120 deg rotation - cart. axis [-1,-1,1]

 cryst.   s(12) = (     0          1          0      )    f =( -0.0000000 )
                  (     0          0         -1      )       (  0.5000000 )
                  (    -1          0          0      )       (  0.5000000 )

 cart.    s(12) = (  0.0000000  0.0000000 -1.0000000 )    f =( -0.0000000 )
                  (  1.0000000  0.0000000  0.0000000 )       (  0.5000000 )
                  (  0.0000000 -1.0000000  0.0000000 )       (  0.5000000 )

   Cartesian axes

     site n.     atom                  positions (alat units)
         1           Ba  tau(   1) = (   0.3738970   0.8738970   0.6261030  )
         2           Ba  tau(   2) = (   0.6261030   0.3738970   0.8738970  )
         3           Ba  tau(   3) = (   0.8738970   0.6261030   0.3738970  )
         4           Ba  tau(   4) = (   0.1261030   0.1261030   0.1261030  )
         5           Si  tau(   5) = (   0.0772360   0.5772360   0.9227640  )
         6           Si  tau(   6) = (   0.5772360   0.9227640   0.0772360  )
         7           Si  tau(   7) = (   0.9227640   0.0772360   0.5772360  )
         8           Si  tau(   8) = (   0.4227640   0.4227640   0.4227640  )
         9           Ge  tau(   9) = (   0.6719980   0.1719980   0.3280020  )
        10           Ge  tau(  10) = (   0.3280020   0.6719980   0.1719980  )
        11           Ge  tau(  11) = (   0.1719980   0.3280020   0.6719980  )
        12           Ge  tau(  12) = (   0.8280020   0.8280020   0.8280020  )

   Crystallographic axes

     site n.     atom                  positions (cryst. coord.)
         1           Ba  tau(   1) = (  0.3738970  0.8738970  0.6261030  )
         2           Ba  tau(   2) = (  0.6261030  0.3738970  0.8738970  )
         3           Ba  tau(   3) = (  0.8738970  0.6261030  0.3738970  )
         4           Ba  tau(   4) = (  0.1261030  0.1261030  0.1261030  )
         5           Si  tau(   5) = (  0.0772360  0.5772360  0.9227640  )
         6           Si  tau(   6) = (  0.5772360  0.9227640  0.0772360  )
         7           Si  tau(   7) = (  0.9227640  0.0772360  0.5772360  )
         8           Si  tau(   8) = (  0.4227640  0.4227640  0.4227640  )
         9           Ge  tau(   9) = (  0.6719980  0.1719980  0.3280020  )
        10           Ge  tau(  10) = (  0.3280020  0.6719980  0.1719980  )
        11           Ge  tau(  11) = (  0.1719980  0.3280020  0.6719980  )
        12           Ge  tau(  12) = (  0.8280020  0.8280020  0.8280020  )

     number of k points=     4
                       cart. coord. in units 2pi/alat
        k(    1) = (   0.0000000   0.0000000   0.0000000), wk =   0.0740741
        k(    2) = (   0.0000000   0.0000000   0.3333333), wk =   0.4444444
        k(    3) = (   0.0000000   0.3333333   0.3333333), wk =   0.8888889
        k(    4) = (   0.3333333   0.3333333   0.3333333), wk =   0.5925926

                       cryst. coord.
        k(    1) = (   0.0000000   0.0000000   0.0000000), wk =   0.0740741
        k(    2) = (   0.0000000   0.0000000   0.3333333), wk =   0.4444444
        k(    3) = (   0.0000000   0.3333333   0.3333333), wk =   0.8888889
        k(    4) = (   0.3333333   0.3333333   0.3333333), wk =   0.5925926

     Initial potential from superposition of free atoms

     starting charge     111.9263, renormalised to     112.0000
     Starting wfcs are   72 randomized atomic wfcs
     Checking if some PAW data can be deallocated...

     Self-consistent Calculation

     iteration #  1     ecut=    30.00 Ry     beta= 0.70
     Davidson diagonalization with overlap

     ethr =  1.00E-02,  avg # of iterations =  6.0

     Threshold (ethr) on eigenvalues was too large:
     Diagonalizing with lowered threshold

     Davidson diagonalization with overlap

[...]

     total energy              =   -2645.26300692 Ry
     estimated scf accuracy    <       0.17447682 Ry

[...]

     total energy              =   -2645.29913662 Ry
     estimated scf accuracy    <       0.00000156 Ry

     iteration #  8     ecut=    30.00 Ry     beta= 0.70
     Davidson diagonalization with overlap

     ethr =  1.40E-09,  avg # of iterations =  3.8

     End of self-consistent calculation

          k = 0.0000 0.0000 0.0000 (  6187 PWs)   bands (ev):

   -19.3186 -19.2600 -19.2600 -19.2600 -15.6254 -15.6254 -15.6254 -15.6238
   -15.6238 -15.6230 -15.6230 -15.6230 -15.5741 -15.5741 -15.5741 -15.5740
   -15.5740 -15.5736 -15.5736 -15.5736 -15.5680 -15.5676 -15.5676 -15.5676
    -4.7647  -4.7647  -4.7647  -4.7282  -4.7282  -4.7282  -4.4984  -4.4984
    -4.4096  -4.4096  -4.4096  -4.3861  -1.9339  -0.2560  -0.2560  -0.2560
     1.7909   1.7909   1.7909   5.5461   5.5461   5.5461   5.5520   5.5520
     6.4152   6.7207   7.1615   7.1615   7.1615   8.3553   8.3553   8.3553
     9.4002   9.4002   9.4002  10.7891  10.7891  10.7891  10.9827  11.1811

     occupation numbers
     1.0000   1.0000   1.0000   1.0000   1.0000   1.0000   1.0000   1.0000
     1.0000   1.0000   1.0000   1.0000   1.0000   1.0000   1.0000   1.0000
     1.0000   1.0000   1.0000   1.0000   1.0000   1.0000   1.0000   1.0000
     1.0000   1.0000   1.0000   1.0000   1.0000   1.0000   1.0000   1.0000
     1.0000   1.0000   1.0000   1.0000   1.0000   1.0000   1.0000   1.0000
     1.0000   1.0000   1.0000   1.0000   1.0000   1.0000   1.0000   1.0000
     1.0000   1.0000   1.0000   1.0000   1.0000   1.0000   1.0000   1.0000
     0.0000   0.0000   0.0000   0.0000   0.0000   0.0000   0.0000   0.0000

[...]

          k = 0.3333 0.3333 0.3333 (  6169 PWs)   bands (ev):

   -19.2912 -19.2816 -19.2652 -19.2601 -15.6254 -15.6251 -15.6250 -15.6243
   -15.6239 -15.6236 -15.6221 -15.6218 -15.5748 -15.5747 -15.5743 -15.5735
   -15.5731 -15.5729 -15.5728 -15.5713 -15.5690 -15.5679 -15.5667 -15.5665
    -4.9536  -4.9207  -4.7957  -4.7588  -4.6813  -4.6159  -4.5459  -4.4528
    -4.4368  -4.3905  -4.3838  -4.3366  -1.0644  -0.7870  -0.4338  -0.1988
     1.6598   1.9934   3.0074   3.4289   5.2964   5.6651   5.6940   6.0735
     6.5328   6.8803   7.1638   7.2159   7.2890   7.5372   8.2160   8.3098
     9.2210   9.7815   9.8034   9.8756   9.9543  10.0935  10.5421  10.6137

     occupation numbers
     1.0000   1.0000   1.0000   1.0000   1.0000   1.0000   1.0000   1.0000
     1.0000   1.0000   1.0000   1.0000   1.0000   1.0000   1.0000   1.0000
     1.0000   1.0000   1.0000   1.0000   1.0000   1.0000   1.0000   1.0000
     1.0000   1.0000   1.0000   1.0000   1.0000   1.0000   1.0000   1.0000
     1.0000   1.0000   1.0000   1.0000   1.0000   1.0000   1.0000   1.0000
     1.0000   1.0000   1.0000   1.0000   1.0000   1.0000   1.0000   1.0000
     1.0000   1.0000   1.0000   1.0000   1.0000   1.0000   1.0000   1.0000
     0.0000   0.0000   0.0000   0.0000   0.0000   0.0000   0.0000   0.0000

     highest occupied, lowest unoccupied level (ev):     8.9828    9.1618

!    total energy              =   -2645.29913695 Ry
     estimated scf accuracy    <       0.00000033 Ry

     The total energy is the sum of the following terms:
     one-electron contribution =    -619.61356333 Ry
     hartree contribution      =     389.27739457 Ry
     xc contribution           =    -338.71452768 Ry
     ewald contribution        =    -576.43130969 Ry
     one-center paw contrib.   =   -1499.81713083 Ry
      -> PAW hartree energy AE =      57.55499054 Ry
      -> PAW hartree energy PS =     -57.33977644 Ry
      -> PAW xc energy AE      =    -788.46555917 Ry
      -> PAW xc energy PS      =      38.34177965 Ry
      -> total E_H with PAW    =     389.49260868 Ry
      -> total E_XC with PAW   =   -1088.83830720 Ry

     convergence has been achieved in   8 iterations

     Writing all to output data dir calculations_bands/myprefix.save/

     General routines

     Parallel routines

     PAW routines

   This run was terminated on:   2:33: 2   6Jun2023

   JOB DONE.