     Program PWSCF v.7.0 starts on  5Jun2023 at 22:18:57

     K-points division:     npool     =       2
     R & G space division:  proc/nbgrp/npool/nimage =       4

     Reading input from espresso_12089.pwi
Warning: card &CELL ignored
Warning: card / ignored

     Current dimensions of program PWSCF are:
     Max number of different atomic species (ntypx) = 10
     Max number of k-points (npk) =  40000
     Max angular momentum in pseudopotentials (lmaxx) =  4
     Message from routine setup:
     using ibrav=0 with symmetry is DISCOURAGED, use correct ibrav instead

     Using Slab Decomposition

     bravais-lattice index     =            0
     lattice parameter (alat)  =       5.3904  a.u.
     unit-cell volume          =    1070.6482 (a.u.)^3
     number of atoms/cell      =           14
     number of atomic types    =            3
     number of electrons       =       126.00
     number of Kohn-Sham states=           64
     kinetic-energy cutoff     =      30.0000  Ry
     charge density cutoff     =     240.0000  Ry
     scf convergence threshold =      1.0E-06
     mixing beta               =       0.7000
     number of iterations used =            8  plain     mixing
     Exchange-correlation= PBE
                           (   1   4   3   4   0   0   0)

     celldm(1)=   5.390361  celldm(2)=   0.000000  celldm(3)=   0.000000
     celldm(4)=   0.000000  celldm(5)=   0.000000  celldm(6)=   0.000000

     crystal axes: (cart. coord. in units of alat)
               a(1) = (   1.000000   0.000000   0.000000 )
               a(2) = (   0.000000   2.035959   0.000000 )
               a(3) = (   0.000000   0.000000   3.357564 )

     reciprocal axes: (cart. coord. in units 2 pi/alat)
               b(1) = (  1.000000  0.000000  0.000000 )
               b(2) = (  0.000000  0.491169  0.000000 )
               b(3) = (  0.000000  0.000000  0.297835 )

     PseudoPot. # 1 for Li read from file:
     /home/pragov/projects/rrg-bengioy-ad/pragov/crystal_structure_design/SSSP/li_pbe_v1.4.uspp.F.UPF
     MD5 check sum: e912e257baa3777c20ea3d68f190483c
     Pseudo is Ultrasoft, Zval =  3.0
     Generated by new atomic code, or converted to UPF format
     Using radial grid of  751 points,  5 beta functions with:
                l(1) =   0
                l(2) =   0
                l(3) =   0
                l(4) =   1
                l(5) =   1
     Q(r) pseudized with 10 coefficients,  rinner =    1.150   1.150   1.150

     PseudoPot. # 2 for B  read from file:
     /home/pragov/projects/rrg-bengioy-ad/pragov/crystal_structure_design/SSSP/b_pbe_v1.4.uspp.F.UPF
     MD5 check sum: cc6de2960df11db49a60e589f9ebb39b
     Pseudo is Ultrasoft + core correction, Zval =  3.0
     Generated by new atomic code, or converted to UPF format
     Using radial grid of  781 points,  4 beta functions with:
                l(1) =   0
                l(2) =   0
                l(3) =   1
                l(4) =   1
     Q(r) pseudized with  8 coefficients,  rinner =    1.100   1.100   1.100

     PseudoPot. # 3 for Rh read from file:
     /home/pragov/projects/rrg-bengioy-ad/pragov/crystal_structure_design/SSSP/Rh_ONCV_PBE-1.0.oncvpsp.upf
     MD5 check sum: ba07c69523b14cacd10683cd4c4284c1
     Pseudo is Norm-conserving, Zval = 17.0
     Generated using ONCVPSP code by D. R. Hamann
     Using radial grid of 1442 points,  6 beta functions with:
                l(1) =   0
                l(2) =   0
                l(3) =   1
                l(4) =   1
                l(5) =   2
                l(6) =   2

     atomic species   valence    mass     pseudopotential
        Li             3.00     6.94000     Li( 1.00)
        B              3.00    10.81000     B ( 1.00)
        Rh            17.00   102.90550     Rh( 1.00)

      8 Sym. Ops., with inversion, found ( 4 have fractional translation)

                                    s                        frac. trans.

      isym =  1     identity

 cryst.   s( 1) = (     1          0          0      )
                  (     0          1          0      )
                  (     0          0          1      )

 cart.    s( 1) = (  1.0000000  0.0000000  0.0000000 )
                  (  0.0000000  1.0000000  0.0000000 )
                  (  0.0000000  0.0000000  1.0000000 )

      isym =  2     180 deg rotation - cart. axis [0,0,1]

 cryst.   s( 2) = (    -1          0          0      )    f =( -0.0000000 )
                  (     0         -1          0      )       (  0.5000000 )
                  (     0          0          1      )       ( -0.5000000 )

 cart.    s( 2) = ( -1.0000000  0.0000000  0.0000000 )    f =( -0.0000000 )
                  (  0.0000000 -1.0000000  0.0000000 )       (  1.0179794 )
                  (  0.0000000  0.0000000  1.0000000 )       ( -1.6787821 )

[...]

      isym =  4     180 deg rotation - cart. axis [1,0,0]

[...]

      isym =  5     inversion

[...]

      isym =  6     inv. 180 deg rotation - cart. axis [0,0,1]

[...]

 cryst.   s( 7) = (     1          0          0      )    f =(  0.0000000 )
                  (     0         -1          0      )       (  0.5000000 )
                  (     0          0          1      )       ( -0.5000000 )

 cart.    s( 7) = (  1.0000000  0.0000000  0.0000000 )    f =(  0.0000000 )
                  (  0.0000000 -1.0000000  0.0000000 )       (  1.0179794 )
                  (  0.0000000  0.0000000  1.0000000 )       ( -1.6787821 )

      isym =  8     inv. 180 deg rotation - cart. axis [1,0,0]

 cryst.   s( 8) = (    -1          0          0      )
                  (     0          1          0      )
                  (     0          0          1      )

 cart.    s( 8) = ( -1.0000000  0.0000000  0.0000000 )
                  (  0.0000000  1.0000000  0.0000000 )
                  (  0.0000000  0.0000000  1.0000000 )

   Cartesian axes

     site n.     atom                  positions (alat units)
         1           Li  tau(   1) = (   0.5000000   0.6939077   0.2489231  )
         2           Li  tau(   2) = (   0.5000000   1.3420511   3.1086411  )
         3           Li  tau(   3) = (   0.5000000   0.3240717   1.9277052  )
         4           Li  tau(   4) = (   0.5000000   1.7118871   1.4298590  )
         5           B   tau(   5) = (   0.5000000   0.1273105   2.7903104  )
         6           B   tau(   6) = (   0.5000000   1.1452900   2.2460358  )
         7           B   tau(   7) = (   0.5000000   0.8906689   1.1115283  )
         8           B   tau(   8) = (   0.5000000   1.9086483   0.5672537  )
         9           Rh  tau(   9) = (   0.0000000   0.6798413   2.6179364  )
        10           Rh  tau(  10) = (   0.0000000   0.3381382   0.9391543  )
        11           Rh  tau(  11) = (   0.0000000   1.0179794   1.6787821  )
        12           Rh  tau(  12) = (   0.0000000   1.3561176   0.7396277  )
        13           Rh  tau(  13) = (   0.0000000   1.6978207   2.4184098  )
        14           Rh  tau(  14) = (   0.0000000   0.0000000   0.0000000  )

   Crystallographic axes

     site n.     atom                  positions (cryst. coord.)
         1           Li  tau(   1) = (  0.5000000  0.3408260  0.0741380  )
         2           Li  tau(   2) = (  0.5000000  0.6591740  0.9258620  )
         3           Li  tau(   3) = (  0.5000000  0.1591740  0.5741380  )
         4           Li  tau(   4) = (  0.5000000  0.8408260  0.4258620  )
         5           B   tau(   5) = (  0.5000000  0.0625310  0.8310520  )
         6           B   tau(   6) = (  0.5000000  0.5625310  0.6689480  )
         7           B   tau(   7) = (  0.5000000  0.4374690  0.3310520  )
         8           B   tau(   8) = (  0.5000000  0.9374690  0.1689480  )
         9           Rh  tau(   9) = (  0.0000000  0.3339170  0.7797130  )
        10           Rh  tau(  10) = (  0.0000000  0.1660830  0.2797130  )
        11           Rh  tau(  11) = (  0.0000000  0.5000000  0.5000000  )
        12           Rh  tau(  12) = (  0.0000000  0.6660830  0.2202870  )
        13           Rh  tau(  13) = (  0.0000000  0.8339170  0.7202870  )
        14           Rh  tau(  14) = (  0.0000000  0.0000000  0.0000000  )

     number of k points=     8
                       cart. coord. in units 2pi/alat
        k(    1) = (   0.0000000   0.0000000   0.0000000), wk =   0.0740741
        k(    2) = (   0.0000000   0.0000000   0.0992783), wk =   0.1481481
        k(    3) = (   0.0000000   0.1637230   0.0000000), wk =   0.1481481
        k(    4) = (   0.0000000   0.1637230   0.0992783), wk =   0.2962963
        k(    5) = (   0.3333333   0.0000000   0.0000000), wk =   0.1481481
        k(    6) = (   0.3333333   0.0000000   0.0992783), wk =   0.2962963
        k(    7) = (   0.3333333   0.1637230   0.0000000), wk =   0.2962963
        k(    8) = (   0.3333333   0.1637230   0.0992783), wk =   0.5925926

                       cryst. coord.
        k(    1) = (   0.0000000   0.0000000   0.0000000), wk =   0.0740741
        k(    2) = (   0.0000000   0.0000000   0.3333333), wk =   0.1481481
        k(    3) = (   0.0000000   0.3333333   0.0000000), wk =   0.1481481
        k(    4) = (   0.0000000   0.3333333   0.3333333), wk =   0.2962963
        k(    5) = (   0.3333333   0.0000000   0.0000000), wk =   0.1481481
        k(    6) = (   0.3333333   0.0000000   0.3333333), wk =   0.2962963
        k(    7) = (   0.3333333   0.3333333   0.0000000), wk =   0.2962963
        k(    8) = (   0.3333333   0.3333333   0.3333333), wk =   0.5925926

     Initial potential from superposition of free atoms

     starting charge     124.1933, renormalised to     126.0000
     Starting wfcs are   96 randomized atomic wfcs

     Self-consistent Calculation

     iteration #  1     ecut=    30.00 Ry     beta= 0.70
     Davidson diagonalization with overlap

     ethr =  1.00E-02,  avg # of iterations =  2.0

     Threshold (ethr) on eigenvalues was too large:
     Diagonalizing with lowered threshold

     Davidson diagonalization with overlap

[...]

     total energy              =   -1385.04705933 Ry
     estimated scf accuracy    <       0.87673093 Ry

[...]

     total energy              =   -1385.48761156 Ry
     estimated scf accuracy    <       0.00000373 Ry

     iteration # 10     ecut=    30.00 Ry     beta= 0.70
     Davidson diagonalization with overlap

     ethr =  2.96E-09,  avg # of iterations =  6.1

     End of self-consistent calculation

          k = 0.0000 0.0000 0.0000 (  3001 PWs)   bands (ev):

   -64.1034 -64.0967 -64.0792 -64.0725 -64.0679 -64.0679 -32.2935 -32.1909
   -32.1563 -32.0843 -32.0717 -32.0614 -32.0276 -32.0254 -31.9398 -31.9371
   -31.9250 -31.9246 -31.7377 -31.7326 -31.7290 -31.7000 -31.6811 -31.6469
   -30.7924 -30.7843 -30.7333 -30.7294   4.1126   4.9781   5.8424   7.7693
     8.4076   8.5246   8.7517   9.6285   9.6599   9.9948  10.1077  10.4871
    10.5252  10.6111  10.8179  10.8484  10.8920  11.3110  11.4816  11.5946
    11.7422  11.7862  11.9877  12.6293  12.6988  12.9596  13.0096  13.0443
    13.1988  13.2149  13.2894  13.4976  13.5138  13.6364  13.7201  13.8201

     occupation numbers
     1.0000   1.0000   1.0000   1.0000   1.0000   1.0000   1.0000   1.0000
     1.0000   1.0000   1.0000   1.0000   1.0000   1.0000   1.0000   1.0000
     1.0000   1.0000   1.0000   1.0000   1.0000   1.0000   1.0000   1.0000
     1.0000   1.0000   1.0000   1.0000   1.0000   1.0000   1.0000   1.0000
     1.0000   1.0000   1.0000   1.0000   1.0000   1.0000   1.0000   1.0000
     1.0000   1.0000   1.0000   1.0000   1.0000   1.0000   1.0000   1.0000
     1.0000   1.0000   1.0000   1.0000   1.0000   1.0000   1.0000   1.0000
     1.0000   1.0000   1.0000   1.0000   1.0000   1.0000   1.0000   0.0000

[...]

          k = 0.3333 0.1637 0.0993 (  2970 PWs)   bands (ev):

   -64.0870 -64.0853 -64.0617 -64.0595 -64.0564 -64.0559 -32.2321 -32.2042
   -32.2001 -32.1990 -32.1160 -32.1047 -32.1036 -32.0959 -32.0955 -32.0934
   -32.0428 -32.0416 -31.7215 -31.7210 -31.6913 -31.6852 -31.6544 -31.6442
   -30.7765 -30.7765 -30.7297 -30.7295   6.2016   6.3152   6.3360   6.3915
     8.7881   8.8620   9.2687   9.5598   9.7063   9.8997  10.0253  10.1509
    10.4670  10.6895  10.7883  10.9345  11.2812  11.4746  11.6435  11.7687
    12.0835  12.1496  12.1879  12.3843  12.4583  12.4627  12.4865  12.6797
    12.7327  12.8382  13.0597  13.2022  13.5188  13.7626  14.4783  15.4003

     occupation numbers
     1.0000   1.0000   1.0000   1.0000   1.0000   1.0000   1.0000   1.0000
     1.0000   1.0000   1.0000   1.0000   1.0000   1.0000   1.0000   1.0000
     1.0000   1.0000   1.0000   1.0000   1.0000   1.0000   1.0000   1.0000
     1.0000   1.0000   1.0000   1.0000   1.0000   1.0000   1.0000   1.0000
     1.0000   1.0000   1.0000   1.0000   1.0000   1.0000   1.0000   1.0000
     1.0000   1.0000   1.0000   1.0000   1.0000   1.0000   1.0000   1.0000
     1.0000   1.0000   1.0000   1.0000   1.0000   1.0000   1.0000   1.0000
     1.0000   1.0000   1.0000   1.0000   1.0000   1.0000   1.0000   0.0000

     highest occupied, lowest unoccupied level (ev):    15.1863   13.7679

!    total energy              =   -1385.48761257 Ry
     estimated scf accuracy    <       0.00000086 Ry

     The total energy is the sum of the following terms:
     one-electron contribution =    -600.83947701 Ry
     hartree contribution      =     349.67354876 Ry
     xc contribution           =    -157.56055940 Ry
     ewald contribution        =    -976.76112492 Ry

     convergence has been achieved in  10 iterations

     Writing all to output data dir calculations_bands/myprefix.save/

     General routines

     Parallel routines

   This run was terminated on:  22:19: 5   5Jun2023

   JOB DONE.