     Program PWSCF v.7.0 starts on  4Jun2023 at 20:51: 3

     K-points division:     npool     =       2
     R & G space division:  proc/nbgrp/npool/nimage =       4

     Reading input from espresso_9138.pwi
Warning: card &CELL ignored
Warning: card / ignored

     Current dimensions of program PWSCF are:
     Max number of different atomic species (ntypx) = 10
     Max number of k-points (npk) =  40000
     Max angular momentum in pseudopotentials (lmaxx) =  4
     Message from routine setup:
     using ibrav=0 with symmetry is DISCOURAGED, use correct ibrav instead

     Using Slab Decomposition

     bravais-lattice index     =            0
     lattice parameter (alat)  =      14.0825  a.u.
     unit-cell volume          =    1360.1965 (a.u.)^3
     number of atoms/cell      =            8
     number of atomic types    =            3
     number of electrons       =       104.00
     number of Kohn-Sham states=           64
     kinetic-energy cutoff     =      30.0000  Ry
     charge density cutoff     =     240.0000  Ry
     scf convergence threshold =      1.0E-06
     mixing beta               =       0.7000
     number of iterations used =            8  plain     mixing
     Exchange-correlation= SLA  PW   PBE  PBE
                           (   1   4   3   4   0   0   0)

     celldm(1)=  14.082490  celldm(2)=   0.000000  celldm(3)=   0.000000
     celldm(4)=   0.000000  celldm(5)=   0.000000  celldm(6)=   0.000000

     crystal axes: (cart. coord. in units of alat)
               a(1) = (   1.000000   0.000000   0.000000 )
               a(2) = (   0.422500   0.906363   0.000000 )
               a(3) = (  -0.711250  -0.453182   0.537355 )

     reciprocal axes: (cart. coord. in units 2 pi/alat)
               b(1) = (  1.000000 -0.466148  0.930484 )
               b(2) = (  0.000000  1.103311  0.930484 )
               b(3) = (  0.000000  0.000000  1.860968 )

     PseudoPot. # 1 for Ho read from file:
     /home/pragov/projects/rrg-bengioy-ad/pragov/crystal_structure_design/SSSP/Ho.GGA-PBE-paw-v1.0.UPF
     MD5 check sum: 3d93cae5f38e6cc822e0e70538981326
     Pseudo is Projector augmented-wave + core cor, Zval = 21.0
     Generated using ATOMPAW code
     Shape of augmentation charge: BESSEL
     Using radial grid of 1114 points,  8 beta functions with:
                l(1) =   0
                l(2) =   0
                l(3) =   1
                l(4) =   1
                l(5) =   2
                l(6) =   2
                l(7) =   3
                l(8) =   3
     Q(r) pseudized with 0 coefficients

     PseudoPot. # 2 for Ag read from file:
     /home/pragov/projects/rrg-bengioy-ad/pragov/crystal_structure_design/SSSP/Ag_ONCV_PBE-1.0.oncvpsp.upf
     MD5 check sum: 94f47bd0669c641108e45594df92fabc
     Pseudo is Norm-conserving, Zval = 19.0
     Generated using ONCVPSP code by D. R. Hamann
     Using radial grid of 1398 points,  6 beta functions with:
                l(1) =   0
                l(2) =   0
                l(3) =   1
                l(4) =   1
                l(5) =   2
                l(6) =   2

     PseudoPot. # 3 for Se read from file:
     /home/pragov/projects/rrg-bengioy-ad/pragov/crystal_structure_design/SSSP/Se_pbe_v1.uspp.F.UPF
     MD5 check sum: 1b3568f3a8ae88f9a2a0ad0698632c85
     Pseudo is Ultrasoft + core correction, Zval =  6.0
     Generated by new atomic code, or converted to UPF format
     Using radial grid of  877 points,  6 beta functions with:
                l(1) =   0
                l(2) =   0
                l(3) =   1
                l(4) =   1
                l(5) =   2
                l(6) =   2
     Q(r) pseudized with  8 coefficients,  rinner =    1.300   1.300   1.300
                                                       1.300   1.300

     atomic species   valence    mass     pseudopotential
        Ho            21.00   164.93033     Ho( 1.00)
        Ag            19.00   107.86820     Ag( 1.00)
        Se             6.00    78.97100     Se( 1.00)

      2 Sym. Ops. (no inversion) found ( 1 have fractional translation)

                                    s                        frac. trans.

      isym =  1     identity

 cryst.   s( 1) = (     1          0          0      )
                  (     0          1          0      )
                  (     0          0          1      )

 cart.    s( 1) = (  1.0000000  0.0000000 -0.0000000 )
                  (  0.0000000  1.0000000  0.0000000 )
                  (  0.0000000  0.0000000  1.0000000 )

      isym =  2     inv. 180 deg rotation - cart. axis [0,0,1]

 cryst.   s( 2) = (     1          0          0      )    f =(  0.2500000 )
                  (     0          1          0      )       ( -0.2500000 )
                  (    -1         -1         -1      )       (  0.5000000 )

 cart.    s( 2) = (  1.0000000  0.0000000  0.0000000 )    f =( -0.2112498 )
                  (  0.0000000  1.0000000  0.0000000 )       ( -0.4531815 )
                  (  0.0000000  0.0000000 -1.0000000 )       (  0.2686774 )

   Cartesian axes

     site n.     atom                  positions (alat units)
         1           Ho  tau(   1) = (   0.5014680   0.0009354   0.2686774  )
         2           Ho  tau(   2) = (   0.0014680   0.0009354   0.0000000  )
         3           Ag  tau(   3) = (   0.2697630   0.4904639   0.2686774  )
         4           Ag  tau(   4) = (   0.7697630   0.4904639   0.0000000  )
         5           Se  tau(   5) = (   0.8238776   0.2063626   0.2686774  )
         6           Se  tau(   6) = (   0.3238776   0.2063626   0.0000000  )
         7           Se  tau(   7) = (   0.1730399  -0.2083266   0.2686774  )
         8           Se  tau(   8) = (   1.0955396   0.6980364   0.0000000  )

   Crystallographic axes

     site n.     atom                  positions (cryst. coord.)
         1           Ho  tau(   1) = (  0.7510320  0.2510320  0.5000000  )
         2           Ho  tau(   2) = (  0.0010320  0.0010320  0.0000000  )
         3           Ag  tau(   3) = (  0.2911340  0.7911340  0.5000000  )
         4           Ag  tau(   4) = (  0.5411340  0.5411340  0.0000000  )
         5           Se  tau(   5) = (  0.9776820  0.4776820  0.5000000  )
         6           Se  tau(   6) = (  0.2276820  0.2276820  0.0000000  )
         7           Se  tau(   7) = (  0.5201510  0.0201510  0.5000000  )
         8           Se  tau(   8) = (  0.7701510  0.7701510  0.0000000  )

     number of k points=    10
                       cart. coord. in units 2pi/alat
        k(    1) = (   0.0000000   0.0000000   0.0000000), wk =   0.0740741
        k(    2) = (   0.0000000   0.0000000   0.6203226), wk =   0.1481481
        k(    3) = (   0.0000000   0.3677702   0.3101613), wk =   0.2962963
        k(    4) = (   0.0000000   0.3677702   0.9304840), wk =   0.1481481
        k(    5) = (   0.3333333  -0.1553828   0.3101613), wk =   0.2962963
        k(    6) = (   0.3333333  -0.1553828   0.9304840), wk =   0.1481481
        k(    7) = (   0.3333333   0.2123874   0.6203226), wk =   0.2962963
        k(    8) = (   0.3333333   0.2123874   0.0000000), wk =   0.1481481
        k(    9) = (   0.3333333  -0.5231530  -0.0000000), wk =   0.1481481
        k(   10) = (   0.3333333  -0.5231530   0.6203226), wk =   0.2962963

                       cryst. coord.
        k(    1) = (   0.0000000   0.0000000   0.0000000), wk =   0.0740741
        k(    2) = (   0.0000000   0.0000000   0.3333333), wk =   0.1481481
        k(    3) = (   0.0000000   0.3333333  -0.0000000), wk =   0.2962963
        k(    4) = (   0.0000000   0.3333333   0.3333333), wk =   0.1481481
        k(    5) = (   0.3333333   0.0000000  -0.0000000), wk =   0.2962963
        k(    6) = (   0.3333333   0.0000000   0.3333333), wk =   0.1481481
        k(    7) = (   0.3333333   0.3333333  -0.0000000), wk =   0.2962963
        k(    8) = (   0.3333333   0.3333333  -0.3333333), wk =   0.1481481
        k(    9) = (   0.3333333  -0.3333333   0.0000000), wk =   0.1481481
        k(   10) = (   0.3333333  -0.3333333   0.3333333), wk =   0.2962963

     Initial potential from superposition of free atoms

     starting charge     103.9906, renormalised to     104.0000
     Starting wfcs are  100 randomized atomic wfcs
     Checking if some PAW data can be deallocated...

     Self-consistent Calculation

     iteration #  1     ecut=    30.00 Ry     beta= 0.70
     Davidson diagonalization with overlap

     ethr =  1.00E-02,  avg # of iterations =  2.0

     total energy              =   -2387.14443465 Ry
     estimated scf accuracy    <      17.19730762 Ry

[...]

     total energy              =   -2408.01874358 Ry
     estimated scf accuracy    <       0.00000274 Ry

     iteration # 68     ecut=    30.00 Ry     beta= 0.70
     Davidson diagonalization with overlap

     ethr =  2.09E-09,  avg # of iterations =  1.0

     End of self-consistent calculation

          k = 0.0000 0.0000 0.0000 (  3789 PWs)   bands (ev):

   -83.1765 -83.1765 -46.2605 -46.2604 -46.1966 -46.1966 -46.1729 -46.1692
   -37.2631 -37.2593 -12.5758 -12.5563 -12.5540 -12.5218 -12.5196 -12.4787
    -3.7461  -3.2602  -2.8379  -2.7838   5.2369   5.3070   5.3571   5.3574
     5.4627   5.4631   5.5374   5.6254   5.6309   5.7551   5.8925   6.4096
     6.4103   6.7257   6.7260   6.7396   7.4876   7.5754   7.5757   8.1225
     8.1247   8.3478   9.1397   9.1415   9.1532   9.1538   9.1692   9.2011
     9.2350   9.2375   9.2747   9.3206   9.3330   9.6481   9.6560   9.6621
    10.0959  10.7946  11.6390  12.5866  12.5876  12.8412  13.3606  13.3619

     occupation numbers
     1.0000   1.0000   1.0000   1.0000   1.0000   1.0000   1.0000   1.0000
     1.0000   1.0000   1.0000   1.0000   1.0000   1.0000   1.0000   1.0000
     1.0000   1.0000   1.0000   1.0000   1.0000   1.0000   1.0000   1.0000
     1.0000   1.0000   1.0000   1.0000   1.0000   1.0000   1.0000   1.0000
     1.0000   1.0000   1.0000   1.0000   1.0000   1.0000   1.0000   1.0000
     1.0000   1.0000   1.0000   1.0000   1.0000   1.0000   1.0000   1.0000
     1.0000   1.0000   1.0000   1.0000   0.0000   0.0000   0.0000   0.0000
     0.0000   0.0000   0.0000   0.0000   0.0000   0.0000   0.0000   0.0000

[...]

          k = 0.3333-0.5232 0.6203 (  3769 PWs)   bands (ev):

   -83.1765 -83.1765 -46.2606 -46.2598 -46.1965 -46.1959 -46.1712 -46.1701
   -37.2617 -37.2607 -12.5897 -12.5624 -12.5587 -12.5188 -12.5158 -12.4922
    -3.3699  -3.2172  -2.8975  -2.7568   4.6820   5.0206   5.1026   5.1487
     5.3386   5.4262   5.5097   5.5881   5.6550   5.7877   5.8312   6.1658
     6.2222   6.5781   6.6967   7.1480   7.3462   7.4453   7.7512   7.8107
     7.9149   8.0759   9.1224   9.1289   9.1692   9.1698   9.1785   9.2018
     9.2180   9.2286   9.2488   9.2609   9.2641   9.3348   9.3771   9.4660
    11.8334  11.8510  12.1418  12.6877  13.0840  13.2442  13.7405  13.9076

     occupation numbers
     1.0000   1.0000   1.0000   1.0000   1.0000   1.0000   1.0000   1.0000
     1.0000   1.0000   1.0000   1.0000   1.0000   1.0000   1.0000   1.0000
     1.0000   1.0000   1.0000   1.0000   1.0000   1.0000   1.0000   1.0000
     1.0000   1.0000   1.0000   1.0000   1.0000   1.0000   1.0000   1.0000
     1.0000   1.0000   1.0000   1.0000   1.0000   1.0000   1.0000   1.0000
     1.0000   1.0000   1.0000   1.0000   1.0000   1.0000   1.0000   1.0000
     1.0000   1.0000   1.0000   1.0000   0.0000   0.0000   0.0000   0.0000
     0.0000   0.0000   0.0000   0.0000   0.0000   0.0000   0.0000   0.0000

     highest occupied, lowest unoccupied level (ev):     9.3206    9.2641

!    total energy              =   -2408.01874142 Ry
     estimated scf accuracy    <       0.00000064 Ry

     The total energy is the sum of the following terms:
     one-electron contribution =    -845.10943494 Ry
     hartree contribution      =     449.65136580 Ry
     xc contribution           =    -233.61192664 Ry
     ewald contribution        =    -810.61803802 Ry
     one-center paw contrib.   =    -968.33070761 Ry
      -> PAW hartree energy AE =     296.92449019 Ry
      -> PAW hartree energy PS =    -270.68094668 Ry
      -> PAW xc energy AE      =    -539.55411956 Ry
      -> PAW xc energy PS      =      29.14522224 Ry
      -> total E_H with PAW    =     475.89490931 Ry
      -> total E_XC with PAW   =    -744.02082396 Ry

     convergence has been achieved in  68 iterations

     Writing all to output data dir calculations_bands/myprefix.save/

     General routines

     Parallel routines

     PAW routines

   This run was terminated on:  20:59:32   4Jun2023

   JOB DONE.