     Program PWSCF v.7.0 starts on  7Jun2023 at 10:51:34

     K-points division:     npool     =       2
     R & G space division:  proc/nbgrp/npool/nimage =       4

     Reading input from espresso_8515.pwi
Warning: card &CELL ignored
Warning: card / ignored

     Current dimensions of program PWSCF are:
     Max number of different atomic species (ntypx) = 10
     Max number of k-points (npk) =  40000
     Max angular momentum in pseudopotentials (lmaxx) =  4
     file O.pbe-n-kjpaw_psl.0.1.UPF: wavefunction(s)  2P renormalized
     Message from routine setup:
     using ibrav=0 with symmetry is DISCOURAGED, use correct ibrav instead

     Using Slab Decomposition

     bravais-lattice index     =            0
     lattice parameter (alat)  =       9.9201  a.u.
     unit-cell volume          =     801.4666 (a.u.)^3
     number of atoms/cell      =           10
     number of atomic types    =            3
     number of electrons       =        88.00
     number of Kohn-Sham states=           64
     kinetic-energy cutoff     =      30.0000  Ry
     charge density cutoff     =     240.0000  Ry
     scf convergence threshold =      1.0E-06
     mixing beta               =       0.7000
     number of iterations used =            8  plain     mixing
     Exchange-correlation= SLA  PW   PBX  PBC
                           (   1   4   3   4   0   0   0)

     celldm(1)=   9.920079  celldm(2)=   0.000000  celldm(3)=   0.000000
     celldm(4)=   0.000000  celldm(5)=   0.000000  celldm(6)=   0.000000

     crystal axes: (cart. coord. in units of alat)
               a(1) = (   1.000000   0.000000   0.000000 )
               a(2) = (  -0.815351   0.578967   0.000000 )
               a(3) = (   0.000000   0.000000   1.418033 )

     reciprocal axes: (cart. coord. in units 2 pi/alat)
               b(1) = (  1.000000  1.408287  0.000000 )
               b(2) = (  0.000000  1.727215  0.000000 )
               b(3) = (  0.000000  0.000000  0.705202 )

     PseudoPot. # 1 for Ca read from file:
     /home/pragov/projects/rrg-bengioy-ad/pragov/crystal_structure_design/SSSP/Ca_pbe_v1.uspp.F.UPF
     MD5 check sum: 403a4c14b9e4d4dfdc3024c9a3812218
     Pseudo is Ultrasoft + core correction, Zval = 10.0
     Generated by new atomic code, or converted to UPF format
     Using radial grid of  845 points,  6 beta functions with:
                l(1) =   0
                l(2) =   0
                l(3) =   1
                l(4) =   1
                l(5) =   2
                l(6) =   2
     Q(r) pseudized with  8 coefficients,  rinner =    1.500   1.500   1.500
                                                       1.500   1.500

     PseudoPot. # 2 for Pt read from file:
     /home/pragov/projects/rrg-bengioy-ad/pragov/crystal_structure_design/SSSP/pt_pbe_v1.4.uspp.F.UPF
     MD5 check sum: f09d6de1a584b5a045c4fc126da2d0c4
     Pseudo is Ultrasoft + core correction, Zval = 16.0
     Generated by new atomic code, or converted to UPF format
     Using radial grid of  985 points,  6 beta functions with:
                l(1) =   0
                l(2) =   0
                l(3) =   1
                l(4) =   1
                l(5) =   2
                l(6) =   2
     Q(r) pseudized with  8 coefficients,  rinner =    1.300   1.300   1.300
                                                       1.300   1.300

     PseudoPot. # 3 for O  read from file:
     /home/pragov/projects/rrg-bengioy-ad/pragov/crystal_structure_design/SSSP/O.pbe-n-kjpaw_psl.0.1.UPF
     MD5 check sum: 0234752ac141de4415c5fc33072bef88
     Pseudo is Projector augmented-wave + core cor, Zval =  6.0
     Generated using "atomic" code by A. Dal Corso  v.5.0.99 svn rev. 10869
     Shape of augmentation charge: BESSEL
     Using radial grid of 1095 points,  4 beta functions with:
                l(1) =   0
                l(2) =   0
                l(3) =   1
                l(4) =   1
     Q(r) pseudized with 0 coefficients

     atomic species   valence    mass     pseudopotential
        Ca            10.00    40.07800     Ca( 1.00)
        Pt            16.00   195.08400     Pt( 1.00)
        O              6.00    15.99900     O ( 1.00)

      4 Sym. Ops., with inversion, found ( 2 have fractional translation)

                                    s                        frac. trans.

      isym =  1     identity

 cryst.   s( 1) = (     1          0          0      )
                  (     0          1          0      )
                  (     0          0          1      )

 cart.    s( 1) = (  1.0000000 -0.0000000  0.0000000 )
                  (  0.0000000  1.0000000  0.0000000 )
                  (  0.0000000  0.0000000  1.0000000 )

      isym =  2     180 deg rotation - cart. axis [0,0,1]

 cryst.   s( 2) = (    -1          0          0      )    f =(  0.0000000 )
                  (     0         -1          0      )       (  0.0000000 )
                  (     0          0          1      )       (  0.5000000 )

 cart.    s( 2) = ( -1.0000000  0.0000000  0.0000000 )    f =( -0.0000000 )
                  (  0.0000000 -1.0000000  0.0000000 )       (  0.0000000 )
                  (  0.0000000  0.0000000  1.0000000 )       (  0.7090165 )

      isym =  3     inversion

 cryst.   s( 3) = (    -1          0          0      )
                  (     0         -1          0      )
                  (     0          0         -1      )

 cart.    s( 3) = ( -1.0000000  0.0000000  0.0000000 )
                  (  0.0000000 -1.0000000  0.0000000 )
                  (  0.0000000  0.0000000 -1.0000000 )

      isym =  4     inv. 180 deg rotation - cart. axis [0,0,1]

 cryst.   s( 4) = (     1          0          0      )    f =(  0.0000000 )
                  (     0          1          0      )       (  0.0000000 )
                  (     0          0         -1      )       (  0.5000000 )

 cart.    s( 4) = (  1.0000000 -0.0000000  0.0000000 )    f =(  0.0000000 )
                  (  0.0000000  1.0000000  0.0000000 )       (  0.0000000 )
                  (  0.0000000  0.0000000 -1.0000000 )       (  0.7090165 )

   Cartesian axes

     site n.     atom                  positions (alat units)
         1           Ca  tau(   1) = (   0.5444068   0.1453015   1.0635248  )
         2           Ca  tau(   2) = (  -0.3597579   0.4336652   0.3545083  )
         3           Pt  tau(   3) = (   0.0000000   0.0000000   0.0000000  )
         4           Pt  tau(   4) = (   0.0000000   0.0000000   0.7090165  )
         5           O   tau(   5) = (  -0.1404490   0.3637214   0.7747197  )
         6           O   tau(   6) = (   0.3250978   0.2152454   0.6433134  )
         7           O   tau(   7) = (   0.3250978   0.2152454   0.0657031  )
         8           O   tau(   8) = (  -0.1404490   0.3637214   1.3523299  )
         9           O   tau(   9) = (  -0.6626366   0.5302617   1.0635248  )
        10           O   tau(  10) = (   0.8472854   0.0487050   0.3545083  )

   Crystallographic axes

     site n.     atom                  positions (cryst. coord.)
         1           Ca  tau(   1) = (  0.7490330  0.2509670  0.7500000  )
         2           Ca  tau(   2) = (  0.2509670  0.7490330  0.2500000  )
         3           Pt  tau(   3) = (  0.0000000  0.0000000  0.0000000  )
         4           Pt  tau(   4) = (  0.0000000  0.0000000  0.5000000  )
         5           O   tau(   5) = (  0.3717750  0.6282250  0.5463340  )
         6           O   tau(   6) = (  0.6282250  0.3717750  0.4536660  )
         7           O   tau(   7) = (  0.6282250  0.3717750  0.0463340  )
         8           O   tau(   8) = (  0.3717750  0.6282250  0.9536660  )
         9           O   tau(   9) = (  0.0841240  0.9158760  0.7500000  )
        10           O   tau(  10) = (  0.9158760  0.0841240  0.2500000  )

     number of k points=    10
                       cart. coord. in units 2pi/alat
        k(    1) = (   0.0000000   0.0000000   0.0000000), wk =   0.0740741
        k(    2) = (   0.0000000   0.0000000   0.2350674), wk =   0.1481481
        k(    3) = (   0.0000000   0.5757383   0.0000000), wk =   0.1481481
        k(    4) = (   0.0000000   0.5757383   0.2350674), wk =   0.2962963
        k(    5) = (   0.3333333   0.4694289   0.0000000), wk =   0.1481481
        k(    6) = (   0.3333333   0.4694289   0.2350674), wk =   0.2962963
        k(    7) = (   0.3333333   1.0451672   0.0000000), wk =   0.1481481
        k(    8) = (   0.3333333   1.0451672   0.2350674), wk =   0.2962963
        k(    9) = (   0.3333333  -0.1063094   0.0000000), wk =   0.1481481
        k(   10) = (   0.3333333  -0.1063094   0.2350674), wk =   0.2962963

                       cryst. coord.
        k(    1) = (   0.0000000   0.0000000   0.0000000), wk =   0.0740741
        k(    2) = (   0.0000000   0.0000000   0.3333333), wk =   0.1481481
        k(    3) = (   0.0000000   0.3333333   0.0000000), wk =   0.1481481
        k(    4) = (   0.0000000   0.3333333   0.3333333), wk =   0.2962963
        k(    5) = (   0.3333333   0.0000000   0.0000000), wk =   0.1481481
        k(    6) = (   0.3333333   0.0000000   0.3333333), wk =   0.2962963
        k(    7) = (   0.3333333   0.3333333   0.0000000), wk =   0.1481481
        k(    8) = (   0.3333333   0.3333333   0.3333333), wk =   0.2962963
        k(    9) = (   0.3333333  -0.3333333   0.0000000), wk =   0.1481481
        k(   10) = (   0.3333333  -0.3333333   0.3333333), wk =   0.2962963

     Check: negative core charge=   -0.000012

     Initial potential from superposition of free atoms

     starting charge      86.9891, renormalised to      88.0000

     negative rho (up, down):  3.638E-01 0.000E+00
     Starting wfcs are   68 randomized atomic wfcs
     Checking if some PAW data can be deallocated...

     Self-consistent Calculation

     iteration #  1     ecut=    30.00 Ry     beta= 0.70
     Davidson diagonalization with overlap

     ethr =  1.00E-02,  avg # of iterations =  3.4

     negative rho (up, down):  3.291E-01 0.000E+00

     total energy              =    -817.02829288 Ry
     estimated scf accuracy    <       6.92693041 Ry

[...]

     total energy              =    -821.16468360 Ry
     estimated scf accuracy    <       0.00000114 Ry

     iteration #  9     ecut=    30.00 Ry     beta= 0.70
     Davidson diagonalization with overlap

     ethr =  1.30E-09,  avg # of iterations =  2.5

     negative rho (up, down):  3.456E-01 0.000E+00

     End of self-consistent calculation

          k = 0.0000 0.0000 0.0000 (  2225 PWs)   bands (ev):

   -42.3247 -42.3244 -42.3228 -42.3215 -42.1659 -42.1565 -27.5204 -27.5103
    -9.1420  -8.9943  -8.8849  -8.5541  -8.3510  -8.3358  -7.6566  -6.6735
    -6.2582  -6.1695  -6.1379  -5.8495   4.0344   4.3527   4.6660   4.6750
     4.7756   5.6285   7.0852   7.2352   7.3749   7.8135   7.8263   7.9129
     8.0141   8.4795   8.7460   9.1193   9.1728   9.4720   9.7011   9.7987
     9.9199  10.6060  10.8789  11.3494  13.1154  13.5779  13.7689  14.0643
    15.3582  16.3903  17.0034  17.3262  17.3740  17.9879  18.0938  18.7164
    19.0926  19.4067  19.4637  19.5162  20.1041  21.6042  23.1971  23.2919

     occupation numbers
     1.0000   1.0000   1.0000   1.0000   1.0000   1.0000   1.0000   1.0000
     1.0000   1.0000   1.0000   1.0000   1.0000   1.0000   1.0000   1.0000
     1.0000   1.0000   1.0000   1.0000   1.0000   1.0000   1.0000   1.0000
     1.0000   1.0000   1.0000   1.0000   1.0000   1.0000   1.0000   1.0000
     1.0000   1.0000   1.0000   1.0000   1.0000   1.0000   1.0000   1.0000
     1.0000   1.0000   1.0000   1.0000   0.0000   0.0000   0.0000   0.0000
     0.0000   0.0000   0.0000   0.0000   0.0000   0.0000   0.0000   0.0000
     0.0000   0.0000   0.0000   0.0000   0.0000   0.0000   0.0000   0.0000

[...]

          k = 0.3333-0.1063 0.2351 (  2209 PWs)   bands (ev):

   -42.3247 -42.3245 -42.3224 -42.3219 -42.1636 -42.1588 -27.5174 -27.5127
    -9.1235  -8.9922  -8.9187  -8.7025  -8.3472  -8.3401  -7.0575  -6.9894
    -6.4218  -6.2452  -6.0042  -5.9060   4.5908   4.7228   4.7527   4.8774
     5.0054   5.6232   5.9649   6.4800   7.4573   7.8648   8.1045   8.2109
     8.2940   8.3669   8.5172   8.6939   9.0355   9.1454   9.2191   9.6131
    10.2393  10.9653  10.9836  11.0184  13.1986  13.9151  13.9291  14.0447
    16.2498  16.5147  16.9926  17.6307  17.9320  17.9869  18.3362  18.8279
    18.8740  18.9031  19.3023  19.4620  20.1053  20.9528  21.6079  22.2554

     occupation numbers
     1.0000   1.0000   1.0000   1.0000   1.0000   1.0000   1.0000   1.0000
     1.0000   1.0000   1.0000   1.0000   1.0000   1.0000   1.0000   1.0000
     1.0000   1.0000   1.0000   1.0000   1.0000   1.0000   1.0000   1.0000
     1.0000   1.0000   1.0000   1.0000   1.0000   1.0000   1.0000   1.0000
     1.0000   1.0000   1.0000   1.0000   1.0000   1.0000   1.0000   1.0000
     1.0000   1.0000   1.0000   1.0000   0.0000   0.0000   0.0000   0.0000
     0.0000   0.0000   0.0000   0.0000   0.0000   0.0000   0.0000   0.0000
     0.0000   0.0000   0.0000   0.0000   0.0000   0.0000   0.0000   0.0000

     highest occupied, lowest unoccupied level (ev):    11.3508   12.5013

!    total energy              =    -821.16468383 Ry
     estimated scf accuracy    <       0.00000006 Ry

     The total energy is the sum of the following terms:
     one-electron contribution =    -188.43547409 Ry
     hartree contribution      =     149.00195520 Ry
     xc contribution           =    -182.07835396 Ry
     ewald contribution        =    -542.49766269 Ry
     one-center paw contrib.   =     -57.15514828 Ry
      -> PAW hartree energy AE =       0.00000000 Ry
      -> PAW hartree energy PS =       0.00000000 Ry
      -> PAW xc energy AE      =       0.00000000 Ry
      -> PAW xc energy PS      =       0.00000000 Ry
      -> total E_H with PAW    =     149.00195520 Ry
      -> total E_XC with PAW   =    -182.07835396 Ry

     convergence has been achieved in   9 iterations

     Writing all to output data dir calculations_bands/myprefix.save/

     General routines

     Parallel routines

     PAW routines

   This run was terminated on:  10:51:43   7Jun2023

   JOB DONE.