     Program PWSCF v.7.0 starts on  5Jun2023 at 18:42:23

     K-points division:     npool     =       2
     R & G space division:  proc/nbgrp/npool/nimage =       4

     Reading input from espresso_11113.pwi
Warning: card &CELL ignored
Warning: card / ignored

     Current dimensions of program PWSCF are:
     Max number of different atomic species (ntypx) = 10
     Max number of k-points (npk) =  40000
     Max angular momentum in pseudopotentials (lmaxx) =  4
     Message from routine setup:
     using ibrav=0 with symmetry is DISCOURAGED, use correct ibrav instead

     Using Slab Decomposition

     bravais-lattice index     =            0
     lattice parameter (alat)  =      10.4275  a.u.
     unit-cell volume          =     569.2738 (a.u.)^3
     number of atoms/cell      =            9
     number of atomic types    =            3
     number of electrons       =        62.00
     number of Kohn-Sham states=           64
     kinetic-energy cutoff     =      30.0000  Ry
     charge density cutoff     =     240.0000  Ry
     scf convergence threshold =      1.0E-06
     mixing beta               =       0.7000
     number of iterations used =            8  plain     mixing
     Exchange-correlation=  SLA  PW   PBX  PBC
                           (   1   4   3   4   0   0   0)

     celldm(1)=  10.427493  celldm(2)=   0.000000  celldm(3)=   0.000000
     celldm(4)=   0.000000  celldm(5)=   0.000000  celldm(6)=   0.000000

     crystal axes: (cart. coord. in units of alat)
               a(1) = (   1.000000   0.000000   0.000000 )
               a(2) = (   0.142359   0.989815   0.000000 )
               a(3) = (  -0.299983  -0.807899   0.507256 )

     reciprocal axes: (cart. coord. in units 2 pi/alat)
               b(1) = (  1.000000 -0.143824  0.362317 )
               b(2) = (  0.000000  1.010290  1.609073 )
               b(3) = (  0.000000  0.000000  1.971390 )

     PseudoPot. # 1 for Sm read from file:
     /home/pragov/projects/rrg-bengioy-ad/pragov/crystal_structure_design/SSSP/Sm.GGA-PBE-paw-v1.0.UPF
     MD5 check sum: 886f70968969f895acf876f5617e0641
     Pseudo is Projector augmented-wave + core cor, Zval = 16.0
     Generated using ATOMPAW code
     Shape of augmentation charge: BESSEL
     Using radial grid of 1107 points,  8 beta functions with:
                l(1) =   0
                l(2) =   0
                l(3) =   1
                l(4) =   1
                l(5) =   2
                l(6) =   2
                l(7) =   3
                l(8) =   3
     Q(r) pseudized with 0 coefficients

     PseudoPot. # 2 for Cr read from file:
     /home/pragov/projects/rrg-bengioy-ad/pragov/crystal_structure_design/SSSP/cr_pbe_v1.5.uspp.F.UPF
     MD5 check sum: 0d52af634a40206e4dee301ad30da4bf
     Pseudo is Ultrasoft + core correction, Zval = 14.0
     Generated by new atomic code, or converted to UPF format
     Using radial grid of  857 points,  6 beta functions with:
                l(1) =   0
                l(2) =   0
                l(3) =   1
                l(4) =   1
                l(5) =   2
                l(6) =   2
     Q(r) pseudized with  8 coefficients,  rinner =    0.950   0.950   0.950
                                                       0.950   0.950

     PseudoPot. # 3 for B  read from file:
     /home/pragov/projects/rrg-bengioy-ad/pragov/crystal_structure_design/SSSP/b_pbe_v1.4.uspp.F.UPF
     MD5 check sum: cc6de2960df11db49a60e589f9ebb39b
     Pseudo is Ultrasoft + core correction, Zval =  3.0
     Generated by new atomic code, or converted to UPF format
     Using radial grid of  781 points,  4 beta functions with:
                l(1) =   0
                l(2) =   0
                l(3) =   1
                l(4) =   1
     Q(r) pseudized with  8 coefficients,  rinner =    1.100   1.100   1.100

     atomic species   valence    mass     pseudopotential
        Sm            16.00   150.36000     Sm( 1.00)
        Cr            14.00    51.99610     Cr( 1.00)
        B              3.00    10.81000     B ( 1.00)

      2 Sym. Ops., with inversion, found

                                    s                        frac. trans.

      isym =  1     identity

 cryst.   s( 1) = (     1          0          0      )
                  (     0          1          0      )
                  (     0          0          1      )

 cart.    s( 1) = (  1.0000000  0.0000000 -0.0000000 )
                  (  0.0000000  1.0000000  0.0000000 )
                  (  0.0000000  0.0000000  1.0000000 )

      isym =  2     inversion

 cryst.   s( 2) = (    -1          0          0      )
                  (     0         -1          0      )
                  (     0          0         -1      )

 cart.    s( 2) = ( -1.0000000 -0.0000000  0.0000000 )
                  (  0.0000000 -1.0000000 -0.0000000 )
                  (  0.0000000  0.0000000 -1.0000000 )

   Cartesian axes

     site n.     atom                  positions (alat units)
         1           Sm  tau(   1) = (   0.3500084  -0.4039496   0.2536282  )
         2           Cr  tau(   2) = (   0.9669866   0.8378606   0.0000000  )
         3           Cr  tau(   3) = (   0.1753727   0.1519544   0.0000000  )
         4           B   tau(   4) = (   0.8225865   0.2047554   0.1821781  )
         5           B   tau(   5) = (   0.0197897  -0.0228395   0.3250783  )
         6           B   tau(   6) = (   0.9805171   0.4772203   0.1335398  )
         7           B   tau(   7) = (   0.5304126   0.0872203   0.1335398  )
         8           B   tau(   8) = (   0.3119634   0.0946946   0.3737165  )
         9           B   tau(   9) = (  -0.1381410  -0.2953054   0.3737165  )

   Crystallographic axes

     site n.     atom                  positions (cryst. coord.)
         1           Sm  tau(   1) = (  0.5000000 -0.0000000  0.5000000  )
         2           Cr  tau(   2) = (  0.8464820  0.8464820  0.0000000  )
         3           Cr  tau(   3) = (  0.1535180  0.1535180  0.0000000  )
         4           B   tau(   4) = (  0.8591440  0.5000000  0.3591440  )
         5           B   tau(   5) = (  0.1408560  0.5000000  0.6408560  )
         6           B   tau(   6) = (  0.9602650  0.6970060  0.2632590  )
         7           B   tau(   7) = (  0.5662520  0.3029930  0.2632590  )
         8           B   tau(   8) = (  0.4337480  0.6970060  0.7367410  )
         9           B   tau(   9) = (  0.0397350  0.3029930  0.7367410  )

     number of k points=    14
                       cart. coord. in units 2pi/alat
        k(    1) = (   0.0000000   0.0000000   0.0000000), wk =   0.0740741
        k(    2) = (   0.0000000   0.0000000   0.6571300), wk =   0.1481481
        k(    3) = (   0.0000000   0.3367633   0.5363576), wk =   0.1481481
        k(    4) = (   0.0000000   0.3367633   1.1934875), wk =   0.1481481
        k(    5) = (   0.0000000   0.3367633  -0.1207724), wk =   0.1481481
        k(    6) = (   0.3333333  -0.0479414   0.1207724), wk =   0.1481481
        k(    7) = (   0.3333333  -0.0479414   0.7779024), wk =   0.1481481
        k(    8) = (   0.3333333  -0.0479414  -0.5363576), wk =   0.1481481
        k(    9) = (   0.3333333   0.2888218   0.6571300), wk =   0.1481481
        k(   10) = (   0.3333333   0.2888218   1.3142600), wk =   0.1481481
        k(   11) = (   0.3333333   0.2888218   0.0000000), wk =   0.1481481
        k(   12) = (   0.3333333  -0.3847047  -0.4155852), wk =   0.1481481
        k(   13) = (   0.3333333  -0.3847047   0.2415448), wk =   0.1481481
        k(   14) = (   0.3333333  -0.3847047  -1.0727151), wk =   0.1481481

                       cryst. coord.
        k(    1) = (   0.0000000   0.0000000   0.0000000), wk =   0.0740741
        k(    2) = (   0.0000000   0.0000000   0.3333333), wk =   0.1481481
        k(    3) = (   0.0000000   0.3333333  -0.0000000), wk =   0.1481481
        k(    4) = (   0.0000000   0.3333333   0.3333333), wk =   0.1481481
        k(    5) = (   0.0000000   0.3333333  -0.3333333), wk =   0.1481481
        k(    6) = (   0.3333333  -0.0000000   0.0000000), wk =   0.1481481
        k(    7) = (   0.3333333  -0.0000000   0.3333333), wk =   0.1481481
        k(    8) = (   0.3333333  -0.0000000  -0.3333333), wk =   0.1481481
        k(    9) = (   0.3333333   0.3333333  -0.0000000), wk =   0.1481481
        k(   10) = (   0.3333333   0.3333333   0.3333333), wk =   0.1481481
        k(   11) = (   0.3333333   0.3333333  -0.3333333), wk =   0.1481481
        k(   12) = (   0.3333333  -0.3333333   0.0000000), wk =   0.1481481
        k(   13) = (   0.3333333  -0.3333333   0.3333333), wk =   0.1481481
        k(   14) = (   0.3333333  -0.3333333  -0.3333333), wk =   0.1481481

     Check: negative core charge=   -0.000007

     Initial potential from superposition of free atoms

     starting charge      59.9927, renormalised to      62.0000

     negative rho (up, down):  1.081E-03 0.000E+00
     Starting wfcs are   76 randomized atomic wfcs
     Checking if some PAW data can be deallocated...

     Self-consistent Calculation

     iteration #  1     ecut=    30.00 Ry     beta= 0.70
     Davidson diagonalization with overlap

     ethr =  1.00E-02,  avg # of iterations =  6.1

     negative rho (up, down):  1.177E-03 0.000E+00

     total energy              =    -969.99929031 Ry
     estimated scf accuracy    <      25.83682418 Ry

[...]

     total energy              =    -993.69522716 Ry
     estimated scf accuracy    <       0.00000494 Ry

     iteration # 48     ecut=    30.00 Ry     beta= 0.70
     Davidson diagonalization with overlap

     ethr =  6.68E-09,  avg # of iterations =  1.0

     negative rho (up, down):  1.330E-03 0.000E+00

     End of self-consistent calculation

          k = 0.0000 0.0000 0.0000 (  1575 PWs)   bands (ev):

   -56.7209 -56.6905 -28.1668 -28.1406 -28.0803 -28.0680 -28.0554 -27.8343
   -24.0075  -3.9268  -3.7827  -2.7288   2.0902   4.8774   6.8755   6.9896
     7.1355  10.8091  10.9475  11.4626  12.3984  12.6092  12.6232  12.6763
    12.6883  13.5959  13.9825  14.2974  14.8246  15.1356  15.1834  15.2335
    15.2546  15.3471  15.4424  15.9786  16.2614  16.8153  16.8192  17.6507
    17.7182  18.2851  19.0465  19.8010  20.3091  21.0946  21.7471  22.2839
    22.4128  22.7485  23.5115  23.6990  23.7420  23.9498  25.6155  25.9341
    25.9743  26.3787  27.7541  29.1564  29.2886  29.5526  30.6194  30.8046

     occupation numbers
     1.0000   1.0000   1.0000   1.0000   1.0000   1.0000   1.0000   1.0000
     1.0000   1.0000   1.0000   1.0000   1.0000   1.0000   1.0000   1.0000
     1.0000   1.0000   1.0000   1.0000   1.0000   1.0000   1.0000   1.0000
     1.0000   1.0000   1.0000   1.0000   1.0000   1.0000   1.0000   0.0000
     0.0000   0.0000   0.0000   0.0000   0.0000   0.0000   0.0000   0.0000
     0.0000   0.0000   0.0000   0.0000   0.0000   0.0000   0.0000   0.0000
     0.0000   0.0000   0.0000   0.0000   0.0000   0.0000   0.0000   0.0000
     0.0000   0.0000   0.0000   0.0000   0.0000   0.0000   0.0000   0.0000

[...]

          k = 0.3333-0.3847-1.0727 (  1605 PWs)   bands (ev):

   -56.7162 -56.6869 -28.2360 -28.2039 -28.0770 -28.0656 -28.0478 -27.8293
   -23.8564  -4.2153  -3.6723  -3.5999   4.5148   5.1709   5.3390   8.2221
     8.2803   9.5196  10.3118  10.6205  10.6477  10.8217  12.1050  12.7387
    12.7601  12.8870  13.3694  14.3266  14.4318  15.1546  15.2232  15.2415
    15.3229  15.4052  15.5093  15.5213  16.5047  16.5538  17.3304  17.4185
    18.2007  18.3455  19.2326  20.2608  20.5926  20.6759  21.6040  22.6201
    22.8765  23.0823  23.4581  25.1471  25.7257  25.9495  26.6176  26.7165
    27.3320  27.3467  27.7792  29.6333  29.9685  30.0866  30.8833  31.0413

     occupation numbers
     1.0000   1.0000   1.0000   1.0000   1.0000   1.0000   1.0000   1.0000
     1.0000   1.0000   1.0000   1.0000   1.0000   1.0000   1.0000   1.0000
     1.0000   1.0000   1.0000   1.0000   1.0000   1.0000   1.0000   1.0000
     1.0000   1.0000   1.0000   1.0000   1.0000   1.0000   1.0000   0.0000
     0.0000   0.0000   0.0000   0.0000   0.0000   0.0000   0.0000   0.0000
     0.0000   0.0000   0.0000   0.0000   0.0000   0.0000   0.0000   0.0000
     0.0000   0.0000   0.0000   0.0000   0.0000   0.0000   0.0000   0.0000
     0.0000   0.0000   0.0000   0.0000   0.0000   0.0000   0.0000   0.0000

     highest occupied, lowest unoccupied level (ev):    15.2232   15.1933

!    total energy              =    -993.69522656 Ry
     estimated scf accuracy    <       0.00000087 Ry

     The total energy is the sum of the following terms:
     one-electron contribution =    -189.79793251 Ry
     hartree contribution      =     136.69036938 Ry
     xc contribution           =     -81.07807424 Ry
     ewald contribution        =    -409.70676882 Ry
     one-center paw contrib.   =    -449.80282037 Ry
      -> PAW hartree energy AE =     129.41665382 Ry
      -> PAW hartree energy PS =    -126.75755621 Ry
      -> PAW xc energy AE      =    -469.44527327 Ry
      -> PAW xc energy PS      =      16.98335528 Ry
      -> total E_H with PAW    =     139.34946699 Ry
      -> total E_XC with PAW   =    -533.53999223 Ry

     convergence has been achieved in  48 iterations

     Writing all to output data dir calculations_bands/myprefix.save/

     General routines

     Parallel routines

     PAW routines

   This run was terminated on:  18:43:18   5Jun2023

   JOB DONE.