     Program PWSCF v.7.0 starts on  6Jun2023 at 12:10:31

     K-points division:     npool     =       2
     R & G space division:  proc/nbgrp/npool/nimage =       4

     Reading input from espresso_16566.pwi
Warning: card &CELL ignored
Warning: card / ignored

     Current dimensions of program PWSCF are:
     Max number of different atomic species (ntypx) = 10
     Max number of k-points (npk) =  40000
     Max angular momentum in pseudopotentials (lmaxx) =  4
     file Mg.pbe-n-kjpaw_psl.0.3.0.UPF: wavefunction(s)  3S renormalized
     Message from routine setup:
     using ibrav=0 with symmetry is DISCOURAGED, use correct ibrav instead

     Using Slab Decomposition

     bravais-lattice index     =            0
     lattice parameter (alat)  =       6.9428  a.u.
     unit-cell volume          =    1000.5957 (a.u.)^3
     number of atoms/cell      =            6
     number of atomic types    =            2
     number of electrons       =        30.00
     number of Kohn-Sham states=           64
     kinetic-energy cutoff     =      30.0000  Ry
     charge density cutoff     =     240.0000  Ry
     scf convergence threshold =      1.0E-06
     mixing beta               =       0.7000
     number of iterations used =            8  plain     mixing
     Exchange-correlation= SLA  PW   PBX  PBC
                           (   1   4   3   4   0   0   0)

     celldm(1)=   6.942841  celldm(2)=   0.000000  celldm(3)=   0.000000
     celldm(4)=   0.000000  celldm(5)=   0.000000  celldm(6)=   0.000000

     crystal axes: (cart. coord. in units of alat)
               a(1) = (   1.000000   0.000000   0.000000 )
               a(2) = (  -0.500000   1.611618   0.000000 )
               a(3) = (   0.000000   0.600307   1.855176 )

     reciprocal axes: (cart. coord. in units 2 pi/alat)
               b(1) = (  1.000000  0.310247 -0.100391 )
               b(2) = (  0.000000  0.620495 -0.200783 )
               b(3) = (  0.000000  0.000000  0.539033 )

     PseudoPot. # 1 for Dy read from file:
     /home/pragov/projects/rrg-bengioy-ad/pragov/crystal_structure_design/SSSP/Dy.GGA-PBE-paw-v1.0.UPF
     MD5 check sum: 733414aae3e3693a823ce0c917a68f08
     Pseudo is Projector augmented-wave + core cor, Zval = 20.0
     Generated using ATOMPAW code
     Shape of augmentation charge: BESSEL
     Using radial grid of 1112 points,  8 beta functions with:
                l(1) =   0
                l(2) =   0
                l(3) =   1
                l(4) =   1
                l(5) =   2
                l(6) =   2
                l(7) =   3
                l(8) =   3
     Q(r) pseudized with 0 coefficients

     PseudoPot. # 2 for Mg read from file:
     /home/pragov/projects/rrg-bengioy-ad/pragov/crystal_structure_design/SSSP/Mg.pbe-n-kjpaw_psl.0.3.0.UPF
     MD5 check sum: 24ecedc7f3e3cbe212e682f4413594e4
     Pseudo is Projector augmented-wave + core cor, Zval =  2.0
     Generated using "atomic" code by A. Dal Corso  v.5.0.99 svn rev. 10869
     Shape of augmentation charge: PSQ
     Using radial grid of 1129 points,  4 beta functions with:
                l(1) =   0
                l(2) =   0
                l(3) =   1
                l(4) =   1
     Q(r) pseudized with 0 coefficients

     atomic species   valence    mass     pseudopotential
        Dy            20.00   162.50000     Dy( 1.00)
        Mg             2.00    24.30500     Mg( 1.00)

      2 Sym. Ops. (no inversion) found

                                    s                        frac. trans.

      isym =  1     identity

 cryst.   s( 1) = (     1          0          0      )
                  (     0          1          0      )
                  (     0          0          1      )

 cart.    s( 1) = (  1.0000000  0.0000000 -0.0000000 )
                  (  0.0000000  1.0000000 -0.0000000 )
                  (  0.0000000  0.0000000  1.0000000 )

      isym =  2     inv. 180 deg rotation - cart. axis [1,0,0]

 cryst.   s( 2) = (    -1          0          0      )
                  (     1          1          0      )
                  (     0          0          1      )

 cart.    s( 2) = ( -1.0000000 -0.0000002  0.0000001 )
                  (  0.0000000  1.0000000 -0.0000000 )
                  (  0.0000000  0.0000000  1.0000000 )

   Cartesian axes

     site n.     atom                  positions (alat units)
         1           Dy  tau(   1) = (  -0.0000001   1.6317917   1.4416181  )
         2           Mg  tau(   2) = (  -0.0000000   0.6874952   1.7621497  )
         3           Mg  tau(   3) = (   0.4999994   0.6817220   0.2249289  )
         4           Mg  tau(   4) = (  -0.0000001   1.3294052   0.5165421  )
         5           Mg  tau(   5) = (  -0.0000000   0.3701042   0.8018904  )
         6           Mg  tau(   6) = (   0.4999994   0.9608942   1.1275906  )

   Crystallographic axes

     site n.     atom                  positions (cryst. coord.)
         1           Dy  tau(   1) = (  0.3615330  0.7230660  0.7770790  )
         2           Mg  tau(   2) = (  0.0363890  0.0727780  0.9498560  )
         3           Mg  tau(   3) = (  0.6889210  0.3778430  0.1212440  )
         4           Mg  tau(   4) = (  0.3605880  0.7211760  0.2784330  )
         5           Mg  tau(   5) = (  0.0343210  0.0686420  0.4322450  )
         6           Mg  tau(   6) = (  0.6849140  0.3698290  0.6078080  )

     number of k points=    10
                       cart. coord. in units 2pi/alat
        k(    1) = (   0.0000000   0.0000000   0.0000000), wk =   0.0740741
        k(    2) = (   0.0000000   0.0000000   0.1796775), wk =   0.1481481
        k(    3) = (   0.0000000   0.2068315  -0.0669275), wk =   0.1481481
        k(    4) = (   0.0000000   0.2068315   0.1127500), wk =   0.1481481
        k(    5) = (   0.0000000   0.2068315  -0.2466050), wk =   0.1481481
        k(    6) = (   0.3333333   0.1034158  -0.0334638), wk =   0.2962963
        k(    7) = (   0.3333333   0.1034158   0.1462137), wk =   0.2962963
        k(    8) = (   0.3333333   0.1034158  -0.2131413), wk =   0.2962963
        k(    9) = (   0.3333333   0.3102473  -0.1003913), wk =   0.1481481
        k(   10) = (   0.3333333   0.3102473   0.0792862), wk =   0.2962963

                       cryst. coord.
        k(    1) = (   0.0000000   0.0000000   0.0000000), wk =   0.0740741
        k(    2) = (   0.0000000   0.0000000   0.3333333), wk =   0.1481481
        k(    3) = (   0.0000000   0.3333333  -0.0000000), wk =   0.1481481
        k(    4) = (   0.0000000   0.3333333   0.3333333), wk =   0.1481481
        k(    5) = (   0.0000000   0.3333333  -0.3333333), wk =   0.1481481
        k(    6) = (   0.3333333   0.0000000   0.0000000), wk =   0.2962963
        k(    7) = (   0.3333333   0.0000000   0.3333333), wk =   0.2962963
        k(    8) = (   0.3333333   0.0000000  -0.3333333), wk =   0.2962963
        k(    9) = (   0.3333333   0.3333333  -0.0000000), wk =   0.1481481
        k(   10) = (   0.3333333   0.3333333   0.3333333), wk =   0.2962963

     Initial potential from superposition of free atoms

     starting charge      29.9916, renormalised to      30.0000
     Starting wfcs are   52 randomized atomic wfcs +   12 random wfcs
     Checking if some PAW data can be deallocated...

     Self-consistent Calculation

     iteration #  1     ecut=    30.00 Ry     beta= 0.70
     Davidson diagonalization with overlap

     ethr =  1.00E-02,  avg # of iterations =  7.6

     total energy              =    -927.50762271 Ry
     estimated scf accuracy    <      15.43796250 Ry

[...]

     total energy              =    -945.05919147 Ry
     estimated scf accuracy    <       0.00000355 Ry

     iteration # 64     ecut=    30.00 Ry     beta= 0.70
     Davidson diagonalization with overlap

     ethr =  1.18E-08,  avg # of iterations =  1.0

     End of self-consistent calculation

          k = 0.0000 0.0000 0.0000 (  2771 PWs)   bands (ev):

   -39.9257 -16.2053 -16.1886 -16.0045  -1.0943   2.0326   2.3110   3.3650
     3.7215   4.3721   4.6988   5.1511   5.1711   5.2296   5.2566   5.3294
     5.3729   5.3748   6.7679   8.1251   8.4901   8.9827   9.4149   9.6033
    10.4671  10.6708  10.7612  11.1326  11.6704  12.5488  12.5730  12.6008
    13.5699  13.5721  13.6693  15.1382  15.4212  15.5227  15.8275  16.0743
    16.1026  16.2476  17.7351  17.7422  17.9312  18.2675  19.0485  19.5707
    19.6432  19.8878  20.1867  20.4012  20.4836  20.8998  21.1811  21.5875
    21.8673  22.3755  22.6191  22.8379  23.2147  23.8149  24.1553  24.4663

     occupation numbers
     1.0000   1.0000   1.0000   1.0000   1.0000   1.0000   1.0000   1.0000
     1.0000   1.0000   1.0000   1.0000   1.0000   1.0000   1.0000   0.0000
     0.0000   0.0000   0.0000   0.0000   0.0000   0.0000   0.0000   0.0000
     0.0000   0.0000   0.0000   0.0000   0.0000   0.0000   0.0000   0.0000
     0.0000   0.0000   0.0000   0.0000   0.0000   0.0000   0.0000   0.0000
     0.0000   0.0000   0.0000   0.0000   0.0000   0.0000   0.0000   0.0000
     0.0000   0.0000   0.0000   0.0000   0.0000   0.0000   0.0000   0.0000
     0.0000   0.0000   0.0000   0.0000   0.0000   0.0000   0.0000   0.0000

[...]

          k = 0.3333 0.3102 0.0793 (  2783 PWs)   bands (ev):

   -39.9155 -16.2376 -16.1789 -16.1613   1.2581   1.7527   2.4869   3.6479
     4.0808   4.9611   5.0583   5.1325   5.1551   5.1933   5.2438   5.3284
     5.4216   5.4881   6.5193   6.8227   7.1139   8.1771   8.2873   8.7131
     9.2816   9.7206  10.1078  10.3378  10.4977  11.0243  11.6058  12.4167
    12.6794  13.0352  14.1041  14.6621  15.2376  15.6666  16.0234  16.2162
    16.6380  17.8502  18.3134  19.1497  19.3667  19.6298  19.8468  20.2508
    20.4944  21.0583  21.3634  21.5961  21.9821  22.3117  22.4095  22.5912
    22.9403  23.3434  24.2572  24.3084  24.7357  24.9935  25.3161  25.3647

     occupation numbers
     1.0000   1.0000   1.0000   1.0000   1.0000   1.0000   1.0000   1.0000
     1.0000   1.0000   1.0000   1.0000   1.0000   1.0000   1.0000   0.0000
     0.0000   0.0000   0.0000   0.0000   0.0000   0.0000   0.0000   0.0000
     0.0000   0.0000   0.0000   0.0000   0.0000   0.0000   0.0000   0.0000
     0.0000   0.0000   0.0000   0.0000   0.0000   0.0000   0.0000   0.0000
     0.0000   0.0000   0.0000   0.0000   0.0000   0.0000   0.0000   0.0000
     0.0000   0.0000   0.0000   0.0000   0.0000   0.0000   0.0000   0.0000
     0.0000   0.0000   0.0000   0.0000   0.0000   0.0000   0.0000   0.0000

     highest occupied, lowest unoccupied level (ev):     5.3462    5.3284

!    total energy              =    -945.05919032 Ry

     total all-electron energy =     -2780.330234 Ry
     estimated scf accuracy    <       0.00000087 Ry

     The total energy is the sum of the following terms:
     one-electron contribution =    -295.80728032 Ry
     hartree contribution      =     156.38960163 Ry
     xc contribution           =     -35.70356491 Ry
     ewald contribution        =    -133.26908769 Ry
     one-center paw contrib.   =    -636.66885903 Ry
      -> PAW hartree energy AE =     258.28853057 Ry
      -> PAW hartree energy PS =    -239.92224711 Ry
      -> PAW xc energy AE      =    -525.25526897 Ry
      -> PAW xc energy PS      =      26.71669380 Ry
      -> total E_H with PAW    =     174.75588509 Ry
      -> total E_XC with PAW   =    -534.24214008 Ry

     convergence has been achieved in  64 iterations

     Writing all to output data dir calculations_bands/myprefix.save/

     General routines

     Parallel routines

     PAW routines

   This run was terminated on:  12:11:28   6Jun2023

   JOB DONE.