     Program PWSCF v.7.0 starts on 23Jun2023 at  8:18:19

     K-points division:     npool     =       2
     R & G space division:  proc/nbgrp/npool/nimage =       4

     Reading input from espresso_2577.pwi
Warning: card &CELL ignored
Warning: card / ignored

     Current dimensions of program PWSCF are:
     Max number of different atomic species (ntypx) = 10
     Max number of k-points (npk) =  40000
     Max angular momentum in pseudopotentials (lmaxx) =  4
     Message from routine setup:
     using ibrav=0 with symmetry is DISCOURAGED, use correct ibrav instead

     Using Slab Decomposition

     bravais-lattice index     =            0
     lattice parameter (alat)  =       9.9973  a.u.
     unit-cell volume          =    1657.3880 (a.u.)^3
     number of atoms/cell      =           16
     number of atomic types    =            3
     number of electrons       =       168.00
     number of Kohn-Sham states=           90
     kinetic-energy cutoff     =      30.0000  Ry
     charge density cutoff     =     240.0000  Ry
     scf convergence threshold =      1.0E-06
     mixing beta               =       0.7000
     number of iterations used =            8  plain     mixing
     Exchange-correlation=  SLA  PW   PBX  PBC
                           (   1   4   3   4   0   0   0)

     celldm(1)=   9.997279  celldm(2)=   0.000000  celldm(3)=   0.000000
     celldm(4)=   0.000000  celldm(5)=   0.000000  celldm(6)=   0.000000

     crystal axes: (cart. coord. in units of alat)
               a(1) = (   1.000000   0.000000   0.000000 )
               a(2) = (  -0.733247   0.679963   0.000000 )
               a(3) = (   0.000000   0.000000   2.439460 )

     reciprocal axes: (cart. coord. in units 2 pi/alat)
               b(1) = (  1.000000  1.078363  0.000000 )
               b(2) = (  0.000000  1.470669  0.000000 )
               b(3) = (  0.000000  0.000000  0.409927 )

     PseudoPot. # 1 for Hf read from file:
     /home/pragov/projects/rrg-bengioy-ad/pragov/crystal_structure_design/SSSP/Hf-sp.oncvpsp.upf
     MD5 check sum: 417ed15784afe83d2e06dacf143de3f8
     Pseudo is Norm-conserving + core correction, Zval = 12.0
     Generated using ONCVPSP code by D. R. Hamann
     Using radial grid of 1656 points,  8 beta functions with:
                l(1) =   0
                l(2) =   0
                l(3) =   1
                l(4) =   1
                l(5) =   2
                l(6) =   2
                l(7) =   3
                l(8) =   3

     PseudoPot. # 2 for Si read from file:
     /home/pragov/projects/rrg-bengioy-ad/pragov/crystal_structure_design/SSSP/Si.pbe-n-rrkjus_psl.1.0.0.UPF
     MD5 check sum: 0b0bb1205258b0d07b9f9672cf965d36
     Pseudo is Ultrasoft + core correction, Zval =  4.0
     Generated using "atomic" code by A. Dal Corso  v.5.1
     Using radial grid of 1141 points,  6 beta functions with:
                l(1) =   0
                l(2) =   0
                l(3) =   1
                l(4) =   1
                l(5) =   2
                l(6) =   2
     Q(r) pseudized with 0 coefficients

     PseudoPot. # 3 for Ni read from file:
     /home/pragov/projects/rrg-bengioy-ad/pragov/crystal_structure_design/SSSP/ni_pbe_v1.4.uspp.F.UPF
     MD5 check sum: 1ee80287db30b12d2bc1f57a5b5d6409
     Pseudo is Ultrasoft + core correction, Zval = 18.0
     Generated by new atomic code, or converted to UPF format
     Using radial grid of  865 points,  6 beta functions with:
                l(1) =   0
                l(2) =   0
                l(3) =   1
                l(4) =   1
                l(5) =   2
                l(6) =   2
     Q(r) pseudized with 10 coefficients,  rinner =    0.980   0.980   0.980
                                                       0.980   0.980

     atomic species   valence    mass     pseudopotential
        Hf            12.00   178.49000     Hf( 1.00)
        Si             4.00    28.08500     Si( 1.00)
        Ni            18.00    58.69340     Ni( 1.00)

      4 Sym. Ops., with inversion, found ( 2 have fractional translation)

                                    s                        frac. trans.

      isym =  1     identity

 cryst.   s( 1) = (     1          0          0      )
                  (     0          1          0      )
                  (     0          0          1      )

 cart.    s( 1) = (  1.0000000 -0.0000000  0.0000000 )
                  (  0.0000000  1.0000000  0.0000000 )
                  (  0.0000000  0.0000000  1.0000000 )

      isym =  2     180 deg rotation - cart. axis [0,0,1]

 cryst.   s( 2) = (    -1          0          0      )    f =( -0.0000000 )
                  (     0         -1          0      )       (  0.0000000 )
                  (     0          0          1      )       ( -0.5000000 )

 cart.    s( 2) = ( -1.0000000  0.0000000  0.0000000 )    f =( -0.0000000 )
                  (  0.0000000 -1.0000000  0.0000000 )       (  0.0000000 )
                  (  0.0000000  0.0000000  1.0000000 )       ( -1.2197300 )

      isym =  3     inversion

 cryst.   s( 3) = (    -1          0          0      )
                  (     0         -1          0      )
                  (     0          0         -1      )

 cart.    s( 3) = ( -1.0000000  0.0000000  0.0000000 )
                  (  0.0000000 -1.0000000  0.0000000 )
                  (  0.0000000  0.0000000 -1.0000000 )

      isym =  4     inv. 180 deg rotation - cart. axis [0,0,1]

 cryst.   s( 4) = (     1          0          0      )    f =(  0.0000000 )
                  (     0          1          0      )       (  0.0000000 )
                  (     0          0         -1      )       (  0.5000000 )

 cart.    s( 4) = (  1.0000000 -0.0000000  0.0000000 )    f =(  0.0000000 )
                  (  0.0000000  1.0000000  0.0000000 )       (  0.0000000 )
                  (  0.0000000  0.0000000 -1.0000000 )       (  1.2197300 )

   Cartesian axes

     site n.     atom                  positions (alat units)
         1           Hf  tau(   1) = (  -0.5002325   0.5885499   0.6098650  )
         2           Hf  tau(   2) = (   0.7669858   0.0914128   1.8295949  )
         3           Hf  tau(   3) = (   0.2602573   0.2902054   1.5065763  )
         4           Hf  tau(   4) = (   0.0064961   0.3897574   0.9328836  )
         5           Hf  tau(   5) = (   0.0064961   0.3897574   0.2868463  )
         6           Hf  tau(   6) = (   0.2602573   0.2902054   2.1526136  )
         7           Si  tau(   7) = (   0.7248159   0.1079563   0.6098650  )
         8           Si  tau(   8) = (  -0.4580626   0.5720064   1.8295949  )
         9           Si  tau(   9) = (   0.8059752   0.0761171   1.3190135  )
        10           Si  tau(  10) = (  -0.5392218   0.6038457   1.1204464  )
        11           Si  tau(  11) = (  -0.5392218   0.6038457   0.0992836  )
        12           Si  tau(  12) = (   0.8059752   0.0761171   2.3401763  )
        13           Ni  tau(  13) = (  -0.2448178   0.4883492   2.2217967  )
        14           Ni  tau(  14) = (   0.5115711   0.1916135   0.2176633  )
        15           Ni  tau(  15) = (   0.5115711   0.1916135   1.0020667  )
        16           Ni  tau(  16) = (  -0.2448178   0.4883492   1.4373932  )

   Crystallographic axes

     site n.     atom                  positions (cryst. coord.)
         1           Hf  tau(   1) = (  0.1344380  0.8655620  0.2500000  )
         2           Hf  tau(   2) = (  0.8655620  0.1344380  0.7500000  )
         3           Hf  tau(   3) = (  0.5732040  0.4267960  0.6175860  )
         4           Hf  tau(   4) = (  0.4267960  0.5732040  0.3824140  )
         5           Hf  tau(   5) = (  0.4267960  0.5732040  0.1175860  )
         6           Hf  tau(   6) = (  0.5732040  0.4267960  0.8824140  )
         7           Si  tau(   7) = (  0.8412320  0.1587680  0.2500000  )
         8           Si  tau(   8) = (  0.1587680  0.8412320  0.7500000  )
         9           Si  tau(   9) = (  0.8880570  0.1119430  0.5406990  )
        10           Si  tau(  10) = (  0.1119430  0.8880570  0.4593010  )
        11           Si  tau(  11) = (  0.1119430  0.8880570  0.0406990  )
        12           Si  tau(  12) = (  0.8880570  0.1119430  0.9593010  )
        13           Ni  tau(  13) = (  0.2818000  0.7182000  0.9107740  )
        14           Ni  tau(  14) = (  0.7182000  0.2818000  0.0892260  )
        15           Ni  tau(  15) = (  0.7182000  0.2818000  0.4107740  )
        16           Ni  tau(  16) = (  0.2818000  0.7182000  0.5892260  )

     number of k points=    10
                       cart. coord. in units 2pi/alat
        k(    1) = (   0.0000000   0.0000000   0.0000000), wk =   0.0740741
        k(    2) = (   0.0000000   0.0000000   0.1366423), wk =   0.1481481
        k(    3) = (   0.0000000   0.4902229   0.0000000), wk =   0.1481481
        k(    4) = (   0.0000000   0.4902229   0.1366423), wk =   0.2962963
        k(    5) = (   0.3333333   0.3594543   0.0000000), wk =   0.1481481
        k(    6) = (   0.3333333   0.3594543   0.1366423), wk =   0.2962963
        k(    7) = (   0.3333333   0.8496773   0.0000000), wk =   0.1481481
        k(    8) = (   0.3333333   0.8496773   0.1366423), wk =   0.2962963
        k(    9) = (   0.3333333  -0.1307686   0.0000000), wk =   0.1481481
        k(   10) = (   0.3333333  -0.1307686   0.1366423), wk =   0.2962963

                       cryst. coord.
        k(    1) = (   0.0000000   0.0000000   0.0000000), wk =   0.0740741
        k(    2) = (   0.0000000   0.0000000   0.3333333), wk =   0.1481481
        k(    3) = (   0.0000000   0.3333333   0.0000000), wk =   0.1481481
        k(    4) = (   0.0000000   0.3333333   0.3333333), wk =   0.2962963
        k(    5) = (   0.3333333   0.0000000   0.0000000), wk =   0.1481481
        k(    6) = (   0.3333333   0.0000000   0.3333333), wk =   0.2962963
        k(    7) = (   0.3333333   0.3333333   0.0000000), wk =   0.1481481
        k(    8) = (   0.3333333   0.3333333   0.3333333), wk =   0.2962963
        k(    9) = (   0.3333333  -0.3333333   0.0000000), wk =   0.1481481
        k(   10) = (   0.3333333  -0.3333333   0.3333333), wk =   0.2962963

     Check: negative core charge=   -0.000003

     Initial potential from superposition of free atoms

     starting charge     159.9855, renormalised to     168.0000
     Starting wfcs are  136 randomized atomic wfcs

     Self-consistent Calculation

     iteration #  1     ecut=    30.00 Ry     beta= 0.70
     Davidson diagonalization with overlap

     ethr =  1.00E-02,  avg # of iterations =  4.0

     total energy              =   -2038.29657615 Ry
     estimated scf accuracy    <     106.89267136 Ry

[...]

     c_bands:  1 eigenvalues not converged
     ethr =  1.38E-05,  avg # of iterations = 15.3

[...]

     total energy              =   -2118.51345007 Ry
     estimated scf accuracy    <       0.00001087 Ry

     iteration # 20     ecut=    30.00 Ry     beta= 0.70
     Davidson diagonalization with overlap

     ethr =  4.75E-09,  avg # of iterations =  3.6

     End of self-consistent calculation

          k = 0.0000 0.0000 0.0000 (  4621 PWs)   bands (ev):

   -89.0714 -89.0713 -89.0699 -89.0679 -49.4374 -49.4359 -49.4292 -49.4234
   -49.4154 -49.4129 -49.4071 -49.4030 -49.3553 -49.3528 -49.3418 -49.3396
   -46.9523 -46.9267 -46.9234 -46.9175 -46.8487 -46.8398 -15.7998 -15.7561
   -15.7501 -15.7160 -15.7142 -15.7034 -15.6904 -15.6870 -15.6769 -15.6726
   -15.6713 -15.6152 -15.5654 -15.5610 -15.5584 -15.5404 -15.4788 -15.4723
     3.4397   3.9610   5.2379   6.5090   7.3759   7.4362   9.1266   9.3203
     9.3612  10.1818  11.2182  11.2767  11.2831  11.3190  11.3741  11.3929
    11.4321  11.5953  11.7379  11.8261  11.9430  11.9710  12.1892  12.2134
    12.2147  12.4019  12.5163  12.5542  12.7217  12.8436  12.8581  12.8693
    13.1492  13.2305  13.2454  13.3101  13.4572  13.6271  13.6626  13.7645
    13.8289  14.0672  14.3622  14.6135  14.6655  14.7411  15.5845  16.0025
    16.3073  16.5004

     occupation numbers
     1.0000   1.0000   1.0000   1.0000   1.0000   1.0000   1.0000   1.0000
     1.0000   1.0000   1.0000   1.0000   1.0000   1.0000   1.0000   1.0000
     1.0000   1.0000   1.0000   1.0000   1.0000   1.0000   1.0000   1.0000
     1.0000   1.0000   1.0000   1.0000   1.0000   1.0000   1.0000   1.0000
     1.0000   1.0000   1.0000   1.0000   1.0000   1.0000   1.0000   1.0000
     1.0000   1.0000   1.0000   1.0000   1.0000   1.0000   1.0000   1.0000
     1.0000   1.0000   1.0000   1.0000   1.0000   1.0000   1.0000   1.0000
     1.0000   1.0000   1.0000   1.0000   1.0000   1.0000   1.0000   1.0000
     1.0000   1.0000   1.0000   1.0000   1.0000   1.0000   1.0000   1.0000
     1.0000   1.0000   1.0000   1.0000   1.0000   1.0000   1.0000   1.0000
     1.0000   1.0000   1.0000   1.0000   0.0000   0.0000   0.0000   0.0000
     0.0000   0.0000

[...]

          k = 0.3333-0.1308 0.1366 (  4601 PWs)   bands (ev):

   -89.0695 -89.0691 -89.0688 -89.0684 -49.4333 -49.4309 -49.4293 -49.4283
   -49.4112 -49.4098 -49.4021 -49.4010 -49.3454 -49.3432 -49.3414 -49.3405
   -46.9334 -46.9272 -46.9158 -46.9113 -46.8454 -46.8417 -15.8253 -15.7918
   -15.7486 -15.7423 -15.7225 -15.7153 -15.6905 -15.6843 -15.6827 -15.6762
   -15.6314 -15.5912 -15.5478 -15.5461 -15.5238 -15.5175 -15.4962 -15.4868
     4.2085   4.4191   5.9277   6.0530   6.3430   6.5896   8.7858   9.1590
     9.7608  10.1119  10.6228  11.0150  11.0312  11.0956  11.3689  11.4221
    11.4486  11.5409  11.6294  11.6894  11.7401  11.8913  12.0428  12.1214
    12.4574  12.4867  12.5047  12.5834  12.6228  12.7228  12.8609  13.1188
    13.1925  13.3135  13.5088  13.6412  13.7517  13.9871  14.0002  14.1456
    14.7607  14.7911  14.9971  15.0449  15.2127  15.2842  15.6302  15.8135
    16.0597  16.3728

     occupation numbers
     1.0000   1.0000   1.0000   1.0000   1.0000   1.0000   1.0000   1.0000
     1.0000   1.0000   1.0000   1.0000   1.0000   1.0000   1.0000   1.0000
     1.0000   1.0000   1.0000   1.0000   1.0000   1.0000   1.0000   1.0000
     1.0000   1.0000   1.0000   1.0000   1.0000   1.0000   1.0000   1.0000
     1.0000   1.0000   1.0000   1.0000   1.0000   1.0000   1.0000   1.0000
     1.0000   1.0000   1.0000   1.0000   1.0000   1.0000   1.0000   1.0000
     1.0000   1.0000   1.0000   1.0000   1.0000   1.0000   1.0000   1.0000
     1.0000   1.0000   1.0000   1.0000   1.0000   1.0000   1.0000   1.0000
     1.0000   1.0000   1.0000   1.0000   1.0000   1.0000   1.0000   1.0000
     1.0000   1.0000   1.0000   1.0000   1.0000   1.0000   1.0000   1.0000
     1.0000   1.0000   1.0000   1.0000   0.0000   0.0000   0.0000   0.0000
     0.0000   0.0000

     highest occupied, lowest unoccupied level (ev):    15.2377   14.5147

!    total energy              =   -2118.51345124 Ry
     estimated scf accuracy    <       0.00000004 Ry

     The total energy is the sum of the following terms:
     one-electron contribution =   -1255.79820365 Ry
     hartree contribution      =     707.92267680 Ry
     xc contribution           =    -351.11204670 Ry
     ewald contribution        =   -1219.52587770 Ry

     convergence has been achieved in  20 iterations

     Writing all to output data dir calculations_bands/myprefix.save/

     General routines

     Parallel routines

   This run was terminated on:   8:18:52  23Jun2023

   JOB DONE.