     Program PWSCF v.7.0 starts on  6Jun2023 at  5: 0:36

     K-points division:     npool     =       2
     R & G space division:  proc/nbgrp/npool/nimage =       4

     Reading input from espresso_13566.pwi
Warning: card &CELL ignored
Warning: card / ignored

     Current dimensions of program PWSCF are:
     Max number of different atomic species (ntypx) = 10
     Max number of k-points (npk) =  40000
     Max angular momentum in pseudopotentials (lmaxx) =  4
     file Nb.pbe-spn-kjpaw_psl.0.3.0.UPF: wavefunction(s)  4S 4P renormalized
     file O.pbe-n-kjpaw_psl.0.1.UPF: wavefunction(s)  2P renormalized
     Message from routine setup:
     using ibrav=0 with symmetry is DISCOURAGED, use correct ibrav instead

     Using Slab Decomposition

     bravais-lattice index     =            0
     lattice parameter (alat)  =      13.1829  a.u.
     unit-cell volume          =    1227.1959 (a.u.)^3
     number of atoms/cell      =           12
     number of atomic types    =            3
     number of electrons       =       124.00
     number of Kohn-Sham states=           64
     kinetic-energy cutoff     =      30.0000  Ry
     charge density cutoff     =     240.0000  Ry
     scf convergence threshold =      1.0E-06
     mixing beta               =       0.7000
     number of iterations used =            8  plain     mixing
     Exchange-correlation= SLA  PW   PBX  PBC
                           (   1   4   3   4   0   0   0)

     celldm(1)=  13.182873  celldm(2)=   0.000000  celldm(3)=   0.000000
     celldm(4)=   0.000000  celldm(5)=   0.000000  celldm(6)=   0.000000

     crystal axes: (cart. coord. in units of alat)
               a(1) = (   1.000000   0.000000   0.000000 )
               a(2) = (   0.835819   0.549006   0.000000 )
               a(3) = (   0.291256   0.087101   0.975679 )

     reciprocal axes: (cart. coord. in units 2 pi/alat)
               b(1) = (  1.000000 -1.522423 -0.162607 )
               b(2) = (  0.000000  1.821475 -0.162607 )
               b(3) = (  0.000000  0.000000  1.024927 )

     PseudoPot. # 1 for Lu read from file:
     /home/pragov/projects/rrg-bengioy-ad/pragov/crystal_structure_design/SSSP/Lu.GGA-PBE-paw-v1.0.UPF
     MD5 check sum: 9ceca61ee0c17e9380a83635bfffa61d
     Pseudo is Projector augmented-wave + core cor, Zval = 25.0
     Generated using ATOMPAW code
     Shape of augmentation charge: BESSEL
     Using radial grid of 1118 points,  8 beta functions with:
                l(1) =   0
                l(2) =   0
                l(3) =   1
                l(4) =   1
                l(5) =   2
                l(6) =   2
                l(7) =   3
                l(8) =   3
     Q(r) pseudized with 0 coefficients

     PseudoPot. # 2 for Nb read from file:
     /home/pragov/projects/rrg-bengioy-ad/pragov/crystal_structure_design/SSSP/Nb.pbe-spn-kjpaw_psl.0.3.0.UPF
     MD5 check sum: 411d72ad547312f8017e2943ceca08cc
     Pseudo is Projector augmented-wave + core cor, Zval = 13.0
     Generated using "atomic" code by A. Dal Corso  v.5.0.99 svn rev. 10869
     Shape of augmentation charge: PSQ
     Using radial grid of 1227 points,  6 beta functions with:
                l(1) =   0
                l(2) =   0
                l(3) =   1
                l(4) =   1
                l(5) =   2
                l(6) =   2
     Q(r) pseudized with 0 coefficients

     PseudoPot. # 3 for O  read from file:
     /home/pragov/projects/rrg-bengioy-ad/pragov/crystal_structure_design/SSSP/O.pbe-n-kjpaw_psl.0.1.UPF
     MD5 check sum: 0234752ac141de4415c5fc33072bef88
     Pseudo is Projector augmented-wave + core cor, Zval =  6.0
     Generated using "atomic" code by A. Dal Corso  v.5.0.99 svn rev. 10869
     Shape of augmentation charge: BESSEL
     Using radial grid of 1095 points,  4 beta functions with:
                l(1) =   0
                l(2) =   0
                l(3) =   1
                l(4) =   1
     Q(r) pseudized with 0 coefficients

     atomic species   valence    mass     pseudopotential
        Lu            25.00   174.96680     Lu( 1.00)
        Nb            13.00    92.90637     Nb( 1.00)
        O              6.00    15.99900     O ( 1.00)

      2 Sym. Ops., with inversion, found

                                    s                        frac. trans.

      isym =  1     identity

 cryst.   s( 1) = (     1          0          0      )
                  (     0          1          0      )
                  (     0          0          1      )

 cart.    s( 1) = (  1.0000000  0.0000000 -0.0000000 )
                  (  0.0000000  1.0000000 -0.0000000 )
                  (  0.0000000  0.0000000  1.0000000 )

      isym =  2     inversion

 cryst.   s( 2) = (    -1          0          0      )
                  (     0         -1          0      )
                  (     0          0         -1      )

 cart.    s( 2) = ( -1.0000000 -0.0000000  0.0000000 )
                  (  0.0000000 -1.0000000  0.0000000 )
                  (  0.0000000  0.0000000 -1.0000000 )

   Cartesian axes

     site n.     atom                  positions (alat units)
         1           Lu  tau(   1) = (   1.7082588   0.5108585   0.7761117  )
         2           Lu  tau(   2) = (   0.4188164   0.1252479   0.1995673  )
         3           Nb  tau(   3) = (   1.7128226   0.5122233   0.2087738  )
         4           Nb  tau(   4) = (   0.4142525   0.1238831   0.7669052  )
         5           O   tau(   5) = (   1.9986507   0.5977008   0.8465401  )
         6           O   tau(   6) = (   1.7324164   0.5180829   0.4703807  )
         7           O   tau(   7) = (   0.7011566   0.2096824   0.8376848  )
         8           O   tau(   8) = (   0.7373133   0.2204951   0.1946070  )
         9           O   tau(   9) = (   1.3897618   0.4156113   0.7810720  )
        10           O   tau(  10) = (   1.4259186   0.4264240   0.1379942  )
        11           O   tau(  11) = (   0.3946587   0.1180235   0.5052983  )
        12           O   tau(  12) = (   0.1284245   0.0384056   0.1291389  )

   Crystallographic axes

     site n.     atom                  positions (cryst. coord.)
         1           Lu  tau(   1) = (  0.8043150  0.8043150  0.7954580  )
         2           Lu  tau(   2) = (  0.1956850  0.1956850  0.2045420  )
         3           Nb  tau(   3) = (  0.8990540  0.8990540  0.2139780  )
         4           Nb  tau(   4) = (  0.1009460  0.1009460  0.7860220  )
         5           O   tau(   5) = (  0.9510440  0.9510440  0.8676420  )
         6           O   tau(   6) = (  0.8671880  0.8671880  0.4821060  )
         7           O   tau(   7) = (  0.2457180  0.2457180  0.8585660  )
         8           O   tau(   8) = (  0.3699820  0.3699820  0.1994580  )
         9           O   tau(   9) = (  0.6300180  0.6300180  0.8005420  )
        10           O   tau(  10) = (  0.7542820  0.7542820  0.1414340  )
        11           O   tau(  11) = (  0.1328120  0.1328120  0.5178940  )
        12           O   tau(  12) = (  0.0489560  0.0489560  0.1323580  )

     number of k points=    14
                       cart. coord. in units 2pi/alat
        k(    1) = (   0.0000000   0.0000000   0.0000000), wk =   0.0740741
        k(    2) = (   0.0000000   0.0000000   0.3416424), wk =   0.1481481
        k(    3) = (   0.0000000   0.6071584  -0.0542023), wk =   0.1481481
        k(    4) = (   0.0000000   0.6071584   0.2874401), wk =   0.1481481
        k(    5) = (   0.0000000   0.6071584  -0.3958447), wk =   0.1481481
        k(    6) = (   0.3333333  -0.5074744  -0.0542023), wk =   0.1481481
        k(    7) = (   0.3333333  -0.5074744   0.2874401), wk =   0.1481481
        k(    8) = (   0.3333333  -0.5074744  -0.3958447), wk =   0.1481481
        k(    9) = (   0.3333333   0.0996841  -0.1084045), wk =   0.1481481
        k(   10) = (   0.3333333   0.0996841   0.2332379), wk =   0.1481481
        k(   11) = (   0.3333333   0.0996841  -0.4500470), wk =   0.1481481
        k(   12) = (   0.3333333  -1.1146328   0.0000000), wk =   0.1481481
        k(   13) = (   0.3333333  -1.1146328   0.3416424), wk =   0.1481481
        k(   14) = (   0.3333333  -1.1146328  -0.3416424), wk =   0.1481481

                       cryst. coord.
        k(    1) = (   0.0000000   0.0000000   0.0000000), wk =   0.0740741
        k(    2) = (   0.0000000   0.0000000   0.3333333), wk =   0.1481481
        k(    3) = (   0.0000000   0.3333333   0.0000000), wk =   0.1481481
        k(    4) = (   0.0000000   0.3333333   0.3333333), wk =   0.1481481
        k(    5) = (   0.0000000   0.3333333  -0.3333333), wk =   0.1481481
        k(    6) = (   0.3333333  -0.0000000  -0.0000000), wk =   0.1481481
        k(    7) = (   0.3333333  -0.0000000   0.3333333), wk =   0.1481481
        k(    8) = (   0.3333333  -0.0000000  -0.3333333), wk =   0.1481481
        k(    9) = (   0.3333333   0.3333333  -0.0000000), wk =   0.1481481
        k(   10) = (   0.3333333   0.3333333   0.3333333), wk =   0.1481481
        k(   11) = (   0.3333333   0.3333333  -0.3333333), wk =   0.1481481
        k(   12) = (   0.3333333  -0.3333333  -0.0000000), wk =   0.1481481
        k(   13) = (   0.3333333  -0.3333333   0.3333333), wk =   0.1481481
        k(   14) = (   0.3333333  -0.3333333  -0.3333333), wk =   0.1481481

     Check: negative core charge=   -0.000017

     Initial potential from superposition of free atoms

     starting charge     123.9882, renormalised to     124.0000
     Starting wfcs are  116 randomized atomic wfcs
     Checking if some PAW data can be deallocated...

     Self-consistent Calculation

     iteration #  1     ecut=    30.00 Ry     beta= 0.70
     Davidson diagonalization with overlap

     ethr =  1.00E-02,  avg # of iterations =  2.0

     total energy              =   -3159.98804282 Ry
     estimated scf accuracy    <       5.90258637 Ry

[...]

     total energy              =   -3163.21422267 Ry
     estimated scf accuracy    <       0.00000288 Ry

     iteration # 12     ecut=    30.00 Ry     beta= 0.70
     Davidson diagonalization with overlap

     ethr =  2.32E-09,  avg # of iterations =  4.6

     End of self-consistent calculation

          k = 0.0000 0.0000 0.0000 (  3429 PWs)   bands (ev):

   -47.1671 -47.1598 -45.6134 -45.6021 -23.4626 -23.3587 -23.3082 -23.3039
   -23.1894 -23.1818 -16.6744 -16.5582 -16.5039 -16.4633 -16.3899 -16.3766
    -9.7074  -9.3113  -9.0107  -8.9737  -8.6666  -8.6062  -8.3182  -8.2572
     3.4277   3.4310   3.5945   4.0061   4.2017   4.2878   4.3183   4.7623
     4.9207   4.9237   5.0157   5.2473   5.4418   5.5411   5.5416   5.6187
     5.6279   5.7385   5.8692   5.9530   5.9555   5.9657   5.9762   6.0445
     6.0490   6.0517   6.1859   6.1909   6.2298   6.3207   6.3895   6.6030
     6.6141   6.6197   6.7488   6.9438   6.9763   7.0885  10.8401  11.0259

     occupation numbers
     1.0000   1.0000   1.0000   1.0000   1.0000   1.0000   1.0000   1.0000
     1.0000   1.0000   1.0000   1.0000   1.0000   1.0000   1.0000   1.0000
     1.0000   1.0000   1.0000   1.0000   1.0000   1.0000   1.0000   1.0000
     1.0000   1.0000   1.0000   1.0000   1.0000   1.0000   1.0000   1.0000
     1.0000   1.0000   1.0000   1.0000   1.0000   1.0000   1.0000   1.0000
     1.0000   1.0000   1.0000   1.0000   1.0000   1.0000   1.0000   1.0000
     1.0000   1.0000   1.0000   1.0000   1.0000   1.0000   1.0000   1.0000
     1.0000   1.0000   1.0000   1.0000   1.0000   1.0000   0.0000   0.0000

[...]

          k = 0.3333-1.1146-0.3416 (  3398 PWs)   bands (ev):

   -47.1652 -47.1580 -45.6090 -45.6033 -23.4583 -23.3550 -23.3042 -23.3001
   -23.2766 -23.2688 -16.7685 -16.7256 -16.5240 -16.5072 -16.4452 -16.4030
    -9.0441  -8.7924  -8.7636  -8.6336  -8.5179  -8.3984  -8.3424  -8.2254
     2.9618   3.0507   3.3261   3.6938   3.7975   4.0166   4.0785   4.3909
     4.4583   4.4638   4.8116   4.9702   5.1341   5.3396   5.4137   5.4288
     5.5589   5.7091   5.8496   5.8637   5.9279   5.9347   5.9625   5.9815
     6.0016   6.0403   6.0819   6.0949   6.1484   6.2823   6.4102   6.4820
     6.6982   6.8296   7.0490   7.1219   7.2558   7.2946  11.1373  11.3697

     occupation numbers
     1.0000   1.0000   1.0000   1.0000   1.0000   1.0000   1.0000   1.0000
     1.0000   1.0000   1.0000   1.0000   1.0000   1.0000   1.0000   1.0000
     1.0000   1.0000   1.0000   1.0000   1.0000   1.0000   1.0000   1.0000
     1.0000   1.0000   1.0000   1.0000   1.0000   1.0000   1.0000   1.0000
     1.0000   1.0000   1.0000   1.0000   1.0000   1.0000   1.0000   1.0000
     1.0000   1.0000   1.0000   1.0000   1.0000   1.0000   1.0000   1.0000
     1.0000   1.0000   1.0000   1.0000   1.0000   1.0000   1.0000   1.0000
     1.0000   1.0000   1.0000   1.0000   1.0000   1.0000   0.0000   0.0000

     highest occupied, lowest unoccupied level (ev):     7.3306   10.6290

!    total energy              =   -3163.21422297 Ry

     total all-electron energy =    -18645.403315 Ry
     estimated scf accuracy    <       0.00000080 Ry

     The total energy is the sum of the following terms:
     one-electron contribution =   -1303.47464481 Ry
     hartree contribution      =     636.85467095 Ry
     xc contribution           =    -200.25220249 Ry
     ewald contribution        =    -821.48371562 Ry
     one-center paw contrib.   =   -1474.85833099 Ry
      -> PAW hartree energy AE =     984.25472351 Ry
      -> PAW hartree energy PS =    -847.29522852 Ry
      -> PAW xc energy AE      =   -1198.81341900 Ry
      -> PAW xc energy PS      =      80.13902821 Ry
      -> total E_H with PAW    =     773.81416594 Ry
      -> total E_XC with PAW   =   -1318.92659329 Ry

     convergence has been achieved in  12 iterations

     Writing all to output data dir calculations_bands/myprefix.save/

     General routines

     Parallel routines

     PAW routines

   This run was terminated on:   5: 1:14   6Jun2023

   JOB DONE.