     Program PWSCF v.7.0 starts on  7Jun2023 at  6:37:19

     K-points division:     npool     =       2
     R & G space division:  proc/nbgrp/npool/nimage =       4

     Reading input from espresso_25182.pwi
Warning: card &CELL ignored
Warning: card / ignored

     Current dimensions of program PWSCF are:
     Max number of different atomic species (ntypx) = 10
     Max number of k-points (npk) =  40000
     Max angular momentum in pseudopotentials (lmaxx) =  4
     Message from routine setup:
     using ibrav=0 with symmetry is DISCOURAGED, use correct ibrav instead

     Using Slab Decomposition

     bravais-lattice index     =            0
     lattice parameter (alat)  =      10.8363  a.u.
     unit-cell volume          =    1566.5280 (a.u.)^3
     number of atoms/cell      =           10
     number of atomic types    =            3
     number of electrons       =        96.00
     number of Kohn-Sham states=           64
     kinetic-energy cutoff     =      30.0000  Ry
     charge density cutoff     =     240.0000  Ry
     scf convergence threshold =      1.0E-06
     mixing beta               =       0.7000
     number of iterations used =            8  plain     mixing
     Exchange-correlation= SLA  PW   PBE  PBE
                           (   1   4   3   4   0   0   0)

     celldm(1)=  10.836326  celldm(2)=   0.000000  celldm(3)=   0.000000
     celldm(4)=   0.000000  celldm(5)=   0.000000  celldm(6)=   0.000000

     crystal axes: (cart. coord. in units of alat)
               a(1) = (   1.000000   0.000000   0.000000 )
               a(2) = (  -0.785612   0.618719   0.000000 )
               a(3) = (   0.000000   0.000000   1.989750 )

     reciprocal axes: (cart. coord. in units 2 pi/alat)
               b(1) = (  1.000000  1.269740  0.000000 )
               b(2) = (  0.000000  1.616242  0.000000 )
               b(3) = (  0.000000  0.000000  0.502576 )

     PseudoPot. # 1 for Na read from file:
     /home/pragov/projects/rrg-bengioy-ad/pragov/crystal_structure_design/SSSP/na_pbe_v1.5.uspp.F.UPF
     MD5 check sum: 44600605ef58000f06b90626533354dc
     Pseudo is Ultrasoft, Zval =  9.0
     Generated by new atomic code, or converted to UPF format
     Using radial grid of  819 points,  5 beta functions with:
                l(1) =   0
                l(2) =   0
                l(3) =   1
                l(4) =   1
                l(5) =   2
     Q(r) pseudized with  8 coefficients,  rinner =    1.250   1.250   1.250
                                                       1.250   1.250

     PseudoPot. # 2 for Pd read from file:
     /home/pragov/projects/rrg-bengioy-ad/pragov/crystal_structure_design/SSSP/Pd_ONCV_PBE-1.0.oncvpsp.upf
     MD5 check sum: eb77f42b51d86fb18e25f68156a31cf1
     Pseudo is Norm-conserving, Zval = 18.0
     Generated using ONCVPSP code by D. R. Hamann
     Using radial grid of 1410 points,  6 beta functions with:
                l(1) =   0
                l(2) =   0
                l(3) =   1
                l(4) =   1
                l(5) =   2
                l(6) =   2

     PseudoPot. # 3 for Se read from file:
     /home/pragov/projects/rrg-bengioy-ad/pragov/crystal_structure_design/SSSP/Se_pbe_v1.uspp.F.UPF
     MD5 check sum: 1b3568f3a8ae88f9a2a0ad0698632c85
     Pseudo is Ultrasoft + core correction, Zval =  6.0
     Generated by new atomic code, or converted to UPF format
     Using radial grid of  877 points,  6 beta functions with:
                l(1) =   0
                l(2) =   0
                l(3) =   1
                l(4) =   1
                l(5) =   2
                l(6) =   2
     Q(r) pseudized with  8 coefficients,  rinner =    1.300   1.300   1.300
                                                       1.300   1.300

     atomic species   valence    mass     pseudopotential
        Na             9.00    22.98977     Na( 1.00)
        Pd            18.00   106.42000     Pd( 1.00)
        Se             6.00    78.97100     Se( 1.00)

      2 Sym. Ops. (no inversion) found ( 1 have fractional translation)

                                    s                        frac. trans.

      isym =  1     identity

 cryst.   s( 1) = (     1          0          0      )
                  (     0          1          0      )
                  (     0          0          1      )

 cart.    s( 1) = (  1.0000000 -0.0000000  0.0000000 )
                  (  0.0000000  1.0000000  0.0000000 )
                  (  0.0000000  0.0000000  1.0000000 )

      isym =  2     180 deg rotation - cart. axis [0,0,1]

 cryst.   s( 2) = (    -1          0          0      )    f =(  0.0000000 )
                  (     0         -1          0      )       (  0.0000000 )
                  (     0          0          1      )       (  0.5000000 )

 cart.    s( 2) = ( -1.0000000  0.0000000  0.0000000 )    f =( -0.0000000 )
                  (  0.0000000 -1.0000000  0.0000000 )       (  0.0000000 )
                  (  0.0000000  0.0000000  1.0000000 )       (  0.9948749 )

   Cartesian axes

     site n.     atom                  positions (alat units)
         1           Na  tau(   1) = (  -0.0071567   0.3489823   1.2507667  )
         2           Na  tau(   2) = (   0.2215445   0.2697368   0.2558918  )
         3           Na  tau(   3) = (   0.6867000   0.1085592   1.7965033  )
         4           Na  tau(   4) = (  -0.4723123   0.5101599   0.8016284  )
         5           Pd  tau(   5) = (  -0.5422065   0.5343784   1.4910807  )
         6           Pd  tau(   6) = (   0.7565943   0.0843407   0.4962058  )
         7           Se  tau(   7) = (   0.5027266   0.1723065   1.2486138  )
         8           Se  tau(   8) = (  -0.2883389   0.4464127   0.2537389  )
         9           Se  tau(   9) = (   0.1953995   0.2787961   1.7303083  )
        10           Se  tau(  10) = (   0.0189882   0.3399231   0.7354334  )

   Crystallographic axes

     site n.     atom                  positions (cryst. coord.)
         1           Na  tau(   1) = (  0.4359600  0.5640400  0.6286050  )
         2           Na  tau(   2) = (  0.5640400  0.4359600  0.1286050  )
         3           Na  tau(   3) = (  0.8245420  0.1754580  0.9028790  )
         4           Na  tau(   4) = (  0.1754580  0.8245420  0.4028790  )
         5           Pd  tau(   5) = (  0.1363150  0.8636850  0.7493810  )
         6           Pd  tau(   6) = (  0.8636850  0.1363150  0.2493810  )
         7           Se  tau(   7) = (  0.7215110  0.2784890  0.6275230  )
         8           Se  tau(   8) = (  0.2784890  0.7215110  0.1275230  )
         9           Se  tau(   9) = (  0.5493980  0.4506020  0.8696110  )
        10           Se  tau(  10) = (  0.4506020  0.5493980  0.3696110  )

     number of k points=    10
                       cart. coord. in units 2pi/alat
        k(    1) = (   0.0000000   0.0000000   0.0000000), wk =   0.0740741
        k(    2) = (   0.0000000   0.0000000   0.1675253), wk =   0.1481481
        k(    3) = (   0.0000000   0.5387474   0.0000000), wk =   0.1481481
        k(    4) = (   0.0000000   0.5387474   0.1675253), wk =   0.2962963
        k(    5) = (   0.3333333   0.4232466   0.0000000), wk =   0.1481481
        k(    6) = (   0.3333333   0.4232466   0.1675253), wk =   0.2962963
        k(    7) = (   0.3333333   0.9619940   0.0000000), wk =   0.1481481
        k(    8) = (   0.3333333   0.9619940   0.1675253), wk =   0.2962963
        k(    9) = (   0.3333333  -0.1155008   0.0000000), wk =   0.1481481
        k(   10) = (   0.3333333  -0.1155008   0.1675253), wk =   0.2962963

                       cryst. coord.
        k(    1) = (   0.0000000   0.0000000   0.0000000), wk =   0.0740741
        k(    2) = (   0.0000000   0.0000000   0.3333333), wk =   0.1481481
        k(    3) = (   0.0000000   0.3333333   0.0000000), wk =   0.1481481
        k(    4) = (   0.0000000   0.3333333   0.3333333), wk =   0.2962963
        k(    5) = (   0.3333333  -0.0000000   0.0000000), wk =   0.1481481
        k(    6) = (   0.3333333  -0.0000000   0.3333333), wk =   0.2962963
        k(    7) = (   0.3333333   0.3333333   0.0000000), wk =   0.1481481
        k(    8) = (   0.3333333   0.3333333   0.3333333), wk =   0.2962963
        k(    9) = (   0.3333333  -0.3333333   0.0000000), wk =   0.1481481
        k(   10) = (   0.3333333  -0.3333333   0.3333333), wk =   0.2962963

     Initial potential from superposition of free atoms

     starting charge      95.9739, renormalised to      96.0000
     Starting wfcs are   56 randomized atomic wfcs +    8 random wfcs

     Self-consistent Calculation

     iteration #  1     ecut=    30.00 Ry     beta= 0.70
     Davidson diagonalization with overlap

     ethr =  1.00E-02,  avg # of iterations =  6.2

     Threshold (ethr) on eigenvalues was too large:
     Diagonalizing with lowered threshold

     Davidson diagonalization with overlap

[...]

     total energy              =   -1062.07954558 Ry
     estimated scf accuracy    <       0.61821657 Ry

[...]

     total energy              =   -1062.37098149 Ry
     estimated scf accuracy    <       0.00000505 Ry

     iteration #  8     ecut=    30.00 Ry     beta= 0.70
     Davidson diagonalization with overlap

     ethr =  5.26E-09,  avg # of iterations =  5.0

     End of self-consistent calculation

          k = 0.0000 0.0000 0.0000 (  4335 PWs)   bands (ev):

   -79.3231 -79.3231 -46.0777 -46.0776 -45.8545 -45.8545 -44.9632 -44.9630
   -44.8761 -44.8754 -44.3211 -44.3207 -17.9869 -17.9867 -17.9809 -17.9794
   -17.9771 -17.9770 -17.7731 -17.7720 -17.7638 -17.7637 -17.7581 -17.7580
    -7.2134  -7.0386  -6.4351  -6.2257   0.8916   1.1691   1.4695   1.4772
     2.4232   2.5204   3.1415   3.3293   3.5230   3.6928   3.7494   3.7568
     4.1265   4.3969   4.4623   4.7850   4.8365   4.9259   5.1184   5.4502
     7.6976   7.7260   7.7980   8.0996   9.4261   9.8045  10.9897  11.3725
    11.7799  12.3373  12.4981  12.7668  13.2814  13.8365  14.1293  14.4409

     occupation numbers
     1.0000   1.0000   1.0000   1.0000   1.0000   1.0000   1.0000   1.0000
     1.0000   1.0000   1.0000   1.0000   1.0000   1.0000   1.0000   1.0000
     1.0000   1.0000   1.0000   1.0000   1.0000   1.0000   1.0000   1.0000
     1.0000   1.0000   1.0000   1.0000   1.0000   1.0000   1.0000   1.0000
     1.0000   1.0000   1.0000   1.0000   1.0000   1.0000   1.0000   1.0000
     1.0000   1.0000   1.0000   1.0000   1.0000   1.0000   1.0000   1.0000
     0.0000   0.0000   0.0000   0.0000   0.0000   0.0000   0.0000   0.0000
     0.0000   0.0000   0.0000   0.0000   0.0000   0.0000   0.0000   0.0000

[...]

          k = 0.3333-0.1155 0.1675 (  4344 PWs)   bands (ev):

   -79.3231 -79.3231 -46.0777 -46.0776 -45.8547 -45.8544 -44.9631 -44.9628
   -44.8761 -44.8759 -44.3214 -44.3209 -17.9875 -17.9870 -17.9808 -17.9795
   -17.9784 -17.9776 -17.7730 -17.7721 -17.7647 -17.7640 -17.7591 -17.7586
    -7.1022  -7.0563  -6.3691  -6.3160   0.8992   0.9801   1.4760   1.4882
     2.3904   2.5217   2.7316   2.8276   3.6869   3.7026   3.7536   3.7603
     4.1094   4.2227   4.5795   4.7217   4.7322   4.8133   5.3862   5.5240
     7.7279   7.8566   9.1038   9.2984   9.7037  10.1751  10.6748  11.2584
    11.5377  12.0699  12.6710  12.9242  13.3253  13.5505  14.3347  14.4809

     occupation numbers
     1.0000   1.0000   1.0000   1.0000   1.0000   1.0000   1.0000   1.0000
     1.0000   1.0000   1.0000   1.0000   1.0000   1.0000   1.0000   1.0000
     1.0000   1.0000   1.0000   1.0000   1.0000   1.0000   1.0000   1.0000
     1.0000   1.0000   1.0000   1.0000   1.0000   1.0000   1.0000   1.0000
     1.0000   1.0000   1.0000   1.0000   1.0000   1.0000   1.0000   1.0000
     1.0000   1.0000   1.0000   1.0000   1.0000   1.0000   1.0000   1.0000
     0.0000   0.0000   0.0000   0.0000   0.0000   0.0000   0.0000   0.0000
     0.0000   0.0000   0.0000   0.0000   0.0000   0.0000   0.0000   0.0000

     highest occupied, lowest unoccupied level (ev):     5.5826    6.5556

!    total energy              =   -1062.37098297 Ry
     estimated scf accuracy    <       0.00000012 Ry

     The total energy is the sum of the following terms:
     one-electron contribution =    -693.85642380 Ry
     hartree contribution      =     371.50024100 Ry
     xc contribution           =    -225.95441457 Ry
     ewald contribution        =    -514.06038559 Ry

     convergence has been achieved in   8 iterations

     Writing all to output data dir calculations_bands/myprefix.save/

     General routines

     Parallel routines

   This run was terminated on:   6:37:40   7Jun2023

   JOB DONE.