     Program PWSCF v.7.0 starts on  6Jun2023 at  2:23:24

     K-points division:     npool     =       2
     R & G space division:  proc/nbgrp/npool/nimage =       4

     Reading input from espresso_13220.pwi
Warning: card &CELL ignored
Warning: card / ignored

     Current dimensions of program PWSCF are:
     Max number of different atomic species (ntypx) = 10
     Max number of k-points (npk) =  40000
     Max angular momentum in pseudopotentials (lmaxx) =  4
     file Pb.pbe-dn-kjpaw_psl.0.2.2.UPF: wavefunction(s)  6S renormalized
     Message from routine setup:
     using ibrav=0 with symmetry is DISCOURAGED, use correct ibrav instead

     Using Slab Decomposition

     bravais-lattice index     =            0
     lattice parameter (alat)  =       8.0353  a.u.
     unit-cell volume          =     734.9967 (a.u.)^3
     number of atoms/cell      =            6
     number of atomic types    =            2
     number of electrons       =        56.00
     number of Kohn-Sham states=           64
     kinetic-energy cutoff     =      30.0000  Ry
     charge density cutoff     =     240.0000  Ry
     scf convergence threshold =      1.0E-06
     mixing beta               =       0.7000
     number of iterations used =            8  plain     mixing
     Exchange-correlation=  SLA  PW   PBX  PBC
                           (   1   4   3   4   0   0   0)

     celldm(1)=   8.035257  celldm(2)=   0.000000  celldm(3)=   0.000000
     celldm(4)=   0.000000  celldm(5)=   0.000000  celldm(6)=   0.000000

     crystal axes: (cart. coord. in units of alat)
               a(1) = (   1.000000   0.000000   0.000000 )
               a(2) = (  -0.003071   0.999995   0.000000 )
               a(3) = (   0.000000   0.000000   1.416733 )

     reciprocal axes: (cart. coord. in units 2 pi/alat)
               b(1) = (  1.000000  0.003072  0.000000 )
               b(2) = (  0.000000  1.000005  0.000000 )
               b(3) = (  0.000000  0.000000  0.705849 )

     PseudoPot. # 1 for Pb read from file:
     /home/pragov/projects/rrg-bengioy-ad/pragov/crystal_structure_design/SSSP/Pb.pbe-dn-kjpaw_psl.0.2.2.UPF
     MD5 check sum: 9d431e6316058b74ade52399a6cf67da
     Pseudo is Projector augmented-wave + core cor, Zval = 14.0
     Generated using "atomic" code by A. Dal Corso  v.5.0.99 svn rev. 10869
     Shape of augmentation charge: PSQ
     Using radial grid of 1281 points,  6 beta functions with:
                l(1) =   0
                l(2) =   0
                l(3) =   1
                l(4) =   1
                l(5) =   2
                l(6) =   2
     Q(r) pseudized with 0 coefficients

     PseudoPot. # 2 for F  read from file:
     /home/pragov/projects/rrg-bengioy-ad/pragov/crystal_structure_design/SSSP/f_pbe_v1.4.uspp.F.UPF
     MD5 check sum: 4c38b6a325caf53ec0e86aed9459de46
     Pseudo is Ultrasoft, Zval =  7.0
     Generated by new atomic code, or converted to UPF format
     Using radial grid of  799 points,  4 beta functions with:
                l(1) =   0
                l(2) =   0
                l(3) =   1
                l(4) =   1
     Q(r) pseudized with  8 coefficients,  rinner =    0.950   0.950   0.950

     atomic species   valence    mass     pseudopotential
        Pb            14.00   207.20000     Pb( 1.00)
        F              7.00    18.99840     F ( 1.00)

      2 Sym. Ops. (no inversion) found ( 1 have fractional translation)

                                    s                        frac. trans.

      isym =  1     identity

 cryst.   s( 1) = (     1          0          0      )
                  (     0          1          0      )
                  (     0          0          1      )

 cart.    s( 1) = (  1.0000000 -0.0000000  0.0000000 )
                  (  0.0000000  1.0000000  0.0000000 )
                  (  0.0000000  0.0000000  1.0000000 )

      isym =  2     inv. 180 deg rotation - cart. axis [0,0,1]

 cryst.   s( 2) = (     1          0          0      )    f =(  0.5000000 )
                  (     0          1          0      )       (  0.5000000 )
                  (     0          0         -1      )       ( -0.5000000 )

 cart.    s( 2) = (  1.0000000 -0.0000000  0.0000000 )    f =(  0.4984643 )
                  (  0.0000000  1.0000000  0.0000000 )       (  0.4999976 )
                  (  0.0000000  0.0000000 -1.0000000 )       ( -0.7083666 )

   Cartesian axes

     site n.     atom                  positions (alat units)
         1           Pb  tau(   1) = (   0.9774098   0.0225209   0.7083666  )
         2           Pb  tau(   2) = (   0.4758741   0.5225185   0.0000000  )
         3           F   tau(   3) = (   0.9719453   0.5413314   0.3332539  )
         4           F   tau(   4) = (   0.4585849   0.0263919   1.0834793  )
         5           F   tau(   5) = (   0.4734810   0.0413338   0.3751127  )
         6           F   tau(   6) = (   0.9570492   0.5263895   1.0416205  )

   Crystallographic axes

     site n.     atom                  positions (cryst. coord.)
         1           Pb  tau(   1) = (  0.9774790  0.0225210  0.5000000  )
         2           Pb  tau(   2) = (  0.4774790  0.5225210  0.0000000  )
         3           F   tau(   3) = (  0.9736080  0.5413340  0.2352270  )
         4           F   tau(   4) = (  0.4586660  0.0263920  0.7647730  )
         5           F   tau(   5) = (  0.4736080  0.0413340  0.2647730  )
         6           F   tau(   6) = (  0.9586660  0.5263920  0.7352270  )

     number of k points=    10
                       cart. coord. in units 2pi/alat
        k(    1) = (   0.0000000   0.0000000   0.0000000), wk =   0.0740741
        k(    2) = (   0.0000000   0.0000000   0.2352831), wk =   0.1481481
        k(    3) = (   0.0000000   0.3333349   0.0000000), wk =   0.1481481
        k(    4) = (   0.0000000   0.3333349   0.2352831), wk =   0.2962963
        k(    5) = (   0.3333333   0.0010238   0.0000000), wk =   0.1481481
        k(    6) = (   0.3333333   0.0010238   0.2352831), wk =   0.2962963
        k(    7) = (   0.3333333   0.3343587   0.0000000), wk =   0.1481481
        k(    8) = (   0.3333333   0.3343587   0.2352831), wk =   0.2962963
        k(    9) = (   0.3333333  -0.3323111   0.0000000), wk =   0.1481481
        k(   10) = (   0.3333333  -0.3323111   0.2352831), wk =   0.2962963

                       cryst. coord.
        k(    1) = (   0.0000000   0.0000000   0.0000000), wk =   0.0740741
        k(    2) = (   0.0000000   0.0000000   0.3333333), wk =   0.1481481
        k(    3) = (   0.0000000   0.3333333   0.0000000), wk =   0.1481481
        k(    4) = (   0.0000000   0.3333333   0.3333333), wk =   0.2962963
        k(    5) = (   0.3333333  -0.0000000   0.0000000), wk =   0.1481481
        k(    6) = (   0.3333333  -0.0000000   0.3333333), wk =   0.2962963
        k(    7) = (   0.3333333   0.3333333   0.0000000), wk =   0.1481481
        k(    8) = (   0.3333333   0.3333333   0.3333333), wk =   0.2962963
        k(    9) = (   0.3333333  -0.3333333   0.0000000), wk =   0.1481481
        k(   10) = (   0.3333333  -0.3333333   0.3333333), wk =   0.2962963

     Check: negative core charge=   -0.000001

     Initial potential from superposition of free atoms

     starting charge      55.9953, renormalised to      56.0000
     Starting wfcs are   34 randomized atomic wfcs +   30 random wfcs
     Checking if some PAW data can be deallocated...

     Self-consistent Calculation

     iteration #  1     ecut=    30.00 Ry     beta= 0.70
     Davidson diagonalization with overlap

     ethr =  1.00E-02,  avg # of iterations =  6.9

     total energy              =   -1935.45926893 Ry
     estimated scf accuracy    <       0.95708997 Ry

[...]

     total energy              =   -1935.90784481 Ry
     estimated scf accuracy    <       0.00000264 Ry

     iteration #  9     ecut=    30.00 Ry     beta= 0.70
     Davidson diagonalization with overlap

     ethr =  4.72E-09,  avg # of iterations =  2.1

     End of self-consistent calculation

          k = 0.0000 0.0000 0.0000 (  1991 PWs)   bands (ev):

   -16.2908 -16.0505 -15.9522 -15.7548  -9.8417  -9.8411  -9.8362  -9.8266
    -9.8013  -9.7998  -9.7783  -9.7694  -9.7690  -9.6463  -1.6695  -0.1499
     1.2925   1.3038   2.3077   2.3140   2.3351   2.7585   2.7826   2.7985
     3.1364   3.1716   3.2231   4.3692   8.9090  11.1949  11.2594  11.2602
    12.2288  12.2542  13.6205  14.9754  18.6065  19.8385  19.9174  21.4237
    21.4706  21.4849  21.9009  21.9855  22.0514  22.2204  22.3432  22.5797
    24.6965  25.8795  27.2527  27.4291  27.4516  27.7338  27.8914  28.6260
    28.9900  29.1764  29.5985  29.7782  29.8632  31.5329  31.5648  31.9406

     occupation numbers
     1.0000   1.0000   1.0000   1.0000   1.0000   1.0000   1.0000   1.0000
     1.0000   1.0000   1.0000   1.0000   1.0000   1.0000   1.0000   1.0000
     1.0000   1.0000   1.0000   1.0000   1.0000   1.0000   1.0000   1.0000
     1.0000   1.0000   1.0000   1.0000   0.0000   0.0000   0.0000   0.0000
     0.0000   0.0000   0.0000   0.0000   0.0000   0.0000   0.0000   0.0000
     0.0000   0.0000   0.0000   0.0000   0.0000   0.0000   0.0000   0.0000
     0.0000   0.0000   0.0000   0.0000   0.0000   0.0000   0.0000   0.0000
     0.0000   0.0000   0.0000   0.0000   0.0000   0.0000   0.0000   0.0000

[...]

          k = 0.3333-0.3323 0.2353 (  2063 PWs)   bands (ev):

   -16.0811 -16.0133 -15.9949 -15.9347  -9.8160  -9.8156  -9.7978  -9.7955
    -9.7907  -9.7853  -9.7560  -9.7140  -9.7112  -9.6914  -1.5524  -1.4053
     1.4079   1.4241   1.6416   1.8679   2.4042   2.5066   2.9034   2.9299
     3.1158   3.1467   4.3119   4.4894   9.7072  10.2697  10.6090  11.3795
    11.9893  12.1820  14.9338  15.2917  19.0509  19.1575  20.2307  20.3796
    20.9484  21.2710  21.5347  22.0542  22.2461  22.9021  24.2328  25.0038
    25.4035  25.7130  26.4586  27.9160  28.0574  28.1452  28.7303  28.7744
    28.8165  29.7918  30.8633  31.0102  31.3731  31.4010  31.6843  31.6987

     occupation numbers
     1.0000   1.0000   1.0000   1.0000   1.0000   1.0000   1.0000   1.0000
     1.0000   1.0000   1.0000   1.0000   1.0000   1.0000   1.0000   1.0000
     1.0000   1.0000   1.0000   1.0000   1.0000   1.0000   1.0000   1.0000
     1.0000   1.0000   1.0000   1.0000   0.0000   0.0000   0.0000   0.0000
     0.0000   0.0000   0.0000   0.0000   0.0000   0.0000   0.0000   0.0000
     0.0000   0.0000   0.0000   0.0000   0.0000   0.0000   0.0000   0.0000
     0.0000   0.0000   0.0000   0.0000   0.0000   0.0000   0.0000   0.0000
     0.0000   0.0000   0.0000   0.0000   0.0000   0.0000   0.0000   0.0000

     highest occupied, lowest unoccupied level (ev):     4.4981    8.9090

!    total energy              =   -1935.90784516 Ry
     estimated scf accuracy    <       0.00000006 Ry

     The total energy is the sum of the following terms:
     one-electron contribution =    -166.96656563 Ry
     hartree contribution      =     125.21939891 Ry
     xc contribution           =    -126.19794903 Ry
     ewald contribution        =    -311.01207316 Ry
     one-center paw contrib.   =   -1456.95065624 Ry
      -> PAW hartree energy AE =      94.90884205 Ry
      -> PAW hartree energy PS =     -94.69185016 Ry
      -> PAW xc energy AE      =    -772.24942272 Ry
      -> PAW xc energy PS      =      43.55710271 Ry
      -> total E_H with PAW    =     125.43639080 Ry
      -> total E_XC with PAW   =    -854.89026905 Ry

     convergence has been achieved in   9 iterations

     Writing all to output data dir calculations_bands/myprefix.save/

     General routines

     Parallel routines

     PAW routines

   This run was terminated on:   2:23:36   6Jun2023

   JOB DONE.