     Program PWSCF v.7.0 starts on 23Jun2023 at 11: 7:46

     K-points division:     npool     =       2
     R & G space division:  proc/nbgrp/npool/nimage =       4

     Reading input from espresso_9520.pwi
Warning: card &CELL ignored
Warning: card / ignored

     Current dimensions of program PWSCF are:
     Max number of different atomic species (ntypx) = 10
     Max number of k-points (npk) =  40000
     Max angular momentum in pseudopotentials (lmaxx) =  4
     file K.pbe-spn-kjpaw_psl.1.0.0.UPF: wavefunction(s)  3S renormalized
     Message from routine setup:
     using ibrav=0 with symmetry is DISCOURAGED, use correct ibrav instead

     Using Slab Decomposition

     bravais-lattice index     =            0
     lattice parameter (alat)  =      14.8866  a.u.
     unit-cell volume          =    3557.1657 (a.u.)^3
     number of atoms/cell      =           20
     number of atomic types    =            4
     number of electrons       =       140.00
     number of Kohn-Sham states=           90
     kinetic-energy cutoff     =      30.0000  Ry
     charge density cutoff     =     240.0000  Ry
     scf convergence threshold =      1.0E-06
     mixing beta               =       0.7000
     number of iterations used =            8  plain     mixing
     Exchange-correlation=  SLA  PW   PBX  PBC
                           (   1   4   3   4   0   0   0)

     celldm(1)=  14.886605  celldm(2)=   0.000000  celldm(3)=   0.000000
     celldm(4)=   0.000000  celldm(5)=   0.000000  celldm(6)=   0.000000

     crystal axes: (cart. coord. in units of alat)
               a(1) = (   1.000000   0.000000   0.000000 )
               a(2) = (   0.000000   0.858204   0.000000 )
               a(3) = (   0.000000   0.052493   1.256396 )

     reciprocal axes: (cart. coord. in units 2 pi/alat)
               b(1) = (  1.000000  0.000000  0.000000 )
               b(2) = (  0.000000  1.165224 -0.048683 )
               b(3) = (  0.000000  0.000000  0.795928 )

     PseudoPot. # 1 for K  read from file:
     /home/pragov/projects/rrg-bengioy-ad/pragov/crystal_structure_design/SSSP/K.pbe-spn-kjpaw_psl.1.0.0.UPF
     MD5 check sum: 7d58810084cac21f60fbe77ea2b688fd
     Pseudo is Projector augmented-wave + core cor, Zval =  9.0
     Generated using "atomic" code by A. Dal Corso  v.5.1
     Shape of augmentation charge: PSQ
     Using radial grid of 1165 points,  6 beta functions with:
                l(1) =   0
                l(2) =   0
                l(3) =   1
                l(4) =   1
                l(5) =   2
                l(6) =   2
     Q(r) pseudized with 0 coefficients

     PseudoPot. # 2 for Sb read from file:
     /home/pragov/projects/rrg-bengioy-ad/pragov/crystal_structure_design/SSSP/sb_pbe_v1.4.uspp.F.UPF
     MD5 check sum: 9bc50dfb53373b713f5709b9110fe27f
     Pseudo is Ultrasoft + core correction, Zval = 15.0
     Generated by new atomic code, or converted to UPF format
     Using radial grid of  891 points,  6 beta functions with:
                l(1) =   0
                l(2) =   0
                l(3) =   1
                l(4) =   1
                l(5) =   2
                l(6) =   2
     Q(r) pseudized with  8 coefficients,  rinner =    1.350   1.350   1.350
                                                       1.350   1.350

     PseudoPot. # 3 for P  read from file:
     /home/pragov/projects/rrg-bengioy-ad/pragov/crystal_structure_design/SSSP/P.pbe-n-rrkjus_psl.1.0.0.UPF
     MD5 check sum: 8b930f418f0a4573dca56cd030ffe088
     Pseudo is Ultrasoft + core correction, Zval =  5.0
     Generated using "atomic" code by A. Dal Corso  v.5.1
     Using radial grid of 1147 points,  6 beta functions with:
                l(1) =   0
                l(2) =   0
                l(3) =   1
                l(4) =   1
                l(5) =   2
                l(6) =   2
     Q(r) pseudized with 0 coefficients

     PseudoPot. # 4 for S  read from file:
     /home/pragov/projects/rrg-bengioy-ad/pragov/crystal_structure_design/SSSP/s_pbe_v1.4.uspp.F.UPF
     MD5 check sum: 88d86576ff6df21479756cfb9bdac1df
     Pseudo is Ultrasoft + core correction, Zval =  6.0
     Generated by new atomic code, or converted to UPF format
     Using radial grid of  907 points,  6 beta functions with:
                l(1) =   0
                l(2) =   0
                l(3) =   1
                l(4) =   1
                l(5) =   2
                l(6) =   2
     Q(r) pseudized with  8 coefficients,  rinner =    1.300   1.300   1.300
                                                       1.300   1.300

     atomic species   valence    mass     pseudopotential
        K              9.00    39.09830     K ( 1.00)
        Sb            15.00   121.76000     Sb( 1.00)
        P              5.00    30.97376     P ( 1.00)
        S              6.00    32.06000     S ( 1.00)

      2 Sym. Ops. (no inversion) found ( 1 have fractional translation)

                                    s                        frac. trans.

      isym =  1     identity

 cryst.   s( 1) = (     1          0          0      )
                  (     0          1          0      )
                  (     0          0          1      )

 cart.    s( 1) = (  1.0000000  0.0000000  0.0000000 )
                  (  0.0000000  1.0000000 -0.0000000 )
                  (  0.0000000  0.0000000  1.0000000 )

      isym =  2     180 deg rotation - cart. axis [1,0,0]

 cryst.   s( 2) = (     1          0          0      )    f =( -0.5000000 )
                  (     0         -1          0      )       (  0.0000000 )
                  (     0          0         -1      )       (  0.0000000 )

 cart.    s( 2) = (  1.0000000  0.0000000  0.0000000 )    f =( -0.5000000 )
                  (  0.0000000 -1.0000000  0.0000000 )       (  0.0000000 )
                  (  0.0000000  0.0000000 -1.0000000 )       (  0.0000000 )

   Cartesian axes

     site n.     atom                  positions (alat units)
         1           K   tau(   1) = (   0.4457490   0.6220761   0.6187083  )
         2           K   tau(   2) = (   0.9457490   0.2886208   0.6376875  )
         3           Sb  tau(   3) = (   0.7368920   0.7000456   0.0226528  )
         4           Sb  tau(   4) = (   0.2368920   0.2106513   1.2337430  )
         5           P   tau(   5) = (   0.9327400   0.6986802   0.3793247  )
         6           P   tau(   6) = (   0.6490710   0.3064527   1.0411124  )
         7           P   tau(   7) = (   0.1490710   0.6042442   0.2152834  )
         8           P   tau(   8) = (   0.4327400   0.2120167   0.8770711  )
         9           S   tau(   9) = (   0.3591370   0.8577172   1.0144630  )
        10           S   tau(  10) = (   0.0352740   0.6291742   1.2333698  )
        11           S   tau(  11) = (   0.2493150   0.3885563   0.9182796  )
        12           S   tau(  12) = (   0.5352740   0.2815227   0.0230260  )
        13           S   tau(  13) = (   0.8362730   0.1234898   1.0426791  )
        14           S   tau(  14) = (   0.3362730   0.7872071   0.2137167  )
        15           S   tau(  15) = (   0.7493150   0.5221406   0.3381162  )
        16           S   tau(  16) = (   0.8591370   0.0529796   0.2419328  )
        17           S   tau(  17) = (   0.5137170   0.1762931   0.6428236  )
        18           S   tau(  18) = (   0.7349830   0.5258612   0.9457821  )
        19           S   tau(  19) = (   0.0137170   0.7344038   0.6135722  )
        20           S   tau(  20) = (   0.2349830   0.3848357   0.3106137  )

   Crystallographic axes

     site n.     atom                  positions (cryst. coord.)
         1           K   tau(   1) = (  0.4457490  0.6947370  0.4924470  )
         2           K   tau(   2) = (  0.9457490  0.3052630  0.5075530  )
         3           Sb  tau(   3) = (  0.7368920  0.8146070  0.0180300  )
         4           Sb  tau(   4) = (  0.2368920  0.1853930  0.9819700  )
         5           P   tau(   5) = (  0.9327400  0.7956520  0.3019150  )
         6           P   tau(   6) = (  0.6490710  0.3064010  0.8286500  )
         7           P   tau(   7) = (  0.1490710  0.6935990  0.1713500  )
         8           P   tau(   8) = (  0.4327400  0.2043480  0.6980850  )
         9           S   tau(   9) = (  0.3591370  0.9500450  0.8074390  )
        10           S   tau(  10) = (  0.0352740  0.6730840  0.9816730  )
        11           S   tau(  11) = (  0.2493150  0.4080500  0.7308840  )
        12           S   tau(  12) = (  0.5352740  0.3269160  0.0183270  )
        13           S   tau(  13) = (  0.8362730  0.0931320  0.8298970  )
        14           S   tau(  14) = (  0.3362730  0.9068680  0.1701030  )
        15           S   tau(  15) = (  0.7493150  0.5919500  0.2691160  )
        16           S   tau(  16) = (  0.8591370  0.0499550  0.1925610  )
        17           S   tau(  17) = (  0.5137170  0.1741260  0.5116410  )
        18           S   tau(  18) = (  0.7349830  0.5667020  0.7527740  )
        19           S   tau(  19) = (  0.0137170  0.8258740  0.4883590  )
        20           S   tau(  20) = (  0.2349830  0.4332980  0.2472260  )

     number of k points=    10
                       cart. coord. in units 2pi/alat
        k(    1) = (   0.0000000   0.0000000   0.0000000), wk =   0.0740741
        k(    2) = (   0.0000000   0.0000000   0.2653092), wk =   0.1481481
        k(    3) = (   0.0000000   0.3884080  -0.0162278), wk =   0.1481481
        k(    4) = (   0.0000000   0.3884080   0.2490813), wk =   0.1481481
        k(    5) = (   0.0000000   0.3884080  -0.2815370), wk =   0.1481481
        k(    6) = (   0.3333333   0.0000000   0.0000000), wk =   0.1481481
        k(    7) = (   0.3333333   0.0000000   0.2653092), wk =   0.2962963
        k(    8) = (   0.3333333   0.3884080  -0.0162278), wk =   0.2962963
        k(    9) = (   0.3333333   0.3884080   0.2490813), wk =   0.2962963
        k(   10) = (   0.3333333   0.3884080  -0.2815370), wk =   0.2962963

                       cryst. coord.
        k(    1) = (   0.0000000   0.0000000   0.0000000), wk =   0.0740741
        k(    2) = (   0.0000000   0.0000000   0.3333333), wk =   0.1481481
        k(    3) = (   0.0000000   0.3333333  -0.0000000), wk =   0.1481481
        k(    4) = (   0.0000000   0.3333333   0.3333333), wk =   0.1481481
        k(    5) = (   0.0000000   0.3333333  -0.3333333), wk =   0.1481481
        k(    6) = (   0.3333333   0.0000000   0.0000000), wk =   0.1481481
        k(    7) = (   0.3333333   0.0000000   0.3333333), wk =   0.2962963
        k(    8) = (   0.3333333   0.3333333  -0.0000000), wk =   0.2962963
        k(    9) = (   0.3333333   0.3333333   0.3333333), wk =   0.2962963
        k(   10) = (   0.3333333   0.3333333  -0.3333333), wk =   0.2962963

     Check: negative core charge=   -0.000003

     Initial potential from superposition of free atoms

     starting charge     137.9612, renormalised to     140.0000
     Starting wfcs are   98 randomized atomic wfcs
     Checking if some PAW data can be deallocated...

     Self-consistent Calculation

     iteration #  1     ecut=    30.00 Ry     beta= 0.70
     Davidson diagonalization with overlap

     ethr =  1.00E-02,  avg # of iterations =  6.1

     total energy              =    -941.17458257 Ry
     estimated scf accuracy    <       1.51510705 Ry

[...]

     total energy              =    -941.92190948 Ry
     estimated scf accuracy    <       0.00000252 Ry

     iteration # 10     ecut=    30.00 Ry     beta= 0.70
     Davidson diagonalization with overlap

     ethr =  1.80E-09,  avg # of iterations =  2.4

     End of self-consistent calculation

          k = 0.0000 0.0000 0.0000 (  9837 PWs)   bands (ev):

   -25.3675 -25.3669 -25.3631 -25.3627 -25.3381 -25.3371 -25.3289 -25.3257
   -25.3105 -25.3090 -25.1800 -25.1786 -11.5832 -11.4232 -10.4111 -10.3884
    -9.0344  -8.8341  -8.7750  -8.7519  -8.6838  -8.6803  -8.6626  -8.6567
    -8.4592  -8.4388  -8.2095  -8.1226  -8.1072  -8.0731  -6.0344  -5.0884
    -4.6953  -4.0586  -3.3511  -3.2688  -1.4779  -1.4045  -1.1638  -1.0254
    -0.9899  -0.8235  -0.4846  -0.4802  -0.2438  -0.2180   0.7187   0.8606
     0.8847   1.3204   1.3846   1.6716   1.9362   1.9595   2.1659   2.2390
     2.2431   2.5384   2.6799   2.7657   2.7730   2.9659   2.9949   3.1286
     3.1688   3.1698   3.2944   3.3109   3.3340   3.3679   6.0004   6.1161
     6.7083   6.7394   6.8019   6.9505   7.0965   7.1522   7.7211   7.7319
     7.9314   7.9360   8.2176   8.2916   8.4346   8.4924   8.9257   9.0262
     9.1319   9.3509

     occupation numbers
     1.0000   1.0000   1.0000   1.0000   1.0000   1.0000   1.0000   1.0000
     1.0000   1.0000   1.0000   1.0000   1.0000   1.0000   1.0000   1.0000
     1.0000   1.0000   1.0000   1.0000   1.0000   1.0000   1.0000   1.0000
     1.0000   1.0000   1.0000   1.0000   1.0000   1.0000   1.0000   1.0000
     1.0000   1.0000   1.0000   1.0000   1.0000   1.0000   1.0000   1.0000
     1.0000   1.0000   1.0000   1.0000   1.0000   1.0000   1.0000   1.0000
     1.0000   1.0000   1.0000   1.0000   1.0000   1.0000   1.0000   1.0000
     1.0000   1.0000   1.0000   1.0000   1.0000   1.0000   1.0000   1.0000
     1.0000   1.0000   1.0000   1.0000   1.0000   1.0000   0.0000   0.0000
     0.0000   0.0000   0.0000   0.0000   0.0000   0.0000   0.0000   0.0000
     0.0000   0.0000   0.0000   0.0000   0.0000   0.0000   0.0000   0.0000
     0.0000   0.0000

[...]

          k = 0.3333 0.3884-0.2815 (  9872 PWs)   bands (ev):

   -25.3690 -25.3680 -25.3643 -25.3637 -25.3404 -25.3397 -25.3285 -25.3281
   -25.3130 -25.3111 -25.1796 -25.1790 -11.5001 -11.4566 -10.4241 -10.3939
    -9.0485  -9.0122  -8.7740  -8.7290  -8.6891  -8.6804  -8.6699  -8.6354
    -8.4351  -8.4013  -8.2389  -8.2239  -8.1099  -8.0887  -5.5390  -5.3009
    -4.3735  -4.1245  -3.4525  -3.4225  -1.3999  -1.2643  -1.1366  -1.0799
    -0.8942  -0.8384  -0.5447  -0.4712  -0.2810  -0.1508   0.7161   0.9024
     1.0512   1.1010   1.2415   1.2940   1.8232   1.9017   1.9763   2.1861
     2.3409   2.4252   2.6588   2.7496   2.8016   2.8805   2.9765   3.0453
     3.1341   3.2622   3.3132   3.3974   3.4365   3.5435   6.1275   6.2521
     6.5280   6.6073   6.7814   6.9854   7.1010   7.2646   7.6309   7.7766
     7.9528   8.0772   8.2135   8.3065   8.4422   8.5459   8.8925   9.0516
     9.1832   9.3503

     occupation numbers
     1.0000   1.0000   1.0000   1.0000   1.0000   1.0000   1.0000   1.0000
     1.0000   1.0000   1.0000   1.0000   1.0000   1.0000   1.0000   1.0000
     1.0000   1.0000   1.0000   1.0000   1.0000   1.0000   1.0000   1.0000
     1.0000   1.0000   1.0000   1.0000   1.0000   1.0000   1.0000   1.0000
     1.0000   1.0000   1.0000   1.0000   1.0000   1.0000   1.0000   1.0000
     1.0000   1.0000   1.0000   1.0000   1.0000   1.0000   1.0000   1.0000
     1.0000   1.0000   1.0000   1.0000   1.0000   1.0000   1.0000   1.0000
     1.0000   1.0000   1.0000   1.0000   1.0000   1.0000   1.0000   1.0000
     1.0000   1.0000   1.0000   1.0000   1.0000   1.0000   0.0000   0.0000
     0.0000   0.0000   0.0000   0.0000   0.0000   0.0000   0.0000   0.0000
     0.0000   0.0000   0.0000   0.0000   0.0000   0.0000   0.0000   0.0000
     0.0000   0.0000

     highest occupied, lowest unoccupied level (ev):     3.6202    5.9459

!    total energy              =    -941.92190992 Ry
     estimated scf accuracy    <       0.00000031 Ry

     The total energy is the sum of the following terms:
     one-electron contribution =    -367.85026766 Ry
     hartree contribution      =     239.10499502 Ry
     xc contribution           =    -229.50949373 Ry
     ewald contribution        =    -472.83370211 Ry
     one-center paw contrib.   =    -110.83344144 Ry
      -> PAW hartree energy AE =      75.28866333 Ry
      -> PAW hartree energy PS =     -74.86860980 Ry
      -> PAW xc energy AE      =    -132.42087070 Ry
      -> PAW xc energy PS      =      21.16737574 Ry
      -> total E_H with PAW    =     239.52504855 Ry
      -> total E_XC with PAW   =    -340.76298869 Ry

     convergence has been achieved in  10 iterations

     Writing all to output data dir calculations_bands/myprefix.save/

     General routines

     Parallel routines

     PAW routines

   This run was terminated on:  11: 8:22  23Jun2023

   JOB DONE.