     Program PWSCF v.7.0 starts on 23Jun2023 at  6:29:26

     K-points division:     npool     =       2
     R & G space division:  proc/nbgrp/npool/nimage =       4

     Reading input from espresso_12113.pwi
Warning: card &CELL ignored
Warning: card / ignored

     Current dimensions of program PWSCF are:
     Max number of different atomic species (ntypx) = 10
     Max number of k-points (npk) =  40000
     Max angular momentum in pseudopotentials (lmaxx) =  4
     Message from routine setup:
     using ibrav=0 with symmetry is DISCOURAGED, use correct ibrav instead

     Using Slab Decomposition

     bravais-lattice index     =            0
     lattice parameter (alat)  =       8.9153  a.u.
     unit-cell volume          =     992.5313 (a.u.)^3
     number of atoms/cell      =           12
     number of atomic types    =            3
     number of electrons       =       172.00
     number of Kohn-Sham states=           90
     kinetic-energy cutoff     =      30.0000  Ry
     charge density cutoff     =     240.0000  Ry
     scf convergence threshold =      1.0E-06
     mixing beta               =       0.7000
     number of iterations used =            8  plain     mixing
     Exchange-correlation= PBE
                           (   1   4   3   4   0   0   0)

     celldm(1)=   8.915304  celldm(2)=   0.000000  celldm(3)=   0.000000
     celldm(4)=   0.000000  celldm(5)=   0.000000  celldm(6)=   0.000000

     crystal axes: (cart. coord. in units of alat)
               a(1) = (   1.000000   0.000000   0.000000 )
               a(2) = (  -0.487950   0.872871   0.000000 )
               a(3) = (   0.000000   0.000000   1.604669 )

     reciprocal axes: (cart. coord. in units 2 pi/alat)
               b(1) = (  1.000000  0.559018  0.000000 )
               b(2) = (  0.000000  1.145644  0.000000 )
               b(3) = (  0.000000  0.000000  0.623181 )

     PseudoPot. # 1 for Si read from file:
     /home/pragov/projects/rrg-bengioy-ad/pragov/crystal_structure_design/SSSP/Si.pbe-n-rrkjus_psl.1.0.0.UPF
     MD5 check sum: 0b0bb1205258b0d07b9f9672cf965d36
     Pseudo is Ultrasoft + core correction, Zval =  4.0
     Generated using "atomic" code by A. Dal Corso  v.5.1
     Using radial grid of 1141 points,  6 beta functions with:
                l(1) =   0
                l(2) =   0
                l(3) =   1
                l(4) =   1
                l(5) =   2
                l(6) =   2
     Q(r) pseudized with 0 coefficients

     PseudoPot. # 2 for Ni read from file:
     /home/pragov/projects/rrg-bengioy-ad/pragov/crystal_structure_design/SSSP/ni_pbe_v1.4.uspp.F.UPF
     MD5 check sum: 1ee80287db30b12d2bc1f57a5b5d6409
     Pseudo is Ultrasoft + core correction, Zval = 18.0
     Generated by new atomic code, or converted to UPF format
     Using radial grid of  865 points,  6 beta functions with:
                l(1) =   0
                l(2) =   0
                l(3) =   1
                l(4) =   1
                l(5) =   2
                l(6) =   2
     Q(r) pseudized with 10 coefficients,  rinner =    0.980   0.980   0.980
                                                       0.980   0.980

     PseudoPot. # 3 for Mo read from file:
     /home/pragov/projects/rrg-bengioy-ad/pragov/crystal_structure_design/SSSP/Mo_ONCV_PBE-1.0.oncvpsp.upf
     MD5 check sum: 1b5d28e075c9ccadda658a603575cd1f
     Pseudo is Norm-conserving, Zval = 14.0
     Generated using ONCVPSP code by D. R. Hamann
     Using radial grid of 1526 points,  6 beta functions with:
                l(1) =   0
                l(2) =   0
                l(3) =   1
                l(4) =   1
                l(5) =   2
                l(6) =   2

     atomic species   valence    mass     pseudopotential
        Si             4.00    28.08500     Si( 1.00)
        Ni            18.00    58.69340     Ni( 1.00)
        Mo            14.00    95.95000     Mo( 1.00)

      2 Sym. Ops. (no inversion) found

                                    s                        frac. trans.

      isym =  1     identity

 cryst.   s( 1) = (     1          0          0      )
                  (     0          1          0      )
                  (     0          0          1      )

 cart.    s( 1) = (  1.0000000 -0.0000000  0.0000000 )
                  (  0.0000000  1.0000000  0.0000000 )
                  (  0.0000000  0.0000000  1.0000000 )

      isym =  2     inv. 180 deg rotation - cart. axis [0,0,1]

 cryst.   s( 2) = (     1          0          0      )
                  (     0          1          0      )
                  (     0          0         -1      )

 cart.    s( 2) = (  1.0000000 -0.0000000  0.0000000 )
                  (  0.0000000  1.0000000  0.0000000 )
                  (  0.0000000  0.0000000 -1.0000000 )

   Cartesian axes

     site n.     atom                  positions (alat units)
         1           Si  tau(   1) = (   0.0070299   0.2931591   0.0000000  )
         2           Si  tau(   2) = (   0.2595896   0.7236880   0.0000000  )
         3           Ni  tau(   3) = (  -0.2174336   0.7141789   0.0000000  )
         4           Ni  tau(   4) = (   0.5082611   0.5771355   0.8023347  )
         5           Ni  tau(   5) = (   0.2562907   0.1476113   0.8023347  )
         6           Ni  tau(   6) = (   0.7476347   0.1480442   0.8023347  )
         7           Ni  tau(   7) = (   0.9900858   0.0058159   0.3867366  )
         8           Ni  tau(   8) = (   0.9900858   0.0058159   1.2179329  )
         9           Mo  tau(   9) = (   0.0106216   0.5803957   1.0958239  )
        10           Mo  tau(  10) = (   0.4986396   0.2941114   1.3012505  )
        11           Mo  tau(  11) = (   0.4986396   0.2941114   0.3034189  )
        12           Mo  tau(  12) = (   0.0106216   0.5803957   0.5088455  )

   Crystallographic axes

     site n.     atom                  positions (cryst. coord.)
         1           Si  tau(   1) = (  0.1709110  0.3358560  0.0000000  )
         2           Si  tau(   2) = (  0.6641440  0.8290890  0.0000000  )
         3           Ni  tau(   3) = (  0.1818050  0.8181950  0.0000000  )
         4           Ni  tau(   4) = (  0.8308900  0.6611920  0.5000000  )
         5           Ni  tau(   5) = (  0.3388080  0.1691100  0.5000000  )
         6           Ni  tau(   6) = (  0.8303940  0.1696060  0.5000000  )
         7           Ni  tau(   7) = (  0.9933370  0.0066630  0.2410070  )
         8           Ni  tau(   8) = (  0.9933370  0.0066630  0.7589930  )
         9           Mo  tau(   9) = (  0.3350730  0.6649270  0.6828970  )
        10           Mo  tau(  10) = (  0.6630530  0.3369470  0.8109150  )
        11           Mo  tau(  11) = (  0.6630530  0.3369470  0.1890850  )
        12           Mo  tau(  12) = (  0.3350730  0.6649270  0.3171030  )

     number of k points=    10
                       cart. coord. in units 2pi/alat
        k(    1) = (   0.0000000   0.0000000   0.0000000), wk =   0.0740741
        k(    2) = (   0.0000000   0.0000000   0.2077271), wk =   0.1481481
        k(    3) = (   0.0000000   0.3818814   0.0000000), wk =   0.1481481
        k(    4) = (   0.0000000   0.3818814   0.2077271), wk =   0.2962963
        k(    5) = (   0.3333333   0.1863392   0.0000000), wk =   0.1481481
        k(    6) = (   0.3333333   0.1863392   0.2077271), wk =   0.2962963
        k(    7) = (   0.3333333   0.5682206   0.0000000), wk =   0.1481481
        k(    8) = (   0.3333333   0.5682206   0.2077271), wk =   0.2962963
        k(    9) = (   0.3333333  -0.1955422   0.0000000), wk =   0.1481481
        k(   10) = (   0.3333333  -0.1955422   0.2077271), wk =   0.2962963

                       cryst. coord.
        k(    1) = (   0.0000000   0.0000000   0.0000000), wk =   0.0740741
        k(    2) = (   0.0000000   0.0000000   0.3333333), wk =   0.1481481
        k(    3) = (   0.0000000   0.3333333   0.0000000), wk =   0.1481481
        k(    4) = (   0.0000000   0.3333333   0.3333333), wk =   0.2962963
        k(    5) = (   0.3333333  -0.0000000   0.0000000), wk =   0.1481481
        k(    6) = (   0.3333333  -0.0000000   0.3333333), wk =   0.2962963
        k(    7) = (   0.3333333   0.3333333   0.0000000), wk =   0.1481481
        k(    8) = (   0.3333333   0.3333333   0.3333333), wk =   0.2962963
        k(    9) = (   0.3333333  -0.3333333   0.0000000), wk =   0.1481481
        k(   10) = (   0.3333333  -0.3333333   0.3333333), wk =   0.2962963

     Check: negative core charge=   -0.000008

     Initial potential from superposition of free atoms

     starting charge     159.9949, renormalised to     172.0000
     Starting wfcs are  126 randomized atomic wfcs

     Self-consistent Calculation

     iteration #  1     ecut=    30.00 Ry     beta= 0.70
     Davidson diagonalization with overlap

     ethr =  1.00E-02,  avg # of iterations =  3.3

     total energy              =   -2492.07135300 Ry
     estimated scf accuracy    <     194.69040913 Ry

[...]

     total energy              =   -2630.37528801 Ry
     estimated scf accuracy    <       0.00000143 Ry

     iteration # 29     ecut=    30.00 Ry     beta= 0.70
     Davidson diagonalization with overlap

     ethr =  8.29E-10,  avg # of iterations =  4.3

     End of self-consistent calculation

          k = 0.0000 0.0000 0.0000 (  2767 PWs)   bands (ev):

   -84.8332 -84.6690 -84.6428 -84.6378 -84.6212 -84.6091 -45.3151 -45.2665
   -45.1358 -45.1027 -45.0652 -45.0580 -45.0560 -45.0479 -44.9623 -44.9397
   -44.9300 -44.9002 -44.8891 -44.8808 -44.8562 -44.8318 -44.8258 -44.8210
   -41.9065 -41.8648 -41.8214 -41.7824 -16.1478 -16.1109 -16.0944 -16.0772
   -16.0744 -16.0339 -15.8049 -15.7743 -15.7636 -15.7635 -15.7333 -15.7032
     7.0227  11.7827  12.2598  12.3124  12.9083  14.2124  14.5153  14.5304
    14.9129  15.1041  15.1302  15.1490  15.2436  15.5191  15.6763  15.8644
    15.8867  15.9861  16.1333  16.1474  16.3052  16.3817  16.4948  16.5033
    16.6001  16.9051  17.0113  17.0302  17.0327  17.1847  17.4197  17.5090
    17.5654  17.5776  17.6572  17.6990  17.8891  17.9236  17.9470  17.9603
    17.9741  18.4229  18.4668  18.5476  18.6477  18.9741  19.2305  19.2725
    19.3745  20.0974

     occupation numbers
     1.0000   1.0000   1.0000   1.0000   1.0000   1.0000   1.0000   1.0000
     1.0000   1.0000   1.0000   1.0000   1.0000   1.0000   1.0000   1.0000
     1.0000   1.0000   1.0000   1.0000   1.0000   1.0000   1.0000   1.0000
     1.0000   1.0000   1.0000   1.0000   1.0000   1.0000   1.0000   1.0000
     1.0000   1.0000   1.0000   1.0000   1.0000   1.0000   1.0000   1.0000
     1.0000   1.0000   1.0000   1.0000   1.0000   1.0000   1.0000   1.0000
     1.0000   1.0000   1.0000   1.0000   1.0000   1.0000   1.0000   1.0000
     1.0000   1.0000   1.0000   1.0000   1.0000   1.0000   1.0000   1.0000
     1.0000   1.0000   1.0000   1.0000   1.0000   1.0000   1.0000   1.0000
     1.0000   1.0000   1.0000   1.0000   1.0000   1.0000   1.0000   1.0000
     1.0000   1.0000   1.0000   1.0000   1.0000   1.0000   0.0000   0.0000
     0.0000   0.0000

[...]

          k = 0.3333-0.1955 0.2077 (  2747 PWs)   bands (ev):

   -84.8310 -84.6634 -84.6399 -84.6388 -84.6210 -84.6072 -45.3083 -45.2128
   -45.1297 -45.1068 -45.0928 -45.0632 -45.0319 -45.0218 -44.9514 -44.9396
   -44.9294 -44.9074 -44.8968 -44.8793 -44.8475 -44.8392 -44.8225 -44.8118
   -41.8808 -41.8622 -41.8226 -41.8076 -16.1792 -16.1358 -16.0951 -16.0730
   -16.0588 -16.0211 -15.8310 -15.8013 -15.7644 -15.7435 -15.7156 -15.6668
     7.6348  11.9327  12.1503  12.5525  12.7445  13.6482  14.3954  14.7583
    14.7743  15.0102  15.0258  15.2269  15.4721  15.5830  15.6549  15.8277
    16.0002  16.0473  16.2043  16.2130  16.3150  16.3611  16.4594  16.5129
    16.5500  16.5942  16.7250  16.7549  16.9209  16.9978  17.2866  17.3083
    17.5916  17.6220  17.7413  17.7477  17.9274  17.9827  18.1003  18.2632
    18.3385  18.4224  18.4812  18.6830  18.7022  18.8888  19.2123  19.5634
    19.6129  20.0676

     occupation numbers
     1.0000   1.0000   1.0000   1.0000   1.0000   1.0000   1.0000   1.0000
     1.0000   1.0000   1.0000   1.0000   1.0000   1.0000   1.0000   1.0000
     1.0000   1.0000   1.0000   1.0000   1.0000   1.0000   1.0000   1.0000
     1.0000   1.0000   1.0000   1.0000   1.0000   1.0000   1.0000   1.0000
     1.0000   1.0000   1.0000   1.0000   1.0000   1.0000   1.0000   1.0000
     1.0000   1.0000   1.0000   1.0000   1.0000   1.0000   1.0000   1.0000
     1.0000   1.0000   1.0000   1.0000   1.0000   1.0000   1.0000   1.0000
     1.0000   1.0000   1.0000   1.0000   1.0000   1.0000   1.0000   1.0000
     1.0000   1.0000   1.0000   1.0000   1.0000   1.0000   1.0000   1.0000
     1.0000   1.0000   1.0000   1.0000   1.0000   1.0000   1.0000   1.0000
     1.0000   1.0000   1.0000   1.0000   1.0000   1.0000   0.0000   0.0000
     0.0000   0.0000

     highest occupied, lowest unoccupied level (ev):    19.2831   18.9849

!    total energy              =   -2630.37528738 Ry
     estimated scf accuracy    <       0.00000078 Ry

     The total energy is the sum of the following terms:
     one-electron contribution =   -1597.38147011 Ry
     hartree contribution      =     908.07879341 Ry
     xc contribution           =    -288.42024885 Ry
     ewald contribution        =   -1652.65236183 Ry

     convergence has been achieved in  29 iterations

     Writing all to output data dir calculations_bands/myprefix.save/

     General routines

     Parallel routines

   This run was terminated on:   6:30: 2  23Jun2023

   JOB DONE.