     Program PWSCF v.7.0 starts on  6Jun2023 at 20: 9: 4

     K-points division:     npool     =       2
     R & G space division:  proc/nbgrp/npool/nimage =       4

     Reading input from espresso_233.pwi
Warning: card &CELL ignored
Warning: card / ignored

     Current dimensions of program PWSCF are:
     Max number of different atomic species (ntypx) = 10
     Max number of k-points (npk) =  40000
     Max angular momentum in pseudopotentials (lmaxx) =  4
     Message from routine setup:
     using ibrav=0 with symmetry is DISCOURAGED, use correct ibrav instead

     Using Slab Decomposition

     bravais-lattice index     =            0
     lattice parameter (alat)  =       9.9417  a.u.
     unit-cell volume          =     431.1625 (a.u.)^3
     number of atoms/cell      =            3
     number of atomic types    =            2
     number of electrons       =        62.00
     number of Kohn-Sham states=           64
     kinetic-energy cutoff     =      30.0000  Ry
     charge density cutoff     =     240.0000  Ry
     scf convergence threshold =      1.0E-06
     mixing beta               =       0.7000
     number of iterations used =            8  plain     mixing
     Exchange-correlation= PBE
                           (   1   4   3   4   0   0   0)

     celldm(1)=   9.941700  celldm(2)=   0.000000  celldm(3)=   0.000000
     celldm(4)=   0.000000  celldm(5)=   0.000000  celldm(6)=   0.000000

     crystal axes: (cart. coord. in units of alat)
               a(1) = (   1.000000   0.000000   0.000000 )
               a(2) = (   0.491963   0.870616   0.000000 )
               a(3) = (  -0.745982  -0.435308   0.504002 )

     reciprocal axes: (cart. coord. in units 2 pi/alat)
               b(1) = (  1.000000 -0.565075  0.992059 )
               b(2) = (  0.000000  1.148612  0.992059 )
               b(3) = (  0.000000  0.000000  1.984118 )

     PseudoPot. # 1 for Yb read from file:
     /home/pragov/projects/rrg-bengioy-ad/pragov/crystal_structure_design/SSSP/Yb.GGA-PBE-paw-v1.0.UPF
     MD5 check sum: 43b6465ad8021f06e3edb42ae292e187
     Pseudo is Projector augmented-wave + core cor, Zval = 24.0
     Generated using ATOMPAW code
     Shape of augmentation charge: BESSEL
     Using radial grid of 1117 points,  8 beta functions with:
                l(1) =   0
                l(2) =   0
                l(3) =   1
                l(4) =   1
                l(5) =   2
                l(6) =   2
                l(7) =   3
                l(8) =   3
     Q(r) pseudized with 0 coefficients

     PseudoPot. # 2 for Au read from file:
     /home/pragov/projects/rrg-bengioy-ad/pragov/crystal_structure_design/SSSP/Au_ONCV_PBE-1.0.oncvpsp.upf
     MD5 check sum: d14007822ba0e19f0206237467fc06c2
     Pseudo is Norm-conserving, Zval = 19.0
     Generated using ONCVPSP code by D. R. Hamann
     Using radial grid of 1278 points,  8 beta functions with:
                l(1) =   0
                l(2) =   0
                l(3) =   1
                l(4) =   1
                l(5) =   2
                l(6) =   2
                l(7) =   3
                l(8) =   3

     atomic species   valence    mass     pseudopotential
        Yb            24.00   173.05400     Yb( 1.00)
        Au            19.00   196.96657     Au( 1.00)

      4 Sym. Ops., with inversion, found

                                    s                        frac. trans.

      isym =  1     identity

 cryst.   s( 1) = (     1          0          0      )
                  (     0          1          0      )
                  (     0          0          1      )

 cart.    s( 1) = (  1.0000000 -0.0000000  0.0000000 )
                  (  0.0000000  1.0000000  0.0000000 )
                  (  0.0000000  0.0000000  1.0000000 )

      isym =  2     180 deg rotation - cart. axis [0,0,1]

[...]

      isym =  3     inversion

[...]

      isym =  4     inv. 180 deg rotation - cart. axis [0,0,1]

 cryst.   s( 4) = (     1          0          0      )
                  (     0          1          0      )
                  (    -1         -1         -1      )

 cart.    s( 4) = (  1.0000000 -0.0000000  0.0000000 )
                  (  0.0000000  1.0000000  0.0000000 )
                  (  0.0000000  0.0000000 -1.0000000 )

   Cartesian axes

     site n.     atom                  positions (alat units)
         1           Yb  tau(   1) = (   0.0000000   0.0000000   0.0000000  )
         2           Au  tau(   2) = (   0.9917216   0.5787062   0.0000000  )
         3           Au  tau(   3) = (   0.5002419   0.2919097   0.0000000  )

   Crystallographic axes

     site n.     atom                  positions (cryst. coord.)
         1           Yb  tau(   1) = (  0.0000000  0.0000000  0.0000000  )
         2           Au  tau(   2) = (  0.6647090  0.6647090  0.0000000  )
         3           Au  tau(   3) = (  0.3352910  0.3352910  0.0000000  )

     number of k points=    10
                       cart. coord. in units 2pi/alat
        k(    1) = (   0.0000000   0.0000000   0.0000000), wk =   0.0740741
        k(    2) = (   0.0000000   0.0000000   0.6613727), wk =   0.1481481
        k(    3) = (   0.0000000   0.3828707   0.3306864), wk =   0.2962963
        k(    4) = (   0.0000000   0.3828707   0.9920591), wk =   0.1481481
        k(    5) = (   0.3333333  -0.1883584   0.3306864), wk =   0.2962963
        k(    6) = (   0.3333333  -0.1883584   0.9920591), wk =   0.1481481
        k(    7) = (   0.3333333   0.1945123   0.6613727), wk =   0.2962963
        k(    8) = (   0.3333333   0.1945123   0.0000000), wk =   0.1481481
        k(    9) = (   0.3333333  -0.5712292   0.0000000), wk =   0.1481481
        k(   10) = (   0.3333333  -0.5712292   0.6613727), wk =   0.2962963

                       cryst. coord.
        k(    1) = (   0.0000000   0.0000000   0.0000000), wk =   0.0740741
        k(    2) = (   0.0000000   0.0000000   0.3333333), wk =   0.1481481
        k(    3) = (   0.0000000   0.3333333   0.0000000), wk =   0.2962963
        k(    4) = (   0.0000000   0.3333333   0.3333333), wk =   0.1481481
        k(    5) = (   0.3333333   0.0000000  -0.0000000), wk =   0.2962963
        k(    6) = (   0.3333333   0.0000000   0.3333333), wk =   0.1481481
        k(    7) = (   0.3333333   0.3333333   0.0000000), wk =   0.2962963
        k(    8) = (   0.3333333   0.3333333  -0.3333333), wk =   0.1481481
        k(    9) = (   0.3333333  -0.3333333  -0.0000000), wk =   0.1481481
        k(   10) = (   0.3333333  -0.3333333   0.3333333), wk =   0.2962963

     Initial potential from superposition of free atoms

     starting charge      61.9958, renormalised to      62.0000
     Starting wfcs are   52 randomized atomic wfcs +   12 random wfcs
     Checking if some PAW data can be deallocated...

     Self-consistent Calculation

     iteration #  1     ecut=    30.00 Ry     beta= 0.70
     Davidson diagonalization with overlap

     ethr =  1.00E-02,  avg # of iterations =  6.9

     Threshold (ethr) on eigenvalues was too large:
     Diagonalizing with lowered threshold

     Davidson diagonalization with overlap

[...]

     total energy              =   -1559.83302078 Ry
     estimated scf accuracy    <       0.43449013 Ry

[...]

     total energy              =   -1560.33241076 Ry
     estimated scf accuracy    <       0.00000113 Ry

     iteration # 18     ecut=    30.00 Ry     beta= 0.70
     Davidson diagonalization with overlap

     ethr =  1.83E-09,  avg # of iterations =  1.0

     End of self-consistent calculation

          k = 0.0000 0.0000 0.0000 (  1211 PWs)   bands (ev):

   -89.2500 -89.2465 -40.2941 -40.2780 -40.2780 -40.2356 -40.2356 -40.2268
   -34.3496  -6.6423  -6.5227  -6.5227   9.2844  12.0486  12.5881  12.6773
    12.7536  13.1316  13.1913  13.1913  13.2104  13.2104  14.0293  16.7802
    16.9859  16.9907  16.9958  16.9958  17.0602  17.0602  17.1145  19.4103
    19.8209  20.0628  20.0628  23.3469  25.5914  26.1880  26.8592  26.8592
    28.5870  28.6667  28.6668  28.9789  31.4474  31.4474  35.1455  35.2189
    38.0212  38.0212  38.8304  38.9070  39.2648  40.3485  40.6235  41.6791
    41.6791  41.8999  42.6011  43.6193  43.6193  45.5746  45.6575  48.2189

     occupation numbers
     1.0000   1.0000   1.0000   1.0000   1.0000   1.0000   1.0000   1.0000
     1.0000   1.0000   1.0000   1.0000   1.0000   1.0000   1.0000   1.0000
     1.0000   1.0000   1.0000   1.0000   1.0000   1.0000   1.0000   1.0000
     1.0000   1.0000   1.0000   1.0000   1.0000   1.0000   1.0000   0.0000
     0.0000   0.0000   0.0000   0.0000   0.0000   0.0000   0.0000   0.0000
     0.0000   0.0000   0.0000   0.0000   0.0000   0.0000   0.0000   0.0000
     0.0000   0.0000   0.0000   0.0000   0.0000   0.0000   0.0000   0.0000
     0.0000   0.0000   0.0000   0.0000   0.0000   0.0000   0.0000   0.0000

[...]

          k = 0.3333-0.5712 0.6614 (  1188 PWs)   bands (ev):

   -89.2483 -89.2480 -40.2855 -40.2659 -40.2619 -40.2510 -40.2412 -40.2265
   -34.3452  -6.6525  -6.6360  -6.5120  11.4977  11.6018  11.9389  12.3042
    12.4193  12.4912  13.7926  13.9104  14.1714  14.1735  14.3432  14.6195
    16.2609  16.9713  17.0094  17.0107  17.0749  17.0780  17.0841  17.0885
    20.5137  20.6431  20.9467  22.8813  23.1418  27.0561  27.0793  28.0731
    28.5315  29.0574  29.8038  30.0318  31.7024  33.9168  34.0790  34.3668
    35.5300  35.8836  37.7152  38.1526  39.0829  39.9114  41.2189  41.4336
    41.9595  42.2932  43.4058  44.8430  45.5076  46.0878  47.3304  47.5123

     occupation numbers
     1.0000   1.0000   1.0000   1.0000   1.0000   1.0000   1.0000   1.0000
     1.0000   1.0000   1.0000   1.0000   1.0000   1.0000   1.0000   1.0000
     1.0000   1.0000   1.0000   1.0000   1.0000   1.0000   1.0000   1.0000
     1.0000   1.0000   1.0000   1.0000   1.0000   1.0000   1.0000   0.0000
     0.0000   0.0000   0.0000   0.0000   0.0000   0.0000   0.0000   0.0000
     0.0000   0.0000   0.0000   0.0000   0.0000   0.0000   0.0000   0.0000
     0.0000   0.0000   0.0000   0.0000   0.0000   0.0000   0.0000   0.0000
     0.0000   0.0000   0.0000   0.0000   0.0000   0.0000   0.0000   0.0000

     highest occupied, lowest unoccupied level (ev):    17.4708   17.0885

!    total energy              =   -1560.33241010 Ry
     estimated scf accuracy    <       0.00000023 Ry

     The total energy is the sum of the following terms:
     one-electron contribution =    -543.31735333 Ry
     hartree contribution      =     265.94667978 Ry
     xc contribution           =     -88.78776693 Ry
     ewald contribution        =    -709.68448984 Ry
     one-center paw contrib.   =    -484.48947979 Ry
      -> PAW hartree energy AE =     449.49794758 Ry
      -> PAW hartree energy PS =    -386.38788793 Ry
      -> PAW xc energy AE      =    -584.76039631 Ry
      -> PAW xc energy PS      =      37.16085687 Ry
      -> total E_H with PAW    =     329.05673944 Ry
      -> total E_XC with PAW   =    -636.38730637 Ry

     convergence has been achieved in  18 iterations

     Writing all to output data dir calculations_bands/myprefix.save/

     General routines

     Parallel routines

     PAW routines

   This run was terminated on:  20: 9:20   6Jun2023

   JOB DONE.