     Program PWSCF v.7.0 starts on  6Jun2023 at 16:53:59

     K-points division:     npool     =       2
     R & G space division:  proc/nbgrp/npool/nimage =       4

     Reading input from espresso_19450.pwi
Warning: card &CELL ignored
Warning: card / ignored

     Current dimensions of program PWSCF are:
     Max number of different atomic species (ntypx) = 10
     Max number of k-points (npk) =  40000
     Max angular momentum in pseudopotentials (lmaxx) =  4
     file O.pbe-n-kjpaw_psl.0.1.UPF: wavefunction(s)  2P renormalized
     Message from routine setup:
     using ibrav=0 with symmetry is DISCOURAGED, use correct ibrav instead

     Using Slab Decomposition

     bravais-lattice index     =            0
     lattice parameter (alat)  =      11.9610  a.u.
     unit-cell volume          =    1251.5118 (a.u.)^3
     number of atoms/cell      =           16
     number of atomic types    =            4
     number of electrons       =       100.00
     number of Kohn-Sham states=           64
     kinetic-energy cutoff     =      30.0000  Ry
     charge density cutoff     =     240.0000  Ry
     scf convergence threshold =      1.0E-06
     mixing beta               =       0.7000
     number of iterations used =            8  plain     mixing
     Exchange-correlation= SLA  PW   PBX  PBC
                           (   1   4   3   4   0   0   0)

     celldm(1)=  11.961044  celldm(2)=   0.000000  celldm(3)=   0.000000
     celldm(4)=   0.000000  celldm(5)=   0.000000  celldm(6)=   0.000000

     crystal axes: (cart. coord. in units of alat)
               a(1) = (   1.000000   0.000000   0.000000 )
               a(2) = (  -0.002454   0.999997   0.000000 )
               a(3) = (   0.000000   0.000000   0.731356 )

     reciprocal axes: (cart. coord. in units 2 pi/alat)
               b(1) = (  1.000000  0.002454  0.000000 )
               b(2) = (  0.000000  1.000003  0.000000 )
               b(3) = (  0.000000  0.000000  1.367323 )

     PseudoPot. # 1 for Li read from file:
     /home/pragov/projects/rrg-bengioy-ad/pragov/crystal_structure_design/SSSP/li_pbe_v1.4.uspp.F.UPF
     MD5 check sum: e912e257baa3777c20ea3d68f190483c
     Pseudo is Ultrasoft, Zval =  3.0
     Generated by new atomic code, or converted to UPF format
     Using radial grid of  751 points,  5 beta functions with:
                l(1) =   0
                l(2) =   0
                l(3) =   0
                l(4) =   1
                l(5) =   1
     Q(r) pseudized with 10 coefficients,  rinner =    1.150   1.150   1.150

     PseudoPot. # 2 for V  read from file:
     /home/pragov/projects/rrg-bengioy-ad/pragov/crystal_structure_design/SSSP/v_pbe_v1.4.uspp.F.UPF
     MD5 check sum: 22b79981416ebb76fdaf5b1b8640f6fb
     Pseudo is Ultrasoft + core correction, Zval = 13.0
     Generated by new atomic code, or converted to UPF format
     Using radial grid of  853 points,  6 beta functions with:
                l(1) =   0
                l(2) =   0
                l(3) =   1
                l(4) =   1
                l(5) =   2
                l(6) =   2
     Q(r) pseudized with  8 coefficients,  rinner =    1.100   1.100   1.100
                                                       1.100   1.100

     PseudoPot. # 3 for Si read from file:
     /home/pragov/projects/rrg-bengioy-ad/pragov/crystal_structure_design/SSSP/Si.pbe-n-rrkjus_psl.1.0.0.UPF
     MD5 check sum: 0b0bb1205258b0d07b9f9672cf965d36
     Pseudo is Ultrasoft + core correction, Zval =  4.0
     Generated using "atomic" code by A. Dal Corso  v.5.1
     Using radial grid of 1141 points,  6 beta functions with:
                l(1) =   0
                l(2) =   0
                l(3) =   1
                l(4) =   1
                l(5) =   2
                l(6) =   2
     Q(r) pseudized with 0 coefficients

     PseudoPot. # 4 for O  read from file:
     /home/pragov/projects/rrg-bengioy-ad/pragov/crystal_structure_design/SSSP/O.pbe-n-kjpaw_psl.0.1.UPF
     MD5 check sum: 0234752ac141de4415c5fc33072bef88
     Pseudo is Projector augmented-wave + core cor, Zval =  6.0
     Generated using "atomic" code by A. Dal Corso  v.5.0.99 svn rev. 10869
     Shape of augmentation charge: BESSEL
     Using radial grid of 1095 points,  4 beta functions with:
                l(1) =   0
                l(2) =   0
                l(3) =   1
                l(4) =   1
     Q(r) pseudized with 0 coefficients

     atomic species   valence    mass     pseudopotential
        Li             3.00     6.94000     Li( 1.00)
        V             13.00    50.94150     V ( 1.00)
        Si             4.00    28.08500     Si( 1.00)
        O              6.00    15.99900     O ( 1.00)

      4 Sym. Ops., with inversion, found ( 2 have fractional translation)

                                    s                        frac. trans.

      isym =  1     identity

 cryst.   s( 1) = (     1          0          0      )
                  (     0          1          0      )
                  (     0          0          1      )

 cart.    s( 1) = (  1.0000000 -0.0000000  0.0000000 )
                  (  0.0000000  1.0000000  0.0000000 )
                  (  0.0000000  0.0000000  1.0000000 )

      isym =  2     180 deg rotation - cart. axis [0,0,1]

 cryst.   s( 2) = (    -1          0          0      )    f =( -0.5000000 )
                  (     0         -1          0      )       ( -0.5000000 )
                  (     0          0          1      )       (  0.0000000 )

 cart.    s( 2) = ( -1.0000000  0.0000000  0.0000000 )    f =( -0.4987730 )
                  (  0.0000000 -1.0000000  0.0000000 )       ( -0.4999985 )
                  (  0.0000000  0.0000000  1.0000000 )       (  0.0000000 )

      isym =  3     inversion

 cryst.   s( 3) = (    -1          0          0      )
                  (     0         -1          0      )
                  (     0          0         -1      )

 cart.    s( 3) = ( -1.0000000  0.0000000  0.0000000 )
                  (  0.0000000 -1.0000000  0.0000000 )
                  (  0.0000000  0.0000000 -1.0000000 )

      isym =  4     inv. 180 deg rotation - cart. axis [0,0,1]

 cryst.   s( 4) = (     1          0          0      )    f =(  0.5000000 )
                  (     0          1          0      )       (  0.5000000 )
                  (     0          0         -1      )       ( -0.0000000 )

 cart.    s( 4) = (  1.0000000 -0.0000000  0.0000000 )    f =(  0.4987730 )
                  (  0.0000000  1.0000000  0.0000000 )       (  0.4999985 )
                  (  0.0000000  0.0000000 -1.0000000 )       ( -0.0000000 )

   Cartesian axes

     site n.     atom                  positions (alat units)
         1           Li  tau(   1) = (   0.5000000   0.0000000   0.3656781  )
         2           Li  tau(   2) = (   0.9987730   0.4999985   0.3656781  )
         3           V   tau(   3) = (   0.7493865   0.2499992   0.0763543  )
         4           V   tau(   4) = (   0.2481595   0.7499977   0.6550019  )
         5           Si  tau(   5) = (   0.2493865   0.2499992   0.0000000  )
         6           Si  tau(   6) = (   0.7481595   0.7499977   0.0000000  )
         7           O   tau(   7) = (   0.2553780   0.0403579   0.5777041  )
         8           O   tau(   8) = (   0.7493865   0.2499992   0.5497502  )
         9           O   tau(   9) = (   0.4590420   0.2445223   0.1536521  )
        10           O   tau(  10) = (   0.0397311   0.2554762   0.1536521  )
        11           O   tau(  11) = (   0.2433951   0.4596406   0.5777041  )
        12           O   tau(  12) = (   0.7541510   0.5403564   0.1536521  )
        13           O   tau(  13) = (   0.9578150   0.7445208   0.5777041  )
        14           O   tau(  14) = (   0.5385041   0.7554747   0.5777041  )
        15           O   tau(  15) = (   0.2481595   0.7499977   0.1816060  )
        16           O   tau(  16) = (   0.7421681   0.9596391   0.1536521  )

   Crystallographic axes

     site n.     atom                  positions (cryst. coord.)
         1           Li  tau(   1) = (  0.5000000  0.0000000  0.5000000  )
         2           Li  tau(   2) = (  1.0000000  0.5000000  0.5000000  )
         3           V   tau(   3) = (  0.7500000  0.2500000  0.1044010  )
         4           V   tau(   4) = (  0.2500000  0.7500000  0.8955990  )
         5           Si  tau(   5) = (  0.2500000  0.2500000  0.0000000  )
         6           Si  tau(   6) = (  0.7500000  0.7500000  0.0000000  )
         7           O   tau(   7) = (  0.2554770  0.0403580  0.7899080  )
         8           O   tau(   8) = (  0.7500000  0.2500000  0.7516860  )
         9           O   tau(   9) = (  0.4596420  0.2445230  0.2100920  )
        10           O   tau(  10) = (  0.0403580  0.2554770  0.2100920  )
        11           O   tau(  11) = (  0.2445230  0.4596420  0.7899080  )
        12           O   tau(  12) = (  0.7554770  0.5403580  0.2100920  )
        13           O   tau(  13) = (  0.9596420  0.7445230  0.7899080  )
        14           O   tau(  14) = (  0.5403580  0.7554770  0.7899080  )
        15           O   tau(  15) = (  0.2500000  0.7500000  0.2483140  )
        16           O   tau(  16) = (  0.7445230  0.9596420  0.2100920  )

     number of k points=    10
                       cart. coord. in units 2pi/alat
        k(    1) = (   0.0000000   0.0000000   0.0000000), wk =   0.0740741
        k(    2) = (   0.0000000   0.0000000   0.4557742), wk =   0.1481481
        k(    3) = (   0.0000000   0.3333343   0.0000000), wk =   0.1481481
        k(    4) = (   0.0000000   0.3333343   0.4557742), wk =   0.2962963
        k(    5) = (   0.3333333   0.0008180   0.0000000), wk =   0.1481481
        k(    6) = (   0.3333333   0.0008180   0.4557742), wk =   0.2962963
        k(    7) = (   0.3333333   0.3341523   0.0000000), wk =   0.1481481
        k(    8) = (   0.3333333   0.3341523   0.4557742), wk =   0.2962963
        k(    9) = (   0.3333333  -0.3325164   0.0000000), wk =   0.1481481
        k(   10) = (   0.3333333  -0.3325164   0.4557742), wk =   0.2962963

                       cryst. coord.
        k(    1) = (   0.0000000   0.0000000   0.0000000), wk =   0.0740741
        k(    2) = (   0.0000000   0.0000000   0.3333333), wk =   0.1481481
        k(    3) = (   0.0000000   0.3333333   0.0000000), wk =   0.1481481
        k(    4) = (   0.0000000   0.3333333   0.3333333), wk =   0.2962963
        k(    5) = (   0.3333333  -0.0000000   0.0000000), wk =   0.1481481
        k(    6) = (   0.3333333  -0.0000000   0.3333333), wk =   0.2962963
        k(    7) = (   0.3333333   0.3333333   0.0000000), wk =   0.1481481
        k(    8) = (   0.3333333   0.3333333   0.3333333), wk =   0.2962963
        k(    9) = (   0.3333333  -0.3333333   0.0000000), wk =   0.1481481
        k(   10) = (   0.3333333  -0.3333333   0.3333333), wk =   0.2962963

     Check: negative core charge=   -0.000014

     Initial potential from superposition of free atoms

     starting charge      99.0949, renormalised to     100.0000

     negative rho (up, down):  2.598E-03 0.000E+00
     Starting wfcs are   78 randomized atomic wfcs
     Checking if some PAW data can be deallocated...

     Self-consistent Calculation

     iteration #  1     ecut=    30.00 Ry     beta= 0.70
     Davidson diagonalization with overlap

     ethr =  1.00E-02,  avg # of iterations =  2.3

     negative rho (up, down):  7.568E-03 0.000E+00

     total energy              =    -755.60391760 Ry
     estimated scf accuracy    <       6.38849744 Ry

[...]

     total energy              =    -759.39031871 Ry
     estimated scf accuracy    <       0.00000557 Ry

     iteration # 10     ecut=    30.00 Ry     beta= 0.70
     Davidson diagonalization with overlap

     ethr =  5.57E-09,  avg # of iterations =  2.6

     negative rho (up, down):  4.961E-03 0.000E+00

     End of self-consistent calculation

          k = 0.0000 0.0000 0.0000 (  3515 PWs)   bands (ev):

   -60.6586 -60.6581 -38.8397 -38.8393 -34.6757 -34.6729 -34.4466 -34.4446
   -34.4104 -34.4083 -14.5816 -14.1362 -13.3075 -12.9846 -12.8374 -12.8319
   -12.8149 -12.7831 -12.7290 -12.7164  -2.6529  -1.9883  -1.1423  -0.7751
    -0.5653  -0.2029  -0.1665   0.0974   0.3229   0.6410   0.9460   1.0976
     1.2160   1.2185   1.3464   1.4300   1.4809   1.7974   2.1018   2.1944
     2.2160   2.6616   2.7710   2.8503   3.1082   3.2274   3.2388   3.2802
     3.6154   4.5117   6.2385   6.3478   6.9900   7.0292   7.0319   7.1547
     7.8074   8.0453   8.0465   8.1913  10.2227  12.5865  13.4788  13.5520

     occupation numbers
     1.0000   1.0000   1.0000   1.0000   1.0000   1.0000   1.0000   1.0000
     1.0000   1.0000   1.0000   1.0000   1.0000   1.0000   1.0000   1.0000
     1.0000   1.0000   1.0000   1.0000   1.0000   1.0000   1.0000   1.0000
     1.0000   1.0000   1.0000   1.0000   1.0000   1.0000   1.0000   1.0000
     1.0000   1.0000   1.0000   1.0000   1.0000   1.0000   1.0000   1.0000
     1.0000   1.0000   1.0000   1.0000   1.0000   1.0000   1.0000   1.0000
     1.0000   1.0000   0.0000   0.0000   0.0000   0.0000   0.0000   0.0000
     0.0000   0.0000   0.0000   0.0000   0.0000   0.0000   0.0000   0.0000

[...]

          k = 0.3333-0.3325 0.4558 (  3469 PWs)   bands (ev):

   -60.6581 -60.6581 -38.8390 -38.8387 -34.6739 -34.6735 -34.4449 -34.4442
   -34.4086 -34.4084 -14.2234 -14.1219 -13.3214 -13.2333 -12.9220 -12.9110
   -12.8428 -12.8104 -12.6793 -12.6755  -2.2601  -2.2203  -0.7850  -0.6160
    -0.5342  -0.3275  -0.0926   0.0233   0.3825   0.4212   0.5484   0.8960
     1.0460   1.0895   1.1423   1.4593   1.5070   1.7579   1.8483   2.2555
     2.3672   2.6090   2.6408   2.7880   2.8800   2.9548   3.5148   3.6187
     3.6269   4.1639   6.0872   6.1683   6.7603   6.8550   6.9423   7.0509
     8.9193   8.9257   8.9560   9.0474  12.3155  12.9169  13.3728  13.6985

     occupation numbers
     1.0000   1.0000   1.0000   1.0000   1.0000   1.0000   1.0000   1.0000
     1.0000   1.0000   1.0000   1.0000   1.0000   1.0000   1.0000   1.0000
     1.0000   1.0000   1.0000   1.0000   1.0000   1.0000   1.0000   1.0000
     1.0000   1.0000   1.0000   1.0000   1.0000   1.0000   1.0000   1.0000
     1.0000   1.0000   1.0000   1.0000   1.0000   1.0000   1.0000   1.0000
     1.0000   1.0000   1.0000   1.0000   1.0000   1.0000   1.0000   1.0000
     1.0000   1.0000   0.0000   0.0000   0.0000   0.0000   0.0000   0.0000
     0.0000   0.0000   0.0000   0.0000   0.0000   0.0000   0.0000   0.0000

     highest occupied, lowest unoccupied level (ev):     4.5117    6.0447

!    total energy              =    -759.39031956 Ry
     estimated scf accuracy    <       0.00000060 Ry

     The total energy is the sum of the following terms:
     one-electron contribution =    -369.27295868 Ry
     hartree contribution      =     225.87545954 Ry
     xc contribution           =    -132.96807296 Ry
     ewald contribution        =    -387.81357957 Ry
     one-center paw contrib.   =     -95.21116788 Ry
      -> PAW hartree energy AE =       0.00000000 Ry
      -> PAW hartree energy PS =       0.00000000 Ry
      -> PAW xc energy AE      =       0.00000000 Ry
      -> PAW xc energy PS      =       0.00000000 Ry
      -> total E_H with PAW    =     225.87545954 Ry
      -> total E_XC with PAW   =    -132.96807296 Ry

     convergence has been achieved in  10 iterations

     Writing all to output data dir calculations_bands/myprefix.save/

     General routines

     Parallel routines

     PAW routines

   This run was terminated on:  16:54:11   6Jun2023

   JOB DONE.