     Program PWSCF v.7.0 starts on  3Jun2023 at  2:58:22

     Reading input from espresso_187.pwi
Warning: card &CELL ignored
Warning: card / ignored

     Current dimensions of program PWSCF are:
     Max number of different atomic species (ntypx) = 10
     Max number of k-points (npk) =  40000
     Max angular momentum in pseudopotentials (lmaxx) =  4
     Message from routine setup:
     using ibrav=0 with symmetry is DISCOURAGED, use correct ibrav instead

     Subspace diagonalization in iterative solution of the eigenvalue problem:
     a serial algorithm will be used

     Using Slab Decomposition

     bravais-lattice index     =            0
     lattice parameter (alat)  =      14.8864  a.u.
     unit-cell volume          =    2539.4705 (a.u.)^3
     number of atoms/cell      =           14
     number of atomic types    =            2
     number of electrons       =       114.00
     number of Kohn-Sham states=           64
     kinetic-energy cutoff     =      30.0000  Ry
     charge density cutoff     =     240.0000  Ry
     scf convergence threshold =      1.0E-06
     mixing beta               =       0.7000
     number of iterations used =            8  plain     mixing
     Exchange-correlation= SLA  PW   PBE  PBE
                           (   1   4   3   4   0   0   0)

     celldm(1)=  14.886354  celldm(2)=   0.000000  celldm(3)=   0.000000
     celldm(4)=   0.000000  celldm(5)=   0.000000  celldm(6)=   0.000000

     crystal axes: (cart. coord. in units of alat)
               a(1) = (   1.000000   0.000000   0.000000 )
               a(2) = (  -0.333333   0.942809   0.000000 )
               a(3) = (  -0.333333  -0.471405   0.816497 )

     reciprocal axes: (cart. coord. in units 2 pi/alat)
               b(1) = (  1.000000  0.353553  0.612372 )
               b(2) = (  0.000000  1.060660  0.612372 )
               b(3) = (  0.000000  0.000000  1.224745 )

     PseudoPot. # 1 for La read from file:
     /home/pragov/projects/rrg-bengioy-ad/pragov/crystal_structure_design/SSSP/La.GGA-PBE-paw-v1.0.UPF
     MD5 check sum: 436541e95c1ad8901025bd0b0ed42ae2
     Pseudo is Projector augmented-wave + core cor, Zval = 11.0
     Generated using ATOMPAW code
     Shape of augmentation charge: BESSEL
     Using radial grid of 1101 points,  8 beta functions with:
                l(1) =   0
                l(2) =   0
                l(3) =   1
                l(4) =   1
                l(5) =   2
                l(6) =   2
                l(7) =   3
                l(8) =   3
     Q(r) pseudized with 0 coefficients

     PseudoPot. # 2 for Se read from file:
     /home/pragov/projects/rrg-bengioy-ad/pragov/crystal_structure_design/SSSP/Se_pbe_v1.uspp.F.UPF
     MD5 check sum: 1b3568f3a8ae88f9a2a0ad0698632c85
     Pseudo is Ultrasoft + core correction, Zval =  6.0
     Generated by new atomic code, or converted to UPF format
     Using radial grid of  877 points,  6 beta functions with:
                l(1) =   0
                l(2) =   0
                l(3) =   1
                l(4) =   1
                l(5) =   2
                l(6) =   2
     Q(r) pseudized with  8 coefficients,  rinner =    1.300   1.300   1.300
                                                       1.300   1.300

     atomic species   valence    mass     pseudopotential
        La            11.00   138.90547     La( 1.00)
        Se             6.00    78.97100     Se( 1.00)

      2 Sym. Ops. (no inversion) found ( 1 have fractional translation)

                                    s                        frac. trans.

      isym =  1     identity

 cryst.   s( 1) = (     1          0          0      )
                  (     0          1          0      )
                  (     0          0          1      )

 cart.    s( 1) = (  1.0000000 -0.0000000 -0.0000000 )
                  (  0.0000000  1.0000000 -0.0000000 )
                  (  0.0000000  0.0000000  1.0000000 )

      isym =  2     inv. 180 deg rotation - cart. axis [0,0,1]

 cryst.   s( 2) = (     1          0          0      )    f =( -0.5000000 )
                  (     0          1          0      )       ( -0.0000000 )
                  (    -1         -1         -1      )       ( -0.0000000 )

 cart.    s( 2) = (  1.0000000 -0.0000000 -0.0000000 )    f =( -0.5000000 )
                  (  0.0000000  1.0000000 -0.0000000 )       (  0.0000000 )
                  (  0.0000000  0.0000000 -1.0000000 )       ( -0.0000000 )

   Cartesian axes

     site n.     atom                  positions (alat units)
         1           La  tau(   1) = (   0.5833333  -0.2357023   0.6123724  )
         2           La  tau(   2) = (   0.0833333  -0.0589256   0.5103104  )
         3           La  tau(   3) = (  -0.4166667   0.2946278   0.7144345  )
         4           La  tau(   4) = (   0.4166667   0.7660323   0.1020621  )
         5           La  tau(   5) = (  -0.0833333   0.4124790   0.3061862  )
         6           La  tau(   6) = (   0.4166667   0.2357023   0.2041241  )
         7           Se  tau(   7) = (   0.2169600   0.3068278   0.5314413  )
         8           Se  tau(   8) = (   0.0502933   0.7782323   0.2850553  )
         9           Se  tau(   9) = (  -0.2830400   0.0934512   0.4082483  )
        10           Se  tau(  10) = (   0.1824533   0.4714045   0.0000000  )
        11           Se  tau(  11) = (  -0.4497067   0.5648558   0.4082483  )
        12           Se  tau(  12) = (   0.6824533   0.4714045   0.0000000  )
        13           Se  tau(  13) = (   0.0502933   0.0711255   0.1231930  )
        14           Se  tau(  14) = (   0.2169600  -0.4002790   0.6933036  )

   Crystallographic axes

     site n.     atom                  positions (cryst. coord.)
         1           La  tau(   1) = (  0.8750000  0.1250000  0.7500000  )
         2           La  tau(   2) = (  0.3750000  0.2500000  0.6250000  )
         3           La  tau(   3) = (  0.1250000  0.7500000  0.8750000  )
         4           La  tau(   4) = (  0.7500000  0.8750000  0.1250000  )
         5           La  tau(   5) = (  0.2500000  0.6250000  0.3750000  )
         6           La  tau(   6) = (  0.6250000  0.3750000  0.2500000  )
         7           Se  tau(   7) = (  0.6508800  0.6508800  0.6508800  )
         8           Se  tau(   8) = (  0.5000000  1.0000000  0.3491200  )
         9           Se  tau(   9) = ( -0.0000000  0.3491200  0.5000000  )
        10           Se  tau(  10) = (  0.3491200  0.5000000  0.0000000  )
        11           Se  tau(  11) = ( -0.0000000  0.8491200  0.5000000  )
        12           Se  tau(  12) = (  0.8491200  0.5000000  0.0000000  )
        13           Se  tau(  13) = (  0.1508800  0.1508800  0.1508800  )
        14           Se  tau(  14) = (  0.5000000  0.0000000  0.8491200  )

     number of k points=    10
                       cart. coord. in units 2pi/alat
        k(    1) = (   0.0000000   0.0000000   0.0000000), wk =   0.0740741
        k(    2) = (   0.0000000   0.0000000   0.4082483), wk =   0.1481481
        k(    3) = (   0.0000000   0.3535534   0.2041241), wk =   0.2962963
        k(    4) = (   0.0000000   0.3535534   0.6123724), wk =   0.1481481
        k(    5) = (   0.3333333   0.1178511   0.2041241), wk =   0.2962963
        k(    6) = (   0.3333333   0.1178511   0.6123724), wk =   0.1481481
        k(    7) = (   0.3333333   0.4714045   0.4082483), wk =   0.2962963
        k(    8) = (   0.3333333   0.4714045  -0.0000000), wk =   0.1481481
        k(    9) = (   0.3333333  -0.2357023  -0.0000000), wk =   0.1481481
        k(   10) = (   0.3333333  -0.2357023   0.4082483), wk =   0.2962963

                       cryst. coord.
        k(    1) = (   0.0000000   0.0000000   0.0000000), wk =   0.0740741
        k(    2) = (   0.0000000   0.0000000   0.3333333), wk =   0.1481481
        k(    3) = (   0.0000000   0.3333333  -0.0000000), wk =   0.2962963
        k(    4) = (   0.0000000   0.3333333   0.3333333), wk =   0.1481481
        k(    5) = (   0.3333333   0.0000000  -0.0000000), wk =   0.2962963
        k(    6) = (   0.3333333   0.0000000   0.3333333), wk =   0.1481481
        k(    7) = (   0.3333333   0.3333333   0.0000000), wk =   0.2962963
        k(    8) = (   0.3333333   0.3333333  -0.3333333), wk =   0.1481481
        k(    9) = (   0.3333333  -0.3333333   0.0000000), wk =   0.1481481
        k(   10) = (   0.3333333  -0.3333333   0.3333333), wk =   0.2962963

     Initial potential from superposition of free atoms

     starting charge     113.9483, renormalised to     114.0000
     Starting wfcs are  224 randomized atomic wfcs
     Checking if some PAW data can be deallocated...

     Self-consistent Calculation

     iteration #  1     ecut=    30.00 Ry     beta= 0.70
     Davidson diagonalization with overlap

     ethr =  1.00E-02,  avg # of iterations =  2.0

     Threshold (ethr) on eigenvalues was too large:
     Diagonalizing with lowered threshold

     Davidson diagonalization with overlap

[...]

     total energy              =   -3100.14782039 Ry
     estimated scf accuracy    <       0.22650961 Ry

[...]

     c_bands:  2 eigenvalues not converged
     c_bands:  1 eigenvalues not converged
     c_bands:  2 eigenvalues not converged
     c_bands:  2 eigenvalues not converged
     c_bands:  1 eigenvalues not converged
     c_bands:  1 eigenvalues not converged
     c_bands:  2 eigenvalues not converged
     ethr =  4.18E-06,  avg # of iterations = 18.1

[...]

     c_bands:  1 eigenvalues not converged
     ethr =  7.97E-08,  avg # of iterations =  8.6

[...]

     total energy              =   -3100.24636474 Ry
     estimated scf accuracy    <       0.00001048 Ry

     iteration # 25     ecut=    30.00 Ry     beta= 0.70
     Davidson diagonalization with overlap

     ethr =  3.10E-09,  avg # of iterations =  1.0

     End of self-consistent calculation

          k = 0.0000 0.0000 0.0000 (  7011 PWs)   bands (ev):

   -22.5833 -22.5451 -22.5451 -22.5450 -22.5325 -22.5324  -6.7514  -6.7514
    -6.7514  -6.6293  -6.6293  -6.6293  -6.5853  -6.3393  -6.3392  -6.3392
    -6.2739  -6.2739  -6.1940  -6.1940  -6.1940  -6.1765  -6.1765  -6.1765
    -3.2389  -2.7223  -2.0666  -2.0666  -2.0666  -1.9722  -1.9722  -1.9722
     5.6306   5.6306   5.6306   5.6951   5.6951   6.0180   6.0180   6.5152
     6.9941   6.9941   6.9941   7.4069   7.7104   7.7104   7.7104   8.2005
     8.2005   8.2005   8.4157   8.4157   8.4157   8.9124   8.9124   8.9124
    10.6697  10.6697  10.9321  10.9321  10.9322  11.8605  11.8605  11.8617

     occupation numbers
     1.0000   1.0000   1.0000   1.0000   1.0000   1.0000   1.0000   1.0000
     1.0000   1.0000   1.0000   1.0000   1.0000   1.0000   1.0000   1.0000
     1.0000   1.0000   1.0000   1.0000   1.0000   1.0000   1.0000   1.0000
     1.0000   1.0000   1.0000   1.0000   1.0000   1.0000   1.0000   1.0000
     1.0000   1.0000   1.0000   1.0000   1.0000   1.0000   1.0000   1.0000
     1.0000   1.0000   1.0000   1.0000   1.0000   1.0000   1.0000   1.0000
     1.0000   1.0000   1.0000   1.0000   1.0000   1.0000   1.0000   1.0000
     1.0000   0.0000   0.0000   0.0000   0.0000   0.0000   0.0000   0.0000

[...]

          k = 0.3333-0.2357 0.4082 (  7067 PWs)   bands (ev):

   -22.5634 -22.5495 -22.5468 -22.5467 -22.5414 -22.5360  -6.7301  -6.7301
    -6.7233  -6.6016  -6.5977  -6.5277  -6.4497  -6.4497  -6.3276  -6.3276
    -6.3230  -6.3195  -6.2730  -6.2730  -6.2267  -6.2128  -6.2127  -6.1887
    -2.6033  -2.4857  -2.2971  -2.2971  -2.2794  -2.2209  -1.9583  -1.9583
     5.5329   5.8532   6.0112   6.1492   6.1492   6.3718   6.3920   6.5280
     6.5280   6.6922   6.7178   6.9367   7.4154   7.7020   7.7020   7.8267
     7.8984   7.9350   7.9538   7.9538   8.6098   8.6098   8.8510   8.8510
    11.2401  11.4248  11.4248  11.4558  11.7105  11.7744  11.9884  12.0489

     occupation numbers
     1.0000   1.0000   1.0000   1.0000   1.0000   1.0000   1.0000   1.0000
     1.0000   1.0000   1.0000   1.0000   1.0000   1.0000   1.0000   1.0000
     1.0000   1.0000   1.0000   1.0000   1.0000   1.0000   1.0000   1.0000
     1.0000   1.0000   1.0000   1.0000   1.0000   1.0000   1.0000   1.0000
     1.0000   1.0000   1.0000   1.0000   1.0000   1.0000   1.0000   1.0000
     1.0000   1.0000   1.0000   1.0000   1.0000   1.0000   1.0000   1.0000
     1.0000   1.0000   1.0000   1.0000   1.0000   1.0000   1.0000   1.0000
     1.0000   0.0000   0.0000   0.0000   0.0000   0.0000   0.0000   0.0000

     highest occupied, lowest unoccupied level (ev):    11.2434   10.6697

!    total energy              =   -3100.24636476 Ry
     estimated scf accuracy    <          8.4E-09 Ry

     The total energy is the sum of the following terms:
     one-electron contribution =      18.02069778 Ry
     hartree contribution      =      54.74075667 Ry
     xc contribution           =    -290.85961998 Ry
     ewald contribution        =    -493.50538056 Ry
     one-center paw contrib.   =   -2388.64281867 Ry
      -> PAW hartree energy AE =     209.92171407 Ry
      -> PAW hartree energy PS =    -210.14435167 Ry
      -> PAW xc energy AE      =   -2432.26027906 Ry
      -> PAW xc energy PS      =      43.84009799 Ry
      -> total E_H with PAW    =      54.51811908 Ry
      -> total E_XC with PAW   =   -2679.27980105 Ry

     convergence has been achieved in  25 iterations

     Writing all to output data dir calculations_bands/myprefix.save/

     General routines

     Parallel routines

     PAW routines

   This run was terminated on:   3: 9:12   3Jun2023

   JOB DONE.