     Program PWSCF v.7.0 starts on  5Jun2023 at 23: 0:23

     K-points division:     npool     =       2
     R & G space division:  proc/nbgrp/npool/nimage =       4

     Reading input from espresso_12248.pwi
Warning: card &CELL ignored
Warning: card / ignored

     Current dimensions of program PWSCF are:
     Max number of different atomic species (ntypx) = 10
     Max number of k-points (npk) =  40000
     Max angular momentum in pseudopotentials (lmaxx) =  4
     file In.pbe-dn-rrkjus_psl.0.2.2.UPF: wavefunction(s)  5S renormalized
     Message from routine setup:
     using ibrav=0 with symmetry is DISCOURAGED, use correct ibrav instead

     Using Slab Decomposition

     bravais-lattice index     =            0
     lattice parameter (alat)  =       7.7039  a.u.
     unit-cell volume          =    1032.8999 (a.u.)^3
     number of atoms/cell      =            8
     number of atomic types    =            3
     number of electrons       =       124.00
     number of Kohn-Sham states=           64
     kinetic-energy cutoff     =      30.0000  Ry
     charge density cutoff     =     240.0000  Ry
     scf convergence threshold =      1.0E-06
     mixing beta               =       0.7000
     number of iterations used =            8  plain     mixing
     Exchange-correlation=  SLA  PW   PBX  PBC
                           (   1   4   3   4   0   0   0)

     celldm(1)=   7.703909  celldm(2)=   0.000000  celldm(3)=   0.000000
     celldm(4)=   0.000000  celldm(5)=   0.000000  celldm(6)=   0.000000

     crystal axes: (cart. coord. in units of alat)
               a(1) = (   1.000000   0.000000   0.000000 )
               a(2) = (   0.000000   1.277494   0.000000 )
               a(3) = (   0.000000   0.000000   1.768340 )

     reciprocal axes: (cart. coord. in units 2 pi/alat)
               b(1) = (  1.000000  0.000000  0.000000 )
               b(2) = (  0.000000  0.782782  0.000000 )
               b(3) = (  0.000000  0.000000  0.565502 )

     PseudoPot. # 1 for Pr read from file:
     /home/pragov/projects/rrg-bengioy-ad/pragov/crystal_structure_design/SSSP/Pr.GGA-PBE-paw-v1.0.UPF
     MD5 check sum: b5e1e58e76df433569641143f671cc27
     Pseudo is Projector augmented-wave + core cor, Zval = 13.0
     Generated using ATOMPAW code
     Shape of augmentation charge: BESSEL
     Using radial grid of 1103 points,  8 beta functions with:
                l(1) =   0
                l(2) =   0
                l(3) =   1
                l(4) =   1
                l(5) =   2
                l(6) =   2
                l(7) =   3
                l(8) =   3
     Q(r) pseudized with 0 coefficients

     PseudoPot. # 2 for In read from file:
     /home/pragov/projects/rrg-bengioy-ad/pragov/crystal_structure_design/SSSP/In.pbe-dn-rrkjus_psl.0.2.2.UPF
     MD5 check sum: 25e7c42c3b55b68f4bf926be2e7201a4
     Pseudo is Ultrasoft + core correction, Zval = 13.0
     Generated using "atomic" code by A. Dal Corso  v.5.0.99 svn rev. 10869
     Using radial grid of 1241 points,  6 beta functions with:
                l(1) =   0
                l(2) =   0
                l(3) =   1
                l(4) =   1
                l(5) =   2
                l(6) =   2
     Q(r) pseudized with 0 coefficients

     PseudoPot. # 3 for Ni read from file:
     /home/pragov/projects/rrg-bengioy-ad/pragov/crystal_structure_design/SSSP/ni_pbe_v1.4.uspp.F.UPF
     MD5 check sum: 1ee80287db30b12d2bc1f57a5b5d6409
     Pseudo is Ultrasoft + core correction, Zval = 18.0
     Generated by new atomic code, or converted to UPF format
     Using radial grid of  865 points,  6 beta functions with:
                l(1) =   0
                l(2) =   0
                l(3) =   1
                l(4) =   1
                l(5) =   2
                l(6) =   2
     Q(r) pseudized with 10 coefficients,  rinner =    0.980   0.980   0.980
                                                       0.980   0.980

     atomic species   valence    mass     pseudopotential
        Pr            13.00   140.90766     Pr( 1.00)
        In            13.00   114.81800     In( 1.00)
        Ni            18.00    58.69340     Ni( 1.00)

      8 Sym. Ops., with inversion, found ( 4 have fractional translation)

                                    s                        frac. trans.

      isym =  1     identity

 cryst.   s( 1) = (     1          0          0      )
                  (     0          1          0      )
                  (     0          0          1      )

 cart.    s( 1) = (  1.0000000  0.0000000  0.0000000 )
                  (  0.0000000  1.0000000  0.0000000 )
                  (  0.0000000  0.0000000  1.0000000 )

      isym =  2     180 deg rotation - cart. axis [0,0,1]

 cryst.   s( 2) = (    -1          0          0      )    f =( -0.0000000 )
                  (     0         -1          0      )       (  0.5000000 )
                  (     0          0          1      )       (  0.0000000 )

 cart.    s( 2) = ( -1.0000000  0.0000000  0.0000000 )    f =( -0.0000000 )
                  (  0.0000000 -1.0000000  0.0000000 )       (  0.6387471 )
                  (  0.0000000  0.0000000  1.0000000 )       (  0.0000000 )

[...]

      isym =  4     180 deg rotation - cart. axis [1,0,0]

[...]

      isym =  5     inversion

[...]

      isym =  6     inv. 180 deg rotation - cart. axis [0,0,1]

[...]

 cryst.   s( 7) = (     1          0          0      )    f =(  0.0000000 )
                  (     0         -1          0      )       (  0.5000000 )
                  (     0          0          1      )       (  0.0000000 )

 cart.    s( 7) = (  1.0000000  0.0000000  0.0000000 )    f =(  0.0000000 )
                  (  0.0000000 -1.0000000  0.0000000 )       (  0.6387471 )
                  (  0.0000000  0.0000000  1.0000000 )       (  0.0000000 )

      isym =  8     inv. 180 deg rotation - cart. axis [1,0,0]

 cryst.   s( 8) = (    -1          0          0      )
                  (     0          1          0      )
                  (     0          0          1      )

 cart.    s( 8) = ( -1.0000000  0.0000000  0.0000000 )
                  (  0.0000000  1.0000000  0.0000000 )
                  (  0.0000000  0.0000000  1.0000000 )

   Cartesian axes

     site n.     atom                  positions (alat units)
         1           Pr  tau(   1) = (   0.5000000   0.9581207   1.2807577  )
         2           Pr  tau(   2) = (   0.5000000   0.3193736   0.4875828  )
         3           In  tau(   3) = (   0.0000000   0.9581207   0.6038458  )
         4           In  tau(   4) = (   0.0000000   0.3193736   1.1644946  )
         5           Ni  tau(   5) = (   0.0000000   0.0000000   0.0000000  )
         6           Ni  tau(   6) = (   0.0000000   0.6387471   0.0000000  )
         7           Ni  tau(   7) = (   0.5000000   0.9581207   0.1852584  )
         8           Ni  tau(   8) = (   0.5000000   0.3193736   1.5830821  )

   Crystallographic axes

     site n.     atom                  positions (cryst. coord.)
         1           Pr  tau(   1) = (  0.5000000  0.7500000  0.7242710  )
         2           Pr  tau(   2) = (  0.5000000  0.2500000  0.2757290  )
         3           In  tau(   3) = (  0.0000000  0.7500000  0.3414760  )
         4           In  tau(   4) = (  0.0000000  0.2500000  0.6585240  )
         5           Ni  tau(   5) = (  0.0000000  0.0000000  0.0000000  )
         6           Ni  tau(   6) = (  0.0000000  0.5000000  0.0000000  )
         7           Ni  tau(   7) = (  0.5000000  0.7500000  0.1047640  )
         8           Ni  tau(   8) = (  0.5000000  0.2500000  0.8952360  )

     number of k points=     8
                       cart. coord. in units 2pi/alat
        k(    1) = (   0.0000000   0.0000000   0.0000000), wk =   0.0740741
        k(    2) = (   0.0000000   0.0000000   0.1885007), wk =   0.1481481
        k(    3) = (   0.0000000   0.2609275   0.0000000), wk =   0.1481481
        k(    4) = (   0.0000000   0.2609275   0.1885007), wk =   0.2962963
        k(    5) = (   0.3333333   0.0000000   0.0000000), wk =   0.1481481
        k(    6) = (   0.3333333   0.0000000   0.1885007), wk =   0.2962963
        k(    7) = (   0.3333333   0.2609275   0.0000000), wk =   0.2962963
        k(    8) = (   0.3333333   0.2609275   0.1885007), wk =   0.5925926

                       cryst. coord.
        k(    1) = (   0.0000000   0.0000000   0.0000000), wk =   0.0740741
        k(    2) = (   0.0000000   0.0000000   0.3333333), wk =   0.1481481
        k(    3) = (   0.0000000   0.3333333   0.0000000), wk =   0.1481481
        k(    4) = (   0.0000000   0.3333333   0.3333333), wk =   0.2962963
        k(    5) = (   0.3333333   0.0000000   0.0000000), wk =   0.1481481
        k(    6) = (   0.3333333   0.0000000   0.3333333), wk =   0.2962963
        k(    7) = (   0.3333333   0.3333333   0.0000000), wk =   0.2962963
        k(    8) = (   0.3333333   0.3333333   0.3333333), wk =   0.5925926

     Check: negative core charge=   -0.000005

     Initial potential from superposition of free atoms

     starting charge     115.9777, renormalised to     124.0000
     Starting wfcs are  134 randomized atomic wfcs
     Checking if some PAW data can be deallocated...

     Self-consistent Calculation

     iteration #  1     ecut=    30.00 Ry     beta= 0.70
     Davidson diagonalization with overlap

     ethr =  1.00E-02,  avg # of iterations =  4.1

     total energy              =   -2631.06484599 Ry
     estimated scf accuracy    <      77.20358256 Ry

[...]

     c_bands:  1 eigenvalues not converged
     ethr =  3.53E-06,  avg # of iterations = 17.1

[...]

     c_bands:  1 eigenvalues not converged
     ethr =  8.65E-10,  avg # of iterations = 15.5

[...]

     total energy              =   -2678.97282415 Ry
     estimated scf accuracy    <       0.00000111 Ry

     iteration # 67     ecut=    30.00 Ry     beta= 0.70
     Davidson diagonalization with overlap

     ethr =  8.65E-10,  avg # of iterations =  4.1

     End of self-consistent calculation

          k = 0.0000 0.0000 0.0000 (  2843 PWs)   bands (ev):

   -89.5957 -89.5954 -89.4831 -89.4786 -49.9902 -49.9545 -49.9276 -49.9235
   -49.8974 -49.8884 -49.8565 -49.8313 -49.7955 -49.7866 -49.7575 -49.7421
   -22.0270 -22.0117  -4.2192  -4.1818  -4.0906  -4.0213  -3.9328  -3.9133
    -0.4356  -0.4067  -0.4039  -0.3898  -0.3724  -0.3404  -0.3313  -0.3274
    -0.3246  -0.2426   5.7885   7.6872   9.3927  10.5354  10.6843  10.9820
    11.1048  11.3563  11.5910  11.6580  11.7340  11.7542  11.7597  11.8616
    11.9463  12.1952  12.4765  12.6397  12.6648  12.7532  12.7544  12.9216
    12.9904  13.4381  13.5001  13.6035  13.7304  13.7622  13.8398  13.9338

     occupation numbers
     1.0000   1.0000   1.0000   1.0000   1.0000   1.0000   1.0000   1.0000
     1.0000   1.0000   1.0000   1.0000   1.0000   1.0000   1.0000   1.0000
     1.0000   1.0000   1.0000   1.0000   1.0000   1.0000   1.0000   1.0000
     1.0000   1.0000   1.0000   1.0000   1.0000   1.0000   1.0000   1.0000
     1.0000   1.0000   1.0000   1.0000   1.0000   1.0000   1.0000   1.0000
     1.0000   1.0000   1.0000   1.0000   1.0000   1.0000   1.0000   1.0000
     1.0000   1.0000   1.0000   1.0000   1.0000   1.0000   1.0000   1.0000
     1.0000   1.0000   1.0000   1.0000   1.0000   1.0000   0.0000   0.0000

[...]

          k = 0.3333 0.2609 0.1885 (  2865 PWs)   bands (ev):

   -89.5964 -89.5958 -89.4834 -89.4799 -49.9704 -49.9668 -49.9341 -49.9335
   -49.9053 -49.8921 -49.8354 -49.8207 -49.8049 -49.8015 -49.7555 -49.7550
   -22.0101 -22.0047  -4.2071  -4.1811  -4.1516  -4.1391  -4.0636  -4.0223
    -0.4080  -0.3857  -0.3793  -0.3709  -0.3687  -0.3439  -0.3327  -0.3229
    -0.2746  -0.2626   7.5209   7.9181   9.8334  10.2629  10.7238  10.8478
    11.0222  11.3664  11.4247  11.4485  11.5831  11.6266  11.7829  11.8958
    11.9555  12.1036  12.2004  12.2296  12.2814  12.5077  12.6273  12.8326
    12.9675  13.0170  13.1790  13.2345  13.7126  13.7940  13.9225  13.9287

     occupation numbers
     1.0000   1.0000   1.0000   1.0000   1.0000   1.0000   1.0000   1.0000
     1.0000   1.0000   1.0000   1.0000   1.0000   1.0000   1.0000   1.0000
     1.0000   1.0000   1.0000   1.0000   1.0000   1.0000   1.0000   1.0000
     1.0000   1.0000   1.0000   1.0000   1.0000   1.0000   1.0000   1.0000
     1.0000   1.0000   1.0000   1.0000   1.0000   1.0000   1.0000   1.0000
     1.0000   1.0000   1.0000   1.0000   1.0000   1.0000   1.0000   1.0000
     1.0000   1.0000   1.0000   1.0000   1.0000   1.0000   1.0000   1.0000
     1.0000   1.0000   1.0000   1.0000   1.0000   1.0000   0.0000   0.0000

     highest occupied, lowest unoccupied level (ev):    13.8971   13.8398

!    total energy              =   -2678.97282385 Ry
     estimated scf accuracy    <       0.00000032 Ry

     The total energy is the sum of the following terms:
     one-electron contribution =   -1455.11828545 Ry
     hartree contribution      =     812.08972889 Ry
     xc contribution           =    -261.32088529 Ry
     ewald contribution        =    -935.56827934 Ry
     one-center paw contrib.   =    -839.05510265 Ry
      -> PAW hartree energy AE =      62.92884571 Ry
      -> PAW hartree energy PS =     -62.98130175 Ry
      -> PAW xc energy AE      =    -430.06984687 Ry
      -> PAW xc energy PS      =      10.59475159 Ry
      -> total E_H with PAW    =     812.03727284 Ry
      -> total E_XC with PAW   =    -680.79598057 Ry

     convergence has been achieved in  67 iterations

     Writing all to output data dir calculations_bands/myprefix.save/

     General routines

     Parallel routines

     PAW routines

   This run was terminated on:  23: 1:34   5Jun2023

   JOB DONE.