     Program PWSCF v.7.0 starts on  7Jun2023 at  9:59: 2

     K-points division:     npool     =       2
     R & G space division:  proc/nbgrp/npool/nimage =       4

     Reading input from espresso_9788.pwi
Warning: card &CELL ignored
Warning: card / ignored

     Current dimensions of program PWSCF are:
     Max number of different atomic species (ntypx) = 10
     Max number of k-points (npk) =  40000
     Max angular momentum in pseudopotentials (lmaxx) =  4
     Message from routine setup:
     using ibrav=0 with symmetry is DISCOURAGED, use correct ibrav instead

     Using Slab Decomposition

     bravais-lattice index     =            0
     lattice parameter (alat)  =      18.3389  a.u.
     unit-cell volume          =     830.3317 (a.u.)^3
     number of atoms/cell      =            3
     number of atomic types    =            1
     number of electrons       =        72.00
     number of Kohn-Sham states=           64
     kinetic-energy cutoff     =      30.0000  Ry
     charge density cutoff     =     240.0000  Ry
     scf convergence threshold =      1.0E-06
     mixing beta               =       0.7000
     number of iterations used =            8  plain     mixing
     Exchange-correlation= SLA PW PBX PBC
                           (   1   4   3   4   0   0   0)

     celldm(1)=  18.338891  celldm(2)=   0.000000  celldm(3)=   0.000000
     celldm(4)=   0.000000  celldm(5)=   0.000000  celldm(6)=   0.000000

     crystal axes: (cart. coord. in units of alat)
               a(1) = (   1.000000   0.000000   0.000000 )
               a(2) = (   0.920117   0.391644   0.000000 )
               a(3) = (   0.920117   0.187675   0.343749 )

     reciprocal axes: (cart. coord. in units 2 pi/alat)
               b(1) = (  1.000000 -2.349370 -1.394037 )
               b(2) = (  0.000000  2.553339 -1.394037 )
               b(3) = (  0.000000  0.000000  2.909103 )

     PseudoPot. # 1 for Yb read from file:
     /home/pragov/projects/rrg-bengioy-ad/pragov/crystal_structure_design/SSSP/Yb.GGA-PBE-paw-v1.0.UPF
     MD5 check sum: 43b6465ad8021f06e3edb42ae292e187
     Pseudo is Projector augmented-wave + core cor, Zval = 24.0
     Generated using ATOMPAW code
     Shape of augmentation charge: BESSEL
     Using radial grid of 1117 points,  8 beta functions with:
                l(1) =   0
                l(2) =   0
                l(3) =   1
                l(4) =   1
                l(5) =   2
                l(6) =   2
                l(7) =   3
                l(8) =   3
     Q(r) pseudized with 0 coefficients

     atomic species   valence    mass     pseudopotential
        Yb            24.00   173.05400     Yb( 1.00)

      2 Sym. Ops., with inversion, found

                                    s                        frac. trans.

      isym =  1     identity

 cryst.   s( 1) = (     1          0          0      )
                  (     0          1          0      )
                  (     0          0          1      )

 cart.    s( 1) = (  1.0000000  0.0000000  0.0000000 )
                  (  0.0000000  1.0000000 -0.0000000 )
                  (  0.0000000  0.0000000  1.0000000 )

      isym =  2     inversion

 cryst.   s( 2) = (    -1          0          0      )
                  (     0         -1          0      )
                  (     0          0         -1      )

 cart.    s( 2) = ( -1.0000000 -0.0000000 -0.0000000 )
                  (  0.0000000 -1.0000000  0.0000000 )
                  (  0.0000000  0.0000000 -1.0000000 )

   Cartesian axes

     site n.     atom                  positions (alat units)
         1           Yb  tau(   1) = (   0.0000000   0.0000000   0.0000000  )
         2           Yb  tau(   2) = (   0.6317134   0.1288499   0.0764552  )
         3           Yb  tau(   3) = (   2.2085202   0.4504693   0.2672934  )

   Crystallographic axes

     site n.     atom                  positions (cryst. coord.)
         1           Yb  tau(   1) = (  0.0000000  0.0000000  0.0000000  )
         2           Yb  tau(   2) = (  0.2224160  0.2224160  0.2224160  )
         3           Yb  tau(   3) = (  0.7775840  0.7775840  0.7775840  )

     number of k points=    14
                       cart. coord. in units 2pi/alat
        k(    1) = (   0.0000000   0.0000000   0.0000000), wk =   0.0740741
        k(    2) = (   0.0000000   0.0000000   0.9697010), wk =   0.1481481
        k(    3) = (   0.0000000   0.8511130  -0.4646791), wk =   0.1481481
        k(    4) = (   0.0000000   0.8511130   0.5050219), wk =   0.1481481
        k(    5) = (   0.0000000   0.8511130  -1.4343801), wk =   0.1481481
        k(    6) = (   0.3333333  -0.7831234  -0.4646791), wk =   0.1481481
        k(    7) = (   0.3333333  -0.7831234   0.5050219), wk =   0.1481481
        k(    8) = (   0.3333333  -0.7831234  -1.4343801), wk =   0.1481481
        k(    9) = (   0.3333333   0.0679896  -0.9293582), wk =   0.1481481
        k(   10) = (   0.3333333   0.0679896   0.0403428), wk =   0.1481481
        k(   11) = (   0.3333333   0.0679896  -1.8990592), wk =   0.1481481
        k(   12) = (   0.3333333  -1.6342364   0.0000000), wk =   0.1481481
        k(   13) = (   0.3333333  -1.6342364   0.9697010), wk =   0.1481481
        k(   14) = (   0.3333333  -1.6342364  -0.9697010), wk =   0.1481481

                       cryst. coord.
        k(    1) = (   0.0000000   0.0000000   0.0000000), wk =   0.0740741
        k(    2) = (   0.0000000   0.0000000   0.3333333), wk =   0.1481481
        k(    3) = (   0.0000000   0.3333333  -0.0000000), wk =   0.1481481
        k(    4) = (   0.0000000   0.3333333   0.3333333), wk =   0.1481481
        k(    5) = (   0.0000000   0.3333333  -0.3333333), wk =   0.1481481
        k(    6) = (   0.3333333   0.0000000   0.0000000), wk =   0.1481481
        k(    7) = (   0.3333333   0.0000000   0.3333333), wk =   0.1481481
        k(    8) = (   0.3333333   0.0000000  -0.3333333), wk =   0.1481481
        k(    9) = (   0.3333333   0.3333333  -0.0000000), wk =   0.1481481
        k(   10) = (   0.3333333   0.3333333   0.3333333), wk =   0.1481481
        k(   11) = (   0.3333333   0.3333333  -0.3333333), wk =   0.1481481
        k(   12) = (   0.3333333  -0.3333333   0.0000000), wk =   0.1481481
        k(   13) = (   0.3333333  -0.3333333   0.3333333), wk =   0.1481481
        k(   14) = (   0.3333333  -0.3333333  -0.3333333), wk =   0.1481481

     Initial potential from superposition of free atoms

     starting charge      71.9880, renormalised to      72.0000
     Starting wfcs are   96 randomized atomic wfcs
     Checking if some PAW data can be deallocated...

     Self-consistent Calculation

     iteration #  1     ecut=    30.00 Ry     beta= 0.70
     Davidson diagonalization with overlap

     ethr =  1.00E-02,  avg # of iterations =  8.1

     total energy              =   -3032.07907456 Ry
     estimated scf accuracy    <       0.98084209 Ry

[...]

     total energy              =   -3033.26642465 Ry
     estimated scf accuracy    <       0.00000391 Ry

     iteration # 30     ecut=    30.00 Ry     beta= 0.70
     Davidson diagonalization with overlap

     ethr =  5.43E-09,  avg # of iterations =  1.3

     End of self-consistent calculation

          k = 0.0000 0.0000 0.0000 (  2299 PWs)   bands (ev):

   -42.4833 -42.4779 -42.4742 -14.8354 -14.8341 -14.7013 -14.7013 -14.6966
   -14.6966 -14.6748 -14.6746 -14.6746   4.7795   6.7647   6.7773   9.2247
     9.2314   9.2353   9.2676   9.2764   9.2772   9.2773   9.2845   9.2845
     9.2913   9.2933   9.2933   9.3286   9.3286   9.3354   9.3354   9.3584
     9.3584   9.3624   9.3636   9.3639  10.5707  10.5844  12.1856  12.1856
    12.3454  12.3454  12.3470  12.6327  12.6327  13.6596  13.6596  14.6396
    14.6396  15.0268  15.0268  17.1563  17.4644  18.4744  18.6740  19.5267
    20.7008  20.7312  20.7312  21.7019  21.7019  22.4350  22.4350  22.5531

     occupation numbers
     1.0000   1.0000   1.0000   1.0000   1.0000   1.0000   1.0000   1.0000
     1.0000   1.0000   1.0000   1.0000   1.0000   1.0000   1.0000   1.0000
     1.0000   1.0000   1.0000   1.0000   1.0000   1.0000   1.0000   1.0000
     1.0000   1.0000   1.0000   1.0000   1.0000   1.0000   1.0000   1.0000
     1.0000   1.0000   1.0000   1.0000   0.0000   0.0000   0.0000   0.0000
     0.0000   0.0000   0.0000   0.0000   0.0000   0.0000   0.0000   0.0000
     0.0000   0.0000   0.0000   0.0000   0.0000   0.0000   0.0000   0.0000
     0.0000   0.0000   0.0000   0.0000   0.0000   0.0000   0.0000   0.0000

[...]

          k = 0.3333-1.6342-0.9697 (  2308 PWs)   bands (ev):

   -42.4772 -42.4755 -42.4707 -14.8349 -14.8335 -14.8144 -14.8076 -14.7405
   -14.7210 -14.7171 -14.7079 -14.6999   6.9185   7.1357   9.1650   9.2321
     9.2449   9.2596   9.2666   9.2698   9.2807   9.2871   9.2928   9.2950
     9.2954   9.2999   9.3031   9.3104   9.3139   9.3262   9.3283   9.3287
     9.3443   9.3466   9.3575   9.5380   9.7257  10.2084  10.6041  11.1827
    11.3791  11.8598  12.4991  13.0314  13.8375  13.9294  14.3922  14.4683
    14.8927  15.0956  15.5361  16.5308  17.2778  17.8229  18.2726  18.3281
    19.4082  20.1844  20.3465  20.3663  21.5409  21.8645  22.0676  23.5611

     occupation numbers
     1.0000   1.0000   1.0000   1.0000   1.0000   1.0000   1.0000   1.0000
     1.0000   1.0000   1.0000   1.0000   1.0000   1.0000   1.0000   1.0000
     1.0000   1.0000   1.0000   1.0000   1.0000   1.0000   1.0000   1.0000
     1.0000   1.0000   1.0000   1.0000   1.0000   1.0000   1.0000   1.0000
     1.0000   1.0000   1.0000   1.0000   0.0000   0.0000   0.0000   0.0000
     0.0000   0.0000   0.0000   0.0000   0.0000   0.0000   0.0000   0.0000
     0.0000   0.0000   0.0000   0.0000   0.0000   0.0000   0.0000   0.0000
     0.0000   0.0000   0.0000   0.0000   0.0000   0.0000   0.0000   0.0000

     highest occupied, lowest unoccupied level (ev):     9.5380    9.7257

!    total energy              =   -3033.26642460 Ry

     total all-electron energy =     -3033.266425 Ry
     estimated scf accuracy    <       0.00000038 Ry

     The total energy is the sum of the following terms:
     one-electron contribution =   -1247.41933375 Ry
     hartree contribution      =     546.41344936 Ry
     xc contribution           =    -114.14570460 Ry
     ewald contribution        =    -765.81251758 Ry
     one-center paw contrib.   =   -1452.30231804 Ry
      -> PAW hartree energy AE =     449.71881859 Ry
      -> PAW hartree energy PS =    -386.13371707 Ry
      -> PAW xc energy AE      =    -584.86840710 Ry
      -> PAW xc energy PS      =      37.18049066 Ry
      -> total E_H with PAW    =     609.99855088 Ry
      -> total E_XC with PAW   =    -661.83362104 Ry

     convergence has been achieved in  30 iterations

     Writing all to output data dir calculations_bands/myprefix.save/

     General routines

     Parallel routines

     PAW routines

   This run was terminated on:  10: 0: 6   7Jun2023

   JOB DONE.