     Program PWSCF v.7.0 starts on 23Jun2023 at 10:49:51

     K-points division:     npool     =       2
     R & G space division:  proc/nbgrp/npool/nimage =       4

     Reading input from espresso_9467.pwi
Warning: card &CELL ignored
Warning: card / ignored

     Current dimensions of program PWSCF are:
     Max number of different atomic species (ntypx) = 10
     Max number of k-points (npk) =  40000
     Max angular momentum in pseudopotentials (lmaxx) =  4
     file O.pbe-n-kjpaw_psl.0.1.UPF: wavefunction(s)  2P renormalized
     Message from routine setup:
     using ibrav=0 with symmetry is DISCOURAGED, use correct ibrav instead

     Using Slab Decomposition

     bravais-lattice index     =            0
     lattice parameter (alat)  =       6.7338  a.u.
     unit-cell volume          =    1106.1018 (a.u.)^3
     number of atoms/cell      =           12
     number of atomic types    =            3
     number of electrons       =       132.00
     number of Kohn-Sham states=           90
     kinetic-energy cutoff     =      30.0000  Ry
     charge density cutoff     =     240.0000  Ry
     scf convergence threshold =      1.0E-06
     mixing beta               =       0.7000
     number of iterations used =            8  plain     mixing
     Exchange-correlation= SLA  PW   PBX  PBC
                           (   1   4   3   4   0   0   0)

     celldm(1)=   6.733757  celldm(2)=   0.000000  celldm(3)=   0.000000
     celldm(4)=   0.000000  celldm(5)=   0.000000  celldm(6)=   0.000000

     crystal axes: (cart. coord. in units of alat)
               a(1) = (   1.000000   0.000000   0.000000 )
               a(2) = (   0.000000   1.115476   0.000000 )
               a(3) = (   0.000000   0.000000   3.247598 )

     reciprocal axes: (cart. coord. in units 2 pi/alat)
               b(1) = (  1.000000  0.000000  0.000000 )
               b(2) = (  0.000000  0.896478  0.000000 )
               b(3) = (  0.000000  0.000000  0.307920 )

     PseudoPot. # 1 for Sr read from file:
     /home/pragov/projects/rrg-bengioy-ad/pragov/crystal_structure_design/SSSP/Sr_pbe_v1.uspp.F.UPF
     MD5 check sum: 6b418c05fbe9db5448babca5e47b7a5b
     Pseudo is Ultrasoft + core correction, Zval = 10.0
     Generated by new atomic code, or converted to UPF format
     Using radial grid of  883 points,  6 beta functions with:
                l(1) =   0
                l(2) =   0
                l(3) =   1
                l(4) =   1
                l(5) =   2
                l(6) =   2
     Q(r) pseudized with  6 coefficients,  rinner =    1.400   1.400   1.400
                                                       1.400   1.400

     PseudoPot. # 2 for Cu read from file:
     /home/pragov/projects/rrg-bengioy-ad/pragov/crystal_structure_design/SSSP/Cu_pbe_v1.2.uspp.F.UPF
     MD5 check sum: 6e991ff952a84172a2a52a1c1e996048
     Pseudo is Ultrasoft + core correction, Zval = 19.0
     Generated by new atomic code, or converted to UPF format
     Using radial grid of  867 points,  6 beta functions with:
                l(1) =   0
                l(2) =   0
                l(3) =   1
                l(4) =   1
                l(5) =   2
                l(6) =   2
     Q(r) pseudized with  8 coefficients,  rinner =    1.150   1.150   1.150
                                                       1.150   1.150

     PseudoPot. # 3 for O  read from file:
     /home/pragov/projects/rrg-bengioy-ad/pragov/crystal_structure_design/SSSP/O.pbe-n-kjpaw_psl.0.1.UPF
     MD5 check sum: 0234752ac141de4415c5fc33072bef88
     Pseudo is Projector augmented-wave + core cor, Zval =  6.0
     Generated using "atomic" code by A. Dal Corso  v.5.0.99 svn rev. 10869
     Shape of augmentation charge: BESSEL
     Using radial grid of 1095 points,  4 beta functions with:
                l(1) =   0
                l(2) =   0
                l(3) =   1
                l(4) =   1
     Q(r) pseudized with 0 coefficients

     atomic species   valence    mass     pseudopotential
        Sr            10.00    87.62000     Sr( 1.00)
        Cu            19.00    63.54600     Cu( 1.00)
        O              6.00    15.99900     O ( 1.00)

      8 Sym. Ops., with inversion, found ( 4 have fractional translation)

                                    s                        frac. trans.

      isym =  1     identity

 cryst.   s( 1) = (     1          0          0      )
                  (     0          1          0      )
                  (     0          0          1      )

 cart.    s( 1) = (  1.0000000  0.0000000  0.0000000 )
                  (  0.0000000  1.0000000  0.0000000 )
                  (  0.0000000  0.0000000  1.0000000 )

      isym =  2     180 deg rotation - cart. axis [0,0,1]

 cryst.   s( 2) = (    -1          0          0      )    f =(  0.0000000 )
                  (     0         -1          0      )       (  0.5000000 )
                  (     0          0          1      )       (  0.5000000 )

 cart.    s( 2) = ( -1.0000000  0.0000000  0.0000000 )    f =(  0.0000000 )
                  (  0.0000000 -1.0000000  0.0000000 )       (  0.5577382 )
                  (  0.0000000  0.0000000  1.0000000 )       (  1.6237991 )

[...]

      isym =  4     180 deg rotation - cart. axis [1,0,0]

[...]

      isym =  5     inversion

[...]

      isym =  6     inv. 180 deg rotation - cart. axis [0,0,1]

[...]

 cryst.   s( 7) = (     1          0          0      )
                  (     0         -1          0      )
                  (     0          0          1      )

 cart.    s( 7) = (  1.0000000  0.0000000  0.0000000 )
                  (  0.0000000 -1.0000000  0.0000000 )
                  (  0.0000000  0.0000000  1.0000000 )

      isym =  8     inv. 180 deg rotation - cart. axis [1,0,0]

 cryst.   s( 8) = (    -1          0          0      )    f =(  0.0000000 )
                  (     0          1          0      )       (  0.5000000 )
                  (     0          0          1      )       (  0.5000000 )

 cart.    s( 8) = ( -1.0000000  0.0000000  0.0000000 )    f =(  0.0000000 )
                  (  0.0000000  1.0000000  0.0000000 )       (  0.5577382 )
                  (  0.0000000  0.0000000  1.0000000 )       (  1.6237991 )

   Cartesian axes

     site n.     atom                  positions (alat units)
         1           Sr  tau(   1) = (   0.4831420   0.5577382   1.6237991  )
         2           Sr  tau(   2) = (   0.5168580   0.0000000   0.0000000  )
         3           Cu  tau(   3) = (   0.0124400   0.5577382   2.7117022  )
         4           Cu  tau(   4) = (   0.9875600   0.0000000   2.1596950  )
         5           Cu  tau(   5) = (   0.0124400   0.5577382   0.5358959  )
         6           Cu  tau(   6) = (   0.9875600   0.0000000   1.0879032  )
         7           O   tau(   7) = (   0.9676680   0.0000000   1.6237991  )
         8           O   tau(   8) = (   0.0323320   0.5577382   0.0000000  )
         9           O   tau(   9) = (   0.9910970   0.5577382   1.0709734  )
        10           O   tau(  10) = (   0.9910970   0.5577382   2.1766247  )
        11           O   tau(  11) = (   0.0089030   0.0000000   2.6947725  )
        12           O   tau(  12) = (   0.0089030   0.0000000   0.5528256  )

   Crystallographic axes

     site n.     atom                  positions (cryst. coord.)
         1           Sr  tau(   1) = (  0.4831420  0.5000000  0.5000000  )
         2           Sr  tau(   2) = (  0.5168580  0.0000000  0.0000000  )
         3           Cu  tau(   3) = (  0.0124400  0.5000000  0.8349870  )
         4           Cu  tau(   4) = (  0.9875600  0.0000000  0.6650130  )
         5           Cu  tau(   5) = (  0.0124400  0.5000000  0.1650130  )
         6           Cu  tau(   6) = (  0.9875600  0.0000000  0.3349870  )
         7           O   tau(   7) = (  0.9676680  0.0000000  0.5000000  )
         8           O   tau(   8) = (  0.0323320  0.5000000  0.0000000  )
         9           O   tau(   9) = (  0.9910970  0.5000000  0.3297740  )
        10           O   tau(  10) = (  0.9910970  0.5000000  0.6702260  )
        11           O   tau(  11) = (  0.0089030  0.0000000  0.8297740  )
        12           O   tau(  12) = (  0.0089030  0.0000000  0.1702260  )

     number of k points=     8
                       cart. coord. in units 2pi/alat
        k(    1) = (   0.0000000   0.0000000   0.0000000), wk =   0.0740741
        k(    2) = (   0.0000000   0.0000000   0.1026400), wk =   0.1481481
        k(    3) = (   0.0000000   0.2988260   0.0000000), wk =   0.1481481
        k(    4) = (   0.0000000   0.2988260   0.1026400), wk =   0.2962963
        k(    5) = (   0.3333333   0.0000000   0.0000000), wk =   0.1481481
        k(    6) = (   0.3333333   0.0000000   0.1026400), wk =   0.2962963
        k(    7) = (   0.3333333   0.2988260   0.0000000), wk =   0.2962963
        k(    8) = (   0.3333333   0.2988260   0.1026400), wk =   0.5925926

                       cryst. coord.
        k(    1) = (   0.0000000   0.0000000   0.0000000), wk =   0.0740741
        k(    2) = (   0.0000000   0.0000000   0.3333333), wk =   0.1481481
        k(    3) = (   0.0000000   0.3333333   0.0000000), wk =   0.1481481
        k(    4) = (   0.0000000   0.3333333   0.3333333), wk =   0.2962963
        k(    5) = (   0.3333333   0.0000000   0.0000000), wk =   0.1481481
        k(    6) = (   0.3333333   0.0000000   0.3333333), wk =   0.2962963
        k(    7) = (   0.3333333   0.3333333   0.0000000), wk =   0.2962963
        k(    8) = (   0.3333333   0.3333333   0.3333333), wk =   0.5925926

     Check: negative core charge=   -0.000012

     Initial potential from superposition of free atoms

     starting charge     127.9327, renormalised to     132.0000

     negative rho (up, down):  1.303E-01 0.000E+00
     Starting wfcs are  102 randomized atomic wfcs
     Checking if some PAW data can be deallocated...

     Self-consistent Calculation

     iteration #  1     ecut=    30.00 Ry     beta= 0.70
     Davidson diagonalization with overlap

     ethr =  1.00E-02,  avg # of iterations =  4.4

     negative rho (up, down):  1.274E-01 0.000E+00

     total energy              =   -2002.63961543 Ry
     estimated scf accuracy    <       3.92543312 Ry

[...]

     c_bands:  2 eigenvalues not converged
     ethr =  3.37E-06,  avg # of iterations =  6.1

[...]

     c_bands:  1 eigenvalues not converged
     ethr =  5.12E-07,  avg # of iterations =  4.4

[...]

     total energy              =   -2004.98618041 Ry
     estimated scf accuracy    <       0.00002789 Ry

     iteration #  9     ecut=    30.00 Ry     beta= 0.70
     Davidson diagonalization with overlap

     ethr =  2.11E-08,  avg # of iterations =  2.9

     negative rho (up, down):  1.327E-01 0.000E+00

     End of self-consistent calculation

          k = 0.0000 0.0000 0.0000 (  3049 PWs)   bands (ev):

  -103.4856-103.4845-103.4831-103.4821 -61.0333 -61.0308 -61.0254 -61.0251
   -60.8844 -60.8841 -60.8794 -60.8768 -60.6406 -60.6382 -60.6368 -60.6342
   -24.5136 -24.5134  -9.3745  -9.3554  -8.8962  -8.7167  -8.4770  -8.2550
    -6.5997  -6.5993  -6.2992  -6.2989  -6.2861  -6.1800   3.2286   3.7026
     4.2186   4.2470   4.2717   4.8299   5.1118   5.3724   5.4852   5.5839
     5.6215   5.7488   5.8602   6.2085   6.2777   6.4050   6.4472   6.4963
     6.6543   6.6725   6.6800   6.6971   6.8803   6.8972   7.1093   7.1455
     7.2064   7.3421   7.4334   7.6035   7.8069   7.9246   8.0137   8.1337
     8.1800   8.2204   8.2624   8.3074  10.9663  11.5855  13.1928  13.5340
    14.5428  14.6349  14.9100  15.5387  15.6295  15.6377  16.7161  16.7171
    17.0002  17.4620  17.7586  19.2904  20.1295  20.2350  20.4123  20.5596
    20.7622  20.9193

     occupation numbers
     1.0000   1.0000   1.0000   1.0000   1.0000   1.0000   1.0000   1.0000
     1.0000   1.0000   1.0000   1.0000   1.0000   1.0000   1.0000   1.0000
     1.0000   1.0000   1.0000   1.0000   1.0000   1.0000   1.0000   1.0000
     1.0000   1.0000   1.0000   1.0000   1.0000   1.0000   1.0000   1.0000
     1.0000   1.0000   1.0000   1.0000   1.0000   1.0000   1.0000   1.0000
     1.0000   1.0000   1.0000   1.0000   1.0000   1.0000   1.0000   1.0000
     1.0000   1.0000   1.0000   1.0000   1.0000   1.0000   1.0000   1.0000
     1.0000   1.0000   1.0000   1.0000   1.0000   1.0000   1.0000   1.0000
     1.0000   1.0000   0.0000   0.0000   0.0000   0.0000   0.0000   0.0000
     0.0000   0.0000   0.0000   0.0000   0.0000   0.0000   0.0000   0.0000
     0.0000   0.0000   0.0000   0.0000   0.0000   0.0000   0.0000   0.0000
     0.0000   0.0000

[...]

          k = 0.3333 0.2988 0.1026 (  3069 PWs)   bands (ev):

  -103.4846-103.4840-103.4835-103.4831 -61.0330 -61.0314 -61.0302 -61.0277
   -60.8815 -60.8812 -60.8779 -60.8775 -60.6394 -60.6385 -60.6377 -60.6373
   -24.4581 -24.4581  -9.2471  -9.1389  -8.7402  -8.6119  -8.5088  -8.4940
    -6.6304  -6.6244  -6.4522  -6.4427  -6.3223  -6.2894   2.7928   3.0099
     3.4417   3.5489   3.9166   4.0522   4.4908   4.5496   4.6800   4.9533
     5.0706   5.1044   5.1047   5.2282   5.6298   5.7109   6.6210   6.6428
     6.7272   6.7425   6.9222   6.9932   7.1076   7.1410   7.3747   7.4036
     7.5444   7.5565   7.8572   7.8766   7.9600   8.0738   8.3082   8.3398
     9.3914   9.4773  10.2304  10.4383  12.3384  12.3716  13.3122  13.4501
    15.8058  15.8908  16.0133  16.4281  16.4850  16.6598  17.1610  17.2416
    17.5000  17.7616  18.3021  18.5510  18.6442  18.9047  19.3351  19.3928
    20.1229  20.7347

     occupation numbers
     1.0000   1.0000   1.0000   1.0000   1.0000   1.0000   1.0000   1.0000
     1.0000   1.0000   1.0000   1.0000   1.0000   1.0000   1.0000   1.0000
     1.0000   1.0000   1.0000   1.0000   1.0000   1.0000   1.0000   1.0000
     1.0000   1.0000   1.0000   1.0000   1.0000   1.0000   1.0000   1.0000
     1.0000   1.0000   1.0000   1.0000   1.0000   1.0000   1.0000   1.0000
     1.0000   1.0000   1.0000   1.0000   1.0000   1.0000   1.0000   1.0000
     1.0000   1.0000   1.0000   1.0000   1.0000   1.0000   1.0000   1.0000
     1.0000   1.0000   1.0000   1.0000   1.0000   1.0000   1.0000   1.0000
     1.0000   1.0000   0.0000   0.0000   0.0000   0.0000   0.0000   0.0000
     0.0000   0.0000   0.0000   0.0000   0.0000   0.0000   0.0000   0.0000
     0.0000   0.0000   0.0000   0.0000   0.0000   0.0000   0.0000   0.0000
     0.0000   0.0000

     highest occupied, lowest unoccupied level (ev):     9.5891    8.2031

!    total energy              =   -2004.98618763 Ry
     estimated scf accuracy    <       0.00000040 Ry

     The total energy is the sum of the following terms:
     one-electron contribution =   -1592.98112211 Ry
     hartree contribution      =     859.51506745 Ry
     xc contribution           =    -236.21423417 Ry
     ewald contribution        =    -978.15765523 Ry
     one-center paw contrib.   =     -57.14824358 Ry
      -> PAW hartree energy AE =       0.00000000 Ry
      -> PAW hartree energy PS =       0.00000000 Ry
      -> PAW xc energy AE      =       0.00000000 Ry
      -> PAW xc energy PS      =       0.00000000 Ry
      -> total E_H with PAW    =     859.51506745 Ry
      -> total E_XC with PAW   =    -236.21423417 Ry

     convergence has been achieved in   9 iterations

     Writing all to output data dir calculations_bands/myprefix.save/

     General routines

     Parallel routines

     PAW routines

   This run was terminated on:  10:50: 2  23Jun2023

   JOB DONE.