     Program PWSCF v.7.0 starts on 23Jun2023 at  5:42:35

     K-points division:     npool     =       2
     R & G space division:  proc/nbgrp/npool/nimage =       4

     Reading input from espresso_2255.pwi
Warning: card &CELL ignored
Warning: card / ignored

     Current dimensions of program PWSCF are:
     Max number of different atomic species (ntypx) = 10
     Max number of k-points (npk) =  40000
     Max angular momentum in pseudopotentials (lmaxx) =  4
     file O.pbe-n-kjpaw_psl.0.1.UPF: wavefunction(s)  2P renormalized
     Message from routine setup:
     using ibrav=0 with symmetry is DISCOURAGED, use correct ibrav instead

     Using Slab Decomposition

     bravais-lattice index     =            0
     lattice parameter (alat)  =      14.6684  a.u.
     unit-cell volume          =    1578.0606 (a.u.)^3
     number of atoms/cell      =           20
     number of atomic types    =            4
     number of electrons       =       160.00
     number of Kohn-Sham states=           90
     kinetic-energy cutoff     =      30.0000  Ry
     charge density cutoff     =     240.0000  Ry
     scf convergence threshold =      1.0E-06
     mixing beta               =       0.7000
     number of iterations used =            8  plain     mixing
     Exchange-correlation= SLA  PW   PBX  PBC
                           (   1   4   3   4   0   0   0)

     celldm(1)=  14.668428  celldm(2)=   0.000000  celldm(3)=   0.000000
     celldm(4)=   0.000000  celldm(5)=   0.000000  celldm(6)=   0.000000

     crystal axes: (cart. coord. in units of alat)
               a(1) = (   1.000000   0.000000   0.000000 )
               a(2) = (   0.000000   0.704548   0.000000 )
               a(3) = (   0.000000   0.001557   0.709680 )

     reciprocal axes: (cart. coord. in units 2 pi/alat)
               b(1) = (  1.000000  0.000000  0.000000 )
               b(2) = (  0.000000  1.419351 -0.003114 )
               b(3) = (  0.000000  0.000000  1.409086 )

     PseudoPot. # 1 for Sr read from file:
     /home/pragov/projects/rrg-bengioy-ad/pragov/crystal_structure_design/SSSP/Sr_pbe_v1.uspp.F.UPF
     MD5 check sum: 6b418c05fbe9db5448babca5e47b7a5b
     Pseudo is Ultrasoft + core correction, Zval = 10.0
     Generated by new atomic code, or converted to UPF format
     Using radial grid of  883 points,  6 beta functions with:
                l(1) =   0
                l(2) =   0
                l(3) =   1
                l(4) =   1
                l(5) =   2
                l(6) =   2
     Q(r) pseudized with  6 coefficients,  rinner =    1.400   1.400   1.400
                                                       1.400   1.400

     PseudoPot. # 2 for Ca read from file:
     /home/pragov/projects/rrg-bengioy-ad/pragov/crystal_structure_design/SSSP/Ca_pbe_v1.uspp.F.UPF
     MD5 check sum: 403a4c14b9e4d4dfdc3024c9a3812218
     Pseudo is Ultrasoft + core correction, Zval = 10.0
     Generated by new atomic code, or converted to UPF format
     Using radial grid of  845 points,  6 beta functions with:
                l(1) =   0
                l(2) =   0
                l(3) =   1
                l(4) =   1
                l(5) =   2
                l(6) =   2
     Q(r) pseudized with  8 coefficients,  rinner =    1.500   1.500   1.500
                                                       1.500   1.500

     PseudoPot. # 3 for Ti read from file:
     /home/pragov/projects/rrg-bengioy-ad/pragov/crystal_structure_design/SSSP/ti_pbe_v1.4.uspp.F.UPF
     MD5 check sum: 88a00a6731bd790ddea75d31a80cb452
     Pseudo is Ultrasoft + core correction, Zval = 12.0
     Generated by new atomic code, or converted to UPF format
     Using radial grid of  851 points,  6 beta functions with:
                l(1) =   0
                l(2) =   0
                l(3) =   1
                l(4) =   1
                l(5) =   2
                l(6) =   2
     Q(r) pseudized with  6 coefficients,  rinner =    1.000   1.000   1.000
                                                       1.000   1.000

     PseudoPot. # 4 for O  read from file:
     /home/pragov/projects/rrg-bengioy-ad/pragov/crystal_structure_design/SSSP/O.pbe-n-kjpaw_psl.0.1.UPF
     MD5 check sum: 0234752ac141de4415c5fc33072bef88
     Pseudo is Projector augmented-wave + core cor, Zval =  6.0
     Generated using "atomic" code by A. Dal Corso  v.5.0.99 svn rev. 10869
     Shape of augmentation charge: BESSEL
     Using radial grid of 1095 points,  4 beta functions with:
                l(1) =   0
                l(2) =   0
                l(3) =   1
                l(4) =   1
     Q(r) pseudized with 0 coefficients

     atomic species   valence    mass     pseudopotential
        Sr            10.00    87.62000     Sr( 1.00)
        Ca            10.00    40.07800     Ca( 1.00)
        Ti            12.00    47.86700     Ti( 1.00)
        O              6.00    15.99900     O ( 1.00)

      2 Sym. Ops. (no inversion) found

                                    s                        frac. trans.

      isym =  1     identity

 cryst.   s( 1) = (     1          0          0      )
                  (     0          1          0      )
                  (     0          0          1      )

 cart.    s( 1) = (  1.0000000  0.0000000  0.0000000 )
                  (  0.0000000  1.0000000  0.0000000 )
                  (  0.0000000  0.0000000  1.0000000 )

      isym =  2     inv. 180 deg rotation - cart. axis [1,0,0]

 cryst.   s( 2) = (    -1          0          0      )
                  (     0          1          0      )
                  (     0          0          1      )

 cart.    s( 2) = ( -1.0000000  0.0000000  0.0000000 )
                  (  0.0000000  1.0000000  0.0000000 )
                  (  0.0000000  0.0000000  1.0000000 )

   Cartesian axes

     site n.     atom                  positions (alat units)
         1           Sr  tau(   1) = (   0.5000000   0.3498355   0.3710136  )
         2           Ca  tau(   2) = (   0.5000000   0.0035807   0.0241674  )
         3           Ca  tau(   3) = (   0.0000000   0.3570069   0.3291737  )
         4           Ca  tau(   4) = (   0.0000000   0.7049785   0.6884918  )
         5           Ti  tau(   5) = (   0.2477910   0.0024187   0.3565113  )
         6           Ti  tau(   6) = (   0.7525190   0.3553097   0.7088298  )
         7           Ti  tau(   7) = (   0.7522090   0.0024187   0.3565113  )
         8           Ti  tau(   8) = (   0.2474810   0.3553097   0.7088298  )
         9           O   tau(   9) = (   0.2857150   0.1481068   0.5606153  )
        10           O   tau(  10) = (   0.7263410   0.1977281   0.1995989  )
        11           O   tau(  11) = (   0.7889510   0.5518157   0.1528289  )
        12           O   tau(  12) = (   0.2124150   0.5019106   0.5052262  )
        13           O   tau(  13) = (   0.2110490   0.5518157   0.1528289  )
        14           O   tau(  14) = (   0.7875850   0.5019106   0.5052262  )
        15           O   tau(  15) = (   0.7142850   0.1481068   0.5606153  )
        16           O   tau(  16) = (   0.2736590   0.1977281   0.1995989  )
        17           O   tau(  17) = (   0.5000000   0.4027194   0.7075368  )
        18           O   tau(  18) = (   0.5000000   0.6695680   0.3409743  )
        19           O   tau(  19) = (   0.0000000   0.3037166   0.0065362  )
        20           O   tau(  20) = (   0.0000000   0.0520705   0.3713649  )

   Crystallographic axes

     site n.     atom                  positions (cryst. coord.)
         1           Sr  tau(   1) = (  0.5000000  0.4953840  0.5227900  )
         2           Ca  tau(   2) = (  0.5000000  0.0050070  0.0340540  )
         3           Ca  tau(   3) = (  0.0000000  0.5056930  0.4638340  )
         4           Ca  tau(   4) = (  0.0000000  0.9984680  0.9701440  )
         5           Ti  tau(   5) = (  0.2477910  0.0023230  0.5023550  )
         6           Ti  tau(   6) = (  0.7525190  0.5021020  0.9988020  )
         7           Ti  tau(   7) = (  0.7522090  0.0023230  0.5023550  )
         8           Ti  tau(   8) = (  0.2474810  0.5021020  0.9988020  )
         9           O   tau(   9) = (  0.2857150  0.2084700  0.7899550  )
        10           O   tau(  10) = (  0.7263410  0.2800240  0.2812520  )
        11           O   tau(  11) = (  0.7889510  0.7827440  0.2153490  )
        12           O   tau(  12) = (  0.2124150  0.7108140  0.7119070  )
        13           O   tau(  13) = (  0.2110490  0.7827440  0.2153490  )
        14           O   tau(  14) = (  0.7875850  0.7108140  0.7119070  )
        15           O   tau(  15) = (  0.7142850  0.2084700  0.7899550  )
        16           O   tau(  16) = (  0.2736590  0.2800240  0.2812520  )
        17           O   tau(  17) = (  0.5000000  0.5693970  0.9969800  )
        18           O   tau(  18) = (  0.5000000  0.9492900  0.4804620  )
        19           O   tau(  19) = (  0.0000000  0.4310600  0.0092100  )
        20           O   tau(  20) = (  0.0000000  0.0727500  0.5232850  )

     number of k points=    10
                       cart. coord. in units 2pi/alat
        k(    1) = (   0.0000000   0.0000000   0.0000000), wk =   0.0740741
        k(    2) = (   0.0000000   0.0000000   0.4696952), wk =   0.1481481
        k(    3) = (   0.0000000   0.4731168  -0.0010378), wk =   0.1481481
        k(    4) = (   0.0000000   0.4731168   0.4686574), wk =   0.1481481
        k(    5) = (   0.0000000   0.4731168  -0.4707331), wk =   0.1481481
        k(    6) = (   0.3333333   0.0000000   0.0000000), wk =   0.1481481
        k(    7) = (   0.3333333   0.0000000   0.4696952), wk =   0.2962963
        k(    8) = (   0.3333333   0.4731168  -0.0010378), wk =   0.2962963
        k(    9) = (   0.3333333   0.4731168   0.4686574), wk =   0.2962963
        k(   10) = (   0.3333333   0.4731168  -0.4707331), wk =   0.2962963

                       cryst. coord.
        k(    1) = (   0.0000000   0.0000000   0.0000000), wk =   0.0740741
        k(    2) = (   0.0000000   0.0000000   0.3333333), wk =   0.1481481
        k(    3) = (   0.0000000   0.3333333   0.0000000), wk =   0.1481481
        k(    4) = (   0.0000000   0.3333333   0.3333333), wk =   0.1481481
        k(    5) = (   0.0000000   0.3333333  -0.3333333), wk =   0.1481481
        k(    6) = (   0.3333333   0.0000000   0.0000000), wk =   0.1481481
        k(    7) = (   0.3333333   0.0000000   0.3333333), wk =   0.2962963
        k(    8) = (   0.3333333   0.3333333   0.0000000), wk =   0.2962963
        k(    9) = (   0.3333333   0.3333333   0.3333333), wk =   0.2962963
        k(   10) = (   0.3333333   0.3333333  -0.3333333), wk =   0.2962963

     Check: negative core charge=   -0.000016

     Initial potential from superposition of free atoms

     starting charge     155.9498, renormalised to     160.0000

     negative rho (up, down):  7.258E-02 0.000E+00
     Starting wfcs are  131 randomized atomic wfcs
     Checking if some PAW data can be deallocated...

     Self-consistent Calculation

     iteration #  1     ecut=    30.00 Ry     beta= 0.70
     Davidson diagonalization with overlap

     ethr =  1.00E-02,  avg # of iterations =  2.0

     negative rho (up, down):  7.322E-02 0.000E+00

     total energy              =   -1272.51790214 Ry
     estimated scf accuracy    <       2.95570614 Ry

[...]

     total energy              =   -1274.07563672 Ry
     estimated scf accuracy    <       0.00000109 Ry

     iteration # 13     ecut=    30.00 Ry     beta= 0.70
     Davidson diagonalization with overlap

     ethr =  6.81E-10,  avg # of iterations =  3.3

     negative rho (up, down):  7.367E-02 0.000E+00

     End of self-consistent calculation

          k = 0.0000 0.0000 0.0000 (  4353 PWs)   bands (ev):

   -47.3321 -47.3309 -47.3250 -47.3236 -29.2402 -29.1925 -29.1458 -23.6436
   -23.6397 -23.6337 -23.6332 -23.6224 -23.6200 -23.5730 -23.5689 -23.5659
   -23.5629 -23.5599 -23.5539 -22.9908 -10.5248 -10.4233 -10.3993 -10.3735
   -10.3453 -10.2847 -10.2141 -10.2055 -10.1928  -8.2718  -7.7738  -7.5691
    -7.3610  -7.2624  -7.1966  -7.0649  -7.0039  -6.9683  -6.9344  -6.9199
    -6.8186  -5.0141  -4.8818  -4.8573   4.7382   4.8707   4.8727   4.9151
     5.1793   5.1876   5.2618   5.3561   5.4050   5.4136   6.2473   6.4019
     6.4136   6.5083   6.6179   6.6525   6.7382   6.7384   6.9137   6.9494
     7.1033   7.4787   7.5918   7.6873   8.0832   8.1755   8.1974   8.4843
     8.5457   8.6237   8.7385   8.7811   8.7883   8.8158   8.8163   8.9023
    11.1945  11.2015  11.2892  11.3993  12.5360  12.5404  12.8181  12.8230
    12.8910  12.9697

     occupation numbers
     1.0000   1.0000   1.0000   1.0000   1.0000   1.0000   1.0000   1.0000
     1.0000   1.0000   1.0000   1.0000   1.0000   1.0000   1.0000   1.0000
     1.0000   1.0000   1.0000   1.0000   1.0000   1.0000   1.0000   1.0000
     1.0000   1.0000   1.0000   1.0000   1.0000   1.0000   1.0000   1.0000
     1.0000   1.0000   1.0000   1.0000   1.0000   1.0000   1.0000   1.0000
     1.0000   1.0000   1.0000   1.0000   1.0000   1.0000   1.0000   1.0000
     1.0000   1.0000   1.0000   1.0000   1.0000   1.0000   1.0000   1.0000
     1.0000   1.0000   1.0000   1.0000   1.0000   1.0000   1.0000   1.0000
     1.0000   1.0000   1.0000   1.0000   1.0000   1.0000   1.0000   1.0000
     1.0000   1.0000   1.0000   1.0000   1.0000   1.0000   1.0000   1.0000
     0.0000   0.0000   0.0000   0.0000   0.0000   0.0000   0.0000   0.0000
     0.0000   0.0000

[...]

          k = 0.3333 0.4731-0.4707 (  4385 PWs)   bands (ev):

   -47.3317 -47.3309 -47.3251 -47.3243 -29.2400 -29.1915 -29.1469 -23.6378
   -23.6282 -23.6233 -23.6189 -23.6172 -23.6133 -23.5865 -23.5845 -23.5831
   -23.5786 -23.5570 -23.5549 -22.9854 -10.4908 -10.4656 -10.4156 -10.4070
   -10.3772 -10.3034 -10.2628 -10.2268 -10.1855  -7.8122  -7.7222  -7.6199
    -7.4182  -7.2395  -7.2135  -7.1912  -7.0762  -7.0446  -7.0136  -6.9076
    -6.8397  -4.8639  -4.8279  -4.7364   5.0179   5.0301   5.0760   5.1373
     5.2826   5.4291   5.4868   5.5240   5.7434   5.9168   6.0144   6.1125
     6.1734   6.2737   6.3328   6.4006   6.4756   6.5254   6.8554   7.0023
     7.1218   7.3491   7.4237   7.4789   7.6522   7.8388   7.8786   8.0565
     8.0965   8.1600   8.2428   8.2755   8.3244   8.4236   8.7059   8.7647
    11.7277  12.0152  12.3868  12.4142  12.4567  12.5093  12.6444  12.7290
    12.7553  12.8988

     occupation numbers
     1.0000   1.0000   1.0000   1.0000   1.0000   1.0000   1.0000   1.0000
     1.0000   1.0000   1.0000   1.0000   1.0000   1.0000   1.0000   1.0000
     1.0000   1.0000   1.0000   1.0000   1.0000   1.0000   1.0000   1.0000
     1.0000   1.0000   1.0000   1.0000   1.0000   1.0000   1.0000   1.0000
     1.0000   1.0000   1.0000   1.0000   1.0000   1.0000   1.0000   1.0000
     1.0000   1.0000   1.0000   1.0000   1.0000   1.0000   1.0000   1.0000
     1.0000   1.0000   1.0000   1.0000   1.0000   1.0000   1.0000   1.0000
     1.0000   1.0000   1.0000   1.0000   1.0000   1.0000   1.0000   1.0000
     1.0000   1.0000   1.0000   1.0000   1.0000   1.0000   1.0000   1.0000
     1.0000   1.0000   1.0000   1.0000   1.0000   1.0000   1.0000   1.0000
     0.0000   0.0000   0.0000   0.0000   0.0000   0.0000   0.0000   0.0000
     0.0000   0.0000

     highest occupied, lowest unoccupied level (ev):     8.9294   11.1945

!    total energy              =   -1274.07563696 Ry
     estimated scf accuracy    <       0.00000011 Ry

     The total energy is the sum of the following terms:
     one-electron contribution =    -332.99287315 Ry
     hartree contribution      =     250.16340781 Ry
     xc contribution           =    -215.98367658 Ry
     ewald contribution        =    -861.00909026 Ry
     one-center paw contrib.   =    -114.25340478 Ry
      -> PAW hartree energy AE =       0.00000000 Ry
      -> PAW hartree energy PS =       0.00000000 Ry
      -> PAW xc energy AE      =       0.00000000 Ry
      -> PAW xc energy PS      =       0.00000000 Ry
      -> total E_H with PAW    =     250.16340781 Ry
      -> total E_XC with PAW   =    -215.98367658 Ry

     convergence has been achieved in  13 iterations

     Writing all to output data dir calculations_bands/myprefix.save/

     General routines

     Parallel routines

     PAW routines

   This run was terminated on:   5:43: 3  23Jun2023

   JOB DONE.