     Program PWSCF v.7.0 starts on 20May2023 at 19:43:47

     Reading input from espresso_12483.pwi
Warning: card &CELL ignored
Warning: card / ignored

     Current dimensions of program PWSCF are:
     Max number of different atomic species (ntypx) = 10
     Max number of k-points (npk) =  40000
     Max angular momentum in pseudopotentials (lmaxx) =  4
     file In.pbe-dn-rrkjus_psl.0.2.2.UPF: wavefunction(s)  5S renormalized

     gamma-point specific algorithms are used
     Message from routine setup:
     using ibrav=0 with symmetry is DISCOURAGED, use correct ibrav instead

     Subspace diagonalization in iterative solution of the eigenvalue problem:
     a serial algorithm will be used

     Using Slab Decomposition

     bravais-lattice index     =            0
     lattice parameter (alat)  =       6.5066  a.u.
     unit-cell volume          =     657.2478 (a.u.)^3
     number of atoms/cell      =            4
     number of atomic types    =            3
     number of electrons       =        38.00
     number of Kohn-Sham states=           23
     kinetic-energy cutoff     =      30.0000  Ry
     charge density cutoff     =     240.0000  Ry
     scf convergence threshold =      1.0E-06
     mixing beta               =       0.7000
     number of iterations used =            8  plain     mixing
     Exchange-correlation= SLA  PW   PBE  PBE
                           (   1   4   3   4   0   0   0)

     celldm(1)=   6.506599  celldm(2)=   0.000000  celldm(3)=   0.000000
     celldm(4)=   0.000000  celldm(5)=   0.000000  celldm(6)=   0.000000

     crystal axes: (cart. coord. in units of alat)
               a(1) = (   1.000000   0.000000   0.000000 )
               a(2) = (  -0.500000   0.866025   0.000000 )
               a(3) = (   0.000000   0.000000   2.755094 )

     reciprocal axes: (cart. coord. in units 2 pi/alat)
               b(1) = (  1.000000  0.577350  0.000000 )
               b(2) = (  0.000000  1.154701  0.000000 )
               b(3) = (  0.000000  0.000000  0.362964 )

     PseudoPot. # 1 for Ta read from file:
     /home/pragov/projects/rrg-bengioy-ad/pragov/crystal_structure_design/SSSP/Ta_pbe_v1.uspp.F.UPF
     MD5 check sum: f8bbe9446314a3b8ea5d9f3e3836c939
     Pseudo is Ultrasoft + core correction, Zval = 13.0
     Generated by new atomic code, or converted to UPF format
     Using radial grid of  921 points,  7 beta functions with:
                l(1) =   0
                l(2) =   0
                l(3) =   1
                l(4) =   1
                l(5) =   2
                l(6) =   2
                l(7) =   3
     Q(r) pseudized with  6 coefficients,  rinner =    1.300   1.300   1.300
                                                       1.300   1.300   1.300
                                                       1.300

     PseudoPot. # 2 for In read from file:
     /home/pragov/projects/rrg-bengioy-ad/pragov/crystal_structure_design/SSSP/In.pbe-dn-rrkjus_psl.0.2.2.UPF
     MD5 check sum: 25e7c42c3b55b68f4bf926be2e7201a4
     Pseudo is Ultrasoft + core correction, Zval = 13.0
     Generated using "atomic" code by A. Dal Corso  v.5.0.99 svn rev. 10869
     Using radial grid of 1241 points,  6 beta functions with:
                l(1) =   0
                l(2) =   0
                l(3) =   1
                l(4) =   1
                l(5) =   2
                l(6) =   2
     Q(r) pseudized with 0 coefficients

     PseudoPot. # 3 for Se read from file:
     /home/pragov/projects/rrg-bengioy-ad/pragov/crystal_structure_design/SSSP/Se_pbe_v1.uspp.F.UPF
     MD5 check sum: 1b3568f3a8ae88f9a2a0ad0698632c85
     Pseudo is Ultrasoft + core correction, Zval =  6.0
     Generated by new atomic code, or converted to UPF format
     Using radial grid of  877 points,  6 beta functions with:
                l(1) =   0
                l(2) =   0
                l(3) =   1
                l(4) =   1
                l(5) =   2
                l(6) =   2
     Q(r) pseudized with  8 coefficients,  rinner =    1.300   1.300   1.300
                                                       1.300   1.300

     atomic species   valence    mass     pseudopotential
        Ta            13.00   180.94788     Ta( 1.00)
        In            13.00   114.81800     In( 1.00)
        Se             6.00    78.97100     Se( 1.00)

     12 Sym. Ops. (no inversion) found

                                    s                        frac. trans.

      isym =  1     identity

 cryst.   s( 1) = (     1          0          0      )
                  (     0          1          0      )
                  (     0          0          1      )

 cart.    s( 1) = (  1.0000000  0.0000000  0.0000000 )
                  (  0.0000000  1.0000000  0.0000000 )
                  (  0.0000000  0.0000000  1.0000000 )

      isym =  2     180 deg rotation - cart. axis [0,1,0]

[...]

      isym =  3     120 deg rotation - cryst. axis [0,0,1]

[...]

      isym =  6     180 deg rotation - cryst. axis [2,1,0]

[...]

      isym =  7     inv. 180 deg rotation - cart. axis [0,0,1]

[...]

      isym =  8     inv. 180 deg rotation - cart. axis [1,0,0]

[...]

      isym =  9     inv.  60 deg rotation - cryst. axis [0,0,1]

 cryst.   s( 9) = (    -1         -1          0      )
                  (     1          0          0      )
                  (     0          0         -1      )

 cart.    s( 9) = ( -0.5000000  0.8660254  0.0000000 )
                  ( -0.8660254 -0.5000000  0.0000000 )
                  (  0.0000000  0.0000000 -1.0000000 )

[...]

 cryst.   s(10) = (     0          1          0      )
                  (    -1         -1          0      )
                  (     0          0         -1      )

 cart.    s(10) = ( -0.5000000 -0.8660254  0.0000000 )
                  (  0.8660254 -0.5000000  0.0000000 )
                  (  0.0000000  0.0000000 -1.0000000 )

[...]

      isym = 12     inv. 180 deg rotation - cryst. axis [1,1,0]

 cryst.   s(12) = (     0         -1          0      )
                  (    -1          0          0      )
                  (     0          0          1      )

 cart.    s(12) = (  0.5000000 -0.8660254  0.0000000 )
                  ( -0.8660254 -0.5000000  0.0000000 )
                  (  0.0000000  0.0000000  1.0000000 )

   Cartesian axes

     site n.     atom                  positions (alat units)
         1           Ta  tau(   1) = (  -0.0000005   0.5773506   1.3775469  )
         2           In  tau(   2) = (   0.5000005   0.2886749   0.0000000  )
         3           Se  tau(   3) = (   0.5000005   0.2886749   1.8665925  )
         4           Se  tau(   4) = (   0.5000005   0.2886749   0.8885012  )

   Crystallographic axes

     site n.     atom                  positions (cryst. coord.)
         1           Ta  tau(   1) = (  0.3333330  0.6666670  0.5000000  )
         2           In  tau(   2) = (  0.6666670  0.3333330  0.0000000  )
         3           Se  tau(   3) = (  0.6666670  0.3333330  0.6775060  )
         4           Se  tau(   4) = (  0.6666670  0.3333330  0.3224940  )

     number of k points=     1  Methfessel-Paxton smearing, width (Ry)=  0.0010
                       cart. coord. in units 2pi/alat
        k(    1) = (   0.0000000   0.0000000   0.0000000), wk =   2.0000000

                       cryst. coord.
        k(    1) = (   0.0000000   0.0000000   0.0000000), wk =   2.0000000

     Initial potential from superposition of free atoms

     starting charge      37.9950, renormalised to      38.0000

     negative rho (up, down):  9.435E-02 0.000E+00
     Starting wfcs are   30 randomized atomic wfcs

     Self-consistent Calculation

     iteration #  1     ecut=    30.00 Ry     beta= 0.70
     Davidson diagonalization with overlap

     ethr =  1.00E-02,  avg # of iterations =  2.0

     negative rho (up, down):  9.313E-02 0.000E+00

     total energy              =    -372.80995244 Ry
     estimated scf accuracy    <       1.27132517 Ry

[...]

     total energy              =    -373.67083977 Ry
     estimated scf accuracy    <       0.00000102 Ry

     iteration # 12     ecut=    30.00 Ry     beta= 0.70
     Davidson diagonalization with overlap

     ethr =  2.69E-09,  avg # of iterations =  5.0

[...]

     End of self-consistent calculation

          k = 0.0000 0.0000 0.0000 (   928 PWs)   bands (ev):

   -56.0974 -22.7130 -22.7128 -22.5853  -6.8170  -6.8170  -6.6547  -6.4992
    -6.4992  -4.6581  -3.7509   0.9586   4.6365   5.8341   8.2118   8.2119
     8.9974   8.9974  11.1697  11.7102  13.2097  13.2098  13.5161

     occupation numbers
     1.0000   1.0000   1.0000   1.0000   1.0000   1.0000   1.0000   1.0000
     1.0000   1.0000   1.0000   1.0000   1.0000   1.0000   1.0000   1.0000
     1.0000   1.0000   1.0000  -0.0000  -0.0000  -0.0000  -0.0000

     the Fermi energy is    11.4682 ev

!    total energy              =    -373.67083997 Ry
     estimated scf accuracy    <       0.00000006 Ry
     smearing contrib. (-TS)   =       0.00000000 Ry
     internal energy E=F+TS    =    -373.67083997 Ry

     The total energy is F=E-TS. E is the sum of the following terms:
     one-electron contribution =    -112.98413020 Ry
     hartree contribution      =      78.06212918 Ry
     xc contribution           =    -149.64881873 Ry
     ewald contribution        =    -189.10002022 Ry

     convergence has been achieved in  12 iterations

     negative rho (up, down):  9.225E-02 0.000E+00

     Forces acting on atoms (cartesian axes, Ry/au):

     atom    1 type  1   force =     0.00000000    0.00000000    0.00000000
     atom    2 type  2   force =     0.00000000   -0.00000000    0.00000000
     atom    3 type  3   force =     0.00000000    0.00000000   -0.11378915
     atom    4 type  3   force =     0.00000000   -0.00000000    0.11378915
     The non-local contrib.  to forces
     atom    1 type  1   force =     0.00000000   -0.00000000    0.00000000
     atom    2 type  2   force =     0.00000000    0.00000000    0.00000000
     atom    3 type  3   force =    -0.00000000    0.00000000    0.06507019
     atom    4 type  3   force =     0.00000000    0.00000000   -0.06507019
     The ionic contribution  to forces
     atom    1 type  1   force =     0.00001318   -0.00000761    0.00000000
     atom    2 type  2   force =    -0.00000005    0.00000003   -0.00000000
     atom    3 type  3   force =    -0.00000656    0.00000379    9.09462154
     atom    4 type  3   force =    -0.00000656    0.00000379   -9.09462154
     The local contribution  to forces
     atom    1 type  1   force =    -0.00001453    0.00002045   -0.00000129
     atom    2 type  2   force =     0.00000807    0.00001347   -0.00007213
     atom    3 type  3   force =    -0.00000552   -0.00005297   -9.26391572
     atom    4 type  3   force =    -0.00001335   -0.00009586    9.26396092
     The core correction contribution to forces
     atom    1 type  1   force =     0.00000131    0.00000217   -0.00000045
     atom    2 type  2   force =     0.00000015    0.00000179   -0.00000037
     atom    3 type  3   force =    -0.00000123   -0.00000248   -0.00919959
     atom    4 type  3   force =    -0.00000239   -0.00000593    0.00920213
     The Hubbard contrib.    to forces
     atom    1 type  1   force =     0.00000000    0.00000000    0.00000000
     atom    2 type  2   force =     0.00000000    0.00000000    0.00000000
     atom    3 type  3   force =     0.00000000    0.00000000    0.00000000
     atom    4 type  3   force =     0.00000000    0.00000000    0.00000000
     The SCF correction term to forces
     atom    1 type  1   force =    -0.00000744   -0.00002998    0.00002293
     atom    2 type  2   force =    -0.00001549    0.00000555    0.00007047
     atom    3 type  3   force =     0.00000396    0.00002756   -0.00035998
     atom    4 type  3   force =     0.00000314    0.00004248    0.00032343

     Total force =     0.160922     Total SCF correction =     0.000493

     Computing stress (Cartesian axis) and pressure

     negative rho (up, down):  9.225E-02 0.000E+00
          total   stress  (Ry/bohr**3)                   (kbar)     P=       68.91
   0.00071049  -0.00000000   0.00000000          104.52       -0.00        0.00
  -0.00000000   0.00071049  -0.00000000           -0.00      104.52       -0.00
   0.00000000   0.00000000  -0.00001557            0.00        0.00       -2.29

     kinetic stress (kbar)  12343.35     -0.00      0.00
                               -0.00  12343.35      0.00
                                0.00      0.00  12415.02

     local   stress (kbar)  -4519.84     -0.02      0.00
                               -0.02  -4519.93      0.01
                                0.00      0.01  12083.35

     nonloc. stress (kbar)   -577.03      0.00      0.00
                                0.00   -577.03      0.00
                                0.00      0.00   -780.74

     hartree stress (kbar)   8393.50      0.01      0.00
                                0.01   8393.55     -0.00
                                0.00     -0.00    684.80

     exc-cor stress (kbar)  19872.34      0.00     -0.00
                                0.00  19872.34     -0.00
                               -0.00     -0.00  19884.78

     corecor stress (kbar) -24261.81     -0.00      0.00
                               -0.00 -24261.81      0.00
                                0.00      0.00 -24257.13

     ewald   stress (kbar) -11145.99      0.01     -0.00
                                0.01 -11145.97      0.00
                               -0.00      0.00 -20032.37

     hubbard stress (kbar)      0.00      0.00      0.00
                                0.00      0.00      0.00
                                0.00      0.00      0.00

     DFT-D   stress (kbar)      0.00      0.00      0.00
                                0.00      0.00      0.00
                                0.00      0.00      0.00

     XDM     stress (kbar)      0.00      0.00      0.00
                                0.00      0.00      0.00
                                0.00      0.00      0.00

     dft-nl  stress (kbar)      0.00      0.00      0.00
                                0.00      0.00      0.00
                                0.00      0.00      0.00

     TS-vdW  stress (kbar)      0.00      0.00      0.00
                                0.00      0.00      0.00
                                0.00      0.00      0.00

[...]

                                0.00      0.00      0.00

     Writing all to output data dir new_calculations/myprefix.save/

     General routines

     Parallel routines

   This run was terminated on:  19:43:57  20May2023

   JOB DONE.