     Program PWSCF v.7.0 starts on 20May2023 at 13: 4:13

     Reading input from espresso_10403.pwi
Warning: card &CELL ignored
Warning: card / ignored

     Current dimensions of program PWSCF are:
     Max number of different atomic species (ntypx) = 10
     Max number of k-points (npk) =  40000
     Max angular momentum in pseudopotentials (lmaxx) =  4
     file Ba.pbe-spn-kjpaw_psl.1.0.0.UPF: wavefunction(s)  5S 6S renormalized

     gamma-point specific algorithms are used
     Message from routine setup:
     using ibrav=0 with symmetry is DISCOURAGED, use correct ibrav instead

     Subspace diagonalization in iterative solution of the eigenvalue problem:
     a serial algorithm will be used

     Using Slab Decomposition

     bravais-lattice index     =            0
     lattice parameter (alat)  =      16.3512  a.u.
     unit-cell volume          =    3110.3028 (a.u.)^3
     number of atoms/cell      =            8
     number of atomic types    =            2
     number of electrons       =        80.00
     number of Kohn-Sham states=           48
     kinetic-energy cutoff     =      30.0000  Ry
     charge density cutoff     =     240.0000  Ry
     scf convergence threshold =      1.0E-06
     mixing beta               =       0.7000
     number of iterations used =            8  plain     mixing
     Exchange-correlation= SLA  PW   PBE  PBE
                           (   1   4   3   4   0   0   0)

     celldm(1)=  16.351176  celldm(2)=   0.000000  celldm(3)=   0.000000
     celldm(4)=   0.000000  celldm(5)=   0.000000  celldm(6)=   0.000000

     crystal axes: (cart. coord. in units of alat)
               a(1) = (   1.000000   0.000000   0.000000 )
               a(2) = (  -0.500000   0.866025   0.000000 )
               a(3) = (   0.000000   0.000000   0.821533 )

     reciprocal axes: (cart. coord. in units 2 pi/alat)
               b(1) = (  1.000000  0.577350  0.000000 )
               b(2) = (  0.000000  1.154701  0.000000 )
               b(3) = (  0.000000  0.000000  1.217237 )

     PseudoPot. # 1 for Ba read from file:
     /home/pragov/projects/rrg-bengioy-ad/pragov/crystal_structure_design/SSSP/Ba.pbe-spn-kjpaw_psl.1.0.0.UPF
     MD5 check sum: c432291d3e53af55f19d5e8866385beb
     Pseudo is Projector augmented-wave + core cor, Zval = 10.0
     Generated using "atomic" code by A. Dal Corso  v.5.1
     Shape of augmentation charge: PSQ
     Using radial grid of 1251 points,  7 beta functions with:
                l(1) =   0
                l(2) =   0
                l(3) =   0
                l(4) =   1
                l(5) =   1
                l(6) =   2
                l(7) =   2
     Q(r) pseudized with 0 coefficients

     PseudoPot. # 2 for Sr read from file:
     /home/pragov/projects/rrg-bengioy-ad/pragov/crystal_structure_design/SSSP/Sr_pbe_v1.uspp.F.UPF
     MD5 check sum: 6b418c05fbe9db5448babca5e47b7a5b
     Pseudo is Ultrasoft + core correction, Zval = 10.0
     Generated by new atomic code, or converted to UPF format
     Using radial grid of  883 points,  6 beta functions with:
                l(1) =   0
                l(2) =   0
                l(3) =   1
                l(4) =   1
                l(5) =   2
                l(6) =   2
     Q(r) pseudized with  6 coefficients,  rinner =    1.400   1.400   1.400
                                                       1.400   1.400

     atomic species   valence    mass     pseudopotential
        Ba            10.00   137.32700     Ba( 1.00)
        Sr            10.00    87.62000     Sr( 1.00)

     24 Sym. Ops., with inversion, found (12 have fractional translation)

                                    s                        frac. trans.

      isym =  1     identity

 cryst.   s( 1) = (     1          0          0      )
                  (     0          1          0      )
                  (     0          0          1      )

 cart.    s( 1) = (  1.0000000 -0.0000000  0.0000000 )
                  (  0.0000000  1.0000000  0.0000000 )
                  (  0.0000000  0.0000000  1.0000000 )

      isym =  2     180 deg rotation - cart. axis [0,0,1]

 cryst.   s( 2) = (    -1          0          0      )    f =( -0.0000000 )
                  (     0         -1          0      )       ( -0.0000000 )
                  (     0          0          1      )       ( -0.5000000 )

 cart.    s( 2) = ( -1.0000000  0.0000000  0.0000000 )    f =( -0.0000000 )
                  (  0.0000000 -1.0000000  0.0000000 )       ( -0.0000000 )
                  (  0.0000000  0.0000000  1.0000000 )       ( -0.4107665 )

[...]

      isym =  4     180 deg rotation - cart. axis [1,0,0]

[...]

      isym =  5      60 deg rotation - cryst. axis [0,0,1]

[...]

 cryst.   s( 8) = (    -1         -1          0      )
                  (     1          0          0      )
                  (     0          0          1      )

 cart.    s( 8) = ( -0.5000000  0.8660254  0.0000000 )
                  ( -0.8660254 -0.5000000  0.0000000 )
                  (  0.0000000  0.0000000  1.0000000 )

[...]

 cryst.   s( 9) = (     0         -1          0      )    f =( -0.0000000 )
                  (    -1          0          0      )       ( -0.0000000 )
                  (     0          0         -1      )       ( -0.5000000 )

 cart.    s( 9) = (  0.5000000 -0.8660254  0.0000000 )    f =( -0.0000000 )
                  ( -0.8660254 -0.5000000  0.0000000 )       ( -0.0000000 )
                  (  0.0000000  0.0000000 -1.0000000 )       ( -0.4107665 )

[...]

 cryst.   s(10) = (     1          1          0      )    f =(  0.0000000 )
                  (     0         -1          0      )       ( -0.0000010 )
                  (     0          0         -1      )       ( -0.5000000 )

 cart.    s(10) = (  0.5000000  0.8660254  0.0000000 )    f =(  0.0000005 )
                  (  0.8660254 -0.5000000  0.0000000 )       ( -0.0000009 )
                  (  0.0000000  0.0000000 -1.0000000 )       ( -0.4107665 )

[...]

 cryst.   s(11) = (    -1         -1          0      )
                  (     0          1          0      )
                  (     0          0         -1      )

 cart.    s(11) = ( -0.5000000 -0.8660254  0.0000000 )
                  ( -0.8660254  0.5000000  0.0000000 )
                  (  0.0000000  0.0000000 -1.0000000 )

      isym = 12     180 deg rotation - cryst. axis [1,1,0]

[...]

      isym = 13     inversion

[...]

      isym = 14     inv. 180 deg rotation - cart. axis [0,0,1]

[...]

      isym = 16     inv. 180 deg rotation - cart. axis [1,0,0]

[...]

      isym = 17     inv.  60 deg rotation - cryst. axis [0,0,1]

[...]

 cryst.   s(22) = (    -1         -1          0      )    f =( -0.0000000 )
                  (     0          1          0      )       ( -0.0000010 )
                  (     0          0          1      )       ( -0.5000000 )

 cart.    s(22) = ( -0.5000000 -0.8660254  0.0000000 )    f =(  0.0000005 )
                  ( -0.8660254  0.5000000  0.0000000 )       ( -0.0000009 )
                  (  0.0000000  0.0000000  1.0000000 )       ( -0.4107665 )

[...]

      isym = 24     inv. 180 deg rotation - cryst. axis [1,1,0]

 cryst.   s(24) = (     0         -1          0      )
                  (    -1          0          0      )
                  (     0          0          1      )

 cart.    s(24) = (  0.5000000 -0.8660254  0.0000000 )
                  ( -0.8660254 -0.5000000  0.0000000 )
                  (  0.0000000  0.0000000  1.0000000 )

   Cartesian axes

     site n.     atom                  positions (alat units)
         1           Ba  tau(   1) = (  -0.0000005   0.5773506   0.6161498  )
         2           Ba  tau(   2) = (   0.5000005   0.2886748   0.2053833  )
         3           Sr  tau(   3) = (  -0.0000005   0.2880600   0.2053833  )
         4           Sr  tau(   4) = (   0.2505325   0.7219959   0.2053833  )
         5           Sr  tau(   5) = (  -0.2505335   0.7219959   0.2053833  )
         6           Sr  tau(   6) = (   0.5000005   0.5779654   0.6161498  )
         7           Sr  tau(   7) = (   0.2494675   0.1440296   0.6161498  )
         8           Sr  tau(   8) = (   0.7505335   0.1440296   0.6161498  )

   Crystallographic axes

     site n.     atom                  positions (cryst. coord.)
         1           Ba  tau(   1) = (  0.3333330  0.6666670  0.7500000  )
         2           Ba  tau(   2) = (  0.6666670  0.3333330  0.2500000  )
         3           Sr  tau(   3) = (  0.1663110  0.3326230  0.2500000  )
         4           Sr  tau(   4) = (  0.6673770  0.8336890  0.2500000  )
         5           Sr  tau(   5) = (  0.1663110  0.8336890  0.2500000  )
         6           Sr  tau(   6) = (  0.8336890  0.6673770  0.7500000  )
         7           Sr  tau(   7) = (  0.3326230  0.1663110  0.7500000  )
         8           Sr  tau(   8) = (  0.8336890  0.1663110  0.7500000  )

     number of k points=     1  Methfessel-Paxton smearing, width (Ry)=  0.0010
                       cart. coord. in units 2pi/alat
        k(    1) = (   0.0000000   0.0000000   0.0000000), wk =   2.0000000

                       cryst. coord.
        k(    1) = (   0.0000000   0.0000000   0.0000000), wk =   2.0000000

     Check: negative core charge=   -0.000003

     Initial potential from superposition of free atoms

     starting charge      79.7641, renormalised to      80.0000

     negative rho (up, down):  3.795E-01 0.000E+00
     Starting wfcs are   88 randomized atomic wfcs
     Checking if some PAW data can be deallocated...

     Self-consistent Calculation

     iteration #  1     ecut=    30.00 Ry     beta= 0.70
     Davidson diagonalization with overlap

     ethr =  1.00E-02,  avg # of iterations =  4.0

     Threshold (ethr) on eigenvalues was too large:
     Diagonalizing with lowered threshold

     Davidson diagonalization with overlap

[...]

     negative rho (up, down):  3.872E-01 0.000E+00

     total energy              =   -1293.12670390 Ry
     estimated scf accuracy    <       0.23812551 Ry

[...]

     total energy              =   -1293.19623440 Ry
     estimated scf accuracy    <       0.00000228 Ry

     iteration # 20     ecut=    30.00 Ry     beta= 0.70
     Davidson diagonalization with overlap

     ethr =  2.25E-09,  avg # of iterations =  2.0

[...]

     End of self-consistent calculation

          k = 0.0000 0.0000 0.0000 (  4353 PWs)   bands (ev):

   -31.3288 -31.3215 -31.3213 -31.3210 -31.3177 -31.3174 -23.5262 -23.5258
   -13.4752 -13.4323 -13.4320 -13.3785 -13.3782 -13.3634 -13.3343 -13.3088
   -13.2895 -13.2893 -13.2815 -13.2814 -13.2439 -13.2062 -13.2046 -13.2044
   -13.2022 -13.2021  -8.8246  -8.8186  -8.6605  -8.6604  -8.6544  -8.6544
     1.8669   4.0863   4.1424   4.1424   4.6850   4.8863   4.8864   4.8947
     5.1665   5.1665   5.2936   5.4324   5.6032   5.6033   5.7253   6.3424

     occupation numbers
     1.0000   1.0000   1.0000   1.0000   1.0000   1.0000   1.0000   1.0000
     1.0000   1.0000   1.0000   1.0000   1.0000   1.0000   1.0000   1.0000
     1.0000   1.0000   1.0000   1.0000   1.0000   1.0000   1.0000   1.0000
     1.0000   1.0000   1.0000   1.0000   1.0000   1.0000   1.0000   1.0000
     1.0000   1.0000   1.0000   1.0000   1.0000   1.0000   1.0000   1.0000
    -0.0000  -0.0000  -0.0000  -0.0000  -0.0000  -0.0000  -0.0000  -0.0000

     the Fermi energy is     4.9963 ev

!    total energy              =   -1293.19623414 Ry
     estimated scf accuracy    <       0.00000071 Ry
     smearing contrib. (-TS)   =       0.00000000 Ry
     internal energy E=F+TS    =   -1293.19623414 Ry

     The total energy is F=E-TS. E is the sum of the following terms:
     one-electron contribution =    -178.99518379 Ry
     hartree contribution      =     101.34892262 Ry
     xc contribution           =    -149.07891035 Ry
     ewald contribution        =    -316.57124658 Ry
     one-center paw contrib.   =    -749.89981604 Ry
      -> PAW hartree energy AE =      56.97960715 Ry
      -> PAW hartree energy PS =     -56.77665604 Ry
      -> PAW xc energy AE      =    -788.37148959 Ry
      -> PAW xc energy PS      =      38.26872244 Ry
      -> total E_H with PAW    =     101.55187373 Ry
      -> total E_XC with PAW   =    -899.18167750 Ry

     convergence has been achieved in  20 iterations

     negative rho (up, down):  3.980E-01 0.000E+00

     Forces acting on atoms (cartesian axes, Ry/au):

     atom    1 type  1   force =     0.00000000    0.00000000    0.00000000
     atom    2 type  1   force =     0.00000000    0.00000000   -0.00000000
     atom    3 type  2   force =     0.00000000   -0.00151182    0.00000000
     atom    4 type  2   force =     0.00130927    0.00075591    0.00000000
     atom    5 type  2   force =    -0.00130927    0.00075591    0.00000000
     atom    6 type  2   force =     0.00000000    0.00151182   -0.00000000
     atom    7 type  2   force =    -0.00130927   -0.00075591   -0.00000000
     atom    8 type  2   force =     0.00130927   -0.00075591    0.00000000
     The non-local contrib.  to forces
     atom    1 type  1   force =    -0.00000000   -0.00000000    0.00000000
     atom    2 type  1   force =     0.00000000    0.00000000    0.00000000
     atom    3 type  2   force =    -0.00000000    0.01244619    0.00000000
     atom    4 type  2   force =    -0.01077871   -0.00622309    0.00000000
     atom    5 type  2   force =     0.01077871   -0.00622309    0.00000000
     atom    6 type  2   force =     0.00000000   -0.01244619    0.00000000
     atom    7 type  2   force =     0.01077871    0.00622309    0.00000000
     atom    8 type  2   force =    -0.01077871    0.00622309    0.00000000
     The ionic contribution  to forces
     atom    1 type  1   force =     0.00003392   -0.00001959    0.00000000
     atom    2 type  1   force =    -0.00003392    0.00001959   -0.00000000
     atom    3 type  2   force =     0.00003369    0.05458529   -0.00000000
     atom    4 type  2   force =    -0.04725540   -0.02732182    0.00000000
     atom    5 type  2   force =     0.04726013   -0.02728565    0.00000000
     atom    6 type  2   force =    -0.00003369   -0.05458529    0.00000000
     atom    7 type  2   force =     0.04725540    0.02732182    0.00000000
     atom    8 type  2   force =    -0.04726013    0.02728565    0.00000000
     The local contribution  to forces
     atom    1 type  1   force =     0.00015111   -0.00020895   -0.00132813
     atom    2 type  1   force =     0.00075751    0.00027666    0.00041048
     atom    3 type  2   force =     0.00006328   -0.06754636    0.00059904
     atom    4 type  2   force =     0.05845460    0.03377704    0.00054592
     atom    5 type  2   force =    -0.05847906    0.03383262    0.00059211
     atom    6 type  2   force =    -0.00010385    0.06749456   -0.00058854
     atom    7 type  2   force =    -0.05841099   -0.03373441   -0.00054397
     atom    8 type  2   force =     0.05840597   -0.03385896   -0.00059838
     The core correction contribution to forces
     atom    1 type  1   force =     0.00000166   -0.00000380   -0.00000880
     atom    2 type  1   force =     0.00000981    0.00000529   -0.00000161
     atom    3 type  2   force =     0.00000207   -0.00091288    0.00000300
     atom    4 type  2   force =     0.00078997    0.00045613    0.00000261
     atom    5 type  2   force =    -0.00079028    0.00045778    0.00000270
     atom    6 type  2   force =    -0.00000093    0.00091212   -0.00000295
     atom    7 type  2   force =    -0.00079015   -0.00045606   -0.00000237
     atom    8 type  2   force =     0.00078975   -0.00045721   -0.00000305
     The Hubbard contrib.    to forces
     atom    1 type  1   force =     0.00000000    0.00000000    0.00000000
     atom    2 type  1   force =     0.00000000    0.00000000    0.00000000
     atom    3 type  2   force =     0.00000000    0.00000000    0.00000000
     atom    4 type  2   force =     0.00000000    0.00000000    0.00000000
     atom    5 type  2   force =     0.00000000    0.00000000    0.00000000
     atom    6 type  2   force =     0.00000000    0.00000000    0.00000000
     atom    7 type  2   force =     0.00000000    0.00000000    0.00000000
     atom    8 type  2   force =     0.00000000    0.00000000    0.00000000
     The SCF correction term to forces
     atom    1 type  1   force =    -0.00013450   -0.00001348    0.00055734
     atom    2 type  1   force =    -0.00005058   -0.00000991   -0.00044992
     atom    3 type  2   force =    -0.00006861   -0.00008315   -0.00053560
     atom    4 type  2   force =     0.00009995    0.00005642   -0.00049087
     atom    5 type  2   force =    -0.00008250   -0.00001219   -0.00053635
     atom    6 type  2   force =     0.00012453    0.00012851    0.00052741
     atom    7 type  2   force =    -0.00014726   -0.00010166    0.00049181
     atom    8 type  2   force =     0.00015048    0.00004101    0.00053558

     Total force =     0.003703     Total SCF correction =     0.001509
     SCF correction compared to forces is large: reduce conv_thr to get better values

     Computing stress (Cartesian axis) and pressure

     negative rho (up, down):  3.980E-01 0.000E+00
          total   stress  (Ry/bohr**3)                   (kbar)     P=       -4.70
   0.00004910  -0.00000000   0.00000000            7.22       -0.00        0.00
  -0.00000000   0.00004910   0.00000000           -0.00        7.22        0.00
   0.00000000   0.00000000  -0.00019394            0.00        0.00      -28.53

     kinetic stress (kbar)   5041.07     -0.00      0.00
                               -0.00   5041.07      0.00
                                0.00      0.00   4874.94

     local   stress (kbar)  -4293.89      0.00     -0.00
                                0.00  -4293.90      0.00
                               -0.00      0.00  -3983.40

     nonloc. stress (kbar)   4091.30     -0.00      0.00
                               -0.00   4091.30      0.00
                                0.00      0.00   4088.70

     hartree stress (kbar)   1647.16     -0.00     -0.00
                               -0.00   1647.16     -0.00
                               -0.00     -0.00   1499.08

     exc-cor stress (kbar)   2564.60     -0.00     -0.00
                               -0.00   2564.60     -0.00
                               -0.00     -0.00   2562.25

     corecor stress (kbar)  -4061.80      0.00     -0.00
                                0.00  -4061.80     -0.00
                               -0.00     -0.00  -4059.97

     ewald   stress (kbar)  -4981.23      0.00     -0.00
                                0.00  -4981.23     -0.00
                               -0.00     -0.00  -5010.12

     hubbard stress (kbar)      0.00      0.00      0.00
                                0.00      0.00      0.00
                                0.00      0.00      0.00

     DFT-D   stress (kbar)      0.00      0.00      0.00
                                0.00      0.00      0.00
                                0.00      0.00      0.00

     XDM     stress (kbar)      0.00      0.00      0.00
                                0.00      0.00      0.00
                                0.00      0.00      0.00

     dft-nl  stress (kbar)      0.00      0.00      0.00
                                0.00      0.00      0.00
                                0.00      0.00      0.00

     TS-vdW  stress (kbar)      0.00      0.00      0.00
                                0.00      0.00      0.00
                                0.00      0.00      0.00

[...]

                                0.00      0.00      0.00

     Writing all to output data dir new_calculations/myprefix.save/

     General routines

     Parallel routines

     PAW routines

   This run was terminated on:  13: 5: 7  20May2023

   JOB DONE.