     Program PWSCF v.7.0 starts on 20May2023 at  8:44:57

     Reading input from espresso_3318.pwi
Warning: card &CELL ignored
Warning: card / ignored

     Current dimensions of program PWSCF are:
     Max number of different atomic species (ntypx) = 10
     Max number of k-points (npk) =  40000
     Max angular momentum in pseudopotentials (lmaxx) =  4
     file Pb.pbe-dn-kjpaw_psl.0.2.2.UPF: wavefunction(s)  6S renormalized

     gamma-point specific algorithms are used
     Message from routine setup:
     using ibrav=0 with symmetry is DISCOURAGED, use correct ibrav instead

     Subspace diagonalization in iterative solution of the eigenvalue problem:
     a serial algorithm will be used

     Using Slab Decomposition

     bravais-lattice index     =            0
     lattice parameter (alat)  =      12.7817  a.u.
     unit-cell volume          =    1561.1513 (a.u.)^3
     number of atoms/cell      =            8
     number of atomic types    =            2
     number of electrons       =       112.00
     number of Kohn-Sham states=           67
     kinetic-energy cutoff     =      30.0000  Ry
     charge density cutoff     =     240.0000  Ry
     scf convergence threshold =      1.0E-06
     mixing beta               =       0.7000
     number of iterations used =            8  plain     mixing
     Exchange-correlation= SLA  PW   PBX  PBC
                           (   1   4   3   4   0   0   0)

     celldm(1)=  12.781707  celldm(2)=   0.000000  celldm(3)=   0.000000
     celldm(4)=   0.000000  celldm(5)=   0.000000  celldm(6)=   0.000000

     crystal axes: (cart. coord. in units of alat)
               a(1) = (   1.000000   0.000000   0.000000 )
               a(2) = (  -0.500000   0.866025   0.000000 )
               a(3) = (   0.000000   0.000000   0.863272 )

     reciprocal axes: (cart. coord. in units 2 pi/alat)
               b(1) = (  1.000000  0.577350  0.000000 )
               b(2) = (  0.000000  1.154701  0.000000 )
               b(3) = (  0.000000  0.000000  1.158383 )

     PseudoPot. # 1 for Sn read from file:
     /home/pragov/projects/rrg-bengioy-ad/pragov/crystal_structure_design/SSSP/Sn_pbe_v1.uspp.F.UPF
     MD5 check sum: 4cf58ce39ec5d5d420df3dd08604eb00
     Pseudo is Ultrasoft + core correction, Zval = 14.0
     Generated by new atomic code, or converted to UPF format
     Using radial grid of  891 points,  6 beta functions with:
                l(1) =   0
                l(2) =   0
                l(3) =   1
                l(4) =   1
                l(5) =   2
                l(6) =   2
     Q(r) pseudized with  6 coefficients,  rinner =    1.200   1.200   1.200
                                                       1.200   1.200

     PseudoPot. # 2 for Pb read from file:
     /home/pragov/projects/rrg-bengioy-ad/pragov/crystal_structure_design/SSSP/Pb.pbe-dn-kjpaw_psl.0.2.2.UPF
     MD5 check sum: 9d431e6316058b74ade52399a6cf67da
     Pseudo is Projector augmented-wave + core cor, Zval = 14.0
     Generated using "atomic" code by A. Dal Corso  v.5.0.99 svn rev. 10869
     Shape of augmentation charge: PSQ
     Using radial grid of 1281 points,  6 beta functions with:
                l(1) =   0
                l(2) =   0
                l(3) =   1
                l(4) =   1
                l(5) =   2
                l(6) =   2
     Q(r) pseudized with 0 coefficients

     atomic species   valence    mass     pseudopotential
        Sn            14.00   118.71000     Sn( 1.00)
        Pb            14.00   207.20000     Pb( 1.00)

     24 Sym. Ops., with inversion, found (12 have fractional translation)

                                    s                        frac. trans.

      isym =  1     identity

 cryst.   s( 1) = (     1          0          0      )
                  (     0          1          0      )
                  (     0          0          1      )

 cart.    s( 1) = (  1.0000000 -0.0000000  0.0000000 )
                  (  0.0000000  1.0000000  0.0000000 )
                  (  0.0000000  0.0000000  1.0000000 )

      isym =  2     180 deg rotation - cart. axis [0,0,1]

 cryst.   s( 2) = (    -1          0          0      )    f =(  0.0000000 )
                  (     0         -1          0      )       ( -0.0000000 )
                  (     0          0          1      )       ( -0.5000000 )

 cart.    s( 2) = ( -1.0000000  0.0000000  0.0000000 )    f =(  0.0000000 )
                  (  0.0000000 -1.0000000  0.0000000 )       ( -0.0000000 )
                  (  0.0000000  0.0000000  1.0000000 )       ( -0.4316362 )

[...]

      isym =  4     180 deg rotation - cart. axis [1,0,0]

[...]

      isym =  5      60 deg rotation - cryst. axis [0,0,1]

[...]

 cryst.   s( 8) = (    -1         -1          0      )
                  (     1          0          0      )
                  (     0          0          1      )

 cart.    s( 8) = ( -0.5000000  0.8660254  0.0000000 )
                  ( -0.8660254 -0.5000000  0.0000000 )
                  (  0.0000000  0.0000000  1.0000000 )

[...]

 cryst.   s( 9) = (     0         -1          0      )    f =(  0.0000000 )
                  (    -1          0          0      )       (  0.0000000 )
                  (     0          0         -1      )       (  0.5000000 )

 cart.    s( 9) = (  0.5000000 -0.8660254  0.0000000 )    f =(  0.0000000 )
                  ( -0.8660254 -0.5000000  0.0000000 )       (  0.0000000 )
                  (  0.0000000  0.0000000 -1.0000000 )       (  0.4316362 )

[...]

 cryst.   s(10) = (     1          1          0      )    f =( -0.0000000 )
                  (     0         -1          0      )       ( -0.0000010 )
                  (     0          0         -1      )       (  0.5000000 )

 cart.    s(10) = (  0.5000000  0.8660254  0.0000000 )    f =(  0.0000005 )
                  (  0.8660254 -0.5000000  0.0000000 )       ( -0.0000009 )
                  (  0.0000000  0.0000000 -1.0000000 )       (  0.4316362 )

[...]

 cryst.   s(11) = (    -1         -1          0      )
                  (     0          1          0      )
                  (     0          0         -1      )

 cart.    s(11) = ( -0.5000000 -0.8660254  0.0000000 )
                  ( -0.8660254  0.5000000  0.0000000 )
                  (  0.0000000  0.0000000 -1.0000000 )

      isym = 12     180 deg rotation - cryst. axis [1,1,0]

[...]

      isym = 13     inversion

[...]

      isym = 14     inv. 180 deg rotation - cart. axis [0,0,1]

[...]

      isym = 16     inv. 180 deg rotation - cart. axis [1,0,0]

[...]

      isym = 17     inv.  60 deg rotation - cryst. axis [0,0,1]

[...]

 cryst.   s(22) = (    -1         -1          0      )    f =(  0.0000000 )
                  (     0          1          0      )       ( -0.0000010 )
                  (     0          0          1      )       ( -0.5000000 )

 cart.    s(22) = ( -0.5000000 -0.8660254  0.0000000 )    f =(  0.0000005 )
                  ( -0.8660254  0.5000000  0.0000000 )       ( -0.0000009 )
                  (  0.0000000  0.0000000  1.0000000 )       ( -0.4316362 )

[...]

      isym = 24     inv. 180 deg rotation - cryst. axis [1,1,0]

 cryst.   s(24) = (     0         -1          0      )
                  (    -1          0          0      )
                  (     0          0          1      )

 cart.    s(24) = (  0.5000000 -0.8660254  0.0000000 )
                  ( -0.8660254 -0.5000000  0.0000000 )
                  (  0.0000000  0.0000000  1.0000000 )

   Cartesian axes

     site n.     atom                  positions (alat units)
         1           Sn  tau(   1) = (  -0.0000005   0.2836935   0.2158181  )
         2           Sn  tau(   2) = (   0.2543140   0.7241791   0.2158181  )
         3           Sn  tau(   3) = (  -0.2543150   0.7241791   0.2158181  )
         4           Sn  tau(   4) = (   0.5000005   0.5823319   0.6474543  )
         5           Sn  tau(   5) = (   0.2456860   0.1418463   0.6474543  )
         6           Sn  tau(   6) = (   0.7543150   0.1418463   0.6474543  )
         7           Pb  tau(   7) = (  -0.0000005   0.5773506   0.6474543  )
         8           Pb  tau(   8) = (   0.5000005   0.2886749   0.2158181  )

   Crystallographic axes

     site n.     atom                  positions (cryst. coord.)
         1           Sn  tau(   1) = (  0.1637900  0.3275810  0.2500000  )
         2           Sn  tau(   2) = (  0.6724190  0.8362100  0.2500000  )
         3           Sn  tau(   3) = (  0.1637900  0.8362100  0.2500000  )
         4           Sn  tau(   4) = (  0.8362100  0.6724190  0.7500000  )
         5           Sn  tau(   5) = (  0.3275810  0.1637900  0.7500000  )
         6           Sn  tau(   6) = (  0.8362100  0.1637900  0.7500000  )
         7           Pb  tau(   7) = (  0.3333330  0.6666670  0.7500000  )
         8           Pb  tau(   8) = (  0.6666670  0.3333330  0.2500000  )

     number of k points=     1  Methfessel-Paxton smearing, width (Ry)=  0.0010
                       cart. coord. in units 2pi/alat
        k(    1) = (   0.0000000   0.0000000   0.0000000), wk =   2.0000000

                       cryst. coord.
        k(    1) = (   0.0000000   0.0000000   0.0000000), wk =   2.0000000

     Initial potential from superposition of free atoms

     starting charge     105.9950, renormalised to     112.0000
     Starting wfcs are   72 randomized atomic wfcs
     Checking if some PAW data can be deallocated...

     Self-consistent Calculation

     iteration #  1     ecut=    30.00 Ry     beta= 0.70
     Davidson diagonalization with overlap

     ethr =  1.00E-02,  avg # of iterations =  3.0

     total energy              =   -2719.52913320 Ry
     estimated scf accuracy    <       4.17087368 Ry

[...]

     WARNING: integrated charge=   111.99617218, expected=   112.00000000

[...]

     WARNING: integrated charge=   111.99993023, expected=   112.00000000

[...]

     total energy              =   -2720.85604481 Ry
     estimated scf accuracy    <       0.00000531 Ry

     iteration # 27     ecut=    30.00 Ry     beta= 0.70
     Davidson diagonalization with overlap

     ethr =  4.34E-09,  avg # of iterations =  1.0

     End of self-consistent calculation

          k = 0.0000 0.0000 0.0000 (  2182 PWs)   bands (ev):

   -10.7759 -10.7586 -10.7499 -10.7218 -10.7217 -10.7088 -10.7088 -10.7070
   -10.7066 -10.7066 -10.7023 -10.7022 -10.6911 -10.6543 -10.6542 -10.6345
   -10.6345 -10.6052 -10.5914 -10.5894 -10.5774 -10.5773 -10.5568 -10.5567
   -10.4956 -10.4955 -10.4859 -10.4859 -10.4364 -10.4294  -6.7069  -6.6891
    -6.6179  -6.6179  -6.6098  -6.6098  -6.3405  -6.3405  -6.3356  -6.3355
    -0.5417   2.0645   3.7435   3.8730   3.8751   3.8751   5.0041   5.0042
     5.9870   7.6701   8.0122   8.0123   8.7810   9.0119   9.0119   9.8008
     9.8008   9.8101  11.6503  11.9311  11.9311  13.0783  13.1551  13.1551
    16.1994  16.3395  16.3396

     occupation numbers
     1.0000   1.0000   1.0000   1.0000   1.0000   1.0000   1.0000   1.0000
     1.0000   1.0000   1.0000   1.0000   1.0000   1.0000   1.0000   1.0000
     1.0000   1.0000   1.0000   1.0000   1.0000   1.0000   1.0000   1.0000
     1.0000   1.0000   1.0000   1.0000   1.0000   1.0000   1.0000   1.0000
     1.0000   1.0000   1.0000   1.0000   1.0000   1.0000   1.0000   1.0000
     1.0000   1.0000   1.0000   1.0000   1.0000   1.0000   1.0000   1.0000
     1.0000   1.0000   1.0000   1.0000   1.0000   1.0000   1.0000   0.4822
     0.4808   0.0370  -0.0000  -0.0000  -0.0000  -0.0000  -0.0000  -0.0000
    -0.0000  -0.0000  -0.0000

     the Fermi energy is     9.8005 ev

!    total energy              =   -2720.85604467 Ry
     estimated scf accuracy    <       0.00000035 Ry
     smearing contrib. (-TS)   =      -0.00056247 Ry
     internal energy E=F+TS    =   -2720.85548220 Ry

     The total energy is F=E-TS. E is the sum of the following terms:
     one-electron contribution =    -391.20250812 Ry
     hartree contribution      =     281.70213079 Ry
     xc contribution           =    -374.24746603 Ry
     ewald contribution        =    -780.15457691 Ry
     one-center paw contrib.   =   -1456.95306193 Ry
      -> PAW hartree energy AE =     198.81401998 Ry
      -> PAW hartree energy PS =    -198.39125282 Ry
      -> PAW xc energy AE      =   -1545.03379199 Ry
      -> PAW xc energy PS      =      87.65796290 Ry
      -> total E_H with PAW    =     282.12489794 Ry
      -> total E_XC with PAW   =   -1831.62329511 Ry

     convergence has been achieved in  27 iterations

     Forces acting on atoms (cartesian axes, Ry/au):

     atom    1 type  1   force =     0.00000000   -0.01473682   -0.00000000
     atom    2 type  1   force =     0.01276246    0.00736841    0.00000000
     atom    3 type  1   force =    -0.01276246    0.00736841    0.00000000
     atom    4 type  1   force =    -0.00000000    0.01473682    0.00000000
     atom    5 type  1   force =    -0.01276246   -0.00736841   -0.00000000
     atom    6 type  1   force =     0.01276246   -0.00736841    0.00000000
     atom    7 type  2   force =     0.00000000    0.00000000    0.00000000
     atom    8 type  2   force =    -0.00000000   -0.00000000    0.00000000
     The non-local contrib.  to forces
     atom    1 type  1   force =    -0.00000000   -0.01870716   -0.00000000
     atom    2 type  1   force =     0.01620087    0.00935358   -0.00000000
     atom    3 type  1   force =    -0.01620087    0.00935358    0.00000000
     atom    4 type  1   force =    -0.00000000    0.01870716    0.00000000
     atom    5 type  1   force =    -0.01620087   -0.00935358    0.00000000
     atom    6 type  1   force =     0.01620087   -0.00935358   -0.00000000
     atom    7 type  2   force =    -0.00000000   -0.00000000    0.00000000
     atom    8 type  2   force =    -0.00000000   -0.00000000    0.00000000
     The ionic contribution  to forces
     atom    1 type  1   force =     0.00010081    1.36868039   -0.00000000
     atom    2 type  1   force =    -1.18526161   -0.68442746   -0.00000000
     atom    3 type  1   force =     1.18527445   -0.68431855   -0.00000000
     atom    4 type  1   force =    -0.00010081   -1.36868039   -0.00000000
     atom    5 type  1   force =     1.18526161    0.68442746    0.00000000
     atom    6 type  1   force =    -1.18527445    0.68431855   -0.00000000
     atom    7 type  2   force =     0.00010679   -0.00006166    0.00000000
     atom    8 type  2   force =    -0.00010679    0.00006166    0.00000000
     The local contribution  to forces
     atom    1 type  1   force =     0.00025495   -1.36558746    0.00002210
     atom    2 type  1   force =     1.18319881    0.68227411    0.00002715
     atom    3 type  1   force =    -1.18346320    0.68267881    0.00001415
     atom    4 type  1   force =    -0.00031438    1.36547953   -0.00002019
     atom    5 type  1   force =    -1.18305677   -0.68222878   -0.00003364
     atom    6 type  1   force =     1.18332373   -0.68265153   -0.00002367
     atom    7 type  2   force =     0.00047629   -0.00064606   -0.00001100
     atom    8 type  2   force =    -0.00047478    0.00062624    0.00003011
     The core correction contribution to forces
     atom    1 type  1   force =    -0.00000080    0.00056106    0.00000051
     atom    2 type  1   force =    -0.00048558   -0.00028307    0.00000072
     atom    3 type  1   force =     0.00047757   -0.00028203    0.00000007
     atom    4 type  1   force =    -0.00000055   -0.00056305   -0.00000046
     atom    5 type  1   force =     0.00048883    0.00028394   -0.00000103
     atom    6 type  1   force =    -0.00048041    0.00028258   -0.00000051
     atom    7 type  2   force =     0.00000744   -0.00000185   -0.00000014
     atom    8 type  2   force =    -0.00000893   -0.00000016    0.00000071
     The Hubbard contrib.    to forces
     atom    1 type  1   force =     0.00000000    0.00000000    0.00000000
     atom    2 type  1   force =     0.00000000    0.00000000    0.00000000
     atom    3 type  1   force =     0.00000000    0.00000000    0.00000000
     atom    4 type  1   force =     0.00000000    0.00000000    0.00000000
     atom    5 type  1   force =     0.00000000    0.00000000    0.00000000
     atom    6 type  1   force =     0.00000000    0.00000000    0.00000000
     atom    7 type  2   force =     0.00000000    0.00000000    0.00000000
     atom    8 type  2   force =     0.00000000    0.00000000    0.00000000
     The SCF correction term to forces
     atom    1 type  1   force =    -0.00030034    0.00032452   -0.00001996
     atom    2 type  1   force =    -0.00082456    0.00030442   -0.00002728
     atom    3 type  1   force =     0.00109116   -0.00011884   -0.00000919
     atom    4 type  1   force =     0.00035992   -0.00021953    0.00001827
     atom    5 type  1   force =     0.00067559   -0.00034617    0.00003293
     atom    6 type  1   force =    -0.00094338    0.00008446    0.00002001
     atom    7 type  2   force =    -0.00054687    0.00063899    0.00001332
     atom    8 type  2   force =     0.00056700   -0.00061613   -0.00002999

     Total force =     0.036098     Total SCF correction =     0.002288

     Computing stress (Cartesian axis) and pressure

          total   stress  (Ry/bohr**3)                   (kbar)     P=       24.78
  -0.00095943   0.00000000  -0.00000000         -141.14        0.00       -0.00
   0.00000000  -0.00095943   0.00000000            0.00     -141.14        0.00
  -0.00000000   0.00000000   0.00242422           -0.00        0.00      356.62

     kinetic stress (kbar)  11840.02     -0.00     -0.00
                               -0.00  11840.02      0.00
                                0.00      0.00  12036.45

     local   stress (kbar)   3580.11     -0.07      0.00
                               -0.07   3580.09      0.00
                                0.00      0.00   7728.42

     nonloc. stress (kbar)   5191.23     -0.00      0.00
                               -0.00   5191.23      0.00
                                0.00      0.00   4967.87

     hartree stress (kbar)   9441.79      0.04     -0.00
                                0.04   9441.82     -0.00
                               -0.00     -0.00   7660.78

     exc-cor stress (kbar)  15376.74      0.00     -0.00
                                0.00  15376.74     -0.00
                               -0.00     -0.00  15362.82

     corecor stress (kbar) -21678.25     -0.00     -0.00
                               -0.00 -21678.25     -0.00
                               -0.00     -0.00 -21672.43

     ewald   stress (kbar) -23892.78      0.00     -0.00
                                0.00 -23892.78     -0.00
                               -0.00     -0.00 -25727.30

     hubbard stress (kbar)      0.00      0.00      0.00
                                0.00      0.00      0.00
                                0.00      0.00      0.00

     DFT-D   stress (kbar)      0.00      0.00      0.00
                                0.00      0.00      0.00
                                0.00      0.00      0.00

     XDM     stress (kbar)      0.00      0.00      0.00
                                0.00      0.00      0.00
                                0.00      0.00      0.00

     dft-nl  stress (kbar)      0.00      0.00      0.00
                                0.00      0.00      0.00
                                0.00      0.00      0.00

     TS-vdW  stress (kbar)      0.00      0.00      0.00
                                0.00      0.00      0.00
                                0.00      0.00      0.00

[...]

                                0.00      0.00      0.00

     Writing all to output data dir new_calculations/myprefix.save/

     General routines

     Parallel routines

     PAW routines

   This run was terminated on:   8:45:33  20May2023

   JOB DONE.