     Program PWSCF v.7.0 starts on 20May2023 at  5:10: 3

     Reading input from espresso_16059.pwi
Warning: card &CELL ignored
Warning: card / ignored

     Current dimensions of program PWSCF are:
     Max number of different atomic species (ntypx) = 10
     Max number of k-points (npk) =  40000
     Max angular momentum in pseudopotentials (lmaxx) =  4
     file Mg.pbe-n-kjpaw_psl.0.3.0.UPF: wavefunction(s)  3S renormalized

     gamma-point specific algorithms are used
     Message from routine setup:
     using ibrav=0 with symmetry is DISCOURAGED, use correct ibrav instead

     Subspace diagonalization in iterative solution of the eigenvalue problem:
     a serial algorithm will be used

     Using Slab Decomposition

     bravais-lattice index     =            0
     lattice parameter (alat)  =      25.1942  a.u.
     unit-cell volume          =     790.4210 (a.u.)^3
     number of atoms/cell      =            5
     number of atomic types    =            2
     number of electrons       =        19.00
     number of Kohn-Sham states=           14
     kinetic-energy cutoff     =      30.0000  Ry
     charge density cutoff     =     240.0000  Ry
     scf convergence threshold =      1.0E-06
     mixing beta               =       0.7000
     number of iterations used =            8  plain     mixing
     Exchange-correlation= PBE
                           (   1   4   3   4   0   0   0)

     celldm(1)=  25.194156  celldm(2)=   0.000000  celldm(3)=   0.000000
     celldm(4)=   0.000000  celldm(5)=   0.000000  celldm(6)=   0.000000

     crystal axes: (cart. coord. in units of alat)
               a(1) = (   1.000000   0.000000   0.000000 )
               a(2) = (   0.971186   0.238325   0.000000 )
               a(3) = (   0.971186   0.117420   0.207391 )

     reciprocal axes: (cart. coord. in units 2 pi/alat)
               b(1) = (  1.000000 -4.075054 -2.375662 )
               b(2) = (  0.000000  4.195958 -2.375662 )
               b(3) = (  0.000000  0.000000  4.821808 )

     PseudoPot. # 1 for Mg read from file:
     /home/pragov/projects/rrg-bengioy-ad/pragov/crystal_structure_design/SSSP/Mg.pbe-n-kjpaw_psl.0.3.0.UPF
     MD5 check sum: 24ecedc7f3e3cbe212e682f4413594e4
     Pseudo is Projector augmented-wave + core cor, Zval =  2.0
     Generated using "atomic" code by A. Dal Corso  v.5.0.99 svn rev. 10869
     Shape of augmentation charge: PSQ
     Using radial grid of 1129 points,  4 beta functions with:
                l(1) =   0
                l(2) =   0
                l(3) =   1
                l(4) =   1
     Q(r) pseudized with 0 coefficients

     PseudoPot. # 2 for Sc read from file:
     /home/pragov/projects/rrg-bengioy-ad/pragov/crystal_structure_design/SSSP/Sc_ONCV_PBE-1.0.oncvpsp.upf
     MD5 check sum: e21af8023abb52e52cb7cd3133e4a229
     Pseudo is Norm-conserving, Zval = 11.0
     Generated using ONCVPSP code by D. R. Hamann
     Using radial grid of 1662 points,  6 beta functions with:
                l(1) =   0
                l(2) =   0
                l(3) =   1
                l(4) =   1
                l(5) =   2
                l(6) =   2

     atomic species   valence    mass     pseudopotential
        Mg             2.00    24.30500     Mg( 1.00)
        Sc            11.00    44.95591     Sc( 1.00)

      2 Sym. Ops., with inversion, found

                                    s                        frac. trans.

      isym =  1     identity

 cryst.   s( 1) = (     1          0          0      )
                  (     0          1          0      )
                  (     0          0          1      )

 cart.    s( 1) = (  1.0000000  0.0000000 -0.0000000 )
                  (  0.0000000  1.0000000  0.0000000 )
                  (  0.0000000  0.0000000  1.0000000 )

      isym =  2     inversion

 cryst.   s( 2) = (    -1          0          0      )
                  (     0         -1          0      )
                  (     0          0         -1      )

 cart.    s( 2) = ( -1.0000000 -0.0000000  0.0000000 )
                  (  0.0000000 -1.0000000 -0.0000000 )
                  (  0.0000000  0.0000000 -1.0000000 )

   Cartesian axes

     site n.     atom                  positions (alat units)
         1           Mg  tau(   1) = (   1.7645605   0.2133428   0.1243739  )
         2           Mg  tau(   2) = (   0.5882712   0.0711245   0.0414639  )
         3           Mg  tau(   3) = (   2.3540999   0.2846206   0.1659272  )
         4           Mg  tau(   4) = (   1.1778105   0.1424022   0.0830172  )
         5           Sc  tau(   5) = (   0.0000000   0.0000000   0.0000000  )

   Crystallographic axes

     site n.     atom                  positions (cryst. coord.)
         1           Mg  tau(   1) = (  0.5997070  0.5997070  0.5997070  )
         2           Mg  tau(   2) = (  0.1999310  0.1999310  0.1999310  )
         3           Mg  tau(   3) = (  0.8000690  0.8000690  0.8000690  )
         4           Mg  tau(   4) = (  0.4002930  0.4002930  0.4002930  )
         5           Sc  tau(   5) = (  0.0000000  0.0000000  0.0000000  )

     number of k points=     1  Methfessel-Paxton smearing, width (Ry)=  0.0010
                       cart. coord. in units 2pi/alat
        k(    1) = (   0.0000000   0.0000000   0.0000000), wk =   2.0000000

                       cryst. coord.
        k(    1) = (   0.0000000   0.0000000   0.0000000), wk =   2.0000000

     Initial potential from superposition of free atoms

     starting charge      18.9937, renormalised to      19.0000
     Starting wfcs are   26 randomized atomic wfcs
     Checking if some PAW data can be deallocated...

     Self-consistent Calculation

     iteration #  1     ecut=    30.00 Ry     beta= 0.70
     Davidson diagonalization with overlap

     ethr =  1.00E-02,  avg # of iterations =  2.0

     Threshold (ethr) on eigenvalues was too large:
     Diagonalizing with lowered threshold

     Davidson diagonalization with overlap

[...]

     total energy              =    -227.92868582 Ry
     estimated scf accuracy    <       0.05397598 Ry

[...]

     total energy              =    -227.93570815 Ry
     estimated scf accuracy    <       0.00003007 Ry

     iteration #  8     ecut=    30.00 Ry     beta= 0.70
     Davidson diagonalization with overlap

     ethr =  9.65E-08,  avg # of iterations =  2.0

     End of self-consistent calculation

          k = 0.0000 0.0000 0.0000 (  1093 PWs)   bands (ev):

   -46.8456 -25.3990 -25.3990 -25.0720  -1.7728  -0.8738  -0.8410   1.4394
     1.6795   3.7643   4.6904   4.6905   5.9595   6.3290

     occupation numbers
     1.0000   1.0000   1.0000   1.0000   1.0000   1.0000   1.0000   1.0000
     1.0000   0.5000  -0.0000  -0.0000  -0.0000  -0.0000

     the Fermi energy is     3.7643 ev

!    total energy              =    -227.93571226 Ry
     estimated scf accuracy    <       0.00000086 Ry
     smearing contrib. (-TS)   =      -0.00028209 Ry
     internal energy E=F+TS    =    -227.93543016 Ry

     The total energy is F=E-TS. E is the sum of the following terms:
     one-electron contribution =    -132.44274830 Ry
     hartree contribution      =      67.56131321 Ry
     xc contribution           =     -18.15860284 Ry
     ewald contribution        =     -19.73298067 Ry
     one-center paw contrib.   =    -125.16241157 Ry
      -> PAW hartree energy AE =       3.22931738 Ry
      -> PAW hartree energy PS =      -3.22227372 Ry
      -> PAW xc energy AE      =    -130.46562916 Ry
      -> PAW xc energy PS      =       5.29617394 Ry
      -> total E_H with PAW    =      67.56835687 Ry
      -> total E_XC with PAW   =    -143.32805806 Ry

     convergence has been achieved in   8 iterations

     Forces acting on atoms (cartesian axes, Ry/au):

     atom    1 type  1   force =    -0.03320020   -0.00401371   -0.00234025
     atom    2 type  1   force =    -0.00164116   -0.00019877   -0.00011586
     atom    3 type  1   force =     0.00164116    0.00019877    0.00011586
     atom    4 type  1   force =     0.03320020    0.00401371    0.00234025
     atom    5 type  2   force =     0.00000000    0.00000000    0.00000000
     The non-local contrib.  to forces
     atom    1 type  1   force =    -0.05094492   -0.00615908   -0.00359123
     atom    2 type  1   force =    -0.00959844   -0.00116046   -0.00067671
     atom    3 type  1   force =     0.00959844    0.00116046    0.00067671
     atom    4 type  1   force =     0.05094492    0.00615908    0.00359123
     atom    5 type  2   force =     0.00000000    0.00000000    0.00000000
     The ionic contribution  to forces
     atom    1 type  1   force =    -4.16628085   -0.50372085   -0.29365853
     atom    2 type  1   force =    -1.40785974   -0.17021616   -0.09923238
     atom    3 type  1   force =     1.40785974    0.17021616    0.09923238
     atom    4 type  1   force =     4.16628085    0.50372085    0.29365853
     atom    5 type  2   force =    -0.00000000   -0.00000000   -0.00000000
     The local contribution  to forces
     atom    1 type  1   force =     4.17877373    0.50522720    0.29454080
     atom    2 type  1   force =     1.41526892    0.17111189    0.09975481
     atom    3 type  1   force =    -1.41452983   -0.17102242   -0.09970258
     atom    4 type  1   force =    -4.17911552   -0.50527706   -0.29456185
     atom    5 type  2   force =    -0.00260989   -0.00044597   -0.00016714
     The core correction contribution to forces
     atom    1 type  1   force =     0.00495624    0.00059873    0.00034953
     atom    2 type  1   force =     0.00089867    0.00010866    0.00006337
     atom    3 type  1   force =    -0.00089705   -0.00010842   -0.00006323
     atom    4 type  1   force =    -0.00496530   -0.00060072   -0.00034987
     atom    5 type  2   force =     0.00000000    0.00000000    0.00000000
     The Hubbard contrib.    to forces
     atom    1 type  1   force =     0.00000000    0.00000000    0.00000000
     atom    2 type  1   force =     0.00000000    0.00000000    0.00000000
     atom    3 type  1   force =     0.00000000    0.00000000    0.00000000
     atom    4 type  1   force =     0.00000000    0.00000000    0.00000000
     atom    5 type  2   force =     0.00000000    0.00000000    0.00000000
     The SCF correction term to forces
     atom    1 type  1   force =     0.00025930    0.00003135    0.00001820
     atom    2 type  1   force =    -0.00036762   -0.00004464   -0.00002606
     atom    3 type  1   force =    -0.00040720   -0.00004893   -0.00002854
     atom    4 type  1   force =     0.00001894    0.00000261    0.00000123
     atom    5 type  2   force =     0.00307383    0.00040459    0.00023062

     Total force =     0.047468     Total SCF correction =     0.003169

     Computing stress (Cartesian axis) and pressure

          total   stress  (Ry/bohr**3)                   (kbar)     P=     -155.52
   0.00104893   0.00038562   0.00022491          154.30       56.73       33.09
   0.00038562  -0.00209488   0.00002717           56.73     -308.17        4.00
   0.00022491   0.00002717  -0.00212560           33.09        4.00     -312.69

     kinetic stress (kbar)   4468.23     84.54     49.28
                               84.54   3779.29      5.96
                               49.28      5.96   3772.54

     local   stress (kbar)  18686.49   4430.42   2582.86
                             4430.42 -17422.06    312.28
                             2582.86    312.28 -17775.66

     nonloc. stress (kbar)   -750.27    -10.94     -6.37
                              -10.94   -661.21     -0.77
                               -6.37     -0.77   -660.33

     hartree stress (kbar)  -7424.50  -2127.42  -1240.25
                            -2127.42   9914.26   -149.95
                            -1240.25   -149.95  10084.06

     exc-cor stress (kbar)   -388.78     -0.22     -0.13
                               -0.22   -387.02     -0.02
                               -0.13     -0.02   -387.01

     corecor stress (kbar)   -546.58      0.14      0.08
                                0.14   -547.74      0.01
                                0.08      0.01   -547.76

     ewald   stress (kbar) -13890.29  -2319.80  -1352.39
                            -2319.80   5016.32   -163.51
                            -1352.39   -163.51   5201.47

     hubbard stress (kbar)      0.00      0.00      0.00
                                0.00      0.00      0.00
                                0.00      0.00      0.00

     DFT-D   stress (kbar)      0.00      0.00      0.00
                                0.00      0.00      0.00
                                0.00      0.00      0.00

     XDM     stress (kbar)      0.00      0.00      0.00
                                0.00      0.00      0.00
                                0.00      0.00      0.00

     dft-nl  stress (kbar)      0.00      0.00      0.00
                                0.00      0.00      0.00
                                0.00      0.00      0.00

     TS-vdW  stress (kbar)      0.00      0.00      0.00
                                0.00      0.00      0.00
                                0.00      0.00      0.00

[...]

                                0.00      0.00      0.00

     Writing all to output data dir new_calculations/myprefix.save/

     General routines

     Parallel routines

     PAW routines

   This run was terminated on:   5:10:27  20May2023

   JOB DONE.