     Program PWSCF v.7.0 starts on 20May2023 at 21:43:15

     Reading input from espresso_4681.pwi
Warning: card &CELL ignored
Warning: card / ignored

     Current dimensions of program PWSCF are:
     Max number of different atomic species (ntypx) = 10
     Max number of k-points (npk) =  40000
     Max angular momentum in pseudopotentials (lmaxx) =  4

     gamma-point specific algorithms are used
     Message from routine setup:
     using ibrav=0 with symmetry is DISCOURAGED, use correct ibrav instead

     Subspace diagonalization in iterative solution of the eigenvalue problem:
     a serial algorithm will be used

     Using Slab Decomposition

     bravais-lattice index     =            0
     lattice parameter (alat)  =       6.7692  a.u.
     unit-cell volume          =    2435.8149 (a.u.)^3
     number of atoms/cell      =           20
     number of atomic types    =            2
     number of electrons       =       184.00
     number of Kohn-Sham states=          110
     kinetic-energy cutoff     =      30.0000  Ry
     charge density cutoff     =     240.0000  Ry
     scf convergence threshold =      1.0E-06
     mixing beta               =       0.7000
     number of iterations used =            8  plain     mixing
     Exchange-correlation= PBE
                           (   1   4   3   4   0   0   0)

     celldm(1)=   6.769245  celldm(2)=   0.000000  celldm(3)=   0.000000
     celldm(4)=   0.000000  celldm(5)=   0.000000  celldm(6)=   0.000000

     crystal axes: (cart. coord. in units of alat)
               a(1) = (   1.000000   0.000000   0.000000 )
               a(2) = (   0.000000   2.756775   0.000000 )
               a(3) = (   0.000000   0.000000   2.848540 )

     reciprocal axes: (cart. coord. in units 2 pi/alat)
               b(1) = (  1.000000  0.000000  0.000000 )
               b(2) = (  0.000000  0.362743  0.000000 )
               b(3) = (  0.000000  0.000000  0.351057 )

     PseudoPot. # 1 for Hf read from file:
     /home/pragov/projects/rrg-bengioy-ad/pragov/crystal_structure_design/SSSP/Hf-sp.oncvpsp.upf
     MD5 check sum: 417ed15784afe83d2e06dacf143de3f8
     Pseudo is Norm-conserving + core correction, Zval = 12.0
     Generated using ONCVPSP code by D. R. Hamann
     Using radial grid of 1656 points,  8 beta functions with:
                l(1) =   0
                l(2) =   0
                l(3) =   1
                l(4) =   1
                l(5) =   2
                l(6) =   2
                l(7) =   3
                l(8) =   3

     PseudoPot. # 2 for P  read from file:
     /home/pragov/projects/rrg-bengioy-ad/pragov/crystal_structure_design/SSSP/P.pbe-n-rrkjus_psl.1.0.0.UPF
     MD5 check sum: 8b930f418f0a4573dca56cd030ffe088
     Pseudo is Ultrasoft + core correction, Zval =  5.0
     Generated using "atomic" code by A. Dal Corso  v.5.1
     Using radial grid of 1147 points,  6 beta functions with:
                l(1) =   0
                l(2) =   0
                l(3) =   1
                l(4) =   1
                l(5) =   2
                l(6) =   2
     Q(r) pseudized with 0 coefficients

     atomic species   valence    mass     pseudopotential
        Hf            12.00   178.49000     Hf( 1.00)
        P              5.00    30.97376     P ( 1.00)

      8 Sym. Ops., with inversion, found ( 6 have fractional translation)

                                    s                        frac. trans.

      isym =  1     identity

 cryst.   s( 1) = (     1          0          0      )
                  (     0          1          0      )
                  (     0          0          1      )

 cart.    s( 1) = (  1.0000000  0.0000000  0.0000000 )
                  (  0.0000000  1.0000000  0.0000000 )
                  (  0.0000000  0.0000000  1.0000000 )

      isym =  2     180 deg rotation - cart. axis [0,0,1]

 cryst.   s( 2) = (    -1          0          0      )    f =(  0.5000000 )
                  (     0         -1          0      )       (  0.5000000 )
                  (     0          0          1      )       ( -0.5000000 )

 cart.    s( 2) = ( -1.0000000  0.0000000  0.0000000 )    f =(  0.5000000 )
                  (  0.0000000 -1.0000000  0.0000000 )       (  1.3783877 )
                  (  0.0000000  0.0000000  1.0000000 )       ( -1.4242698 )

[...]

      isym =  4     180 deg rotation - cart. axis [1,0,0]

[...]

      isym =  5     inversion

 cryst.   s( 5) = (    -1          0          0      )
                  (     0         -1          0      )
                  (     0          0         -1      )

 cart.    s( 5) = ( -1.0000000  0.0000000  0.0000000 )
                  (  0.0000000 -1.0000000  0.0000000 )
                  (  0.0000000  0.0000000 -1.0000000 )

      isym =  6     inv. 180 deg rotation - cart. axis [0,0,1]

[...]

      isym =  8     inv. 180 deg rotation - cart. axis [1,0,0]

 cryst.   s( 8) = (    -1          0          0      )    f =(  0.5000000 )
                  (     0          1          0      )       (  0.0000000 )
                  (     0          0          1      )       (  0.0000000 )

 cart.    s( 8) = ( -1.0000000  0.0000000  0.0000000 )    f =(  0.5000000 )
                  (  0.0000000  1.0000000  0.0000000 )       (  0.0000000 )
                  (  0.0000000  0.0000000  1.0000000 )       (  0.0000000 )

   Cartesian axes

     site n.     atom                  positions (alat units)
         1           Hf  tau(   1) = (   0.2500000   2.1965987   0.6156492  )
         2           Hf  tau(   2) = (   0.7500000   0.5601768   2.2328904  )
         3           Hf  tau(   3) = (   0.7500000   0.8182110   0.8086206  )
         4           Hf  tau(   4) = (   0.2500000   1.9385645   2.0399189  )
         5           Hf  tau(   5) = (   0.2500000   1.1997569   2.4932868  )
         6           Hf  tau(   6) = (   0.7500000   1.5570185   0.3552528  )
         7           Hf  tau(   7) = (   0.7500000   2.5781447   1.7795225  )
         8           Hf  tau(   8) = (   0.2500000   0.1786308   1.0690170  )
         9           Hf  tau(   9) = (   0.2500000   1.0305598   1.5552171  )
        10           Hf  tau(  10) = (   0.7500000   1.7262156   1.2933224  )
        11           Hf  tau(  11) = (   0.7500000   2.4089476   2.7175922  )
        12           Hf  tau(  12) = (   0.2500000   0.3478279   0.1309474  )
        13           P   tau(  13) = (   0.2500000   1.8721565   2.7705010  )
        14           P   tau(  14) = (   0.7500000   0.8846189   0.0780386  )
        15           P   tau(  15) = (   0.7500000   0.4937688   1.5023084  )
        16           P   tau(  16) = (   0.2500000   2.2630066   1.3462312  )
        17           P   tau(  17) = (   0.2500000   0.0007002   2.2981248  )
        18           P   tau(  18) = (   0.7500000   2.7560752   0.5504148  )
        19           P   tau(  19) = (   0.7500000   1.3790879   1.9746845  )
        20           P   tau(  20) = (   0.2500000   1.3776875   0.8738550  )

   Crystallographic axes

     site n.     atom                  positions (cryst. coord.)
         1           Hf  tau(   1) = (  0.2500000  0.7968000  0.2161280  )
         2           Hf  tau(   2) = (  0.7500000  0.2032000  0.7838720  )
         3           Hf  tau(   3) = (  0.7500000  0.2968000  0.2838720  )
         4           Hf  tau(   4) = (  0.2500000  0.7032000  0.7161280  )
         5           Hf  tau(   5) = (  0.2500000  0.4352030  0.8752860  )
         6           Hf  tau(   6) = (  0.7500000  0.5647970  0.1247140  )
         7           Hf  tau(   7) = (  0.7500000  0.9352030  0.6247140  )
         8           Hf  tau(   8) = (  0.2500000  0.0647970  0.3752860  )
         9           Hf  tau(   9) = (  0.2500000  0.3738280  0.5459700  )
        10           Hf  tau(  10) = (  0.7500000  0.6261720  0.4540300  )
        11           Hf  tau(  11) = (  0.7500000  0.8738280  0.9540300  )
        12           Hf  tau(  12) = (  0.2500000  0.1261720  0.0459700  )
        13           P   tau(  13) = (  0.2500000  0.6791110  0.9726040  )
        14           P   tau(  14) = (  0.7500000  0.3208890  0.0273960  )
        15           P   tau(  15) = (  0.7500000  0.1791110  0.5273960  )
        16           P   tau(  16) = (  0.2500000  0.8208890  0.4726040  )
        17           P   tau(  17) = (  0.2500000  0.0002540  0.8067730  )
        18           P   tau(  18) = (  0.7500000  0.9997460  0.1932270  )
        19           P   tau(  19) = (  0.7500000  0.5002540  0.6932270  )
        20           P   tau(  20) = (  0.2500000  0.4997460  0.3067730  )

     number of k points=     1  Methfessel-Paxton smearing, width (Ry)=  0.0010
                       cart. coord. in units 2pi/alat
        k(    1) = (   0.0000000   0.0000000   0.0000000), wk =   2.0000000

                       cryst. coord.
        k(    1) = (   0.0000000   0.0000000   0.0000000), wk =   2.0000000

     Initial potential from superposition of free atoms

     starting charge     183.9765, renormalised to     184.0000
     Starting wfcs are  152 randomized atomic wfcs

     Self-consistent Calculation

     iteration #  1     ecut=    30.00 Ry     beta= 0.70
     Davidson diagonalization with overlap

     ethr =  1.00E-02,  avg # of iterations =  3.0

     Threshold (ethr) on eigenvalues was too large:
     Diagonalizing with lowered threshold

     Davidson diagonalization with overlap

[...]

     total energy              =   -1465.76895872 Ry
     estimated scf accuracy    <       0.97342846 Ry

[...]

     total energy              =   -1466.15860959 Ry
     estimated scf accuracy    <       0.00000319 Ry

     iteration # 22     ecut=    30.00 Ry     beta= 0.70
     Davidson diagonalization with overlap

     ethr =  1.73E-09,  avg # of iterations =  2.0

     End of self-consistent calculation

          k = 0.0000 0.0000 0.0000 (  3364 PWs)   bands (ev):

   -47.4879 -47.4796 -47.4688 -47.4636 -47.3660 -47.3475 -47.3435 -47.3333
   -46.7568 -46.7446 -46.7426 -46.7354 -16.4764 -16.4746 -16.4514 -16.4501
   -16.4154 -16.3754 -16.3730 -16.3699 -16.3214 -16.2990 -16.1982 -16.1488
   -16.1425 -16.1096 -16.0757 -16.0732 -16.0652 -16.0347 -16.0246 -16.0244
   -15.9765 -15.9431 -15.8876 -15.8667 -15.7752 -15.7407 -15.7200 -15.6040
   -15.6008 -15.5393 -15.5345 -15.5075 -15.3997 -15.3893 -15.3457 -15.3346
     1.9373   3.0355   3.0626   3.0848   3.1286   3.5800   3.6062   3.8792
     8.0025   8.1698   8.2415   8.5429   9.3470   9.3675   9.6140  10.0658
    10.3851  10.5023  10.9628  11.0305  11.2437  11.3576  11.4797  11.5747
    11.6514  11.7011  11.7223  11.8381  11.9417  12.0019  12.0835  12.5687
    12.5883  12.6064  12.9596  13.0811  13.1044  13.7336  13.7524  14.0392
    14.1435  14.2839  14.3710  14.7881  14.9156  15.0805  15.3048  15.3083
    15.3281  15.3467  15.4556  15.5334  15.6170  15.8823  15.8887  15.9644
    16.0756  16.4975  16.5007  16.5328  16.7312  16.9123

     occupation numbers
     1.0000   1.0000   1.0000   1.0000   1.0000   1.0000   1.0000   1.0000
     1.0000   1.0000   1.0000   1.0000   1.0000   1.0000   1.0000   1.0000
     1.0000   1.0000   1.0000   1.0000   1.0000   1.0000   1.0000   1.0000
     1.0000   1.0000   1.0000   1.0000   1.0000   1.0000   1.0000   1.0000
     1.0000   1.0000   1.0000   1.0000   1.0000   1.0000   1.0000   1.0000
     1.0000   1.0000   1.0000   1.0000   1.0000   1.0000   1.0000   1.0000
     1.0000   1.0000   1.0000   1.0000   1.0000   1.0000   1.0000   1.0000
     1.0000   1.0000   1.0000   1.0000   1.0000   1.0000   1.0000   1.0000
     1.0000   1.0000   1.0000   1.0000   1.0000   1.0000   1.0000   1.0000
     1.0000   1.0000   1.0000   1.0000   1.0000   1.0000   1.0000   1.0000
     1.0000   1.0000   1.0000   1.0000   1.0000   1.0000   1.0000   1.0000
     1.0000   1.0000   1.0000   1.0000  -0.0000  -0.0000  -0.0000  -0.0000
    -0.0000  -0.0000  -0.0000  -0.0000  -0.0000  -0.0000  -0.0000  -0.0000
    -0.0000  -0.0000  -0.0000  -0.0000  -0.0000  -0.0000

     the Fermi energy is    14.8519 ev

!    total energy              =   -1466.15860959 Ry
     estimated scf accuracy    <       0.00000037 Ry
     smearing contrib. (-TS)   =       0.00000000 Ry
     internal energy E=F+TS    =   -1466.15860959 Ry

     The total energy is F=E-TS. E is the sum of the following terms:
     one-electron contribution =    -216.61679136 Ry
     hartree contribution      =     185.96878415 Ry
     xc contribution           =    -378.96342531 Ry
     ewald contribution        =   -1056.54717707 Ry

     convergence has been achieved in  22 iterations

     Forces acting on atoms (cartesian axes, Ry/au):

     atom    1 type  1   force =     0.00000000   -0.02983505   -0.03315472
     atom    2 type  1   force =    -0.00000000    0.02983505    0.03315472
     atom    3 type  1   force =     0.00000000   -0.02983505    0.03315472
     atom    4 type  1   force =     0.00000000    0.02983505   -0.03315472
     atom    5 type  1   force =     0.00000000   -0.04283832   -0.01400459
     atom    6 type  1   force =     0.00000000    0.04283832    0.01400459
     atom    7 type  1   force =     0.00000000   -0.04283832    0.01400459
     atom    8 type  1   force =     0.00000000    0.04283832   -0.01400459
     atom    9 type  1   force =     0.00000000    0.01391721    0.03676415
     atom   10 type  1   force =    -0.00000000   -0.01391721   -0.03676415
     atom   11 type  1   force =    -0.00000000    0.01391721   -0.03676415
     atom   12 type  1   force =    -0.00000000   -0.01391721    0.03676415
     atom   13 type  2   force =    -0.00000000    0.01101587    0.01819950
     atom   14 type  2   force =     0.00000000   -0.01101587   -0.01819950
     atom   15 type  2   force =    -0.00000000    0.01101587   -0.01819950
     atom   16 type  2   force =     0.00000000   -0.01101587    0.01819950
     atom   17 type  2   force =     0.00000000   -0.02158485   -0.02223681
     atom   18 type  2   force =     0.00000000    0.02158485    0.02223681
     atom   19 type  2   force =     0.00000000   -0.02158485    0.02223681
     atom   20 type  2   force =     0.00000000    0.02158485   -0.02223681
     The non-local contrib.  to forces
     atom    1 type  1   force =     0.00000000    0.11731979   -0.01713137
     atom    2 type  1   force =     0.00000000   -0.11731979    0.01713137
     atom    3 type  1   force =    -0.00000000    0.11731979    0.01713137
     atom    4 type  1   force =    -0.00000000   -0.11731979   -0.01713137
     atom    5 type  1   force =     0.00000000   -0.03317685   -0.01773361
     atom    6 type  1   force =     0.00000000    0.03317685    0.01773361
     atom    7 type  1   force =     0.00000000   -0.03317685    0.01773361
     atom    8 type  1   force =     0.00000000    0.03317685   -0.01773361
     atom    9 type  1   force =     0.00000000   -0.02677927    0.05846746
     atom   10 type  1   force =    -0.00000000    0.02677927   -0.05846746
     atom   11 type  1   force =     0.00000000   -0.02677927   -0.05846746
     atom   12 type  1   force =     0.00000000    0.02677927    0.05846746
     atom   13 type  2   force =     0.00000000    0.02155813    0.04556322
     atom   14 type  2   force =     0.00000000   -0.02155813   -0.04556322
     atom   15 type  2   force =     0.00000000    0.02155813   -0.04556322
     atom   16 type  2   force =     0.00000000   -0.02155813    0.04556322
     atom   17 type  2   force =     0.00000000    0.00005656    0.01941541
     atom   18 type  2   force =    -0.00000000   -0.00005656   -0.01941541
     atom   19 type  2   force =     0.00000000    0.00005656   -0.01941541
     atom   20 type  2   force =    -0.00000000   -0.00005656    0.01941541
     The ionic contribution  to forces
     atom    1 type  1   force =    -0.00000000    0.42906524    1.69721647
     atom    2 type  1   force =    -0.00000000   -0.42906524   -1.69721647
     atom    3 type  1   force =    -0.00000000    0.42906524   -1.69721647
     atom    4 type  1   force =    -0.00000000   -0.42906524    1.69721647
     atom    5 type  1   force =    -0.00000000    1.25733394    1.23863541
     atom    6 type  1   force =    -0.00000000   -1.25733394   -1.23863541
     atom    7 type  1   force =    -0.00000000    1.25733394   -1.23863541
     atom    8 type  1   force =     0.00000000   -1.25733394    1.23863541
     atom    9 type  1   force =     0.00000000   -1.27218096    0.79165811
     atom   10 type  1   force =    -0.00000000    1.27218096   -0.79165811
     atom   11 type  1   force =    -0.00000000   -1.27218096   -0.79165811
     atom   12 type  1   force =     0.00000000    1.27218096    0.79165811
     atom   13 type  2   force =    -0.00000000   -0.36272258   -0.95258448
     atom   14 type  2   force =     0.00000000    0.36272258    0.95258448
     atom   15 type  2   force =    -0.00000000   -0.36272258    0.95258448
     atom   16 type  2   force =     0.00000000    0.36272258   -0.95258448
     atom   17 type  2   force =     0.00000000    0.26516311   -0.65755586
     atom   18 type  2   force =    -0.00000000   -0.26516311    0.65755586
     atom   19 type  2   force =     0.00000000    0.26516311    0.65755586
     atom   20 type  2   force =     0.00000000   -0.26516311   -0.65755586
     The local contribution  to forces
     atom    1 type  1   force =    -0.00000136   -0.55959741   -1.70577250
     atom    2 type  1   force =     0.00000389    0.56026356    1.70552666
     atom    3 type  1   force =     0.00000074   -0.55857535    1.70655456
     atom    4 type  1   force =     0.00000230    0.55826301   -1.70636300
     atom    5 type  1   force =     0.00000306   -1.26667503   -1.24097093
     atom    6 type  1   force =     0.00000204    1.26690585    1.24048436
     atom    7 type  1   force =     0.00000118   -1.26637793    1.23998073
     atom    8 type  1   force =    -0.00000226    1.26627595   -1.24028060
     atom    9 type  1   force =     0.00000501    1.31070054   -0.80449832
     atom   10 type  1   force =    -0.00000254   -1.31079946    0.80479337
     atom   11 type  1   force =     0.00000170    1.30992076    0.80551936
     atom   12 type  1   force =    -0.00000250   -1.31017002   -0.80497821
     atom   13 type  2   force =     0.00000143    0.35306324    0.92756500
     atom   14 type  2   force =    -0.00000043   -0.35299249   -0.92758723
     atom   15 type  2   force =     0.00000019    0.35372978   -0.92712341
     atom   16 type  2   force =    -0.00000222   -0.35350758    0.92706879
     atom   17 type  2   force =    -0.00000041   -0.28645478    0.61624090
     atom   18 type  2   force =    -0.00000056    0.28633980   -0.61620684
     atom   19 type  2   force =    -0.00000127   -0.28705432   -0.61651302
     atom   20 type  2   force =    -0.00000201    0.28682823    0.61658913
     The core correction contribution to forces
     atom    1 type  1   force =     0.00000025   -0.01690979   -0.00709988
     atom    2 type  1   force =     0.00000011    0.01691345    0.00709910
     atom    3 type  1   force =     0.00000013   -0.01690862    0.00709821
     atom    4 type  1   force =     0.00000006    0.01690467   -0.00710295
     atom    5 type  1   force =     0.00000017   -0.00037201    0.00522966
     atom    6 type  1   force =    -0.00000005    0.00038277   -0.00523480
     atom    7 type  1   force =    -0.00000005   -0.00037888   -0.00523294
     atom    8 type  1   force =    -0.00000011    0.00037198    0.00522734
     atom    9 type  1   force =     0.00000049    0.00259694   -0.00835035
     atom   10 type  1   force =    -0.00000001   -0.00259244    0.00835072
     atom   11 type  1   force =     0.00000022    0.00259508    0.00836095
     atom   12 type  1   force =    -0.00000009   -0.00259932   -0.00834970
     atom   13 type  2   force =     0.00000017   -0.00113764   -0.00216126
     atom   14 type  2   force =     0.00000001    0.00113815    0.00216163
     atom   15 type  2   force =    -0.00000001   -0.00113649    0.00216332
     atom   16 type  2   force =    -0.00000004    0.00113761   -0.00216200
     atom   17 type  2   force =    -0.00000010   -0.00007486   -0.00052225
     atom   18 type  2   force =    -0.00000003    0.00007545    0.00052215
     atom   19 type  2   force =     0.00000002   -0.00007682    0.00052230
     atom   20 type  2   force =    -0.00000001    0.00007584   -0.00052198
     The Hubbard contrib.    to forces
     atom    1 type  1   force =     0.00000000    0.00000000    0.00000000
     atom    2 type  1   force =     0.00000000    0.00000000    0.00000000
     atom    3 type  1   force =     0.00000000    0.00000000    0.00000000
     atom    4 type  1   force =     0.00000000    0.00000000    0.00000000
     atom    5 type  1   force =     0.00000000    0.00000000    0.00000000
     atom    6 type  1   force =     0.00000000    0.00000000    0.00000000
     atom    7 type  1   force =     0.00000000    0.00000000    0.00000000
     atom    8 type  1   force =     0.00000000    0.00000000    0.00000000
     atom    9 type  1   force =     0.00000000    0.00000000    0.00000000
     atom   10 type  1   force =     0.00000000    0.00000000    0.00000000
     atom   11 type  1   force =     0.00000000    0.00000000    0.00000000
     atom   12 type  1   force =     0.00000000    0.00000000    0.00000000
     atom   13 type  2   force =     0.00000000    0.00000000    0.00000000
     atom   14 type  2   force =     0.00000000    0.00000000    0.00000000
     atom   15 type  2   force =     0.00000000    0.00000000    0.00000000
     atom   16 type  2   force =     0.00000000    0.00000000    0.00000000
     atom   17 type  2   force =     0.00000000    0.00000000    0.00000000
     atom   18 type  2   force =     0.00000000    0.00000000    0.00000000
     atom   19 type  2   force =     0.00000000    0.00000000    0.00000000
     atom   20 type  2   force =     0.00000000    0.00000000    0.00000000
     The SCF correction term to forces
     atom    1 type  1   force =    -0.00000058    0.00023776   -0.00038909
     atom    2 type  1   force =    -0.00000140   -0.00093784    0.00064388
     atom    3 type  1   force =    -0.00000191   -0.00068484   -0.00047185
     atom    4 type  1   force =    -0.00000139    0.00103521    0.00021871
     atom    5 type  1   force =    -0.00000189    0.00007666    0.00085312
     atom    6 type  1   force =    -0.00000177   -0.00026294   -0.00035959
     atom    7 type  1   force =    -0.00000085   -0.00027288    0.00016902
     atom    8 type  1   force =     0.00000179    0.00030794    0.00012262
     atom    9 type  1   force =    -0.00000300   -0.00039018   -0.00051301
     atom   10 type  1   force =     0.00000305    0.00052992    0.00018837
     atom   11 type  1   force =    -0.00000082    0.00034380   -0.00049164
     atom   12 type  1   force =     0.00000244   -0.00011147   -0.00003496
     atom   13 type  2   force =    -0.00000036    0.00024531   -0.00015353
     atom   14 type  2   force =    -0.00000029   -0.00029514    0.00019303
     atom   15 type  2   force =     0.00000004   -0.00038289   -0.00022822
     atom   16 type  2   force =     0.00000005    0.00017949    0.00030518
     atom   17 type  2   force =     0.00000006   -0.00025916    0.00018417
     atom   18 type  2   force =     0.00000023    0.00036737   -0.00021199
     atom   19 type  2   force =     0.00000029    0.00030582    0.00008506
     atom   20 type  2   force =     0.00000097   -0.00008275   -0.00015778

     Total force =     0.167079     Total SCF correction =     0.002551

     Computing stress (Cartesian axis) and pressure

          total   stress  (Ry/bohr**3)                   (kbar)     P=     -166.04
   0.00022985   0.00000000   0.00000000           33.81        0.00        0.00
   0.00000000  -0.00201869   0.00000000            0.00     -296.96        0.00
   0.00000000   0.00000000  -0.00159740            0.00        0.00     -234.99

     kinetic stress (kbar)  16399.67      0.00      0.00
                                0.00  15511.26      0.00
                                0.00      0.00  15626.53

     local   stress (kbar)   -884.26     -0.00      0.00
                               -0.00  -1833.49      0.01
                                0.00      0.01   -791.64

     nonloc. stress (kbar)   7718.17      0.00      0.00
                                0.00   7696.43      0.00
                                0.00      0.00   7716.93

     hartree stress (kbar)   3706.93      0.00     -0.00
                                0.00   3957.11     -0.01
                               -0.00     -0.01   3567.09

     exc-cor stress (kbar)   7103.85      0.00     -0.00
                                0.00   7096.19     -0.00
                               -0.00     -0.00   7096.05

     corecor stress (kbar) -12124.91      0.00      0.00
                                0.00 -12125.12      0.00
                                0.00      0.00 -12127.33

     ewald   stress (kbar) -21885.65      0.00      0.00
                                0.00 -20599.33     -0.00
                                0.00     -0.00 -21322.60

     hubbard stress (kbar)      0.00      0.00      0.00
                                0.00      0.00      0.00
                                0.00      0.00      0.00

     DFT-D   stress (kbar)      0.00      0.00      0.00
                                0.00      0.00      0.00
                                0.00      0.00      0.00

     XDM     stress (kbar)      0.00      0.00      0.00
                                0.00      0.00      0.00
                                0.00      0.00      0.00

     dft-nl  stress (kbar)      0.00      0.00      0.00
                                0.00      0.00      0.00
                                0.00      0.00      0.00

     TS-vdW  stress (kbar)      0.00      0.00      0.00
                                0.00      0.00      0.00
                                0.00      0.00      0.00

[...]

                                0.00      0.00      0.00

     Writing all to output data dir new_calculations/myprefix.save/

     General routines

     Parallel routines

   This run was terminated on:  21:44: 7  20May2023

   JOB DONE.