     Program PWSCF v.7.0 starts on 20May2023 at  6:22:23

     Reading input from espresso_6153.pwi
Warning: card &CELL ignored
Warning: card / ignored

     Current dimensions of program PWSCF are:
     Max number of different atomic species (ntypx) = 10
     Max number of k-points (npk) =  40000
     Max angular momentum in pseudopotentials (lmaxx) =  4
     file O.pbe-n-kjpaw_psl.0.1.UPF: wavefunction(s)  2P renormalized

     gamma-point specific algorithms are used

     Subspace diagonalization in iterative solution of the eigenvalue problem:
     a serial algorithm will be used

     Using Slab Decomposition

     bravais-lattice index     =            0
     lattice parameter (alat)  =      11.5812  a.u.
     unit-cell volume          =    1064.2064 (a.u.)^3
     number of atoms/cell      =           14
     number of atomic types    =            3
     number of electrons       =       146.00
     number of Kohn-Sham states=           88
     kinetic-energy cutoff     =      30.0000  Ry
     charge density cutoff     =     240.0000  Ry
     scf convergence threshold =      1.0E-06
     mixing beta               =       0.7000
     number of iterations used =            8  plain     mixing
     Exchange-correlation= SLA  PW   PBX  PBC
                           (   1   4   3   4   0   0   0)

     celldm(1)=  11.581241  celldm(2)=   0.000000  celldm(3)=   0.000000
     celldm(4)=   0.000000  celldm(5)=   0.000000  celldm(6)=   0.000000

     crystal axes: (cart. coord. in units of alat)
               a(1) = (   1.000000   0.000000   0.000000 )
               a(2) = (   0.558172   0.828348   0.000000 )
               a(3) = (   0.507802   0.270587   0.827080 )

     reciprocal axes: (cart. coord. in units 2 pi/alat)
               b(1) = (  1.000000 -0.673838 -0.393517 )
               b(2) = (  0.000000  1.207222 -0.394954 )
               b(3) = (  0.000000  0.000000  1.209072 )

     PseudoPot. # 1 for Co read from file:
     /home/pragov/projects/rrg-bengioy-ad/pragov/crystal_structure_design/SSSP/Co_pbe_v1.2.uspp.F.UPF
     MD5 check sum: 5f91765df6ddd3222702df6e7b74a16d
     Pseudo is Ultrasoft + core correction, Zval = 17.0
     Generated by new atomic code, or converted to UPF format
     Using radial grid of  863 points,  6 beta functions with:
                l(1) =   0
                l(2) =   0
                l(3) =   1
                l(4) =   1
                l(5) =   2
                l(6) =   2
     Q(r) pseudized with  8 coefficients,  rinner =    1.200   1.200   1.200
                                                       1.200   1.200

     PseudoPot. # 2 for Tc read from file:
     /home/pragov/projects/rrg-bengioy-ad/pragov/crystal_structure_design/SSSP/Tc_ONCV_PBE-1.0.oncvpsp.upf
     MD5 check sum: 1c2b1e6c8b361b656073c0c20ed4f60a
     Pseudo is Norm-conserving, Zval = 15.0
     Generated using ONCVPSP code by D. R. Hamann
     Using radial grid of 1492 points,  6 beta functions with:
                l(1) =   0
                l(2) =   0
                l(3) =   1
                l(4) =   1
                l(5) =   2
                l(6) =   2

     PseudoPot. # 3 for O  read from file:
     /home/pragov/projects/rrg-bengioy-ad/pragov/crystal_structure_design/SSSP/O.pbe-n-kjpaw_psl.0.1.UPF
     MD5 check sum: 0234752ac141de4415c5fc33072bef88
     Pseudo is Projector augmented-wave + core cor, Zval =  6.0
     Generated using "atomic" code by A. Dal Corso  v.5.0.99 svn rev. 10869
     Shape of augmentation charge: BESSEL
     Using radial grid of 1095 points,  4 beta functions with:
                l(1) =   0
                l(2) =   0
                l(3) =   1
                l(4) =   1
     Q(r) pseudized with 0 coefficients

     atomic species   valence    mass     pseudopotential
        Co            17.00    58.93319     Co( 1.00)
        Tc            15.00    97.90721     Tc( 1.00)
        O              6.00    15.99900     O ( 1.00)

     No symmetry found

                                    s                        frac. trans.

      isym =  1     identity

 cryst.   s( 1) = (     1          0          0      )
                  (     0          1          0      )
                  (     0          0          1      )

 cart.    s( 1) = (  1.0000000 -0.0000000 -0.0000000 )
                  (  0.0000000  1.0000000  0.0000000 )
                  (  0.0000000  0.0000000  1.0000000 )

   Cartesian axes

     site n.     atom                  positions (alat units)
         1           Co  tau(   1) = (   0.5173648   0.2753169   0.8196787  )
         2           Co  tau(   2) = (   0.5069313   0.2700042   0.2141716  )
         3           Co  tau(   3) = (   1.0373319   0.5515404   0.1033859  )
         4           Co  tau(   4) = (   1.2912332   0.6868346   0.5169252  )
         5           Tc  tau(   5) = (   0.7912328   0.6868376   0.5169268  )
         6           Tc  tau(   6) = (   1.0121512   0.2726559   0.5169235  )
         7           O   tau(   7) = (   0.7807731   0.4158014   0.3161192  )
         8           O   tau(   8) = (   1.0351296   0.8012508   0.3298876  )
         9           O   tau(   9) = (   1.0255235   0.5463813   0.7149828  )
        10           O   tau(  10) = (   1.2437805   0.4106852   0.3297701  )
        11           O   tau(  11) = (   1.3386874   0.9629844   0.7040785  )
        12           O   tau(  12) = (   1.5569439   0.8272885   0.3188643  )
        13           O   tau(  13) = (   1.5473384   0.5724209   0.7039627  )
        14           O   tau(  14) = (   1.8016961   0.9578666   0.7177353  )

   Crystallographic axes

     site n.     atom                  positions (cryst. coord.)
         1           Co  tau(   1) = (  0.0092880  0.0086330  0.9910510  )
         2           Co  tau(   2) = (  0.2407120  0.2413670  0.2589490  )
         3           Co  tau(   3) = (  0.6249990  0.6249990  0.1250010  )
         4           Co  tau(   4) = (  0.6249990  0.6250000  0.6250000  )
         5           Tc  tau(   5) = (  0.1249960  0.6250030  0.6250020  )
         6           Tc  tau(   6) = (  0.6250070  0.1249950  0.6249980  )
         7           O   tau(   7) = (  0.3761920  0.3771120  0.3822110  )
         8           O   tau(   8) = (  0.3654000  0.8369970  0.3988580  )
         9           O   tau(   9) = (  0.3759930  0.3772180  0.8644660  )
        10           O   tau(  10) = (  0.8372750  0.3655440  0.3987160  )
        11           O   tau(  11) = (  0.4127250  0.8844570  0.8512820  )
        12           O   tau(  12) = (  0.8740070  0.8727840  0.3855300  )
        13           O   tau(  13) = (  0.8845980  0.4130060  0.8511420  )
        14           O   tau(  14) = (  0.8738080  0.8728850  0.8677940  )

     number of k points=     1  Methfessel-Paxton smearing, width (Ry)=  0.0010
                       cart. coord. in units 2pi/alat
        k(    1) = (   0.0000000   0.0000000   0.0000000), wk =   2.0000000

                       cryst. coord.
        k(    1) = (   0.0000000   0.0000000   0.0000000), wk =   2.0000000

     Check: negative core charge=   -0.000023

     Initial potential from superposition of free atoms

     starting charge     141.9985, renormalised to     146.0000
     Starting wfcs are  104 randomized atomic wfcs
     Checking if some PAW data can be deallocated...

     Self-consistent Calculation

     iteration #  1     ecut=    30.00 Ry     beta= 0.70
     Davidson diagonalization with overlap

     ethr =  1.00E-02,  avg # of iterations =  2.0

     total energy              =   -1835.57295510 Ry
     estimated scf accuracy    <      18.32005069 Ry

[...]

     total energy              =   -1848.68818880 Ry
     estimated scf accuracy    <       0.00000565 Ry

     iteration # 52     ecut=    30.00 Ry     beta= 0.70
     Davidson diagonalization with overlap

     ethr =  3.87E-09,  avg # of iterations =  1.0

     End of self-consistent calculation

          k = 0.0000 0.0000 0.0000 (  1465 PWs)   bands (ev):

   -83.3096 -83.3088 -82.9282 -82.9278 -56.0525 -56.0105 -46.6903 -46.6869
   -46.5408 -46.5340 -46.5229 -46.5155 -46.3097 -46.2998 -46.1877 -46.1701
   -46.1318 -46.1302 -28.4053 -28.2759 -28.1900 -28.0104 -27.9713 -27.9293
    -8.5002  -7.6997  -7.6758  -7.4785  -7.4298  -7.3407  -7.2119  -7.1991
     3.5692   4.2026   4.4546   4.7644   5.1849   5.2773   5.5293   5.5857
     5.7508   5.7993   6.0160   6.5941   6.7627   6.8035   6.8537   6.9186
     7.0241   7.2299   7.7673   7.8325   7.9987   8.1522   8.1766   8.4851
     9.5706   9.9084  10.3499  10.6959  10.8384  10.8474  10.9348  10.9851
    11.0210  11.0371  11.1274  11.2160  11.3898  11.4186  11.5818  11.7513
    11.8034  11.8095  11.8104  11.9947  12.1485  12.5817  12.6784  12.9080
    13.3467  13.4176  14.0496  14.9124  15.4556  15.4664  15.8863  18.3353

     occupation numbers
     1.0000   1.0000   1.0000   1.0000   1.0000   1.0000   1.0000   1.0000
     1.0000   1.0000   1.0000   1.0000   1.0000   1.0000   1.0000   1.0000
     1.0000   1.0000   1.0000   1.0000   1.0000   1.0000   1.0000   1.0000
     1.0000   1.0000   1.0000   1.0000   1.0000   1.0000   1.0000   1.0000
     1.0000   1.0000   1.0000   1.0000   1.0000   1.0000   1.0000   1.0000
     1.0000   1.0000   1.0000   1.0000   1.0000   1.0000   1.0000   1.0000
     1.0000   1.0000   1.0000   1.0000   1.0000   1.0000   1.0000   1.0000
     1.0000   1.0000   1.0000   1.0000   1.0000   1.0000   1.0000   1.0000
     1.0000   1.0000   1.0000   1.0000   1.0000   1.0000   1.0000   1.0000
     0.5894   0.2274   0.1832  -0.0000  -0.0000  -0.0000  -0.0000  -0.0000
    -0.0000  -0.0000  -0.0000  -0.0000  -0.0000  -0.0000  -0.0000  -0.0000

     the Fermi energy is    11.8048 ev

!    total energy              =   -1848.68818852 Ry
     estimated scf accuracy    <       0.00000035 Ry
     smearing contrib. (-TS)   =      -0.00062237 Ry
     internal energy E=F+TS    =   -1848.68756614 Ry

     The total energy is F=E-TS. E is the sum of the following terms:
     one-electron contribution =   -1009.37958787 Ry
     hartree contribution      =     579.57305387 Ry
     xc contribution           =    -224.25763419 Ry
     ewald contribution        =   -1118.42690444 Ry
     one-center paw contrib.   =     -76.19649352 Ry
      -> PAW hartree energy AE =     230.37247339 Ry
      -> PAW hartree energy PS =    -229.57453012 Ry
      -> PAW xc energy AE      =    -136.29292899 Ry
      -> PAW xc energy PS      =      59.29849220 Ry
      -> total E_H with PAW    =     580.37099714 Ry
      -> total E_XC with PAW   =    -301.25207098 Ry

     convergence has been achieved in  52 iterations

     Forces acting on atoms (cartesian axes, Ry/au):

     atom    1 type  1   force =     0.01041281    0.00575235   -0.00827737
     atom    2 type  1   force =    -0.01032675   -0.00577572    0.00818317
     atom    3 type  1   force =    -0.00007719    0.00000544   -0.00013823
     atom    4 type  1   force =     0.00004824    0.00010815    0.00012400
     atom    5 type  2   force =     0.00000532   -0.00004641    0.00003021
     atom    6 type  2   force =     0.00005484   -0.00007692   -0.00001544
     atom    7 type  3   force =     0.00538698    0.00202639   -0.04339113
     atom    8 type  3   force =     0.03876664   -0.00956610   -0.02066676
     atom    9 type  3   force =     0.03814184    0.01940670    0.00989521
     atom   10 type  3   force =     0.01180343    0.03776514   -0.01973081
     atom   11 type  3   force =    -0.01184648   -0.03777124    0.01975850
     atom   12 type  3   force =    -0.03816665   -0.01938518   -0.00985001
     atom   13 type  3   force =    -0.03876968    0.00959270    0.02068678
     atom   14 type  3   force =    -0.00543335   -0.00203531    0.04339190
     The non-local contrib.  to forces
     atom    1 type  1   force =     0.03662217    0.02128928   -0.02947994
     atom    2 type  1   force =    -0.03665128   -0.02117342    0.02939800
     atom    3 type  1   force =    -0.00002603    0.00000669   -0.00009918
     atom    4 type  1   force =     0.00006201    0.00006131    0.00006756
     atom    5 type  2   force =    -0.00001319    0.00002881   -0.00000541
     atom    6 type  2   force =    -0.00001833   -0.00000638    0.00002135
     atom    7 type  3   force =     0.30417708    0.15917727    0.33092520
     atom    8 type  3   force =    -0.05209901   -0.23467263    0.10795630
     atom    9 type  3   force =    -0.16654683   -0.09268048   -0.43629392
     atom   10 type  3   force =    -0.22560043    0.08713977    0.10985938
     atom   11 type  3   force =     0.22576857   -0.08719615   -0.11001842
     atom   12 type  3   force =     0.16658816    0.09276029    0.43636028
     atom   13 type  3   force =     0.05201581    0.23464038   -0.10781609
     atom   14 type  3   force =    -0.30417109   -0.15917531   -0.33104269
     The ionic contribution  to forces
     atom    1 type  1   force =    -3.17669338   -1.59694838    2.47207023
     atom    2 type  1   force =     3.17723213    1.59732059   -2.47270693
     atom    3 type  1   force =    -0.00045052    0.00017477    0.00021590
     atom    4 type  1   force =    -0.00008651   -0.00021188    0.00005380
     atom    5 type  2   force =     0.00058171   -0.00099133   -0.00032362
     atom    6 type  2   force =    -0.00033590    0.00112630    0.00018530
     atom    7 type  3   force =    -3.75619959   -2.06137598   -3.15893364
     atom    8 type  3   force =    -0.34533610    4.63557536   -1.30212830
     atom    9 type  3   force =     1.32042590    0.65133593    5.11257942
     atom   10 type  3   force =     3.60591856   -2.89667060   -1.27741889
     atom   11 type  3   force =    -3.60580328    2.89708215    1.27744316
     atom   12 type  3   force =    -1.32070730   -0.65199977   -5.11269199
     atom   13 type  3   force =     0.34526230   -4.63606520    1.30206227
     atom   14 type  3   force =     3.75619198    2.06164804    3.15959330
     The local contribution  to forces
     atom    1 type  1   force =     3.15170322    1.58214591   -2.45201588
     atom    2 type  1   force =    -3.15242006   -1.58260020    2.45288832
     atom    3 type  1   force =     0.00054740   -0.00024079    0.00010119
     atom    4 type  1   force =    -0.00009343    0.00002613   -0.00026111
     atom    5 type  2   force =    -0.00041956    0.00092938    0.00020802
     atom    6 type  2   force =     0.00063382   -0.00101928   -0.00047103
     atom    7 type  3   force =     3.46042703    1.90569992    2.78745028
     atom    8 type  3   force =     0.43633115   -4.41264973    1.17426884
     atom    9 type  3   force =    -1.11688238   -0.54000712   -4.67061650
     atom   10 type  3   force =    -3.37036633    2.84854423    1.14868997
     atom   11 type  3   force =     3.36983243   -2.84878545   -1.14845189
     atom   12 type  3   force =     1.11715549    0.54065033    4.67040412
     atom   13 type  3   force =    -0.43618668    4.41297252   -1.17425047
     atom   14 type  3   force =    -3.46023022   -1.90584461   -2.78796534
     The core correction contribution to forces
     atom    1 type  1   force =    -0.00162905   -0.00089216    0.00129427
     atom    2 type  1   force =     0.00163123    0.00088780   -0.00129349
     atom    3 type  1   force =     0.00000020    0.00000073    0.00000010
     atom    4 type  1   force =     0.00000009    0.00000002   -0.00000077
     atom    5 type  2   force =     0.00000000    0.00000000    0.00000000
     atom    6 type  2   force =     0.00000000    0.00000000    0.00000000
     atom    7 type  3   force =    -0.00318051   -0.00164026   -0.00283173
     atom    8 type  3   force =    -0.00012124    0.00245166   -0.00071864
     atom    9 type  3   force =     0.00121184    0.00071266    0.00433200
     atom   10 type  3   force =     0.00199884   -0.00145007   -0.00074813
     atom   11 type  3   force =    -0.00200119    0.00145071    0.00075035
     atom   12 type  3   force =    -0.00121237   -0.00071345   -0.00433276
     atom   13 type  3   force =     0.00012257   -0.00245086    0.00071659
     atom   14 type  3   force =     0.00318028    0.00164007    0.00283304
     The Hubbard contrib.    to forces
     atom    1 type  1   force =     0.00000000    0.00000000    0.00000000
     atom    2 type  1   force =     0.00000000    0.00000000    0.00000000
     atom    3 type  1   force =     0.00000000    0.00000000    0.00000000
     atom    4 type  1   force =     0.00000000    0.00000000    0.00000000
     atom    5 type  2   force =     0.00000000    0.00000000    0.00000000
     atom    6 type  2   force =     0.00000000    0.00000000    0.00000000
     atom    7 type  3   force =     0.00000000    0.00000000    0.00000000
     atom    8 type  3   force =     0.00000000    0.00000000    0.00000000
     atom    9 type  3   force =     0.00000000    0.00000000    0.00000000
     atom   10 type  3   force =     0.00000000    0.00000000    0.00000000
     atom   11 type  3   force =     0.00000000    0.00000000    0.00000000
     atom   12 type  3   force =     0.00000000    0.00000000    0.00000000
     atom   13 type  3   force =     0.00000000    0.00000000    0.00000000
     atom   14 type  3   force =     0.00000000    0.00000000    0.00000000
     The SCF correction term to forces
     atom    1 type  1   force =     0.00041831    0.00016550   -0.00015663
     atom    2 type  1   force =    -0.00011031   -0.00020269   -0.00011331
     atom    3 type  1   force =    -0.00013980    0.00007183   -0.00036682
     atom    4 type  1   force =     0.00017453    0.00024035    0.00025395
     atom    5 type  2   force =    -0.00013520   -0.00000547    0.00014064
     atom    6 type  2   force =    -0.00021630   -0.00016976    0.00023837
     atom    7 type  3   force =     0.00017141    0.00017324   -0.00001182
     atom    8 type  3   force =     0.00000029   -0.00026298   -0.00005554
     atom    9 type  3   force =    -0.00005823    0.00005351   -0.00011638
     atom   10 type  3   force =    -0.00013876    0.00020960   -0.00012373
     atom   11 type  3   force =     0.00036543   -0.00031471    0.00002473
     atom   12 type  3   force =     0.00001781   -0.00007478    0.00039976
     atom   13 type  3   force =     0.00002476    0.00050365   -0.00003610
     atom   14 type  3   force =    -0.00039585   -0.00029570   -0.00003699

     Total force =     0.126748     Total SCF correction =     0.001380

     Computing stress (Cartesian axis) and pressure

          total   stress  (Ry/bohr**3)                   (kbar)     P=     -728.45
  -0.00492716   0.00018493   0.00006365         -724.81       27.20        9.36
   0.00018493  -0.00516148   0.00003409           27.20     -759.28        5.01
   0.00006365   0.00003409  -0.00476704            9.36        5.01     -701.26

     kinetic stress (kbar)  37491.51     16.21    -60.43
                               16.21  37474.49    -33.56
                              -60.43    -33.56  37449.67

     local   stress (kbar) -16319.80     97.26  -1017.83
                               97.26 -16274.70   -614.83
                            -1017.83   -614.83 -17102.56

     nonloc. stress (kbar)  12861.45    -42.30     33.91
                              -42.30  12919.23     18.03
                               33.91     18.03  12868.00

     hartree stress (kbar)  26565.53     38.06    628.56
                               38.06  26442.86    364.26
                              628.56    364.26  27105.90

     exc-cor stress (kbar)  -7979.63     -0.37      0.33
                               -0.37  -7979.28      0.24
                                0.33      0.24  -7979.58

     corecor stress (kbar)  -1709.34      0.25     -0.26
                                0.25  -1709.70     -0.13
                               -0.26     -0.13  -1709.43

     ewald   stress (kbar) -51634.53    -81.92    425.08
                              -81.92 -51632.18    271.00
                              425.08    271.00 -51333.27

     hubbard stress (kbar)      0.00      0.00      0.00
                                0.00      0.00      0.00
                                0.00      0.00      0.00

     DFT-D   stress (kbar)      0.00      0.00      0.00
                                0.00      0.00      0.00
                                0.00      0.00      0.00

     XDM     stress (kbar)      0.00      0.00      0.00
                                0.00      0.00      0.00
                                0.00      0.00      0.00

     dft-nl  stress (kbar)      0.00      0.00      0.00
                                0.00      0.00      0.00
                                0.00      0.00      0.00

     TS-vdW  stress (kbar)      0.00      0.00      0.00
                                0.00      0.00      0.00
                                0.00      0.00      0.00

[...]

                                0.00      0.00      0.00

     Writing all to output data dir new_calculations/myprefix.save/

     General routines

     Parallel routines

     PAW routines

   This run was terminated on:   6:23:38  20May2023

   JOB DONE.