     Program PWSCF v.7.0 starts on 21May2023 at 10: 5:44

     Reading input from espresso_21812.pwi
Warning: card &CELL ignored
Warning: card / ignored

     Current dimensions of program PWSCF are:
     Max number of different atomic species (ntypx) = 10
     Max number of k-points (npk) =  40000
     Max angular momentum in pseudopotentials (lmaxx) =  4

     gamma-point specific algorithms are used
     Message from routine setup:
     using ibrav=0 with symmetry is DISCOURAGED, use correct ibrav instead

     Subspace diagonalization in iterative solution of the eigenvalue problem:
     a serial algorithm will be used

     Using Slab Decomposition

     bravais-lattice index     =            0
     lattice parameter (alat)  =       7.6698  a.u.
     unit-cell volume          =    1497.5084 (a.u.)^3
     number of atoms/cell      =            8
     number of atomic types    =            2
     number of electrons       =        56.00
     number of Kohn-Sham states=           34
     kinetic-energy cutoff     =      30.0000  Ry
     charge density cutoff     =     240.0000  Ry
     scf convergence threshold =      1.0E-06
     mixing beta               =       0.7000
     number of iterations used =            8  plain     mixing
     Exchange-correlation= PBE
                           (   1   4   3   4   0   0   0)

     celldm(1)=   7.669758  celldm(2)=   0.000000  celldm(3)=   0.000000
     celldm(4)=   0.000000  celldm(5)=   0.000000  celldm(6)=   0.000000

     crystal axes: (cart. coord. in units of alat)
               a(1) = (   1.000000   0.000000   0.000000 )
               a(2) = (   0.000000   1.512501   0.000000 )
               a(3) = (   0.000000   0.000000   2.194466 )

     reciprocal axes: (cart. coord. in units 2 pi/alat)
               b(1) = (  1.000000  0.000000  0.000000 )
               b(2) = (  0.000000  0.661157  0.000000 )
               b(3) = (  0.000000  0.000000  0.455692 )

     PseudoPot. # 1 for Sr read from file:
     /home/pragov/projects/rrg-bengioy-ad/pragov/crystal_structure_design/SSSP/Sr_pbe_v1.uspp.F.UPF
     MD5 check sum: 6b418c05fbe9db5448babca5e47b7a5b
     Pseudo is Ultrasoft + core correction, Zval = 10.0
     Generated by new atomic code, or converted to UPF format
     Using radial grid of  883 points,  6 beta functions with:
                l(1) =   0
                l(2) =   0
                l(3) =   1
                l(4) =   1
                l(5) =   2
                l(6) =   2
     Q(r) pseudized with  6 coefficients,  rinner =    1.400   1.400   1.400
                                                       1.400   1.400

     PseudoPot. # 2 for Si read from file:
     /home/pragov/projects/rrg-bengioy-ad/pragov/crystal_structure_design/SSSP/Si.pbe-n-rrkjus_psl.1.0.0.UPF
     MD5 check sum: 0b0bb1205258b0d07b9f9672cf965d36
     Pseudo is Ultrasoft + core correction, Zval =  4.0
     Generated using "atomic" code by A. Dal Corso  v.5.1
     Using radial grid of 1141 points,  6 beta functions with:
                l(1) =   0
                l(2) =   0
                l(3) =   1
                l(4) =   1
                l(5) =   2
                l(6) =   2
     Q(r) pseudized with 0 coefficients

     atomic species   valence    mass     pseudopotential
        Sr            10.00    87.62000     Sr( 1.00)
        Si             4.00    28.08500     Si( 1.00)

      8 Sym. Ops., with inversion, found ( 6 have fractional translation)

                                    s                        frac. trans.

      isym =  1     identity

 cryst.   s( 1) = (     1          0          0      )
                  (     0          1          0      )
                  (     0          0          1      )

 cart.    s( 1) = (  1.0000000  0.0000000  0.0000000 )
                  (  0.0000000  1.0000000  0.0000000 )
                  (  0.0000000  0.0000000  1.0000000 )

      isym =  2     180 deg rotation - cart. axis [0,0,1]

 cryst.   s( 2) = (    -1          0          0      )    f =(  0.5000000 )
                  (     0         -1          0      )       ( -0.5000000 )
                  (     0          0          1      )       (  0.5000000 )

 cart.    s( 2) = ( -1.0000000  0.0000000  0.0000000 )    f =(  0.5000000 )
                  (  0.0000000 -1.0000000  0.0000000 )       ( -0.7562503 )
                  (  0.0000000  0.0000000  1.0000000 )       (  1.0972328 )

[...]

      isym =  4     180 deg rotation - cart. axis [1,0,0]

[...]

      isym =  5     inversion

 cryst.   s( 5) = (    -1          0          0      )
                  (     0         -1          0      )
                  (     0          0         -1      )

 cart.    s( 5) = ( -1.0000000  0.0000000  0.0000000 )
                  (  0.0000000 -1.0000000  0.0000000 )
                  (  0.0000000  0.0000000 -1.0000000 )

      isym =  6     inv. 180 deg rotation - cart. axis [0,0,1]

[...]

      isym =  8     inv. 180 deg rotation - cart. axis [1,0,0]

 cryst.   s( 8) = (    -1          0          0      )    f =(  0.5000000 )
                  (     0          1          0      )       (  0.0000000 )
                  (     0          0          1      )       (  0.0000000 )

 cart.    s( 8) = ( -1.0000000  0.0000000  0.0000000 )    f =(  0.5000000 )
                  (  0.0000000  1.0000000  0.0000000 )       (  0.0000000 )
                  (  0.0000000  0.0000000  1.0000000 )       (  0.0000000 )

   Cartesian axes

     site n.     atom                  positions (alat units)
         1           Sr  tau(   1) = (   0.2500000   0.5929093   1.4934348  )
         2           Sr  tau(   2) = (   0.7500000   0.9195913   0.7010308  )
         3           Sr  tau(   3) = (   0.7500000   1.3491596   1.7982636  )
         4           Sr  tau(   4) = (   0.2500000   0.1633410   0.3962020  )
         5           Si  tau(   5) = (   0.2500000   1.3505359   1.1672999  )
         6           Si  tau(   6) = (   0.7500000   0.1619646   1.0271657  )
         7           Si  tau(   7) = (   0.7500000   0.5942857   2.1243985  )
         8           Si  tau(   8) = (   0.2500000   0.9182149   0.0700671  )

   Crystallographic axes

     site n.     atom                  positions (cryst. coord.)
         1           Sr  tau(   1) = (  0.2500000  0.3920060  0.6805460  )
         2           Sr  tau(   2) = (  0.7500000  0.6079940  0.3194540  )
         3           Sr  tau(   3) = (  0.7500000  0.8920060  0.8194540  )
         4           Sr  tau(   4) = (  0.2500000  0.1079940  0.1805460  )
         5           Si  tau(   5) = (  0.2500000  0.8929160  0.5319290  )
         6           Si  tau(   6) = (  0.7500000  0.1070840  0.4680710  )
         7           Si  tau(   7) = (  0.7500000  0.3929160  0.9680710  )
         8           Si  tau(   8) = (  0.2500000  0.6070840  0.0319290  )

     number of k points=     1  Methfessel-Paxton smearing, width (Ry)=  0.0010
                       cart. coord. in units 2pi/alat
        k(    1) = (   0.0000000   0.0000000   0.0000000), wk =   2.0000000

                       cryst. coord.
        k(    1) = (   0.0000000   0.0000000   0.0000000), wk =   2.0000000

     Check: negative core charge=   -0.000003

     Initial potential from superposition of free atoms

     starting charge      55.8632, renormalised to      56.0000

     negative rho (up, down):  2.554E-01 0.000E+00
     Starting wfcs are   68 randomized atomic wfcs

     Self-consistent Calculation

     iteration #  1     ecut=    30.00 Ry     beta= 0.70
     Davidson diagonalization with overlap

     ethr =  1.00E-02,  avg # of iterations =  2.0

     Threshold (ethr) on eigenvalues was too large:
     Diagonalizing with lowered threshold

     Davidson diagonalization with overlap

[...]

     negative rho (up, down):  2.609E-01 0.000E+00

     total energy              =    -326.13037705 Ry
     estimated scf accuracy    <       0.48821382 Ry

[...]

     total energy              =    -326.33751263 Ry
     estimated scf accuracy    <       0.00000137 Ry

     iteration # 10     ecut=    30.00 Ry     beta= 0.70
     Davidson diagonalization with overlap

     ethr =  2.45E-09,  avg # of iterations =  2.0

[...]

     End of self-consistent calculation

          k = 0.0000 0.0000 0.0000 (  2063 PWs)   bands (ev):

   -27.6531 -27.6408 -27.6163 -27.6065  -9.9421  -9.9400  -9.8432  -9.7778
    -9.6895  -9.6545  -9.6289  -9.5988  -9.5897  -9.5890  -9.5143  -9.4830
    -1.9665  -1.4584   2.5797   2.7639   4.0414   5.5007   5.6370   5.7028
     6.0256   6.0981   6.9125   7.4426   8.5560   8.6844   9.6627   9.7098
     9.8451   9.9180

     occupation numbers
     1.0000   1.0000   1.0000   1.0000   1.0000   1.0000   1.0000   1.0000
     1.0000   1.0000   1.0000   1.0000   1.0000   1.0000   1.0000   1.0000
     1.0000   1.0000   1.0000   1.0000   1.0000   1.0000   1.0000   1.0000
     1.0000   1.0000   1.0000   1.0000  -0.0000  -0.0000  -0.0000  -0.0000
    -0.0000  -0.0000

     the Fermi energy is     7.6888 ev

!    total energy              =    -326.33751269 Ry
     estimated scf accuracy    <       0.00000026 Ry
     smearing contrib. (-TS)   =       0.00000000 Ry
     internal energy E=F+TS    =    -326.33751269 Ry

     The total energy is F=E-TS. E is the sum of the following terms:
     one-electron contribution =     -57.50095598 Ry
     hartree contribution      =      46.61981976 Ry
     xc contribution           =     -97.57345078 Ry
     ewald contribution        =    -217.88292569 Ry

     convergence has been achieved in  10 iterations

     negative rho (up, down):  2.679E-01 0.000E+00

     Forces acting on atoms (cartesian axes, Ry/au):

     atom    1 type  1   force =     0.00000000   -0.01076996    0.01832315
     atom    2 type  1   force =     0.00000000    0.01076996   -0.01832315
     atom    3 type  1   force =     0.00000000   -0.01076996   -0.01832315
     atom    4 type  1   force =     0.00000000    0.01076996    0.01832315
     atom    5 type  2   force =     0.00000000    0.04164127   -0.03168026
     atom    6 type  2   force =     0.00000000   -0.04164127    0.03168026
     atom    7 type  2   force =     0.00000000    0.04164127    0.03168026
     atom    8 type  2   force =     0.00000000   -0.04164127   -0.03168026
     The non-local contrib.  to forces
     atom    1 type  1   force =     0.00000000   -0.02271254    0.03992140
     atom    2 type  1   force =     0.00000000    0.02271254   -0.03992140
     atom    3 type  1   force =     0.00000000   -0.02271254   -0.03992140
     atom    4 type  1   force =     0.00000000    0.02271254    0.03992140
     atom    5 type  2   force =     0.00000000    0.03371108    0.00743813
     atom    6 type  2   force =     0.00000000   -0.03371108   -0.00743813
     atom    7 type  2   force =     0.00000000    0.03371108   -0.00743813
     atom    8 type  2   force =     0.00000000   -0.03371108    0.00743813
     The ionic contribution  to forces
     atom    1 type  1   force =     0.00000000    0.23255290   -0.43424402
     atom    2 type  1   force =     0.00000000   -0.23255290    0.43424402
     atom    3 type  1   force =    -0.00000000    0.23255290    0.43424402
     atom    4 type  1   force =     0.00000000   -0.23255290   -0.43424402
     atom    5 type  2   force =     0.00000000   -0.40503429    0.10519890
     atom    6 type  2   force =    -0.00000000    0.40503429   -0.10519890
     atom    7 type  2   force =    -0.00000000   -0.40503429   -0.10519890
     atom    8 type  2   force =     0.00000000    0.40503429    0.10519890
     The local contribution  to forces
     atom    1 type  1   force =    -0.00000958   -0.22239667    0.41475830
     atom    2 type  1   force =     0.00000573    0.22196169   -0.41522330
     atom    3 type  1   force =    -0.00000053   -0.22178649   -0.41547085
     atom    4 type  1   force =    -0.00000431    0.22226579    0.41605475
     atom    5 type  2   force =     0.00000133    0.41551830   -0.14327053
     atom    6 type  2   force =     0.00000006   -0.41527863    0.14289013
     atom    7 type  2   force =     0.00000064    0.41523795    0.14324621
     atom    8 type  2   force =    -0.00000233   -0.41544151   -0.14282989
     The core correction contribution to forces
     atom    1 type  1   force =    -0.00000018    0.00163640   -0.00281770
     atom    2 type  1   force =     0.00000102   -0.00163076    0.00281411
     atom    3 type  1   force =    -0.00000033    0.00164090    0.00278330
     atom    4 type  1   force =     0.00000059   -0.00163855   -0.00277839
     atom    5 type  2   force =     0.00000024   -0.00247832   -0.00122511
     atom    6 type  2   force =     0.00000023    0.00247873    0.00122742
     atom    7 type  2   force =    -0.00000004   -0.00248039    0.00122732
     atom    8 type  2   force =    -0.00000021    0.00247866   -0.00122348
     The Hubbard contrib.    to forces
     atom    1 type  1   force =     0.00000000    0.00000000    0.00000000
     atom    2 type  1   force =     0.00000000    0.00000000    0.00000000
     atom    3 type  1   force =     0.00000000    0.00000000    0.00000000
     atom    4 type  1   force =     0.00000000    0.00000000    0.00000000
     atom    5 type  2   force =     0.00000000    0.00000000    0.00000000
     atom    6 type  2   force =     0.00000000    0.00000000    0.00000000
     atom    7 type  2   force =     0.00000000    0.00000000    0.00000000
     atom    8 type  2   force =     0.00000000    0.00000000    0.00000000
     The SCF correction term to forces
     atom    1 type  1   force =     0.00000448    0.00012221    0.00044656
     atom    2 type  1   force =    -0.00000405    0.00035738   -0.00002745
     atom    3 type  1   force =    -0.00000156   -0.00043467   -0.00016285
     atom    4 type  1   force =     0.00000177   -0.00009256   -0.00036747
     atom    5 type  2   force =     0.00000036   -0.00006347    0.00018374
     atom    6 type  2   force =    -0.00000001   -0.00017079    0.00021752
     atom    7 type  2   force =     0.00000045    0.00019464   -0.00013678
     atom    8 type  2   force =     0.00000054    0.00000433   -0.00023205

     Total force =     0.112949     Total SCF correction =     0.000963

     Computing stress (Cartesian axis) and pressure

     negative rho (up, down):  2.679E-01 0.000E+00
          total   stress  (Ry/bohr**3)                   (kbar)     P=       16.11
   0.00057707   0.00000000   0.00000000           84.89        0.00        0.00
   0.00000000  -0.00004483   0.00000000            0.00       -6.60        0.00
   0.00000000   0.00000000  -0.00020366            0.00        0.00      -29.96

     kinetic stress (kbar)   6377.53      0.00      0.00
                                0.00   6132.89      0.00
                                0.00      0.00   6159.46

     local   stress (kbar)  -4089.68     -0.00     -0.00
                               -0.00  -4069.54      0.00
                               -0.00      0.00  -3664.21

     nonloc. stress (kbar)   5286.54      0.00      0.00
                                0.00   5333.25      0.00
                                0.00      0.00   5304.68

     hartree stress (kbar)   1562.52      0.00      0.00
                                0.00   1576.36      0.00
                                0.00      0.00   1440.73

     exc-cor stress (kbar)   3393.23      0.00      0.00
                                0.00   3388.22     -0.00
                                0.00     -0.00   3389.19

     corecor stress (kbar)  -5358.12     -0.00      0.00
                               -0.00  -5356.73      0.00
                                0.00      0.00  -5354.63

     ewald   stress (kbar)  -7087.12     -0.00      0.00
                               -0.00  -7011.04      0.00
                                0.00      0.00  -7305.18

     hubbard stress (kbar)      0.00      0.00      0.00
                                0.00      0.00      0.00
                                0.00      0.00      0.00

     DFT-D   stress (kbar)      0.00      0.00      0.00
                                0.00      0.00      0.00
                                0.00      0.00      0.00

     XDM     stress (kbar)      0.00      0.00      0.00
                                0.00      0.00      0.00
                                0.00      0.00      0.00

     dft-nl  stress (kbar)      0.00      0.00      0.00
                                0.00      0.00      0.00
                                0.00      0.00      0.00

     TS-vdW  stress (kbar)      0.00      0.00      0.00
                                0.00      0.00      0.00
                                0.00      0.00      0.00

[...]

                                0.00      0.00      0.00

     Writing all to output data dir new_calculations/myprefix.save/

     General routines

     Parallel routines

   This run was terminated on:  10: 5:56  21May2023

   JOB DONE.