     Program PWSCF v.7.0 starts on 21May2023 at 12:47:22

     Reading input from espresso_20616.pwi
Warning: card &CELL ignored
Warning: card / ignored

     Current dimensions of program PWSCF are:
     Max number of different atomic species (ntypx) = 10
     Max number of k-points (npk) =  40000
     Max angular momentum in pseudopotentials (lmaxx) =  4

     gamma-point specific algorithms are used
     Message from routine setup:
     using ibrav=0 with symmetry is DISCOURAGED, use correct ibrav instead

     Subspace diagonalization in iterative solution of the eigenvalue problem:
     a serial algorithm will be used

     Using Slab Decomposition

     bravais-lattice index     =            0
     lattice parameter (alat)  =      14.5748  a.u.
     unit-cell volume          =    2189.2348 (a.u.)^3
     number of atoms/cell      =           10
     number of atomic types    =            4
     number of electrons       =        96.00
     number of Kohn-Sham states=           58
     kinetic-energy cutoff     =      30.0000  Ry
     charge density cutoff     =     240.0000  Ry
     scf convergence threshold =      1.0E-06
     mixing beta               =       0.7000
     number of iterations used =            8  plain     mixing
     Exchange-correlation=  SLA  PW   PBX  PBC
                           (   1   4   3   4   0   0   0)

     celldm(1)=  14.574794  celldm(2)=   0.000000  celldm(3)=   0.000000
     celldm(4)=   0.000000  celldm(5)=   0.000000  celldm(6)=   0.000000

     crystal axes: (cart. coord. in units of alat)
               a(1) = (   1.000000   0.000000   0.000000 )
               a(2) = (   0.500000   0.866025   0.000000 )
               a(3) = (   0.500000   0.288675   0.816497 )

     reciprocal axes: (cart. coord. in units 2 pi/alat)
               b(1) = (  1.000000 -0.577350 -0.408248 )
               b(2) = (  0.000000  1.154701 -0.408248 )
               b(3) = (  0.000000  0.000000  1.224745 )

     PseudoPot. # 1 for Cs read from file:
     /home/pragov/projects/rrg-bengioy-ad/pragov/crystal_structure_design/SSSP/Cs_pbe_v1.uspp.F.UPF
     MD5 check sum: 3476d69cb178dfad3ffaa59df4e07ca4
     Pseudo is Ultrasoft + core correction, Zval =  9.0
     Generated by new atomic code, or converted to UPF format
     Using radial grid of  905 points,  6 beta functions with:
                l(1) =   0
                l(2) =   0
                l(3) =   1
                l(4) =   1
                l(5) =   2
                l(6) =   2
     Q(r) pseudized with  6 coefficients,  rinner =    1.500   1.500   1.500
                                                       1.500   1.500

     PseudoPot. # 2 for Eu read from file:
     /home/pragov/projects/rrg-bengioy-ad/pragov/crystal_structure_design/SSSP/Eu.GGA-PBE-paw-v1.0.UPF
     MD5 check sum: acec5fd9176fb57ec8e299eae1ecaf48
     Pseudo is Projector augmented-wave + core cor, Zval = 17.0
     Generated using ATOMPAW code
     Shape of augmentation charge: BESSEL
     Using radial grid of 1109 points,  8 beta functions with:
                l(1) =   0
                l(2) =   0
                l(3) =   1
                l(4) =   1
                l(5) =   2
                l(6) =   2
                l(7) =   3
                l(8) =   3
     Q(r) pseudized with 0 coefficients

     PseudoPot. # 3 for Au read from file:
     /home/pragov/projects/rrg-bengioy-ad/pragov/crystal_structure_design/SSSP/Au_ONCV_PBE-1.0.oncvpsp.upf
     MD5 check sum: d14007822ba0e19f0206237467fc06c2
     Pseudo is Norm-conserving, Zval = 19.0
     Generated using ONCVPSP code by D. R. Hamann
     Using radial grid of 1278 points,  8 beta functions with:
                l(1) =   0
                l(2) =   0
                l(3) =   1
                l(4) =   1
                l(5) =   2
                l(6) =   2
                l(7) =   3
                l(8) =   3

     PseudoPot. # 4 for Cl read from file:
     /home/pragov/projects/rrg-bengioy-ad/pragov/crystal_structure_design/SSSP/cl_pbe_v1.4.uspp.F.UPF
     MD5 check sum: fc6f6913ecf08c9257cb748ef0700058
     Pseudo is Ultrasoft + core correction, Zval =  7.0
     Generated by new atomic code, or converted to UPF format
     Using radial grid of  909 points,  6 beta functions with:
                l(1) =   0
                l(2) =   0
                l(3) =   1
                l(4) =   1
                l(5) =   2
                l(6) =   2
     Q(r) pseudized with  8 coefficients,  rinner =    1.300   1.300   1.300
                                                       1.300   1.300

     atomic species   valence    mass     pseudopotential
        Cs             9.00   132.90545     Cs( 1.00)
        Eu            17.00   151.96400     Eu( 1.00)
        Au            19.00   196.96657     Au( 1.00)
        Cl             7.00    35.45000     Cl( 1.00)

     12 Sym. Ops., with inversion, found

                                    s                        frac. trans.

      isym =  1     identity

 cryst.   s( 1) = (     1          0          0      )
                  (     0          1          0      )
                  (     0          0          1      )

 cart.    s( 1) = (  1.0000000 -0.0000000 -0.0000000 )
                  (  0.0000000  1.0000000 -0.0000000 )
                  (  0.0000000  0.0000000  1.0000000 )

      isym =  2     180 deg rotation - cart. axis [1,0,0]

[...]

      isym =  3     120 deg rotation - cryst. axis [0,0,1]

[...]

      isym =  6     180 deg rotation - cryst. axis [1,1,0]

[...]

      isym =  7     inversion

[...]

      isym =  8     inv. 180 deg rotation - cart. axis [1,0,0]

[...]

      isym =  9     inv. 120 deg rotation - cryst. axis [0,0,1]

 cryst.   s( 9) = (     1         -1          0      )
                  (     1          0          0      )
                  (     1          0         -1      )

 cart.    s( 9) = (  0.4999999  0.8660254 -0.0000001 )
                  ( -0.8660254  0.5000001  0.0000000 )
                  (  0.0000000  0.0000000 -1.0000000 )

[...]

 cryst.   s(10) = (     0          1          0      )
                  (    -1          1          0      )
                  (     0          1         -1      )

 cart.    s(10) = (  0.5000001 -0.8660254 -0.0000001 )
                  (  0.8660254  0.4999999 -0.0000000 )
                  (  0.0000000  0.0000000 -1.0000000 )

[...]

      isym = 12     inv. 180 deg rotation - cryst. axis [1,1,0]

 cryst.   s(12) = (     1         -1          0      )
                  (     0         -1          0      )
                  (     0         -1          1      )

 cart.    s(12) = (  0.4999999 -0.8660255  0.0000000 )
                  ( -0.8660254 -0.4999999  0.0000000 )
                  (  0.0000000  0.0000000  1.0000000 )

   Cartesian axes

     site n.     atom                  positions (alat units)
         1           Cs  tau(   1) = (   0.5000000   0.2886751   0.2041242  )
         2           Cs  tau(   2) = (   1.5000001   0.8660254   0.6123725  )
         3           Eu  tau(   3) = (   0.0000000   0.0000000   0.0000000  )
         4           Au  tau(   4) = (   1.0000001   0.5773503   0.4082483  )
         5           Cl  tau(   5) = (   0.7527761   0.7200851   0.2063908  )
         6           Cl  tau(   6) = (   1.2472241   0.7200851   0.2063908  )
         7           Cl  tau(   7) = (   1.2472241   0.4346154   0.6101059  )
         8           Cl  tau(   8) = (   1.0000000   0.2918806   0.2063908  )
         9           Cl  tau(   9) = (   1.0000001   0.8628200   0.6101059  )
        10           Cl  tau(  10) = (   0.7527761   0.4346154   0.6101059  )

   Crystallographic axes

     site n.     atom                  positions (cryst. coord.)
         1           Cs  tau(   1) = (  0.2500000  0.2500000  0.2500000  )
         2           Cs  tau(   2) = (  0.7500000  0.7500000  0.7500000  )
         3           Eu  tau(   3) = (  0.0000000  0.0000000  0.0000000  )
         4           Au  tau(   4) = (  0.5000000  0.5000000  0.5000000  )
         5           Cl  tau(   5) = (  0.2527760  0.7472240  0.2527760  )
         6           Cl  tau(   6) = (  0.7472240  0.7472240  0.2527760  )
         7           Cl  tau(   7) = (  0.7472240  0.2527760  0.7472240  )
         8           Cl  tau(   8) = (  0.7472240  0.2527760  0.2527760  )
         9           Cl  tau(   9) = (  0.2527760  0.7472240  0.7472240  )
        10           Cl  tau(  10) = (  0.2527760  0.2527760  0.7472240  )

     number of k points=     1  Methfessel-Paxton smearing, width (Ry)=  0.0010
                       cart. coord. in units 2pi/alat
        k(    1) = (   0.0000000   0.0000000   0.0000000), wk =   2.0000000

                       cryst. coord.
        k(    1) = (   0.0000000   0.0000000   0.0000000), wk =   2.0000000

     Initial potential from superposition of free atoms

     starting charge      95.9164, renormalised to      96.0000

     negative rho (up, down):  8.835E-02 0.000E+00
     Starting wfcs are   92 randomized atomic wfcs
     Checking if some PAW data can be deallocated...

     Self-consistent Calculation

     iteration #  1     ecut=    30.00 Ry     beta= 0.70
     Davidson diagonalization with overlap

     ethr =  1.00E-02,  avg # of iterations =  3.0

     negative rho (up, down):  9.032E-02 0.000E+00

     total energy              =   -1227.76553761 Ry
     estimated scf accuracy    <      14.05390006 Ry

[...]

     ethr =  2.35E-05,  avg # of iterations =  3.0
     Minimization algorithm failed to find Fermi energy: reverting to bisection
     Possible cause: smearing is larger than the electronic band-gap.

[...]

     total energy              =   -1243.48428710 Ry
     estimated scf accuracy    <       0.00000414 Ry

     iteration # 42     ecut=    30.00 Ry     beta= 0.70
     Davidson diagonalization with overlap

     ethr =  4.31E-09,  avg # of iterations =  2.0

[...]

     End of self-consistent calculation

          k = 0.0000 0.0000 0.0000 (  2993 PWs)   bands (ev):

   -99.7761 -50.8052 -50.8051 -50.8051 -36.1795 -16.2803 -16.2715 -15.0334
   -15.0332 -15.0309  -9.9162  -9.5819  -9.5816  -9.4756  -9.4753  -9.4750
    -3.1978  -3.1978  -3.1978  -3.1104  -3.1104  -3.1104  -0.4225   0.4873
     0.4875   1.2658   1.2659   1.2660   1.3655   1.3657   1.3658   2.3804
     2.3806   2.3807   2.5736   2.5736   2.5736   2.9083   2.9085   2.9086
     2.9885   2.9886   2.9886   4.1100   4.1101   4.3684   4.3725   4.3726
     4.5849   4.5849   4.5863   4.9645   6.6991   8.5378   8.5378   8.5385
     8.7931   9.2717

     occupation numbers
     1.0000   1.0000   1.0000   1.0000   1.0000   1.0000   1.0000   1.0000
     1.0000   1.0000   1.0000   1.0000   1.0000   1.0000   1.0000   1.0000
     1.0000   1.0000   1.0000   1.0000   1.0000   1.0000   1.0000   1.0000
     1.0000   1.0000   1.0000   1.0000   1.0000   1.0000   1.0000   1.0000
     1.0000   1.0000   1.0000   1.0000   1.0000   1.0000   1.0000   1.0000
     1.0000   1.0000   1.0000   1.0000   1.0000   1.0000   1.0000   1.0000
    -0.0000  -0.0000  -0.0000  -0.0000  -0.0000  -0.0000  -0.0000  -0.0000
    -0.0000  -0.0000

     the Fermi energy is     4.4969 ev

!    total energy              =   -1243.48428753 Ry
     estimated scf accuracy    <       0.00000032 Ry
     smearing contrib. (-TS)   =       0.00000000 Ry
     internal energy E=F+TS    =   -1243.48428753 Ry

     The total energy is F=E-TS. E is the sum of the following terms:
     one-electron contribution =    -426.27242290 Ry
     hartree contribution      =     247.28809755 Ry
     xc contribution           =    -162.96422140 Ry
     ewald contribution        =    -444.34506987 Ry
     one-center paw contrib.   =    -457.19067091 Ry
      -> PAW hartree energy AE =     155.18253565 Ry
      -> PAW hartree energy PS =    -148.22937924 Ry
      -> PAW xc energy AE      =    -483.12312818 Ry
      -> PAW xc energy PS      =      18.97930086 Ry
      -> total E_H with PAW    =     254.24125396 Ry
      -> total E_XC with PAW   =    -627.10804873 Ry

     convergence has been achieved in  42 iterations

     negative rho (up, down):  8.757E-02 0.000E+00

     Forces acting on atoms (cartesian axes, Ry/au):

     atom    1 type  1   force =     0.00000000    0.00000000   -0.00000603
     atom    2 type  1   force =     0.00000000    0.00000000    0.00000603
     atom    3 type  2   force =     0.00000000    0.00000000   -0.00000000
     atom    4 type  3   force =    -0.00000000   -0.00000000    0.00000000
     atom    5 type  4   force =    -0.01908645    0.01101957   -0.01558647
     atom    6 type  4   force =     0.01908645    0.01101957   -0.01558647
     atom    7 type  4   force =     0.01908645   -0.01101957    0.01558647
     atom    8 type  4   force =     0.00000000   -0.02203913   -0.01558647
     atom    9 type  4   force =     0.00000000    0.02203913    0.01558647
     atom   10 type  4   force =    -0.01908645   -0.01101957    0.01558647
     The non-local contrib.  to forces
     atom    1 type  1   force =     0.00000000   -0.00000000    0.00000319
     atom    2 type  1   force =     0.00000000    0.00000000   -0.00000319
     atom    3 type  2   force =     0.00000000    0.00000000    0.00000000
     atom    4 type  3   force =     0.00000000    0.00000000   -0.00000000
     atom    5 type  4   force =     0.01608740   -0.00928807    0.01313063
     atom    6 type  4   force =    -0.01608740   -0.00928806    0.01313063
     atom    7 type  4   force =    -0.01608740    0.00928807   -0.01313063
     atom    8 type  4   force =     0.00000000    0.01857613    0.01313063
     atom    9 type  4   force =     0.00000000   -0.01857613   -0.01313063
     atom   10 type  4   force =     0.01608740    0.00928806   -0.01313063
     The ionic contribution  to forces
     atom    1 type  1   force =     0.00000011   -0.00000001   -0.00000010
     atom    2 type  1   force =    -0.00000011    0.00000001    0.00000010
     atom    3 type  2   force =     0.00000000    0.00000000   -0.00000000
     atom    4 type  3   force =     0.00000000    0.00000000   -0.00000000
     atom    5 type  4   force =    -1.05824713    0.61097926   -0.86405525
     atom    6 type  4   force =     1.05824713    0.61097928   -0.86405523
     atom    7 type  4   force =     1.05824713   -0.61097926    0.86405525
     atom    8 type  4   force =    -0.00000015   -1.22195853   -0.86405523
     atom    9 type  4   force =     0.00000015    1.22195853    0.86405523
     atom   10 type  4   force =    -1.05824713   -0.61097928    0.86405524
     The local contribution  to forces
     atom    1 type  1   force =     0.00013792    0.00006557   -0.00001194
     atom    2 type  1   force =    -0.00012921   -0.00005502    0.00003274
     atom    3 type  2   force =    -0.00005737   -0.00007727   -0.00011657
     atom    4 type  3   force =    -0.00002630   -0.00004329   -0.00006626
     atom    5 type  4   force =     1.02468238   -0.59167622    0.83661636
     atom    6 type  4   force =    -1.02472255   -0.59161660    0.83669920
     atom    7 type  4   force =    -1.02466620    0.59163749   -0.83661345
     atom    8 type  4   force =    -0.00007886    1.18323095    0.83661717
     atom    9 type  4   force =     0.00006178   -1.18316937   -0.83659937
     atom   10 type  4   force =     1.02471023    0.59158836   -0.83672128
     The core correction contribution to forces
     atom    1 type  1   force =     0.00000216    0.00000027   -0.00000097
     atom    2 type  1   force =    -0.00000202   -0.00000007    0.00000017
     atom    3 type  2   force =    -0.00000000   -0.00000000   -0.00000000
     atom    4 type  3   force =     0.00000000    0.00000000    0.00000000
     atom    5 type  4   force =    -0.00144728    0.00083710   -0.00118185
     atom    6 type  4   force =     0.00144650    0.00083548   -0.00118152
     atom    7 type  4   force =     0.00144683   -0.00083696    0.00118152
     atom    8 type  4   force =     0.00000075   -0.00167124   -0.00118154
     atom    9 type  4   force =    -0.00000080    0.00167132    0.00118133
     atom   10 type  4   force =    -0.00144650   -0.00083594    0.00118164
     The Hubbard contrib.    to forces
     atom    1 type  1   force =     0.00000000    0.00000000    0.00000000
     atom    2 type  1   force =     0.00000000    0.00000000    0.00000000
     atom    3 type  2   force =     0.00000000    0.00000000    0.00000000
     atom    4 type  3   force =     0.00000000    0.00000000    0.00000000
     atom    5 type  4   force =     0.00000000    0.00000000    0.00000000
     atom    6 type  4   force =     0.00000000    0.00000000    0.00000000
     atom    7 type  4   force =     0.00000000    0.00000000    0.00000000
     atom    8 type  4   force =     0.00000000    0.00000000    0.00000000
     atom    9 type  4   force =     0.00000000    0.00000000    0.00000000
     atom   10 type  4   force =     0.00000000    0.00000000    0.00000000
     The SCF correction term to forces
     atom    1 type  1   force =    -0.00011102   -0.00006068    0.00000331
     atom    2 type  1   force =     0.00010328    0.00005255   -0.00002429
     atom    3 type  2   force =     0.00007080    0.00007335    0.00011090
     atom    4 type  3   force =     0.00002443    0.00004413    0.00008033
     atom    5 type  4   force =    -0.00015897    0.00020674   -0.00009838
     atom    6 type  4   force =     0.00018033    0.00010269   -0.00018040
     atom    7 type  4   force =     0.00013796   -0.00016961    0.00009462
     atom    8 type  4   force =     0.00010284   -0.00021704   -0.00009105
     atom    9 type  4   force =    -0.00008809    0.00016610    0.00007633
     atom   10 type  4   force =    -0.00016584   -0.00008431    0.00020780

     Total force =     0.066121     Total SCF correction =     0.000676

     Computing stress (Cartesian axis) and pressure

     negative rho (up, down):  8.757E-02 0.000E+00
          total   stress  (Ry/bohr**3)                   (kbar)     P=      -45.82
  -0.00031105   0.00000000   0.00000000          -45.76        0.00        0.00
   0.00000000  -0.00031105   0.00000000            0.00      -45.76        0.00
   0.00000000   0.00000000  -0.00031242            0.00        0.00      -45.96

     kinetic stress (kbar)   8685.04     -0.00     -0.00
                               -0.00   8685.04     -0.00
                               -0.00     -0.00   8685.08

     local   stress (kbar)  -8077.46      0.01     -0.01
                                0.01  -8077.59     -0.06
                               -0.01     -0.06  -8077.30

     nonloc. stress (kbar)   6125.89     -0.00     -0.00
                               -0.00   6125.89     -0.00
                               -0.00     -0.00   6125.50

     hartree stress (kbar)   5538.83      0.00     -0.00
                                0.00   5538.86      0.01
                               -0.00      0.01   5538.77

     exc-cor stress (kbar)   2369.53     -0.00      0.00
                               -0.00   2369.53      0.00
                                0.00      0.00   2369.53

     corecor stress (kbar)  -4734.99     -0.00      0.00
                               -0.00  -4734.99      0.00
                                0.00      0.00  -4734.99

     ewald   stress (kbar)  -9952.55      0.00      0.00
                                0.00  -9952.55     -0.00
                                0.00     -0.00  -9952.55

     hubbard stress (kbar)      0.00      0.00      0.00
                                0.00      0.00      0.00
                                0.00      0.00      0.00

     DFT-D   stress (kbar)      0.00      0.00      0.00
                                0.00      0.00      0.00
                                0.00      0.00      0.00

     XDM     stress (kbar)      0.00      0.00      0.00
                                0.00      0.00      0.00
                                0.00      0.00      0.00

     dft-nl  stress (kbar)      0.00      0.00      0.00
                                0.00      0.00      0.00
                                0.00      0.00      0.00

     TS-vdW  stress (kbar)      0.00      0.00      0.00
                                0.00      0.00      0.00
                                0.00      0.00      0.00

[...]

                                0.00      0.00      0.00

     Writing all to output data dir new_calculations/myprefix.save/

     General routines

     Parallel routines

     PAW routines

   This run was terminated on:  12:49:20  21May2023

   JOB DONE.