     Program PWSCF v.7.0 starts on 20May2023 at 13:35:56

     Reading input from espresso_16367.pwi
Warning: card &CELL ignored
Warning: card / ignored

     Current dimensions of program PWSCF are:
     Max number of different atomic species (ntypx) = 10
     Max number of k-points (npk) =  40000
     Max angular momentum in pseudopotentials (lmaxx) =  4

     gamma-point specific algorithms are used
     Message from routine setup:
     using ibrav=0 with symmetry is DISCOURAGED, use correct ibrav instead

     Subspace diagonalization in iterative solution of the eigenvalue problem:
     a serial algorithm will be used

     Using Slab Decomposition

     bravais-lattice index     =            0
     lattice parameter (alat)  =      11.6025  a.u.
     unit-cell volume          =     580.8803 (a.u.)^3
     number of atoms/cell      =            5
     number of atomic types    =            3
     number of electrons       =        76.00
     number of Kohn-Sham states=           46
     kinetic-energy cutoff     =      30.0000  Ry
     charge density cutoff     =     240.0000  Ry
     scf convergence threshold =      1.0E-06
     mixing beta               =       0.7000
     number of iterations used =            8  plain     mixing
     Exchange-correlation=  SLA  PW   PBX  PBC
                           (   1   4   3   4   0   0   0)

     celldm(1)=  11.602508  celldm(2)=   0.000000  celldm(3)=   0.000000
     celldm(4)=   0.000000  celldm(5)=   0.000000  celldm(6)=   0.000000

     crystal axes: (cart. coord. in units of alat)
               a(1) = (   1.000000   0.000000   0.000000 )
               a(2) = (   0.581815   0.813321   0.000000 )
               a(3) = (  -0.790908  -0.406661   0.457266 )

     reciprocal axes: (cart. coord. in units 2 pi/alat)
               b(1) = (  1.000000 -0.715357  1.093455 )
               b(2) = (  0.000000  1.229527  1.093455 )
               b(3) = (  0.000000  0.000000  2.186910 )

     PseudoPot. # 1 for Gd read from file:
     /home/pragov/projects/rrg-bengioy-ad/pragov/crystal_structure_design/SSSP/Gd.GGA-PBE-paw-v1.0.UPF
     MD5 check sum: 3e8e0d208da550914ae52eaf991d13de
     Pseudo is Projector augmented-wave + core cor, Zval = 18.0
     Generated using ATOMPAW code
     Shape of augmentation charge: BESSEL
     Using radial grid of 1110 points,  8 beta functions with:
                l(1) =   0
                l(2) =   0
                l(3) =   1
                l(4) =   1
                l(5) =   2
                l(6) =   2
                l(7) =   3
                l(8) =   3
     Q(r) pseudized with 0 coefficients

     PseudoPot. # 2 for Mn read from file:
     /home/pragov/projects/rrg-bengioy-ad/pragov/crystal_structure_design/SSSP/mn_pbe_v1.5.uspp.F.UPF
     MD5 check sum: 82ef2b46521d7a7d9e736dc3972e4928
     Pseudo is Ultrasoft + core correction, Zval = 15.0
     Generated by new atomic code, or converted to UPF format
     Using radial grid of  859 points,  6 beta functions with:
                l(1) =   0
                l(2) =   0
                l(3) =   1
                l(4) =   1
                l(5) =   2
                l(6) =   2
     Q(r) pseudized with  8 coefficients,  rinner =    0.950   0.950   0.950
                                                       0.950   0.950

     PseudoPot. # 3 for Ge read from file:
     /home/pragov/projects/rrg-bengioy-ad/pragov/crystal_structure_design/SSSP/ge_pbe_v1.4.uspp.F.UPF
     MD5 check sum: 9c9eaa91e581c3f09632fb3098b2c6b2
     Pseudo is Ultrasoft + core correction, Zval = 14.0
     Generated by new atomic code, or converted to UPF format
     Using radial grid of  873 points,  6 beta functions with:
                l(1) =   0
                l(2) =   0
                l(3) =   1
                l(4) =   1
                l(5) =   2
                l(6) =   2
     Q(r) pseudized with  8 coefficients,  rinner =    1.400   1.400   1.400
                                                       1.400   1.400

     atomic species   valence    mass     pseudopotential
        Gd            18.00   157.25000     Gd( 1.00)
        Mn            15.00    54.93804     Mn( 1.00)
        Ge            14.00    72.63000     Ge( 1.00)

      4 Sym. Ops., with inversion, found

                                    s                        frac. trans.

      isym =  1     identity

 cryst.   s( 1) = (     1          0          0      )
                  (     0          1          0      )
                  (     0          0          1      )

 cart.    s( 1) = (  1.0000000 -0.0000000 -0.0000000 )
                  (  0.0000000  1.0000000 -0.0000000 )
                  (  0.0000000  0.0000000  1.0000000 )

      isym =  2     180 deg rotation - cart. axis [0,0,1]

[...]

      isym =  3     inversion

[...]

      isym =  4     inv. 180 deg rotation - cart. axis [0,0,1]

 cryst.   s( 4) = (     1          0          0      )
                  (     0          1          0      )
                  (    -1         -1         -1      )

 cart.    s( 4) = (  1.0000000 -0.0000000 -0.0000000 )
                  (  0.0000000  1.0000000 -0.0000000 )
                  (  0.0000000  0.0000000 -1.0000000 )

   Cartesian axes

     site n.     atom                  positions (alat units)
         1           Gd  tau(   1) = (   0.0000000   0.0000000   0.0000000  )
         2           Mn  tau(   2) = (   0.5000000   0.0000000   0.2286331  )
         3           Mn  tau(   3) = (   0.2909076   0.4066605   0.2286331  )
         4           Ge  tau(   4) = (   0.9815195   0.5046673   0.0000000  )
         5           Ge  tau(   5) = (   0.6002957   0.3086537   0.0000000  )

   Crystallographic axes

     site n.     atom                  positions (cryst. coord.)
         1           Gd  tau(   1) = (  0.0000000  0.0000000  0.0000000  )
         2           Mn  tau(   2) = (  0.7500000  0.2500000  0.5000000  )
         3           Mn  tau(   3) = (  0.2500000  0.7500000  0.5000000  )
         4           Ge  tau(   4) = (  0.6205020  0.6205020  0.0000000  )
         5           Ge  tau(   5) = (  0.3794980  0.3794980  0.0000000  )

     number of k points=     1  Methfessel-Paxton smearing, width (Ry)=  0.0010
                       cart. coord. in units 2pi/alat
        k(    1) = (   0.0000000   0.0000000   0.0000000), wk =   2.0000000

                       cryst. coord.
        k(    1) = (   0.0000000   0.0000000   0.0000000), wk =   2.0000000

     Check: negative core charge=   -0.000018

     Initial potential from superposition of free atoms

     starting charge      74.9929, renormalised to      76.0000
     Starting wfcs are   76 randomized atomic wfcs
     Checking if some PAW data can be deallocated...

     Self-consistent Calculation

     iteration #  1     ecut=    30.00 Ry     beta= 0.70
     Davidson diagonalization with overlap

     ethr =  1.00E-02,  avg # of iterations =  4.0

     total energy              =   -1529.52151100 Ry
     estimated scf accuracy    <       2.73189695 Ry

[...]

     total energy              =   -1531.87225703 Ry
     estimated scf accuracy    <       0.00002568 Ry

     iteration # 87     ecut=    30.00 Ry     beta= 0.70
     Davidson diagonalization with overlap

     ethr =  3.79E-09,  avg # of iterations =  1.0

     End of self-consistent calculation

          k = 0.0000 0.0000 0.0000 (   815 PWs)   bands (ev):

   -65.2298 -65.2219 -34.3214 -34.2240 -33.4308 -33.3254 -32.9005 -29.9522
   -26.9539  -9.5105  -9.1264  -9.0588  -8.9814  -8.9174  -8.8846  -8.8098
    -8.5427  -8.5215  -8.2030  -6.3553  -5.7822  -5.3057   3.4838   6.4812
     8.8348  11.5431  11.5950  11.6885  12.7491  12.9537  13.6036  13.6927
    13.7795  14.2739  14.5126  14.5563  14.6055  14.6850  14.6864  14.7380
    14.7856  14.8311  15.0511  15.3487  15.6258  16.9868

     occupation numbers
     1.0000   1.0000   1.0000   1.0000   1.0000   1.0000   1.0000   1.0000
     1.0000   1.0000   1.0000   1.0000   1.0000   1.0000   1.0000   1.0000
     1.0000   1.0000   1.0000   1.0000   1.0000   1.0000   1.0000   1.0000
     1.0000   1.0000   1.0000   1.0000   1.0000   1.0000   1.0000   1.0000
     1.0000   1.0000   1.0000   1.0000   1.0000   0.5442   0.4558  -0.0000
    -0.0000  -0.0000  -0.0000  -0.0000  -0.0000  -0.0000

     the Fermi energy is    14.6857 ev

!    total energy              =   -1531.87225655 Ry
     estimated scf accuracy    <       0.00000047 Ry
     smearing contrib. (-TS)   =      -0.00055957 Ry
     internal energy E=F+TS    =   -1531.87169699 Ry

     The total energy is F=E-TS. E is the sum of the following terms:
     one-electron contribution =    -528.90624021 Ry
     hartree contribution      =     324.78001580 Ry
     xc contribution           =    -192.53458394 Ry
     ewald contribution        =    -669.58582089 Ry
     one-center paw contrib.   =    -465.62506776 Ry
      -> PAW hartree energy AE =     179.73199266 Ry
      -> PAW hartree energy PS =    -170.08164318 Ry
      -> PAW xc energy AE      =    -496.22960687 Ry
      -> PAW xc energy PS      =      20.95418964 Ry
      -> total E_H with PAW    =     334.43036528 Ry
      -> total E_XC with PAW   =    -667.81000117 Ry

     convergence has been achieved in  87 iterations

     Forces acting on atoms (cartesian axes, Ry/au):

     atom    1 type  1   force =     0.00000000    0.00000000    0.00000000
     atom    2 type  2   force =     0.00000000    0.00000000    0.04651347
     atom    3 type  2   force =     0.00000000    0.00000000   -0.04651347
     atom    4 type  3   force =     0.10428312    0.07498478   -0.00000000
     atom    5 type  3   force =    -0.10428312   -0.07498478    0.00000000
     The non-local contrib.  to forces
     atom    1 type  1   force =     0.00000000    0.00000000    0.00000000
     atom    2 type  2   force =     0.00000000    0.00000000    0.02019614
     atom    3 type  2   force =     0.00000000    0.00000000   -0.02019614
     atom    4 type  3   force =    -0.16241857   -0.14386849    0.00000000
     atom    5 type  3   force =     0.16241857    0.14386849   -0.00000000
     The ionic contribution  to forces
     atom    1 type  1   force =     0.00000000    0.00000000    0.00000000
     atom    2 type  2   force =     0.00000000   -0.00000000   -0.00000000
     atom    3 type  2   force =    -0.00000000    0.00000000   -0.00000000
     atom    4 type  3   force =   -13.17623161   -6.77481531    0.00000000
     atom    5 type  3   force =    13.17623161    6.77481531   -0.00000000
     The local contribution  to forces
     atom    1 type  1   force =    -0.00040323   -0.00005561    0.00006143
     atom    2 type  2   force =    -0.07875821    0.09000445    0.02982765
     atom    3 type  2   force =     0.07911590   -0.08977881   -0.02986456
     atom    4 type  3   force =    13.42965113    6.98022079   -0.04168757
     atom    5 type  3   force =   -13.42965866   -6.98024008    0.04167151
     The core correction contribution to forces
     atom    1 type  1   force =    -0.00000001   -0.00000000    0.00000000
     atom    2 type  2   force =    -0.00418602    0.00197562   -0.00344218
     atom    3 type  2   force =     0.00418722   -0.00197296    0.00344016
     atom    4 type  3   force =     0.01414108    0.01384657   -0.00202740
     atom    5 type  3   force =    -0.01414066   -0.01384683    0.00202763
     The Hubbard contrib.    to forces
     atom    1 type  1   force =     0.00000000    0.00000000    0.00000000
     atom    2 type  2   force =     0.00000000    0.00000000    0.00000000
     atom    3 type  2   force =     0.00000000    0.00000000    0.00000000
     atom    4 type  3   force =     0.00000000    0.00000000    0.00000000
     atom    5 type  3   force =     0.00000000    0.00000000    0.00000000
     The SCF correction term to forces
     atom    1 type  1   force =     0.00038070    0.00007685   -0.00006382
     atom    2 type  2   force =    -0.00018135   -0.00010146   -0.00008085
     atom    3 type  2   force =    -0.00020361   -0.00011390    0.00009436
     atom    4 type  3   force =    -0.00085713   -0.00039950    0.00001725
     atom    5 type  3   force =     0.00086780    0.00041759    0.00000654

     Total force =     0.193190     Total SCF correction =     0.001446

     Computing stress (Cartesian axis) and pressure

          total   stress  (Ry/bohr**3)                   (kbar)     P=        0.97
  -0.00013561  -0.00028128   0.00000000          -19.95      -41.38        0.00
  -0.00028128   0.00069145  -0.00000000          -41.38      101.72       -0.00
   0.00000000  -0.00000000  -0.00053601            0.00       -0.00      -78.85

     kinetic stress (kbar)  24207.41     91.17     -0.00
                               91.17  23498.40     -0.00
                               -0.00     -0.00  23469.83

     local   stress (kbar)   8465.89   5925.00    -23.21
                             5925.00   1565.89    -31.73
                              -23.21    -31.73  -1607.71

     nonloc. stress (kbar)  13891.26   -130.52     -0.00
                             -130.52  13742.14     -0.00
                               -0.00     -0.00  13650.37

     hartree stress (kbar)  24615.43  -2824.12    -17.19
                            -2824.12  28056.12     -7.57
                              -17.19     -7.57  29577.39

     exc-cor stress (kbar)   6217.96     -1.17     -0.79
                               -1.17   6209.56      0.19
                               -0.79      0.19   6209.07

     corecor stress (kbar) -17399.15      4.95      2.23
                                4.95 -17396.43     -0.49
                                2.23     -0.49 -17401.21

     ewald   stress (kbar) -60018.75  -3106.69     -0.00
                            -3106.69 -55573.96     -0.00
                               -0.00     -0.00 -53976.60

     hubbard stress (kbar)      0.00      0.00      0.00
                                0.00      0.00      0.00
                                0.00      0.00      0.00

     DFT-D   stress (kbar)      0.00      0.00      0.00
                                0.00      0.00      0.00
                                0.00      0.00      0.00

     XDM     stress (kbar)      0.00      0.00      0.00
                                0.00      0.00      0.00
                                0.00      0.00      0.00

     dft-nl  stress (kbar)      0.00      0.00      0.00
                                0.00      0.00      0.00
                                0.00      0.00      0.00

     TS-vdW  stress (kbar)      0.00      0.00      0.00
                                0.00      0.00      0.00
                                0.00      0.00      0.00

[...]

                                0.00      0.00      0.00

     Writing all to output data dir new_calculations/myprefix.save/

     General routines

     Parallel routines

     PAW routines

   This run was terminated on:  13:37:46  20May2023

   JOB DONE.