     Program PWSCF v.7.0 starts on 21May2023 at  5:38:45

     Reading input from espresso_18912.pwi
Warning: card &CELL ignored
Warning: card / ignored

     Current dimensions of program PWSCF are:
     Max number of different atomic species (ntypx) = 10
     Max number of k-points (npk) =  40000
     Max angular momentum in pseudopotentials (lmaxx) =  4

     gamma-point specific algorithms are used
     Message from routine setup:
     using ibrav=0 with symmetry is DISCOURAGED, use correct ibrav instead

     Subspace diagonalization in iterative solution of the eigenvalue problem:
     a serial algorithm will be used

     Using Slab Decomposition

     bravais-lattice index     =            0
     lattice parameter (alat)  =      11.1615  a.u.
     unit-cell volume          =     563.0935 (a.u.)^3
     number of atoms/cell      =            5
     number of atomic types    =            3
     number of electrons       =        89.00
     number of Kohn-Sham states=           54
     kinetic-energy cutoff     =      30.0000  Ry
     charge density cutoff     =     240.0000  Ry
     scf convergence threshold =      1.0E-06
     mixing beta               =       0.7000
     number of iterations used =            8  plain     mixing
     Exchange-correlation=  SLA  PW   PBX  PBC
                           (   1   4   3   4   0   0   0)

     celldm(1)=  11.161546  celldm(2)=   0.000000  celldm(3)=   0.000000
     celldm(4)=   0.000000  celldm(5)=   0.000000  celldm(6)=   0.000000

     crystal axes: (cart. coord. in units of alat)
               a(1) = (   1.000000   0.000000   0.000000 )
               a(2) = (   0.538247   0.842787   0.000000 )
               a(3) = (  -0.769124  -0.421393   0.480496 )

     reciprocal axes: (cart. coord. in units 2 pi/alat)
               b(1) = (  1.000000 -0.638652  1.040592 )
               b(2) = (  0.000000  1.186539  1.040592 )
               b(3) = (  0.000000  0.000000  2.081183 )

     PseudoPot. # 1 for Tm read from file:
     /home/pragov/projects/rrg-bengioy-ad/pragov/crystal_structure_design/SSSP/Tm.GGA-PBE-paw-v1.0.UPF
     MD5 check sum: e502ddec747d736c64e0ed72ddfd7d4c
     Pseudo is Projector augmented-wave + core cor, Zval = 23.0
     Generated using ATOMPAW code
     Shape of augmentation charge: BESSEL
     Using radial grid of 1116 points,  8 beta functions with:
                l(1) =   0
                l(2) =   0
                l(3) =   1
                l(4) =   1
                l(5) =   2
                l(6) =   2
                l(7) =   3
                l(8) =   3
     Q(r) pseudized with 0 coefficients

     PseudoPot. # 2 for Cu read from file:
     /home/pragov/projects/rrg-bengioy-ad/pragov/crystal_structure_design/SSSP/Cu_pbe_v1.2.uspp.F.UPF
     MD5 check sum: 6e991ff952a84172a2a52a1c1e996048
     Pseudo is Ultrasoft + core correction, Zval = 19.0
     Generated by new atomic code, or converted to UPF format
     Using radial grid of  867 points,  6 beta functions with:
                l(1) =   0
                l(2) =   0
                l(3) =   1
                l(4) =   1
                l(5) =   2
                l(6) =   2
     Q(r) pseudized with  8 coefficients,  rinner =    1.150   1.150   1.150
                                                       1.150   1.150

     PseudoPot. # 3 for Ge read from file:
     /home/pragov/projects/rrg-bengioy-ad/pragov/crystal_structure_design/SSSP/ge_pbe_v1.4.uspp.F.UPF
     MD5 check sum: 9c9eaa91e581c3f09632fb3098b2c6b2
     Pseudo is Ultrasoft + core correction, Zval = 14.0
     Generated by new atomic code, or converted to UPF format
     Using radial grid of  873 points,  6 beta functions with:
                l(1) =   0
                l(2) =   0
                l(3) =   1
                l(4) =   1
                l(5) =   2
                l(6) =   2
     Q(r) pseudized with  8 coefficients,  rinner =    1.400   1.400   1.400
                                                       1.400   1.400

     atomic species   valence    mass     pseudopotential
        Tm            23.00   168.93422     Tm( 1.00)
        Cu            19.00    63.54600     Cu( 1.00)
        Ge            14.00    72.63000     Ge( 1.00)

      4 Sym. Ops., with inversion, found

                                    s                        frac. trans.

      isym =  1     identity

 cryst.   s( 1) = (     1          0          0      )
                  (     0          1          0      )
                  (     0          0          1      )

 cart.    s( 1) = (  1.0000000  0.0000000  0.0000000 )
                  (  0.0000000  1.0000000 -0.0000000 )
                  (  0.0000000  0.0000000  1.0000000 )

      isym =  2     180 deg rotation - cart. axis [0,0,1]

[...]

      isym =  3     inversion

[...]

      isym =  4     inv. 180 deg rotation - cart. axis [0,0,1]

 cryst.   s( 4) = (     1          0          0      )
                  (     0          1          0      )
                  (    -1         -1         -1      )

 cart.    s( 4) = (  1.0000000  0.0000000 -0.0000000 )
                  (  0.0000000  1.0000000 -0.0000000 )
                  (  0.0000000  0.0000000 -1.0000000 )

   Cartesian axes

     site n.     atom                  positions (alat units)
         1           Tm  tau(   1) = (   0.0000000   0.0000000   0.0000000  )
         2           Cu  tau(   2) = (   0.5000000   0.0000000   0.2402480  )
         3           Cu  tau(   3) = (   0.2691237   0.4213935   0.2402480  )
         4           Ge  tau(   4) = (   0.5877335   0.3220120   0.0000000  )
         5           Ge  tau(   5) = (   0.9505138   0.5207749   0.0000000  )

   Crystallographic axes

     site n.     atom                  positions (cryst. coord.)
         1           Tm  tau(   1) = (  0.0000000  0.0000000  0.0000000  )
         2           Cu  tau(   2) = (  0.7500000  0.2500000  0.5000000  )
         3           Cu  tau(   3) = (  0.2500000  0.7500000  0.5000000  )
         4           Ge  tau(   4) = (  0.3820800  0.3820800  0.0000000  )
         5           Ge  tau(   5) = (  0.6179200  0.6179200  0.0000000  )

     number of k points=     1  Methfessel-Paxton smearing, width (Ry)=  0.0010
                       cart. coord. in units 2pi/alat
        k(    1) = (   0.0000000   0.0000000   0.0000000), wk =   2.0000000

                       cryst. coord.
        k(    1) = (   0.0000000   0.0000000   0.0000000), wk =   2.0000000

     Check: negative core charge=   -0.000001

     Initial potential from superposition of free atoms

     starting charge      86.9939, renormalised to      89.0000
     Starting wfcs are   76 randomized atomic wfcs
     Checking if some PAW data can be deallocated...

     Self-consistent Calculation

     iteration #  1     ecut=    30.00 Ry     beta= 0.70
     Davidson diagonalization with overlap

     ethr =  1.00E-02,  avg # of iterations =  2.0

     total energy              =   -2113.21305257 Ry
     estimated scf accuracy    <      56.38963234 Ry

[...]

     ethr =  4.70E-05,  avg # of iterations =  1.0
     Minimization algorithm failed to find Fermi energy: reverting to bisection
     Possible cause: smearing is larger than the electronic band-gap.

[...]

     ethr =  4.61E-06,  avg # of iterations =  1.0
     Minimization algorithm failed to find Fermi energy: reverting to bisection
     Possible cause: smearing is larger than the electronic band-gap.

[...]

     total energy              =   -2180.76035144 Ry
     estimated scf accuracy    <       0.00000284 Ry

     iteration # 81     ecut=    30.00 Ry     beta= 0.70
     Davidson diagonalization with overlap

     ethr =  3.19E-09,  avg # of iterations =  1.0

     End of self-consistent calculation

          k = 0.0000 0.0000 0.0000 (   795 PWs)   bands (ev):

   -99.2678 -99.2626 -56.6926 -56.6876 -56.5911 -56.5910 -56.5848 -56.5848
   -34.6038 -10.6850 -10.5801 -10.5801 -10.4925 -10.4925 -10.4576 -10.4538
   -10.4435 -10.4428 -10.4259  -7.9133  -7.9133  -7.8562   2.5641   6.4416
     8.1120   9.9327   9.9328  10.0675  10.5010  10.7893  10.7893  10.9424
    11.0987  11.1830  11.6251  13.0043  13.0044  14.1646  14.1649  14.8276
    14.8305  15.0242  15.0255  15.0255  15.0278  15.5276  15.5277  17.4902
    17.7323  18.0624  19.0531  20.1379  21.1646  21.1647

     occupation numbers
     1.0000   1.0000   1.0000   1.0000   1.0000   1.0000   1.0000   1.0000
     1.0000   1.0000   1.0000   1.0000   1.0000   1.0000   1.0000   1.0000
     1.0000   1.0000   1.0000   1.0000   1.0000   1.0000   1.0000   1.0000
     1.0000   1.0000   1.0000   1.0000   1.0000   1.0000   1.0000   1.0000
     1.0000   1.0000   1.0000   1.0000   1.0000   1.0000   1.0000   1.0000
     1.0000   0.9320   0.8895   0.8892   0.7893  -0.0000  -0.0000  -0.0000
    -0.0000  -0.0000  -0.0000  -0.0000  -0.0000  -0.0000

     the Fermi energy is    15.0328 ev

!    total energy              =   -2180.76035135 Ry
     estimated scf accuracy    <       0.00000006 Ry
     smearing contrib. (-TS)   =      -0.00039982 Ry
     internal energy E=F+TS    =   -2180.75995153 Ry

     The total energy is F=E-TS. E is the sum of the following terms:
     one-electron contribution =   -1117.20490361 Ry
     hartree contribution      =     602.01327153 Ry
     xc contribution           =    -229.90522321 Ry
     ewald contribution        =    -948.11478873 Ry
     one-center paw contrib.   =    -487.54830751 Ry
      -> PAW hartree energy AE =     396.01321607 Ry
      -> PAW hartree energy PS =    -348.73845607 Ry
      -> PAW xc energy AE      =    -569.44087216 Ry
      -> PAW xc energy PS      =      34.61780465 Ry
      -> total E_H with PAW    =     649.28803154 Ry
      -> total E_XC with PAW   =    -764.72829072 Ry

     convergence has been achieved in  81 iterations

     Forces acting on atoms (cartesian axes, Ry/au):

     atom    1 type  1   force =     0.00000000    0.00000000    0.00000000
     atom    2 type  2   force =     0.00000000    0.00000000   -0.00000377
     atom    3 type  2   force =     0.00000000    0.00000000    0.00000377
     atom    4 type  3   force =    -0.08332145   -0.04564769    0.00000000
     atom    5 type  3   force =     0.08332145    0.04564769   -0.00000000
     The non-local contrib.  to forces
     atom    1 type  1   force =     0.00000000    0.00000000    0.00000000
     atom    2 type  2   force =     0.00000000    0.00000000   -0.00000638
     atom    3 type  2   force =     0.00000000    0.00000000    0.00000638
     atom    4 type  3   force =    -0.01432991   -0.00784826    0.00000000
     atom    5 type  3   force =     0.01432991    0.00784826   -0.00000000
     The ionic contribution  to forces
     atom    1 type  1   force =    -0.00000000   -0.00000000   -0.00000000
     atom    2 type  2   force =     0.00000000    0.00000000    0.00000000
     atom    3 type  2   force =     0.00000000    0.00000000    0.00000000
     atom    4 type  3   force =    14.55106426    7.97235075   -0.00000000
     atom    5 type  3   force =   -14.55106426   -7.97235076    0.00000000
     The local contribution  to forces
     atom    1 type  1   force =    -0.00003372   -0.00000265    0.00001559
     atom    2 type  2   force =     0.00000149   -0.00000056    0.00001197
     atom    3 type  2   force =    -0.00000537   -0.00000036   -0.00001126
     atom    4 type  3   force =   -14.61763572   -8.00882556   -0.00000236
     atom    5 type  3   force =    14.61764225    8.00882827   -0.00000035
     The core correction contribution to forces
     atom    1 type  1   force =    -0.00000000   -0.00000000    0.00000000
     atom    2 type  2   force =    -0.00000001   -0.00000000    0.00000000
     atom    3 type  2   force =    -0.00000001   -0.00000001   -0.00000000
     atom    4 type  3   force =    -0.00245301   -0.00134424   -0.00000001
     atom    5 type  3   force =     0.00245306    0.00134426   -0.00000000
     The Hubbard contrib.    to forces
     atom    1 type  1   force =     0.00000000    0.00000000    0.00000000
     atom    2 type  2   force =     0.00000000    0.00000000    0.00000000
     atom    3 type  2   force =     0.00000000    0.00000000    0.00000000
     atom    4 type  3   force =     0.00000000    0.00000000    0.00000000
     atom    5 type  3   force =     0.00000000    0.00000000    0.00000000
     The SCF correction term to forces
     atom    1 type  1   force =     0.00003517    0.00000508   -0.00001402
     atom    2 type  2   force =    -0.00001037   -0.00000332   -0.00000925
     atom    3 type  2   force =     0.00000816   -0.00000026    0.00000877
     atom    4 type  3   force =     0.00003259    0.00001997    0.00000317
     atom    5 type  3   force =    -0.00003985   -0.00002201    0.00000066

     Total force =     0.134359     Total SCF correction =     0.000073

     Computing stress (Cartesian axis) and pressure

          total   stress  (Ry/bohr**3)                   (kbar)     P=     -368.68
  -0.00260606  -0.00009496   0.00000000         -383.36      -13.97        0.00
  -0.00009496  -0.00248226   0.00000000          -13.97     -365.15        0.00
   0.00000000   0.00000000  -0.00243041            0.00        0.00     -357.53

     kinetic stress (kbar)  23754.93    -84.22     -0.00
                              -84.22  23862.56     -0.00
                               -0.00     -0.00  23908.73

     local   stress (kbar)  11935.55   9292.04      0.01
                             9292.04     66.18      0.00
                                0.01      0.00  -5024.86

     nonloc. stress (kbar)  18287.33    -80.60     -0.00
                              -80.60  18390.95     -0.00
                               -0.00     -0.00  18435.06

     hartree stress (kbar)  47682.43  -4584.96     -0.00
                            -4584.96  53539.07     -0.00
                               -0.00     -0.00  56051.15

     exc-cor stress (kbar)   1475.69     -1.82     -0.00
                               -1.82   1478.01     -0.00
                               -0.00     -0.00   1479.00

     corecor stress (kbar) -16244.82      1.16      0.00
                                1.16 -16246.30     -0.00
                                0.00     -0.00 -16246.94

     ewald   stress (kbar) -87274.47  -4555.58     -0.00
                            -4555.58 -81455.62     -0.00
                               -0.00     -0.00 -78959.67

     hubbard stress (kbar)      0.00      0.00      0.00
                                0.00      0.00      0.00
                                0.00      0.00      0.00

     DFT-D   stress (kbar)      0.00      0.00      0.00
                                0.00      0.00      0.00
                                0.00      0.00      0.00

     XDM     stress (kbar)      0.00      0.00      0.00
                                0.00      0.00      0.00
                                0.00      0.00      0.00

     dft-nl  stress (kbar)      0.00      0.00      0.00
                                0.00      0.00      0.00
                                0.00      0.00      0.00

     TS-vdW  stress (kbar)      0.00      0.00      0.00
                                0.00      0.00      0.00
                                0.00      0.00      0.00

[...]

                                0.00      0.00      0.00

     Writing all to output data dir new_calculations/myprefix.save/

     General routines

     Parallel routines

     PAW routines

   This run was terminated on:   5:40:17  21May2023

   JOB DONE.