     Program PWSCF v.7.0 starts on 20May2023 at 18:13:41

     Reading input from espresso_23033.pwi
Warning: card &CELL ignored
Warning: card / ignored

     Current dimensions of program PWSCF are:
     Max number of different atomic species (ntypx) = 10
     Max number of k-points (npk) =  40000
     Max angular momentum in pseudopotentials (lmaxx) =  4

     gamma-point specific algorithms are used
     Message from routine setup:
     using ibrav=0 with symmetry is DISCOURAGED, use correct ibrav instead

     Subspace diagonalization in iterative solution of the eigenvalue problem:
     a serial algorithm will be used

     Using Slab Decomposition

     bravais-lattice index     =            0
     lattice parameter (alat)  =      12.5354  a.u.
     unit-cell volume          =    1339.2656 (a.u.)^3
     number of atoms/cell      =            8
     number of atomic types    =            2
     number of electrons       =       118.00
     number of Kohn-Sham states=           71
     kinetic-energy cutoff     =      30.0000  Ry
     charge density cutoff     =     240.0000  Ry
     scf convergence threshold =      1.0E-06
     mixing beta               =       0.7000
     number of iterations used =            8  plain     mixing
     Exchange-correlation= SLA  PW   PBE  PBE
                           (   1   4   3   4   0   0   0)

     celldm(1)=  12.535397  celldm(2)=   0.000000  celldm(3)=   0.000000
     celldm(4)=   0.000000  celldm(5)=   0.000000  celldm(6)=   0.000000

     crystal axes: (cart. coord. in units of alat)
               a(1) = (   1.000000   0.000000   0.000000 )
               a(2) = (  -0.500000   0.866025   0.000000 )
               a(3) = (   0.000000   0.000000   0.785094 )

     reciprocal axes: (cart. coord. in units 2 pi/alat)
               b(1) = (  1.000000  0.577350  0.000000 )
               b(2) = (  0.000000  1.154701  0.000000 )
               b(3) = (  0.000000  0.000000  1.273732 )

     PseudoPot. # 1 for Tm read from file:
     /home/pragov/projects/rrg-bengioy-ad/pragov/crystal_structure_design/SSSP/Tm.GGA-PBE-paw-v1.0.UPF
     MD5 check sum: e502ddec747d736c64e0ed72ddfd7d4c
     Pseudo is Projector augmented-wave + core cor, Zval = 23.0
     Generated using ATOMPAW code
     Shape of augmentation charge: BESSEL
     Using radial grid of 1116 points,  8 beta functions with:
                l(1) =   0
                l(2) =   0
                l(3) =   1
                l(4) =   1
                l(5) =   2
                l(6) =   2
                l(7) =   3
                l(8) =   3
     Q(r) pseudized with 0 coefficients

     PseudoPot. # 2 for Zr read from file:
     /home/pragov/projects/rrg-bengioy-ad/pragov/crystal_structure_design/SSSP/Zr_pbe_v1.uspp.F.UPF
     MD5 check sum: 5db81b1e868ab7776c4564c113de050b
     Pseudo is Ultrasoft + core correction, Zval = 12.0
     Generated by new atomic code, or converted to UPF format
     Using radial grid of  887 points,  6 beta functions with:
                l(1) =   0
                l(2) =   0
                l(3) =   1
                l(4) =   1
                l(5) =   2
                l(6) =   2
     Q(r) pseudized with  6 coefficients,  rinner =    1.200   1.200   1.200
                                                       1.200   1.200

     atomic species   valence    mass     pseudopotential
        Tm            23.00   168.93422     Tm( 1.00)
        Zr            12.00    91.22400     Zr( 1.00)

     24 Sym. Ops., with inversion, found (12 have fractional translation)

                                    s                        frac. trans.

      isym =  1     identity

 cryst.   s( 1) = (     1          0          0      )
                  (     0          1          0      )
                  (     0          0          1      )

 cart.    s( 1) = (  1.0000000 -0.0000000  0.0000000 )
                  (  0.0000000  1.0000000  0.0000000 )
                  (  0.0000000  0.0000000  1.0000000 )

      isym =  2     180 deg rotation - cart. axis [0,0,1]

 cryst.   s( 2) = (    -1          0          0      )    f =( -0.0000000 )
                  (     0         -1          0      )       ( -0.0000000 )
                  (     0          0          1      )       (  0.5000000 )

 cart.    s( 2) = ( -1.0000000  0.0000000  0.0000000 )    f =( -0.0000000 )
                  (  0.0000000 -1.0000000  0.0000000 )       ( -0.0000000 )
                  (  0.0000000  0.0000000  1.0000000 )       (  0.3925472 )

[...]

      isym =  4     180 deg rotation - cart. axis [1,0,0]

[...]

      isym =  5      60 deg rotation - cryst. axis [0,0,1]

[...]

 cryst.   s( 8) = (    -1         -1          0      )
                  (     1          0          0      )
                  (     0          0          1      )

 cart.    s( 8) = ( -0.5000000  0.8660254  0.0000000 )
                  ( -0.8660254 -0.5000000  0.0000000 )
                  (  0.0000000  0.0000000  1.0000000 )

[...]

 cryst.   s( 9) = (     0         -1          0      )    f =( -0.0000000 )
                  (    -1          0          0      )       ( -0.0000000 )
                  (     0          0         -1      )       (  0.5000000 )

 cart.    s( 9) = (  0.5000000 -0.8660254  0.0000000 )    f =( -0.0000000 )
                  ( -0.8660254 -0.5000000  0.0000000 )       ( -0.0000000 )
                  (  0.0000000  0.0000000 -1.0000000 )       (  0.3925472 )

[...]

 cryst.   s(10) = (     1          1          0      )    f =(  0.0000000 )
                  (     0         -1          0      )       ( -0.0000010 )
                  (     0          0         -1      )       (  0.5000000 )

 cart.    s(10) = (  0.5000000  0.8660255  0.0000000 )    f =(  0.0000005 )
                  (  0.8660254 -0.5000000  0.0000000 )       ( -0.0000009 )
                  (  0.0000000  0.0000000 -1.0000000 )       (  0.3925472 )

[...]

 cryst.   s(11) = (    -1         -1          0      )
                  (     0          1          0      )
                  (     0          0         -1      )

 cart.    s(11) = ( -0.5000000 -0.8660255  0.0000000 )
                  ( -0.8660254  0.5000000  0.0000000 )
                  (  0.0000000  0.0000000 -1.0000000 )

      isym = 12     180 deg rotation - cryst. axis [1,1,0]

[...]

      isym = 13     inversion

[...]

      isym = 14     inv. 180 deg rotation - cart. axis [0,0,1]

[...]

      isym = 16     inv. 180 deg rotation - cart. axis [1,0,0]

[...]

      isym = 17     inv.  60 deg rotation - cryst. axis [0,0,1]

[...]

 cryst.   s(22) = (    -1         -1          0      )    f =( -0.0000000 )
                  (     0          1          0      )       ( -0.0000010 )
                  (     0          0          1      )       (  0.5000000 )

 cart.    s(22) = ( -0.5000000 -0.8660255  0.0000000 )    f =(  0.0000005 )
                  ( -0.8660254  0.5000000  0.0000000 )       ( -0.0000009 )
                  (  0.0000000  0.0000000  1.0000000 )       (  0.3925472 )

[...]

      isym = 24     inv. 180 deg rotation - cryst. axis [1,1,0]

 cryst.   s(24) = (     0         -1          0      )
                  (    -1          0          0      )
                  (     0          0          1      )

 cart.    s(24) = (  0.5000000 -0.8660254  0.0000000 )
                  ( -0.8660254 -0.5000000  0.0000000 )
                  (  0.0000000  0.0000000  1.0000000 )

   Cartesian axes

     site n.     atom                  positions (alat units)
         1           Tm  tau(   1) = (  -0.0000005   0.5773505   0.5888207  )
         2           Tm  tau(   2) = (   0.5000005   0.2886748   0.1962736  )
         3           Zr  tau(   3) = (  -0.0000000   0.2813335   0.1962736  )
         4           Zr  tau(   4) = (   0.2563580   0.7253586   0.1962736  )
         5           Zr  tau(   5) = (  -0.2563580   0.7253586   0.1962736  )
         6           Zr  tau(   6) = (   0.5000000   0.5846918   0.5888207  )
         7           Zr  tau(   7) = (   0.2436420   0.1406668   0.5888207  )
         8           Zr  tau(   8) = (   0.7563580   0.1406668   0.5888207  )

   Crystallographic axes

     site n.     atom                  positions (cryst. coord.)
         1           Tm  tau(   1) = (  0.3333330  0.6666670  0.7500000  )
         2           Tm  tau(   2) = (  0.6666670  0.3333330  0.2500000  )
         3           Zr  tau(   3) = (  0.1624280  0.3248560  0.2500000  )
         4           Zr  tau(   4) = (  0.6751440  0.8375720  0.2500000  )
         5           Zr  tau(   5) = (  0.1624280  0.8375720  0.2500000  )
         6           Zr  tau(   6) = (  0.8375720  0.6751440  0.7500000  )
         7           Zr  tau(   7) = (  0.3248560  0.1624280  0.7500000  )
         8           Zr  tau(   8) = (  0.8375720  0.1624280  0.7500000  )

     number of k points=     1  Methfessel-Paxton smearing, width (Ry)=  0.0010
                       cart. coord. in units 2pi/alat
        k(    1) = (   0.0000000   0.0000000   0.0000000), wk =   2.0000000

                       cryst. coord.
        k(    1) = (   0.0000000   0.0000000   0.0000000), wk =   2.0000000

     Check: negative core charge=   -0.000004

     Initial potential from superposition of free atoms

     starting charge     117.9784, renormalised to     118.0000

     negative rho (up, down):  3.631E-01 0.000E+00
     Starting wfcs are  142 randomized atomic wfcs
     Checking if some PAW data can be deallocated...

     Self-consistent Calculation

     iteration #  1     ecut=    30.00 Ry     beta= 0.70
     Davidson diagonalization with overlap

     ethr =  1.00E-02,  avg # of iterations =  2.0

     negative rho (up, down):  3.685E-01 0.000E+00

     total energy              =   -2482.69969238 Ry
     estimated scf accuracy    <       4.39519965 Ry

[...]

     total energy              =   -2487.84699636 Ry
     estimated scf accuracy    <       0.00000116 Ry

     iteration # 79     ecut=    30.00 Ry     beta= 0.70
     Davidson diagonalization with overlap

     ethr =  9.86E-10,  avg # of iterations =  1.0

[...]

     End of self-consistent calculation

          k = 0.0000 0.0000 0.0000 (  1839 PWs)   bands (ev):

   -35.4172 -35.4013 -35.1956 -35.1404 -35.1403 -35.1189 -35.0952 -35.0951
   -13.5365 -13.5314 -13.3815 -13.3008 -13.3007 -13.2900 -13.2900 -13.2499
   -13.2499 -13.1017 -13.0004 -13.0003 -12.9619 -12.9619 -12.9412 -12.9411
   -12.9056 -12.8835  -8.7674  -8.7603  -8.6890  -8.6889  -8.6841  -8.6840
     8.4721  11.2478  11.6301  11.6603  11.6934  11.6935  11.8495  11.8495
    11.8758  12.4225  12.4226  13.5643  13.8901  13.8901  14.1048  14.1205
    14.1205  14.1223  14.1472  14.1613  14.1662  14.1663  14.1765  14.1886
    14.1886  14.2464  14.2464  14.2508  14.2575  14.4822  14.4822  14.9459
    14.9459  15.0488  15.4330  15.5970  15.6782  15.6783  15.7671

     occupation numbers
     1.0000   1.0000   1.0000   1.0000   1.0000   1.0000   1.0000   1.0000
     1.0000   1.0000   1.0000   1.0000   1.0000   1.0000   1.0000   1.0000
     1.0000   1.0000   1.0000   1.0000   1.0000   1.0000   1.0000   1.0000
     1.0000   1.0000   1.0000   1.0000   1.0000   1.0000   1.0000   1.0000
     1.0000   1.0000   1.0000   1.0000   1.0000   1.0000   1.0000   1.0000
     1.0000   1.0000   1.0000   1.0000   1.0000   1.0000   1.0000   1.0000
     1.0000   1.0000   1.0000   1.0000   1.0000   1.0000   1.0000   1.0000
     1.0000   0.7200   0.7190   0.4562   0.1048  -0.0000  -0.0000  -0.0000
    -0.0000  -0.0000  -0.0000  -0.0000  -0.0000  -0.0000  -0.0000

     the Fermi energy is    14.2501 ev

!    total energy              =   -2487.84699602 Ry
     estimated scf accuracy    <       0.00000021 Ry
     smearing contrib. (-TS)   =      -0.00081145 Ry
     internal energy E=F+TS    =   -2487.84618458 Ry

     The total energy is F=E-TS. E is the sum of the following terms:
     one-electron contribution =    -769.39854557 Ry
     hartree contribution      =     393.93111831 Ry
     xc contribution           =    -177.57461349 Ry
     ewald contribution        =    -959.78925647 Ry
     one-center paw contrib.   =    -975.01488736 Ry
      -> PAW hartree energy AE =     790.07387442 Ry
      -> PAW hartree energy PS =    -695.36206805 Ry
      -> PAW xc energy AE      =   -1138.88617387 Ry
      -> PAW xc energy PS      =      69.15948015 Ry
      -> total E_H with PAW    =     488.64292468 Ry
      -> total E_XC with PAW   =   -1247.30130721 Ry

     convergence has been achieved in  79 iterations

     negative rho (up, down):  3.747E-01 0.000E+00

     Forces acting on atoms (cartesian axes, Ry/au):

     atom    1 type  1   force =     0.00000000    0.00000000    0.00000000
     atom    2 type  1   force =     0.00000000   -0.00000000   -0.00000000
     atom    3 type  2   force =     0.00000000    0.00804483   -0.00000000
     atom    4 type  2   force =    -0.00696703   -0.00402242   -0.00000000
     atom    5 type  2   force =     0.00696703   -0.00402241   -0.00000000
     atom    6 type  2   force =     0.00000000   -0.00804483    0.00000000
     atom    7 type  2   force =     0.00696703    0.00402242    0.00000000
     atom    8 type  2   force =    -0.00696703    0.00402241    0.00000000
     The non-local contrib.  to forces
     atom    1 type  1   force =     0.00000000    0.00000000    0.00000000
     atom    2 type  1   force =    -0.00000000   -0.00000000    0.00000000
     atom    3 type  2   force =     0.00000000    0.02726050   -0.00000000
     atom    4 type  2   force =    -0.02360829   -0.01363025   -0.00000000
     atom    5 type  2   force =     0.02360829   -0.01363025    0.00000000
     atom    6 type  2   force =     0.00000000   -0.02726050    0.00000000
     atom    7 type  2   force =     0.02360829    0.01363025   -0.00000000
     atom    8 type  2   force =    -0.02360829    0.01363025    0.00000000
     The ionic contribution  to forces
     atom    1 type  1   force =     0.00011217   -0.00006476    0.00000000
     atom    2 type  1   force =    -0.00011217    0.00006476   -0.00000000
     atom    3 type  2   force =     0.00007576   -3.17017688    0.00000000
     atom    4 type  2   force =     2.74549153    1.58502293   -0.00000000
     atom    5 type  2   force =    -2.74549524    1.58511235   -0.00000000
     atom    6 type  2   force =    -0.00007576    3.17017688    0.00000000
     atom    7 type  2   force =    -2.74549153   -1.58502293    0.00000000
     atom    8 type  2   force =     2.74549524   -1.58511235    0.00000000
     The local contribution  to forces
     atom    1 type  1   force =     0.00003746    0.00030216   -0.00000301
     atom    2 type  1   force =    -0.00021832   -0.00051632   -0.00000120
     atom    3 type  2   force =     0.00003436    3.15169582   -0.00000199
     atom    4 type  2   force =    -2.72965382   -1.57571817    0.00000423
     atom    5 type  2   force =     2.72970553   -1.57571091    0.00000113
     atom    6 type  2   force =     0.00013424   -3.15198772   -0.00000235
     atom    7 type  2   force =     2.72974723    1.57586128    0.00000241
     atom    8 type  2   force =    -2.72980654    1.57603136   -0.00000290
     The core correction contribution to forces
     atom    1 type  1   force =     0.00000000    0.00000000    0.00000000
     atom    2 type  1   force =    -0.00000000   -0.00000000   -0.00000000
     atom    3 type  2   force =     0.00000163   -0.00088800    0.00000006
     atom    4 type  2   force =     0.00076926    0.00044375   -0.00000008
     atom    5 type  2   force =    -0.00076723    0.00044463   -0.00000002
     atom    6 type  2   force =    -0.00000126    0.00088669   -0.00000005
     atom    7 type  2   force =    -0.00076978   -0.00044394   -0.00000004
     atom    8 type  2   force =     0.00076639   -0.00044398    0.00000002
     The Hubbard contrib.    to forces
     atom    1 type  1   force =     0.00000000    0.00000000    0.00000000
     atom    2 type  1   force =     0.00000000    0.00000000    0.00000000
     atom    3 type  2   force =     0.00000000    0.00000000    0.00000000
     atom    4 type  2   force =     0.00000000    0.00000000    0.00000000
     atom    5 type  2   force =     0.00000000    0.00000000    0.00000000
     atom    6 type  2   force =     0.00000000    0.00000000    0.00000000
     atom    7 type  2   force =     0.00000000    0.00000000    0.00000000
     atom    8 type  2   force =     0.00000000    0.00000000    0.00000000
     The SCF correction term to forces
     atom    1 type  1   force =    -0.00007089   -0.00019157    0.00000178
     atom    2 type  1   force =     0.00031375    0.00046043   -0.00000024
     atom    3 type  2   force =    -0.00007975    0.00013632    0.00000241
     atom    4 type  2   force =     0.00004934   -0.00013745   -0.00000492
     atom    5 type  2   force =    -0.00006652   -0.00021887   -0.00000206
     atom    6 type  2   force =    -0.00008663    0.00012104    0.00000240
     atom    7 type  2   force =    -0.00015006   -0.00000465   -0.00000241
     atom    8 type  2   force =     0.00014562   -0.00009669    0.00000263

     Total force =     0.019706     Total SCF correction =     0.000725

     Computing stress (Cartesian axis) and pressure

     negative rho (up, down):  3.747E-01 0.000E+00
          total   stress  (Ry/bohr**3)                   (kbar)     P=      -46.01
  -0.00012612  -0.00000000   0.00000000          -18.55       -0.00        0.00
  -0.00000000  -0.00012612   0.00000000           -0.00      -18.55        0.00
   0.00000000   0.00000000  -0.00068608            0.00        0.00     -100.93

     kinetic stress (kbar)  15380.88      0.00      0.00
                                0.00  15380.88      0.00
                                0.00      0.00  15350.38

     local   stress (kbar)  -2863.63      0.38     -0.02
                                0.38  -2863.83      0.02
                               -0.02      0.02  -4920.19

     nonloc. stress (kbar)  14655.21      0.00     -0.00
                                0.00  14655.21     -0.00
                               -0.00     -0.00  14509.57

     hartree stress (kbar)  14174.05     -0.16      0.01
                               -0.16  14174.16     -0.01
                                0.01     -0.01  14921.23

     exc-cor stress (kbar)  -1601.01     -0.00      0.00
                               -0.00  -1601.01     -0.00
                                0.00     -0.00  -1597.27

     corecor stress (kbar)  -4158.19      0.00     -0.00
                                0.00  -4158.19     -0.00
                               -0.00     -0.00  -4152.91

     ewald   stress (kbar) -35605.82      0.00     -0.00
                                0.00 -35605.81      0.00
                               -0.00      0.00 -34211.73

     hubbard stress (kbar)      0.00      0.00      0.00
                                0.00      0.00      0.00
                                0.00      0.00      0.00

     DFT-D   stress (kbar)      0.00      0.00      0.00
                                0.00      0.00      0.00
                                0.00      0.00      0.00

     XDM     stress (kbar)      0.00      0.00      0.00
                                0.00      0.00      0.00
                                0.00      0.00      0.00

     dft-nl  stress (kbar)      0.00      0.00      0.00
                                0.00      0.00      0.00
                                0.00      0.00      0.00

     TS-vdW  stress (kbar)      0.00      0.00      0.00
                                0.00      0.00      0.00
                                0.00      0.00      0.00

[...]

                                0.00      0.00      0.00

     Writing all to output data dir new_calculations/myprefix.save/

     General routines

     Parallel routines

     PAW routines

   This run was terminated on:  18:16:56  20May2023

   JOB DONE.