     Program PWSCF v.7.0 starts on 20May2023 at 15:12:11

     Reading input from espresso_17457.pwi
Warning: card &CELL ignored
Warning: card / ignored

     Current dimensions of program PWSCF are:
     Max number of different atomic species (ntypx) = 10
     Max number of k-points (npk) =  40000
     Max angular momentum in pseudopotentials (lmaxx) =  4

     gamma-point specific algorithms are used
     Message from routine setup:
     using ibrav=0 with symmetry is DISCOURAGED, use correct ibrav instead

     Subspace diagonalization in iterative solution of the eigenvalue problem:
     a serial algorithm will be used

     Using Slab Decomposition

     bravais-lattice index     =            0
     lattice parameter (alat)  =       5.6051  a.u.
     unit-cell volume          =    1129.0768 (a.u.)^3
     number of atoms/cell      =           12
     number of atomic types    =            2
     number of electrons       =       140.00
     number of Kohn-Sham states=           84
     kinetic-energy cutoff     =      30.0000  Ry
     charge density cutoff     =     240.0000  Ry
     scf convergence threshold =      1.0E-06
     mixing beta               =       0.7000
     number of iterations used =            8  plain     mixing
     Exchange-correlation= PBE
                           (   1   4   3   4   0   0   0)

     celldm(1)=   5.605094  celldm(2)=   0.000000  celldm(3)=   0.000000
     celldm(4)=   0.000000  celldm(5)=   0.000000  celldm(6)=   0.000000

     crystal axes: (cart. coord. in units of alat)
               a(1) = (   1.000000   0.000000   0.000000 )
               a(2) = (   0.000000   1.880532   0.000000 )
               a(3) = (   0.000000   0.000000   3.409527 )

     reciprocal axes: (cart. coord. in units 2 pi/alat)
               b(1) = (  1.000000  0.000000  0.000000 )
               b(2) = (  0.000000  0.531764  0.000000 )
               b(3) = (  0.000000  0.000000  0.293296 )

     PseudoPot. # 1 for Re read from file:
     /home/pragov/projects/rrg-bengioy-ad/pragov/crystal_structure_design/SSSP/Re_pbe_v1.2.uspp.F.UPF
     MD5 check sum: 85f993410f3e006da9d71c142b4ad953
     Pseudo is Ultrasoft + core correction, Zval = 15.0
     Generated by new atomic code, or converted to UPF format
     Using radial grid of  981 points,  8 beta functions with:
                l(1) =   0
                l(2) =   0
                l(3) =   1
                l(4) =   1
                l(5) =   2
                l(6) =   2
                l(7) =   3
                l(8) =   3
     Q(r) pseudized with  8 coefficients,  rinner =    1.150   1.150   1.150
                                                       1.150   1.150   1.150
                                                       1.150

     PseudoPot. # 2 for P  read from file:
     /home/pragov/projects/rrg-bengioy-ad/pragov/crystal_structure_design/SSSP/P.pbe-n-rrkjus_psl.1.0.0.UPF
     MD5 check sum: 8b930f418f0a4573dca56cd030ffe088
     Pseudo is Ultrasoft + core correction, Zval =  5.0
     Generated using "atomic" code by A. Dal Corso  v.5.1
     Using radial grid of 1147 points,  6 beta functions with:
                l(1) =   0
                l(2) =   0
                l(3) =   1
                l(4) =   1
                l(5) =   2
                l(6) =   2
     Q(r) pseudized with 0 coefficients

     atomic species   valence    mass     pseudopotential
        Re            15.00   186.20700     Re( 1.00)
        P              5.00    30.97376     P ( 1.00)

      8 Sym. Ops., with inversion, found ( 6 have fractional translation)

                                    s                        frac. trans.

      isym =  1     identity

 cryst.   s( 1) = (     1          0          0      )
                  (     0          1          0      )
                  (     0          0          1      )

 cart.    s( 1) = (  1.0000000  0.0000000  0.0000000 )
                  (  0.0000000  1.0000000  0.0000000 )
                  (  0.0000000  0.0000000  1.0000000 )

      isym =  2     180 deg rotation - cart. axis [0,0,1]

 cryst.   s( 2) = (    -1          0          0      )    f =(  0.0000000 )
                  (     0         -1          0      )       (  0.5000000 )
                  (     0          0          1      )       ( -0.5000000 )

 cart.    s( 2) = ( -1.0000000  0.0000000  0.0000000 )    f =(  0.0000000 )
                  (  0.0000000 -1.0000000  0.0000000 )       (  0.9402659 )
                  (  0.0000000  0.0000000  1.0000000 )       ( -1.7047633 )

[...]

      isym =  4     180 deg rotation - cart. axis [1,0,0]

[...]

      isym =  5     inversion

 cryst.   s( 5) = (    -1          0          0      )
                  (     0         -1          0      )
                  (     0          0         -1      )

 cart.    s( 5) = ( -1.0000000  0.0000000  0.0000000 )
                  (  0.0000000 -1.0000000  0.0000000 )
                  (  0.0000000  0.0000000 -1.0000000 )

      isym =  6     inv. 180 deg rotation - cart. axis [0,0,1]

[...]

      isym =  8     inv. 180 deg rotation - cart. axis [1,0,0]

 cryst.   s( 8) = (    -1          0          0      )    f =(  0.5000000 )
                  (     0          1          0      )       (  0.0000000 )
                  (     0          0          1      )       (  0.0000000 )

 cart.    s( 8) = ( -1.0000000  0.0000000  0.0000000 )    f =(  0.5000000 )
                  (  0.0000000  1.0000000  0.0000000 )       (  0.0000000 )
                  (  0.0000000  0.0000000  1.0000000 )       (  0.0000000 )

   Cartesian axes

     site n.     atom                  positions (alat units)
         1           Re  tau(   1) = (   0.2500000   1.5508577   3.1884052  )
         2           Re  tau(   2) = (   0.2500000   0.6105918   1.9258848  )
         3           Re  tau(   3) = (   0.7500000   0.3296742   0.2211214  )
         4           Re  tau(   4) = (   0.7500000   1.2699401   1.4836419  )
         5           Re  tau(   5) = (   0.2500000   1.6046973   0.7282101  )
         6           Re  tau(   6) = (   0.2500000   0.6644314   0.9765532  )
         7           Re  tau(   7) = (   0.7500000   0.2758345   2.6813165  )
         8           Re  tau(   8) = (   0.7500000   1.2161005   2.4329734  )
         9           P   tau(   9) = (   0.2500000   0.7565756   3.0623652  )
        10           P   tau(  10) = (   0.2500000   1.6968415   2.0519247  )
        11           P   tau(  11) = (   0.7500000   1.1239563   0.3471614  )
        12           P   tau(  12) = (   0.7500000   0.1836904   1.3576019  )

   Crystallographic axes

     site n.     atom                  positions (cryst. coord.)
         1           Re  tau(   1) = (  0.2500000  0.8246910  0.9351460  )
         2           Re  tau(   2) = (  0.2500000  0.3246910  0.5648540  )
         3           Re  tau(   3) = (  0.7500000  0.1753090  0.0648540  )
         4           Re  tau(   4) = (  0.7500000  0.6753090  0.4351460  )
         5           Re  tau(   5) = (  0.2500000  0.8533210  0.2135810  )
         6           Re  tau(   6) = (  0.2500000  0.3533210  0.2864190  )
         7           Re  tau(   7) = (  0.7500000  0.1466790  0.7864190  )
         8           Re  tau(   8) = (  0.7500000  0.6466790  0.7135810  )
         9           P   tau(   9) = (  0.2500000  0.4023200  0.8981790  )
        10           P   tau(  10) = (  0.2500000  0.9023200  0.6018210  )
        11           P   tau(  11) = (  0.7500000  0.5976800  0.1018210  )
        12           P   tau(  12) = (  0.7500000  0.0976800  0.3981790  )

     number of k points=     1  Methfessel-Paxton smearing, width (Ry)=  0.0010
                       cart. coord. in units 2pi/alat
        k(    1) = (   0.0000000   0.0000000   0.0000000), wk =   2.0000000

                       cryst. coord.
        k(    1) = (   0.0000000   0.0000000   0.0000000), wk =   2.0000000

     Initial potential from superposition of free atoms

     starting charge     135.9990, renormalised to     140.0000

     negative rho (up, down):  1.073E+00 0.000E+00
     Starting wfcs are  120 randomized atomic wfcs

     Self-consistent Calculation

     iteration #  1     ecut=    30.00 Ry     beta= 0.70
     Davidson diagonalization with overlap

     ethr =  1.00E-02,  avg # of iterations =  2.0

     Threshold (ethr) on eigenvalues was too large:
     Diagonalizing with lowered threshold

     Davidson diagonalization with overlap

[...]

     negative rho (up, down):  1.053E+00 0.000E+00

     total energy              =   -1580.84183222 Ry
     estimated scf accuracy    <       1.41533876 Ry

[...]

     total energy              =   -1581.26732812 Ry
     estimated scf accuracy    <       0.00000139 Ry

     iteration # 24     ecut=    30.00 Ry     beta= 0.70
     Davidson diagonalization with overlap

     ethr =  7.25E-10,  avg # of iterations =  2.0

[...]

     End of self-consistent calculation

          k = 0.0000 0.0000 0.0000 (  1566 PWs)   bands (ev):

   -58.3850 -58.3771 -58.3541 -58.3520 -58.2672 -58.2578 -58.2358 -58.2325
   -20.8108 -20.7666 -20.6590 -20.6398 -20.5128 -20.4813 -20.4779 -20.4017
   -20.3749 -20.2123 -20.1528 -20.1417 -20.1109 -19.9984 -19.9819 -19.9528
   -19.9509 -19.8926 -19.8857 -19.8795 -19.7259 -19.6751 -19.6101 -19.5842
     6.3063   7.0923   8.3387   9.6593  13.2005  13.7299  13.8408  14.1455
    15.0317  15.4002  16.1329  16.3535  16.5627  16.7263  17.0740  17.1939
    17.2929  17.6248  17.9321  18.1564  18.1676  18.2279  18.3150  18.9660
    19.0030  19.1343  19.2934  19.3014  19.3873  19.7409  20.0506  20.0943
    20.2740  20.3103  20.6420  21.1572  21.1872  21.6841  21.6866  21.7339
    22.3935  22.5318  22.6823  22.7176  22.7839  23.3377  23.5753  23.9010
    23.9607  24.0742  24.4492  24.5054

     occupation numbers
     1.0000   1.0000   1.0000   1.0000   1.0000   1.0000   1.0000   1.0000
     1.0000   1.0000   1.0000   1.0000   1.0000   1.0000   1.0000   1.0000
     1.0000   1.0000   1.0000   1.0000   1.0000   1.0000   1.0000   1.0000
     1.0000   1.0000   1.0000   1.0000   1.0000   1.0000   1.0000   1.0000
     1.0000   1.0000   1.0000   1.0000   1.0000   1.0000   1.0000   1.0000
     1.0000   1.0000   1.0000   1.0000   1.0000   1.0000   1.0000   1.0000
     1.0000   1.0000   1.0000   1.0000   1.0000   1.0000   1.0000   1.0000
     1.0000   1.0000   1.0000   1.0000   1.0000   1.0000   1.0000   1.0000
     1.0000   1.0000   1.0000   1.0000   1.0000   0.5773   0.4227  -0.0000
    -0.0000  -0.0000  -0.0000  -0.0000  -0.0000  -0.0000  -0.0000  -0.0000
    -0.0000  -0.0000  -0.0000  -0.0000

     the Fermi energy is    21.6853 ev

!    total energy              =   -1581.26732802 Ry
     estimated scf accuracy    <       0.00000024 Ry
     smearing contrib. (-TS)   =      -0.00055000 Ry
     internal energy E=F+TS    =   -1581.26677802 Ry

     The total energy is F=E-TS. E is the sum of the following terms:
     one-electron contribution =    -220.42837380 Ry
     hartree contribution      =     199.58114427 Ry
     xc contribution           =    -439.45349584 Ry
     ewald contribution        =   -1120.96605265 Ry

     convergence has been achieved in  24 iterations

     negative rho (up, down):  1.023E+00 0.000E+00

     Forces acting on atoms (cartesian axes, Ry/au):

     atom    1 type  1   force =     0.00000000   -0.03494754    0.09815065
     atom    2 type  1   force =    -0.00000000   -0.03494754   -0.09815065
     atom    3 type  1   force =     0.00000000    0.03494754   -0.09815065
     atom    4 type  1   force =     0.00000000    0.03494754    0.09815065
     atom    5 type  1   force =     0.00000000   -0.00431752   -0.07477623
     atom    6 type  1   force =     0.00000000   -0.00431752    0.07477623
     atom    7 type  1   force =     0.00000000    0.00431752    0.07477623
     atom    8 type  1   force =     0.00000000    0.00431752   -0.07477623
     atom    9 type  2   force =     0.00000000   -0.05945936   -0.07139045
     atom   10 type  2   force =    -0.00000000   -0.05945936    0.07139045
     atom   11 type  2   force =     0.00000000    0.05945936    0.07139045
     atom   12 type  2   force =    -0.00000000    0.05945936   -0.07139045
     The non-local contrib.  to forces
     atom    1 type  1   force =    -0.00000000   -0.19767160    0.18098361
     atom    2 type  1   force =     0.00000000   -0.19767160   -0.18098361
     atom    3 type  1   force =     0.00000000    0.19767160   -0.18098361
     atom    4 type  1   force =     0.00000000    0.19767160    0.18098361
     atom    5 type  1   force =    -0.00000000    0.02889831    0.05373713
     atom    6 type  1   force =     0.00000000    0.02889831   -0.05373713
     atom    7 type  1   force =     0.00000000   -0.02889831   -0.05373713
     atom    8 type  1   force =    -0.00000000   -0.02889831    0.05373713
     atom    9 type  2   force =     0.00000000    0.08003868    0.08303272
     atom   10 type  2   force =    -0.00000000    0.08003868   -0.08303272
     atom   11 type  2   force =     0.00000000   -0.08003868   -0.08303272
     atom   12 type  2   force =     0.00000000   -0.08003868    0.08303272
     The ionic contribution  to forces
     atom    1 type  1   force =     0.00000000   -9.45634358    0.94823592
     atom    2 type  1   force =     0.00000000   -9.45634358   -0.94823592
     atom    3 type  1   force =     0.00000000    9.45634358   -0.94823592
     atom    4 type  1   force =     0.00000000    9.45634358    0.94823592
     atom    5 type  1   force =    -0.00000000   -1.57438000    3.58009814
     atom    6 type  1   force =    -0.00000000   -1.57438000   -3.58009814
     atom    7 type  1   force =     0.00000000    1.57438000   -3.58009814
     atom    8 type  1   force =     0.00000000    1.57438000    3.58009814
     atom    9 type  2   force =    -0.00000000    2.46196873    2.42339265
     atom   10 type  2   force =     0.00000000    2.46196873   -2.42339265
     atom   11 type  2   force =     0.00000000   -2.46196873   -2.42339265
     atom   12 type  2   force =     0.00000000   -2.46196873    2.42339265
     The local contribution  to forces
     atom    1 type  1   force =    -0.00000801    9.62575206   -1.03014768
     atom    2 type  1   force =    -0.00001137    9.62585385    1.03101232
     atom    3 type  1   force =    -0.00001676   -9.62605873    1.03018380
     atom    4 type  1   force =    -0.00001319   -9.62596471   -1.02963370
     atom    5 type  1   force =     0.00002736    1.52837886   -3.70175444
     atom    6 type  1   force =     0.00001920    1.52773468    3.70084658
     atom    7 type  1   force =     0.00002018   -1.52774871    3.70064315
     atom    8 type  1   force =     0.00002029   -1.52872208   -3.70127312
     atom    9 type  2   force =    -0.00000493   -2.59556984   -2.57183432
     atom   10 type  2   force =    -0.00000671   -2.59549571    2.57197224
     atom   11 type  2   force =    -0.00000607    2.59571459    2.57172363
     atom   12 type  2   force =    -0.00000918    2.59566319   -2.57162638
     The core correction contribution to forces
     atom    1 type  1   force =     0.00000154   -0.00735705   -0.00105896
     atom    2 type  1   force =     0.00000236   -0.00735749    0.00105899
     atom    3 type  1   force =     0.00000177    0.00735606    0.00106416
     atom    4 type  1   force =     0.00000154    0.00735370   -0.00106589
     atom    5 type  1   force =    -0.00000128    0.01290192   -0.00729101
     atom    6 type  1   force =    -0.00000208    0.01289876    0.00728987
     atom    7 type  1   force =    -0.00000206   -0.01289606    0.00728744
     atom    8 type  1   force =    -0.00000167   -0.01290050   -0.00728934
     atom    9 type  2   force =    -0.00000004   -0.00582019   -0.00606562
     atom   10 type  2   force =     0.00000001   -0.00582058    0.00606689
     atom   11 type  2   force =    -0.00000001    0.00582006    0.00606691
     atom   12 type  2   force =    -0.00000011    0.00581983   -0.00606619
     The Hubbard contrib.    to forces
     atom    1 type  1   force =     0.00000000    0.00000000    0.00000000
     atom    2 type  1   force =     0.00000000    0.00000000    0.00000000
     atom    3 type  1   force =     0.00000000    0.00000000    0.00000000
     atom    4 type  1   force =     0.00000000    0.00000000    0.00000000
     atom    5 type  1   force =     0.00000000    0.00000000    0.00000000
     atom    6 type  1   force =     0.00000000    0.00000000    0.00000000
     atom    7 type  1   force =     0.00000000    0.00000000    0.00000000
     atom    8 type  1   force =     0.00000000    0.00000000    0.00000000
     atom    9 type  2   force =     0.00000000    0.00000000    0.00000000
     atom   10 type  2   force =     0.00000000    0.00000000    0.00000000
     atom   11 type  2   force =     0.00000000    0.00000000    0.00000000
     atom   12 type  2   force =     0.00000000    0.00000000    0.00000000
     The SCF correction term to forces
     atom    1 type  1   force =     0.00000258    0.00068552    0.00010490
     atom    2 type  1   force =     0.00000772    0.00057197   -0.00097804
     atom    3 type  1   force =     0.00000968   -0.00035695   -0.00020653
     atom    4 type  1   force =     0.00000771   -0.00045106   -0.00033949
     atom    5 type  1   force =    -0.00001863   -0.00013379    0.00043631
     atom    6 type  1   force =    -0.00000952    0.00052057    0.00046593
     atom    7 type  1   force =    -0.00001123   -0.00053218    0.00069001
     atom    8 type  1   force =    -0.00001306    0.00044385   -0.00005142
     atom    9 type  2   force =     0.00000230   -0.00007763    0.00010319
     atom   10 type  2   force =     0.00000288   -0.00014942   -0.00020356
     atom   11 type  2   force =     0.00000295   -0.00006268    0.00004248
     atom   12 type  2   force =     0.00000322   -0.00002132   -0.00010538

     Total force =     0.316841     Total SCF correction =     0.002002

     Computing stress (Cartesian axis) and pressure

     negative rho (up, down):  1.023E+00 0.000E+00
          total   stress  (Ry/bohr**3)                   (kbar)     P=       63.98
   0.00242029   0.00000000   0.00000000          356.04        0.00        0.00
   0.00000000  -0.00057888   0.00000000            0.00      -85.16        0.00
   0.00000000   0.00000000  -0.00053662            0.00        0.00      -78.94

     kinetic stress (kbar)  38592.22      0.00      0.00
                                0.00  36753.66      0.00
                                0.00      0.00  36902.95

     local   stress (kbar)  28458.98      0.00      0.01
                                0.00  38584.80      0.08
                                0.01      0.08  31428.46

     nonloc. stress (kbar) -19641.53      0.00      0.00
                                0.00 -19523.04      0.00
                                0.00      0.00 -19558.32

     hartree stress (kbar)  10924.88     -0.00     -0.00
                               -0.00   5656.44     -0.07
                               -0.00     -0.07   9421.70

     exc-cor stress (kbar)  27626.53     -0.00     -0.00
                               -0.00  27615.99     -0.00
                               -0.00     -0.00  27611.55

     corecor stress (kbar) -38201.98      0.00      0.00
                                0.00 -38205.01      0.00
                                0.00      0.00 -38208.00

     ewald   stress (kbar) -47403.08     -0.00      0.00
                               -0.00 -50967.99     -0.00
                                0.00     -0.00 -47677.28

     hubbard stress (kbar)      0.00      0.00      0.00
                                0.00      0.00      0.00
                                0.00      0.00      0.00

     DFT-D   stress (kbar)      0.00      0.00      0.00
                                0.00      0.00      0.00
                                0.00      0.00      0.00

     XDM     stress (kbar)      0.00      0.00      0.00
                                0.00      0.00      0.00
                                0.00      0.00      0.00

     dft-nl  stress (kbar)      0.00      0.00      0.00
                                0.00      0.00      0.00
                                0.00      0.00      0.00

     TS-vdW  stress (kbar)      0.00      0.00      0.00
                                0.00      0.00      0.00
                                0.00      0.00      0.00

[...]

                                0.00      0.00      0.00

     Writing all to output data dir new_calculations/myprefix.save/

     General routines

     Parallel routines

   This run was terminated on:  15:12:44  20May2023

   JOB DONE.