     Program PWSCF v.7.0 starts on 21May2023 at  2:24:59

     Reading input from espresso_21462.pwi
Warning: card &CELL ignored
Warning: card / ignored

     Current dimensions of program PWSCF are:
     Max number of different atomic species (ntypx) = 10
     Max number of k-points (npk) =  40000
     Max angular momentum in pseudopotentials (lmaxx) =  4
     file C.pbe-n-kjpaw_psl.1.0.0.UPF: wavefunction(s)  2S 2P renormalized

     gamma-point specific algorithms are used
     Message from routine setup:
     using ibrav=0 with symmetry is DISCOURAGED, use correct ibrav instead

     Subspace diagonalization in iterative solution of the eigenvalue problem:
     a serial algorithm will be used

     Using Slab Decomposition

     bravais-lattice index     =            0
     lattice parameter (alat)  =       6.9606  a.u.
     unit-cell volume          =    1969.8786 (a.u.)^3
     number of atoms/cell      =           18
     number of atomic types    =            2
     number of electrons       =       128.00
     number of Kohn-Sham states=           77
     kinetic-energy cutoff     =      30.0000  Ry
     charge density cutoff     =     240.0000  Ry
     scf convergence threshold =      1.0E-06
     mixing beta               =       0.7000
     number of iterations used =            8  plain     mixing
     Exchange-correlation= SLA  PW   PBX  PBC
                           (   1   4   3   4   0   0   0)

     celldm(1)=   6.960640  celldm(2)=   0.000000  celldm(3)=   0.000000
     celldm(4)=   0.000000  celldm(5)=   0.000000  celldm(6)=   0.000000

     crystal axes: (cart. coord. in units of alat)
               a(1) = (   1.000000   0.000000   0.000000 )
               a(2) = (   0.000000   1.793540   0.000000 )
               a(3) = (   0.000000   0.000000   3.256724 )

     reciprocal axes: (cart. coord. in units 2 pi/alat)
               b(1) = (  1.000000  0.000000  0.000000 )
               b(2) = (  0.000000  0.557557  0.000000 )
               b(3) = (  0.000000  0.000000  0.307057 )

     PseudoPot. # 1 for Y  read from file:
     /home/pragov/projects/rrg-bengioy-ad/pragov/crystal_structure_design/SSSP/Y_pbe_v1.uspp.F.UPF
     MD5 check sum: 2cf71db95cafeb975fc457bd7f14888e
     Pseudo is Ultrasoft + core correction, Zval = 11.0
     Generated by new atomic code, or converted to UPF format
     Using radial grid of  885 points,  6 beta functions with:
                l(1) =   0
                l(2) =   0
                l(3) =   1
                l(4) =   1
                l(5) =   2
                l(6) =   2
     Q(r) pseudized with  6 coefficients,  rinner =    1.200   1.200   1.200
                                                       1.200   1.200

     PseudoPot. # 2 for C  read from file:
     /home/pragov/projects/rrg-bengioy-ad/pragov/crystal_structure_design/SSSP/C.pbe-n-kjpaw_psl.1.0.0.UPF
     MD5 check sum: 5d2aebdfa2cae82b50a7e79e9516da0f
     Pseudo is Projector augmented-wave + core cor, Zval =  4.0
     Generated using "atomic" code by A. Dal Corso  v.5.1
     Shape of augmentation charge: PSQ
     Using radial grid of 1073 points,  4 beta functions with:
                l(1) =   0
                l(2) =   0
                l(3) =   1
                l(4) =   1
     Q(r) pseudized with 0 coefficients

     atomic species   valence    mass     pseudopotential
        Y             11.00    88.90584     Y ( 1.00)
        C              4.00    12.01100     C ( 1.00)

      8 Sym. Ops., with inversion, found ( 4 have fractional translation)

                                    s                        frac. trans.

      isym =  1     identity

 cryst.   s( 1) = (     1          0          0      )
                  (     0          1          0      )
                  (     0          0          1      )

 cart.    s( 1) = (  1.0000000  0.0000000  0.0000000 )
                  (  0.0000000  1.0000000  0.0000000 )
                  (  0.0000000  0.0000000  1.0000000 )

      isym =  2     180 deg rotation - cart. axis [0,0,1]

 cryst.   s( 2) = (    -1          0          0      )    f =(  0.0000000 )
                  (     0         -1          0      )       (  0.5000000 )
                  (     0          0          1      )       (  0.5000000 )

 cart.    s( 2) = ( -1.0000000  0.0000000  0.0000000 )    f =(  0.0000000 )
                  (  0.0000000 -1.0000000  0.0000000 )       (  0.8967698 )
                  (  0.0000000  0.0000000  1.0000000 )       (  1.6283622 )

[...]

      isym =  4     180 deg rotation - cart. axis [1,0,0]

[...]

      isym =  5     inversion

[...]

      isym =  6     inv. 180 deg rotation - cart. axis [0,0,1]

[...]

 cryst.   s( 7) = (     1          0          0      )    f =(  0.0000000 )
                  (     0         -1          0      )       (  0.5000000 )
                  (     0          0          1      )       (  0.5000000 )

 cart.    s( 7) = (  1.0000000  0.0000000  0.0000000 )    f =(  0.0000000 )
                  (  0.0000000 -1.0000000  0.0000000 )       (  0.8967698 )
                  (  0.0000000  0.0000000  1.0000000 )       (  1.6283622 )

      isym =  8     inv. 180 deg rotation - cart. axis [1,0,0]

 cryst.   s( 8) = (    -1          0          0      )
                  (     0          1          0      )
                  (     0          0          1      )

 cart.    s( 8) = ( -1.0000000  0.0000000  0.0000000 )
                  (  0.0000000  1.0000000  0.0000000 )
                  (  0.0000000  0.0000000  1.0000000 )

   Cartesian axes

     site n.     atom                  positions (alat units)
         1           Y   tau(   1) = (   0.0000000   0.4601953   1.7679748  )
         2           Y   tau(   2) = (   0.0000000   1.3333442   1.4887497  )
         3           Y   tau(   3) = (   0.0000000   1.3569651   3.1171120  )
         4           Y   tau(   4) = (   0.0000000   0.4365744   0.1396125  )
         5           Y   tau(   5) = (   0.5000000   0.1915213   2.6184814  )
         6           Y   tau(   6) = (   0.5000000   1.6020182   0.6382431  )
         7           Y   tau(   7) = (   0.5000000   1.0882911   2.2666053  )
         8           Y   tau(   8) = (   0.5000000   0.7052484   0.9901191  )
         9           C   tau(   9) = (   0.5000000   0.8967698   1.6283622  )
        10           C   tau(  10) = (   0.5000000   0.0000000   0.0000000  )
        11           C   tau(  11) = (   0.0000000   0.6464598   2.3972260  )
        12           C   tau(  12) = (   0.0000000   1.1470797   0.8594984  )
        13           C   tau(  13) = (   0.0000000   1.5432296   2.4878607  )
        14           C   tau(  14) = (   0.0000000   0.2503100   0.7688638  )
        15           C   tau(  15) = (   0.0000000   0.7219068   2.7508021  )
        16           C   tau(  16) = (   0.0000000   1.0716327   0.5059224  )
        17           C   tau(  17) = (   0.0000000   0.1748629   1.1224399  )
        18           C   tau(  18) = (   0.0000000   1.6186766   2.1342846  )

   Crystallographic axes

     site n.     atom                  positions (cryst. coord.)
         1           Y   tau(   1) = (  0.0000000  0.2565850  0.5428690  )
         2           Y   tau(   2) = (  0.0000000  0.7434150  0.4571310  )
         3           Y   tau(   3) = (  0.0000000  0.7565850  0.9571310  )
         4           Y   tau(   4) = (  0.0000000  0.2434150  0.0428690  )
         5           Y   tau(   5) = (  0.5000000  0.1067840  0.8040230  )
         6           Y   tau(   6) = (  0.5000000  0.8932160  0.1959770  )
         7           Y   tau(   7) = (  0.5000000  0.6067840  0.6959770  )
         8           Y   tau(   8) = (  0.5000000  0.3932160  0.3040230  )
         9           C   tau(   9) = (  0.5000000  0.5000000  0.5000000  )
        10           C   tau(  10) = (  0.5000000  0.0000000  0.0000000  )
        11           C   tau(  11) = (  0.0000000  0.3604380  0.7360850  )
        12           C   tau(  12) = (  0.0000000  0.6395620  0.2639150  )
        13           C   tau(  13) = (  0.0000000  0.8604380  0.7639150  )
        14           C   tau(  14) = (  0.0000000  0.1395620  0.2360850  )
        15           C   tau(  15) = (  0.0000000  0.4025040  0.8446530  )
        16           C   tau(  16) = (  0.0000000  0.5974960  0.1553470  )
        17           C   tau(  17) = (  0.0000000  0.0974960  0.3446530  )
        18           C   tau(  18) = (  0.0000000  0.9025040  0.6553470  )

     number of k points=     1  Methfessel-Paxton smearing, width (Ry)=  0.0010
                       cart. coord. in units 2pi/alat
        k(    1) = (   0.0000000   0.0000000   0.0000000), wk =   2.0000000

                       cryst. coord.
        k(    1) = (   0.0000000   0.0000000   0.0000000), wk =   2.0000000

     Check: negative core charge=   -0.000019

     Initial potential from superposition of free atoms

     starting charge     127.9638, renormalised to     128.0000

     negative rho (up, down):  3.413E-01 0.000E+00
     Starting wfcs are  144 randomized atomic wfcs
     Checking if some PAW data can be deallocated...

     Self-consistent Calculation

     iteration #  1     ecut=    30.00 Ry     beta= 0.70
     Davidson diagonalization with overlap

     ethr =  1.00E-02,  avg # of iterations =  2.0

     negative rho (up, down):  3.448E-01 0.000E+00

     total energy              =    -881.44727828 Ry
     estimated scf accuracy    <       5.63475001 Ry

[...]

     total energy              =    -884.30832519 Ry
     estimated scf accuracy    <       0.00000182 Ry

     iteration # 22     ecut=    30.00 Ry     beta= 0.70
     Davidson diagonalization with overlap

     ethr =  1.42E-09,  avg # of iterations =  2.0

[...]

     End of self-consistent calculation

          k = 0.0000 0.0000 0.0000 (  2736 PWs)   bands (ev):

   -31.1126 -31.1099 -31.0808 -31.0795 -30.5809 -30.5792 -30.5441 -30.5439
   -11.7060 -11.6622 -11.3635 -11.3079 -11.2847 -11.2502 -11.2468 -11.1625
   -10.9920 -10.9741 -10.9116 -10.9024 -10.8639 -10.8545 -10.8338 -10.7628
   -10.6948 -10.6906 -10.4658 -10.4602 -10.4537 -10.4424 -10.4016 -10.4006
    -3.9678  -3.8549  -3.2435  -3.2001   2.4146   2.4185   3.5442   3.7785
     4.1872   4.3516   5.0579   5.2690   6.3090   6.3640   6.4280   6.7386
     7.0304   7.3259   7.3622   7.4702   7.8310   7.8338   8.8316   8.8341
     9.4718   9.5254  10.0030  10.0360  10.4468  10.7691  11.1774  11.3947
    11.3952  11.4297  11.6039  12.0485  12.0958  12.1017  12.3829  12.7319
    12.8756  13.3229  14.0473  14.0876  14.0990

     occupation numbers
     1.0000   1.0000   1.0000   1.0000   1.0000   1.0000   1.0000   1.0000
     1.0000   1.0000   1.0000   1.0000   1.0000   1.0000   1.0000   1.0000
     1.0000   1.0000   1.0000   1.0000   1.0000   1.0000   1.0000   1.0000
     1.0000   1.0000   1.0000   1.0000   1.0000   1.0000   1.0000   1.0000
     1.0000   1.0000   1.0000   1.0000   1.0000   1.0000   1.0000   1.0000
     1.0000   1.0000   1.0000   1.0000   1.0000   1.0000   1.0000   1.0000
     1.0000   1.0000   1.0000   1.0000   1.0000   1.0000   1.0000   1.0000
     1.0000   1.0000   1.0000   1.0000   1.0000   1.0000   1.0000   0.5161
     0.4848  -0.0009  -0.0000  -0.0000  -0.0000  -0.0000  -0.0000  -0.0000
    -0.0000  -0.0000  -0.0000  -0.0000  -0.0000

     the Fermi energy is    11.3949 ev

!    total energy              =    -884.30832497 Ry
     estimated scf accuracy    <       0.00000070 Ry
     smearing contrib. (-TS)   =      -0.00055864 Ry
     internal energy E=F+TS    =    -884.30776634 Ry

     The total energy is F=E-TS. E is the sum of the following terms:
     one-electron contribution =    -126.53090273 Ry
     hartree contribution      =     120.47473179 Ry
     xc contribution           =    -222.06503656 Ry
     ewald contribution        =    -594.46702318 Ry
     one-center paw contrib.   =     -61.71953567 Ry
      -> PAW hartree energy AE =      77.56545838 Ry
      -> PAW hartree energy PS =     -77.47830025 Ry
      -> PAW xc energy AE      =    -102.55964560 Ry
      -> PAW xc energy PS      =      40.75295180 Ry
      -> total E_H with PAW    =     120.56188993 Ry
      -> total E_XC with PAW   =    -283.87173036 Ry

     convergence has been achieved in  22 iterations

     negative rho (up, down):  3.411E-01 0.000E+00

     Forces acting on atoms (cartesian axes, Ry/au):

     atom    1 type  1   force =     0.00000000    0.10096512   -0.05486406
     atom    2 type  1   force =     0.00000000   -0.10096512    0.05486406
     atom    3 type  1   force =     0.00000000    0.10096512    0.05486406
     atom    4 type  1   force =     0.00000000   -0.10096512   -0.05486406
     atom    5 type  1   force =     0.00000000   -0.05734418    0.03041084
     atom    6 type  1   force =     0.00000000    0.05734418   -0.03041084
     atom    7 type  1   force =     0.00000000   -0.05734418   -0.03041084
     atom    8 type  1   force =     0.00000000    0.05734418    0.03041084
     atom    9 type  2   force =     0.00000000    0.00000000   -0.00000000
     atom   10 type  2   force =    -0.00000000   -0.00000000   -0.00000000
     atom   11 type  2   force =     0.00000000    0.09139145    0.07233140
     atom   12 type  2   force =     0.00000000   -0.09139145   -0.07233140
     atom   13 type  2   force =     0.00000000    0.09139145   -0.07233140
     atom   14 type  2   force =     0.00000000   -0.09139145    0.07233140
     atom   15 type  2   force =     0.00000000   -0.02245572   -0.07796577
     atom   16 type  2   force =     0.00000000    0.02245572    0.07796577
     atom   17 type  2   force =     0.00000000    0.02245572   -0.07796577
     atom   18 type  2   force =     0.00000000   -0.02245572    0.07796577
     The non-local contrib.  to forces
     atom    1 type  1   force =     0.00000000    0.04388353    0.01334674
     atom    2 type  1   force =     0.00000000   -0.04388353   -0.01334674
     atom    3 type  1   force =     0.00000000    0.04388353   -0.01334674
     atom    4 type  1   force =     0.00000000   -0.04388353    0.01334674
     atom    5 type  1   force =     0.00000000    0.06654367   -0.05088546
     atom    6 type  1   force =     0.00000000   -0.06654367    0.05088546
     atom    7 type  1   force =     0.00000000    0.06654367    0.05088546
     atom    8 type  1   force =     0.00000000   -0.06654367   -0.05088546
     atom    9 type  2   force =     0.00000000    0.00000000    0.00000000
     atom   10 type  2   force =     0.00000000    0.00000000    0.00000000
     atom   11 type  2   force =     0.00000000    0.04289794    0.31133807
     atom   12 type  2   force =     0.00000000   -0.04289794   -0.31133807
     atom   13 type  2   force =     0.00000000    0.04289794   -0.31133807
     atom   14 type  2   force =     0.00000000   -0.04289794    0.31133807
     atom   15 type  2   force =     0.00000000   -0.03664217   -0.19922567
     atom   16 type  2   force =     0.00000000    0.03664217    0.19922567
     atom   17 type  2   force =     0.00000000    0.03664217   -0.19922567
     atom   18 type  2   force =     0.00000000   -0.03664217    0.19922567
     The ionic contribution  to forces
     atom    1 type  1   force =    -0.00000000   -5.50293363   -1.07600785
     atom    2 type  1   force =     0.00000000    5.50293363    1.07600785
     atom    3 type  1   force =     0.00000000   -5.50293363    1.07600785
     atom    4 type  1   force =    -0.00000000    5.50293363   -1.07600785
     atom    5 type  1   force =     0.00000000    1.15370664   -0.81366343
     atom    6 type  1   force =     0.00000000   -1.15370664    0.81366343
     atom    7 type  1   force =     0.00000000    1.15370664    0.81366343
     atom    8 type  1   force =     0.00000000   -1.15370664   -0.81366343
     atom    9 type  2   force =    -0.00000000   -0.00000000   -0.00000000
     atom   10 type  2   force =     0.00000000   -0.00000000    0.00000000
     atom   11 type  2   force =    -0.00000000   -0.86082868   -2.30215154
     atom   12 type  2   force =    -0.00000000    0.86082868    2.30215154
     atom   13 type  2   force =     0.00000000   -0.86082868    2.30215154
     atom   14 type  2   force =    -0.00000000    0.86082868   -2.30215154
     atom   15 type  2   force =     0.00000000    1.70283806    4.86625739
     atom   16 type  2   force =    -0.00000000   -1.70283806   -4.86625739
     atom   17 type  2   force =     0.00000000   -1.70283806    4.86625739
     atom   18 type  2   force =    -0.00000000    1.70283806   -4.86625739
     The local contribution  to forces
     atom    1 type  1   force =    -0.00000353    5.56701574    1.00856834
     atom    2 type  1   force =     0.00000288   -5.56698370   -1.00878655
     atom    3 type  1   force =     0.00000530    5.56726316   -1.00872701
     atom    4 type  1   force =    -0.00000821   -5.56730586    1.00907446
     atom    5 type  1   force =     0.00022475   -1.27378039    0.89410696
     atom    6 type  1   force =    -0.00020862    1.27371568   -0.89402612
     atom    7 type  1   force =    -0.00021613   -1.27313721   -0.89425167
     atom    8 type  1   force =     0.00020393    1.27320831    0.89406205
     atom    9 type  2   force =    -0.00000094    0.00002760   -0.00003599
     atom   10 type  2   force =     0.00000082   -0.00001218    0.00010413
     atom   11 type  2   force =     0.00000435    0.90800972    2.06083928
     atom   12 type  2   force =    -0.00000275   -0.90791329   -2.06081911
     atom   13 type  2   force =    -0.00000219    0.90800802   -2.06089027
     atom   14 type  2   force =     0.00000202   -0.90806235    2.06082929
     atom   15 type  2   force =     0.00002824   -1.68718848   -4.74039737
     atom   16 type  2   force =    -0.00002924    1.68723912    4.74048588
     atom   17 type  2   force =     0.00002795    1.68723544   -4.74052075
     atom   18 type  2   force =    -0.00002685   -1.68728741    4.74038983
     The core correction contribution to forces
     atom    1 type  1   force =     0.00000372   -0.00721930   -0.00150831
     atom    2 type  1   force =    -0.00000383    0.00722009    0.00150918
     atom    3 type  1   force =    -0.00000369   -0.00722241    0.00150932
     atom    4 type  1   force =     0.00000351    0.00722189   -0.00151039
     atom    5 type  1   force =    -0.00000254   -0.00403997    0.00115545
     atom    6 type  1   force =     0.00000323    0.00403824   -0.00115529
     atom    7 type  1   force =     0.00000344   -0.00404038   -0.00115487
     atom    8 type  1   force =    -0.00000374    0.00404020    0.00115402
     atom    9 type  2   force =    -0.00000002    0.00000003   -0.00000027
     atom   10 type  2   force =    -0.00000000   -0.00000026   -0.00000021
     atom   11 type  2   force =     0.00000022    0.00137434    0.00243893
     atom   12 type  2   force =    -0.00000018   -0.00137410   -0.00243828
     atom   13 type  2   force =    -0.00000016    0.00137375   -0.00243848
     atom   14 type  2   force =     0.00000018   -0.00137347    0.00243818
     atom   15 type  2   force =     0.00000093   -0.00150890   -0.00417513
     atom   16 type  2   force =    -0.00000091    0.00150872    0.00417537
     atom   17 type  2   force =     0.00000085    0.00151028   -0.00417450
     atom   18 type  2   force =    -0.00000082   -0.00151024    0.00417390
     The Hubbard contrib.    to forces
     atom    1 type  1   force =     0.00000000    0.00000000    0.00000000
     atom    2 type  1   force =     0.00000000    0.00000000    0.00000000
     atom    3 type  1   force =     0.00000000    0.00000000    0.00000000
     atom    4 type  1   force =     0.00000000    0.00000000    0.00000000
     atom    5 type  1   force =     0.00000000    0.00000000    0.00000000
     atom    6 type  1   force =     0.00000000    0.00000000    0.00000000
     atom    7 type  1   force =     0.00000000    0.00000000    0.00000000
     atom    8 type  1   force =     0.00000000    0.00000000    0.00000000
     atom    9 type  2   force =     0.00000000    0.00000000    0.00000000
     atom   10 type  2   force =     0.00000000    0.00000000    0.00000000
     atom   11 type  2   force =     0.00000000    0.00000000    0.00000000
     atom   12 type  2   force =     0.00000000    0.00000000    0.00000000
     atom   13 type  2   force =     0.00000000    0.00000000    0.00000000
     atom   14 type  2   force =     0.00000000    0.00000000    0.00000000
     atom   15 type  2   force =     0.00000000    0.00000000    0.00000000
     atom   16 type  2   force =     0.00000000    0.00000000    0.00000000
     atom   17 type  2   force =     0.00000000    0.00000000    0.00000000
     atom   18 type  2   force =     0.00000000    0.00000000    0.00000000
     The SCF correction term to forces
     atom    1 type  1   force =     0.00004393    0.00025835    0.00071702
     atom    2 type  1   force =    -0.00004347   -0.00027348   -0.00049245
     atom    3 type  1   force =    -0.00004576   -0.00005693   -0.00060086
     atom    4 type  1   force =     0.00004675    0.00009877    0.00025870
     atom    5 type  1   force =    -0.00018793    0.00019976   -0.00031371
     atom    6 type  1   force =     0.00018295   -0.00016996    0.00024646
     atom    7 type  1   force =     0.00018622   -0.00041252    0.00041038
     atom    8 type  1   force =    -0.00018254    0.00033479   -0.00025698
     atom    9 type  2   force =     0.00000060   -0.00002222    0.00003701
     atom   10 type  2   force =    -0.00000061    0.00000424   -0.00010334
     atom   11 type  2   force =     0.00000569   -0.00002984   -0.00010285
     atom   12 type  2   force =    -0.00000542   -0.00005191    0.00010660
     atom   13 type  2   force =    -0.00000543   -0.00007894    0.00019757
     atom   14 type  2   force =     0.00000583    0.00014339   -0.00014531
     atom   15 type  2   force =    -0.00000449    0.00007368   -0.00044946
     atom   16 type  2   force =     0.00000475   -0.00013652    0.00037432
     atom   17 type  2   force =    -0.00000554   -0.00005765   -0.00028358
     atom   18 type  2   force =     0.00000560    0.00011428    0.00038986

     Total force =     0.387734     Total SCF correction =     0.001723

     Computing stress (Cartesian axis) and pressure

     negative rho (up, down):  3.411E-01 0.000E+00
          total   stress  (Ry/bohr**3)                   (kbar)     P=      -23.42
   0.00075597   0.00000000   0.00000000          111.21        0.00        0.00
   0.00000000  -0.00067037   0.00000000            0.00      -98.61        0.00
   0.00000000   0.00000000  -0.00056318            0.00        0.00      -82.85

     kinetic stress (kbar)  12725.22      0.00      0.00
                                0.00  12219.79      0.00
                                0.00      0.00  12153.43

     local   stress (kbar)  -5565.88      0.00      0.16
                                0.00  -4906.11     -0.03
                                0.16     -0.03  -7631.48

     nonloc. stress (kbar)   9118.51      0.00      0.00
                                0.00   9206.32      0.00
                                0.00      0.00   9203.31

     hartree stress (kbar)   3102.54     -0.00     -0.06
                               -0.00   2636.11      0.02
                               -0.06      0.02   3258.06

     exc-cor stress (kbar)   4431.91     -0.00     -0.00
                               -0.00   4431.81      0.00
                               -0.00      0.00   4447.23

     corecor stress (kbar)  -8161.17     -0.00      0.00
                               -0.00  -8166.84     -0.00
                                0.00     -0.00  -8179.88

     ewald   stress (kbar) -15539.92     -0.00     -0.00
                               -0.00 -15519.70      0.00
                               -0.00      0.00 -13333.53

     hubbard stress (kbar)      0.00      0.00      0.00
                                0.00      0.00      0.00
                                0.00      0.00      0.00

     DFT-D   stress (kbar)      0.00      0.00      0.00
                                0.00      0.00      0.00
                                0.00      0.00      0.00

     XDM     stress (kbar)      0.00      0.00      0.00
                                0.00      0.00      0.00
                                0.00      0.00      0.00

     dft-nl  stress (kbar)      0.00      0.00      0.00
                                0.00      0.00      0.00
                                0.00      0.00      0.00

     TS-vdW  stress (kbar)      0.00      0.00      0.00
                                0.00      0.00      0.00
                                0.00      0.00      0.00

[...]

                                0.00      0.00      0.00

     Writing all to output data dir new_calculations/myprefix.save/

     General routines

     Parallel routines

     PAW routines

   This run was terminated on:   2:25:25  21May2023

   JOB DONE.