     Program PWSCF v.7.0 starts on 21May2023 at  2: 2: 3

     Reading input from espresso_6690.pwi
Warning: card &CELL ignored
Warning: card / ignored

     Current dimensions of program PWSCF are:
     Max number of different atomic species (ntypx) = 10
     Max number of k-points (npk) =  40000
     Max angular momentum in pseudopotentials (lmaxx) =  4
     file Fe.pbe-spn-kjpaw_psl.0.2.1.UPF: wavefunction(s)  3D renormalized

     gamma-point specific algorithms are used
     Message from routine setup:
     using ibrav=0 with symmetry is DISCOURAGED, use correct ibrav instead

     Subspace diagonalization in iterative solution of the eigenvalue problem:
     a serial algorithm will be used

     Using Slab Decomposition

     bravais-lattice index     =            0
     lattice parameter (alat)  =      10.9926  a.u.
     unit-cell volume          =     719.1816 (a.u.)^3
     number of atoms/cell      =           12
     number of atomic types    =            3
     number of electrons       =        70.00
     number of Kohn-Sham states=           42
     kinetic-energy cutoff     =      30.0000  Ry
     charge density cutoff     =     240.0000  Ry
     scf convergence threshold =      1.0E-06
     mixing beta               =       0.7000
     number of iterations used =            8  plain     mixing
     Exchange-correlation= PBE
                           (   1   4   3   4   0   0   0)

     celldm(1)=  10.992645  celldm(2)=   0.000000  celldm(3)=   0.000000
     celldm(4)=   0.000000  celldm(5)=   0.000000  celldm(6)=   0.000000

     crystal axes: (cart. coord. in units of alat)
               a(1) = (   1.000000   0.000000   0.000000 )
               a(2) = (   0.337712   0.941250   0.000000 )
               a(3) = (  -0.659286  -0.484225   0.575211 )

     reciprocal axes: (cart. coord. in units 2 pi/alat)
               b(1) = (  1.000000 -0.358791  0.844127 )
               b(2) = (  0.000000  1.062417  0.894366 )
               b(3) = (  0.000000  0.000000  1.738493 )

     PseudoPot. # 1 for Li read from file:
     /home/pragov/projects/rrg-bengioy-ad/pragov/crystal_structure_design/SSSP/li_pbe_v1.4.uspp.F.UPF
     MD5 check sum: e912e257baa3777c20ea3d68f190483c
     Pseudo is Ultrasoft, Zval =  3.0
     Generated by new atomic code, or converted to UPF format
     Using radial grid of  751 points,  5 beta functions with:
                l(1) =   0
                l(2) =   0
                l(3) =   0
                l(4) =   1
                l(5) =   1
     Q(r) pseudized with 10 coefficients,  rinner =    1.150   1.150   1.150

     PseudoPot. # 2 for Fe read from file:
     /home/pragov/projects/rrg-bengioy-ad/pragov/crystal_structure_design/SSSP/Fe.pbe-spn-kjpaw_psl.0.2.1.UPF
     MD5 check sum: e86618425769142926afa95317d90200
     Pseudo is Projector augmented-wave + core cor, Zval = 16.0
     Generated using "atomic" code by A. Dal Corso  v.5.0.99 svn rev. 10869
     Shape of augmentation charge: PSQ
     Using radial grid of 1191 points,  6 beta functions with:
                l(1) =   0
                l(2) =   0
                l(3) =   1
                l(4) =   1
                l(5) =   2
                l(6) =   2
     Q(r) pseudized with 0 coefficients

     PseudoPot. # 3 for N  read from file:
     /home/pragov/projects/rrg-bengioy-ad/pragov/crystal_structure_design/SSSP/N.pbe-n-radius_5.UPF
     MD5 check sum: 16739722b17309cd8fe442a2ace49922
     Pseudo is Ultrasoft + core correction, Zval =  5.0
     Generated using "atomic" code by A. Dal Corso  v.5.1
     Using radial grid of 1085 points,  4 beta functions with:
                l(1) =   0
                l(2) =   0
                l(3) =   1
                l(4) =   1
     Q(r) pseudized with 0 coefficients

     atomic species   valence    mass     pseudopotential
        Li             3.00     6.94000     Li( 1.00)
        Fe            16.00    55.84500     Fe( 1.00)
        N              5.00    14.00700     N ( 1.00)

      2 Sym. Ops., with inversion, found

                                    s                        frac. trans.

      isym =  1     identity

 cryst.   s( 1) = (     1          0          0      )
                  (     0          1          0      )
                  (     0          0          1      )

 cart.    s( 1) = (  1.0000000 -0.0000000  0.0000000 )
                  (  0.0000000  1.0000000  0.0000000 )
                  (  0.0000000  0.0000000  1.0000000 )

      isym =  2     inversion

 cryst.   s( 2) = (    -1          0          0      )
                  (     0         -1          0      )
                  (     0          0         -1      )

 cart.    s( 2) = ( -1.0000000  0.0000000 -0.0000000 )
                  (  0.0000000 -1.0000000 -0.0000000 )
                  (  0.0000000  0.0000000 -1.0000000 )

   Cartesian axes

     site n.     atom                  positions (alat units)
         1           Li  tau(   1) = (   0.0899632  -0.1278564   0.4314082  )
         2           Li  tau(   2) = (   0.5884621   0.5848810   0.1438027  )
         3           Li  tau(   3) = (   0.9129254   0.8131820   0.1438027  )
         4           Li  tau(   4) = (   0.2639988   0.3565799   0.1438027  )
         5           Li  tau(   5) = (   0.4144264   0.1004447   0.4314082  )
         6           Li  tau(   6) = (  -0.2345001  -0.3561574   0.4314082  )
         7           Fe  tau(   7) = (  -0.0803937   0.1142562   0.1438027  )
         8           Fe  tau(   8) = (  -0.2411810   0.3427685   0.4314082  )
         9           N   tau(   9) = (   0.4513014   0.4564702   0.4486766  )
        10           N   tau(  10) = (   0.9164372   0.4421049   0.1610717  )
        11           N   tau(  11) = (   0.2271246   0.0005549   0.1265338  )
        12           N   tau(  12) = (  -0.2380119   0.0149197   0.4141392  )

   Crystallographic axes

     site n.     atom                  positions (cryst. coord.)
         1           Li  tau(   1) = (  0.5000000  0.2500000  0.7500000  )
         2           Li  tau(   2) = (  0.5000000  0.7500000  0.2500000  )
         3           Li  tau(   3) = (  0.7425510  0.9925510  0.2500000  )
         4           Li  tau(   4) = (  0.2574490  0.5074490  0.2500000  )
         5           Li  tau(   5) = (  0.7425510  0.4925510  0.7500000  )
         6           Li  tau(   6) = (  0.2574490  0.0074490  0.7500000  )
         7           Fe  tau(   7) = (  0.0000000  0.2500000  0.2500000  )
         8           Fe  tau(   8) = (  0.0000000  0.7500000  0.7500000  )
         9           N   tau(   9) = (  0.6662640  0.8862430  0.7800210  )
        10           N   tau(  10) = (  0.8937790  0.6137570  0.2800220  )
        11           N   tau(  11) = (  0.3337360  0.1137570  0.2199780  )
        12           N   tau(  12) = (  0.1062210  0.3862430  0.7199780  )

     number of k points=     1  Methfessel-Paxton smearing, width (Ry)=  0.0010
                       cart. coord. in units 2pi/alat
        k(    1) = (   0.0000000   0.0000000   0.0000000), wk =   2.0000000

                       cryst. coord.
        k(    1) = (   0.0000000   0.0000000   0.0000000), wk =   2.0000000

     Check: negative core charge=   -0.000117

     Initial potential from superposition of free atoms

     starting charge      67.2946, renormalised to      70.0000
     Starting wfcs are   72 randomized atomic wfcs
     Checking if some PAW data can be deallocated...

     Self-consistent Calculation

     iteration #  1     ecut=    30.00 Ry     beta= 0.70
     Davidson diagonalization with overlap

     ethr =  1.00E-02,  avg # of iterations =  3.0

     negative rho (up, down):  1.349E-03 0.000E+00

     total energy              =    -793.39978936 Ry
     estimated scf accuracy    <      43.59826807 Ry

[...]

     negative rho (up, down):  4.335E-05 0.000E+00

[...]

     total energy              =    -825.64955461 Ry
     estimated scf accuracy    <       0.00000289 Ry

     iteration # 20     ecut=    30.00 Ry     beta= 0.70
     Davidson diagonalization with overlap

     ethr =  4.12E-09,  avg # of iterations =  1.0

     End of self-consistent calculation

          k = 0.0000 0.0000 0.0000 (  1004 PWs)   bands (ev):

   -78.8893 -78.8190 -44.8775 -44.5180 -44.4906 -44.4413 -44.4025 -44.2933
   -37.1065 -37.0185 -36.9873 -36.9684 -36.9640 -36.8817  -6.5719  -5.5457
    -5.5390  -5.4322   2.9196   3.5336   3.7233   3.7427   3.9880   4.6308
     4.7905   4.8084   4.9891   5.0685   5.1948   5.2849   6.8293   7.2994
     7.4004   8.5885   8.6461   8.8990   9.8365   9.8815   9.9333  10.5848
    11.3856  12.0633

     occupation numbers
     1.0000   1.0000   1.0000   1.0000   1.0000   1.0000   1.0000   1.0000
     1.0000   1.0000   1.0000   1.0000   1.0000   1.0000   1.0000   1.0000
     1.0000   1.0000   1.0000   1.0000   1.0000   1.0000   1.0000   1.0000
     1.0000   1.0000   1.0000   1.0000   1.0000   1.0000   1.0000   1.0000
     1.0000   1.0000   1.0000  -0.0000  -0.0000  -0.0000  -0.0000  -0.0000
    -0.0000  -0.0000

     the Fermi energy is     8.8140 ev

!    total energy              =    -825.64955446 Ry
     estimated scf accuracy    <       0.00000054 Ry
     smearing contrib. (-TS)   =       0.00000000 Ry
     internal energy E=F+TS    =    -825.64955446 Ry

     The total energy is F=E-TS. E is the sum of the following terms:
     one-electron contribution =    -494.23202097 Ry
     hartree contribution      =     268.27222112 Ry
     xc contribution           =    -111.97912835 Ry
     ewald contribution        =    -335.55351708 Ry
     one-center paw contrib.   =    -152.15710917 Ry
      -> PAW hartree energy AE =     431.64481227 Ry
      -> PAW hartree energy PS =    -430.06704279 Ry
      -> PAW xc energy AE      =    -222.82527006 Ry
      -> PAW xc energy PS      =      69.09039140 Ry
      -> total E_H with PAW    =     269.84999060 Ry
      -> total E_XC with PAW   =    -265.71400701 Ry

     convergence has been achieved in  20 iterations

     Forces acting on atoms (cartesian axes, Ry/au):

     atom    1 type  1   force =     0.00001407   -0.00000799    0.00001279
     atom    2 type  1   force =    -0.00001407    0.00000799   -0.00001279
     atom    3 type  1   force =     0.00744914    0.00523895   -0.00000748
     atom    4 type  1   force =    -0.00745138   -0.00524662   -0.00000007
     atom    5 type  1   force =     0.00745138    0.00524662    0.00000007
     atom    6 type  1   force =    -0.00744914   -0.00523895    0.00000748
     atom    7 type  2   force =     0.00011321   -0.00007291    0.00008201
     atom    8 type  2   force =    -0.00011321    0.00007291   -0.00008201
     atom    9 type  3   force =    -0.03438731   -0.01468172   -0.00758271
     atom   10 type  3   force =     0.02543322    0.02743697   -0.00756757
     atom   11 type  3   force =     0.03438731    0.01468172    0.00758271
     atom   12 type  3   force =    -0.02543322   -0.02743697    0.00756757
     The non-local contrib.  to forces
     atom    1 type  1   force =     0.00001562   -0.00000391    0.00001782
     atom    2 type  1   force =    -0.00001562    0.00000391   -0.00001782
     atom    3 type  1   force =    -0.04056854   -0.02856458    0.00001315
     atom    4 type  1   force =     0.04057528    0.02855191   -0.00000148
     atom    5 type  1   force =    -0.04057528   -0.02855191    0.00000148
     atom    6 type  1   force =     0.04056854    0.02856458   -0.00001315
     atom    7 type  2   force =     0.00014430   -0.00011101    0.00006382
     atom    8 type  2   force =    -0.00014430    0.00011101   -0.00006382
     atom    9 type  3   force =     0.19434121    0.02753403    0.08676418
     atom   10 type  3   force =    -0.09154356   -0.17361622    0.08676132
     atom   11 type  3   force =    -0.19434121   -0.02753403   -0.08676418
     atom   12 type  3   force =     0.09154356    0.17361622   -0.08676132
     The ionic contribution  to forces
     atom    1 type  1   force =    -0.00000008    0.00000810   -0.00000407
     atom    2 type  1   force =     0.00000047    0.00000097   -0.00000473
     atom    3 type  1   force =    -1.76831319   -1.24424563   -0.00000202
     atom    4 type  1   force =     1.76832117    1.24424148   -0.00000406
     atom    5 type  1   force =    -1.76832415   -1.24423607    0.00000789
     atom    6 type  1   force =     1.76832333    1.24424633   -0.00000584
     atom    7 type  2   force =     0.00005359   -0.00006392   -0.00002921
     atom    8 type  2   force =    -0.00004020    0.00001748    0.00005581
     atom    9 type  3   force =   -12.00080905   -0.55368387   -6.26919513
     atom   10 type  3   force =     4.57399957   11.10881894   -6.26921787
     atom   11 type  3   force =    12.00078526    0.55371401    6.26918584
     atom   12 type  3   force =    -4.57399672  -11.10881782    6.26921340
     The local contribution  to forces
     atom    1 type  1   force =     0.00000191   -0.00006246    0.00006932
     atom    2 type  1   force =     0.00003773   -0.00007152    0.00005991
     atom    3 type  1   force =     1.81635153    1.27796440   -0.00005903
     atom    4 type  1   force =    -1.81635731   -1.27792428    0.00003399
     atom    5 type  1   force =     1.81642638    1.27810060    0.00008644
     atom    6 type  1   force =    -1.81635760   -1.27810952   -0.00005133
     atom    7 type  2   force =    -0.00028811    0.00027304   -0.00028252
     atom    8 type  2   force =    -0.00041272    0.00024513   -0.00049994
     atom    9 type  3   force =    11.77387654    0.51162904    6.17537419
     atom   10 type  3   force =    -4.45794997  -10.90903486    6.17572261
     atom   11 type  3   force =   -11.77365146   -0.51199552   -6.17577465
     atom   12 type  3   force =     4.45771590   10.90943059   -6.17541935
     The core correction contribution to forces
     atom    1 type  1   force =     0.00000000    0.00000000    0.00000000
     atom    2 type  1   force =     0.00000000    0.00000000    0.00000000
     atom    3 type  1   force =     0.00000000    0.00000000    0.00000000
     atom    4 type  1   force =     0.00000000    0.00000000    0.00000000
     atom    5 type  1   force =     0.00000000    0.00000000    0.00000000
     atom    6 type  1   force =     0.00000000    0.00000000    0.00000000
     atom    7 type  2   force =     0.00001063   -0.00000826    0.00000795
     atom    8 type  2   force =    -0.00002138    0.00000848   -0.00001959
     atom    9 type  3   force =    -0.00151133   -0.00028191   -0.00062149
     atom   10 type  3   force =     0.00077540    0.00132805   -0.00062133
     atom   11 type  3   force =     0.00151216    0.00028149    0.00062123
     atom   12 type  3   force =    -0.00077598   -0.00132764    0.00062130
     The Hubbard contrib.    to forces
     atom    1 type  1   force =     0.00000000    0.00000000    0.00000000
     atom    2 type  1   force =     0.00000000    0.00000000    0.00000000
     atom    3 type  1   force =     0.00000000    0.00000000    0.00000000
     atom    4 type  1   force =     0.00000000    0.00000000    0.00000000
     atom    5 type  1   force =     0.00000000    0.00000000    0.00000000
     atom    6 type  1   force =     0.00000000    0.00000000    0.00000000
     atom    7 type  2   force =     0.00000000    0.00000000    0.00000000
     atom    8 type  2   force =     0.00000000    0.00000000    0.00000000
     atom    9 type  3   force =     0.00000000    0.00000000    0.00000000
     atom   10 type  3   force =     0.00000000    0.00000000    0.00000000
     atom   11 type  3   force =     0.00000000    0.00000000    0.00000000
     atom   12 type  3   force =     0.00000000    0.00000000    0.00000000
     The SCF correction term to forces
     atom    1 type  1   force =    -0.00000292    0.00003897   -0.00006230
     atom    2 type  1   force =    -0.00003620    0.00006333   -0.00004219
     atom    3 type  1   force =    -0.00002235    0.00007718    0.00003854
     atom    4 type  1   force =     0.00001801   -0.00010631   -0.00002671
     atom    5 type  1   force =    -0.00006704   -0.00005658   -0.00009393
     atom    6 type  1   force =     0.00001491    0.00005207    0.00007592
     atom    7 type  2   force =     0.00021798   -0.00020515    0.00034697
     atom    8 type  2   force =     0.00053058   -0.00035159    0.00047052
     atom    9 type  3   force =    -0.00027333    0.00011616    0.00008364
     atom   10 type  3   force =     0.00013680   -0.00003901   -0.00023281
     atom   11 type  3   force =     0.00009392    0.00021096    0.00030256
     atom   12 type  3   force =     0.00006504   -0.00031839   -0.00010698

     Total force =     0.078466     Total SCF correction =     0.001152

     Computing stress (Cartesian axis) and pressure

          total   stress  (Ry/bohr**3)                   (kbar)     P=     -293.27
  -0.00232309  -0.00045049  -0.00031323         -341.74      -66.27      -46.08
  -0.00045049  -0.00200268   0.00044275          -66.27     -294.60       65.13
  -0.00031323   0.00044275  -0.00165516          -46.08       65.13     -243.48

     kinetic stress (kbar)  22371.26    -98.71    -10.96
                              -98.71  22442.38     15.82
                              -10.96     15.82  22513.08

     local   stress (kbar)   8383.78  14799.90  14349.92
                            14799.90  -2237.48 -20395.01
                            14349.92 -20395.01 -14093.22

     nonloc. stress (kbar)  -8661.30    -12.57      7.12
                              -12.57  -8652.45    -10.25
                                7.12    -10.25  -8644.44

     hartree stress (kbar)  13414.65  -6545.35  -6263.70
                            -6545.35  18112.07   8902.37
                            -6263.70   8902.37  23347.04

     exc-cor stress (kbar)  -2985.68     -2.26     -2.14
                               -2.26  -2984.04      3.05
                               -2.14      3.05  -2982.24

     corecor stress (kbar)  -3862.30      0.23     -0.58
                                0.23  -3862.50      0.78
                               -0.58      0.78  -3862.62

     ewald   stress (kbar) -29002.16  -8207.51  -8125.74
                            -8207.51 -23112.58  11548.36
                            -8125.74  11548.36 -16521.09

     hubbard stress (kbar)      0.00      0.00      0.00
                                0.00      0.00      0.00
                                0.00      0.00      0.00

     DFT-D   stress (kbar)      0.00      0.00      0.00
                                0.00      0.00      0.00
                                0.00      0.00      0.00

     XDM     stress (kbar)      0.00      0.00      0.00
                                0.00      0.00      0.00
                                0.00      0.00      0.00

     dft-nl  stress (kbar)      0.00      0.00      0.00
                                0.00      0.00      0.00
                                0.00      0.00      0.00

     TS-vdW  stress (kbar)      0.00      0.00      0.00
                                0.00      0.00      0.00
                                0.00      0.00      0.00

[...]

                                0.00      0.00      0.00

     Writing all to output data dir new_calculations/myprefix.save/

     General routines

     Parallel routines

     PAW routines

   This run was terminated on:   2: 2:30  21May2023

   JOB DONE.