     Program PWSCF v.7.0 starts on 20May2023 at 11:55: 1

     Reading input from espresso_12266.pwi
Warning: card &CELL ignored
Warning: card / ignored

     Current dimensions of program PWSCF are:
     Max number of different atomic species (ntypx) = 10
     Max number of k-points (npk) =  40000
     Max angular momentum in pseudopotentials (lmaxx) =  4
     file K.pbe-spn-kjpaw_psl.1.0.0.UPF: wavefunction(s)  3S renormalized
     file O.pbe-n-kjpaw_psl.0.1.UPF: wavefunction(s)  2P renormalized

     gamma-point specific algorithms are used
     Message from routine setup:
     using ibrav=0 with symmetry is DISCOURAGED, use correct ibrav instead

     Subspace diagonalization in iterative solution of the eigenvalue problem:
     a serial algorithm will be used

     Using Slab Decomposition

     bravais-lattice index     =            0
     lattice parameter (alat)  =      10.5934  a.u.
     unit-cell volume          =    2263.6077 (a.u.)^3
     number of atoms/cell      =           18
     number of atomic types    =            3
     number of electrons       =       174.00
     number of Kohn-Sham states=          104
     kinetic-energy cutoff     =      30.0000  Ry
     charge density cutoff     =     240.0000  Ry
     scf convergence threshold =      1.0E-06
     mixing beta               =       0.7000
     number of iterations used =            8  plain     mixing
     Exchange-correlation= SLA  PW   PBX  PBC
                           (   1   4   3   4   0   0   0)

     celldm(1)=  10.593385  celldm(2)=   0.000000  celldm(3)=   0.000000
     celldm(4)=   0.000000  celldm(5)=   0.000000  celldm(6)=   0.000000

     crystal axes: (cart. coord. in units of alat)
               a(1) = (   1.000000   0.000000   0.000000 )
               a(2) = (  -0.382968   0.923762   0.000000 )
               a(3) = (   0.000000   0.000000   2.061280 )

     reciprocal axes: (cart. coord. in units 2 pi/alat)
               b(1) = (  1.000000  0.414574  0.000000 )
               b(2) = (  0.000000  1.082530  0.000000 )
               b(3) = (  0.000000  0.000000  0.485135 )

     PseudoPot. # 1 for K  read from file:
     /home/pragov/projects/rrg-bengioy-ad/pragov/crystal_structure_design/SSSP/K.pbe-spn-kjpaw_psl.1.0.0.UPF
     MD5 check sum: 7d58810084cac21f60fbe77ea2b688fd
     Pseudo is Projector augmented-wave + core cor, Zval =  9.0
     Generated using "atomic" code by A. Dal Corso  v.5.1
     Shape of augmentation charge: PSQ
     Using radial grid of 1165 points,  6 beta functions with:
                l(1) =   0
                l(2) =   0
                l(3) =   1
                l(4) =   1
                l(5) =   2
                l(6) =   2
     Q(r) pseudized with 0 coefficients

     PseudoPot. # 2 for Pd read from file:
     /home/pragov/projects/rrg-bengioy-ad/pragov/crystal_structure_design/SSSP/Pd_ONCV_PBE-1.0.oncvpsp.upf
     MD5 check sum: eb77f42b51d86fb18e25f68156a31cf1
     Pseudo is Norm-conserving, Zval = 18.0
     Generated using ONCVPSP code by D. R. Hamann
     Using radial grid of 1410 points,  6 beta functions with:
                l(1) =   0
                l(2) =   0
                l(3) =   1
                l(4) =   1
                l(5) =   2
                l(6) =   2

     PseudoPot. # 3 for O  read from file:
     /home/pragov/projects/rrg-bengioy-ad/pragov/crystal_structure_design/SSSP/O.pbe-n-kjpaw_psl.0.1.UPF
     MD5 check sum: 0234752ac141de4415c5fc33072bef88
     Pseudo is Projector augmented-wave + core cor, Zval =  6.0
     Generated using "atomic" code by A. Dal Corso  v.5.0.99 svn rev. 10869
     Shape of augmentation charge: BESSEL
     Using radial grid of 1095 points,  4 beta functions with:
                l(1) =   0
                l(2) =   0
                l(3) =   1
                l(4) =   1
     Q(r) pseudized with 0 coefficients

     atomic species   valence    mass     pseudopotential
        K              9.00    39.09830     K ( 1.00)
        Pd            18.00   106.42000     Pd( 1.00)
        O              6.00    15.99900     O ( 1.00)

      4 Sym. Ops., with inversion, found ( 2 have fractional translation)

                                    s                        frac. trans.

      isym =  1     identity

 cryst.   s( 1) = (     1          0          0      )
                  (     0          1          0      )
                  (     0          0          1      )

 cart.    s( 1) = (  1.0000000  0.0000000  0.0000000 )
                  (  0.0000000  1.0000000  0.0000000 )
                  (  0.0000000  0.0000000  1.0000000 )

      isym =  2     180 deg rotation - cart. axis [0,0,1]

 cryst.   s( 2) = (    -1          0          0      )    f =( -0.0000000 )
                  (     0         -1          0      )       (  0.0000000 )
                  (     0          0          1      )       ( -0.5000000 )

 cart.    s( 2) = ( -1.0000000 -0.0000000  0.0000000 )    f =( -0.0000000 )
                  (  0.0000000 -1.0000000  0.0000000 )       (  0.0000000 )
                  (  0.0000000  0.0000000  1.0000000 )       ( -1.0306400 )

      isym =  3     inversion

 cryst.   s( 3) = (    -1          0          0      )
                  (     0         -1          0      )
                  (     0          0         -1      )

 cart.    s( 3) = ( -1.0000000 -0.0000000  0.0000000 )
                  (  0.0000000 -1.0000000  0.0000000 )
                  (  0.0000000  0.0000000 -1.0000000 )

      isym =  4     inv. 180 deg rotation - cart. axis [0,0,1]

 cryst.   s( 4) = (     1          0          0      )    f =(  0.0000000 )
                  (     0          1          0      )       (  0.0000000 )
                  (     0          0         -1      )       (  0.5000000 )

 cart.    s( 4) = (  1.0000000  0.0000000  0.0000000 )    f =(  0.0000000 )
                  (  0.0000000  1.0000000  0.0000000 )       (  0.0000000 )
                  (  0.0000000  0.0000000 -1.0000000 )       (  1.0306400 )

   Cartesian axes

     site n.     atom                  positions (alat units)
         1           K   tau(   1) = (   0.1024346   0.5995343   1.1712110  )
         2           K   tau(   2) = (   0.5145977   0.3242274   0.1405710  )
         3           K   tau(   3) = (   0.0179187   0.6559872   0.5153200  )
         4           K   tau(   4) = (   0.5145977   0.3242274   0.8900689  )
         5           K   tau(   5) = (   0.5991136   0.2677745   1.5459599  )
         6           K   tau(   6) = (   0.1024346   0.5995343   1.9207089  )
         7           Pd  tau(   7) = (  -0.2795231   0.8546653   1.5459599  )
         8           Pd  tau(   8) = (   0.0000000   0.0000000   0.0000000  )
         9           Pd  tau(   9) = (   0.8965554   0.0690965   0.5153200  )
        10           Pd  tau(  10) = (   0.0000000   0.0000000   1.0306400  )
        11           O   tau(  11) = (   0.0224678   0.2689560   0.7913810  )
        12           O   tau(  12) = (   0.3771855   0.8000054   0.7913810  )
        13           O   tau(  13) = (   0.2398468   0.1237564   1.2698989  )
        14           O   tau(  14) = (   0.3771855   0.8000054   0.2392589  )
        15           O   tau(  15) = (   0.5945645   0.6548057   1.2698989  )
        16           O   tau(  16) = (   0.2398468   0.1237564   1.8220210  )
        17           O   tau(  17) = (   0.0224678   0.2689560   0.2392589  )
        18           O   tau(  18) = (   0.5945645   0.6548057   1.8220210  )

   Crystallographic axes

     site n.     atom                  positions (cryst. coord.)
         1           K   tau(   1) = (  0.3509860  0.6490140  0.5681960  )
         2           K   tau(   2) = (  0.6490140  0.3509860  0.0681960  )
         3           K   tau(   3) = (  0.2898740  0.7101260  0.2500000  )
         4           K   tau(   4) = (  0.6490140  0.3509860  0.4318040  )
         5           K   tau(   5) = (  0.7101260  0.2898740  0.7500000  )
         6           K   tau(   6) = (  0.3509860  0.6490140  0.9318040  )
         7           Pd  tau(   7) = (  0.0747990  0.9252010  0.7500000  )
         8           Pd  tau(   8) = (  0.0000000  0.0000000  0.0000000  )
         9           Pd  tau(   9) = (  0.9252010  0.0747990  0.2500000  )
        10           Pd  tau(  10) = (  0.0000000  0.0000000  0.5000000  )
        11           O   tau(  11) = (  0.1339700  0.2911530  0.3839270  )
        12           O   tau(  12) = (  0.7088470  0.8660300  0.3839270  )
        13           O   tau(  13) = (  0.2911530  0.1339700  0.6160730  )
        14           O   tau(  14) = (  0.7088470  0.8660300  0.1160730  )
        15           O   tau(  15) = (  0.8660300  0.7088470  0.6160730  )
        16           O   tau(  16) = (  0.2911530  0.1339700  0.8839270  )
        17           O   tau(  17) = (  0.1339700  0.2911530  0.1160730  )
        18           O   tau(  18) = (  0.8660300  0.7088470  0.8839270  )

     number of k points=     1  Methfessel-Paxton smearing, width (Ry)=  0.0010
                       cart. coord. in units 2pi/alat
        k(    1) = (   0.0000000   0.0000000   0.0000000), wk =   2.0000000

                       cryst. coord.
        k(    1) = (   0.0000000   0.0000000   0.0000000), wk =   2.0000000

     Check: negative core charge=   -0.000010

     Initial potential from superposition of free atoms

     starting charge     173.8856, renormalised to     174.0000
     Starting wfcs are  120 randomized atomic wfcs
     Checking if some PAW data can be deallocated...

     Self-consistent Calculation

     iteration #  1     ecut=    30.00 Ry     beta= 0.70
     Davidson diagonalization with overlap

     ethr =  1.00E-02,  avg # of iterations = 10.0

     total energy              =   -2021.48915000 Ry
     estimated scf accuracy    <       3.05589105 Ry

[...]

     total energy              =   -2023.03832705 Ry
     estimated scf accuracy    <       0.00000998 Ry

     iteration # 20     ecut=    30.00 Ry     beta= 0.70
     Davidson diagonalization with overlap

     ethr =  1.26E-09,  avg # of iterations =  1.0

     End of self-consistent calculation

          k = 0.0000 0.0000 0.0000 (  3146 PWs)   bands (ev):

   -78.7283 -78.7279 -78.6937 -78.6934 -44.4832 -44.4541 -44.4094 -44.3798
   -44.2283 -44.2269 -44.1209 -44.1203 -43.7255 -43.7244 -43.5845 -43.5842
   -22.7415 -22.7360 -22.6610 -22.6577 -22.4887 -22.4863 -10.9658 -10.6812
   -10.6545 -10.4423 -10.3511 -10.3289 -10.2928 -10.1810  -6.5299  -6.4983
    -6.2829  -6.2796  -6.2778  -6.2492  -6.2454  -6.2256  -6.2174  -6.1676
    -6.0585  -6.0189  -5.9985  -5.9871  -5.9619  -5.9597  -5.9501  -5.9189
     1.1905   1.3518   1.6430   1.7574   1.8002   2.0671   2.1285   2.4326
     2.5987   2.7342   2.9040   3.0414   3.1421   3.1617   3.4774   3.7056
     3.8944   3.8956   4.3074   4.4981   4.5894   4.5903   4.7562   4.7819
     4.9805   5.0626   5.3100   5.3512   5.4610   5.5351   5.6795   6.0250
     6.2173   6.2873   6.3266   6.3752   6.4014   6.6398   6.7948   6.9571
     8.8802   9.1589   9.1907   9.3518   9.5459  10.4584  10.9662  11.1256
    11.1906  11.7771  12.2552  12.8630  12.9955  13.3048  13.5628  13.8475

     occupation numbers
     1.0000   1.0000   1.0000   1.0000   1.0000   1.0000   1.0000   1.0000
     1.0000   1.0000   1.0000   1.0000   1.0000   1.0000   1.0000   1.0000
     1.0000   1.0000   1.0000   1.0000   1.0000   1.0000   1.0000   1.0000
     1.0000   1.0000   1.0000   1.0000   1.0000   1.0000   1.0000   1.0000
     1.0000   1.0000   1.0000   1.0000   1.0000   1.0000   1.0000   1.0000
     1.0000   1.0000   1.0000   1.0000   1.0000   1.0000   1.0000   1.0000
     1.0000   1.0000   1.0000   1.0000   1.0000   1.0000   1.0000   1.0000
     1.0000   1.0000   1.0000   1.0000   1.0000   1.0000   1.0000   1.0000
     1.0000   1.0000   1.0000   1.0000   1.0000   1.0000   1.0000   1.0000
     1.0000   1.0000   1.0000   1.0000   1.0000   1.0000   1.0000   1.0000
     1.0000   1.0000   1.0000   1.0000   1.0000   1.0000   1.0000  -0.0000
    -0.0000  -0.0000  -0.0000  -0.0000  -0.0000  -0.0000  -0.0000  -0.0000
    -0.0000  -0.0000  -0.0000  -0.0000  -0.0000  -0.0000  -0.0000  -0.0000

     the Fermi energy is     6.8658 ev

!    total energy              =   -2023.03832732 Ry
     estimated scf accuracy    <       0.00000028 Ry
     smearing contrib. (-TS)   =       0.00000000 Ry
     internal energy E=F+TS    =   -2023.03832732 Ry

     The total energy is F=E-TS. E is the sum of the following terms:
     one-electron contribution =   -1038.74008164 Ry
     hartree contribution      =     585.57297798 Ry
     xc contribution           =    -225.58318063 Ry
     ewald contribution        =    -935.55332903 Ry
     one-center paw contrib.   =    -408.73471400 Ry
      -> PAW hartree energy AE =     452.53192093 Ry
      -> PAW hartree energy PS =    -450.48324043 Ry
      -> PAW xc energy AE      =    -533.00035955 Ry
      -> PAW xc energy PS      =     122.21696506 Ry
      -> total E_H with PAW    =     587.62165847 Ry
      -> total E_XC with PAW   =    -636.36657512 Ry

     convergence has been achieved in  20 iterations

     Forces acting on atoms (cartesian axes, Ry/au):

     atom    1 type  1   force =     0.00812694   -0.00542967   -0.01977509
     atom    2 type  1   force =    -0.00812694    0.00542967   -0.01977509
     atom    3 type  1   force =     0.00379286   -0.00254162    0.00000000
     atom    4 type  1   force =    -0.00812694    0.00542967    0.01977509
     atom    5 type  1   force =    -0.00379286    0.00254162    0.00000000
     atom    6 type  1   force =     0.00812694   -0.00542967    0.01977509
     atom    7 type  2   force =     0.00070784   -0.00046230    0.00000000
     atom    8 type  2   force =     0.00000000    0.00000000    0.00000000
     atom    9 type  2   force =    -0.00070784    0.00046230    0.00000000
     atom   10 type  2   force =     0.00000000    0.00000000    0.00000000
     atom   11 type  3   force =    -0.00184895   -0.01583072   -0.01099566
     atom   12 type  3   force =     0.01393456    0.00778576   -0.01099919
     atom   13 type  3   force =    -0.01393456   -0.00778576    0.01099919
     atom   14 type  3   force =     0.01393456    0.00778576    0.01099919
     atom   15 type  3   force =     0.00184895    0.01583072    0.01099566
     atom   16 type  3   force =    -0.01393456   -0.00778576   -0.01099919
     atom   17 type  3   force =    -0.00184895   -0.01583072    0.01099566
     atom   18 type  3   force =     0.00184895    0.01583072   -0.01099566
     The non-local contrib.  to forces
     atom    1 type  1   force =     0.00388811   -0.00260081    0.05161733
     atom    2 type  1   force =    -0.00388811    0.00260081    0.05161733
     atom    3 type  1   force =    -0.04485956    0.02995343    0.00000000
     atom    4 type  1   force =    -0.00388811    0.00260081   -0.05161733
     atom    5 type  1   force =     0.04485956   -0.02995343    0.00000000
     atom    6 type  1   force =     0.00388811   -0.00260081   -0.05161733
     atom    7 type  2   force =     0.00629274   -0.00420038    0.00000000
     atom    8 type  2   force =    -0.00000000   -0.00000000    0.00000000
     atom    9 type  2   force =    -0.00629274    0.00420038    0.00000000
     atom   10 type  2   force =     0.00000000    0.00000000    0.00000000
     atom   11 type  3   force =    -0.29716468   -0.95086247   -0.02270043
     atom   12 type  3   force =     0.76458845    0.63868177   -0.02271751
     atom   13 type  3   force =    -0.76458845   -0.63868177    0.02271751
     atom   14 type  3   force =     0.76458845    0.63868177    0.02271751
     atom   15 type  3   force =     0.29716468    0.95086247    0.02270043
     atom   16 type  3   force =    -0.76458845   -0.63868177   -0.02271751
     atom   17 type  3   force =    -0.29716468   -0.95086247    0.02270043
     atom   18 type  3   force =     0.29716468    0.95086247   -0.02270043
     The ionic contribution  to forces
     atom    1 type  1   force =     1.20824201   -0.80705261    1.85355927
     atom    2 type  1   force =    -1.20824201    0.80705261    1.85355927
     atom    3 type  1   force =    -1.37690202    0.91971009   -0.00000000
     atom    4 type  1   force =    -1.20824201    0.80705261   -1.85355927
     atom    5 type  1   force =     1.37690202   -0.91971009    0.00000000
     atom    6 type  1   force =     1.20824201   -0.80705261   -1.85355927
     atom    7 type  2   force =     1.62313266   -1.08418135    0.00000000
     atom    8 type  2   force =     0.00000000    0.00000000    0.00000000
     atom    9 type  2   force =    -1.62313266    1.08418135    0.00000000
     atom   10 type  2   force =     0.00000000    0.00000000   -0.00000000
     atom   11 type  3   force =     4.79584115   13.59224439    0.10183023
     atom   12 type  3   force =   -10.71934265   -9.63560549    0.10183023
     atom   13 type  3   force =    10.71934265    9.63560549   -0.10183023
     atom   14 type  3   force =   -10.71934265   -9.63560549   -0.10183023
     atom   15 type  3   force =    -4.79584115  -13.59224439   -0.10183023
     atom   16 type  3   force =    10.71934265    9.63560549    0.10183023
     atom   17 type  3   force =     4.79584115   13.59224439   -0.10183023
     atom   18 type  3   force =    -4.79584115  -13.59224439    0.10183023
     The local contribution  to forces
     atom    1 type  1   force =    -1.20385547    0.80419257   -1.92346172
     atom    2 type  1   force =     1.20396913   -0.80408360   -1.92296057
     atom    3 type  1   force =     1.42295739   -0.95047653    0.00017817
     atom    4 type  1   force =     1.20389634   -0.80418172    1.92315544
     atom    5 type  1   force =    -1.42292549    0.95055216   -0.00019491
     atom    6 type  1   force =    -1.20391534    0.80412029    1.92327242
     atom    7 type  2   force =    -1.62900793    1.08756013   -0.00044454
     atom    8 type  2   force =    -0.00019946   -0.00031412    0.00031810
     atom    9 type  2   force =     1.62874329   -1.08793260    0.00046924
     atom   10 type  2   force =    -0.00008515   -0.00004403   -0.00031349
     atom   11 type  3   force =    -4.50380239  -12.66831175   -0.09044378
     atom   12 type  3   force =     9.97754826    9.01201183   -0.09041807
     atom   13 type  3   force =    -9.97750612   -9.01195507    0.09023756
     atom   14 type  3   force =     9.97768424    9.01196657    0.09060793
     atom   15 type  3   force =     4.50375041   12.66827502    0.09032040
     atom   16 type  3   force =    -9.97763210   -9.01194039   -0.09048422
     atom   17 type  3   force =    -4.50388397  -12.66810082    0.09064994
     atom   18 type  3   force =     4.50383711   12.66807257   -0.09049102
     The core correction contribution to forces
     atom    1 type  1   force =    -0.00010771    0.00007192   -0.00170952
     atom    2 type  1   force =     0.00010755   -0.00007270   -0.00170535
     atom    3 type  1   force =     0.00256836   -0.00171548   -0.00000103
     atom    4 type  1   force =     0.00010783   -0.00007179    0.00170598
     atom    5 type  1   force =    -0.00256817    0.00171475    0.00000014
     atom    6 type  1   force =    -0.00010788    0.00007195    0.00170985
     atom    7 type  2   force =     0.00000000    0.00000000    0.00000000
     atom    8 type  2   force =     0.00000000    0.00000000    0.00000000
     atom    9 type  2   force =     0.00000000    0.00000000    0.00000000
     atom   10 type  2   force =     0.00000000    0.00000000    0.00000000
     atom   11 type  3   force =     0.00327291    0.01096352    0.00025449
     atom   12 type  3   force =    -0.00887474   -0.00722102    0.00025465
     atom   13 type  3   force =     0.00887473    0.00722110   -0.00025480
     atom   14 type  3   force =    -0.00887437   -0.00722205   -0.00025495
     atom   15 type  3   force =    -0.00327279   -0.01096299   -0.00025427
     atom   16 type  3   force =     0.00887465    0.00722229    0.00025484
     atom   17 type  3   force =     0.00327180    0.01096420   -0.00025469
     atom   18 type  3   force =    -0.00327136   -0.01096276    0.00025477
     The Hubbard contrib.    to forces
     atom    1 type  1   force =     0.00000000    0.00000000    0.00000000
     atom    2 type  1   force =     0.00000000    0.00000000    0.00000000
     atom    3 type  1   force =     0.00000000    0.00000000    0.00000000
     atom    4 type  1   force =     0.00000000    0.00000000    0.00000000
     atom    5 type  1   force =     0.00000000    0.00000000    0.00000000
     atom    6 type  1   force =     0.00000000    0.00000000    0.00000000
     atom    7 type  2   force =     0.00000000    0.00000000    0.00000000
     atom    8 type  2   force =     0.00000000    0.00000000    0.00000000
     atom    9 type  2   force =     0.00000000    0.00000000    0.00000000
     atom   10 type  2   force =     0.00000000    0.00000000    0.00000000
     atom   11 type  3   force =     0.00000000    0.00000000    0.00000000
     atom   12 type  3   force =     0.00000000    0.00000000    0.00000000
     atom   13 type  3   force =     0.00000000    0.00000000    0.00000000
     atom   14 type  3   force =     0.00000000    0.00000000    0.00000000
     atom   15 type  3   force =     0.00000000    0.00000000    0.00000000
     atom   16 type  3   force =     0.00000000    0.00000000    0.00000000
     atom   17 type  3   force =     0.00000000    0.00000000    0.00000000
     atom   18 type  3   force =     0.00000000    0.00000000    0.00000000
     The SCF correction term to forces
     atom    1 type  1   force =    -0.00003699   -0.00004113    0.00015927
     atom    2 type  1   force =    -0.00007779   -0.00007975   -0.00021624
     atom    3 type  1   force =     0.00003354   -0.00001974   -0.00020250
     atom    4 type  1   force =     0.00000267    0.00003663    0.00003484
     atom    5 type  1   force =    -0.00005595   -0.00006838    0.00020386
     atom    6 type  1   force =     0.00001643    0.00002646    0.00003415
     atom    7 type  2   force =     0.00029064    0.00036856    0.00043695
     atom    8 type  2   force =     0.00020290    0.00033301   -0.00025609
     atom    9 type  2   force =    -0.00002547    0.00002245   -0.00047899
     atom   10 type  2   force =     0.00008032    0.00004491    0.00025868
     atom   11 type  3   force =     0.00004381    0.00012013    0.00004695
     atom   12 type  3   force =    -0.00001517   -0.00006564    0.00003142
     atom   13 type  3   force =    -0.00002559    0.00000785    0.00012944
     atom   14 type  3   force =    -0.00008857   -0.00004893   -0.00025230
     atom   15 type  3   force =     0.00001588   -0.00005254    0.00007629
     atom   16 type  3   force =     0.00003905    0.00002708    0.00012664
     atom   17 type  3   force =     0.00006285   -0.00001323   -0.00028205
     atom   18 type  3   force =     0.00000741    0.00010333    0.00013234

     Total force =     0.070656     Total SCF correction =     0.001172

     Computing stress (Cartesian axis) and pressure

          total   stress  (Ry/bohr**3)                   (kbar)     P=     -472.83
  -0.00320497  -0.00001238   0.00000000         -471.47       -1.82        0.00
  -0.00001238  -0.00321527   0.00000000           -1.82     -472.98        0.00
   0.00000000   0.00000000  -0.00322241            0.00        0.00     -474.03

     kinetic stress (kbar)  26706.21   -299.02      0.00
                             -299.02  26458.26      0.00
                                0.00      0.00  25970.56

     local   stress (kbar)  -3335.02 -11884.20      0.01
                           -11884.20 -13188.84      0.07
                                0.01      0.07 -43337.47

     nonloc. stress (kbar)   5135.04     55.79      0.00
                               55.79   5181.29      0.00
                                0.00      0.00   5241.59

     hartree stress (kbar)   5508.61   5008.71      0.00
                             5008.71   9661.64     -0.06
                                0.00     -0.06  22884.38

     exc-cor stress (kbar)  -3237.34      6.55     -0.00
                                6.55  -3231.90      0.00
                               -0.00      0.00  -3224.09

     corecor stress (kbar)  -1271.40      0.28      0.00
                                0.28  -1271.17     -0.00
                                0.00     -0.00  -1270.02

     ewald   stress (kbar) -29977.57   7110.08      0.00
                             7110.08 -24082.26     -0.00
                                0.00     -0.00  -6738.98

     hubbard stress (kbar)      0.00      0.00      0.00
                                0.00      0.00      0.00
                                0.00      0.00      0.00

     DFT-D   stress (kbar)      0.00      0.00      0.00
                                0.00      0.00      0.00
                                0.00      0.00      0.00

     XDM     stress (kbar)      0.00      0.00      0.00
                                0.00      0.00      0.00
                                0.00      0.00      0.00

     dft-nl  stress (kbar)      0.00      0.00      0.00
                                0.00      0.00      0.00
                                0.00      0.00      0.00

     TS-vdW  stress (kbar)      0.00      0.00      0.00
                                0.00      0.00      0.00
                                0.00      0.00      0.00

[...]

                                0.00      0.00      0.00

     Writing all to output data dir new_calculations/myprefix.save/

     General routines

     Parallel routines

     PAW routines

   This run was terminated on:  11:55:42  20May2023

   JOB DONE.