     Program PWSCF v.7.0 starts on 21May2023 at 18:22: 1

     Reading input from espresso_25765.pwi
Warning: card &CELL ignored
Warning: card / ignored

     Current dimensions of program PWSCF are:
     Max number of different atomic species (ntypx) = 10
     Max number of k-points (npk) =  40000
     Max angular momentum in pseudopotentials (lmaxx) =  4
     file Fe.pbe-spn-kjpaw_psl.0.2.1.UPF: wavefunction(s)  3D renormalized

     gamma-point specific algorithms are used
     Message from routine setup:
     using ibrav=0 with symmetry is DISCOURAGED, use correct ibrav instead

     Subspace diagonalization in iterative solution of the eigenvalue problem:
     a serial algorithm will be used

     Using Slab Decomposition

     bravais-lattice index     =            0
     lattice parameter (alat)  =      11.9002  a.u.
     unit-cell volume          =     559.8277 (a.u.)^3
     number of atoms/cell      =            5
     number of atomic types    =            3
     number of electrons       =        52.00
     number of Kohn-Sham states=           31
     kinetic-energy cutoff     =      30.0000  Ry
     charge density cutoff     =     240.0000  Ry
     scf convergence threshold =      1.0E-06
     mixing beta               =       0.7000
     number of iterations used =            8  plain     mixing
     Exchange-correlation= PBE
                           (   1   4   3   4   0   0   0)

     celldm(1)=  11.900205  celldm(2)=   0.000000  celldm(3)=   0.000000
     celldm(4)=   0.000000  celldm(5)=   0.000000  celldm(6)=   0.000000

     crystal axes: (cart. coord. in units of alat)
               a(1) = (   1.000000   0.000000   0.000000 )
               a(2) = (   0.632288   0.774733   0.000000 )
               a(3) = (  -0.816144  -0.387367   0.428784 )

     reciprocal axes: (cart. coord. in units 2 pi/alat)
               b(1) = (  1.000000 -0.816136  1.166088 )
               b(2) = (  0.000000  1.290767  1.166088 )
               b(3) = (  0.000000  0.000000  2.332175 )

     PseudoPot. # 1 for Sr read from file:
     /home/pragov/projects/rrg-bengioy-ad/pragov/crystal_structure_design/SSSP/Sr_pbe_v1.uspp.F.UPF
     MD5 check sum: 6b418c05fbe9db5448babca5e47b7a5b
     Pseudo is Ultrasoft + core correction, Zval = 10.0
     Generated by new atomic code, or converted to UPF format
     Using radial grid of  883 points,  6 beta functions with:
                l(1) =   0
                l(2) =   0
                l(3) =   1
                l(4) =   1
                l(5) =   2
                l(6) =   2
     Q(r) pseudized with  6 coefficients,  rinner =    1.400   1.400   1.400
                                                       1.400   1.400

     PseudoPot. # 2 for Fe read from file:
     /home/pragov/projects/rrg-bengioy-ad/pragov/crystal_structure_design/SSSP/Fe.pbe-spn-kjpaw_psl.0.2.1.UPF
     MD5 check sum: e86618425769142926afa95317d90200
     Pseudo is Projector augmented-wave + core cor, Zval = 16.0
     Generated using "atomic" code by A. Dal Corso  v.5.0.99 svn rev. 10869
     Shape of augmentation charge: PSQ
     Using radial grid of 1191 points,  6 beta functions with:
                l(1) =   0
                l(2) =   0
                l(3) =   1
                l(4) =   1
                l(5) =   2
                l(6) =   2
     Q(r) pseudized with 0 coefficients

     PseudoPot. # 3 for P  read from file:
     /home/pragov/projects/rrg-bengioy-ad/pragov/crystal_structure_design/SSSP/P.pbe-n-rrkjus_psl.1.0.0.UPF
     MD5 check sum: 8b930f418f0a4573dca56cd030ffe088
     Pseudo is Ultrasoft + core correction, Zval =  5.0
     Generated using "atomic" code by A. Dal Corso  v.5.1
     Using radial grid of 1147 points,  6 beta functions with:
                l(1) =   0
                l(2) =   0
                l(3) =   1
                l(4) =   1
                l(5) =   2
                l(6) =   2
     Q(r) pseudized with 0 coefficients

     atomic species   valence    mass     pseudopotential
        Sr            10.00    87.62000     Sr( 1.00)
        Fe            16.00    55.84500     Fe( 1.00)
        P              5.00    30.97376     P ( 1.00)

      4 Sym. Ops., with inversion, found

                                    s                        frac. trans.

      isym =  1     identity

 cryst.   s( 1) = (     1          0          0      )
                  (     0          1          0      )
                  (     0          0          1      )

 cart.    s( 1) = (  1.0000000  0.0000000 -0.0000000 )
                  (  0.0000000  1.0000000 -0.0000000 )
                  (  0.0000000  0.0000000  1.0000000 )

      isym =  2     180 deg rotation - cart. axis [0,0,1]

[...]

      isym =  3     inversion

[...]

      isym =  4     inv. 180 deg rotation - cart. axis [0,0,1]

 cryst.   s( 4) = (     1          0          0      )
                  (     0          1          0      )
                  (    -1         -1         -1      )

 cart.    s( 4) = (  1.0000000  0.0000000  0.0000000 )
                  (  0.0000000  1.0000000  0.0000000 )
                  (  0.0000000  0.0000000 -1.0000000 )

   Cartesian axes

     site n.     atom                  positions (alat units)
         1           Sr  tau(   1) = (   0.0000000   0.0000000   0.0000000  )
         2           Fe  tau(   2) = (   0.5000000  -0.0000000   0.2143921  )
         3           Fe  tau(   3) = (   0.3161441   0.3873667   0.2143921  )
         4           P   tau(   4) = (   1.0676764   0.5067515   0.0000000  )
         5           P   tau(   5) = (   0.5646117   0.2679818   0.0000000  )

   Crystallographic axes

     site n.     atom                  positions (cryst. coord.)
         1           Sr  tau(   1) = (  0.0000000  0.0000000  0.0000000  )
         2           Fe  tau(   2) = (  0.7500000  0.2500000  0.5000000  )
         3           Fe  tau(   3) = (  0.2500000  0.7500000  0.5000000  )
         4           P   tau(   4) = (  0.6540980  0.6540980  0.0000000  )
         5           P   tau(   5) = (  0.3459020  0.3459020  0.0000000  )

     number of k points=     1  Methfessel-Paxton smearing, width (Ry)=  0.0010
                       cart. coord. in units 2pi/alat
        k(    1) = (   0.0000000   0.0000000   0.0000000), wk =   2.0000000

                       cryst. coord.
        k(    1) = (   0.0000000   0.0000000   0.0000000), wk =   2.0000000

     Check: negative core charge=   -0.000131

     Initial potential from superposition of free atoms

     starting charge      51.9651, renormalised to      52.0000

     negative rho (up, down):  6.327E-02 0.000E+00
     Starting wfcs are   47 randomized atomic wfcs
     Checking if some PAW data can be deallocated...

     Self-consistent Calculation

     iteration #  1     ecut=    30.00 Ry     beta= 0.70
     Davidson diagonalization with overlap

     ethr =  1.00E-02,  avg # of iterations =  2.0

     negative rho (up, down):  6.414E-02 0.000E+00

     total energy              =    -755.47668001 Ry
     estimated scf accuracy    <       0.92367869 Ry

[...]

     total energy              =    -756.02090156 Ry
     estimated scf accuracy    <       0.00000113 Ry

     iteration # 14     ecut=    30.00 Ry     beta= 0.70
     Davidson diagonalization with overlap

     ethr =  2.17E-09,  avg # of iterations =  4.0

[...]

     End of self-consistent calculation

          k = 0.0000 0.0000 0.0000 (   780 PWs)   bands (ev):

   -74.0294 -74.0092 -40.1159 -40.1139 -39.9609 -39.9408 -39.0222 -39.0092
   -22.6736  -4.7463  -4.7358  -4.7056  -0.1585   2.1295   6.7387   8.1275
     8.8357   8.8362   9.5221   9.7581   9.7584  11.9414  12.1211  12.1725
    12.8213  12.8223  13.0242  13.6249  15.5009  15.5011  16.0099

     occupation numbers
     1.0000   1.0000   1.0000   1.0000   1.0000   1.0000   1.0000   1.0000
     1.0000   1.0000   1.0000   1.0000   1.0000   1.0000   1.0000   1.0000
     1.0000   1.0000   1.0000   1.0000   1.0000   1.0000   1.0000   1.0000
     1.0000   1.0000  -0.0000  -0.0000  -0.0000  -0.0000  -0.0000

     the Fermi energy is    12.9269 ev

!    total energy              =    -756.02090174 Ry
     estimated scf accuracy    <       0.00000030 Ry
     smearing contrib. (-TS)   =       0.00000000 Ry
     internal energy E=F+TS    =    -756.02090174 Ry

     The total energy is F=E-TS. E is the sum of the following terms:
     one-electron contribution =    -434.89399286 Ry
     hartree contribution      =     243.45443649 Ry
     xc contribution           =     -97.02207335 Ry
     ewald contribution        =    -315.42051490 Ry
     one-center paw contrib.   =    -152.13875711 Ry
      -> PAW hartree energy AE =     439.23159817 Ry
      -> PAW hartree energy PS =    -437.66748853 Ry
      -> PAW xc energy AE      =    -223.29126895 Ry
      -> PAW xc energy PS      =      69.58840220 Ry
      -> total E_H with PAW    =     245.01854613 Ry
      -> total E_XC with PAW   =    -250.72494011 Ry

     convergence has been achieved in  14 iterations

     negative rho (up, down):  6.507E-02 0.000E+00

     Forces acting on atoms (cartesian axes, Ry/au):

     atom    1 type  1   force =     0.00000000    0.00000000   -0.00000000
     atom    2 type  2   force =     0.00000000    0.00000000   -0.00259134
     atom    3 type  2   force =     0.00000000    0.00000000    0.00259134
     atom    4 type  3   force =    -0.07432356   -0.03435415   -0.00000000
     atom    5 type  3   force =     0.07432356    0.03435415    0.00000000
     The non-local contrib.  to forces
     atom    1 type  1   force =     0.00000000    0.00000000   -0.00000000
     atom    2 type  2   force =     0.00000000    0.00000000   -0.00333569
     atom    3 type  2   force =     0.00000000    0.00000000    0.00333569
     atom    4 type  3   force =    -0.06032027   -0.02837169   -0.00000000
     atom    5 type  3   force =     0.06032027    0.02837169    0.00000000
     The ionic contribution  to forces
     atom    1 type  1   force =    -0.00000000   -0.00000000   -0.00000000
     atom    2 type  2   force =    -0.00000000    0.00000000   -0.00000000
     atom    3 type  2   force =     0.00000000   -0.00000000    0.00000000
     atom    4 type  3   force =   -12.66411558   -6.01077235   -0.00000000
     atom    5 type  3   force =    12.66411558    6.01077235    0.00000000
     The local contribution  to forces
     atom    1 type  1   force =     0.00001968    0.00002026    0.00001534
     atom    2 type  2   force =     0.00047192   -0.00038963    0.00096652
     atom    3 type  2   force =    -0.00030837    0.00037539   -0.00083611
     atom    4 type  3   force =    12.64269585    6.00119485   -0.00064324
     atom    5 type  3   force =   -12.64265649   -6.00129474    0.00066436
     The core correction contribution to forces
     atom    1 type  1   force =     0.00000216    0.00000058    0.00000053
     atom    2 type  2   force =    -0.00004632    0.00007367   -0.00010790
     atom    3 type  2   force =     0.00005852   -0.00009860    0.00011634
     atom    4 type  3   force =     0.00708119    0.00337409   -0.00005277
     atom    5 type  3   force =    -0.00708126   -0.00337435    0.00005239
     The Hubbard contrib.    to forces
     atom    1 type  1   force =     0.00000000    0.00000000    0.00000000
     atom    2 type  2   force =     0.00000000    0.00000000    0.00000000
     atom    3 type  2   force =     0.00000000    0.00000000    0.00000000
     atom    4 type  3   force =     0.00000000    0.00000000    0.00000000
     atom    5 type  3   force =     0.00000000    0.00000000    0.00000000
     The SCF correction term to forces
     atom    1 type  1   force =    -0.00000368   -0.00000977   -0.00000679
     atom    2 type  2   force =    -0.00009142   -0.00003106   -0.00020600
     atom    3 type  2   force =    -0.00012010    0.00008090   -0.00011633
     atom    4 type  3   force =     0.00034076    0.00020516   -0.00000526
     atom    5 type  3   force =    -0.00036903   -0.00013660   -0.00002401

     Total force =     0.115853     Total SCF correction =     0.000633

     Computing stress (Cartesian axis) and pressure

     negative rho (up, down):  6.507E-02 0.000E+00
          total   stress  (Ry/bohr**3)                   (kbar)     P=     -220.90
  -0.00176779  -0.00021695  -0.00000000         -260.05      -31.91       -0.00
  -0.00021695  -0.00144448  -0.00000000          -31.91     -212.49       -0.00
  -0.00000000  -0.00000000  -0.00129260           -0.00       -0.00     -190.15

     kinetic stress (kbar)  23285.32    320.10      0.00
                              320.10  22760.21      0.00
                                0.00      0.00  22614.85

     local   stress (kbar)  40693.72  33872.32      4.42
                            33872.32 -14605.54      2.76
                                4.42      2.76 -30675.32

     nonloc. stress (kbar)  -8255.41    -15.64     -0.00
                              -15.64  -8227.30     -0.00
                               -0.00     -0.00  -8221.93

     hartree stress (kbar)   1965.33 -15529.89     -2.53
                           -15529.89  27319.99     -1.56
                               -2.53     -1.56  34686.83

     exc-cor stress (kbar)    704.17      3.60     -0.06
                                3.60    698.44     -0.05
                               -0.06     -0.05    696.60

     corecor stress (kbar)  -7757.12    -13.69     -0.11
                              -13.69  -7734.66     -0.01
                               -0.11     -0.01  -7728.30

     ewald   stress (kbar) -50896.06 -18668.72     -0.00
                           -18668.72 -20423.62     -0.00
                               -0.00     -0.00 -11562.89

     hubbard stress (kbar)      0.00      0.00      0.00
                                0.00      0.00      0.00
                                0.00      0.00      0.00

     DFT-D   stress (kbar)      0.00      0.00      0.00
                                0.00      0.00      0.00
                                0.00      0.00      0.00

     XDM     stress (kbar)      0.00      0.00      0.00
                                0.00      0.00      0.00
                                0.00      0.00      0.00

     dft-nl  stress (kbar)      0.00      0.00      0.00
                                0.00      0.00      0.00
                                0.00      0.00      0.00

     TS-vdW  stress (kbar)      0.00      0.00      0.00
                                0.00      0.00      0.00
                                0.00      0.00      0.00

[...]

                                0.00      0.00      0.00

     Writing all to output data dir new_calculations/myprefix.save/

     General routines

     Parallel routines

     PAW routines

   This run was terminated on:  18:23: 4  21May2023

   JOB DONE.