     Program PWSCF v.7.0 starts on 21May2023 at  6:39: 3

     Reading input from espresso_20486.pwi
Warning: card &CELL ignored
Warning: card / ignored

     Current dimensions of program PWSCF are:
     Max number of different atomic species (ntypx) = 10
     Max number of k-points (npk) =  40000
     Max angular momentum in pseudopotentials (lmaxx) =  4

     gamma-point specific algorithms are used
     Message from routine setup:
     using ibrav=0 with symmetry is DISCOURAGED, use correct ibrav instead

     Subspace diagonalization in iterative solution of the eigenvalue problem:
     a serial algorithm will be used

     Using Slab Decomposition

     bravais-lattice index     =            0
     lattice parameter (alat)  =      15.9400  a.u.
     unit-cell volume          =    3114.5704 (a.u.)^3
     number of atoms/cell      =           18
     number of atomic types    =            3
     number of electrons       =       228.00
     number of Kohn-Sham states=          137
     kinetic-energy cutoff     =      30.0000  Ry
     charge density cutoff     =     240.0000  Ry
     scf convergence threshold =      1.0E-06
     mixing beta               =       0.7000
     number of iterations used =            8  plain     mixing
     Exchange-correlation= SLA  PW   PBE  PBE
                           (   1   4   3   4   0   0   0)

     celldm(1)=  15.939966  celldm(2)=   0.000000  celldm(3)=   0.000000
     celldm(4)=   0.000000  celldm(5)=   0.000000  celldm(6)=   0.000000

     crystal axes: (cart. coord. in units of alat)
               a(1) = (   1.000000   0.000000   0.000000 )
               a(2) = (  -0.300172   0.953885   0.000000 )
               a(3) = (  -0.340504  -0.483847   0.806195 )

     reciprocal axes: (cart. coord. in units 2 pi/alat)
               b(1) = (  1.000000  0.314684  0.611220 )
               b(2) = (  0.000000  1.048344  0.629175 )
               b(3) = (  0.000000  0.000000  1.240395 )

     PseudoPot. # 1 for Y  read from file:
     /home/pragov/projects/rrg-bengioy-ad/pragov/crystal_structure_design/SSSP/Y_pbe_v1.uspp.F.UPF
     MD5 check sum: 2cf71db95cafeb975fc457bd7f14888e
     Pseudo is Ultrasoft + core correction, Zval = 11.0
     Generated by new atomic code, or converted to UPF format
     Using radial grid of  885 points,  6 beta functions with:
                l(1) =   0
                l(2) =   0
                l(3) =   1
                l(4) =   1
                l(5) =   2
                l(6) =   2
     Q(r) pseudized with  6 coefficients,  rinner =    1.200   1.200   1.200
                                                       1.200   1.200

     PseudoPot. # 2 for Co read from file:
     /home/pragov/projects/rrg-bengioy-ad/pragov/crystal_structure_design/SSSP/Co_pbe_v1.2.uspp.F.UPF
     MD5 check sum: 5f91765df6ddd3222702df6e7b74a16d
     Pseudo is Ultrasoft + core correction, Zval = 17.0
     Generated by new atomic code, or converted to UPF format
     Using radial grid of  863 points,  6 beta functions with:
                l(1) =   0
                l(2) =   0
                l(3) =   1
                l(4) =   1
                l(5) =   2
                l(6) =   2
     Q(r) pseudized with  8 coefficients,  rinner =    1.200   1.200   1.200
                                                       1.200   1.200

     PseudoPot. # 3 for Sn read from file:
     /home/pragov/projects/rrg-bengioy-ad/pragov/crystal_structure_design/SSSP/Sn_pbe_v1.uspp.F.UPF
     MD5 check sum: 4cf58ce39ec5d5d420df3dd08604eb00
     Pseudo is Ultrasoft + core correction, Zval = 14.0
     Generated by new atomic code, or converted to UPF format
     Using radial grid of  891 points,  6 beta functions with:
                l(1) =   0
                l(2) =   0
                l(3) =   1
                l(4) =   1
                l(5) =   2
                l(6) =   2
     Q(r) pseudized with  6 coefficients,  rinner =    1.200   1.200   1.200
                                                       1.200   1.200

     atomic species   valence    mass     pseudopotential
        Y             11.00    88.90584     Y ( 1.00)
        Co            17.00    58.93319     Co( 1.00)
        Sn            14.00   118.71000     Sn( 1.00)

      2 Sym. Ops., with inversion, found

                                    s                        frac. trans.

      isym =  1     identity

 cryst.   s( 1) = (     1          0          0      )
                  (     0          1          0      )
                  (     0          0          1      )

 cart.    s( 1) = (  1.0000000 -0.0000000  0.0000000 )
                  (  0.0000000  1.0000000 -0.0000000 )
                  (  0.0000000  0.0000000  1.0000000 )

      isym =  2     inversion

 cryst.   s( 2) = (    -1          0          0      )
                  (     0         -1          0      )
                  (     0          0         -1      )

 cart.    s( 2) = ( -1.0000000  0.0000000 -0.0000000 )
                  (  0.0000000 -1.0000000  0.0000000 )
                  (  0.0000000  0.0000000 -1.0000000 )

   Cartesian axes

     site n.     atom                  positions (alat units)
         1           Y   tau(   1) = (   0.3014435   0.1212833   0.1688421  )
         2           Y   tau(   2) = (   0.0578810   0.3487552   0.6373525  )
         3           Y   tau(   3) = (  -0.3152971  -0.1598983   0.6373525  )
         4           Y   tau(   4) = (   0.6746216   0.6299368   0.1688421  )
         5           Y   tau(   5) = (  -0.0598111   0.0438811   0.3787728  )
         6           Y   tau(   6) = (   0.4191356   0.4261574   0.4274218  )
         7           Y   tau(   7) = (  -0.3361768   0.2466397   0.7265377  )
         8           Y   tau(   8) = (   0.6955012   0.2233988   0.0796569  )
         9           Y   tau(   9) = (   0.0273243   0.4510397   0.2483442  )
        10           Y   tau(  10) = (   0.3320002   0.0189988   0.5578504  )
        11           Y   tau(  11) = (   0.0815345  -0.3223929   0.5578504  )
        12           Y   tau(  12) = (   0.2777900   0.7924314   0.2483442  )
        13           Co  tau(  13) = (  -0.0620845   0.7792097   0.2910475  )
        14           Co  tau(  14) = (   0.1212370   0.6447139   0.5151471  )
        15           Co  tau(  15) = (  -0.2417086   0.3421930   0.4030973  )
        16           Co  tau(  16) = (   0.6010331   0.1278455   0.4030973  )
        17           Sn  tau(  17) = (   0.3499140   0.4769426   0.0000000  )
        18           Sn  tau(  18) = (   0.0000000   0.0000000   0.0000000  )

   Crystallographic axes

     site n.     atom                  positions (cryst. coord.)
         1           Y   tau(   1) = (  0.4428090  0.2333780  0.2094310  )
         2           Y   tau(   2) = (  0.5571910  0.7666220  0.7905690  )
         3           Y   tau(   3) = (  0.0239480  0.2333780  0.7905690  )
         4           Y   tau(   4) = (  0.9760520  0.7666220  0.2094310  )
         5           Y   tau(   5) = (  0.1855110  0.2843170  0.4698280  )
         6           Y   tau(   6) = (  0.8144890  0.7156830  0.5301720  )
         7           Y   tau(   7) = (  0.1855110  0.7156830  0.9011940  )
         8           Y   tau(   8) = (  0.8144890  0.2843170  0.0988060  )
         9           Y   tau(   9) = (  0.3210520  0.6290970  0.3080450  )
        10           Y   tau(  10) = (  0.6789480  0.3709030  0.6919550  )
        11           Y   tau(  11) = (  0.3210520  0.0130070  0.6919550  )
        12           Y   tau(  12) = (  0.6789480  0.9869930  0.3080450  )
        13           Co  tau(  13) = (  0.3610140  1.0000000  0.3610140  )
        14           Co  tau(  14) = (  0.6389860  1.0000000  0.6389860  )
        15           Co  tau(  15) = (  0.1123550  0.6123550  0.5000000  )
        16           Co  tau(  16) = (  0.8876450  0.3876450  0.5000000  )
        17           Sn  tau(  17) = (  0.5000000  0.5000000  0.0000000  )
        18           Sn  tau(  18) = (  0.0000000  0.0000000  0.0000000  )

     number of k points=     1  Methfessel-Paxton smearing, width (Ry)=  0.0010
                       cart. coord. in units 2pi/alat
        k(    1) = (   0.0000000   0.0000000   0.0000000), wk =   2.0000000

                       cryst. coord.
        k(    1) = (   0.0000000   0.0000000   0.0000000), wk =   2.0000000

     Check: negative core charge=   -0.000009

     Initial potential from superposition of free atoms

     starting charge     221.9463, renormalised to     228.0000

     negative rho (up, down):  5.338E-01 0.000E+00
     Starting wfcs are  226 randomized atomic wfcs

     Self-consistent Calculation

     iteration #  1     ecut=    30.00 Ry     beta= 0.70
     Davidson diagonalization with overlap

     ethr =  1.00E-02,  avg # of iterations =  3.0

     negative rho (up, down):  4.921E-01 0.000E+00

     total energy              =   -2552.63650618 Ry
     estimated scf accuracy    <      25.34388585 Ry

[...]

     total energy              =   -2571.26495181 Ry
     estimated scf accuracy    <       0.00008010 Ry

     iteration # 32     ecut=    30.00 Ry     beta= 0.70
     Davidson diagonalization with overlap

     ethr =  2.80E-09,  avg # of iterations =  5.0

[...]

     End of self-consistent calculation

          k = 0.0000 0.0000 0.0000 (  4315 PWs)   bands (ev):

   -83.4759 -83.4437 -83.3681 -83.3636 -47.0275 -46.7535 -46.7312 -46.6890
   -46.6308 -46.5853 -46.5511 -46.5425 -46.4921 -46.4852 -46.4563 -46.3891
   -32.8156 -31.8497 -31.6166 -31.4411 -31.3686 -31.3507 -31.2484 -31.2399
   -31.2244 -31.1958 -31.0840 -31.0768 -12.4095 -11.9606 -11.9464 -11.9275
   -11.6054 -11.5355 -11.4991 -11.4930 -11.4670 -11.4641 -11.4543 -11.4226
   -11.4014 -11.3993 -11.3722 -11.3286 -11.3214 -11.3191 -11.3134 -11.2989
   -11.2355 -11.2228 -11.2091 -11.1884 -11.1848 -11.1730 -11.1609 -11.1318
   -11.1110 -11.0853 -11.0806 -11.0651 -11.0379 -11.0287 -11.0116 -11.0007
    -9.7735  -9.7708  -9.7458  -9.7020  -9.6749  -9.5521  -9.5412  -9.5389
    -9.3858  -9.3356   3.5348   4.2402   6.7797   7.8915   7.9595   8.0785
     8.1370   8.4146   8.5020   8.5968   8.7133   9.0779   9.1594   9.2275
     9.3178   9.3196   9.4439   9.4593   9.4697   9.7084   9.7288   9.7679
     9.7698   9.8796   9.9848  10.0281  10.0675  10.0852  10.1961  10.2275
    10.2542  10.3859  10.5851  10.5984  10.6532  10.6772  10.8062  10.8519
    11.0307  11.0997  11.1098  11.6807  11.7268  11.8060  11.8121  11.8671
    11.8717  11.8988  11.9514  12.0757  12.0803  12.1175  12.2027  12.2120
    12.3763  12.3990  12.4996  12.5588  12.7702  12.8751  12.9612  13.0994
    13.3152

     occupation numbers
     1.0000   1.0000   1.0000   1.0000   1.0000   1.0000   1.0000   1.0000
     1.0000   1.0000   1.0000   1.0000   1.0000   1.0000   1.0000   1.0000
     1.0000   1.0000   1.0000   1.0000   1.0000   1.0000   1.0000   1.0000
     1.0000   1.0000   1.0000   1.0000   1.0000   1.0000   1.0000   1.0000
     1.0000   1.0000   1.0000   1.0000   1.0000   1.0000   1.0000   1.0000
     1.0000   1.0000   1.0000   1.0000   1.0000   1.0000   1.0000   1.0000
     1.0000   1.0000   1.0000   1.0000   1.0000   1.0000   1.0000   1.0000
     1.0000   1.0000   1.0000   1.0000   1.0000   1.0000   1.0000   1.0000
     1.0000   1.0000   1.0000   1.0000   1.0000   1.0000   1.0000   1.0000
     1.0000   1.0000   1.0000   1.0000   1.0000   1.0000   1.0000   1.0000
     1.0000   1.0000   1.0000   1.0000   1.0000   1.0000   1.0000   1.0000
     1.0000   1.0000   1.0000   1.0000   1.0000   1.0000   1.0000   1.0000
     1.0000   1.0000   1.0000   1.0000   1.0000   1.0000   1.0000   1.0000
     1.0000   1.0000   1.0000   1.0000   1.0000   1.0000   1.0000   1.0000
     1.0000   0.7914   0.2086  -0.0000  -0.0000  -0.0000  -0.0000  -0.0000
    -0.0000  -0.0000  -0.0000  -0.0000  -0.0000  -0.0000  -0.0000  -0.0000
    -0.0000  -0.0000  -0.0000  -0.0000  -0.0000  -0.0000  -0.0000  -0.0000
    -0.0000

     the Fermi energy is    11.1047 ev

!    total energy              =   -2571.26495394 Ry
     estimated scf accuracy    <       0.00000091 Ry
     smearing contrib. (-TS)   =      -0.00035615 Ry
     internal energy E=F+TS    =   -2571.26459778 Ry

     The total energy is F=E-TS. E is the sum of the following terms:
     one-electron contribution =   -1494.09357143 Ry
     hartree contribution      =     835.95772531 Ry
     xc contribution           =    -489.32809944 Ry
     ewald contribution        =   -1423.80065223 Ry

     convergence has been achieved in  32 iterations

     negative rho (up, down):  4.945E-01 0.000E+00

     Forces acting on atoms (cartesian axes, Ry/au):

     atom    1 type  1   force =    -0.00334133    0.03785913    0.02284339
     atom    2 type  1   force =     0.00334133   -0.03785913   -0.02284339
     atom    3 type  1   force =    -0.00180783    0.02993738   -0.00838860
     atom    4 type  1   force =     0.00180783   -0.02993738    0.00838860
     atom    5 type  1   force =     0.00401752    0.06087256    0.01477283
     atom    6 type  1   force =    -0.00401752   -0.06087256   -0.01477283
     atom    7 type  1   force =    -0.01093439    0.00175025   -0.06524964
     atom    8 type  1   force =     0.01093439   -0.00175025    0.06524964
     atom    9 type  1   force =    -0.01519267   -0.04838991   -0.02875181
     atom   10 type  1   force =     0.01519267    0.04838991    0.02875181
     atom   11 type  1   force =    -0.02304481   -0.04838307   -0.02803305
     atom   12 type  1   force =     0.02304481    0.04838307    0.02803305
     atom   13 type  2   force =     0.00833790    0.00117424   -0.00365594
     atom   14 type  2   force =    -0.00833790   -0.00117424    0.00365594
     atom   15 type  2   force =    -0.01206003    0.01960596   -0.00247004
     atom   16 type  2   force =     0.01206003   -0.01960596    0.00247004
     atom   17 type  3   force =     0.00000000    0.00000000    0.00000000
     atom   18 type  3   force =     0.00000000    0.00000000    0.00000000
     The non-local contrib.  to forces
     atom    1 type  1   force =    -0.03030752    0.02643789   -0.01061864
     atom    2 type  1   force =     0.03030752   -0.02643789    0.01061864
     atom    3 type  1   force =    -0.00570644   -0.00626786    0.02343804
     atom    4 type  1   force =     0.00570644    0.00626786   -0.02343804
     atom    5 type  1   force =    -0.01155449    0.06074278   -0.03719289
     atom    6 type  1   force =     0.01155449   -0.06074278    0.03719289
     atom    7 type  1   force =    -0.04437059    0.04203806   -0.05371762
     atom    8 type  1   force =     0.04437059   -0.04203806    0.05371762
     atom    9 type  1   force =     0.01856969    0.00493897   -0.02193362
     atom   10 type  1   force =    -0.01856969   -0.00493897    0.02193362
     atom   11 type  1   force =     0.00592163    0.01874466   -0.00431180
     atom   12 type  1   force =    -0.00592163   -0.01874466    0.00431180
     atom   13 type  2   force =    -0.08479361    0.12923778   -0.15250282
     atom   14 type  2   force =     0.08479361   -0.12923778    0.15250282
     atom   15 type  2   force =     0.18882339    0.27044063    0.00878445
     atom   16 type  2   force =    -0.18882339   -0.27044063   -0.00878445
     atom   17 type  3   force =     0.00000000    0.00000000    0.00000000
     atom   18 type  3   force =     0.00000000    0.00000000    0.00000000
     The ionic contribution  to forces
     atom    1 type  1   force =    -1.70551240    8.93376014   -6.56403479
     atom    2 type  1   force =     1.70551241   -8.93376015    6.56403480
     atom    3 type  1   force =     9.03362515    1.05477529    6.56400590
     atom    4 type  1   force =    -9.03362515   -1.05477529   -6.56400590
     atom    5 type  1   force =     5.18163930   -3.80154118    1.82654507
     atom    6 type  1   force =    -5.18163930    3.80154118   -1.82654507
     atom    7 type  1   force =     1.54754770   -1.13540249    6.39949414
     atom    8 type  1   force =    -1.54754770    1.13540249   -6.39949414
     atom    9 type  1   force =     7.41301845   -8.66441121  -11.26420022
     atom   10 type  1   force =    -7.41301845    8.66441121   11.26420022
     atom   11 type  1   force =   -10.49002734    4.47036841   11.26417927
     atom   12 type  1   force =    10.49002734   -4.47036841  -11.26417927
     atom   13 type  2   force =    -8.52430097    6.25387101  -10.42043283
     atom   14 type  2   force =     8.52430097   -6.25387101   10.42043283
     atom   15 type  2   force =     8.80263135   11.99822168   -0.00001615
     atom   16 type  2   force =    -8.80263135  -11.99822168    0.00001615
     atom   17 type  3   force =    -0.00000000   -0.00000000    0.00000000
     atom   18 type  3   force =    -0.00000000    0.00000000   -0.00000000
     The local contribution  to forces
     atom    1 type  1   force =     1.72978401   -8.93747209    6.59232306
     atom    2 type  1   force =    -1.72995301    8.93755733   -6.59252304
     atom    3 type  1   force =    -9.03298829   -1.03114183   -6.59245592
     atom    4 type  1   force =     9.03364101    1.03118002    6.59296727
     atom    5 type  1   force =    -5.16866917    3.79167041   -1.78630515
     atom    6 type  1   force =     5.16896708   -3.79177814    1.78610249
     atom    7 type  1   force =    -1.51694881    1.09961473   -6.40200902
     atom    8 type  1   force =     1.51687235   -1.09942068    6.40228351
     atom    9 type  1   force =    -7.44468082    8.61310807   11.26296396
     atom   10 type  1   force =     7.44436640   -8.61319258  -11.26299363
     atom   11 type  1   force =    10.46509586   -4.53527603  -11.27870215
     atom   12 type  1   force =   -10.46518774    4.53528943   11.27853818
     atom   13 type  2   force =     8.61552315   -6.38050083   10.56618043
     atom   14 type  2   force =    -8.61664190    6.37976923  -10.56635433
     atom   15 type  2   force =    -8.99876090  -12.24136369   -0.01179572
     atom   16 type  2   force =     8.99896803   12.24219240    0.01125313
     atom   17 type  3   force =    -0.00002553   -0.00027590    0.00003026
     atom   18 type  3   force =     0.00008318    0.00002010    0.00015248
     The core correction contribution to forces
     atom    1 type  1   force =     0.00238644    0.01488801    0.00490760
     atom    2 type  1   force =    -0.00238703   -0.01488836   -0.00490807
     atom    3 type  1   force =     0.00322867    0.01237644   -0.00312519
     atom    4 type  1   force =    -0.00322253   -0.01237500    0.00312937
     atom    5 type  1   force =     0.00308653    0.00924515    0.01154450
     atom    6 type  1   force =    -0.00308297   -0.00924616   -0.01154450
     atom    7 type  1   force =     0.00255297   -0.00466089   -0.00809504
     atom    8 type  1   force =    -0.00255112    0.00466151    0.00809875
     atom    9 type  1   force =    -0.00224372   -0.00138098   -0.00590992
     atom   10 type  1   force =     0.00224422    0.00137539    0.00591480
     atom   11 type  1   force =    -0.00388563   -0.00166301   -0.00952284
     atom   12 type  1   force =     0.00388753    0.00165818    0.00952782
     atom   13 type  2   force =     0.00117552   -0.00266579    0.00314536
     atom   14 type  2   force =    -0.00117352    0.00266621   -0.00314510
     atom   15 type  2   force =    -0.00437230   -0.00625409   -0.00006471
     atom   16 type  2   force =     0.00437411    0.00625819    0.00006366
     atom   17 type  3   force =    -0.00000031   -0.00000146    0.00000049
     atom   18 type  3   force =    -0.00000012   -0.00000155    0.00000165
     The Hubbard contrib.    to forces
     atom    1 type  1   force =     0.00000000    0.00000000    0.00000000
     atom    2 type  1   force =     0.00000000    0.00000000    0.00000000
     atom    3 type  1   force =     0.00000000    0.00000000    0.00000000
     atom    4 type  1   force =     0.00000000    0.00000000    0.00000000
     atom    5 type  1   force =     0.00000000    0.00000000    0.00000000
     atom    6 type  1   force =     0.00000000    0.00000000    0.00000000
     atom    7 type  1   force =     0.00000000    0.00000000    0.00000000
     atom    8 type  1   force =     0.00000000    0.00000000    0.00000000
     atom    9 type  1   force =     0.00000000    0.00000000    0.00000000
     atom   10 type  1   force =     0.00000000    0.00000000    0.00000000
     atom   11 type  1   force =     0.00000000    0.00000000    0.00000000
     atom   12 type  1   force =     0.00000000    0.00000000    0.00000000
     atom   13 type  2   force =     0.00000000    0.00000000    0.00000000
     atom   14 type  2   force =     0.00000000    0.00000000    0.00000000
     atom   15 type  2   force =     0.00000000    0.00000000    0.00000000
     atom   16 type  2   force =     0.00000000    0.00000000    0.00000000
     atom   17 type  3   force =     0.00000000    0.00000000    0.00000000
     atom   18 type  3   force =     0.00000000    0.00000000    0.00000000
     The SCF correction term to forces
     atom    1 type  1   force =     0.00027995    0.00020189    0.00026795
     atom    2 type  1   force =    -0.00016675   -0.00037334   -0.00006395
     atom    3 type  1   force =     0.00011259    0.00024894   -0.00021847
     atom    4 type  1   force =    -0.00061241   -0.00018140   -0.00023115
     atom    5 type  1   force =    -0.00044392    0.00072456    0.00017604
     atom    6 type  1   force =     0.00022390   -0.00067749    0.00001611
     atom    7 type  1   force =     0.00028638    0.00016342   -0.00086856
     atom    8 type  1   force =    -0.00020770   -0.00035293    0.00069743
     atom    9 type  1   force =     0.00014564   -0.00066248    0.00032350
     atom   10 type  1   force =     0.00017210    0.00071713   -0.00030767
     atom   11 type  1   force =    -0.00016310   -0.00056513    0.00034204
     atom   12 type  1   force =     0.00022553    0.00054050   -0.00014789
     atom   13 type  2   force =     0.00075282    0.00126304   -0.00006121
     atom   14 type  2   force =     0.00040194   -0.00046992    0.00020456
     atom   15 type  2   force =    -0.00035893   -0.00143592    0.00064978
     atom   16 type  2   force =     0.00019527    0.00060841   -0.00005075
     atom   17 type  3   force =    -0.00000380    0.00028750   -0.00005564
     atom   18 type  3   force =    -0.00005210   -0.00002556   -0.00013023

     Total force =     0.194593     Total SCF correction =     0.003388

     Computing stress (Cartesian axis) and pressure

     negative rho (up, down):  4.945E-01 0.000E+00
          total   stress  (Ry/bohr**3)                   (kbar)     P=      -40.43
  -0.00057288  -0.00001399  -0.00002207          -84.27       -2.06       -3.25
  -0.00001399  -0.00009241   0.00003359           -2.06      -13.59        4.94
  -0.00002207   0.00003359  -0.00015915           -3.25        4.94      -23.41

     kinetic stress (kbar)  15132.61     -6.72    -28.05
                               -6.72  15165.20     17.85
                              -28.05     17.85  15169.48

     local   stress (kbar) -12290.85  -6418.08  -2810.72
                            -6418.08 -16265.78   2061.01
                            -2810.72   2061.01  -7420.80

     nonloc. stress (kbar)  11467.79    -28.55     -8.24
                              -28.55  11432.75     11.10
                               -8.24     11.10  11468.77

     hartree stress (kbar)  13285.99   2875.77   1355.21
                             2875.77  15082.79   -993.16
                             1355.21   -993.16  11114.56

     exc-cor stress (kbar)   4707.69      1.25     -0.55
                                1.25   4708.11      0.35
                               -0.55      0.35   4706.47

     corecor stress (kbar) -10113.59      0.82      0.43
                                0.82 -10111.76     -0.02
                                0.43     -0.02 -10112.80

     ewald   stress (kbar) -22273.90   3573.45   1488.67
                             3573.45 -20024.90  -1092.19
                             1488.67  -1092.19 -24949.09

     hubbard stress (kbar)      0.00      0.00      0.00
                                0.00      0.00      0.00
                                0.00      0.00      0.00

     DFT-D   stress (kbar)      0.00      0.00      0.00
                                0.00      0.00      0.00
                                0.00      0.00      0.00

     XDM     stress (kbar)      0.00      0.00      0.00
                                0.00      0.00      0.00
                                0.00      0.00      0.00

     dft-nl  stress (kbar)      0.00      0.00      0.00
                                0.00      0.00      0.00
                                0.00      0.00      0.00

     TS-vdW  stress (kbar)      0.00      0.00      0.00
                                0.00      0.00      0.00
                                0.00      0.00      0.00

[...]

                                0.00      0.00      0.00

     Writing all to output data dir new_calculations/myprefix.save/

     General routines

     Parallel routines

   This run was terminated on:   6:41:40  21May2023

   JOB DONE.