     Program PWSCF v.7.0 starts on 20May2023 at  3: 4:57

     Reading input from espresso_11027.pwi
Warning: card &CELL ignored
Warning: card / ignored

     Current dimensions of program PWSCF are:
     Max number of different atomic species (ntypx) = 10
     Max number of k-points (npk) =  40000
     Max angular momentum in pseudopotentials (lmaxx) =  4
     file Mg.pbe-n-kjpaw_psl.0.3.0.UPF: wavefunction(s)  3S renormalized
     file Al.pbe-n-kjpaw_psl.1.0.0.UPF: wavefunction(s)  3S 3P renormalized

     gamma-point specific algorithms are used
     Message from routine setup:
     using ibrav=0 with symmetry is DISCOURAGED, use correct ibrav instead

     Subspace diagonalization in iterative solution of the eigenvalue problem:
     a serial algorithm will be used

     Using Slab Decomposition

     bravais-lattice index     =            0
     lattice parameter (alat)  =       6.3389  a.u.
     unit-cell volume          =    1341.1104 (a.u.)^3
     number of atoms/cell      =           10
     number of atomic types    =            3
     number of electrons       =        69.00
     number of Kohn-Sham states=           42
     kinetic-energy cutoff     =      30.0000  Ry
     charge density cutoff     =     240.0000  Ry
     scf convergence threshold =      1.0E-06
     mixing beta               =       0.7000
     number of iterations used =            8  plain     mixing
     Exchange-correlation= SLA  PW   PBX  PBC
                           (   1   4   3   4   0   0   0)

     celldm(1)=   6.338948  celldm(2)=   0.000000  celldm(3)=   0.000000
     celldm(4)=   0.000000  celldm(5)=   0.000000  celldm(6)=   0.000000

     crystal axes: (cart. coord. in units of alat)
               a(1) = (   1.000000   0.000000   0.000000 )
               a(2) = (   0.000000   1.000000   0.000000 )
               a(3) = (   0.000000   0.000000   5.265176 )

     reciprocal axes: (cart. coord. in units 2 pi/alat)
               b(1) = (  1.000000  0.000000  0.000000 )
               b(2) = (  0.000000  1.000000  0.000000 )
               b(3) = (  0.000000  0.000000  0.189927 )

     PseudoPot. # 1 for Mg read from file:
     /home/pragov/projects/rrg-bengioy-ad/pragov/crystal_structure_design/SSSP/Mg.pbe-n-kjpaw_psl.0.3.0.UPF
     MD5 check sum: 24ecedc7f3e3cbe212e682f4413594e4
     Pseudo is Projector augmented-wave + core cor, Zval =  2.0
     Generated using "atomic" code by A. Dal Corso  v.5.0.99 svn rev. 10869
     Shape of augmentation charge: PSQ
     Using radial grid of 1129 points,  4 beta functions with:
                l(1) =   0
                l(2) =   0
                l(3) =   1
                l(4) =   1
     Q(r) pseudized with 0 coefficients

     PseudoPot. # 2 for Sc read from file:
     /home/pragov/projects/rrg-bengioy-ad/pragov/crystal_structure_design/SSSP/Sc_ONCV_PBE-1.0.oncvpsp.upf
     MD5 check sum: e21af8023abb52e52cb7cd3133e4a229
     Pseudo is Norm-conserving, Zval = 11.0
     Generated using ONCVPSP code by D. R. Hamann
     Using radial grid of 1662 points,  6 beta functions with:
                l(1) =   0
                l(2) =   0
                l(3) =   1
                l(4) =   1
                l(5) =   2
                l(6) =   2

     PseudoPot. # 3 for Al read from file:
     /home/pragov/projects/rrg-bengioy-ad/pragov/crystal_structure_design/SSSP/Al.pbe-n-kjpaw_psl.1.0.0.UPF
     MD5 check sum: cfc449ca30b5f3223ec38ddd88ac046d
     Pseudo is Projector augmented-wave + core cor, Zval =  3.0
     Generated using "atomic" code by A. Dal Corso  v.5.1
     Shape of augmentation charge: PSQ
     Using radial grid of 1135 points,  6 beta functions with:
                l(1) =   0
                l(2) =   0
                l(3) =   1
                l(4) =   1
                l(5) =   2
                l(6) =   2
     Q(r) pseudized with 0 coefficients

     atomic species   valence    mass     pseudopotential
        Mg             2.00    24.30500     Mg( 1.00)
        Sc            11.00    44.95591     Sc( 1.00)
        Al             3.00    26.98154     Al( 1.00)

     16 Sym. Ops., with inversion, found

                                    s                        frac. trans.

      isym =  1     identity

 cryst.   s( 1) = (     1          0          0      )
                  (     0          1          0      )
                  (     0          0          1      )

 cart.    s( 1) = (  1.0000000  0.0000000  0.0000000 )
                  (  0.0000000  1.0000000  0.0000000 )
                  (  0.0000000  0.0000000  1.0000000 )

      isym =  2     180 deg rotation - cart. axis [0,0,1]

[...]

      isym =  8      90 deg rotation - cart. axis [0,0,1]

[...]

      isym =  9     inversion

 cryst.   s( 9) = (    -1          0          0      )
                  (     0         -1          0      )
                  (     0          0         -1      )

 cart.    s( 9) = ( -1.0000000  0.0000000  0.0000000 )
                  (  0.0000000 -1.0000000  0.0000000 )
                  (  0.0000000  0.0000000 -1.0000000 )

      isym = 10     inv. 180 deg rotation - cart. axis [0,0,1]

 cryst.   s(10) = (     1          0          0      )
                  (     0          1          0      )
                  (     0          0         -1      )

 cart.    s(10) = (  1.0000000  0.0000000  0.0000000 )
                  (  0.0000000  1.0000000  0.0000000 )
                  (  0.0000000  0.0000000 -1.0000000 )

[...]

      isym = 16     inv.  90 deg rotation - cart. axis [0,0,1]

 cryst.   s(16) = (     0         -1          0      )
                  (     1          0          0      )
                  (     0          0         -1      )

 cart.    s(16) = (  0.0000000  1.0000000  0.0000000 )
                  ( -1.0000000  0.0000000  0.0000000 )
                  (  0.0000000  0.0000000 -1.0000000 )

   Cartesian axes

     site n.     atom                  positions (alat units)
         1           Mg  tau(   1) = (   0.5000000   0.5000000   0.0000000  )
         2           Sc  tau(   2) = (   0.0000000   0.0000000   4.6929779  )
         3           Sc  tau(   3) = (   0.0000000   0.0000000   0.5721983  )
         4           Sc  tau(   4) = (   0.0000000   0.0000000   1.6011875  )
         5           Sc  tau(   5) = (   0.0000000   0.0000000   2.6325881  )
         6           Sc  tau(   6) = (   0.0000000   0.0000000   3.6639887  )
         7           Al  tau(   7) = (   0.5000000   0.5000000   1.0730745  )
         8           Al  tau(   8) = (   0.5000000   0.5000000   2.1141420  )
         9           Al  tau(   9) = (   0.5000000   0.5000000   3.1510342  )
        10           Al  tau(  10) = (   0.5000000   0.5000000   4.1921017  )

   Crystallographic axes

     site n.     atom                  positions (cryst. coord.)
         1           Mg  tau(   1) = (  0.5000000  0.5000000  0.0000000  )
         2           Sc  tau(   2) = (  0.0000000  0.0000000  0.8913240  )
         3           Sc  tau(   3) = (  0.0000000  0.0000000  0.1086760  )
         4           Sc  tau(   4) = (  0.0000000  0.0000000  0.3041090  )
         5           Sc  tau(   5) = (  0.0000000  0.0000000  0.5000000  )
         6           Sc  tau(   6) = (  0.0000000  0.0000000  0.6958910  )
         7           Al  tau(   7) = (  0.5000000  0.5000000  0.2038060  )
         8           Al  tau(   8) = (  0.5000000  0.5000000  0.4015330  )
         9           Al  tau(   9) = (  0.5000000  0.5000000  0.5984670  )
        10           Al  tau(  10) = (  0.5000000  0.5000000  0.7961940  )

     number of k points=     1  Methfessel-Paxton smearing, width (Ry)=  0.0010
                       cart. coord. in units 2pi/alat
        k(    1) = (   0.0000000   0.0000000   0.0000000), wk =   2.0000000

                       cryst. coord.
        k(    1) = (   0.0000000   0.0000000   0.0000000), wk =   2.0000000

     Initial potential from superposition of free atoms

     starting charge      68.9767, renormalised to      69.0000
     Starting wfcs are   70 randomized atomic wfcs
     Checking if some PAW data can be deallocated...

     Self-consistent Calculation

     iteration #  1     ecut=    30.00 Ry     beta= 0.70
     Davidson diagonalization with overlap

     ethr =  1.00E-02,  avg # of iterations =  2.0

     total energy              =    -650.94461137 Ry
     estimated scf accuracy    <       1.29911523 Ry

[...]

     total energy              =    -651.39130766 Ry
     estimated scf accuracy    <       0.00000359 Ry

     iteration # 40     ecut=    30.00 Ry     beta= 0.70
     Davidson diagonalization with overlap

     ethr =  1.48E-09,  avg # of iterations =  1.0

     End of self-consistent calculation

          k = 0.0000 0.0000 0.0000 (  1890 PWs)   bands (ev):

   -38.7692 -38.7677 -38.6747 -38.6743 -38.6170 -17.8906 -17.8656 -17.7145
   -17.6831 -17.5807 -17.1952 -17.1951 -17.1936 -17.1935 -17.1828 -17.1825
   -17.1820 -17.1817 -17.1394 -17.1390   0.4406   0.8080   1.3445   2.1592
     3.9084   5.5645   5.8347   7.8489   8.1013   9.0423   9.4422   9.7051
    10.0009  10.5579  10.5645  10.5646  10.6000  10.7597  10.7597  11.2867
    11.2868  11.8023

     occupation numbers
     1.0000   1.0000   1.0000   1.0000   1.0000   1.0000   1.0000   1.0000
     1.0000   1.0000   1.0000   1.0000   1.0000   1.0000   1.0000   1.0000
     1.0000   1.0000   1.0000   1.0000   1.0000   1.0000   1.0000   1.0000
     1.0000   1.0000   1.0000   1.0000   1.0000   1.0000   1.0000   1.0000
     1.0000   0.7620   0.3700   0.3684  -0.0003  -0.0000  -0.0000  -0.0000
    -0.0000  -0.0000

     the Fermi energy is    10.5624 ev

!    total energy              =    -651.39130711 Ry
     estimated scf accuracy    <       0.00000058 Ry
     smearing contrib. (-TS)   =      -0.00072019 Ry
     internal energy E=F+TS    =    -651.39058692 Ry

     The total energy is F=E-TS. E is the sum of the following terms:
     one-electron contribution =    -218.70048857 Ry
     hartree contribution      =     127.14051603 Ry
     xc contribution           =     -72.12691362 Ry
     ewald contribution        =    -317.82812553 Ry
     one-center paw contrib.   =    -169.87557523 Ry
      -> PAW hartree energy AE =       4.73997925 Ry
      -> PAW hartree energy PS =      -4.72557129 Ry
      -> PAW xc energy AE      =    -178.00469839 Ry
      -> PAW xc energy PS      =       8.11471520 Ry
      -> total E_H with PAW    =     127.15492399 Ry
      -> total E_XC with PAW   =    -242.01689682 Ry

     convergence has been achieved in  40 iterations

     Forces acting on atoms (cartesian axes, Ry/au):

     atom    1 type  1   force =     0.00000000    0.00000000    0.00000000
     atom    2 type  2   force =     0.00000000    0.00000000   -0.02368641
     atom    3 type  2   force =     0.00000000    0.00000000    0.02368641
     atom    4 type  2   force =     0.00000000    0.00000000    0.02055944
     atom    5 type  2   force =     0.00000000    0.00000000    0.00000000
     atom    6 type  2   force =     0.00000000    0.00000000   -0.02055944
     atom    7 type  3   force =     0.00000000    0.00000000   -0.01989656
     atom    8 type  3   force =     0.00000000    0.00000000   -0.00233903
     atom    9 type  3   force =     0.00000000    0.00000000    0.00233903
     atom   10 type  3   force =     0.00000000    0.00000000    0.01989656
     The non-local contrib.  to forces
     atom    1 type  1   force =     0.00000000    0.00000000    0.00000000
     atom    2 type  2   force =     0.00000000    0.00000000   -0.08205641
     atom    3 type  2   force =     0.00000000    0.00000000    0.08205641
     atom    4 type  2   force =     0.00000000    0.00000000   -0.00113025
     atom    5 type  2   force =     0.00000000    0.00000000    0.00000000
     atom    6 type  2   force =     0.00000000    0.00000000    0.00113025
     atom    7 type  3   force =     0.00000000    0.00000000    0.00378398
     atom    8 type  3   force =     0.00000000    0.00000000    0.00459320
     atom    9 type  3   force =     0.00000000    0.00000000   -0.00459320
     atom   10 type  3   force =     0.00000000    0.00000000   -0.00378398
     The ionic contribution  to forces
     atom    1 type  1   force =    -0.00000000   -0.00000000   -0.00000000
     atom    2 type  2   force =    -0.00000000   -0.00000000    6.30000038
     atom    3 type  2   force =     0.00000000    0.00000000   -6.30000038
     atom    4 type  2   force =     0.00000000    0.00000000   -3.22752412
     atom    5 type  2   force =    -0.00000000   -0.00000000   -0.00000000
     atom    6 type  2   force =    -0.00000000   -0.00000000    3.22752412
     atom    7 type  3   force =     0.00000000    0.00000000   -1.23709519
     atom    8 type  3   force =     0.00000000    0.00000000   -0.42166238
     atom    9 type  3   force =    -0.00000000   -0.00000000    0.42166238
     atom   10 type  3   force =    -0.00000000   -0.00000000    1.23709519
     The local contribution  to forces
     atom    1 type  1   force =    -0.00000127   -0.00000029   -0.00040048
     atom    2 type  2   force =     0.00001113    0.00000586   -6.24387452
     atom    3 type  2   force =     0.00001879    0.00000512    6.24122554
     atom    4 type  2   force =     0.00000099   -0.00000156    3.25068145
     atom    5 type  2   force =     0.00000332   -0.00000052    0.00151822
     atom    6 type  2   force =    -0.00000269   -0.00000042   -3.24936003
     atom    7 type  3   force =    -0.00000154   -0.00000010    1.21433248
     atom    8 type  3   force =    -0.00000170   -0.00000017    0.41567539
     atom    9 type  3   force =    -0.00000150    0.00000107   -0.41499381
     atom   10 type  3   force =    -0.00000146   -0.00000012   -1.21435778
     The core correction contribution to forces
     atom    1 type  1   force =    -0.00000008   -0.00000000   -0.00000034
     atom    2 type  2   force =     0.00000000    0.00000000    0.00000000
     atom    3 type  2   force =     0.00000000    0.00000000    0.00000000
     atom    4 type  2   force =     0.00000000    0.00000000    0.00000000
     atom    5 type  2   force =     0.00000000    0.00000000    0.00000000
     atom    6 type  2   force =     0.00000000    0.00000000    0.00000000
     atom    7 type  3   force =    -0.00000008   -0.00000004   -0.00057357
     atom    8 type  3   force =    -0.00000010    0.00000002   -0.00051183
     atom    9 type  3   force =    -0.00000018    0.00000007    0.00051217
     atom   10 type  3   force =    -0.00000010    0.00000001    0.00057382
     The Hubbard contrib.    to forces
     atom    1 type  1   force =     0.00000000    0.00000000    0.00000000
     atom    2 type  2   force =     0.00000000    0.00000000    0.00000000
     atom    3 type  2   force =     0.00000000    0.00000000    0.00000000
     atom    4 type  2   force =     0.00000000    0.00000000    0.00000000
     atom    5 type  2   force =     0.00000000    0.00000000    0.00000000
     atom    6 type  2   force =     0.00000000    0.00000000    0.00000000
     atom    7 type  3   force =     0.00000000    0.00000000    0.00000000
     atom    8 type  3   force =     0.00000000    0.00000000    0.00000000
     atom    9 type  3   force =     0.00000000    0.00000000    0.00000000
     atom   10 type  3   force =     0.00000000    0.00000000    0.00000000
     The SCF correction term to forces
     atom    1 type  1   force =     0.00000037    0.00000018    0.00037833
     atom    2 type  2   force =    -0.00000792   -0.00000721    0.00225062
     atom    3 type  2   force =    -0.00001767   -0.00000450    0.00041132
     atom    4 type  2   force =    -0.00000033    0.00000043   -0.00148807
     atom    5 type  2   force =    -0.00000276   -0.00000001   -0.00151557
     atom    6 type  2   force =    -0.00000051    0.00000112    0.00012578
     atom    7 type  3   force =     0.00000023   -0.00000009   -0.00033457
     atom    8 type  3   force =     0.00000001    0.00000004   -0.00042161
     atom    9 type  3   force =     0.00000010   -0.00000012   -0.00023670
     atom   10 type  3   force =     0.00000021    0.00000023    0.00037900

     Total force =     0.052632     Total SCF correction =     0.003224

     Computing stress (Cartesian axis) and pressure

          total   stress  (Ry/bohr**3)                   (kbar)     P=     -106.34
  -0.00161508   0.00000000   0.00000000         -237.59        0.00        0.00
   0.00000000  -0.00161508   0.00000000            0.00     -237.59        0.00
   0.00000000   0.00000000   0.00106142            0.00        0.00      156.14

     kinetic stress (kbar)  12532.15      0.00      0.00
                                0.00  12532.15      0.00
                                0.00      0.00  12209.01

     local   stress (kbar)  -1194.87     -0.02     -0.00
                               -0.02  -1194.56     -0.00
                               -0.00     -0.00   3497.43

     nonloc. stress (kbar)  -3658.90      0.00      0.00
                                0.00  -3658.90      0.00
                                0.00      0.00  -3355.26

     hartree stress (kbar)   5445.34      0.01      0.00
                                0.01   5445.23      0.00
                                0.00      0.00   3055.36

     exc-cor stress (kbar)  -1863.04      0.00      0.00
                                0.00  -1863.05      0.00
                                0.00      0.00  -1873.13

     corecor stress (kbar)   -503.55     -0.00      0.00
                               -0.00   -503.54      0.00
                                0.00      0.00   -504.62

     ewald   stress (kbar) -10994.81     -0.00     -0.00
                               -0.00 -10994.81     -0.00
                               -0.00     -0.00 -12872.64

     hubbard stress (kbar)      0.00      0.00      0.00
                                0.00      0.00      0.00
                                0.00      0.00      0.00

     DFT-D   stress (kbar)      0.00      0.00      0.00
                                0.00      0.00      0.00
                                0.00      0.00      0.00

     XDM     stress (kbar)      0.00      0.00      0.00
                                0.00      0.00      0.00
                                0.00      0.00      0.00

     dft-nl  stress (kbar)      0.00      0.00      0.00
                                0.00      0.00      0.00
                                0.00      0.00      0.00

     TS-vdW  stress (kbar)      0.00      0.00      0.00
                                0.00      0.00      0.00
                                0.00      0.00      0.00

[...]

                                0.00      0.00      0.00

     Writing all to output data dir new_calculations/myprefix.save/

     General routines

     Parallel routines

     PAW routines

   This run was terminated on:   3: 5:34  20May2023

   JOB DONE.