     Program PWSCF v.7.0 starts on 21May2023 at 16: 6:45

     Reading input from espresso_23779.pwi
Warning: card &CELL ignored
Warning: card / ignored

     Current dimensions of program PWSCF are:
     Max number of different atomic species (ntypx) = 10
     Max number of k-points (npk) =  40000
     Max angular momentum in pseudopotentials (lmaxx) =  4

     gamma-point specific algorithms are used
     Message from routine setup:
     using ibrav=0 with symmetry is DISCOURAGED, use correct ibrav instead

     Subspace diagonalization in iterative solution of the eigenvalue problem:
     a serial algorithm will be used

     Using Slab Decomposition

     bravais-lattice index     =            0
     lattice parameter (alat)  =      12.4616  a.u.
     unit-cell volume          =     972.1362 (a.u.)^3
     number of atoms/cell      =            9
     number of atomic types    =            3
     number of electrons       =       105.00
     number of Kohn-Sham states=           64
     kinetic-energy cutoff     =      30.0000  Ry
     charge density cutoff     =     240.0000  Ry
     scf convergence threshold =      1.0E-06
     mixing beta               =       0.7000
     number of iterations used =            8  plain     mixing
     Exchange-correlation= PBE
                           (   1   4   3   4   0   0   0)

     celldm(1)=  12.461588  celldm(2)=   0.000000  celldm(3)=   0.000000
     celldm(4)=   0.000000  celldm(5)=   0.000000  celldm(6)=   0.000000

     crystal axes: (cart. coord. in units of alat)
               a(1) = (   1.000000   0.000000   0.000000 )
               a(2) = (  -0.500000   0.866025   0.000000 )
               a(3) = (   0.000000   0.000000   0.580065 )

     reciprocal axes: (cart. coord. in units 2 pi/alat)
               b(1) = (  1.000000  0.577350  0.000000 )
               b(2) = (  0.000000  1.154701  0.000000 )
               b(3) = (  0.000000  0.000000  1.723946 )

     PseudoPot. # 1 for Ti read from file:
     /home/pragov/projects/rrg-bengioy-ad/pragov/crystal_structure_design/SSSP/ti_pbe_v1.4.uspp.F.UPF
     MD5 check sum: 88a00a6731bd790ddea75d31a80cb452
     Pseudo is Ultrasoft + core correction, Zval = 12.0
     Generated by new atomic code, or converted to UPF format
     Using radial grid of  851 points,  6 beta functions with:
                l(1) =   0
                l(2) =   0
                l(3) =   1
                l(4) =   1
                l(5) =   2
                l(6) =   2
     Q(r) pseudized with  6 coefficients,  rinner =    1.000   1.000   1.000
                                                       1.000   1.000

     PseudoPot. # 2 for As read from file:
     /home/pragov/projects/rrg-bengioy-ad/pragov/crystal_structure_design/SSSP/As.pbe-n-rrkjus_psl.0.2.UPF
     MD5 check sum: 767315de957beeeb34f87d97bf945c8f
     Pseudo is Ultrasoft + core correction, Zval =  5.0
     Generated using "atomic" code by A. Dal Corso  v.5.0.99 svn rev. 10869
     Using radial grid of 1209 points,  4 beta functions with:
                l(1) =   0
                l(2) =   0
                l(3) =   1
                l(4) =   1
     Q(r) pseudized with 0 coefficients

     PseudoPot. # 3 for Pd read from file:
     /home/pragov/projects/rrg-bengioy-ad/pragov/crystal_structure_design/SSSP/Pd_ONCV_PBE-1.0.oncvpsp.upf
     MD5 check sum: eb77f42b51d86fb18e25f68156a31cf1
     Pseudo is Norm-conserving, Zval = 18.0
     Generated using ONCVPSP code by D. R. Hamann
     Using radial grid of 1410 points,  6 beta functions with:
                l(1) =   0
                l(2) =   0
                l(3) =   1
                l(4) =   1
                l(5) =   2
                l(6) =   2

     atomic species   valence    mass     pseudopotential
        Ti            12.00    47.86700     Ti( 1.00)
        As             5.00    74.92159     As( 1.00)
        Pd            18.00   106.42000     Pd( 1.00)

     12 Sym. Ops. (no inversion) found

                                    s                        frac. trans.

      isym =  1     identity

 cryst.   s( 1) = (     1          0          0      )
                  (     0          1          0      )
                  (     0          0          1      )

 cart.    s( 1) = (  1.0000000  0.0000000  0.0000000 )
                  (  0.0000000  1.0000000  0.0000000 )
                  (  0.0000000  0.0000000  1.0000000 )

      isym =  2     180 deg rotation - cart. axis [1,0,0]

[...]

      isym =  3     120 deg rotation - cryst. axis [0,0,1]

[...]

      isym =  6     180 deg rotation - cryst. axis [1,1,0]

[...]

      isym =  7     inv. 180 deg rotation - cart. axis [0,0,1]

[...]

      isym =  8     inv. 180 deg rotation - cart. axis [0,1,0]

[...]

      isym =  9     inv.  60 deg rotation - cryst. axis [0,0,1]

 cryst.   s( 9) = (    -1         -1          0      )
                  (     1          0          0      )
                  (     0          0         -1      )

 cart.    s( 9) = ( -0.4999999  0.8660254  0.0000000 )
                  ( -0.8660254 -0.5000001  0.0000000 )
                  (  0.0000000  0.0000000 -1.0000000 )

[...]

 cryst.   s(10) = (     0          1          0      )
                  (    -1         -1          0      )
                  (     0          0         -1      )

 cart.    s(10) = ( -0.5000001 -0.8660254  0.0000000 )
                  (  0.8660254 -0.4999999  0.0000000 )
                  (  0.0000000  0.0000000 -1.0000000 )

[...]

      isym = 12     inv. 180 deg rotation - cryst. axis [2,1,0]

 cryst.   s(12) = (    -1         -1          0      )
                  (     0          1          0      )
                  (     0          0          1      )

 cart.    s(12) = ( -0.4999999 -0.8660255  0.0000000 )
                  ( -0.8660254  0.4999999  0.0000000 )
                  (  0.0000000  0.0000000  1.0000000 )

   Cartesian axes

     site n.     atom                  positions (alat units)
         1           Ti  tau(   1) = (   0.5940930   0.0000000   0.0000000  )
         2           Ti  tau(   2) = (  -0.2970465   0.5144996   0.0000000  )
         3           Ti  tau(   3) = (   0.2029535   0.3515258   0.0000000  )
         4           As  tau(   4) = (  -0.0000005   0.5773505   0.2900323  )
         5           As  tau(   5) = (   0.5000005   0.2886748   0.2900323  )
         6           As  tau(   6) = (   0.0000000   0.0000000   0.0000000  )
         7           Pd  tau(   7) = (   0.2621700   0.0000000   0.2900323  )
         8           Pd  tau(   8) = (  -0.1310850   0.2270459   0.2900323  )
         9           Pd  tau(   9) = (   0.3689150   0.6389795   0.2900323  )

   Crystallographic axes

     site n.     atom                  positions (cryst. coord.)
         1           Ti  tau(   1) = (  0.5940930  0.0000000  0.0000000  )
         2           Ti  tau(   2) = (  0.0000000  0.5940930  0.0000000  )
         3           Ti  tau(   3) = (  0.4059070  0.4059070  0.0000000  )
         4           As  tau(   4) = (  0.3333330  0.6666670  0.5000000  )
         5           As  tau(   5) = (  0.6666670  0.3333330  0.5000000  )
         6           As  tau(   6) = (  0.0000000  0.0000000  0.0000000  )
         7           Pd  tau(   7) = (  0.2621700  0.0000000  0.5000000  )
         8           Pd  tau(   8) = (  0.0000000  0.2621700  0.5000000  )
         9           Pd  tau(   9) = (  0.7378300  0.7378300  0.5000000  )

     number of k points=     1  Methfessel-Paxton smearing, width (Ry)=  0.0010
                       cart. coord. in units 2pi/alat
        k(    1) = (   0.0000000   0.0000000   0.0000000), wk =   2.0000000

                       cryst. coord.
        k(    1) = (   0.0000000   0.0000000   0.0000000), wk =   2.0000000

     Check: negative core charge=   -0.000003

     Initial potential from superposition of free atoms

     starting charge     101.9981, renormalised to     105.0000

     negative rho (up, down):  4.576E-03 0.000E+00
     Starting wfcs are   72 randomized atomic wfcs

     Self-consistent Calculation

     iteration #  1     ecut=    30.00 Ry     beta= 0.70
     Davidson diagonalization with overlap

     ethr =  1.00E-02,  avg # of iterations =  2.0

     total energy              =   -1138.80596766 Ry
     estimated scf accuracy    <      40.35720035 Ry

[...]

     negative rho (up, down):  4.947E-04 0.000E+00

[...]

     total energy              =   -1171.60498342 Ry
     estimated scf accuracy    <       0.00036393 Ry

     iteration # 33     ecut=    30.00 Ry     beta= 0.70
     Davidson diagonalization with overlap

     ethr =  1.79E-08,  avg # of iterations =  2.0

[...]

     End of self-consistent calculation

          k = 0.0000 0.0000 0.0000 (  1369 PWs)   bands (ev):

   -70.7264 -70.7225 -70.7220 -41.4009 -41.3940 -41.3936 -36.3871 -36.3783
   -36.3779 -36.2037 -36.1531 -36.1527 -36.0014 -36.0009 -35.9834 -17.7782
   -17.7675 -17.7672 -17.7013 -17.6736 -17.6735 -17.6425 -17.6160 -17.6158
     2.1911   3.3389   3.6815   9.3340   9.3341   9.4488   9.6385   9.6386
    10.4911  10.6939  10.6940  10.9077  11.0678  11.0679  11.4692  11.4693
    11.7954  11.7955  11.9451  12.6237  12.6239  13.1719  13.5366  14.2102
    14.8183  14.8784  14.8785  15.7874  15.7875  15.8282  15.8283  16.1860
    16.7683  16.8803  16.8803  16.9007  17.2279  17.3508  17.3509  17.8151

     occupation numbers
     1.0000   1.0000   1.0000   1.0000   1.0000   1.0000   1.0000   1.0000
     1.0000   1.0000   1.0000   1.0000   1.0000   1.0000   1.0000   1.0000
     1.0000   1.0000   1.0000   1.0000   1.0000   1.0000   1.0000   1.0000
     1.0000   1.0000   1.0000   1.0000   1.0000   1.0000   1.0000   1.0000
     1.0000   1.0000   1.0000   1.0000   1.0000   1.0000   1.0000   1.0000
     1.0000   1.0000   1.0000   1.0000   1.0000   1.0000   1.0000   1.0000
     1.0000   1.0000   1.0000   0.7517   0.7493  -0.0005  -0.0005  -0.0000
    -0.0000  -0.0000  -0.0000  -0.0000  -0.0000  -0.0000  -0.0000  -0.0000

     the Fermi energy is    15.7917 ev

!    total energy              =   -1171.60499137 Ry
     estimated scf accuracy    <       0.00000055 Ry
     smearing contrib. (-TS)   =      -0.00040641 Ry
     internal energy E=F+TS    =   -1171.60458496 Ry

     The total energy is F=E-TS. E is the sum of the following terms:
     one-electron contribution =    -483.36034590 Ry
     hartree contribution      =     289.76056575 Ry
     xc contribution           =    -156.93196937 Ry
     ewald contribution        =    -821.07283544 Ry

     convergence has been achieved in  33 iterations

     negative rho (up, down):  3.145E-03 0.000E+00

     Forces acting on atoms (cartesian axes, Ry/au):

     atom    1 type  1   force =    -0.03910195   -0.00000000    0.00000000
     atom    2 type  1   force =     0.01955097   -0.03386328    0.00000000
     atom    3 type  1   force =     0.01955097    0.03386328    0.00000000
     atom    4 type  2   force =     0.00000000    0.00000000    0.00000000
     atom    5 type  2   force =     0.00000000    0.00000000    0.00000000
     atom    6 type  2   force =     0.00000000   -0.00000000    0.00000000
     atom    7 type  3   force =     0.02066145    0.00000000   -0.00000000
     atom    8 type  3   force =    -0.01033072    0.01789334   -0.00000000
     atom    9 type  3   force =    -0.01033072   -0.01789334    0.00000000
     The non-local contrib.  to forces
     atom    1 type  1   force =    -0.07887587   -0.00000001    0.00000000
     atom    2 type  1   force =     0.03943794   -0.06830851    0.00000000
     atom    3 type  1   force =     0.03943794    0.06830852    0.00000000
     atom    4 type  2   force =     0.00000000    0.00000000   -0.00000000
     atom    5 type  2   force =    -0.00000000    0.00000000   -0.00000000
     atom    6 type  2   force =     0.00000000    0.00000000    0.00000000
     atom    7 type  3   force =    -0.28640634   -0.00000002    0.00000000
     atom    8 type  3   force =     0.14320317   -0.24803517    0.00000000
     atom    9 type  3   force =     0.14320317    0.24803519    0.00000000
     The ionic contribution  to forces
     atom    1 type  1   force =    -2.80765742   -0.00001099   -0.00000000
     atom    2 type  1   force =     1.40381937   -2.43150804   -0.00000000
     atom    3 type  1   force =     1.40383728    2.43151769   -0.00000000
     atom    4 type  2   force =     0.00003988   -0.00002224   -0.00000000
     atom    5 type  2   force =    -0.00003920    0.00002341    0.00000000
     atom    6 type  2   force =     0.00000006    0.00000010   -0.00000000
     atom    7 type  3   force =     8.37491910    0.00003733    0.00000000
     atom    8 type  3   force =    -4.18742774    7.25291106    0.00000000
     atom    9 type  3   force =    -4.18749131   -7.25294831    0.00000000
     The local contribution  to forces
     atom    1 type  1   force =     2.84428255    0.00026087    0.00000498
     atom    2 type  1   force =    -1.42196725    2.46319026    0.00001491
     atom    3 type  1   force =    -1.42240013   -2.46319421    0.00002340
     atom    4 type  2   force =    -0.00013345    0.00002174   -0.00007801
     atom    5 type  2   force =     0.00027519   -0.00005652   -0.00007172
     atom    6 type  2   force =     0.00002419   -0.00015959   -0.00007779
     atom    7 type  3   force =    -8.06804732   -0.00071813    0.00006853
     atom    8 type  3   force =     4.03333271   -6.98764084    0.00030714
     atom    9 type  3   force =     4.03444375    6.98838850    0.00031330
     The core correction contribution to forces
     atom    1 type  1   force =     0.00337731   -0.00000214   -0.00000191
     atom    2 type  1   force =    -0.00169154    0.00292766   -0.00000242
     atom    3 type  1   force =    -0.00169197   -0.00292862   -0.00000252
     atom    4 type  2   force =     0.00000152   -0.00000314   -0.00000365
     atom    5 type  2   force =     0.00000792   -0.00000514   -0.00000342
     atom    6 type  2   force =     0.00000732    0.00000296   -0.00000295
     atom    7 type  3   force =     0.00000000    0.00000000    0.00000000
     atom    8 type  3   force =     0.00000000    0.00000000    0.00000000
     atom    9 type  3   force =     0.00000000    0.00000000    0.00000000
     The Hubbard contrib.    to forces
     atom    1 type  1   force =     0.00000000    0.00000000    0.00000000
     atom    2 type  1   force =     0.00000000    0.00000000    0.00000000
     atom    3 type  1   force =     0.00000000    0.00000000    0.00000000
     atom    4 type  2   force =     0.00000000    0.00000000    0.00000000
     atom    5 type  2   force =     0.00000000    0.00000000    0.00000000
     atom    6 type  2   force =     0.00000000    0.00000000    0.00000000
     atom    7 type  3   force =     0.00000000    0.00000000    0.00000000
     atom    8 type  3   force =     0.00000000    0.00000000    0.00000000
     atom    9 type  3   force =     0.00000000    0.00000000    0.00000000
     The SCF correction term to forces
     atom    1 type  1   force =    -0.00024993   -0.00017975   -0.00001228
     atom    2 type  1   force =    -0.00005160   -0.00020904   -0.00002901
     atom    3 type  1   force =     0.00025423    0.00015873   -0.00003770
     atom    4 type  2   force =     0.00010133   -0.00006199    0.00003785
     atom    5 type  2   force =    -0.00016605    0.00000169    0.00003376
     atom    6 type  2   force =     0.00002983    0.00016919    0.00004666
     atom    7 type  3   force =     0.00028184    0.00070870    0.00000840
     atom    8 type  3   force =     0.00053125    0.00058912   -0.00021622
     atom    9 type  3   force =    -0.00059047   -0.00126140   -0.00018169

     Total force =     0.076600     Total SCF correction =     0.001881

     Computing stress (Cartesian axis) and pressure

     negative rho (up, down):  3.145E-03 0.000E+00
          total   stress  (Ry/bohr**3)                   (kbar)     P=     -491.19
  -0.00318566  -0.00000000  -0.00000000         -468.63       -0.00       -0.00
  -0.00000000  -0.00318566   0.00000000           -0.00     -468.63        0.00
  -0.00000000   0.00000000  -0.00364590           -0.00        0.00     -536.33

     kinetic stress (kbar)  35089.26      0.00      0.00
                                0.00  35089.26      0.00
                                0.00      0.00  34442.96

     local   stress (kbar) -10191.96     -0.59     -0.01
                               -0.59 -10191.49     -0.00
                               -0.01     -0.00  -6867.53

     nonloc. stress (kbar)   7258.94      0.00      0.00
                                0.00   7258.94      0.00
                                0.00     -0.00   7299.86

     hartree stress (kbar)  14860.04      0.13     -0.01
                                0.13  14859.85     -0.01
                               -0.01     -0.01  14127.11

     exc-cor stress (kbar)  -2336.14      0.00      0.00
                                0.00  -2336.14      0.00
                                0.00      0.00  -2343.05

     corecor stress (kbar)  -4414.75     -0.00     -0.00
                               -0.00  -4414.75     -0.00
                               -0.00     -0.00  -4418.02

     ewald   stress (kbar) -40734.14     -0.01      0.00
                               -0.01 -40734.15     -0.00
                                0.00     -0.00 -42777.65

     hubbard stress (kbar)      0.00      0.00      0.00
                                0.00      0.00      0.00
                                0.00      0.00      0.00

     DFT-D   stress (kbar)      0.00      0.00      0.00
                                0.00      0.00      0.00
                                0.00      0.00      0.00

     XDM     stress (kbar)      0.00      0.00      0.00
                                0.00      0.00      0.00
                                0.00      0.00      0.00

     dft-nl  stress (kbar)      0.00      0.00      0.00
                                0.00      0.00      0.00
                                0.00      0.00      0.00

     TS-vdW  stress (kbar)      0.00      0.00      0.00
                                0.00      0.00      0.00
                                0.00      0.00      0.00

[...]

                                0.00      0.00      0.00

     Writing all to output data dir new_calculations/myprefix.save/

     General routines

     Parallel routines

   This run was terminated on:  16: 7: 0  21May2023

   JOB DONE.