     Program PWSCF v.7.0 starts on 20May2023 at  9:27:35

     Reading input from espresso_7217.pwi
Warning: card &CELL ignored
Warning: card / ignored

     Current dimensions of program PWSCF are:
     Max number of different atomic species (ntypx) = 10
     Max number of k-points (npk) =  40000
     Max angular momentum in pseudopotentials (lmaxx) =  4

     gamma-point specific algorithms are used
     Message from routine setup:
     using ibrav=0 with symmetry is DISCOURAGED, use correct ibrav instead

     Subspace diagonalization in iterative solution of the eigenvalue problem:
     a serial algorithm will be used

     Using Slab Decomposition

     bravais-lattice index     =            0
     lattice parameter (alat)  =      13.2795  a.u.
     unit-cell volume          =    1198.3723 (a.u.)^3
     number of atoms/cell      =            9
     number of atomic types    =            3
     number of electrons       =       135.00
     number of Kohn-Sham states=           82
     kinetic-energy cutoff     =      30.0000  Ry
     charge density cutoff     =     240.0000  Ry
     scf convergence threshold =      1.0E-06
     mixing beta               =       0.7000
     number of iterations used =            8  plain     mixing
     Exchange-correlation= PBE
                           (   1   4   3   4   0   0   0)

     celldm(1)=  13.279528  celldm(2)=   0.000000  celldm(3)=   0.000000
     celldm(4)=   0.000000  celldm(5)=   0.000000  celldm(6)=   0.000000

     crystal axes: (cart. coord. in units of alat)
               a(1) = (   1.000000   0.000000   0.000000 )
               a(2) = (  -0.500000   0.866025   0.000000 )
               a(3) = (   0.000000   0.000000   0.590899 )

     reciprocal axes: (cart. coord. in units 2 pi/alat)
               b(1) = (  1.000000  0.577350  0.000000 )
               b(2) = (  0.000000  1.154700  0.000000 )
               b(3) = (  0.000000  0.000000  1.692337 )

     PseudoPot. # 1 for Er read from file:
     /home/pragov/projects/rrg-bengioy-ad/pragov/crystal_structure_design/SSSP/Er.GGA-PBE-paw-v1.0.UPF
     MD5 check sum: 5952a841f12bc97f67d25f9d1b2e7e35
     Pseudo is Projector augmented-wave + core cor, Zval = 22.0
     Generated using ATOMPAW code
     Shape of augmentation charge: BESSEL
     Using radial grid of 1114 points,  8 beta functions with:
                l(1) =   0
                l(2) =   0
                l(3) =   1
                l(4) =   1
                l(5) =   2
                l(6) =   2
                l(7) =   3
                l(8) =   3
     Q(r) pseudized with 0 coefficients

     PseudoPot. # 2 for Si read from file:
     /home/pragov/projects/rrg-bengioy-ad/pragov/crystal_structure_design/SSSP/Si.pbe-n-rrkjus_psl.1.0.0.UPF
     MD5 check sum: 0b0bb1205258b0d07b9f9672cf965d36
     Pseudo is Ultrasoft + core correction, Zval =  4.0
     Generated using "atomic" code by A. Dal Corso  v.5.1
     Using radial grid of 1141 points,  6 beta functions with:
                l(1) =   0
                l(2) =   0
                l(3) =   1
                l(4) =   1
                l(5) =   2
                l(6) =   2
     Q(r) pseudized with 0 coefficients

     PseudoPot. # 3 for Ag read from file:
     /home/pragov/projects/rrg-bengioy-ad/pragov/crystal_structure_design/SSSP/Ag_ONCV_PBE-1.0.oncvpsp.upf
     MD5 check sum: 94f47bd0669c641108e45594df92fabc
     Pseudo is Norm-conserving, Zval = 19.0
     Generated using ONCVPSP code by D. R. Hamann
     Using radial grid of 1398 points,  6 beta functions with:
                l(1) =   0
                l(2) =   0
                l(3) =   1
                l(4) =   1
                l(5) =   2
                l(6) =   2

     atomic species   valence    mass     pseudopotential
        Er            22.00   167.25900     Er( 1.00)
        Si             4.00    28.08500     Si( 1.00)
        Ag            19.00   107.86820     Ag( 1.00)

     12 Sym. Ops. (no inversion) found

                                    s                        frac. trans.

      isym =  1     identity

 cryst.   s( 1) = (     1          0          0      )
                  (     0          1          0      )
                  (     0          0          1      )

 cart.    s( 1) = (  1.0000000 -0.0000000  0.0000000 )
                  (  0.0000000  1.0000000  0.0000000 )
                  (  0.0000000  0.0000000  1.0000000 )

      isym =  2     180 deg rotation - cart. axis [1,0,0]

[...]

      isym =  3     120 deg rotation - cryst. axis [0,0,1]

[...]

      isym =  6     180 deg rotation - cryst. axis [1,1,0]

[...]

      isym =  7     inv. 180 deg rotation - cart. axis [0,0,1]

[...]

      isym =  8     inv. 180 deg rotation - cart. axis [0,1,0]

[...]

      isym =  9     inv.  60 deg rotation - cryst. axis [0,0,1]

 cryst.   s( 9) = (    -1         -1          0      )
                  (     1          0          0      )
                  (     0          0         -1      )

 cart.    s( 9) = ( -0.5000001  0.8660254  0.0000000 )
                  ( -0.8660254 -0.4999999  0.0000000 )
                  (  0.0000000  0.0000000 -1.0000000 )

[...]

 cryst.   s(10) = (     0          1          0      )
                  (    -1         -1          0      )
                  (     0          0         -1      )

 cart.    s(10) = ( -0.4999999 -0.8660254  0.0000000 )
                  (  0.8660254 -0.5000001  0.0000000 )
                  (  0.0000000  0.0000000 -1.0000000 )

[...]

      isym = 12     inv. 180 deg rotation - cryst. axis [2,1,0]

 cryst.   s(12) = (    -1         -1          0      )
                  (     0          1          0      )
                  (     0          0          1      )

 cart.    s(12) = ( -0.5000001 -0.8660253  0.0000000 )
                  ( -0.8660254  0.5000001  0.0000000 )
                  (  0.0000000  0.0000000  1.0000000 )

   Cartesian axes

     site n.     atom                  positions (alat units)
         1           Er  tau(   1) = (   0.4193810   0.0000000   0.2954495  )
         2           Er  tau(   2) = (  -0.2096905   0.3631946   0.2954495  )
         3           Er  tau(   3) = (   0.2903095   0.5028308   0.2954495  )
         4           Si  tau(   4) = (  -0.0000005   0.5773506   0.0000000  )
         5           Si  tau(   5) = (   0.5000005   0.2886749   0.0000000  )
         6           Si  tau(   6) = (   0.0000000   0.0000000   0.2954495  )
         7           Ag  tau(   7) = (   0.7499510   0.0000000   0.0000000  )
         8           Ag  tau(   8) = (   0.6250245   0.6494766   0.0000000  )
         9           Ag  tau(   9) = (   0.1250245   0.2165488   0.0000000  )

   Crystallographic axes

     site n.     atom                  positions (cryst. coord.)
         1           Er  tau(   1) = (  0.4193810  0.0000000  0.5000000  )
         2           Er  tau(   2) = (  0.0000000  0.4193810  0.5000000  )
         3           Er  tau(   3) = (  0.5806190  0.5806190  0.5000000  )
         4           Si  tau(   4) = (  0.3333330  0.6666670  0.0000000  )
         5           Si  tau(   5) = (  0.6666670  0.3333330  0.0000000  )
         6           Si  tau(   6) = (  0.0000000  0.0000000  0.5000000  )
         7           Ag  tau(   7) = (  0.7499510  0.0000000  0.0000000  )
         8           Ag  tau(   8) = (  1.0000000  0.7499510  0.0000000  )
         9           Ag  tau(   9) = (  0.2500490  0.2500490  0.0000000  )

     number of k points=     1  Methfessel-Paxton smearing, width (Ry)=  0.0010
                       cart. coord. in units 2pi/alat
        k(    1) = (   0.0000000   0.0000000   0.0000000), wk =   2.0000000

                       cryst. coord.
        k(    1) = (   0.0000000   0.0000000   0.0000000), wk =   2.0000000

     Initial potential from superposition of free atoms

     starting charge     134.9848, renormalised to     135.0000
     Starting wfcs are  138 randomized atomic wfcs
     Checking if some PAW data can be deallocated...

     Self-consistent Calculation

     iteration #  1     ecut=    30.00 Ry     beta= 0.70
     Davidson diagonalization with overlap

     ethr =  1.00E-02,  avg # of iterations =  2.0

     total energy              =   -3537.39093377 Ry
     estimated scf accuracy    <      12.44156996 Ry

[...]

     total energy              =   -3553.08385574 Ry
     estimated scf accuracy    <       0.00000233 Ry

     iteration # 31     ecut=    30.00 Ry     beta= 0.70
     Davidson diagonalization with overlap

     ethr =  1.73E-09,  avg # of iterations =  1.0

     End of self-consistent calculation

          k = 0.0000 0.0000 0.0000 (  1672 PWs)   bands (ev):

   -79.5820 -79.5803 -79.5797 -42.7367 -42.7319 -42.7313 -42.6608 -42.6341
   -42.6335 -42.4780 -42.4775 -42.4639 -33.1255 -33.1092 -33.1092  -7.7280
    -7.7279  -7.6944  -7.6006  -7.3985  -7.3486  -7.3485  -7.3450  -7.3450
     4.8657   6.2868   7.1936   8.2347   8.5383   8.6384   8.6386   8.7606
     8.7610   9.1094   9.1095   9.2488   9.2492   9.3018   9.3018   9.3111
     9.7927  10.7890  10.7892  10.8634  11.5513  11.5513  13.7223  13.8740
    14.5236  14.5632  14.5632  14.8033  14.8545  14.8545  14.8871  14.9046
    14.9789  14.9807  14.9808  15.0011  15.0011  15.0235  15.0235  15.0321
    15.0321  15.1126  15.1126  15.1734  15.1794  15.2250  15.3551  15.3551
    16.2269  16.2269  16.4089  16.4091  16.4679  16.5424  17.4776  18.8756
    19.0536  19.0542

     occupation numbers
     1.0000   1.0000   1.0000   1.0000   1.0000   1.0000   1.0000   1.0000
     1.0000   1.0000   1.0000   1.0000   1.0000   1.0000   1.0000   1.0000
     1.0000   1.0000   1.0000   1.0000   1.0000   1.0000   1.0000   1.0000
     1.0000   1.0000   1.0000   1.0000   1.0000   1.0000   1.0000   1.0000
     1.0000   1.0000   1.0000   1.0000   1.0000   1.0000   1.0000   1.0000
     1.0000   1.0000   1.0000   1.0000   1.0000   1.0000   1.0000   1.0000
     1.0000   1.0000   1.0000   1.0000   1.0000   1.0000   1.0000   1.0000
     1.0000   1.0000   1.0000   1.0000   1.0000   1.0000   1.0000   1.0000
     1.0000   1.0000   1.0000   0.3993   0.1007  -0.0000  -0.0000  -0.0000
    -0.0000  -0.0000  -0.0000  -0.0000  -0.0000  -0.0000  -0.0000  -0.0000
    -0.0000  -0.0000

     the Fermi energy is    15.1718 ev

!    total energy              =   -3553.08385562 Ry
     estimated scf accuracy    <       0.00000020 Ry
     smearing contrib. (-TS)   =      -0.00034906 Ry
     internal energy E=F+TS    =   -3553.08350656 Ry

     The total energy is F=E-TS. E is the sum of the following terms:
     one-electron contribution =   -1193.19230892 Ry
     hartree contribution      =     622.78810673 Ry
     xc contribution           =    -198.40809623 Ry
     ewald contribution        =   -1326.27458099 Ry
     one-center paw contrib.   =   -1457.99662716 Ry
      -> PAW hartree energy AE =    1038.72199821 Ry
      -> PAW hartree energy PS =    -928.89249880 Ry
      -> PAW xc energy AE      =   -1663.48104423 Ry
      -> PAW xc energy PS      =      95.65491767 Ry
      -> total E_H with PAW    =     732.61760614 Ry
      -> total E_XC with PAW   =   -1766.23422279 Ry

     convergence has been achieved in  31 iterations

     Forces acting on atoms (cartesian axes, Ry/au):

     atom    1 type  1   force =     0.02714908   -0.00000000    0.00000000
     atom    2 type  1   force =    -0.01357454    0.02351179    0.00000000
     atom    3 type  1   force =    -0.01357454   -0.02351179   -0.00000000
     atom    4 type  2   force =     0.00000000    0.00000000    0.00000000
     atom    5 type  2   force =     0.00000000   -0.00000000    0.00000000
     atom    6 type  2   force =     0.00000000    0.00000000    0.00000000
     atom    7 type  3   force =    -0.02109885    0.00000000   -0.00000000
     atom    8 type  3   force =     0.01054942   -0.01827214   -0.00000000
     atom    9 type  3   force =     0.01054942    0.01827214    0.00000000
     The non-local contrib.  to forces
     atom    1 type  1   force =     0.25963872   -0.00000002    0.00000000
     atom    2 type  1   force =    -0.12981936    0.22485373    0.00000000
     atom    3 type  1   force =    -0.12981936   -0.22485371    0.00000000
     atom    4 type  2   force =    -0.00000000   -0.00000000    0.00000000
     atom    5 type  2   force =    -0.00000000   -0.00000000   -0.00000000
     atom    6 type  2   force =     0.00000000   -0.00000000    0.00000000
     atom    7 type  3   force =     0.19385271   -0.00000001    0.00000000
     atom    8 type  3   force =    -0.09692635    0.16788137    0.00000000
     atom    9 type  3   force =    -0.09692635   -0.16788135    0.00000000
     The ionic contribution  to forces
     atom    1 type  1   force =     0.60257755    0.00001073    0.00000000
     atom    2 type  1   force =    -0.30127945    0.52185285    0.00000000
     atom    3 type  1   force =    -0.30129933   -0.52186570    0.00000000
     atom    4 type  2   force =     0.00002931   -0.00001660   -0.00000000
     atom    5 type  2   force =    -0.00002903    0.00001709   -0.00000000
     atom    6 type  2   force =    -0.00000007   -0.00000013    0.00000000
     atom    7 type  3   force =    -4.10594773   -0.00002489    0.00000000
     atom    8 type  3   force =     2.05295205   -3.55586764   -0.00000000
     atom    9 type  3   force =     2.05299670    3.55589429    0.00000000
     The local contribution  to forces
     atom    1 type  1   force =    -0.83371469    0.00004590    0.00012622
     atom    2 type  1   force =     0.41967624   -0.72451314   -0.00001947
     atom    3 type  1   force =     0.41449552    0.72380567   -0.00004696
     atom    4 type  2   force =     0.00006158    0.00002444    0.00000280
     atom    5 type  2   force =     0.00003436   -0.00021496   -0.00000057
     atom    6 type  2   force =    -0.00012945    0.00020908   -0.00000079
     atom    7 type  3   force =     3.89032197    0.00004153    0.00000055
     atom    8 type  3   force =    -1.94501728    3.36997283   -0.00000254
     atom    9 type  3   force =    -1.94591087   -3.36914418   -0.00000487
     The core correction contribution to forces
     atom    1 type  1   force =    -0.00000135    0.00000000    0.00000000
     atom    2 type  1   force =     0.00000069   -0.00000119   -0.00000000
     atom    3 type  1   force =     0.00000066    0.00000118   -0.00000000
     atom    4 type  2   force =     0.00000084    0.00000046   -0.00000010
     atom    5 type  2   force =    -0.00000067   -0.00000151    0.00000001
     atom    6 type  2   force =    -0.00000381    0.00000367   -0.00000008
     atom    7 type  3   force =     0.00000000    0.00000000    0.00000000
     atom    8 type  3   force =     0.00000000    0.00000000    0.00000000
     atom    9 type  3   force =     0.00000000    0.00000000    0.00000000
     The Hubbard contrib.    to forces
     atom    1 type  1   force =     0.00000000    0.00000000    0.00000000
     atom    2 type  1   force =     0.00000000    0.00000000    0.00000000
     atom    3 type  1   force =     0.00000000    0.00000000    0.00000000
     atom    4 type  2   force =     0.00000000    0.00000000    0.00000000
     atom    5 type  2   force =     0.00000000    0.00000000    0.00000000
     atom    6 type  2   force =     0.00000000    0.00000000    0.00000000
     atom    7 type  3   force =     0.00000000    0.00000000    0.00000000
     atom    8 type  3   force =     0.00000000    0.00000000    0.00000000
     atom    9 type  3   force =     0.00000000    0.00000000    0.00000000
     The SCF correction term to forces
     atom    1 type  1   force =    -0.00134837   -0.00002490   -0.00012577
     atom    2 type  1   force =    -0.00210528    0.00130273    0.00003381
     atom    3 type  1   force =     0.00290183   -0.00055581    0.00005229
     atom    4 type  2   force =    -0.00007913   -0.00000561   -0.00000160
     atom    5 type  2   force =    -0.00000933    0.00017713    0.00000181
     atom    6 type  2   force =     0.00008967   -0.00016891   -0.00000010
     atom    7 type  3   force =     0.00067854   -0.00001169   -0.00000078
     atom    8 type  3   force =    -0.00045910   -0.00028214    0.00000300
     atom    9 type  3   force =     0.00044415   -0.00064630    0.00000785

     Total force =     0.059554     Total SCF correction =     0.004259

     Computing stress (Cartesian axis) and pressure

          total   stress  (Ry/bohr**3)                   (kbar)     P=     -479.04
  -0.00320025   0.00000000   0.00000000         -470.77        0.00        0.00
   0.00000000  -0.00320025  -0.00000000            0.00     -470.77       -0.00
   0.00000000  -0.00000000  -0.00336887            0.00       -0.00     -495.58

     kinetic stress (kbar)  29537.31     -0.00      0.00
                               -0.00  29537.30     -0.00
                                0.00     -0.00  29349.09

     local   stress (kbar)  -1840.49      0.18      0.03
                                0.18  -1840.50      0.01
                                0.03      0.01     59.17

     nonloc. stress (kbar)   7304.87     -0.00      0.00
                               -0.00   7304.87      0.00
                                0.00     -0.00   7484.11

     hartree stress (kbar)  25731.85     -0.08     -0.01
                               -0.08  25731.82     -0.00
                               -0.01     -0.00  24986.10

     exc-cor stress (kbar)  -5992.20     -0.00     -0.00
                               -0.00  -5992.20     -0.00
                               -0.00     -0.00  -5991.18

     corecor stress (kbar)  -1332.06      0.00     -0.00
                                0.00  -1332.06      0.00
                               -0.00      0.00  -1337.33

     ewald   stress (kbar) -53880.03     -0.00      0.00
                               -0.00 -53880.04     -0.00
                                0.00     -0.00 -55045.53

     hubbard stress (kbar)      0.00      0.00      0.00
                                0.00      0.00      0.00
                                0.00      0.00      0.00

     DFT-D   stress (kbar)      0.00      0.00      0.00
                                0.00      0.00      0.00
                                0.00      0.00      0.00

     XDM     stress (kbar)      0.00      0.00      0.00
                                0.00      0.00      0.00
                                0.00      0.00      0.00

     dft-nl  stress (kbar)      0.00      0.00      0.00
                                0.00      0.00      0.00
                                0.00      0.00      0.00

     TS-vdW  stress (kbar)      0.00      0.00      0.00
                                0.00      0.00      0.00
                                0.00      0.00      0.00

[...]

                                0.00      0.00      0.00

     Writing all to output data dir new_calculations/myprefix.save/

     General routines

     Parallel routines

     PAW routines

   This run was terminated on:   9:28:56  20May2023

   JOB DONE.