     Program PWSCF v.7.1 starts on 16Jul2023 at 17: 7:53

     Reading input from espresso_15821.pwi
Warning: card &CELL ignored
Warning: card / ignored

     Current dimensions of program PWSCF are:
     Max number of different atomic species (ntypx) = 10
     Max number of k-points (npk) =  40000
     Max angular momentum in pseudopotentials (lmaxx) =  4
     file Al.pbe-n-kjpaw_psl.1.0.0.UPF: wavefunction(s)  3S 3P renormalized
     Message from routine setup:
     using ibrav=0 with symmetry is DISCOURAGED, use correct ibrav instead

     K-points division:     npool     =       2
     R & G space division:  proc/nbgrp/npool/nimage =       4
     Subspace diagonalization in iterative solution of the eigenvalue problem:
     a serial algorithm will be used

     Using Slab Decomposition

     bravais-lattice index     =            0
     lattice parameter (alat)  =      10.0430  a.u.
     unit-cell volume          =    1439.0184 (a.u.)^3
     number of atoms/cell      =           12
     number of atomic types    =            3
     number of electrons       =       116.00
     number of Kohn-Sham states=           70
     kinetic-energy cutoff     =      30.0000  Ry
     charge density cutoff     =     240.0000  Ry
     scf convergence threshold =      1.0E-06
     mixing beta               =       0.7000
     number of iterations used =            8  plain     mixing
     Exchange-correlation= PBE
                           (   1   4   3   4   0   0   0)

     celldm(1)=  10.042981  celldm(2)=   0.000000  celldm(3)=   0.000000
     celldm(4)=   0.000000  celldm(5)=   0.000000  celldm(6)=   0.000000

     crystal axes: (cart. coord. in units of alat)
               a(1) = (   1.000000   0.000000   0.000000 )
               a(2) = (  -0.506444   0.862273   0.000000 )
               a(3) = (   0.000000   0.000000   1.647532 )

     reciprocal axes: (cart. coord. in units 2 pi/alat)
               b(1) = (  1.000000  0.587336  0.000000 )
               b(2) = (  0.000000  1.159726  0.000000 )
               b(3) = (  0.000000  0.000000  0.606969 )

     PseudoPot. # 1 for Hf read from file:
     /lustre07/scratch/pragov/crystal_structure_design/utils/SSSP/Hf-sp.oncvpsp.upf
     MD5 check sum: 417ed15784afe83d2e06dacf143de3f8
     Pseudo is Norm-conserving + core correction, Zval = 12.0
     Generated using ONCVPSP code by D. R. Hamann
     Using radial grid of 1656 points,  8 beta functions with:
                l(1) =   0
                l(2) =   0
                l(3) =   1
                l(4) =   1
                l(5) =   2
                l(6) =   2
                l(7) =   3
                l(8) =   3

     PseudoPot. # 2 for Al read from file:
     /lustre07/scratch/pragov/crystal_structure_design/utils/SSSP/Al.pbe-n-kjpaw_psl.1.0.0.UPF
     MD5 check sum: cfc449ca30b5f3223ec38ddd88ac046d
     Pseudo is Projector augmented-wave + core cor, Zval =  3.0
     Generated using "atomic" code by A. Dal Corso  v.5.1
     Shape of augmentation charge: PSQ
     Using radial grid of 1135 points,  6 beta functions with:
                l(1) =   0
                l(2) =   0
                l(3) =   1
                l(4) =   1
                l(5) =   2
                l(6) =   2
     Q(r) pseudized with 0 coefficients

     PseudoPot. # 3 for Mo read from file:
     /lustre07/scratch/pragov/crystal_structure_design/utils/SSSP/Mo_ONCV_PBE-1.0.oncvpsp.upf
     MD5 check sum: 1b5d28e075c9ccadda658a603575cd1f
     Pseudo is Norm-conserving, Zval = 14.0
     Generated using ONCVPSP code by D. R. Hamann
     Using radial grid of 1526 points,  6 beta functions with:
                l(1) =   0
                l(2) =   0
                l(3) =   1
                l(4) =   1
                l(5) =   2
                l(6) =   2

     atomic species   valence    mass     pseudopotential
        Hf            12.00   178.49000     Hf( 1.00)
        Al             3.00    26.98154     Al( 1.00)
        Mo            14.00    95.95000     Mo( 1.00)

      2 Sym. Ops. (no inversion) found

                                    s                        frac. trans.

      isym =  1     identity

 cryst.   s( 1) = (     1          0          0      )
                  (     0          1          0      )
                  (     0          0          1      )

 cart.    s( 1) = (  1.0000000 -0.0000000  0.0000000 )
                  (  0.0000000  1.0000000  0.0000000 )
                  (  0.0000000  0.0000000  1.0000000 )

      isym =  2     inv. 180 deg rotation - cart. axis [0,0,1]

 cryst.   s( 2) = (     1          0          0      )
                  (     0          1          0      )
                  (     0          0         -1      )

 cart.    s( 2) = (  1.0000000 -0.0000000  0.0000000 )
                  (  0.0000000  1.0000000  0.0000000 )
                  (  0.0000000  0.0000000 -1.0000000 )

   Cartesian axes

     site n.     atom                  positions (alat units)
         1           Hf  tau(   1) = (  -0.0023307   0.5737235   0.3073092  )
         2           Hf  tau(   2) = (   0.5040018   0.2839042   0.5192164  )
         3           Hf  tau(   3) = (   0.5040018   0.2839042   1.1283155  )
         4           Hf  tau(   4) = (  -0.0023307   0.5737235   1.3402227  )
         5           Al  tau(   5) = (   0.9944081   0.0032008   0.4103886  )
         6           Al  tau(   6) = (   0.9944081   0.0032008   1.2371432  )
         7           Al  tau(   7) = (   0.4953886   0.5681283   0.0000000  )
         8           Al  tau(   8) = (   0.2545610   0.1473874   0.0000000  )
         9           Mo  tau(   9) = (   0.7449801   0.1459707   0.0000000  )
        10           Mo  tau(  10) = (  -0.0040172   0.2967417   0.8237659  )
        11           Mo  tau(  11) = (   0.2356491   0.7154536   0.8237659  )
        12           Mo  tau(  12) = (  -0.2508036   0.7159468   0.8237659  )

   Crystallographic axes

     site n.     atom                  positions (cryst. coord.)
         1           Hf  tau(   1) = (  0.3346380  0.6653620  0.1865270  )
         2           Hf  tau(   2) = (  0.6707490  0.3292510  0.3151480  )
         3           Hf  tau(   3) = (  0.6707490  0.3292510  0.6848520  )
         4           Hf  tau(   4) = (  0.3346380  0.6653620  0.8134730  )
         5           Al  tau(   5) = (  0.9962880  0.0037120  0.2490930  )
         6           Al  tau(   6) = (  0.9962880  0.0037120  0.7509070  )
         7           Al  tau(   7) = (  0.8290710  0.6588730  0.0000000  )
         8           Al  tau(   8) = (  0.3411270  0.1709290  0.0000000  )
         9           Mo  tau(   9) = (  0.8307140  0.1692860  0.0000000  )
        10           Mo  tau(  10) = (  0.1702700  0.3441390  0.5000000  )
        11           Mo  tau(  11) = (  0.6558610  0.8297300  0.5000000  )
        12           Mo  tau(  12) = (  0.1696980  0.8303020  0.5000000  )

     number of k points=    10  Gaussian smearing, width (Ry)=  0.0010
                       cart. coord. in units 2pi/alat
        k(    1) = (   0.0000000   0.0000000   0.0000000), wk =   0.0740741
        k(    2) = (   0.0000000   0.0000000   0.2023228), wk =   0.1481481
        k(    3) = (   0.0000000   0.3865753   0.0000000), wk =   0.1481481
        k(    4) = (   0.0000000   0.3865753   0.2023228), wk =   0.2962963
        k(    5) = (   0.3333333   0.1957788   0.0000000), wk =   0.1481481
        k(    6) = (   0.3333333   0.1957788   0.2023228), wk =   0.2962963
        k(    7) = (   0.3333333   0.5823540   0.0000000), wk =   0.1481481
        k(    8) = (   0.3333333   0.5823540   0.2023228), wk =   0.2962963
        k(    9) = (   0.3333333  -0.1907965   0.0000000), wk =   0.1481481
        k(   10) = (   0.3333333  -0.1907965   0.2023228), wk =   0.2962963

                       cryst. coord.
        k(    1) = (   0.0000000   0.0000000   0.0000000), wk =   0.0740741
        k(    2) = (   0.0000000   0.0000000   0.3333333), wk =   0.1481481
        k(    3) = (   0.0000000   0.3333333   0.0000000), wk =   0.1481481
        k(    4) = (   0.0000000   0.3333333   0.3333333), wk =   0.2962963
        k(    5) = (   0.3333333  -0.0000000   0.0000000), wk =   0.1481481
        k(    6) = (   0.3333333  -0.0000000   0.3333333), wk =   0.2962963
        k(    7) = (   0.3333333   0.3333333   0.0000000), wk =   0.1481481
        k(    8) = (   0.3333333   0.3333333   0.3333333), wk =   0.2962963
        k(    9) = (   0.3333333  -0.3333333   0.0000000), wk =   0.1481481
        k(   10) = (   0.3333333  -0.3333333   0.3333333), wk =   0.2962963

     Initial potential from superposition of free atoms

     starting charge     115.9795, renormalised to     116.0000
     Starting wfcs are   96 randomized atomic wfcs
     Checking if some PAW data can be deallocated...

     Self-consistent Calculation

     iteration #  1     ecut=    30.00 Ry     beta= 0.70
     Davidson diagonalization with overlap

     ethr =  1.00E-02,  avg # of iterations =  2.2

     total energy              =   -1155.76530800 Ry
     estimated scf accuracy    <       2.97802411 Ry

[...]

     total energy              =   -1157.87657531 Ry
     estimated scf accuracy    <       0.00000303 Ry

     iteration # 15     ecut=    30.00 Ry     beta= 0.70
     Davidson diagonalization with overlap

     ethr =  2.62E-09,  avg # of iterations =  4.7

     End of self-consistent calculation

          k = 0.0000 0.0000 0.0000 (  3987 PWs)   bands (ev):

   -47.3183 -47.3051 -47.1938 -47.1863 -46.2186 -45.9909 -45.9526 -45.9047
   -21.1998 -20.5321 -20.5125 -20.3704 -20.1520 -20.1261 -20.0986 -20.0019
   -19.9482 -19.6672 -19.5407 -19.5102 -16.1200 -16.1037 -16.0622 -16.0597
   -16.0291 -16.0041 -15.8718 -15.8619 -15.8485 -15.8483 -15.8411 -15.8084
     5.4637   7.7344   8.2517   9.8887  10.0932  10.3243  10.4902  10.9354
    11.1779  11.6024  11.8488  11.8938  11.8957  12.0966  12.5003  12.6768
    12.7399  12.7592  12.9252  13.1217  13.3408  13.4157  13.6899  14.2620
    14.5752  14.6133  14.9591  15.0166  15.2833  15.3311  15.9825  16.1069
    16.2643  16.5066  16.5078  16.6573  16.7884  17.2163

     occupation numbers
     1.0000   1.0000   1.0000   1.0000   1.0000   1.0000   1.0000   1.0000
     1.0000   1.0000   1.0000   1.0000   1.0000   1.0000   1.0000   1.0000
     1.0000   1.0000   1.0000   1.0000   1.0000   1.0000   1.0000   1.0000
     1.0000   1.0000   1.0000   1.0000   1.0000   1.0000   1.0000   1.0000
     1.0000   1.0000   1.0000   1.0000   1.0000   1.0000   1.0000   1.0000
     1.0000   1.0000   1.0000   1.0000   1.0000   1.0000   1.0000   1.0000
     1.0000   1.0000   1.0000   1.0000   1.0000   1.0000   1.0000   1.0000
     0.0000   0.0000   0.0000   0.0000   0.0000   0.0000   0.0000   0.0000
     0.0000   0.0000   0.0000   0.0000   0.0000   0.0000

[...]

          k = 0.3333-0.1908 0.2023 (  4002 PWs)   bands (ev):

   -47.3161 -47.3075 -47.1967 -47.1888 -46.1715 -46.0402 -45.9527 -45.9046
   -20.9658 -20.4598 -20.3225 -20.3187 -20.2046 -20.1280 -20.0999 -20.0024
   -19.9482 -19.8863 -19.8527 -19.5345 -16.1211 -16.1070 -16.0744 -16.0700
   -16.0355 -15.9746 -15.9185 -15.8597 -15.8375 -15.8343 -15.8288 -15.8086
     6.3341   7.8131   9.0655   9.6835  10.0838  10.3198  10.7674  10.7694
    11.0433  11.2776  11.7222  11.8334  12.1158  12.2744  12.3373  12.5342
    12.6555  12.8800  12.9717  13.2714  13.5279  13.6020  13.8229  13.9163
    14.0461  14.4082  14.5205  14.5870  15.2472  15.2715  15.4382  15.9617
    16.0324  16.3563  16.4452  16.4884  16.5727  16.8404

     occupation numbers
     1.0000   1.0000   1.0000   1.0000   1.0000   1.0000   1.0000   1.0000
     1.0000   1.0000   1.0000   1.0000   1.0000   1.0000   1.0000   1.0000
     1.0000   1.0000   1.0000   1.0000   1.0000   1.0000   1.0000   1.0000
     1.0000   1.0000   1.0000   1.0000   1.0000   1.0000   1.0000   1.0000
     1.0000   1.0000   1.0000   1.0000   1.0000   1.0000   1.0000   1.0000
     1.0000   1.0000   1.0000   1.0000   1.0000   1.0000   1.0000   1.0000
     1.0000   1.0000   1.0000   1.0000   1.0000   1.0000   1.0000   1.0000
     1.0000   1.0000   0.0640   0.0000   0.0000   0.0000   0.0000   0.0000
     0.0000   0.0000   0.0000   0.0000   0.0000   0.0000

     the Fermi energy is    14.5058 ev

!    total energy              =   -1157.87657546 Ry
     estimated scf accuracy    <       0.00000049 Ry
     smearing contrib. (-TS)   =      -0.00024074 Ry
     internal energy E=F+TS    =   -1157.87633472 Ry

     The total energy is F=E-TS. E is the sum of the following terms:
     one-electron contribution =    -367.51315710 Ry
     hartree contribution      =     229.17794738 Ry
     xc contribution           =    -187.12684422 Ry
     ewald contribution        =    -693.61990954 Ry
     one-center paw contrib.   =    -138.79437125 Ry
      -> PAW hartree energy AE =       0.00000000 Ry
      -> PAW hartree energy PS =       0.00000000 Ry
      -> PAW xc energy AE      =       0.00000000 Ry
      -> PAW xc energy PS      =       0.00000000 Ry
      -> total E_H with PAW    =     229.17794738 Ry
      -> total E_XC with PAW   =    -187.12684422 Ry

     convergence has been achieved in  15 iterations

     Writing all to output data dir energy_m/myprefix.save/

     General routines

     Parallel routines

     PAW routines

   This run was terminated on:  17: 8:11  16Jul2023

   JOB DONE.