     Program PWSCF v.7.0 starts on 20May2023 at  7:19:30

     Reading input from espresso_13177.pwi
Warning: card &CELL ignored
Warning: card / ignored

     Current dimensions of program PWSCF are:
     Max number of different atomic species (ntypx) = 10
     Max number of k-points (npk) =  40000
     Max angular momentum in pseudopotentials (lmaxx) =  4
     file Ga.pbe-dn-kjpaw_psl.1.0.0.UPF: wavefunction(s)  4S renormalized

     gamma-point specific algorithms are used
     Message from routine setup:
     using ibrav=0 with symmetry is DISCOURAGED, use correct ibrav instead

     Subspace diagonalization in iterative solution of the eigenvalue problem:
     a serial algorithm will be used

     Using Slab Decomposition

     bravais-lattice index     =            0
     lattice parameter (alat)  =      15.3327  a.u.
     unit-cell volume          =    2290.4863 (a.u.)^3
     number of atoms/cell      =           16
     number of atomic types    =            2
     number of electrons       =       188.00
     number of Kohn-Sham states=          113
     kinetic-energy cutoff     =      30.0000  Ry
     charge density cutoff     =     240.0000  Ry
     scf convergence threshold =      1.0E-06
     mixing beta               =       0.7000
     number of iterations used =            8  plain     mixing
     Exchange-correlation= SLA  PW   PBX  PBC
                           (   1   4   3   4   0   0   0)

     celldm(1)=  15.332708  celldm(2)=   0.000000  celldm(3)=   0.000000
     celldm(4)=   0.000000  celldm(5)=   0.000000  celldm(6)=   0.000000

     crystal axes: (cart. coord. in units of alat)
               a(1) = (   1.000000   0.000000   0.000000 )
               a(2) = (  -0.500000   0.866025   0.000000 )
               a(3) = (   0.000000   0.000000   0.733737 )

     reciprocal axes: (cart. coord. in units 2 pi/alat)
               b(1) = (  1.000000  0.577350  0.000000 )
               b(2) = (  0.000000  1.154700  0.000000 )
               b(3) = (  0.000000  0.000000  1.362886 )

     PseudoPot. # 1 for Sc read from file:
     /home/pragov/projects/rrg-bengioy-ad/pragov/crystal_structure_design/SSSP/Sc_ONCV_PBE-1.0.oncvpsp.upf
     MD5 check sum: e21af8023abb52e52cb7cd3133e4a229
     Pseudo is Norm-conserving, Zval = 11.0
     Generated using ONCVPSP code by D. R. Hamann
     Using radial grid of 1662 points,  6 beta functions with:
                l(1) =   0
                l(2) =   0
                l(3) =   1
                l(4) =   1
                l(5) =   2
                l(6) =   2

     PseudoPot. # 2 for Ga read from file:
     /home/pragov/projects/rrg-bengioy-ad/pragov/crystal_structure_design/SSSP/Ga.pbe-dn-kjpaw_psl.1.0.0.UPF
     MD5 check sum: a27b4342b1af7e5f338de752e9ed7044
     Pseudo is Projector augmented-wave + core cor, Zval = 13.0
     Generated using "atomic" code by A. Dal Corso  v.5.1
     Shape of augmentation charge: PSQ
     Using radial grid of 1205 points,  6 beta functions with:
                l(1) =   0
                l(2) =   0
                l(3) =   1
                l(4) =   1
                l(5) =   2
                l(6) =   2
     Q(r) pseudized with 0 coefficients

     atomic species   valence    mass     pseudopotential
        Sc            11.00    44.95591     Sc( 1.00)
        Ga            13.00    69.72300     Ga( 1.00)

     24 Sym. Ops., with inversion, found (12 have fractional translation)

                                    s                        frac. trans.

      isym =  1     identity

 cryst.   s( 1) = (     1          0          0      )
                  (     0          1          0      )
                  (     0          0          1      )

 cart.    s( 1) = (  1.0000000 -0.0000000  0.0000000 )
                  (  0.0000000  1.0000000  0.0000000 )
                  (  0.0000000  0.0000000  1.0000000 )

      isym =  2     180 deg rotation - cart. axis [0,0,1]

 cryst.   s( 2) = (    -1          0          0      )    f =(  0.0000000 )
                  (     0         -1          0      )       (  0.0000000 )
                  (     0          0          1      )       (  0.5000000 )

 cart.    s( 2) = ( -1.0000000  0.0000000  0.0000000 )    f =(  0.0000000 )
                  (  0.0000000 -1.0000000  0.0000000 )       (  0.0000000 )
                  (  0.0000000  0.0000000  1.0000000 )       (  0.3668686 )

[...]

      isym =  4     180 deg rotation - cart. axis [1,0,0]

[...]

      isym =  5      60 deg rotation - cryst. axis [0,0,1]

[...]

 cryst.   s( 6) = (     0         -1          0      )    f =( -0.0000000 )
                  (     1          1          0      )       ( -0.0000010 )
                  (     0          0          1      )       (  0.5000000 )

 cart.    s( 6) = (  0.4999999  0.8660254  0.0000000 )    f =(  0.0000005 )
                  ( -0.8660254  0.5000001  0.0000000 )       ( -0.0000009 )
                  (  0.0000000  0.0000000  1.0000000 )       (  0.3668686 )

[...]

 cryst.   s( 9) = (     0         -1          0      )
                  (    -1          0          0      )
                  (     0          0         -1      )

 cart.    s( 9) = (  0.4999999 -0.8660254  0.0000000 )
                  ( -0.8660254 -0.4999999  0.0000000 )
                  (  0.0000000  0.0000000 -1.0000000 )

[...]

 cryst.   s(10) = (     1          1          0      )
                  (     0         -1          0      )
                  (     0          0         -1      )

 cart.    s(10) = (  0.5000001  0.8660253  0.0000000 )
                  (  0.8660254 -0.5000001  0.0000000 )
                  (  0.0000000  0.0000000 -1.0000000 )

[...]

 cryst.   s(11) = (    -1         -1          0      )    f =(  0.0000000 )
                  (     0          1          0      )       ( -0.0000010 )
                  (     0          0         -1      )       ( -0.5000000 )

 cart.    s(11) = ( -0.5000001 -0.8660253  0.0000000 )    f =(  0.0000005 )
                  ( -0.8660254  0.5000001  0.0000000 )       ( -0.0000009 )
                  (  0.0000000  0.0000000 -1.0000000 )       ( -0.3668686 )

      isym = 12     180 deg rotation - cryst. axis [1,1,0]

[...]

      isym = 13     inversion

[...]

      isym = 14     inv. 180 deg rotation - cart. axis [0,0,1]

[...]

      isym = 16     inv. 180 deg rotation - cart. axis [1,0,0]

[...]

      isym = 17     inv.  60 deg rotation - cryst. axis [0,0,1]

[...]

 cryst.   s(22) = (    -1         -1          0      )
                  (     0          1          0      )
                  (     0          0          1      )

 cart.    s(22) = ( -0.5000001 -0.8660253  0.0000000 )
                  ( -0.8660254  0.5000001  0.0000000 )
                  (  0.0000000  0.0000000  1.0000000 )

[...]

      isym = 24     inv. 180 deg rotation - cryst. axis [1,1,0]

 cryst.   s(24) = (     0         -1          0      )    f =( -0.0000000 )
                  (    -1          0          0      )       ( -0.0000000 )
                  (     0          0          1      )       (  0.5000000 )

 cart.    s(24) = (  0.4999999 -0.8660254  0.0000000 )    f =( -0.0000000 )
                  ( -0.8660254 -0.4999999  0.0000000 )       ( -0.0000000 )
                  (  0.0000000  0.0000000  1.0000000 )       (  0.3668686 )

   Cartesian axes

     site n.     atom                  positions (alat units)
         1           Sc  tau(   1) = (  -0.0000005   0.5773506   0.0000000  )
         2           Sc  tau(   2) = (   0.5000005   0.2886749   0.3668686  )
         3           Sc  tau(   3) = (   0.5000005   0.2886749   0.0000000  )
         4           Sc  tau(   4) = (  -0.0000005   0.5773506   0.3668686  )
         5           Sc  tau(   5) = (   0.2414070   0.0000000   0.1834343  )
         6           Sc  tau(   6) = (   0.1207035   0.2090646   0.5503028  )
         7           Sc  tau(   7) = (   0.6207036   0.6569608   0.5503028  )
         8           Sc  tau(   8) = (  -0.1207035   0.2090646   0.1834343  )
         9           Sc  tau(   9) = (   0.3792966   0.6569608   0.1834343  )
        10           Sc  tau(  10) = (   0.7585930   0.0000000   0.5503028  )
        11           Ga  tau(  11) = (   0.6005170   0.0000000   0.1834343  )
        12           Ga  tau(  12) = (   0.3002585   0.5200630   0.5503028  )
        13           Ga  tau(  13) = (  -0.1997415   0.3459624   0.5503028  )
        14           Ga  tau(  14) = (  -0.3002585   0.5200630   0.1834343  )
        15           Ga  tau(  15) = (   0.1997415   0.3459624   0.1834343  )
        16           Ga  tau(  16) = (   0.3994830   0.0000000   0.5503028  )

   Crystallographic axes

     site n.     atom                  positions (cryst. coord.)
         1           Sc  tau(   1) = (  0.3333330  0.6666670  0.0000000  )
         2           Sc  tau(   2) = (  0.6666670  0.3333330  0.5000000  )
         3           Sc  tau(   3) = (  0.6666670  0.3333330  0.0000000  )
         4           Sc  tau(   4) = (  0.3333330  0.6666670  0.5000000  )
         5           Sc  tau(   5) = (  0.2414070  0.0000000  0.2500000  )
         6           Sc  tau(   6) = (  0.2414070  0.2414070  0.7500000  )
         7           Sc  tau(   7) = (  1.0000000  0.7585930  0.7500000  )
         8           Sc  tau(   8) = ( -0.0000000  0.2414070  0.2500000  )
         9           Sc  tau(   9) = (  0.7585930  0.7585930  0.2500000  )
        10           Sc  tau(  10) = (  0.7585930  0.0000000  0.7500000  )
        11           Ga  tau(  11) = (  0.6005170  0.0000000  0.2500000  )
        12           Ga  tau(  12) = (  0.6005170  0.6005170  0.7500000  )
        13           Ga  tau(  13) = ( -0.0000000  0.3994830  0.7500000  )
        14           Ga  tau(  14) = (  0.0000000  0.6005170  0.2500000  )
        15           Ga  tau(  15) = (  0.3994830  0.3994830  0.2500000  )
        16           Ga  tau(  16) = (  0.3994830  0.0000000  0.7500000  )

     number of k points=     1  Methfessel-Paxton smearing, width (Ry)=  0.0010
                       cart. coord. in units 2pi/alat
        k(    1) = (   0.0000000   0.0000000   0.0000000), wk =   2.0000000

                       cryst. coord.
        k(    1) = (   0.0000000   0.0000000   0.0000000), wk =   2.0000000

     Check: negative core charge=   -0.000002

     Initial potential from superposition of free atoms

     starting charge     187.9559, renormalised to     188.0000
     Starting wfcs are  154 randomized atomic wfcs
     Checking if some PAW data can be deallocated...

     Self-consistent Calculation

     iteration #  1     ecut=    30.00 Ry     beta= 0.70
     Davidson diagonalization with overlap

     ethr =  1.00E-02,  avg # of iterations =  2.0

     Threshold (ethr) on eigenvalues was too large:
     Diagonalizing with lowered threshold

     Davidson diagonalization with overlap

[...]

     total energy              =   -2585.79191527 Ry
     estimated scf accuracy    <       1.24127112 Ry

[...]

     total energy              =   -2586.59544073 Ry
     estimated scf accuracy    <       0.00001706 Ry

     iteration # 32     ecut=    30.00 Ry     beta= 0.70
     Davidson diagonalization with overlap

     ethr =  5.46E-10,  avg # of iterations =  6.0

     End of self-consistent calculation

          k = 0.0000 0.0000 0.0000 (  3187 PWs)   bands (ev):

   -39.7564 -39.7514 -39.7273 -39.7203 -39.7202 -39.7196 -39.7143 -39.7138
   -39.6932 -39.6929 -18.6364 -18.6351 -18.4014 -18.4013 -18.3831 -18.3710
   -18.3708 -18.3535 -18.3531 -18.3314 -18.3151 -18.3149 -18.3144 -18.3143
   -18.3141 -18.3034 -18.2998 -18.2997 -18.2734 -18.2713 -18.2677 -18.2677
   -18.2530 -18.2528 -18.2217 -18.2214 -18.2197 -18.2193 -18.1484 -18.1468
    -3.9172  -3.9065  -3.9055  -3.9055  -3.9023  -3.9022  -3.8987  -3.8986
    -3.8955  -3.8954  -3.8952  -3.8952  -3.8951  -3.8928  -3.8847  -3.8847
    -3.8842  -3.8810  -3.8757  -3.8757  -3.8750  -3.8704  -3.8702  -3.8700
    -3.8642  -3.8568  -3.8566  -3.8424  -3.8423  -3.8367   2.0512   3.7967
     3.7969   4.7395   4.7396   4.9084   6.2569   7.2014   7.6482   7.6529
     7.6529   8.2838   8.2838   8.5863   8.5864   9.3184   9.3185   9.4754
     9.6167   9.6910   9.6911   9.7857   9.7974  10.0295  10.0296  10.0384
    10.1240  10.1241  10.2838  10.5116  10.7262  10.7264  11.0451  11.4037
    11.4037  11.4735  11.4737  11.9350  11.9440  12.0163  12.0165  12.5646
    12.5648

     occupation numbers
     1.0000   1.0000   1.0000   1.0000   1.0000   1.0000   1.0000   1.0000
     1.0000   1.0000   1.0000   1.0000   1.0000   1.0000   1.0000   1.0000
     1.0000   1.0000   1.0000   1.0000   1.0000   1.0000   1.0000   1.0000
     1.0000   1.0000   1.0000   1.0000   1.0000   1.0000   1.0000   1.0000
     1.0000   1.0000   1.0000   1.0000   1.0000   1.0000   1.0000   1.0000
     1.0000   1.0000   1.0000   1.0000   1.0000   1.0000   1.0000   1.0000
     1.0000   1.0000   1.0000   1.0000   1.0000   1.0000   1.0000   1.0000
     1.0000   1.0000   1.0000   1.0000   1.0000   1.0000   1.0000   1.0000
     1.0000   1.0000   1.0000   1.0000   1.0000   1.0000   1.0000   1.0000
     1.0000   1.0000   1.0000   1.0000   1.0000   1.0000   1.0000   1.0000
     1.0000   1.0000   1.0000   1.0000   1.0000   1.0000   1.0000   1.0000
     1.0000   1.0000   1.0000   1.0000   1.0000   0.4777   0.4744   0.0479
    -0.0000  -0.0000  -0.0000  -0.0000  -0.0000  -0.0000  -0.0000  -0.0000
    -0.0000  -0.0000  -0.0000  -0.0000  -0.0000  -0.0000  -0.0000  -0.0000
    -0.0000

     the Fermi energy is    10.0291 ev

!    total energy              =   -2586.59544082 Ry
     estimated scf accuracy    <       0.00000069 Ry
     smearing contrib. (-TS)   =      -0.00057695 Ry
     internal energy E=F+TS    =   -2586.59486387 Ry

     The total energy is F=E-TS. E is the sum of the following terms:
     one-electron contribution =    -953.64526265 Ry
     hartree contribution      =     579.94929653 Ry
     xc contribution           =    -347.48724704 Ry
     ewald contribution        =   -1200.10892208 Ry
     one-center paw contrib.   =    -665.30272864 Ry
      -> PAW hartree energy AE =     857.58722167 Ry
      -> PAW hartree energy PS =    -843.92645693 Ry
      -> PAW xc energy AE      =    -905.48980230 Ry
      -> PAW xc energy PS      =     226.52630893 Ry
      -> total E_H with PAW    =     593.61006126 Ry
      -> total E_XC with PAW   =   -1026.45074041 Ry

     convergence has been achieved in  32 iterations

     Forces acting on atoms (cartesian axes, Ry/au):

     atom    1 type  1   force =    -0.00000000   -0.00000000    0.00000000
     atom    2 type  1   force =     0.00000000    0.00000000   -0.00000000
     atom    3 type  1   force =     0.00000000    0.00000000    0.00000000
     atom    4 type  1   force =    -0.00000000   -0.00000000    0.00000000
     atom    5 type  1   force =    -0.01934528    0.00000000    0.00000000
     atom    6 type  1   force =    -0.00967264   -0.01675350    0.00000000
     atom    7 type  1   force =    -0.00967264    0.01675351   -0.00000000
     atom    8 type  1   force =     0.00967264   -0.01675351    0.00000000
     atom    9 type  1   force =     0.00967264    0.01675350    0.00000000
     atom   10 type  1   force =     0.01934528   -0.00000000    0.00000000
     atom   11 type  2   force =     0.00112122   -0.00000000    0.00000000
     atom   12 type  2   force =     0.00056061    0.00097101   -0.00000000
     atom   13 type  2   force =     0.00056061   -0.00097101    0.00000000
     atom   14 type  2   force =    -0.00056061    0.00097101   -0.00000000
     atom   15 type  2   force =    -0.00056061   -0.00097101   -0.00000000
     atom   16 type  2   force =    -0.00112122    0.00000000    0.00000000
     The non-local contrib.  to forces
     atom    1 type  1   force =     0.00000000    0.00000000    0.00000000
     atom    2 type  1   force =     0.00000000   -0.00000000    0.00000000
     atom    3 type  1   force =     0.00000000   -0.00000000    0.00000000
     atom    4 type  1   force =     0.00000000    0.00000000    0.00000000
     atom    5 type  1   force =    -0.02714353    0.00000000    0.00000000
     atom    6 type  1   force =    -0.01357177   -0.02350698    0.00000000
     atom    7 type  1   force =    -0.01357177    0.02350699   -0.00000000
     atom    8 type  1   force =     0.01357177   -0.02350699    0.00000000
     atom    9 type  1   force =     0.01357177    0.02350698    0.00000000
     atom   10 type  1   force =     0.02714353   -0.00000000    0.00000000
     atom   11 type  2   force =     0.00914434   -0.00000000    0.00000000
     atom   12 type  2   force =     0.00457217    0.00791923   -0.00000000
     atom   13 type  2   force =     0.00457217   -0.00791923    0.00000000
     atom   14 type  2   force =    -0.00457217    0.00791923    0.00000000
     atom   15 type  2   force =    -0.00457217   -0.00791923    0.00000000
     atom   16 type  2   force =    -0.00914434    0.00000000    0.00000000
     The ionic contribution  to forces
     atom    1 type  1   force =     0.00007634   -0.00004408   -0.00000000
     atom    2 type  1   force =    -0.00007634    0.00004408   -0.00000000
     atom    3 type  1   force =    -0.00007634    0.00004408    0.00000000
     atom    4 type  1   force =     0.00007634   -0.00004408    0.00000000
     atom    5 type  1   force =    -7.58801208    0.00003633   -0.00000000
     atom    6 type  1   force =    -3.79397430   -6.57135565    0.00000000
     atom    7 type  1   force =    -3.79403699    6.57139336    0.00000000
     atom    8 type  1   force =     3.79403699   -6.57139336   -0.00000000
     atom    9 type  1   force =     3.79397430    6.57135565   -0.00000000
     atom   10 type  1   force =     7.58801208   -0.00003633    0.00000000
     atom   11 type  2   force =     4.12308810   -0.00004102   -0.00000000
     atom   12 type  2   force =     2.06150886    3.57063776    0.00000000
     atom   13 type  2   force =     2.06157929   -3.57067869    0.00000000
     atom   14 type  2   force =    -2.06157929    3.57067869    0.00000000
     atom   15 type  2   force =    -2.06150886   -3.57063776    0.00000000
     atom   16 type  2   force =    -4.12308810    0.00004102    0.00000000
     The local contribution  to forces
     atom    1 type  1   force =    -0.00113501   -0.00012294    0.00018782
     atom    2 type  1   force =     0.00081842   -0.00072968   -0.00016638
     atom    3 type  1   force =     0.00082295   -0.00072879    0.00016568
     atom    4 type  1   force =    -0.00113905   -0.00012336   -0.00018904
     atom    5 type  1   force =     7.59606037   -0.00013484    0.00000993
     atom    6 type  1   force =     3.79741248    6.57783486   -0.00000893
     atom    7 type  1   force =     3.79855572   -6.57819583   -0.00001192
     atom    8 type  1   force =    -3.79834295    6.57841831    0.00000736
     atom    9 type  1   force =    -3.79741333   -6.57731699    0.00001074
     atom   10 type  1   force =    -7.59586772    0.00095524   -0.00000631
     atom   11 type  2   force =    -4.13215659    0.00059019    0.00001312
     atom   12 type  2   force =    -2.06572364   -3.57809767   -0.00001933
     atom   13 type  2   force =    -2.06552330    3.57806913   -0.00001398
     atom   14 type  2   force =     2.06659977   -3.57879683    0.00001858
     atom   15 type  2   force =     2.06482878    3.57660177    0.00001389
     atom   16 type  2   force =     4.13155743    0.00034363   -0.00001742
     The core correction contribution to forces
     atom    1 type  1   force =     0.00000000    0.00000000    0.00000000
     atom    2 type  1   force =     0.00000000    0.00000000    0.00000000
     atom    3 type  1   force =     0.00000000    0.00000000    0.00000000
     atom    4 type  1   force =     0.00000000    0.00000000    0.00000000
     atom    5 type  1   force =     0.00000000    0.00000000    0.00000000
     atom    6 type  1   force =     0.00000000    0.00000000    0.00000000
     atom    7 type  1   force =     0.00000000    0.00000000    0.00000000
     atom    8 type  1   force =     0.00000000    0.00000000    0.00000000
     atom    9 type  1   force =     0.00000000    0.00000000    0.00000000
     atom   10 type  1   force =     0.00000000    0.00000000    0.00000000
     atom   11 type  2   force =     0.00049817   -0.00000476   -0.00000007
     atom   12 type  2   force =     0.00024839    0.00043060   -0.00000010
     atom   13 type  2   force =     0.00025348   -0.00043065    0.00000008
     atom   14 type  2   force =    -0.00025259    0.00042809    0.00000001
     atom   15 type  2   force =    -0.00025005   -0.00043245   -0.00000001
     atom   16 type  2   force =    -0.00049917    0.00000391   -0.00000000
     The Hubbard contrib.    to forces
     atom    1 type  1   force =     0.00000000    0.00000000    0.00000000
     atom    2 type  1   force =     0.00000000    0.00000000    0.00000000
     atom    3 type  1   force =     0.00000000    0.00000000    0.00000000
     atom    4 type  1   force =     0.00000000    0.00000000    0.00000000
     atom    5 type  1   force =     0.00000000    0.00000000    0.00000000
     atom    6 type  1   force =     0.00000000    0.00000000    0.00000000
     atom    7 type  1   force =     0.00000000    0.00000000    0.00000000
     atom    8 type  1   force =     0.00000000    0.00000000    0.00000000
     atom    9 type  1   force =     0.00000000    0.00000000    0.00000000
     atom   10 type  1   force =     0.00000000    0.00000000    0.00000000
     atom   11 type  2   force =     0.00000000    0.00000000    0.00000000
     atom   12 type  2   force =     0.00000000    0.00000000    0.00000000
     atom   13 type  2   force =     0.00000000    0.00000000    0.00000000
     atom   14 type  2   force =     0.00000000    0.00000000    0.00000000
     atom   15 type  2   force =     0.00000000    0.00000000    0.00000000
     atom   16 type  2   force =     0.00000000    0.00000000    0.00000000
     The SCF correction term to forces
     atom    1 type  1   force =     0.00105530    0.00008332   -0.00018646
     atom    2 type  1   force =    -0.00081164    0.00064716    0.00016463
     atom    3 type  1   force =    -0.00081491    0.00064725   -0.00016328
     atom    4 type  1   force =     0.00105775    0.00008396    0.00018841
     atom    5 type  1   force =    -0.00021928    0.00011885   -0.00001146
     atom    6 type  1   force =     0.00045419    0.00028256    0.00001017
     atom    7 type  1   force =    -0.00062427    0.00003496    0.00001204
     atom    8 type  1   force =     0.00040495   -0.00024185   -0.00000862
     atom    9 type  1   force =    -0.00043662   -0.00072819   -0.00001226
     atom   10 type  1   force =     0.00006128   -0.00092478    0.00000696
     atom   11 type  2   force =     0.00045474   -0.00066607   -0.00001203
     atom   12 type  2   force =    -0.00003559    0.00015334    0.00002475
     atom   13 type  2   force =    -0.00028996    0.00005267    0.00000946
     atom   14 type  2   force =    -0.00082224    0.00063591   -0.00002140
     atom   15 type  2   force =     0.00091043    0.00129281   -0.00001387
     atom   16 type  2   force =     0.00005187   -0.00027661    0.00001784

     Total force =     0.047466     Total SCF correction =     0.003391

     Computing stress (Cartesian axis) and pressure

          total   stress  (Ry/bohr**3)                   (kbar)     P=      -46.02
  -0.00049947   0.00000000   0.00000000          -73.48        0.00        0.00
   0.00000000  -0.00049947   0.00000000            0.00      -73.48        0.00
  -0.00000000   0.00000000   0.00006051           -0.00        0.00        8.90

     kinetic stress (kbar)  17407.98     -0.00      0.00
                               -0.00  17407.98     -0.00
                                0.00     -0.00  17406.16

     local   stress (kbar)   3514.31     -0.49      0.00
                               -0.49   3513.92      0.00
                                0.00      0.00   5876.48

     nonloc. stress (kbar)  -3082.33      0.00      0.00
                                0.00  -3082.33      0.00
                               -0.00      0.00  -3020.59

     hartree stress (kbar)  12608.42      0.36     -0.00
                                0.36  12608.69     -0.00
                               -0.00     -0.00  12029.77

     exc-cor stress (kbar)    178.63      0.00     -0.00
                                0.00    178.63     -0.00
                               -0.00     -0.00    174.12

     corecor stress (kbar)  -5593.82     -0.00      0.00
                               -0.00  -5593.82     -0.00
                                0.00     -0.00  -5594.00

     ewald   stress (kbar) -25106.62      0.02     -0.00
                                0.02 -25106.59     -0.00
                               -0.00     -0.00 -26863.05

     hubbard stress (kbar)      0.00      0.00      0.00
                                0.00      0.00      0.00
                                0.00      0.00      0.00

     DFT-D   stress (kbar)      0.00      0.00      0.00
                                0.00      0.00      0.00
                                0.00      0.00      0.00

     XDM     stress (kbar)      0.00      0.00      0.00
                                0.00      0.00      0.00
                                0.00      0.00      0.00

     dft-nl  stress (kbar)      0.00      0.00      0.00
                                0.00      0.00      0.00
                                0.00      0.00      0.00

     TS-vdW  stress (kbar)      0.00      0.00      0.00
                                0.00      0.00      0.00
                                0.00      0.00      0.00

[...]

                                0.00      0.00      0.00

     Writing all to output data dir new_calculations/myprefix.save/

     General routines

     Parallel routines

     PAW routines

   This run was terminated on:   7:20:52  20May2023

   JOB DONE.