     Program PWSCF v.7.0 starts on 20May2023 at 11:12: 3

     Reading input from espresso_1364.pwi
Warning: card &CELL ignored
Warning: card / ignored

     Current dimensions of program PWSCF are:
     Max number of different atomic species (ntypx) = 10
     Max number of k-points (npk) =  40000
     Max angular momentum in pseudopotentials (lmaxx) =  4

     gamma-point specific algorithms are used
     Message from routine setup:
     using ibrav=0 with symmetry is DISCOURAGED, use correct ibrav instead

     Subspace diagonalization in iterative solution of the eigenvalue problem:
     a serial algorithm will be used

     Using Slab Decomposition

     bravais-lattice index     =            0
     lattice parameter (alat)  =      10.3115  a.u.
     unit-cell volume          =    1958.4362 (a.u.)^3
     number of atoms/cell      =           16
     number of atomic types    =            3
     number of electrons       =       306.00
     number of Kohn-Sham states=          184
     kinetic-energy cutoff     =      30.0000  Ry
     charge density cutoff     =     240.0000  Ry
     scf convergence threshold =      1.0E-06
     mixing beta               =       0.7000
     number of iterations used =            8  plain     mixing
     Exchange-correlation=  SLA  PW   PBX  PBC
                           (   1   4   3   4   0   0   0)

     celldm(1)=  10.311496  celldm(2)=   0.000000  celldm(3)=   0.000000
     celldm(4)=   0.000000  celldm(5)=   0.000000  celldm(6)=   0.000000

     crystal axes: (cart. coord. in units of alat)
               a(1) = (   1.000000   0.000000   0.000000 )
               a(2) = (  -0.709762   0.704442   0.000000 )
               a(3) = (   0.000000   0.000000   2.535708 )

     reciprocal axes: (cart. coord. in units 2 pi/alat)
               b(1) = (  1.000000  1.007552  0.000000 )
               b(2) = (  0.000000  1.419564  0.000000 )
               b(3) = (  0.000000  0.000000  0.394367 )

     PseudoPot. # 1 for Lu read from file:
     /home/pragov/projects/rrg-bengioy-ad/pragov/crystal_structure_design/SSSP/Lu.GGA-PBE-paw-v1.0.UPF
     MD5 check sum: 9ceca61ee0c17e9380a83635bfffa61d
     Pseudo is Projector augmented-wave + core cor, Zval = 25.0
     Generated using ATOMPAW code
     Shape of augmentation charge: BESSEL
     Using radial grid of 1118 points,  8 beta functions with:
                l(1) =   0
                l(2) =   0
                l(3) =   1
                l(4) =   1
                l(5) =   2
                l(6) =   2
                l(7) =   3
                l(8) =   3
     Q(r) pseudized with 0 coefficients

     PseudoPot. # 2 for Ni read from file:
     /home/pragov/projects/rrg-bengioy-ad/pragov/crystal_structure_design/SSSP/ni_pbe_v1.4.uspp.F.UPF
     MD5 check sum: 1ee80287db30b12d2bc1f57a5b5d6409
     Pseudo is Ultrasoft + core correction, Zval = 18.0
     Generated by new atomic code, or converted to UPF format
     Using radial grid of  865 points,  6 beta functions with:
                l(1) =   0
                l(2) =   0
                l(3) =   1
                l(4) =   1
                l(5) =   2
                l(6) =   2
     Q(r) pseudized with 10 coefficients,  rinner =    0.980   0.980   0.980
                                                       0.980   0.980

     PseudoPot. # 3 for Ge read from file:
     /home/pragov/projects/rrg-bengioy-ad/pragov/crystal_structure_design/SSSP/ge_pbe_v1.4.uspp.F.UPF
     MD5 check sum: 9c9eaa91e581c3f09632fb3098b2c6b2
     Pseudo is Ultrasoft + core correction, Zval = 14.0
     Generated by new atomic code, or converted to UPF format
     Using radial grid of  873 points,  6 beta functions with:
                l(1) =   0
                l(2) =   0
                l(3) =   1
                l(4) =   1
                l(5) =   2
                l(6) =   2
     Q(r) pseudized with  8 coefficients,  rinner =    1.400   1.400   1.400
                                                       1.400   1.400

     atomic species   valence    mass     pseudopotential
        Lu            25.00   174.96680     Lu( 1.00)
        Ni            18.00    58.69340     Ni( 1.00)
        Ge            14.00    72.63000     Ge( 1.00)

      4 Sym. Ops., with inversion, found ( 2 have fractional translation)

                                    s                        frac. trans.

      isym =  1     identity

 cryst.   s( 1) = (     1          0          0      )
                  (     0          1          0      )
                  (     0          0          1      )

 cart.    s( 1) = (  1.0000000 -0.0000000  0.0000000 )
                  (  0.0000000  1.0000000  0.0000000 )
                  (  0.0000000  0.0000000  1.0000000 )

      isym =  2     180 deg rotation - cart. axis [0,0,1]

 cryst.   s( 2) = (    -1          0          0      )    f =( -0.0000000 )
                  (     0         -1          0      )       ( -0.0000000 )
                  (     0          0          1      )       (  0.5000000 )

 cart.    s( 2) = ( -1.0000000  0.0000000  0.0000000 )    f =( -0.0000000 )
                  (  0.0000000 -1.0000000  0.0000000 )       ( -0.0000000 )
                  (  0.0000000  0.0000000  1.0000000 )       (  1.2678540 )

      isym =  3     inversion

 cryst.   s( 3) = (    -1          0          0      )
                  (     0         -1          0      )
                  (     0          0         -1      )

 cart.    s( 3) = ( -1.0000000  0.0000000  0.0000000 )
                  (  0.0000000 -1.0000000  0.0000000 )
                  (  0.0000000  0.0000000 -1.0000000 )

      isym =  4     inv. 180 deg rotation - cart. axis [0,0,1]

 cryst.   s( 4) = (     1          0          0      )    f =(  0.0000000 )
                  (     0          1          0      )       (  0.0000000 )
                  (     0          0         -1      )       (  0.5000000 )

 cart.    s( 4) = (  1.0000000 -0.0000000  0.0000000 )    f =(  0.0000000 )
                  (  0.0000000  1.0000000  0.0000000 )       (  0.0000000 )
                  (  0.0000000  0.0000000 -1.0000000 )       (  1.2678540 )

   Cartesian axes

     site n.     atom                  positions (alat units)
         1           Lu  tau(   1) = (   0.2932768   0.2911782   1.5451920  )
         2           Lu  tau(   2) = (  -0.0030386   0.4132636   0.9905160  )
         3           Lu  tau(   3) = (  -0.0030386   0.4132636   0.2773380  )
         4           Lu  tau(   4) = (   0.2932768   0.2911782   2.2583700  )
         5           Lu  tau(   5) = (  -0.4771008   0.6085827   0.6339270  )
         6           Lu  tau(   6) = (   0.7673390   0.0958590   1.9017810  )
         7           Ni  tau(   7) = (  -0.2005178   0.4946273   1.5229336  )
         8           Ni  tau(   8) = (   0.4907560   0.2098145   1.0127745  )
         9           Ni  tau(   9) = (   0.4907560   0.2098145   0.2550795  )
        10           Ni  tau(  10) = (  -0.2005178   0.4946273   2.2806285  )
        11           Ge  tau(  11) = (   0.7908055   0.0861906   1.3652531  )
        12           Ge  tau(  12) = (  -0.5005673   0.6182512   1.1704549  )
        13           Ge  tau(  13) = (  -0.4359503   0.5916282   1.9017810  )
        14           Ge  tau(  14) = (   0.7261885   0.1128135   0.6339270  )
        15           Ge  tau(  15) = (   0.7908055   0.0861906   2.4383089  )
        16           Ge  tau(  16) = (  -0.5005673   0.6182512   0.0973991  )

   Crystallographic axes

     site n.     atom                  positions (cryst. coord.)
         1           Lu  tau(   1) = (  0.5866540  0.4133460  0.6093730  )
         2           Lu  tau(   2) = (  0.4133460  0.5866540  0.3906270  )
         3           Lu  tau(   3) = (  0.4133460  0.5866540  0.1093730  )
         4           Lu  tau(   4) = (  0.5866540  0.4133460  0.8906270  )
         5           Lu  tau(   5) = (  0.1360780  0.8639220  0.2500000  )
         6           Lu  tau(   6) = (  0.8639220  0.1360780  0.7500000  )
         7           Ni  tau(   7) = (  0.2978450  0.7021550  0.6005950  )
         8           Ni  tau(   8) = (  0.7021550  0.2978450  0.3994050  )
         9           Ni  tau(   9) = (  0.7021550  0.2978450  0.1005950  )
        10           Ni  tau(  10) = (  0.2978450  0.7021550  0.8994050  )
        11           Ge  tau(  11) = (  0.8776470  0.1223530  0.5384110  )
        12           Ge  tau(  12) = (  0.1223530  0.8776470  0.4615890  )
        13           Ge  tau(  13) = (  0.1601460  0.8398540  0.7500000  )
        14           Ge  tau(  14) = (  0.8398540  0.1601460  0.2500000  )
        15           Ge  tau(  15) = (  0.8776470  0.1223530  0.9615890  )
        16           Ge  tau(  16) = (  0.1223530  0.8776470  0.0384110  )

     number of k points=     1  Methfessel-Paxton smearing, width (Ry)=  0.0010
                       cart. coord. in units 2pi/alat
        k(    1) = (   0.0000000   0.0000000   0.0000000), wk =   2.0000000

                       cryst. coord.
        k(    1) = (   0.0000000   0.0000000   0.0000000), wk =   2.0000000

     Check: negative core charge=   -0.000003

     Initial potential from superposition of free atoms

     starting charge     297.9721, renormalised to     306.0000
     Starting wfcs are  298 randomized atomic wfcs
     Checking if some PAW data can be deallocated...

     Self-consistent Calculation

     iteration #  1     ecut=    30.00 Ry     beta= 0.70
     Davidson diagonalization with overlap

     ethr =  1.00E-02,  avg # of iterations =  3.0

     total energy              =   -8742.53984050 Ry
     estimated scf accuracy    <     327.79515441 Ry

[...]

     total energy              =   -9135.57187233 Ry
     estimated scf accuracy    <       0.00000109 Ry

     iteration # 50     ecut=    30.00 Ry     beta= 0.70
     Davidson diagonalization with overlap

     ethr =  3.57E-10,  avg # of iterations =  2.0

     End of self-consistent calculation

          k = 0.0000 0.0000 0.0000 (  2698 PWs)   bands (ev):

   -88.1129 -88.1119 -88.1117 -88.1113 -48.5989 -48.5980 -48.5958 -48.5923
   -48.4807 -48.4791 -48.4735 -48.4720 -48.2229 -48.2206 -48.2189 -48.2176
   -40.3203 -40.3199 -40.2929 -40.2915 -40.2884 -40.2873 -11.2957 -11.2496
   -11.1942 -11.1484 -11.1450 -11.1351 -11.0410 -11.0206 -10.9961 -10.9923
   -10.9341 -10.9293 -10.8834 -10.8832 -10.7772 -10.7739 -10.7638 -10.7603
    -8.5865  -8.5844  -8.5372  -8.5327  -8.5286  -8.5273  -8.5077  -8.5015
    -8.4955  -8.4923  -8.4829  -8.4804  -8.4657  -8.4633  -8.4606  -8.4590
    -8.4550  -8.4525  -8.4451  -8.4440  -8.3496  -8.3490  -8.3451  -8.3437
    -8.3300  -8.3297  -8.3204  -8.3200  -8.3192  -8.3186   4.6629   5.0345
     6.1971   6.9480   7.8282   7.8350  10.8816  10.9198  10.9492  10.9637
    10.9704  10.9709  10.9710  10.9774  10.9810  10.9840  10.9872  10.9926
    10.9993  11.0004  11.0044  11.0066  11.0075  11.0082  11.0130  11.0225
    11.0244  11.0261  11.0268  11.0300  11.0301  11.0311  11.0340  11.0343
    11.0395  11.0397  11.0400  11.0531  11.0556  11.0622  11.0653  11.0962
    11.1071  11.1178  11.1290  11.1310  11.1342  11.1375  11.2146  11.3467
    11.3490  11.9193  12.4153  12.4919  12.6297  12.7343  12.7495  12.7536
    12.8388  12.8389  12.8548  13.1465  13.2708  13.4043  13.4422  13.5750
    13.5764  13.6138  13.6623  13.6841  13.9427  14.0167  14.0317  14.0560
    14.0677  14.5132  14.6230  14.8234  14.8762  14.8881  15.0651  15.3314
    15.6161  15.6750  15.9193  16.0536  16.2290  16.4558  17.1358  17.3654
    17.6114  17.7941  17.7973  17.9564  18.1863  18.6156  18.9428  19.0098
    19.2149  19.4161  19.7204  19.7686  19.9820  20.1143  20.1911  20.4358
    20.5204  20.7489  20.8022  21.2732  21.3306  21.6221  21.6870  21.7938

     occupation numbers
     1.0000   1.0000   1.0000   1.0000   1.0000   1.0000   1.0000   1.0000
     1.0000   1.0000   1.0000   1.0000   1.0000   1.0000   1.0000   1.0000
     1.0000   1.0000   1.0000   1.0000   1.0000   1.0000   1.0000   1.0000
     1.0000   1.0000   1.0000   1.0000   1.0000   1.0000   1.0000   1.0000
     1.0000   1.0000   1.0000   1.0000   1.0000   1.0000   1.0000   1.0000
     1.0000   1.0000   1.0000   1.0000   1.0000   1.0000   1.0000   1.0000
     1.0000   1.0000   1.0000   1.0000   1.0000   1.0000   1.0000   1.0000
     1.0000   1.0000   1.0000   1.0000   1.0000   1.0000   1.0000   1.0000
     1.0000   1.0000   1.0000   1.0000   1.0000   1.0000   1.0000   1.0000
     1.0000   1.0000   1.0000   1.0000   1.0000   1.0000   1.0000   1.0000
     1.0000   1.0000   1.0000   1.0000   1.0000   1.0000   1.0000   1.0000
     1.0000   1.0000   1.0000   1.0000   1.0000   1.0000   1.0000   1.0000
     1.0000   1.0000   1.0000   1.0000   1.0000   1.0000   1.0000   1.0000
     1.0000   1.0000   1.0000   1.0000   1.0000   1.0000   1.0000   1.0000
     1.0000   1.0000   1.0000   1.0000   1.0000   1.0000   1.0000   1.0000
     1.0000   1.0000   1.0000   1.0000   1.0000   1.0000   1.0000   1.0000
     1.0000   1.0000   1.0000   1.0000   1.0000   1.0000   1.0000   1.0000
     1.0000   1.0000   1.0000   1.0000   1.0000   1.0000   1.0000   1.0000
     1.0000   1.0000   1.0000   1.0000   1.0000   1.0000   1.0000   1.0000
     1.0045  -0.0045  -0.0000  -0.0000  -0.0000  -0.0000  -0.0000  -0.0000
    -0.0000  -0.0000  -0.0000  -0.0000  -0.0000  -0.0000  -0.0000  -0.0000
    -0.0000  -0.0000  -0.0000  -0.0000  -0.0000  -0.0000  -0.0000  -0.0000
    -0.0000  -0.0000  -0.0000  -0.0000  -0.0000  -0.0000  -0.0000  -0.0000

     the Fermi energy is    15.6455 ev

!    total energy              =   -9135.57187213 Ry
     estimated scf accuracy    <       0.00000031 Ry
     smearing contrib. (-TS)   =       0.00004339 Ry
     internal energy E=F+TS    =   -9135.57191552 Ry

     The total energy is F=E-TS. E is the sum of the following terms:
     one-electron contribution =   -3918.98988675 Ry
     hartree contribution      =    1953.23828403 Ry
     xc contribution           =    -740.92116072 Ry
     ewald contribution        =   -3483.19912223 Ry
     one-center paw contrib.   =   -2945.70002985 Ry
      -> PAW hartree energy AE =    2952.72770415 Ry
      -> PAW hartree energy PS =   -2542.60565473 Ry
      -> PAW xc energy AE      =   -3596.13097158 Ry
      -> PAW xc energy PS      =     240.30889231 Ry
      -> total E_H with PAW    =    2363.36033345 Ry
      -> total E_XC with PAW   =   -4096.74323999 Ry

     convergence has been achieved in  50 iterations

     Forces acting on atoms (cartesian axes, Ry/au):

     atom    1 type  1   force =    -0.01327001    0.00546722   -0.02402790
     atom    2 type  1   force =     0.01327001   -0.00546722    0.02402790
     atom    3 type  1   force =     0.01327001   -0.00546722   -0.02402790
     atom    4 type  1   force =    -0.01327001    0.00546722    0.02402790
     atom    5 type  1   force =     0.03349660   -0.01380009    0.00000000
     atom    6 type  1   force =    -0.03349660    0.01380009    0.00000000
     atom    7 type  2   force =     0.00335054   -0.00138027    0.00117607
     atom    8 type  2   force =    -0.00335054    0.00138027   -0.00117607
     atom    9 type  2   force =    -0.00335054    0.00138027    0.00117607
     atom   10 type  2   force =     0.00335054   -0.00138027   -0.00117607
     atom   11 type  3   force =     0.01910877   -0.00787306   -0.04569698
     atom   12 type  3   force =    -0.01910877    0.00787306    0.04569698
     atom   13 type  3   force =     0.03482326   -0.01434741    0.00000000
     atom   14 type  3   force =    -0.03482326    0.01434741   -0.00000000
     atom   15 type  3   force =     0.01910877   -0.00787306    0.04569698
     atom   16 type  3   force =    -0.01910877    0.00787306   -0.04569698
     The non-local contrib.  to forces
     atom    1 type  1   force =     0.04410476   -0.01817192   -0.07693533
     atom    2 type  1   force =    -0.04410476    0.01817192    0.07693533
     atom    3 type  1   force =    -0.04410476    0.01817192   -0.07693533
     atom    4 type  1   force =     0.04410476   -0.01817192    0.07693533
     atom    5 type  1   force =     0.00641555   -0.00264252    0.00000000
     atom    6 type  1   force =    -0.00641555    0.00264252    0.00000000
     atom    7 type  2   force =     0.36916034   -0.15209846   -0.29673309
     atom    8 type  2   force =    -0.36916034    0.15209846    0.29673309
     atom    9 type  2   force =    -0.36916034    0.15209846   -0.29673309
     atom   10 type  2   force =     0.36916034   -0.15209846    0.29673309
     atom   11 type  3   force =    -0.20607214    0.08490401    0.31198361
     atom   12 type  3   force =     0.20607214   -0.08490401   -0.31198361
     atom   13 type  3   force =    -0.20087264    0.08276210    0.00000000
     atom   14 type  3   force =     0.20087264   -0.08276210    0.00000000
     atom   15 type  3   force =    -0.20607214    0.08490401   -0.31198361
     atom   16 type  3   force =     0.20607214   -0.08490401    0.31198361
     The ionic contribution  to forces
     atom    1 type  1   force =    -8.96781557    3.69484450   14.56968451
     atom    2 type  1   force =     8.96781557   -3.69484450  -14.56968451
     atom    3 type  1   force =     8.96781557   -3.69484450   14.56968451
     atom    4 type  1   force =    -8.96781557    3.69484450  -14.56968451
     atom    5 type  1   force =   -13.93128369    5.73985120    0.00000000
     atom    6 type  1   force =    13.93128369   -5.73985120   -0.00000000
     atom    7 type  2   force =     1.85275404   -0.76335625    6.87692666
     atom    8 type  2   force =    -1.85275404    0.76335626   -6.87692666
     atom    9 type  2   force =    -1.85275404    0.76335626    6.87692666
     atom   10 type  2   force =     1.85275404   -0.76335625   -6.87692666
     atom   11 type  3   force =     8.74418153   -3.60270467   -0.20321209
     atom   12 type  3   force =    -8.74418153    3.60270467    0.20321209
     atom   13 type  3   force =   -10.34672654    4.26297189    0.00000000
     atom   14 type  3   force =    10.34672654   -4.26297189   -0.00000000
     atom   15 type  3   force =     8.74418153   -3.60270467    0.20321209
     atom   16 type  3   force =    -8.74418153    3.60270467   -0.20321209
     The local contribution  to forces
     atom    1 type  1   force =     8.91060810   -3.67127496  -14.51921692
     atom    2 type  1   force =    -8.91033575    3.67116334   14.51718195
     atom    3 type  1   force =    -8.90992112    3.67099154  -14.51634558
     atom    4 type  1   force =     8.91026847   -3.67113045   14.51817574
     atom    5 type  1   force =    13.95817754   -5.75093177    0.00099794
     atom    6 type  1   force =   -13.95847062    5.75105443   -0.00067807
     atom    7 type  2   force =    -2.21238983    0.91153055   -6.58046907
     atom    8 type  2   force =     2.21219070   -0.91144906    6.57907113
     atom    9 type  2   force =     2.21194531   -0.91134729   -6.57842187
     atom   10 type  2   force =    -2.21218361    0.91144357    6.57975579
     atom   11 type  3   force =    -8.52169097    3.51103593   -0.15183923
     atom   12 type  3   force =     8.52167920   -3.51103134    0.15022136
     atom   13 type  3   force =    10.57620471   -4.35752067   -0.00037840
     atom   14 type  3   force =   -10.57622758    4.35752849    0.00063804
     atom   15 type  3   force =    -8.52132520    3.51088605    0.15150810
     atom   16 type  3   force =     8.52124480   -3.51085211   -0.15031018
     The core correction contribution to forces
     atom    1 type  1   force =     0.00000014   -0.00000006    0.00000035
     atom    2 type  1   force =    -0.00000014    0.00000006   -0.00000035
     atom    3 type  1   force =    -0.00000014    0.00000006    0.00000035
     atom    4 type  1   force =     0.00000014   -0.00000006   -0.00000035
     atom    5 type  1   force =     0.00000461   -0.00000190   -0.00000000
     atom    6 type  1   force =    -0.00000462    0.00000190    0.00000000
     atom    7 type  2   force =    -0.00631625    0.00260237   -0.00013991
     atom    8 type  2   force =     0.00631606   -0.00260229    0.00013980
     atom    9 type  2   force =     0.00631706   -0.00260271   -0.00014004
     atom   10 type  2   force =    -0.00631679    0.00260259    0.00014020
     atom   11 type  3   force =     0.00266934   -0.00109981   -0.00376824
     atom   12 type  3   force =    -0.00267063    0.00110033    0.00376896
     atom   13 type  3   force =     0.00607742   -0.00250399    0.00000090
     atom   14 type  3   force =    -0.00607749    0.00250399   -0.00000129
     atom   15 type  3   force =     0.00266960   -0.00109989    0.00376884
     atom   16 type  3   force =    -0.00267059    0.00110031   -0.00376800
     The Hubbard contrib.    to forces
     atom    1 type  1   force =     0.00000000    0.00000000    0.00000000
     atom    2 type  1   force =     0.00000000    0.00000000    0.00000000
     atom    3 type  1   force =     0.00000000    0.00000000    0.00000000
     atom    4 type  1   force =     0.00000000    0.00000000    0.00000000
     atom    5 type  1   force =     0.00000000    0.00000000    0.00000000
     atom    6 type  1   force =     0.00000000    0.00000000    0.00000000
     atom    7 type  2   force =     0.00000000    0.00000000    0.00000000
     atom    8 type  2   force =     0.00000000    0.00000000    0.00000000
     atom    9 type  2   force =     0.00000000    0.00000000    0.00000000
     atom   10 type  2   force =     0.00000000    0.00000000    0.00000000
     atom   11 type  3   force =     0.00000000    0.00000000    0.00000000
     atom   12 type  3   force =     0.00000000    0.00000000    0.00000000
     atom   13 type  3   force =     0.00000000    0.00000000    0.00000000
     atom   14 type  3   force =     0.00000000    0.00000000    0.00000000
     atom   15 type  3   force =     0.00000000    0.00000000    0.00000000
     atom   16 type  3   force =     0.00000000    0.00000000    0.00000000
     The SCF correction term to forces
     atom    1 type  1   force =    -0.00019662    0.00008157    0.00244616
     atom    2 type  1   force =    -0.00010969    0.00004371   -0.00039758
     atom    3 type  1   force =    -0.00054490    0.00022423   -0.00043528
     atom    4 type  1   force =     0.00017123   -0.00007456   -0.00140201
     atom    5 type  1   force =     0.00019629   -0.00008089   -0.00099875
     atom    6 type  1   force =     0.00012420   -0.00005335    0.00068050
     atom    7 type  2   force =     0.00015437   -0.00006289    0.00147947
     atom    8 type  2   force =     0.00008424   -0.00003405   -0.00022643
     atom    9 type  2   force =     0.00030514   -0.00012580   -0.00034956
     atom   10 type  2   force =    -0.00004476    0.00002041   -0.00085144
     atom   11 type  3   force =     0.00002080   -0.00000861    0.00113909
     atom   12 type  3   force =    -0.00002633    0.00001121    0.00048547
     atom   13 type  3   force =     0.00014238   -0.00005705    0.00038654
     atom   14 type  3   force =    -0.00011529    0.00004861   -0.00063668
     atom   15 type  3   force =    -0.00035472    0.00014562   -0.00081154
     atom   16 type  3   force =     0.00043488   -0.00017954   -0.00038627

     Total force =     0.136802     Total SCF correction =     0.004099

     Computing stress (Cartesian axis) and pressure

          total   stress  (Ry/bohr**3)                   (kbar)     P=     -432.77
  -0.00282979   0.00010294   0.00000000         -416.28       15.14        0.00
   0.00010294  -0.00262236   0.00000000           15.14     -385.76        0.00
   0.00000000   0.00000000  -0.00337357            0.00        0.00     -496.27

     kinetic stress (kbar)  22190.13     -7.10      0.00
                               -7.10  22175.82      0.00
                                0.00      0.00  21902.81

     local   stress (kbar)  13402.10  -3915.78      0.00
                            -3915.78   5511.39     -0.00
                                0.00     -0.00  12773.28

     nonloc. stress (kbar)  19150.38     65.75      0.00
                               65.75  19282.86      0.00
                                0.00      0.00  19030.08

     hartree stress (kbar)  47640.42   1749.52     -0.01
                             1749.52  51165.88      0.00
                               -0.01      0.00  47908.35

     exc-cor stress (kbar)    458.35      2.34      0.00
                                2.34    463.06     -0.00
                                0.00     -0.00    455.75

     corecor stress (kbar) -14390.94     -1.01     -0.00
                               -1.01 -14392.97      0.00
                               -0.00      0.00 -14389.62

     ewald   stress (kbar) -88866.71   2121.44      0.00
                             2121.44 -84591.80     -0.00
                                0.00     -0.00 -88176.91

     hubbard stress (kbar)      0.00      0.00      0.00
                                0.00      0.00      0.00
                                0.00      0.00      0.00

     DFT-D   stress (kbar)      0.00      0.00      0.00
                                0.00      0.00      0.00
                                0.00      0.00      0.00

     XDM     stress (kbar)      0.00      0.00      0.00
                                0.00      0.00      0.00
                                0.00      0.00      0.00

     dft-nl  stress (kbar)      0.00      0.00      0.00
                                0.00      0.00      0.00
                                0.00      0.00      0.00

     TS-vdW  stress (kbar)      0.00      0.00      0.00
                                0.00      0.00      0.00
                                0.00      0.00      0.00

[...]

                                0.00      0.00      0.00

     Writing all to output data dir new_calculations/myprefix.save/

     General routines

     Parallel routines

     PAW routines

   This run was terminated on:  11:15:34  20May2023

   JOB DONE.