     Program PWSCF v.7.0 starts on 20May2023 at 18: 0:33

     Reading input from espresso_17544.pwi
Warning: card &CELL ignored
Warning: card / ignored

     Current dimensions of program PWSCF are:
     Max number of different atomic species (ntypx) = 10
     Max number of k-points (npk) =  40000
     Max angular momentum in pseudopotentials (lmaxx) =  4
     file Mg.pbe-n-kjpaw_psl.0.3.0.UPF: wavefunction(s)  3S renormalized
     file Pb.pbe-dn-kjpaw_psl.0.2.2.UPF: wavefunction(s)  6S renormalized

     gamma-point specific algorithms are used
     Message from routine setup:
     using ibrav=0 with symmetry is DISCOURAGED, use correct ibrav instead

     Subspace diagonalization in iterative solution of the eigenvalue problem:
     a serial algorithm will be used

     Using Slab Decomposition

     bravais-lattice index     =            0
     lattice parameter (alat)  =       9.2278  a.u.
     unit-cell volume          =     555.6151 (a.u.)^3
     number of atoms/cell      =            4
     number of atomic types    =            3
     number of electrons       =        22.00
     number of Kohn-Sham states=           15
     kinetic-energy cutoff     =      30.0000  Ry
     charge density cutoff     =     240.0000  Ry
     scf convergence threshold =      1.0E-06
     mixing beta               =       0.7000
     number of iterations used =            8  plain     mixing
     Exchange-correlation= SLA  PW   PBX  PBC
                           (   1   4   3   4   0   0   0)

     celldm(1)=   9.227761  celldm(2)=   0.000000  celldm(3)=   0.000000
     celldm(4)=   0.000000  celldm(5)=   0.000000  celldm(6)=   0.000000

     crystal axes: (cart. coord. in units of alat)
               a(1) = (   1.000000   0.000000   0.000000 )
               a(2) = (   0.500000   0.866025   0.000000 )
               a(3) = (   0.500000   0.288675   0.816497 )

     reciprocal axes: (cart. coord. in units 2 pi/alat)
               b(1) = (  1.000000 -0.577350 -0.408248 )
               b(2) = (  0.000000  1.154701 -0.408248 )
               b(3) = (  0.000000  0.000000  1.224745 )

     PseudoPot. # 1 for Li read from file:
     /home/pragov/projects/rrg-bengioy-ad/pragov/crystal_structure_design/SSSP/li_pbe_v1.4.uspp.F.UPF
     MD5 check sum: e912e257baa3777c20ea3d68f190483c
     Pseudo is Ultrasoft, Zval =  3.0
     Generated by new atomic code, or converted to UPF format
     Using radial grid of  751 points,  5 beta functions with:
                l(1) =   0
                l(2) =   0
                l(3) =   0
                l(4) =   1
                l(5) =   1
     Q(r) pseudized with 10 coefficients,  rinner =    1.150   1.150   1.150

     PseudoPot. # 2 for Mg read from file:
     /home/pragov/projects/rrg-bengioy-ad/pragov/crystal_structure_design/SSSP/Mg.pbe-n-kjpaw_psl.0.3.0.UPF
     MD5 check sum: 24ecedc7f3e3cbe212e682f4413594e4
     Pseudo is Projector augmented-wave + core cor, Zval =  2.0
     Generated using "atomic" code by A. Dal Corso  v.5.0.99 svn rev. 10869
     Shape of augmentation charge: PSQ
     Using radial grid of 1129 points,  4 beta functions with:
                l(1) =   0
                l(2) =   0
                l(3) =   1
                l(4) =   1
     Q(r) pseudized with 0 coefficients

     PseudoPot. # 3 for Pb read from file:
     /home/pragov/projects/rrg-bengioy-ad/pragov/crystal_structure_design/SSSP/Pb.pbe-dn-kjpaw_psl.0.2.2.UPF
     MD5 check sum: 9d431e6316058b74ade52399a6cf67da
     Pseudo is Projector augmented-wave + core cor, Zval = 14.0
     Generated using "atomic" code by A. Dal Corso  v.5.0.99 svn rev. 10869
     Shape of augmentation charge: PSQ
     Using radial grid of 1281 points,  6 beta functions with:
                l(1) =   0
                l(2) =   0
                l(3) =   1
                l(4) =   1
                l(5) =   2
                l(6) =   2
     Q(r) pseudized with 0 coefficients

     atomic species   valence    mass     pseudopotential
        Li             3.00     6.94000     Li( 1.00)
        Mg             2.00    24.30500     Mg( 1.00)
        Pb            14.00   207.20000     Pb( 1.00)

      6 Sym. Ops. (no inversion) found

                                    s                        frac. trans.

      isym =  1     identity

 cryst.   s( 1) = (     1          0          0      )
                  (     0          1          0      )
                  (     0          0          1      )

 cart.    s( 1) = (  1.0000000  0.0000000  0.0000000 )
                  (  0.0000000  1.0000000 -0.0000000 )
                  (  0.0000000  0.0000000  1.0000000 )

      isym =  2     120 deg rotation - cryst. axis [0,0,1]

[...]

      isym =  3     120 deg rotation - cryst. axis [0,0,-1]

[...]

      isym =  4     inv. 180 deg rotation - cart. axis [1,0,0]

[...]

      isym =  5     inv. 180 deg rotation - cryst. axis [0,1,0]

[...]

      isym =  6     inv. 180 deg rotation - cryst. axis [1,1,0]

 cryst.   s( 6) = (     1         -1          0      )
                  (     0         -1          0      )
                  (     0         -1          1      )

 cart.    s( 6) = (  0.5000000 -0.8660254 -0.0000000 )
                  ( -0.8660254 -0.5000000 -0.0000000 )
                  (  0.0000000  0.0000000  1.0000000 )

   Cartesian axes

     site n.     atom                  positions (alat units)
         1           Li  tau(   1) = (   1.0000000   0.5773503   0.4082483  )
         2           Li  tau(   2) = (   0.5000000   0.2886751   0.2041241  )
         3           Mg  tau(   3) = (   1.5000000   0.8660254   0.6123724  )
         4           Pb  tau(   4) = (   0.0000000   0.0000000   0.0000000  )

   Crystallographic axes

     site n.     atom                  positions (cryst. coord.)
         1           Li  tau(   1) = (  0.5000000  0.5000000  0.5000000  )
         2           Li  tau(   2) = (  0.2500000  0.2500000  0.2500000  )
         3           Mg  tau(   3) = (  0.7500000  0.7500000  0.7500000  )
         4           Pb  tau(   4) = (  0.0000000  0.0000000  0.0000000  )

     number of k points=     1  Methfessel-Paxton smearing, width (Ry)=  0.0010
                       cart. coord. in units 2pi/alat
        k(    1) = (   0.0000000   0.0000000   0.0000000), wk =   2.0000000

                       cryst. coord.
        k(    1) = (   0.0000000   0.0000000   0.0000000), wk =   2.0000000

     Initial potential from superposition of free atoms

     starting charge      21.0952, renormalised to      22.0000
     Starting wfcs are   23 randomized atomic wfcs
     Checking if some PAW data can be deallocated...

     Self-consistent Calculation

     iteration #  1     ecut=    30.00 Ry     beta= 0.70
     Davidson diagonalization with overlap

     ethr =  1.00E-02,  avg # of iterations =  2.0

     total energy              =    -932.10392364 Ry
     estimated scf accuracy    <       0.36445401 Ry

[...]

     total energy              =    -932.17962300 Ry
     estimated scf accuracy    <       0.00000158 Ry

     iteration # 55     ecut=    30.00 Ry     beta= 0.70
     Davidson diagonalization with overlap

     ethr =  7.16E-09,  avg # of iterations =  6.0

     End of self-consistent calculation

          k = 0.0000 0.0000 0.0000 (   736 PWs)   bands (ev):

   -42.4499 -40.6447  -8.7962  -8.7959  -8.7957  -8.7013  -8.7012  -2.6350
     6.8420   6.8422   6.8426   6.9191   8.7220   8.7222   8.7224

     occupation numbers
     1.0000   1.0000   1.0000   1.0000   1.0000   1.0000   1.0000   1.0000
     1.0001   1.0001   1.0002  -0.0004  -0.0000  -0.0000  -0.0000

     the Fermi energy is     6.8821 ev

!    total energy              =    -932.17962343 Ry
     estimated scf accuracy    <       0.00000068 Ry
     smearing contrib. (-TS)   =       0.00000500 Ry
     internal energy E=F+TS    =    -932.17962844 Ry

     The total energy is F=E-TS. E is the sum of the following terms:
     one-electron contribution =     -70.35189616 Ry
     hartree contribution      =      45.96210643 Ry
     xc contribution           =     -53.02908826 Ry
     ewald contribution        =     -95.05295000 Ry
     one-center paw contrib.   =    -759.70780044 Ry
      -> PAW hartree energy AE =     108.42277842 Ry
      -> PAW hartree energy PS =    -108.26307552 Ry
      -> PAW xc energy AE      =    -805.09301476 Ry
      -> PAW xc energy PS      =      45.22551142 Ry
      -> total E_H with PAW    =      46.12180933 Ry
      -> total E_XC with PAW   =    -812.89659160 Ry

     convergence has been achieved in  55 iterations

     Forces acting on atoms (cartesian axes, Ry/au):

     atom    1 type  1   force =     0.00000000    0.00000000    0.00001605
     atom    2 type  1   force =     0.00000000    0.00000000    0.00001547
     atom    3 type  2   force =     0.00000000    0.00000000   -0.00003090
     atom    4 type  3   force =     0.00000000    0.00000000   -0.00000061
     The non-local contrib.  to forces
     atom    1 type  1   force =     0.00000000    0.00000000    0.00012281
     atom    2 type  1   force =    -0.00000000   -0.00000000    0.00005120
     atom    3 type  2   force =     0.00000000    0.00000000    0.00014022
     atom    4 type  3   force =     0.00000000    0.00000000    0.00072092
     The ionic contribution  to forces
     atom    1 type  1   force =     0.00000000    0.00000000    0.00000000
     atom    2 type  1   force =     0.00000000   -0.00000000   -0.00000000
     atom    3 type  2   force =     0.00000000   -0.00000000   -0.00000000
     atom    4 type  3   force =    -0.00000000    0.00000000    0.00000000
     The local contribution  to forces
     atom    1 type  1   force =     0.00018120   -0.00023314   -0.00006821
     atom    2 type  1   force =    -0.00005189    0.00002435    0.00012337
     atom    3 type  2   force =    -0.00001329    0.00004003   -0.00019122
     atom    4 type  3   force =     0.00140253   -0.00187513   -0.00057593
     The core correction contribution to forces
     atom    1 type  1   force =     0.00000000    0.00000000    0.00000000
     atom    2 type  1   force =     0.00000000    0.00000000    0.00000000
     atom    3 type  2   force =     0.00000206   -0.00000272   -0.00001744
     atom    4 type  3   force =     0.00006901   -0.00008493   -0.00002292
     The Hubbard contrib.    to forces
     atom    1 type  1   force =     0.00000000    0.00000000    0.00000000
     atom    2 type  1   force =     0.00000000    0.00000000    0.00000000
     atom    3 type  2   force =     0.00000000    0.00000000    0.00000000
     atom    4 type  3   force =     0.00000000    0.00000000    0.00000000
     The SCF correction term to forces
     atom    1 type  1   force =    -0.00017289    0.00015940   -0.00003581
     atom    2 type  1   force =     0.00000736    0.00002662   -0.00015636
     atom    3 type  2   force =     0.00001303   -0.00002815    0.00004028
     atom    4 type  3   force =    -0.00116290    0.00131936   -0.00011993

     Total force =     0.000038     Total SCF correction =     0.001787
     SCF correction compared to forces is large: reduce conv_thr to get better values

     Computing stress (Cartesian axis) and pressure

          total   stress  (Ry/bohr**3)                   (kbar)     P=       94.78
   0.00064536  -0.00000000   0.00000000           94.94       -0.00        0.00
   0.00000000   0.00064536   0.00000000            0.00       94.94        0.00
  -0.00000000   0.00000000   0.00064209           -0.00        0.00       94.45

     kinetic stress (kbar)   6959.84     -0.00     -0.00
                                0.00   6959.84      0.00
                               -0.00      0.00   6959.68

     local   stress (kbar)    268.69     -0.01     -0.12
                               -0.01    268.84      0.01
                               -0.12      0.01    267.93

     nonloc. stress (kbar)     -1.20     -0.00      0.00
                               -0.00     -1.20     -0.00
                                0.00     -0.00     -1.11

     hartree stress (kbar)   4056.24     -0.01      0.06
                               -0.01   4056.11     -0.01
                                0.06     -0.01   4056.61

     exc-cor stress (kbar)   4956.49      0.00      0.00
                                0.00   4956.49     -0.00
                                0.00     -0.00   4956.50

     corecor stress (kbar)  -7756.38     -0.00     -0.00
                               -0.00  -7756.38      0.00
                               -0.00      0.00  -7756.40

     ewald   stress (kbar)  -8388.76      0.00      0.00
                                0.00  -8388.76     -0.00
                                0.00     -0.00  -8388.76

     hubbard stress (kbar)      0.00      0.00      0.00
                                0.00      0.00      0.00
                                0.00      0.00      0.00

     DFT-D   stress (kbar)      0.00      0.00      0.00
                                0.00      0.00      0.00
                                0.00      0.00      0.00

     XDM     stress (kbar)      0.00      0.00      0.00
                                0.00      0.00      0.00
                                0.00      0.00      0.00

     dft-nl  stress (kbar)      0.00      0.00      0.00
                                0.00      0.00      0.00
                                0.00      0.00      0.00

     TS-vdW  stress (kbar)      0.00      0.00      0.00
                                0.00      0.00      0.00
                                0.00      0.00      0.00

[...]

                                0.00      0.00      0.00

     Writing all to output data dir new_calculations/myprefix.save/

     General routines

     Parallel routines

     PAW routines

   This run was terminated on:  18: 0:52  20May2023

   JOB DONE.