     Program PWSCF v.7.0 starts on 20May2023 at  6:55:30

     Reading input from espresso_5213.pwi
Warning: card &CELL ignored
Warning: card / ignored

     Current dimensions of program PWSCF are:
     Max number of different atomic species (ntypx) = 10
     Max number of k-points (npk) =  40000
     Max angular momentum in pseudopotentials (lmaxx) =  4

     gamma-point specific algorithms are used
     Message from routine setup:
     using ibrav=0 with symmetry is DISCOURAGED, use correct ibrav instead

     Subspace diagonalization in iterative solution of the eigenvalue problem:
     a serial algorithm will be used

     Using Slab Decomposition

     bravais-lattice index     =            0
     lattice parameter (alat)  =       7.1530  a.u.
     unit-cell volume          =     465.6511 (a.u.)^3
     number of atoms/cell      =            3
     number of atomic types    =            2
     number of electrons       =        29.00
     number of Kohn-Sham states=           19
     kinetic-energy cutoff     =      30.0000  Ry
     charge density cutoff     =     240.0000  Ry
     scf convergence threshold =      1.0E-06
     mixing beta               =       0.7000
     number of iterations used =            8  plain     mixing
     Exchange-correlation= SLA  PW   PBE  PBE
                           (   1   4   3   4   0   0   0)

     celldm(1)=   7.153006  celldm(2)=   0.000000  celldm(3)=   0.000000
     celldm(4)=   0.000000  celldm(5)=   0.000000  celldm(6)=   0.000000

     crystal axes: (cart. coord. in units of alat)
               a(1) = (   1.000000   0.000000   0.000000 )
               a(2) = (  -0.500000   0.866025   0.000000 )
               a(3) = (   0.000000   0.000000   1.469143 )

     reciprocal axes: (cart. coord. in units 2 pi/alat)
               b(1) = (  1.000000  0.577350  0.000000 )
               b(2) = (  0.000000  1.154700  0.000000 )
               b(3) = (  0.000000  0.000000  0.680669 )

     PseudoPot. # 1 for Co read from file:
     /home/pragov/projects/rrg-bengioy-ad/pragov/crystal_structure_design/SSSP/Co_pbe_v1.2.uspp.F.UPF
     MD5 check sum: 5f91765df6ddd3222702df6e7b74a16d
     Pseudo is Ultrasoft + core correction, Zval = 17.0
     Generated by new atomic code, or converted to UPF format
     Using radial grid of  863 points,  6 beta functions with:
                l(1) =   0
                l(2) =   0
                l(3) =   1
                l(4) =   1
                l(5) =   2
                l(6) =   2
     Q(r) pseudized with  8 coefficients,  rinner =    1.200   1.200   1.200
                                                       1.200   1.200

     PseudoPot. # 2 for Te read from file:
     /home/pragov/projects/rrg-bengioy-ad/pragov/crystal_structure_design/SSSP/Te_pbe_v1.uspp.F.UPF
     MD5 check sum: c319670d6894cc26e93307826a071b75
     Pseudo is Ultrasoft + core correction, Zval =  6.0
     Generated by new atomic code, or converted to UPF format
     Using radial grid of  891 points,  5 beta functions with:
                l(1) =   0
                l(2) =   0
                l(3) =   1
                l(4) =   1
                l(5) =   2
     Q(r) pseudized with  6 coefficients,  rinner =    1.800   1.800   1.800
                                                       1.800   1.800

     atomic species   valence    mass     pseudopotential
        Co            17.00    58.93319     Co( 1.00)
        Te             6.00   127.60000     Te( 1.00)

     12 Sym. Ops., with inversion, found

                                    s                        frac. trans.

      isym =  1     identity

 cryst.   s( 1) = (     1          0          0      )
                  (     0          1          0      )
                  (     0          0          1      )

 cart.    s( 1) = (  1.0000000 -0.0000000  0.0000000 )
                  (  0.0000000  1.0000000  0.0000000 )
                  (  0.0000000  0.0000000  1.0000000 )

      isym =  2     180 deg rotation - cart. axis [1,0,0]

[...]

      isym =  3     120 deg rotation - cryst. axis [0,0,1]

[...]

      isym =  6     180 deg rotation - cryst. axis [1,1,0]

[...]

      isym =  7     inversion

[...]

      isym =  8     inv. 180 deg rotation - cart. axis [1,0,0]

[...]

      isym =  9     inv. 120 deg rotation - cryst. axis [0,0,1]

 cryst.   s( 9) = (     0         -1          0      )
                  (     1          1          0      )
                  (     0          0         -1      )

 cart.    s( 9) = (  0.4999999  0.8660254  0.0000000 )
                  ( -0.8660254  0.5000001  0.0000000 )
                  (  0.0000000  0.0000000 -1.0000000 )

[...]

 cryst.   s(10) = (     1          1          0      )
                  (    -1          0          0      )
                  (     0          0         -1      )

 cart.    s(10) = (  0.5000001 -0.8660254  0.0000000 )
                  (  0.8660254  0.4999999  0.0000000 )
                  (  0.0000000  0.0000000 -1.0000000 )

[...]

      isym = 12     inv. 180 deg rotation - cryst. axis [1,1,0]

 cryst.   s(12) = (     0         -1          0      )
                  (    -1          0          0      )
                  (     0          0          1      )

 cart.    s(12) = (  0.4999999 -0.8660254  0.0000000 )
                  ( -0.8660254 -0.4999999  0.0000000 )
                  (  0.0000000  0.0000000  1.0000000 )

   Cartesian axes

     site n.     atom                  positions (alat units)
         1           Co  tau(   1) = (   0.0000000   0.0000000   0.0000000  )
         2           Te  tau(   2) = (   0.5000005   0.2886749   1.1181224  )
         3           Te  tau(   3) = (  -0.0000005   0.5773506   0.3510210  )

   Crystallographic axes

     site n.     atom                  positions (cryst. coord.)
         1           Co  tau(   1) = (  0.0000000  0.0000000  0.0000000  )
         2           Te  tau(   2) = (  0.6666670  0.3333330  0.7610710  )
         3           Te  tau(   3) = (  0.3333330  0.6666670  0.2389290  )

     number of k points=     1  Methfessel-Paxton smearing, width (Ry)=  0.0010
                       cart. coord. in units 2pi/alat
        k(    1) = (   0.0000000   0.0000000   0.0000000), wk =   2.0000000

                       cryst. coord.
        k(    1) = (   0.0000000   0.0000000   0.0000000), wk =   2.0000000

     Check: negative core charge=   -0.000004

     Initial potential from superposition of free atoms

     starting charge      27.9996, renormalised to      29.0000
     Starting wfcs are   21 randomized atomic wfcs

     Self-consistent Calculation

     iteration #  1     ecut=    30.00 Ry     beta= 0.70
     Davidson diagonalization with overlap

     ethr =  1.00E-02,  avg # of iterations =  3.0

     total energy              =    -343.80014160 Ry
     estimated scf accuracy    <       8.87304641 Ry

[...]

     negative rho (up, down):  5.190E-05 0.000E+00

[...]

     ethr =  2.19E-05,  avg # of iterations =  1.0
     Minimization algorithm failed to find Fermi energy: reverting to bisection
     Possible cause: smearing is larger than the electronic band-gap.

[...]

     ethr =  3.10E-06,  avg # of iterations =  1.0

[...]

     total energy              =    -350.49417542 Ry
     estimated scf accuracy    <       0.00000820 Ry

     iteration # 35     ecut=    30.00 Ry     beta= 0.70
     Davidson diagonalization with overlap

     ethr =  2.83E-08,  avg # of iterations =  1.0
     Minimization algorithm failed to find Fermi energy: reverting to bisection
     Possible cause: smearing is larger than the electronic band-gap.

     End of self-consistent calculation

          k = 0.0000 0.0000 0.0000 (   640 PWs)   bands (ev):

   -84.4207 -48.0573 -48.0572 -46.9937  -3.8657  -0.8415   3.5051   6.7155
     6.7156   8.8826   8.8827   9.5960  10.4104  10.4105  11.6307  11.6355
    11.6356  13.8681  16.3699

     occupation numbers
     1.0000   1.0000   1.0000   1.0000   1.0000   1.0000   1.0000   1.0000
     1.0000   1.0000   1.0000   1.0000   1.0000   1.0000   0.3186   0.0921
     0.0893  -0.0000  -0.0000

     the Fermi energy is    11.6277 ev

!    total energy              =    -350.49417524 Ry
     estimated scf accuracy    <       0.00000051 Ry
     smearing contrib. (-TS)   =      -0.00037812 Ry
     internal energy E=F+TS    =    -350.49379712 Ry

     The total energy is F=E-TS. E is the sum of the following terms:
     one-electron contribution =    -298.70031754 Ry
     hartree contribution      =     163.25071796 Ry
     xc contribution           =     -61.98428160 Ry
     ewald contribution        =    -153.05991594 Ry

     convergence has been achieved in  35 iterations

     Forces acting on atoms (cartesian axes, Ry/au):

     atom    1 type  1   force =     0.00000000   -0.00000000    0.00000000
     atom    2 type  2   force =     0.00000000    0.00000000    0.04882820
     atom    3 type  2   force =     0.00000000    0.00000000   -0.04882820
     The non-local contrib.  to forces
     atom    1 type  1   force =     0.00000000   -0.00000000    0.00000000
     atom    2 type  2   force =     0.00000000    0.00000000    0.12637313
     atom    3 type  2   force =     0.00000000    0.00000000   -0.12637313
     The ionic contribution  to forces
     atom    1 type  1   force =    -0.00000000    0.00000000    0.00000000
     atom    2 type  2   force =    -0.00000989    0.00000571  -10.17436667
     atom    3 type  2   force =     0.00000989   -0.00000571   10.17436667
     The local contribution  to forces
     atom    1 type  1   force =     0.00004255   -0.00000699    0.00036762
     atom    2 type  2   force =     0.00004656    0.00009566   10.09027731
     atom    3 type  2   force =    -0.00003315    0.00002245  -10.09027564
     The core correction contribution to forces
     atom    1 type  1   force =     0.00000024    0.00000394    0.00000071
     atom    2 type  2   force =    -0.00002271   -0.00001912    0.00664189
     atom    3 type  2   force =     0.00002121    0.00002543   -0.00663921
     The Hubbard contrib.    to forces
     atom    1 type  1   force =     0.00000000    0.00000000    0.00000000
     atom    2 type  2   force =     0.00000000    0.00000000    0.00000000
     atom    3 type  2   force =     0.00000000    0.00000000    0.00000000
     The SCF correction term to forces
     atom    1 type  1   force =    -0.00002774    0.00000764   -0.00038381
     atom    2 type  2   force =     0.00006046    0.00003731   -0.00010391
     atom    3 type  2   force =    -0.00006090   -0.00008621    0.00008665

     Total force =     0.069054     Total SCF correction =     0.000427

     Computing stress (Cartesian axis) and pressure

          total   stress  (Ry/bohr**3)                   (kbar)     P=      247.53
   0.00241344  -0.00000000   0.00000000          355.03       -0.00        0.00
  -0.00000000   0.00241344   0.00000000           -0.00      355.03        0.00
   0.00000000  -0.00000000   0.00022112            0.00       -0.00       32.53

     kinetic stress (kbar)  11391.58     -0.00      0.00
                               -0.00  11391.58     -0.00
                                0.00     -0.00  11543.46

     local   stress (kbar) -20772.85     -0.02     -1.72
                               -0.02 -20772.69     -1.65
                               -1.72     -1.65  20136.66

     nonloc. stress (kbar)   -840.71      0.00      0.00
                                0.00   -840.71     -0.00
                                0.00      0.00    -38.76

     hartree stress (kbar)  23510.16      0.04      0.71
                                0.04  23510.06      0.68
                                0.71      0.68   4552.75

     exc-cor stress (kbar)   3100.95     -0.01      0.01
                               -0.01   3100.97      0.01
                                0.01      0.01   3103.99

     corecor stress (kbar)  -7677.94      0.06     -0.01
                                0.06  -7678.06     -0.01
                               -0.01     -0.01  -7624.27

     ewald   stress (kbar)  -8356.12     -0.02      0.01
                               -0.02  -8356.14     -0.01
                                0.01     -0.01 -31641.30

     hubbard stress (kbar)      0.00      0.00      0.00
                                0.00      0.00      0.00
                                0.00      0.00      0.00

     DFT-D   stress (kbar)      0.00      0.00      0.00
                                0.00      0.00      0.00
                                0.00      0.00      0.00

     XDM     stress (kbar)      0.00      0.00      0.00
                                0.00      0.00      0.00
                                0.00      0.00      0.00

     dft-nl  stress (kbar)      0.00      0.00      0.00
                                0.00      0.00      0.00
                                0.00      0.00      0.00

     TS-vdW  stress (kbar)      0.00      0.00      0.00
                                0.00      0.00      0.00
                                0.00      0.00      0.00

[...]

                                0.00      0.00      0.00

     Writing all to output data dir new_calculations/myprefix.save/

     General routines

     Parallel routines

   This run was terminated on:   6:55:44  20May2023

   JOB DONE.