     Program PWSCF v.7.0 starts on 21May2023 at 11:24:28

     Reading input from espresso_26658.pwi
Warning: card &CELL ignored
Warning: card / ignored

     Current dimensions of program PWSCF are:
     Max number of different atomic species (ntypx) = 10
     Max number of k-points (npk) =  40000
     Max angular momentum in pseudopotentials (lmaxx) =  4
     file Nb.pbe-spn-kjpaw_psl.0.3.0.UPF: wavefunction(s)  4S 4P renormalized

     gamma-point specific algorithms are used

     Subspace diagonalization in iterative solution of the eigenvalue problem:
     a serial algorithm will be used

     Using Slab Decomposition

     bravais-lattice index     =            0
     lattice parameter (alat)  =      24.0048  a.u.
     unit-cell volume          =     875.3945 (a.u.)^3
     number of atoms/cell      =            3
     number of atomic types    =            2
     number of electrons       =        25.00
     number of Kohn-Sham states=           17
     kinetic-energy cutoff     =      30.0000  Ry
     charge density cutoff     =     240.0000  Ry
     scf convergence threshold =      1.0E-06
     mixing beta               =       0.7000
     number of iterations used =            8  plain     mixing
     Exchange-correlation= SLA  PW   PBE  PBE
                           (   1   4   3   4   0   0   0)

     celldm(1)=  24.004841  celldm(2)=   0.000000  celldm(3)=   0.000000
     celldm(4)=   0.000000  celldm(5)=   0.000000  celldm(6)=   0.000000

     crystal axes: (cart. coord. in units of alat)
               a(1) = (   1.000000   0.000000   0.000000 )
               a(2) = (   0.943536   0.268459   0.000000 )
               a(3) = (   0.056464  -0.128443   0.235738 )

     reciprocal axes: (cart. coord. in units 2 pi/alat)
               b(1) = (  1.000000 -3.514641 -2.154489 )
               b(2) = (  0.000000  3.724968  2.029567 )
               b(3) = (  0.000000  0.000000  4.241995 )

     PseudoPot. # 1 for Nb read from file:
     /home/pragov/projects/rrg-bengioy-ad/pragov/crystal_structure_design/SSSP/Nb.pbe-spn-kjpaw_psl.0.3.0.UPF
     MD5 check sum: 411d72ad547312f8017e2943ceca08cc
     Pseudo is Projector augmented-wave + core cor, Zval = 13.0
     Generated using "atomic" code by A. Dal Corso  v.5.0.99 svn rev. 10869
     Shape of augmentation charge: PSQ
     Using radial grid of 1227 points,  6 beta functions with:
                l(1) =   0
                l(2) =   0
                l(3) =   1
                l(4) =   1
                l(5) =   2
                l(6) =   2
     Q(r) pseudized with 0 coefficients

     PseudoPot. # 2 for Se read from file:
     /home/pragov/projects/rrg-bengioy-ad/pragov/crystal_structure_design/SSSP/Se_pbe_v1.uspp.F.UPF
     MD5 check sum: 1b3568f3a8ae88f9a2a0ad0698632c85
     Pseudo is Ultrasoft + core correction, Zval =  6.0
     Generated by new atomic code, or converted to UPF format
     Using radial grid of  877 points,  6 beta functions with:
                l(1) =   0
                l(2) =   0
                l(3) =   1
                l(4) =   1
                l(5) =   2
                l(6) =   2
     Q(r) pseudized with  8 coefficients,  rinner =    1.300   1.300   1.300
                                                       1.300   1.300

     atomic species   valence    mass     pseudopotential
        Nb            13.00    92.90637     Nb( 1.00)
        Se             6.00    78.97100     Se( 1.00)

     No symmetry found

                                    s                        frac. trans.

      isym =  1     identity

 cryst.   s( 1) = (     1          0          0      )
                  (     0          1          0      )
                  (     0          0          1      )

 cart.    s( 1) = (  1.0000000  0.0000000 -0.0000000 )
                  (  0.0000000  1.0000000  0.0000000 )
                  (  0.0000000  0.0000000  1.0000000 )

   Cartesian axes

     site n.     atom                  positions (alat units)
         1           Nb  tau(   1) = (   0.9520332   0.2385938   0.0177381  )
         2           Se  tau(   2) = (   1.1560216   0.0010767   0.1588104  )
         3           Se  tau(   3) = (   0.8986080  -0.0530643   0.1909672  )

   Crystallographic axes

     site n.     atom                  positions (cryst. coord.)
         1           Nb  tau(   1) = (  0.0752450  0.9247550  0.0752450  )
         2           Se  tau(   2) = (  0.8100820  0.3263270  0.6736730  )
         3           Se  tau(   3) = (  0.6736730  0.1899180  0.8100820  )

     number of k points=     1  Methfessel-Paxton smearing, width (Ry)=  0.0010
                       cart. coord. in units 2pi/alat
        k(    1) = (   0.0000000   0.0000000   0.0000000), wk =   2.0000000

                       cryst. coord.
        k(    1) = (   0.0000000   0.0000000   0.0000000), wk =   2.0000000

     Check: negative core charge=   -0.000005

     Initial potential from superposition of free atoms

     starting charge      24.9977, renormalised to      25.0000

     negative rho (up, down):  4.880E-04 0.000E+00
     Starting wfcs are   18 randomized atomic wfcs
     Checking if some PAW data can be deallocated...

     Self-consistent Calculation

     iteration #  1     ecut=    30.00 Ry     beta= 0.70
     Davidson diagonalization with overlap

     ethr =  1.00E-02,  avg # of iterations =  2.0

     Threshold (ethr) on eigenvalues was too large:
     Diagonalizing with lowered threshold

     Davidson diagonalization with overlap

[...]

     negative rho (up, down):  2.747E-04 0.000E+00

     total energy              =    -420.97404068 Ry
     estimated scf accuracy    <       0.24646358 Ry

[...]

     total energy              =    -421.04210077 Ry
     estimated scf accuracy    <       0.00002631 Ry

     iteration #  8     ecut=    30.00 Ry     beta= 0.70
     Davidson diagonalization with overlap

     ethr =  1.05E-07,  avg # of iterations =  5.0

[...]

     End of self-consistent calculation

          k = 0.0000 0.0000 0.0000 (  1209 PWs)   bands (ev):

   -51.8732 -28.1541 -27.8884 -27.8870 -11.9812 -11.1632  -2.8405   0.2342
     0.2413   0.2874   0.9293   0.9317   2.7412   4.8915   4.8989   4.9927
     4.9980

     occupation numbers
     1.0000   1.0000   1.0000   1.0000   1.0000   1.0000   1.0000   1.0000
     1.0000   1.0000   1.0000   1.0000   0.5000  -0.0000  -0.0000  -0.0000
    -0.0000

     the Fermi energy is     2.7412 ev

!    total energy              =    -421.04211463 Ry
     estimated scf accuracy    <       0.00000047 Ry
     smearing contrib. (-TS)   =      -0.00028209 Ry
     internal energy E=F+TS    =    -421.04183253 Ry

     The total energy is F=E-TS. E is the sum of the following terms:
     one-electron contribution =    -357.49533563 Ry
     hartree contribution      =     184.25790815 Ry
     xc contribution           =     -88.52690330 Ry
     ewald contribution        =      49.19947356 Ry
     one-center paw contrib.   =    -208.47697531 Ry
      -> PAW hartree energy AE =      70.22343866 Ry
      -> PAW hartree energy PS =     -69.85503252 Ry
      -> PAW xc energy AE      =    -236.01955504 Ry
      -> PAW xc energy PS      =      27.17417359 Ry
      -> total E_H with PAW    =     184.62631428 Ry
      -> total E_XC with PAW   =    -297.37228475 Ry

     convergence has been achieved in   8 iterations

     negative rho (up, down):  1.276E-04 0.000E+00

     Forces acting on atoms (cartesian axes, Ry/au):

     atom    1 type  1   force =    -0.00024996    0.00026653   -0.00017062
     atom    2 type  2   force =    -0.12083730   -0.02557368    0.01519641
     atom    3 type  2   force =     0.12108725    0.02530715   -0.01502579
     The non-local contrib.  to forces
     atom    1 type  1   force =    -0.00045508   -0.00005082    0.00005026
     atom    2 type  2   force =     0.10915895    0.02260516   -0.01341958
     atom    3 type  2   force =    -0.10930732   -0.02333833    0.01389656
     The ionic contribution  to forces
     atom    1 type  1   force =    -0.00169527    0.00595827   -0.00353891
     atom    2 type  2   force =    21.81122252    4.58432685   -2.72284145
     atom    3 type  2   force =   -21.80952725   -4.59028513    2.72638036
     The local contribution  to forces
     atom    1 type  1   force =    -0.00114279   -0.00631639    0.00371687
     atom    2 type  2   force =   -22.02348530   -4.62881962    2.74927606
     atom    3 type  2   force =    22.02149104    4.63500484   -2.75297775
     The core correction contribution to forces
     atom    1 type  1   force =    -0.00001838    0.00000674   -0.00001621
     atom    2 type  2   force =    -0.01775991   -0.00366746    0.00217779
     atom    3 type  2   force =     0.01777149    0.00380442   -0.00226752
     The Hubbard contrib.    to forces
     atom    1 type  1   force =     0.00000000    0.00000000    0.00000000
     atom    2 type  2   force =     0.00000000    0.00000000    0.00000000
     atom    3 type  2   force =     0.00000000    0.00000000    0.00000000
     The SCF correction term to forces
     atom    1 type  1   force =     0.00295460    0.00065698   -0.00037445
     atom    2 type  2   force =    -0.00008052   -0.00003038    0.00001176
     atom    3 type  2   force =     0.00055233    0.00010959   -0.00004925

     Total force =     0.176111     Total SCF correction =     0.003103

     Computing stress (Cartesian axis) and pressure

     negative rho (up, down):  1.276E-04 0.000E+00
          total   stress  (Ry/bohr**3)                   (kbar)     P=       66.38
  -0.00086139  -0.00042671   0.00025348         -126.71      -62.77       37.29
  -0.00042671   0.00107813   0.00005405          -62.77      158.60        7.95
   0.00025348   0.00005405   0.00113700           37.29        7.95      167.26

     kinetic stress (kbar)   6238.76    -44.74     26.58
                              -44.74   6442.40      6.14
                               26.58      6.14   6449.09

     local   stress (kbar)  47846.02  22516.67 -13373.67
                            22516.67 -54475.99  -2816.64
                           -13373.67  -2816.64 -57545.32

     nonloc. stress (kbar)   3744.73      7.11     -4.22
                                7.11   3712.38     -0.96
                               -4.22     -0.96   3711.33

     hartree stress (kbar) -22620.12 -10712.92   6362.89
                           -10712.92  26062.00   1339.45
                             6362.89   1339.45  27521.62

     exc-cor stress (kbar)   9277.38      0.70     -0.42
                                0.70   9274.18     -0.08
                               -0.42     -0.08   9274.10

     corecor stress (kbar) -10993.25      0.14     -0.09
                                0.14 -10993.91     -0.02
                               -0.09     -0.02 -10993.93

     ewald   stress (kbar) -33620.22 -11829.73   7026.22
                           -11829.73  20137.54   1480.06
                             7026.22   1480.06  21750.38

     hubbard stress (kbar)      0.00      0.00      0.00
                                0.00      0.00      0.00
                                0.00      0.00      0.00

     DFT-D   stress (kbar)      0.00      0.00      0.00
                                0.00      0.00      0.00
                                0.00      0.00      0.00

     XDM     stress (kbar)      0.00      0.00      0.00
                                0.00      0.00      0.00
                                0.00      0.00      0.00

     dft-nl  stress (kbar)      0.00      0.00      0.00
                                0.00      0.00      0.00
                                0.00      0.00      0.00

     TS-vdW  stress (kbar)      0.00      0.00      0.00
                                0.00      0.00      0.00
                                0.00      0.00      0.00

[...]

                                0.00      0.00      0.00

     Writing all to output data dir new_calculations/myprefix.save/

     General routines

     Parallel routines

     PAW routines

   This run was terminated on:  11:24:42  21May2023

   JOB DONE.