     Program PWSCF v.7.1 starts on 16Jul2023 at 17:10:27

     Reading input from espresso_15882.pwi
Warning: card &CELL ignored
Warning: card / ignored

     Current dimensions of program PWSCF are:
     Max number of different atomic species (ntypx) = 10
     Max number of k-points (npk) =  40000
     Max angular momentum in pseudopotentials (lmaxx) =  4
     file Ce.paw.z_12.atompaw.wentzcovitch.v1.2.upf: wavefunction(s)  6S 0P 5D 0D 4F 0F renormalized
     Message from routine setup:
     using ibrav=0 with symmetry is DISCOURAGED, use correct ibrav instead

     K-points division:     npool     =       2
     R & G space division:  proc/nbgrp/npool/nimage =       4
     Subspace diagonalization in iterative solution of the eigenvalue problem:
     a serial algorithm will be used

     Using Slab Decomposition

     bravais-lattice index     =            0
     lattice parameter (alat)  =       7.5457  a.u.
     unit-cell volume          =    1045.6330 (a.u.)^3
     number of atoms/cell      =            8
     number of atomic types    =            3
     number of electrons       =        96.00
     number of Kohn-Sham states=           58
     kinetic-energy cutoff     =      30.0000  Ry
     charge density cutoff     =     240.0000  Ry
     scf convergence threshold =      1.0E-06
     mixing beta               =       0.7000
     number of iterations used =            8  plain     mixing
     Exchange-correlation=  SLA  PW   PBX  PBC
                           (   1   4   3   4   0   0   0)

     celldm(1)=   7.545731  celldm(2)=   0.000000  celldm(3)=   0.000000
     celldm(4)=   0.000000  celldm(5)=   0.000000  celldm(6)=   0.000000

     crystal axes: (cart. coord. in units of alat)
               a(1) = (   1.000000   0.000000   0.000000 )
               a(2) = (   0.000000   1.035044   0.000000 )
               a(3) = (  -0.500000   0.000000   2.351346 )

     reciprocal axes: (cart. coord. in units 2 pi/alat)
               b(1) = (  1.000000  0.000000  0.212644 )
               b(2) = (  0.000000  0.966143  0.000000 )
               b(3) = (  0.000000  0.000000  0.425288 )

     PseudoPot. # 1 for Ce read from file:
     /lustre07/scratch/pragov/crystal_structure_design/utils/SSSP/Ce.paw.z_12.atompaw.wentzcovitch.v1.2.upf
     MD5 check sum: 2241420ff980c77e0c917a2dc8a7e08e
     Pseudo is Projector augmented-wave + core cor, Zval = 12.0
     Generated using ATOMPAW code
     Shape of augmentation charge: BESSEL
     Using radial grid of 1102 points,  8 beta functions with:
                l(1) =   0
                l(2) =   0
                l(3) =   1
                l(4) =   1
                l(5) =   2
                l(6) =   2
                l(7) =   3
                l(8) =   3
     Q(r) pseudized with 0 coefficients

     PseudoPot. # 2 for Si read from file:
     /lustre07/scratch/pragov/crystal_structure_design/utils/SSSP/Si.pbe-n-rrkjus_psl.1.0.0.UPF
     MD5 check sum: 0b0bb1205258b0d07b9f9672cf965d36
     Pseudo is Ultrasoft + core correction, Zval =  4.0
     Generated using "atomic" code by A. Dal Corso  v.5.1
     Using radial grid of 1141 points,  6 beta functions with:
                l(1) =   0
                l(2) =   0
                l(3) =   1
                l(4) =   1
                l(5) =   2
                l(6) =   2
     Q(r) pseudized with 0 coefficients

     PseudoPot. # 3 for Pt read from file:
     /lustre07/scratch/pragov/crystal_structure_design/utils/SSSP/pt_pbe_v1.4.uspp.F.UPF
     MD5 check sum: f09d6de1a584b5a045c4fc126da2d0c4
     Pseudo is Ultrasoft + core correction, Zval = 16.0
     Generated by new atomic code, or converted to UPF format
     Using radial grid of  985 points,  6 beta functions with:
                l(1) =   0
                l(2) =   0
                l(3) =   1
                l(4) =   1
                l(5) =   2
                l(6) =   2
     Q(r) pseudized with  8 coefficients,  rinner =    1.300   1.300   1.300
                                                       1.300   1.300

     atomic species   valence    mass     pseudopotential
        Ce            12.00   140.11600     Ce( 1.00)
        Si             4.00    28.08500     Si( 1.00)
        Pt            16.00   195.08400     Pt( 1.00)

      8 Sym. Ops., with inversion, found ( 4 have fractional translation)

                                    s                        frac. trans.

      isym =  1     identity

 cryst.   s( 1) = (     1          0          0      )
                  (     0          1          0      )
                  (     0          0          1      )

 cart.    s( 1) = (  1.0000000  0.0000000 -0.0000000 )
                  (  0.0000000  1.0000000  0.0000000 )
                  (  0.0000000  0.0000000  1.0000000 )

      isym =  2     180 deg rotation - cart. axis [0,0,1]

 cryst.   s( 2) = (    -1          0          0      )    f =(  0.0000010 )
                  (     0         -1          0      )       ( -0.5000000 )
                  (     1          0          1      )       (  0.0000000 )

 cart.    s( 2) = ( -1.0000000  0.0000000 -0.0000001 )    f =(  0.0000010 )
                  (  0.0000000 -1.0000000  0.0000000 )       ( -0.5175219 )
                  (  0.0000000  0.0000000  1.0000000 )       (  0.0000000 )

[...]

      isym =  4     180 deg rotation - cart. axis [1,0,0]

[...]

      isym =  5     inversion

[...]

      isym =  6     inv. 180 deg rotation - cart. axis [0,0,1]

[...]

 cryst.   s( 7) = (     1          0          0      )    f =(  0.0000000 )
                  (     0         -1          0      )       ( -0.5000000 )
                  (     0          0          1      )       (  0.0000000 )

 cart.    s( 7) = (  1.0000000  0.0000000 -0.0000000 )    f =(  0.0000000 )
                  (  0.0000000 -1.0000000  0.0000000 )       ( -0.5175219 )
                  (  0.0000000  0.0000000  1.0000000 )       (  0.0000000 )

      isym =  8     inv. 180 deg rotation - cart. axis [1,0,0]

 cryst.   s( 8) = (    -1          0          0      )
                  (     0          1          0      )
                  (     1          0          1      )

 cart.    s( 8) = ( -1.0000000  0.0000000 -0.0000001 )
                  (  0.0000000  1.0000000  0.0000000 )
                  (  0.0000000  0.0000000  1.0000000 )

   Cartesian axes

     site n.     atom                  positions (alat units)
         1           Ce  tau(   1) = (   0.4999995   0.2587610   0.4742171  )
         2           Ce  tau(   2) = (   0.0000004   0.7762829   1.8771289  )
         3           Si  tau(   3) = (   0.4999999   0.2587610   1.5271616  )
         4           Si  tau(   4) = (  -0.0000000   0.7762829   0.8241844  )
         5           Pt  tau(   5) = (   0.4999999   0.2587610   2.1213938  )
         6           Pt  tau(   6) = (  -0.0000000   0.7762829   0.2299522  )
         7           Pt  tau(   7) = (  -0.0000001   0.2587610   1.1811234  )
         8           Pt  tau(   8) = (   0.4999999   0.7762829   1.1702226  )

   Crystallographic axes

     site n.     atom                  positions (cryst. coord.)
         1           Ce  tau(   1) = (  0.6008390  0.2500000  0.2016790  )
         2           Ce  tau(   2) = (  0.3991610  0.7500000  0.7983210  )
         3           Si  tau(   3) = (  0.8247420  0.2500000  0.6494840  )
         4           Si  tau(   4) = (  0.1752580  0.7500000  0.3505160  )
         5           Pt  tau(   5) = (  0.9511020  0.2500000  0.9022040  )
         6           Pt  tau(   6) = (  0.0488980  0.7500000  0.0977960  )
         7           Pt  tau(   7) = (  0.2511590  0.2500000  0.5023180  )
         8           Pt  tau(   8) = (  0.7488410  0.7500000  0.4976820  )

     number of k points=     8  Gaussian smearing, width (Ry)=  0.0010
                       cart. coord. in units 2pi/alat
        k(    1) = (   0.0000000   0.0000000   0.0000000), wk =   0.0740741
        k(    2) = (   0.0000000   0.0000000   0.1417628), wk =   0.1481481
        k(    3) = (   0.0000000   0.3220476   0.0000000), wk =   0.1481481
        k(    4) = (   0.0000000   0.3220476   0.1417628), wk =   0.2962963
        k(    5) = (   0.3333333   0.0000000   0.0708814), wk =   0.2962963
        k(    6) = (   0.3333333   0.0000000   0.2126442), wk =   0.1481481
        k(    7) = (   0.3333333   0.3220476   0.0708814), wk =   0.5925926
        k(    8) = (   0.3333333   0.3220476   0.2126442), wk =   0.2962963

                       cryst. coord.
        k(    1) = (   0.0000000   0.0000000   0.0000000), wk =   0.0740741
        k(    2) = (   0.0000000   0.0000000   0.3333333), wk =   0.1481481
        k(    3) = (   0.0000000   0.3333333   0.0000000), wk =   0.1481481
        k(    4) = (   0.0000000   0.3333333   0.3333333), wk =   0.2962963
        k(    5) = (   0.3333333   0.0000000  -0.0000000), wk =   0.2962963
        k(    6) = (   0.3333333   0.0000000   0.3333333), wk =   0.1481481
        k(    7) = (   0.3333333   0.3333333  -0.0000000), wk =   0.5925926
        k(    8) = (   0.3333333   0.3333333   0.3333333), wk =   0.2962963

     Check: negative core charge=   -0.000001

     Initial potential from superposition of free atoms

     starting charge      93.9849, renormalised to      96.0000

     negative rho (up, down):  7.283E-01 0.000E+00
     Starting wfcs are  120 randomized atomic wfcs
     Checking if some PAW data can be deallocated...

     Self-consistent Calculation

     iteration #  1     ecut=    30.00 Ry     beta= 0.70
     Davidson diagonalization with overlap

     ethr =  1.00E-02,  avg # of iterations =  2.0

     negative rho (up, down):  6.334E-01 0.000E+00

     total energy              =   -1803.69595189 Ry
     estimated scf accuracy    <      30.62980992 Ry

[...]

     total energy              =   -1830.31070483 Ry
     estimated scf accuracy    <       0.00000187 Ry

     iteration # 33     ecut=    30.00 Ry     beta= 0.70
     Davidson diagonalization with overlap

     ethr =  1.20E-09,  avg # of iterations =  5.2

     negative rho (up, down):  6.780E-01 0.000E+00

     End of self-consistent calculation

          k = 0.0000 0.0000 0.0000 (  2925 PWs)   bands (ev):

   -37.3425 -37.3027 -37.2038 -37.1949 -37.1715 -37.1422 -36.8661 -36.7959
   -36.7721 -36.7687 -36.7487 -36.6653 -18.5491 -18.5382  -1.5166  -1.3361
    -1.2800  -1.2578  -1.1554  -1.1499   5.2089   6.8977   8.9691   9.8415
    10.2925  10.4846  10.5120  11.2613  11.3287  11.4357  11.5967  12.0332
    12.0651  12.3524  12.4038  12.8006  12.8175  12.8756  13.0669  13.3346
    13.8443  14.0776  14.3326  14.9284  15.3819  15.4526  15.4741  16.1444
    16.3689  16.3941  16.4804  16.4887  16.4982  16.5294  16.5309  16.5546
    16.5834  16.6057

     occupation numbers
     1.0000   1.0000   1.0000   1.0000   1.0000   1.0000   1.0000   1.0000
     1.0000   1.0000   1.0000   1.0000   1.0000   1.0000   1.0000   1.0000
     1.0000   1.0000   1.0000   1.0000   1.0000   1.0000   1.0000   1.0000
     1.0000   1.0000   1.0000   1.0000   1.0000   1.0000   1.0000   1.0000
     1.0000   1.0000   1.0000   1.0000   1.0000   1.0000   1.0000   1.0000
     1.0000   1.0000   1.0000   1.0000   1.0000   1.0000   1.0000   0.9877
     0.0000   0.0000   0.0000   0.0000   0.0000   0.0000   0.0000   0.0000
     0.0000   0.0000

[...]

          k = 0.3333 0.3220 0.2126 (  2900 PWs)   bands (ev):

   -37.3398 -37.3021 -37.1937 -37.1908 -37.1832 -37.1537 -36.8627 -36.8392
   -36.7680 -36.7562 -36.7175 -36.6775 -18.5137 -18.5098  -1.5102  -1.4921
    -1.4487  -1.4357  -1.3627  -1.2923   6.6981   7.1980   9.3793  10.0113
    10.5259  10.7349  11.3802  11.4071  11.6994  11.8328  11.9620  11.9839
    12.0080  12.2960  12.3531  12.7675  12.8417  12.9438  13.0682  13.2395
    13.3454  13.4855  13.6167  14.1080  14.5154  15.3807  15.6075  16.0283
    16.1655  16.3357  16.3426  16.4401  16.4607  16.4698  16.5226  16.5395
    16.5673  16.5908

     occupation numbers
     1.0000   1.0000   1.0000   1.0000   1.0000   1.0000   1.0000   1.0000
     1.0000   1.0000   1.0000   1.0000   1.0000   1.0000   1.0000   1.0000
     1.0000   1.0000   1.0000   1.0000   1.0000   1.0000   1.0000   1.0000
     1.0000   1.0000   1.0000   1.0000   1.0000   1.0000   1.0000   1.0000
     1.0000   1.0000   1.0000   1.0000   1.0000   1.0000   1.0000   1.0000
     1.0000   1.0000   1.0000   1.0000   1.0000   1.0000   1.0000   1.0000
     0.5206   0.0000   0.0000   0.0000   0.0000   0.0000   0.0000   0.0000
     0.0000   0.0000

     the Fermi energy is    16.1660 ev

!    total energy              =   -1830.31070441 Ry
     estimated scf accuracy    <       0.00000051 Ry
     smearing contrib. (-TS)   =      -0.00034950 Ry
     internal energy E=F+TS    =   -1830.31035491 Ry

     The total energy is F=E-TS. E is the sum of the following terms:
     one-electron contribution =    -232.89603478 Ry
     hartree contribution      =     183.45950338 Ry
     xc contribution           =    -267.73221946 Ry
     ewald contribution        =    -703.41414304 Ry
     one-center paw contrib.   =    -809.72746099 Ry
      -> PAW hartree energy AE =      44.22177763 Ry
      -> PAW hartree energy PS =     -43.96242082 Ry
      -> PAW xc energy AE      =    -417.18944196 Ry
      -> PAW xc energy PS      =      12.06635466 Ry
      -> total E_H with PAW    =     183.71886018 Ry
      -> total E_XC with PAW   =    -672.85530677 Ry

     convergence has been achieved in  33 iterations

     Writing all to output data dir energy_m/myprefix.save/

     General routines

     Parallel routines

     PAW routines

   This run was terminated on:  17:10:58  16Jul2023

   JOB DONE.