     Program PWSCF v.7.0 starts on 21May2023 at  3:39:28

     Reading input from espresso_17833.pwi
Warning: card &CELL ignored
Warning: card / ignored

     Current dimensions of program PWSCF are:
     Max number of different atomic species (ntypx) = 10
     Max number of k-points (npk) =  40000
     Max angular momentum in pseudopotentials (lmaxx) =  4
     file Mg.pbe-n-kjpaw_psl.0.3.0.UPF: wavefunction(s)  3S renormalized
     file Al.pbe-n-kjpaw_psl.1.0.0.UPF: wavefunction(s)  3S 3P renormalized

     gamma-point specific algorithms are used

     Subspace diagonalization in iterative solution of the eigenvalue problem:
     a serial algorithm will be used

     Using Slab Decomposition

     bravais-lattice index     =            0
     lattice parameter (alat)  =      13.7519  a.u.
     unit-cell volume          =    1828.6931 (a.u.)^3
     number of atoms/cell      =           14
     number of atomic types    =            4
     number of electrons       =        88.00
     number of Kohn-Sham states=           53
     kinetic-energy cutoff     =      30.0000  Ry
     charge density cutoff     =     240.0000  Ry
     scf convergence threshold =      1.0E-06
     mixing beta               =       0.7000
     number of iterations used =            8  plain     mixing
     Exchange-correlation=  SLA  PW   PBX  PBC
                           (   1   4   3   4   0   0   0)

     celldm(1)=  13.751930  celldm(2)=   0.000000  celldm(3)=   0.000000
     celldm(4)=   0.000000  celldm(5)=   0.000000  celldm(6)=   0.000000

     crystal axes: (cart. coord. in units of alat)
               a(1) = (   1.000000   0.000000   0.000000 )
               a(2) = (   0.499595   0.861537   0.000000 )
               a(3) = (   0.499989   0.275296   0.816161 )

     reciprocal axes: (cart. coord. in units 2 pi/alat)
               b(1) = (  1.000000 -0.579889 -0.417011 )
               b(2) = (  0.000000  1.160717 -0.391517 )
               b(3) = (  0.000000  0.000000  1.225248 )

     PseudoPot. # 1 for Mg read from file:
     /home/pragov/projects/rrg-bengioy-ad/pragov/crystal_structure_design/SSSP/Mg.pbe-n-kjpaw_psl.0.3.0.UPF
     MD5 check sum: 24ecedc7f3e3cbe212e682f4413594e4
     Pseudo is Projector augmented-wave + core cor, Zval =  2.0
     Generated using "atomic" code by A. Dal Corso  v.5.0.99 svn rev. 10869
     Shape of augmentation charge: PSQ
     Using radial grid of 1129 points,  4 beta functions with:
                l(1) =   0
                l(2) =   0
                l(3) =   1
                l(4) =   1
     Q(r) pseudized with 0 coefficients

     PseudoPot. # 2 for Mn read from file:
     /home/pragov/projects/rrg-bengioy-ad/pragov/crystal_structure_design/SSSP/mn_pbe_v1.5.uspp.F.UPF
     MD5 check sum: 82ef2b46521d7a7d9e736dc3972e4928
     Pseudo is Ultrasoft + core correction, Zval = 15.0
     Generated by new atomic code, or converted to UPF format
     Using radial grid of  859 points,  6 beta functions with:
                l(1) =   0
                l(2) =   0
                l(3) =   1
                l(4) =   1
                l(5) =   2
                l(6) =   2
     Q(r) pseudized with  8 coefficients,  rinner =    0.950   0.950   0.950
                                                       0.950   0.950

     PseudoPot. # 3 for Al read from file:
     /home/pragov/projects/rrg-bengioy-ad/pragov/crystal_structure_design/SSSP/Al.pbe-n-kjpaw_psl.1.0.0.UPF
     MD5 check sum: cfc449ca30b5f3223ec38ddd88ac046d
     Pseudo is Projector augmented-wave + core cor, Zval =  3.0
     Generated using "atomic" code by A. Dal Corso  v.5.1
     Shape of augmentation charge: PSQ
     Using radial grid of 1135 points,  6 beta functions with:
                l(1) =   0
                l(2) =   0
                l(3) =   1
                l(4) =   1
                l(5) =   2
                l(6) =   2
     Q(r) pseudized with 0 coefficients

     PseudoPot. # 4 for S  read from file:
     /home/pragov/projects/rrg-bengioy-ad/pragov/crystal_structure_design/SSSP/s_pbe_v1.4.uspp.F.UPF
     MD5 check sum: 88d86576ff6df21479756cfb9bdac1df
     Pseudo is Ultrasoft + core correction, Zval =  6.0
     Generated by new atomic code, or converted to UPF format
     Using radial grid of  907 points,  6 beta functions with:
                l(1) =   0
                l(2) =   0
                l(3) =   1
                l(4) =   1
                l(5) =   2
                l(6) =   2
     Q(r) pseudized with  8 coefficients,  rinner =    1.300   1.300   1.300
                                                       1.300   1.300

     atomic species   valence    mass     pseudopotential
        Mg             2.00    24.30500     Mg( 1.00)
        Mn            15.00    54.93804     Mn( 1.00)
        Al             3.00    26.98154     Al( 1.00)
        S              6.00    32.06000     S ( 1.00)

     No symmetry found

                                    s                        frac. trans.

      isym =  1     identity

 cryst.   s( 1) = (     1          0          0      )
                  (     0          1          0      )
                  (     0          0          1      )

 cart.    s( 1) = (  1.0000000 -0.0000000  0.0000000 )
                  (  0.0000000  1.0000000  0.0000000 )
                  (  0.0000000  0.0000000  1.0000000 )

   Cartesian axes

     site n.     atom                  positions (alat units)
         1           Mg  tau(   1) = (   1.7495936   0.9944328   0.7138049  )
         2           Mg  tau(   2) = (   0.2500203   0.1424216   0.1023542  )
         3           Mn  tau(   3) = (   0.7497839   0.4307630   0.0000266  )
         4           Mn  tau(   4) = (   1.2494593   0.9991239   0.4080633  )
         5           Al  tau(   5) = (   0.9998058   0.5684134   0.4080627  )
         6           Al  tau(   6) = (   0.4998174   0.5684270   0.4081060  )
         7           S   tau(   7) = (   1.4787928   0.8368190   0.6007953  )
         8           S   tau(   8) = (   0.7498244   0.4244256   0.5821664  )
         9           S   tau(   9) = (   0.7496740   0.6874834   0.2162778  )
        10           S   tau(  10) = (   0.9779979   0.2997893   0.2152330  )
        11           S   tau(  11) = (   1.2499353   0.4493660   0.5998772  )
        12           S   tau(  12) = (   1.0215890   0.8370407   0.6009304  )
        13           S   tau(  13) = (   0.5208003   0.3000287   0.2153689  )
        14           S   tau(  14) = (   1.2498025   0.7124127   0.2339830  )

   Crystallographic axes

     site n.     atom                  positions (cryst. coord.)
         1           Mg  tau(   1) = (  0.8752690  0.8747881  0.8745879  )
         2           Mg  tau(   2) = (  0.1247488  0.1252378  0.1254093  )
         3           Mn  tau(   3) = (  0.4999783  0.4999833  0.0000326  )
         4           Mn  tau(   4) = (  0.4999120  0.9999360  0.4999787  )
         5           Al  tau(   5) = (  0.5000229  0.5000034  0.4999780  )
         6           Al  tau(   6) = (  0.0000085  0.5000023  0.5000310  )
         7           S   tau(   7) = (  0.7429929  0.7360883  0.7361231  )
         8           S   tau(   8) = (  0.2609352  0.2647100  0.7132982  )
         9           S   tau(   9) = (  0.2608201  0.7132970  0.2649939  )
        10           S   tau(  10) = (  0.7143991  0.2637030  0.2637138  )
        11           S   tau(  11) = (  0.7391979  0.2867246  0.7349983  )
        12           S   tau(  12) = (  0.2856043  0.7362927  0.7362887  )
        13           S   tau(  13) = (  0.2570059  0.2639277  0.2638803  )
        14           S   tau(  14) = (  0.7391091  0.7353009  0.2866872  )

     number of k points=     1  Methfessel-Paxton smearing, width (Ry)=  0.0010
                       cart. coord. in units 2pi/alat
        k(    1) = (   0.0000000   0.0000000   0.0000000), wk =   2.0000000

                       cryst. coord.
        k(    1) = (   0.0000000   0.0000000   0.0000000), wk =   2.0000000

     Check: negative core charge=   -0.000007

     Initial potential from superposition of free atoms

     starting charge      86.9931, renormalised to      88.0000
     Starting wfcs are   74 randomized atomic wfcs
     Checking if some PAW data can be deallocated...

     Self-consistent Calculation

     iteration #  1     ecut=    30.00 Ry     beta= 0.70
     Davidson diagonalization with overlap

     ethr =  1.00E-02,  avg # of iterations =  2.0

     total energy              =    -760.83057504 Ry
     estimated scf accuracy    <       1.67964842 Ry

[...]

     total energy              =    -761.73649546 Ry
     estimated scf accuracy    <       0.00000514 Ry

     iteration # 25     ecut=    30.00 Ry     beta= 0.70
     Davidson diagonalization with overlap

     ethr =  5.84E-09,  avg # of iterations =  1.0

     End of self-consistent calculation

          k = 0.0000 0.0000 0.0000 (  2516 PWs)   bands (ev):

   -72.7066 -72.7060 -41.5497 -41.5396 -41.4145 -41.4136 -41.3173 -41.3166
    -7.5337  -6.2651  -5.9684  -5.8265  -5.7595  -5.6367  -5.6158  -5.5421
    -0.1227  -0.0609   0.8394   0.8823   1.2046   1.4823   1.5808   3.2216
     3.5788   3.5911   3.6114   3.6451   3.8364   3.8953   3.9070   4.3158
     4.3247   4.5074   4.6098   4.6583   5.0078   5.5398   5.5458   5.6720
     5.8421   5.9139   6.2013   6.3495   6.3557   6.3561   8.0632   8.1814
     8.1899   8.2413   8.4653   8.4800   9.7660

     occupation numbers
     1.0000   1.0000   1.0000   1.0000   1.0000   1.0000   1.0000   1.0000
     1.0000   1.0000   1.0000   1.0000   1.0000   1.0000   1.0000   1.0000
     1.0000   1.0000   1.0000   1.0000   1.0000   1.0000   1.0000   1.0000
     1.0000   1.0000   1.0000   1.0000   1.0000   1.0000   1.0000   1.0000
     1.0000   1.0000   1.0000   1.0000   1.0000   1.0000   1.0000   1.0000
     1.0000   1.0000   1.0000   0.5839   0.2186   0.1975  -0.0000  -0.0000
    -0.0000  -0.0000  -0.0000  -0.0000  -0.0000

     the Fermi energy is     6.3508 ev

!    total energy              =    -761.73649564 Ry
     estimated scf accuracy    <       0.00000045 Ry
     smearing contrib. (-TS)   =      -0.00062877 Ry
     internal energy E=F+TS    =    -761.73586687 Ry

     The total energy is F=E-TS. E is the sum of the following terms:
     one-electron contribution =    -427.73141298 Ry
     hartree contribution      =     248.32489961 Ry
     xc contribution           =    -129.29943924 Ry
     ewald contribution        =    -321.16442195 Ry
     one-center paw contrib.   =    -131.86549231 Ry
      -> PAW hartree energy AE =       3.97674482 Ry
      -> PAW hartree energy PS =      -3.96691125 Ry
      -> PAW xc energy AE      =    -138.10739189 Ry
      -> PAW xc energy PS      =       6.23206601 Ry
      -> total E_H with PAW    =     248.33473319 Ry
      -> total E_XC with PAW   =    -261.17476513 Ry

     convergence has been achieved in  25 iterations

     Forces acting on atoms (cartesian axes, Ry/au):

     atom    1 type  1   force =     0.00086267   -0.00164109   -0.00110517
     atom    2 type  1   force =    -0.00093728    0.00164331    0.00104995
     atom    3 type  2   force =     0.00035746   -0.00001863   -0.00003929
     atom    4 type  2   force =     0.00027096    0.00013024    0.00001290
     atom    5 type  3   force =    -0.00004445   -0.00004195    0.00003529
     atom    6 type  3   force =     0.00001693   -0.00001234    0.00002797
     atom    7 type  4   force =    -0.04714648   -0.01886063   -0.01340640
     atom    8 type  4   force =    -0.00002242   -0.04909015   -0.04359464
     atom    9 type  4   force =     0.00012642   -0.05719386   -0.03261709
     atom   10 type  4   force =    -0.04543500    0.01895629    0.01342377
     atom   11 type  4   force =    -0.00018913    0.05721020    0.03262594
     atom   12 type  4   force =     0.04527077   -0.01899142   -0.01356537
     atom   13 type  4   force =     0.04696130    0.01882777    0.01352281
     atom   14 type  4   force =    -0.00009174    0.04908227    0.04362932
     The non-local contrib.  to forces
     atom    1 type  1   force =     0.00171651    0.03239555    0.02330448
     atom    2 type  1   force =    -0.00181411   -0.03240632   -0.02332616
     atom    3 type  2   force =    -0.00031923   -0.00002818    0.00009339
     atom    4 type  2   force =    -0.00023480   -0.00018603    0.00002684
     atom    5 type  3   force =     0.00001187    0.00003880    0.00000948
     atom    6 type  3   force =    -0.00000842   -0.00001736   -0.00003796
     atom    7 type  4   force =    -0.04864215   -0.01654670   -0.01188592
     atom    8 type  4   force =     0.00023040   -0.00102448   -0.00925403
     atom    9 type  4   force =     0.00021476   -0.00947911    0.00138627
     atom   10 type  4   force =    -0.04605985    0.01746620    0.01231151
     atom   11 type  4   force =    -0.00027190    0.00950786   -0.00137287
     atom   12 type  4   force =     0.04598727   -0.01748945   -0.01242852
     atom   13 type  4   force =     0.04863380    0.01649800    0.01196825
     atom   14 type  4   force =    -0.00035677    0.00092758    0.00927195
     The ionic contribution  to forces
     atom    1 type  1   force =     0.00333223   -0.11474571   -0.08197886
     atom    2 type  1   force =    -0.00462568    0.11469253    0.08154950
     atom    3 type  2   force =     0.00269652    0.00094803   -0.00211245
     atom    4 type  2   force =     0.00160822    0.00466590   -0.00060456
     atom    5 type  3   force =    -0.00018477   -0.00155461    0.00006837
     atom    6 type  3   force =     0.00037631    0.00064912    0.00047097
     atom    7 type  4   force =     9.02547999    0.94037275    0.66380851
     atom    8 type  4   force =     0.00216316    4.46713021    5.72310375
     atom    9 type  4   force =     0.00150848    6.84246281    2.39888448
     atom   10 type  4   force =     9.05860609   -0.92961294   -0.67240456
     atom   11 type  4   force =    -0.00204150   -6.84198823   -2.39914238
     atom   12 type  4   force =    -9.06244184    0.92410159    0.68090198
     atom   13 type  4   force =    -9.02951356   -0.93457305   -0.66623876
     atom   14 type  4   force =     0.00303634   -4.47254841   -5.72630598
     The local contribution  to forces
     atom    1 type  1   force =    -0.00400374    0.08440672    0.06023187
     atom    2 type  1   force =     0.00530953   -0.08434260   -0.05983795
     atom    3 type  2   force =    -0.00203430   -0.00094596    0.00199336
     atom    4 type  2   force =    -0.00113467   -0.00436448    0.00059130
     atom    5 type  3   force =     0.00013033    0.00147914   -0.00004180
     atom    6 type  3   force =    -0.00035204   -0.00064636   -0.00041142
     atom    7 type  4   force =    -9.02697988   -0.94343162   -0.66581709
     atom    8 type  4   force =    -0.00244968   -4.51534527   -5.75778323
     atom    9 type  4   force =    -0.00161950   -6.89062314   -2.43300198
     atom   10 type  4   force =    -9.06076459    0.93190741    0.67401005
     atom   11 type  4   force =     0.00214452    6.89013810    2.43325409
     atom   12 type  4   force =     9.06450109   -0.92641015   -0.68253797
     atom   13 type  4   force =     9.03083804    0.93764497    0.66828859
     atom   14 type  4   force =    -0.00274478    4.52084438    5.76099983
     The core correction contribution to forces
     atom    1 type  1   force =    -0.00019447   -0.00370253   -0.00266268
     atom    2 type  1   force =     0.00020507    0.00370353    0.00266497
     atom    3 type  2   force =     0.00001730    0.00000378   -0.00001004
     atom    4 type  2   force =     0.00003219    0.00001865   -0.00000199
     atom    5 type  3   force =    -0.00000222   -0.00000524   -0.00000131
     atom    6 type  3   force =     0.00000144    0.00000217    0.00000603
     atom    7 type  4   force =     0.00289409    0.00068182    0.00049230
     atom    8 type  4   force =    -0.00001404    0.00020263    0.00029957
     atom    9 type  4   force =    -0.00001409    0.00037120    0.00013220
     atom   10 type  4   force =     0.00274251   -0.00073384   -0.00051289
     atom   11 type  4   force =     0.00001750   -0.00037286   -0.00013309
     atom   12 type  4   force =    -0.00273747    0.00073590    0.00051865
     atom   13 type  4   force =    -0.00289288   -0.00067976   -0.00049681
     atom   14 type  4   force =     0.00002067   -0.00019591   -0.00030012
     The Hubbard contrib.    to forces
     atom    1 type  1   force =     0.00000000    0.00000000    0.00000000
     atom    2 type  1   force =     0.00000000    0.00000000    0.00000000
     atom    3 type  2   force =     0.00000000    0.00000000    0.00000000
     atom    4 type  2   force =     0.00000000    0.00000000    0.00000000
     atom    5 type  3   force =     0.00000000    0.00000000    0.00000000
     atom    6 type  3   force =     0.00000000    0.00000000    0.00000000
     atom    7 type  4   force =     0.00000000    0.00000000    0.00000000
     atom    8 type  4   force =     0.00000000    0.00000000    0.00000000
     atom    9 type  4   force =     0.00000000    0.00000000    0.00000000
     atom   10 type  4   force =     0.00000000    0.00000000    0.00000000
     atom   11 type  4   force =     0.00000000    0.00000000    0.00000000
     atom   12 type  4   force =     0.00000000    0.00000000    0.00000000
     atom   13 type  4   force =     0.00000000    0.00000000    0.00000000
     atom   14 type  4   force =     0.00000000    0.00000000    0.00000000
     The SCF correction term to forces
     atom    1 type  1   force =     0.00001217    0.00000470    0.00000001
     atom    2 type  1   force =    -0.00001207   -0.00000401   -0.00000040
     atom    3 type  2   force =    -0.00000281    0.00000352   -0.00000354
     atom    4 type  2   force =     0.00000004   -0.00000399    0.00000130
     atom    5 type  3   force =     0.00000036   -0.00000022    0.00000056
     atom    6 type  3   force =    -0.00000035   -0.00000009    0.00000035
     atom    7 type  4   force =     0.00010149    0.00006294   -0.00000420
     atom    8 type  4   force =     0.00004774   -0.00005343    0.00003930
     atom    9 type  4   force =     0.00003679    0.00007418   -0.00001806
     atom   10 type  4   force =     0.00004085   -0.00007071    0.00001967
     atom   11 type  4   force =    -0.00003773   -0.00007486    0.00002019
     atom   12 type  4   force =    -0.00003824    0.00007052   -0.00001950
     atom   13 type  4   force =    -0.00010407   -0.00006256    0.00000154
     atom   14 type  4   force =    -0.00004718    0.00005446   -0.00003635

     Total force =     0.167344     Total SCF correction =     0.000267

     Computing stress (Cartesian axis) and pressure

          total   stress  (Ry/bohr**3)                   (kbar)     P=      -46.09
  -0.00011670   0.00000304  -0.00000007          -17.17        0.45       -0.01
   0.00000304  -0.00042103  -0.00002491            0.45      -61.94       -3.66
  -0.00000007  -0.00002491  -0.00040215           -0.01       -3.66      -59.16

     kinetic stress (kbar)   8226.66      0.18     -0.11
                                0.18   8163.99     10.84
                               -0.11     10.84   8157.14

     local   stress (kbar)  -3005.76      9.86      8.37
                                9.86 -10587.69   4646.01
                                8.37   4646.01 -13714.63

     nonloc. stress (kbar)   5430.64      0.62      0.26
                                0.62   5425.47     18.69
                                0.26     18.69   5412.81

     hartree stress (kbar)   3854.97     -5.70     -3.36
                               -5.70   7300.40  -2257.54
                               -3.36  -2257.54   8820.56

     exc-cor stress (kbar)    763.15      0.02     -0.00
                                0.02    763.59      0.75
                               -0.00      0.75    763.08

     corecor stress (kbar)  -3358.77     -0.05     -0.02
                               -0.05  -3359.77     -1.48
                               -0.02     -1.48  -3358.77

     ewald   stress (kbar) -11928.06     -4.50     -5.16
                               -4.50  -7767.92  -2420.94
                               -5.16  -2420.94  -6139.36

     hubbard stress (kbar)      0.00      0.00      0.00
                                0.00      0.00      0.00
                                0.00      0.00      0.00

     DFT-D   stress (kbar)      0.00      0.00      0.00
                                0.00      0.00      0.00
                                0.00      0.00      0.00

     XDM     stress (kbar)      0.00      0.00      0.00
                                0.00      0.00      0.00
                                0.00      0.00      0.00

     dft-nl  stress (kbar)      0.00      0.00      0.00
                                0.00      0.00      0.00
                                0.00      0.00      0.00

     TS-vdW  stress (kbar)      0.00      0.00      0.00
                                0.00      0.00      0.00
                                0.00      0.00      0.00

[...]

                                0.00      0.00      0.00

     Writing all to output data dir new_calculations/myprefix.save/

     General routines

     Parallel routines

     PAW routines

   This run was terminated on:   3:40:17  21May2023

   JOB DONE.