     Program PWSCF v.7.0 starts on 21May2023 at  2:41:53

     Reading input from espresso_3973.pwi
Warning: card &CELL ignored
Warning: card / ignored

     Current dimensions of program PWSCF are:
     Max number of different atomic species (ntypx) = 10
     Max number of k-points (npk) =  40000
     Max angular momentum in pseudopotentials (lmaxx) =  4

     gamma-point specific algorithms are used
     Message from routine setup:
     using ibrav=0 with symmetry is DISCOURAGED, use correct ibrav instead

     Subspace diagonalization in iterative solution of the eigenvalue problem:
     a serial algorithm will be used

     Using Slab Decomposition

     bravais-lattice index     =            0
     lattice parameter (alat)  =      10.8484  a.u.
     unit-cell volume          =     550.1626 (a.u.)^3
     number of atoms/cell      =            5
     number of atomic types    =            3
     number of electrons       =        56.00
     number of Kohn-Sham states=           34
     kinetic-energy cutoff     =      30.0000  Ry
     charge density cutoff     =     240.0000  Ry
     scf convergence threshold =      1.0E-06
     mixing beta               =       0.7000
     number of iterations used =            8  plain     mixing
     Exchange-correlation= PBE
                           (   1   4   3   4   0   0   0)

     celldm(1)=  10.848428  celldm(2)=   0.000000  celldm(3)=   0.000000
     celldm(4)=   0.000000  celldm(5)=   0.000000  celldm(6)=   0.000000

     crystal axes: (cart. coord. in units of alat)
               a(1) = (   1.000000   0.000000   0.000000 )
               a(2) = (   0.502904   0.864342   0.000000 )
               a(3) = (  -0.751452  -0.432171   0.498546 )

     reciprocal axes: (cart. coord. in units 2 pi/alat)
               b(1) = (  1.000000 -0.581835  1.002917 )
               b(2) = (  0.000000  1.156949  1.002917 )
               b(3) = (  0.000000  0.000000  2.005834 )

     PseudoPot. # 1 for Ca read from file:
     /home/pragov/projects/rrg-bengioy-ad/pragov/crystal_structure_design/SSSP/Ca_pbe_v1.uspp.F.UPF
     MD5 check sum: 403a4c14b9e4d4dfdc3024c9a3812218
     Pseudo is Ultrasoft + core correction, Zval = 10.0
     Generated by new atomic code, or converted to UPF format
     Using radial grid of  845 points,  6 beta functions with:
                l(1) =   0
                l(2) =   0
                l(3) =   1
                l(4) =   1
                l(5) =   2
                l(6) =   2
     Q(r) pseudized with  8 coefficients,  rinner =    1.500   1.500   1.500
                                                       1.500   1.500

     PseudoPot. # 2 for Cu read from file:
     /home/pragov/projects/rrg-bengioy-ad/pragov/crystal_structure_design/SSSP/Cu_pbe_v1.2.uspp.F.UPF
     MD5 check sum: 6e991ff952a84172a2a52a1c1e996048
     Pseudo is Ultrasoft + core correction, Zval = 19.0
     Generated by new atomic code, or converted to UPF format
     Using radial grid of  867 points,  6 beta functions with:
                l(1) =   0
                l(2) =   0
                l(3) =   1
                l(4) =   1
                l(5) =   2
                l(6) =   2
     Q(r) pseudized with  8 coefficients,  rinner =    1.150   1.150   1.150
                                                       1.150   1.150

     PseudoPot. # 3 for Si read from file:
     /home/pragov/projects/rrg-bengioy-ad/pragov/crystal_structure_design/SSSP/Si.pbe-n-rrkjus_psl.1.0.0.UPF
     MD5 check sum: 0b0bb1205258b0d07b9f9672cf965d36
     Pseudo is Ultrasoft + core correction, Zval =  4.0
     Generated using "atomic" code by A. Dal Corso  v.5.1
     Using radial grid of 1141 points,  6 beta functions with:
                l(1) =   0
                l(2) =   0
                l(3) =   1
                l(4) =   1
                l(5) =   2
                l(6) =   2
     Q(r) pseudized with 0 coefficients

     atomic species   valence    mass     pseudopotential
        Ca            10.00    40.07800     Ca( 1.00)
        Cu            19.00    63.54600     Cu( 1.00)
        Si             4.00    28.08500     Si( 1.00)

      4 Sym. Ops., with inversion, found

                                    s                        frac. trans.

      isym =  1     identity

 cryst.   s( 1) = (     1          0          0      )
                  (     0          1          0      )
                  (     0          0          1      )

 cart.    s( 1) = (  1.0000000  0.0000000  0.0000000 )
                  (  0.0000000  1.0000000  0.0000000 )
                  (  0.0000000  0.0000000  1.0000000 )

      isym =  2     180 deg rotation - cart. axis [0,0,1]

[...]

      isym =  3     inversion

[...]

      isym =  4     inv. 180 deg rotation - cart. axis [0,0,1]

 cryst.   s( 4) = (     1          0          0      )
                  (     0          1          0      )
                  (    -1         -1         -1      )

 cart.    s( 4) = (  1.0000000  0.0000000 -0.0000000 )
                  (  0.0000000  1.0000000 -0.0000000 )
                  (  0.0000000  0.0000000 -1.0000000 )

   Cartesian axes

     site n.     atom                  positions (alat units)
         1           Ca  tau(   1) = (   0.0000000   0.0000000   0.0000000  )
         2           Cu  tau(   2) = (   0.5000000   0.0000000   0.2492729  )
         3           Cu  tau(   3) = (   0.2514522   0.4321710   0.2492729  )
         4           Si  tau(   4) = (   0.9300633   0.5348929   0.0000000  )
         5           Si  tau(   5) = (   0.5728410   0.3294492   0.0000000  )

   Crystallographic axes

     site n.     atom                  positions (cryst. coord.)
         1           Ca  tau(   1) = (  0.0000000  0.0000000  0.0000000  )
         2           Cu  tau(   2) = (  0.7500000  0.2500000  0.5000000  )
         3           Cu  tau(   3) = (  0.2500000  0.7500000  0.5000000  )
         4           Si  tau(   4) = (  0.6188440  0.6188440  0.0000000  )
         5           Si  tau(   5) = (  0.3811560  0.3811560  0.0000000  )

     number of k points=     1  Methfessel-Paxton smearing, width (Ry)=  0.0010
                       cart. coord. in units 2pi/alat
        k(    1) = (   0.0000000   0.0000000   0.0000000), wk =   2.0000000

                       cryst. coord.
        k(    1) = (   0.0000000   0.0000000   0.0000000), wk =   2.0000000

     Check: negative core charge=   -0.000001

     Initial potential from superposition of free atoms

     starting charge      53.9934, renormalised to      56.0000
     Starting wfcs are   44 randomized atomic wfcs

     Self-consistent Calculation

     iteration #  1     ecut=    30.00 Ry     beta= 0.70
     Davidson diagonalization with overlap

     ethr =  1.00E-02,  avg # of iterations =  3.0

     total energy              =    -898.12862334 Ry
     estimated scf accuracy    <       8.35734473 Ry

[...]

     total energy              =    -904.24413359 Ry
     estimated scf accuracy    <       0.00006832 Ry

     iteration # 23     ecut=    30.00 Ry     beta= 0.70
     Davidson diagonalization with overlap

     ethr =  1.22E-07,  avg # of iterations =  1.0

     End of self-consistent calculation

          k = 0.0000 0.0000 0.0000 (   759 PWs)   bands (ev):

  -103.6642-103.4836 -60.9154 -60.7448 -60.6063 -60.5617 -60.5469 -60.3300
   -28.6776  -9.8530  -9.8286  -9.7984  -0.0434   3.9561   4.8261   6.2451
     6.5146   6.9539   6.9939   7.0520   7.0652   7.1359   7.2820   7.3069
     8.3314   9.4721   9.6252  11.6321  11.6345  11.6706  13.0628  14.1324
    15.0633  15.1930

     occupation numbers
     1.0000   1.0000   1.0000   1.0000   1.0000   1.0000   1.0000   1.0000
     1.0000   1.0000   1.0000   1.0000   1.0000   1.0000   1.0000   1.0000
     1.0000   1.0000   1.0000   1.0000   1.0000   1.0000   1.0000   1.0000
     1.0000   1.0000   1.0000   0.5746   0.4257  -0.0004  -0.0000  -0.0000
    -0.0000  -0.0000

     the Fermi energy is    11.6333 ev

!    total energy              =    -904.24413376 Ry
     estimated scf accuracy    <       0.00000096 Ry
     smearing contrib. (-TS)   =      -0.00054893 Ry
     internal energy E=F+TS    =    -904.24358483 Ry

     The total energy is F=E-TS. E is the sum of the following terms:
     one-electron contribution =    -791.93228194 Ry
     hartree contribution      =     418.31505069 Ry
     xc contribution           =    -101.73344000 Ry
     ewald contribution        =    -428.89291357 Ry

     convergence has been achieved in  23 iterations

     Forces acting on atoms (cartesian axes, Ry/au):

     atom    1 type  1   force =     0.00000000    0.00000000    0.00000000
     atom    2 type  2   force =     0.00000000    0.00000000   -0.00240369
     atom    3 type  2   force =     0.00000000    0.00000000    0.00240369
     atom    4 type  3   force =     0.07051138    0.03777090   -0.00000000
     atom    5 type  3   force =    -0.07051138   -0.03777090    0.00000000
     The non-local contrib.  to forces
     atom    1 type  1   force =     0.00000000    0.00000000    0.00000000
     atom    2 type  2   force =     0.00000000    0.00000000    0.01144786
     atom    3 type  2   force =     0.00000000    0.00000000   -0.01144786
     atom    4 type  3   force =     0.05908287    0.03112248   -0.00000000
     atom    5 type  3   force =    -0.05908287   -0.03112248    0.00000000
     The ionic contribution  to forces
     atom    1 type  1   force =     0.00000000    0.00000000   -0.00000000
     atom    2 type  2   force =     0.00000000   -0.00000000    0.00000000
     atom    3 type  2   force =    -0.00000000    0.00000000   -0.00000000
     atom    4 type  3   force =    -7.11657523   -4.09284577    0.00000000
     atom    5 type  3   force =     7.11657523    4.09284577   -0.00000000
     The local contribution  to forces
     atom    1 type  1   force =     0.00034351    0.00000542    0.00113914
     atom    2 type  2   force =    -0.00895813   -0.00564352   -0.01276957
     atom    3 type  2   force =     0.00737646    0.00464807    0.01524197
     atom    4 type  3   force =     7.13504352    4.10455378   -0.00130464
     atom    5 type  3   force =    -7.13504802   -4.10445863   -0.00000941
     The core correction contribution to forces
     atom    1 type  1   force =     0.00000317   -0.00000258    0.00002359
     atom    2 type  2   force =     0.00000207   -0.00002035   -0.00001723
     atom    3 type  2   force =    -0.00000267    0.00001968    0.00002106
     atom    4 type  3   force =    -0.00698611   -0.00496858    0.00125725
     atom    5 type  3   force =     0.00698317    0.00496982   -0.00130651
     The Hubbard contrib.    to forces
     atom    1 type  1   force =     0.00000000    0.00000000    0.00000000
     atom    2 type  2   force =     0.00000000    0.00000000    0.00000000
     atom    3 type  2   force =     0.00000000    0.00000000    0.00000000
     atom    4 type  3   force =     0.00000000    0.00000000    0.00000000
     atom    5 type  3   force =     0.00000000    0.00000000    0.00000000
     The SCF correction term to forces
     atom    1 type  1   force =    -0.00034594   -0.00008708   -0.00063807
     atom    2 type  2   force =     0.00262293    0.00159666   -0.00097390
     atom    3 type  2   force =    -0.00080683   -0.00057589   -0.00132062
     atom    4 type  3   force =    -0.00007763   -0.00006576    0.00021272
     atom    5 type  3   force =     0.00003716    0.00001989    0.00022459

     Total force =     0.113175     Total SCF correction =     0.003708

     Computing stress (Cartesian axis) and pressure

          total   stress  (Ry/bohr**3)                   (kbar)     P=     -781.15
  -0.00422978  -0.00099345   0.00000000         -622.22     -146.14        0.00
  -0.00099345  -0.00498020   0.00000000         -146.14     -732.61        0.00
   0.00000000   0.00000000  -0.00672054            0.00        0.00     -988.63

     kinetic stress (kbar)  19922.52    -23.83     -0.00
                              -23.83  19954.18     -0.00
                               -0.00     -0.00  19997.70

     local   stress (kbar)   3376.71  28606.02     54.74
                            28606.02 -29793.70      5.73
                               54.74      5.73 -45946.88

     nonloc. stress (kbar)  12484.19   -318.13     -0.00
                             -318.13  12498.97     -0.00
                               -0.00     -0.00  12216.24

     hartree stress (kbar)  24226.08 -13596.06    -25.35
                           -13596.06  40001.54     -6.39
                              -25.35     -6.39  47623.44

     exc-cor stress (kbar)  -5491.34     -1.06     -0.43
                               -1.06  -5490.79     -0.01
                               -0.43     -0.01  -5488.73

     corecor stress (kbar)  -2580.89      1.64      0.20
                                1.64  -2582.77     -0.25
                                0.20     -0.25  -2590.51

     ewald   stress (kbar) -52559.49 -14814.73      0.00
                           -14814.73 -35320.04      0.00
                                0.00      0.00 -26799.88

     hubbard stress (kbar)      0.00      0.00      0.00
                                0.00      0.00      0.00
                                0.00      0.00      0.00

     DFT-D   stress (kbar)      0.00      0.00      0.00
                                0.00      0.00      0.00
                                0.00      0.00      0.00

     XDM     stress (kbar)      0.00      0.00      0.00
                                0.00      0.00      0.00
                                0.00      0.00      0.00

     dft-nl  stress (kbar)      0.00      0.00      0.00
                                0.00      0.00      0.00
                                0.00      0.00      0.00

     TS-vdW  stress (kbar)      0.00      0.00      0.00
                                0.00      0.00      0.00
                                0.00      0.00      0.00

[...]

                                0.00      0.00      0.00

     Writing all to output data dir new_calculations/myprefix.save/

     General routines

     Parallel routines

   This run was terminated on:   2:42: 4  21May2023

   JOB DONE.