     Program PWSCF v.7.0 starts on 20May2023 at 21:49:39

     Reading input from espresso_1756.pwi
Warning: card &CELL ignored
Warning: card / ignored

     Current dimensions of program PWSCF are:
     Max number of different atomic species (ntypx) = 10
     Max number of k-points (npk) =  40000
     Max angular momentum in pseudopotentials (lmaxx) =  4
     file Ba.pbe-spn-kjpaw_psl.1.0.0.UPF: wavefunction(s)  5S 6S renormalized
     file O.pbe-n-kjpaw_psl.0.1.UPF: wavefunction(s)  2P renormalized

     gamma-point specific algorithms are used
     Message from routine setup:
     using ibrav=0 with symmetry is DISCOURAGED, use correct ibrav instead

     Subspace diagonalization in iterative solution of the eigenvalue problem:
     a serial algorithm will be used

     Using Slab Decomposition

     bravais-lattice index     =            0
     lattice parameter (alat)  =      11.7236  a.u.
     unit-cell volume          =    1139.3738 (a.u.)^3
     number of atoms/cell      =           10
     number of atomic types    =            4
     number of electrons       =        81.00
     number of Kohn-Sham states=           49
     kinetic-energy cutoff     =      30.0000  Ry
     charge density cutoff     =     240.0000  Ry
     scf convergence threshold =      1.0E-06
     mixing beta               =       0.7000
     number of iterations used =            8  plain     mixing
     Exchange-correlation= SLA  PW   PBX  PBC
                           (   1   4   3   4   0   0   0)

     celldm(1)=  11.723584  celldm(2)=   0.000000  celldm(3)=   0.000000
     celldm(4)=   0.000000  celldm(5)=   0.000000  celldm(6)=   0.000000

     crystal axes: (cart. coord. in units of alat)
               a(1) = (   1.000000   0.000000   0.000000 )
               a(2) = (   0.500000   0.866025   0.000000 )
               a(3) = (   0.500000   0.288675   0.816497 )

     reciprocal axes: (cart. coord. in units 2 pi/alat)
               b(1) = (  1.000000 -0.577350 -0.408248 )
               b(2) = (  0.000000  1.154701 -0.408248 )
               b(3) = (  0.000000  0.000000  1.224745 )

     PseudoPot. # 1 for Ba read from file:
     /home/pragov/projects/rrg-bengioy-ad/pragov/crystal_structure_design/SSSP/Ba.pbe-spn-kjpaw_psl.1.0.0.UPF
     MD5 check sum: c432291d3e53af55f19d5e8866385beb
     Pseudo is Projector augmented-wave + core cor, Zval = 10.0
     Generated using "atomic" code by A. Dal Corso  v.5.1
     Shape of augmentation charge: PSQ
     Using radial grid of 1251 points,  7 beta functions with:
                l(1) =   0
                l(2) =   0
                l(3) =   0
                l(4) =   1
                l(5) =   1
                l(6) =   2
                l(7) =   2
     Q(r) pseudized with 0 coefficients

     PseudoPot. # 2 for Ca read from file:
     /home/pragov/projects/rrg-bengioy-ad/pragov/crystal_structure_design/SSSP/Ca_pbe_v1.uspp.F.UPF
     MD5 check sum: 403a4c14b9e4d4dfdc3024c9a3812218
     Pseudo is Ultrasoft + core correction, Zval = 10.0
     Generated by new atomic code, or converted to UPF format
     Using radial grid of  845 points,  6 beta functions with:
                l(1) =   0
                l(2) =   0
                l(3) =   1
                l(4) =   1
                l(5) =   2
                l(6) =   2
     Q(r) pseudized with  8 coefficients,  rinner =    1.500   1.500   1.500
                                                       1.500   1.500

     PseudoPot. # 3 for Bi read from file:
     /home/pragov/projects/rrg-bengioy-ad/pragov/crystal_structure_design/SSSP/Bi_pbe_v1.uspp.F.UPF
     MD5 check sum: cceb9f28ec65b6d7ff33140f5b0b1758
     Pseudo is Ultrasoft + core correction, Zval = 15.0
     Generated by new atomic code, or converted to UPF format
     Using radial grid of  899 points,  6 beta functions with:
                l(1) =   0
                l(2) =   0
                l(3) =   1
                l(4) =   1
                l(5) =   2
                l(6) =   2
     Q(r) pseudized with  6 coefficients,  rinner =    1.000   1.000   1.000
                                                       1.000   1.000

     PseudoPot. # 4 for O  read from file:
     /home/pragov/projects/rrg-bengioy-ad/pragov/crystal_structure_design/SSSP/O.pbe-n-kjpaw_psl.0.1.UPF
     MD5 check sum: 0234752ac141de4415c5fc33072bef88
     Pseudo is Projector augmented-wave + core cor, Zval =  6.0
     Generated using "atomic" code by A. Dal Corso  v.5.0.99 svn rev. 10869
     Shape of augmentation charge: BESSEL
     Using radial grid of 1095 points,  4 beta functions with:
                l(1) =   0
                l(2) =   0
                l(3) =   1
                l(4) =   1
     Q(r) pseudized with 0 coefficients

     atomic species   valence    mass     pseudopotential
        Ba            10.00   137.32700     Ba( 1.00)
        Ca            10.00    40.07800     Ca( 1.00)
        Bi            15.00   208.98040     Bi( 1.00)
        O              6.00    15.99900     O ( 1.00)

     12 Sym. Ops., with inversion, found

                                    s                        frac. trans.

      isym =  1     identity

 cryst.   s( 1) = (     1          0          0      )
                  (     0          1          0      )
                  (     0          0          1      )

 cart.    s( 1) = (  1.0000000  0.0000000 -0.0000000 )
                  (  0.0000000  1.0000000 -0.0000000 )
                  (  0.0000000  0.0000000  1.0000000 )

      isym =  2     180 deg rotation - cart. axis [1,0,0]

[...]

      isym =  3     120 deg rotation - cryst. axis [0,0,1]

[...]

      isym =  6     180 deg rotation - cryst. axis [1,1,0]

[...]

      isym =  7     inversion

[...]

      isym =  8     inv. 180 deg rotation - cart. axis [1,0,0]

[...]

      isym =  9     inv. 120 deg rotation - cryst. axis [0,0,1]

 cryst.   s( 9) = (     1         -1          0      )
                  (     1          0          0      )
                  (     1          0         -1      )

 cart.    s( 9) = (  0.5000000  0.8660254  0.0000000 )
                  ( -0.8660254  0.5000000  0.0000000 )
                  (  0.0000000  0.0000000 -1.0000000 )

[...]

 cryst.   s(10) = (     0          1          0      )
                  (    -1          1          0      )
                  (     0          1         -1      )

 cart.    s(10) = (  0.5000000 -0.8660254 -0.0000000 )
                  (  0.8660254  0.5000000  0.0000000 )
                  (  0.0000000  0.0000000 -1.0000000 )

[...]

      isym = 12     inv. 180 deg rotation - cryst. axis [1,1,0]

 cryst.   s(12) = (     1         -1          0      )
                  (     0         -1          0      )
                  (     0         -1          1      )

 cart.    s(12) = (  0.5000000 -0.8660254 -0.0000000 )
                  ( -0.8660254 -0.5000000 -0.0000000 )
                  (  0.0000000  0.0000000  1.0000000 )

   Cartesian axes

     site n.     atom                  positions (alat units)
         1           Ba  tau(   1) = (   0.5000000   0.2886751   0.2041241  )
         2           Ba  tau(   2) = (   1.5000000   0.8660254   0.6123724  )
         3           Ca  tau(   3) = (   1.0000000   0.5773503   0.4082483  )
         4           Bi  tau(   4) = (   0.0000000   0.0000000   0.0000000  )
         5           O   tau(   5) = (   1.0000000   0.2783625   0.1968320  )
         6           O   tau(   6) = (   1.0000000   0.8763380   0.6196646  )
         7           O   tau(   7) = (   0.7410690   0.7268442   0.1968320  )
         8           O   tau(   8) = (   1.2589310   0.4278564   0.6196646  )
         9           O   tau(   9) = (   0.7410690   0.4278564   0.6196646  )
        10           O   tau(  10) = (   1.2589310   0.7268442   0.1968320  )

   Crystallographic axes

     site n.     atom                  positions (cryst. coord.)
         1           Ba  tau(   1) = (  0.2500000  0.2500000  0.2500000  )
         2           Ba  tau(   2) = (  0.7500000  0.7500000  0.7500000  )
         3           Ca  tau(   3) = (  0.5000000  0.5000000  0.5000000  )
         4           Bi  tau(   4) = (  0.0000000  0.0000000  0.0000000  )
         5           O   tau(   5) = (  0.7589310  0.2410690  0.2410690  )
         6           O   tau(   6) = (  0.2410690  0.7589310  0.7589310  )
         7           O   tau(   7) = (  0.2410690  0.7589310  0.2410690  )
         8           O   tau(   8) = (  0.7589310  0.2410690  0.7589310  )
         9           O   tau(   9) = (  0.2410690  0.2410690  0.7589310  )
        10           O   tau(  10) = (  0.7589310  0.7589310  0.2410690  )

     number of k points=     1  Methfessel-Paxton smearing, width (Ry)=  0.0010
                       cart. coord. in units 2pi/alat
        k(    1) = (   0.0000000   0.0000000   0.0000000), wk =   2.0000000

                       cryst. coord.
        k(    1) = (   0.0000000   0.0000000   0.0000000), wk =   2.0000000

     Check: negative core charge=   -0.000010

     Initial potential from superposition of free atoms

     starting charge      79.9605, renormalised to      81.0000

     negative rho (up, down):  3.912E-02 0.000E+00
     Starting wfcs are   53 randomized atomic wfcs
     Checking if some PAW data can be deallocated...

     Self-consistent Calculation

     iteration #  1     ecut=    30.00 Ry     beta= 0.70
     Davidson diagonalization with overlap

     ethr =  1.00E-02,  avg # of iterations =  5.0
     Minimization algorithm failed to find Fermi energy: reverting to bisection
     Possible cause: smearing is larger than the electronic band-gap.

     negative rho (up, down):  3.848E-02 0.000E+00

     total energy              =   -1381.28322502 Ry
     estimated scf accuracy    <       2.09894559 Ry

[...]

     ethr =  2.59E-03,  avg # of iterations =  3.0

[...]

     ethr =  3.11E-06,  avg # of iterations =  1.0

[...]

     total energy              =   -1382.28075563 Ry
     estimated scf accuracy    <       0.00000292 Ry

     iteration # 39     ecut=    30.00 Ry     beta= 0.70
     Davidson diagonalization with overlap

     ethr =  1.45E-09,  avg # of iterations =  1.0
     Minimization algorithm failed to find Fermi energy: reverting to bisection
     Possible cause: smearing is larger than the electronic band-gap.

[...]

     End of self-consistent calculation

          k = 0.0000 0.0000 0.0000 (  1572 PWs)   bands (ev):

   -28.9523 -18.4167 -18.3561 -13.4624 -13.4624 -13.0572 -13.0572 -13.0572
   -10.3746 -10.3746 -10.3746  -8.8887  -7.3161  -7.3161  -7.3161  -6.7231
    -6.7231  -3.7081  -3.7081  -3.7081  -3.4708  -3.4708  -3.4708  -0.0138
     5.2206   5.2206   5.2206   6.6343   6.6343   6.6343   7.4117   7.4117
     7.6253   7.6253   7.6253   7.9568   7.9568   7.9568   8.4816   8.4816
     8.4816  10.4373  12.1909  12.1909  13.0348  13.0348  13.0348  13.8154
    13.8233

     occupation numbers
     1.0000   1.0000   1.0000   1.0000   1.0000   1.0000   1.0000   1.0000
     1.0000   1.0000   1.0000   1.0000   1.0000   1.0000   1.0000   1.0000
     1.0000   1.0000   1.0000   1.0000   1.0000   1.0000   1.0000   1.0000
     1.0000   1.0000   1.0000   1.0000   1.0000   1.0000   1.0000   1.0000
     1.0000   1.0000   1.0000   1.0000   1.0000   1.0000   0.8337   0.8335
     0.8327  -0.0000  -0.0000  -0.0000  -0.0000  -0.0000  -0.0000  -0.0000
    -0.0000

     the Fermi energy is     8.4875 ev

!    total energy              =   -1382.28075540 Ry
     estimated scf accuracy    <       0.00000044 Ry
     smearing contrib. (-TS)   =      -0.00043272 Ry
     internal energy E=F+TS    =   -1382.28032268 Ry

     The total energy is F=E-TS. E is the sum of the following terms:
     one-electron contribution =    -154.72987579 Ry
     hartree contribution      =     130.24140565 Ry
     xc contribution           =    -162.39750802 Ry
     ewald contribution        =    -388.34926760 Ry
     one-center paw contrib.   =    -807.04507691 Ry
      -> PAW hartree energy AE =     233.90271456 Ry
      -> PAW hartree energy PS =    -233.01710141 Ry
      -> PAW xc energy AE      =    -891.30546502 Ry
      -> PAW xc energy PS      =      83.37477496 Ry
      -> total E_H with PAW    =     131.12701880 Ry
      -> total E_XC with PAW   =    -970.32819809 Ry

     convergence has been achieved in  39 iterations

     negative rho (up, down):  4.097E-02 0.000E+00

     Forces acting on atoms (cartesian axes, Ry/au):

     atom    1 type  1   force =     0.00000000   -0.00000000   -0.00000099
     atom    2 type  1   force =    -0.00000000    0.00000000    0.00000099
     atom    3 type  2   force =    -0.00000000    0.00000000    0.00000000
     atom    4 type  3   force =     0.00000000    0.00000000    0.00000000
     atom    5 type  4   force =     0.00000000   -0.01650176   -0.01166805
     atom    6 type  4   force =     0.00000000    0.01650176    0.01166805
     atom    7 type  4   force =    -0.01429094    0.00825088   -0.01166805
     atom    8 type  4   force =     0.01429094   -0.00825088    0.01166805
     atom    9 type  4   force =    -0.01429094   -0.00825088    0.01166805
     atom   10 type  4   force =     0.01429094    0.00825088   -0.01166805
     The non-local contrib.  to forces
     atom    1 type  1   force =    -0.00000000    0.00000000   -0.00003862
     atom    2 type  1   force =    -0.00000000   -0.00000000    0.00003862
     atom    3 type  2   force =     0.00000000    0.00000000    0.00000000
     atom    4 type  3   force =     0.00000000    0.00000000    0.00000000
     atom    5 type  4   force =     0.00000000   -0.56432735   -0.39904257
     atom    6 type  4   force =     0.00000000    0.56432735    0.39904257
     atom    7 type  4   force =    -0.48872183    0.28216368   -0.39904257
     atom    8 type  4   force =     0.48872183   -0.28216368    0.39904257
     atom    9 type  4   force =    -0.48872183   -0.28216368    0.39904257
     atom   10 type  4   force =     0.48872183    0.28216368   -0.39904257
     The ionic contribution  to forces
     atom    1 type  1   force =     0.00000000    0.00000000    0.00000000
     atom    2 type  1   force =    -0.00000000   -0.00000000    0.00000000
     atom    3 type  2   force =     0.00000000   -0.00000000   -0.00000000
     atom    4 type  3   force =    -0.00000000    0.00000000   -0.00000000
     atom    5 type  4   force =    -0.00000000    3.96952765    2.80687992
     atom    6 type  4   force =    -0.00000000   -3.96952765   -2.80687992
     atom    7 type  4   force =     3.43771179   -1.98476383    2.80687992
     atom    8 type  4   force =    -3.43771179    1.98476383   -2.80687992
     atom    9 type  4   force =     3.43771179    1.98476383   -2.80687992
     atom   10 type  4   force =    -3.43771179   -1.98476383    2.80687992
     The local contribution  to forces
     atom    1 type  1   force =    -0.00045471    0.00035263    0.00000909
     atom    2 type  1   force =    -0.00021674    0.00041924   -0.00004473
     atom    3 type  2   force =    -0.00026399    0.00038953   -0.00036994
     atom    4 type  3   force =     0.00037552   -0.00054130    0.00051355
     atom    5 type  4   force =    -0.00001251   -3.42795224   -2.42396012
     atom    6 type  4   force =    -0.00001558    3.42800341    2.42392627
     atom    7 type  4   force =    -2.96875063    1.71402685   -2.42398396
     atom    8 type  4   force =     2.96867361   -1.71395999    2.42390570
     atom    9 type  4   force =    -2.96872184   -1.71396620    2.42392063
     atom   10 type  4   force =     2.96870603    1.71401280   -2.42397278
     The core correction contribution to forces
     atom    1 type  1   force =    -0.00000591    0.00000479   -0.00000008
     atom    2 type  1   force =    -0.00000743    0.00000398   -0.00000039
     atom    3 type  2   force =    -0.00000105    0.00000156   -0.00000163
     atom    4 type  3   force =    -0.00000420    0.00000607   -0.00000565
     atom    5 type  4   force =    -0.00000026    0.00627431    0.00443600
     atom    6 type  4   force =    -0.00000026   -0.00627334   -0.00443663
     atom    7 type  4   force =     0.00543244   -0.00313617    0.00443547
     atom    8 type  4   force =    -0.00543377    0.00313740   -0.00443688
     atom    9 type  4   force =     0.00543302    0.00313731   -0.00443670
     atom   10 type  4   force =    -0.00543329   -0.00313638    0.00443574
     The Hubbard contrib.    to forces
     atom    1 type  1   force =     0.00000000    0.00000000    0.00000000
     atom    2 type  1   force =     0.00000000    0.00000000    0.00000000
     atom    3 type  2   force =     0.00000000    0.00000000    0.00000000
     atom    4 type  3   force =     0.00000000    0.00000000    0.00000000
     atom    5 type  4   force =     0.00000000    0.00000000    0.00000000
     atom    6 type  4   force =     0.00000000    0.00000000    0.00000000
     atom    7 type  4   force =     0.00000000    0.00000000    0.00000000
     atom    8 type  4   force =     0.00000000    0.00000000    0.00000000
     atom    9 type  4   force =     0.00000000    0.00000000    0.00000000
     atom   10 type  4   force =     0.00000000    0.00000000    0.00000000
     The SCF correction term to forces
     atom    1 type  1   force =     0.00006628   -0.00004995    0.00001629
     atom    2 type  1   force =     0.00002715   -0.00006643   -0.00000482
     atom    3 type  2   force =     0.00024267   -0.00035439    0.00033685
     atom    4 type  3   force =    -0.00039569    0.00056901   -0.00054010
     atom    5 type  4   force =    -0.00000503    0.00001128   -0.00000119
     atom    6 type  4   force =    -0.00000164   -0.00000378   -0.00001105
     atom    7 type  4   force =    -0.00000041   -0.00000041    0.00000158
     atom    8 type  4   force =     0.00000962    0.00000505    0.00000046
     atom    9 type  4   force =    -0.00000695    0.00000711   -0.00000711
     atom   10 type  4   force =    -0.00000337    0.00000384    0.00000156

     Total force =     0.049505     Total SCF correction =     0.001041

     Computing stress (Cartesian axis) and pressure

     negative rho (up, down):  4.097E-02 0.000E+00
          total   stress  (Ry/bohr**3)                   (kbar)     P=     -178.12
  -0.00121090  -0.00000000   0.00000000         -178.13       -0.00        0.00
   0.00000000  -0.00121090  -0.00000000            0.00     -178.13       -0.00
   0.00000000  -0.00000000  -0.00121062            0.00       -0.00     -178.09

     kinetic stress (kbar)  14999.19      0.00     -0.00
                                0.00  14999.19      0.00
                               -0.00      0.00  14999.10

     local   stress (kbar)  -6803.98      0.13     -0.05
                                0.13  -6803.21      0.14
                               -0.05      0.14  -6803.42

     nonloc. stress (kbar)   7268.99      0.00     -0.00
                                0.00   7268.99      0.00
                                0.00      0.00   7268.99

     hartree stress (kbar)   5605.37     -0.06      0.05
                               -0.06   5605.01     -0.14
                                0.05     -0.14   5605.14

     exc-cor stress (kbar)   5521.50     -0.00     -0.00
                               -0.00   5521.50      0.00
                               -0.00      0.00   5521.50

     corecor stress (kbar) -10056.09      0.00      0.00
                                0.00 -10056.09     -0.00
                                0.00     -0.00 -10056.09

     ewald   stress (kbar) -16713.32      0.00     -0.00
                                0.00 -16713.32      0.00
                               -0.00      0.00 -16713.32

     hubbard stress (kbar)      0.00      0.00      0.00
                                0.00      0.00      0.00
                                0.00      0.00      0.00

     DFT-D   stress (kbar)      0.00      0.00      0.00
                                0.00      0.00      0.00
                                0.00      0.00      0.00

     XDM     stress (kbar)      0.00      0.00      0.00
                                0.00      0.00      0.00
                                0.00      0.00      0.00

     dft-nl  stress (kbar)      0.00      0.00      0.00
                                0.00      0.00      0.00
                                0.00      0.00      0.00

     TS-vdW  stress (kbar)      0.00      0.00      0.00
                                0.00      0.00      0.00
                                0.00      0.00      0.00

[...]

                                0.00      0.00      0.00

     Writing all to output data dir new_calculations/myprefix.save/

     General routines

     Parallel routines

     PAW routines

   This run was terminated on:  21:50:53  20May2023

   JOB DONE.