     Program PWSCF v.7.0 starts on 20May2023 at  1:23:25

     Reading input from espresso_5029.pwi
Warning: card &CELL ignored
Warning: card / ignored

     Current dimensions of program PWSCF are:
     Max number of different atomic species (ntypx) = 10
     Max number of k-points (npk) =  40000
     Max angular momentum in pseudopotentials (lmaxx) =  4
     file Cd.pbe-dn-rrkjus_psl.0.3.1.UPF: wavefunction(s)  4D renormalized

     gamma-point specific algorithms are used
     Message from routine setup:
     using ibrav=0 with symmetry is DISCOURAGED, use correct ibrav instead

     Subspace diagonalization in iterative solution of the eigenvalue problem:
     a serial algorithm will be used

     Using Slab Decomposition

     bravais-lattice index     =            0
     lattice parameter (alat)  =      11.2326  a.u.
     unit-cell volume          =    2061.7839 (a.u.)^3
     number of atoms/cell      =           12
     number of atomic types    =            2
     number of electrons       =       192.00
     number of Kohn-Sham states=          115
     kinetic-energy cutoff     =      30.0000  Ry
     charge density cutoff     =     240.0000  Ry
     scf convergence threshold =      1.0E-06
     mixing beta               =       0.7000
     number of iterations used =            8  plain     mixing
     Exchange-correlation= PBE
                           (   1   4   3   4   0   0   0)

     celldm(1)=  11.232611  celldm(2)=   0.000000  celldm(3)=   0.000000
     celldm(4)=   0.000000  celldm(5)=   0.000000  celldm(6)=   0.000000

     crystal axes: (cart. coord. in units of alat)
               a(1) = (   1.000000   0.000000   0.000000 )
               a(2) = (  -0.500000   0.866025   0.000000 )
               a(3) = (   0.000000   0.000000   1.679849 )

     reciprocal axes: (cart. coord. in units 2 pi/alat)
               b(1) = (  1.000000  0.577350  0.000000 )
               b(2) = (  0.000000  1.154700  0.000000 )
               b(3) = (  0.000000  0.000000  0.595291 )

     PseudoPot. # 1 for Yb read from file:
     /home/pragov/projects/rrg-bengioy-ad/pragov/crystal_structure_design/SSSP/Yb.GGA-PBE-paw-v1.0.UPF
     MD5 check sum: 43b6465ad8021f06e3edb42ae292e187
     Pseudo is Projector augmented-wave + core cor, Zval = 24.0
     Generated using ATOMPAW code
     Shape of augmentation charge: BESSEL
     Using radial grid of 1117 points,  8 beta functions with:
                l(1) =   0
                l(2) =   0
                l(3) =   1
                l(4) =   1
                l(5) =   2
                l(6) =   2
                l(7) =   3
                l(8) =   3
     Q(r) pseudized with 0 coefficients

     PseudoPot. # 2 for Cd read from file:
     /home/pragov/projects/rrg-bengioy-ad/pragov/crystal_structure_design/SSSP/Cd.pbe-dn-rrkjus_psl.0.3.1.UPF
     MD5 check sum: 558e9f355611b531a870a69ef6ace9e2
     Pseudo is Ultrasoft + core correction, Zval = 12.0
     Generated using "atomic" code by A. Dal Corso  v.5.0.99 svn rev. 10869
     Using radial grid of 1239 points,  6 beta functions with:
                l(1) =   0
                l(2) =   0
                l(3) =   1
                l(4) =   1
                l(5) =   2
                l(6) =   2
     Q(r) pseudized with 0 coefficients

     atomic species   valence    mass     pseudopotential
        Yb            24.00   173.05400     Yb( 1.00)
        Cd            12.00   112.41400     Cd( 1.00)

     24 Sym. Ops., with inversion, found (12 have fractional translation)

                                    s                        frac. trans.

      isym =  1     identity

 cryst.   s( 1) = (     1          0          0      )
                  (     0          1          0      )
                  (     0          0          1      )

 cart.    s( 1) = (  1.0000000 -0.0000000  0.0000000 )
                  (  0.0000000  1.0000000  0.0000000 )
                  (  0.0000000  0.0000000  1.0000000 )

      isym =  2     180 deg rotation - cart. axis [0,0,1]

 cryst.   s( 2) = (    -1          0          0      )    f =(  0.0000000 )
                  (     0         -1          0      )       ( -0.0000000 )
                  (     0          0          1      )       ( -0.5000000 )

 cart.    s( 2) = ( -1.0000000  0.0000000  0.0000000 )    f =(  0.0000000 )
                  (  0.0000000 -1.0000000  0.0000000 )       ( -0.0000000 )
                  (  0.0000000  0.0000000  1.0000000 )       ( -0.8399247 )

[...]

      isym =  4     180 deg rotation - cart. axis [1,0,0]

[...]

      isym =  5      60 deg rotation - cryst. axis [0,0,1]

[...]

 cryst.   s( 8) = (    -1         -1          0      )
                  (     1          0          0      )
                  (     0          0          1      )

 cart.    s( 8) = ( -0.5000001  0.8660254  0.0000000 )
                  ( -0.8660254 -0.4999999  0.0000000 )
                  (  0.0000000  0.0000000  1.0000000 )

[...]

 cryst.   s( 9) = (     0         -1          0      )    f =(  0.0000000 )
                  (    -1          0          0      )       (  0.0000000 )
                  (     0          0         -1      )       (  0.5000000 )

 cart.    s( 9) = (  0.4999999 -0.8660254  0.0000000 )    f =(  0.0000000 )
                  ( -0.8660254 -0.4999999  0.0000000 )       (  0.0000000 )
                  (  0.0000000  0.0000000 -1.0000000 )       (  0.8399247 )

[...]

 cryst.   s(10) = (     1          1          0      )    f =(  0.0000000 )
                  (     0         -1          0      )       ( -0.0000010 )
                  (     0          0         -1      )       (  0.5000000 )

 cart.    s(10) = (  0.5000001  0.8660253  0.0000000 )    f =(  0.0000005 )
                  (  0.8660254 -0.5000001  0.0000000 )       ( -0.0000009 )
                  (  0.0000000  0.0000000 -1.0000000 )       (  0.8399247 )

[...]

 cryst.   s(11) = (    -1         -1          0      )
                  (     0          1          0      )
                  (     0          0         -1      )

 cart.    s(11) = ( -0.5000001 -0.8660253  0.0000000 )
                  ( -0.8660254  0.5000001  0.0000000 )
                  (  0.0000000  0.0000000 -1.0000000 )

      isym = 12     180 deg rotation - cryst. axis [1,1,0]

[...]

      isym = 13     inversion

[...]

      isym = 14     inv. 180 deg rotation - cart. axis [0,0,1]

[...]

      isym = 16     inv. 180 deg rotation - cart. axis [1,0,0]

[...]

      isym = 17     inv.  60 deg rotation - cryst. axis [0,0,1]

[...]

 cryst.   s(22) = (    -1         -1          0      )    f =(  0.0000000 )
                  (     0          1          0      )       ( -0.0000010 )
                  (     0          0          1      )       ( -0.5000000 )

 cart.    s(22) = ( -0.5000001 -0.8660253  0.0000000 )    f =(  0.0000005 )
                  ( -0.8660254  0.5000001  0.0000000 )       ( -0.0000009 )
                  (  0.0000000  0.0000000  1.0000000 )       ( -0.8399247 )

[...]

      isym = 24     inv. 180 deg rotation - cryst. axis [1,1,0]

 cryst.   s(24) = (     0         -1          0      )
                  (    -1          0          0      )
                  (     0          0          1      )

 cart.    s(24) = (  0.4999999 -0.8660254  0.0000000 )
                  ( -0.8660254 -0.4999999  0.0000000 )
                  (  0.0000000  0.0000000  1.0000000 )

   Cartesian axes

     site n.     atom                  positions (alat units)
         1           Yb  tau(   1) = (  -0.0000005   0.5773506   0.7413747  )
         2           Yb  tau(   2) = (   0.5000005   0.2886749   0.9384748  )
         3           Yb  tau(   3) = (   0.5000005   0.2886749   1.5812994  )
         4           Yb  tau(   4) = (  -0.0000005   0.5773506   0.0985500  )
         5           Cd  tau(   5) = (   0.0000000   0.0000000   0.8399247  )
         6           Cd  tau(   6) = (   0.0000000   0.0000000   0.0000000  )
         7           Cd  tau(   7) = (   0.7445080   0.1475084   0.4199624  )
         8           Cd  tau(   8) = (   0.5000000   0.5710087   0.4199624  )
         9           Cd  tau(   9) = (   0.2554920   0.1475084   0.4199624  )
        10           Cd  tau(  10) = (  -0.2445080   0.7185171   1.2598871  )
        11           Cd  tau(  11) = (   0.0000000   0.2950168   1.2598871  )
        12           Cd  tau(  12) = (   0.2445080   0.7185171   1.2598871  )

   Crystallographic axes

     site n.     atom                  positions (cryst. coord.)
         1           Yb  tau(   1) = (  0.3333330  0.6666670  0.4413340  )
         2           Yb  tau(   2) = (  0.6666670  0.3333330  0.5586660  )
         3           Yb  tau(   3) = (  0.6666670  0.3333330  0.9413340  )
         4           Yb  tau(   4) = (  0.3333330  0.6666670  0.0586660  )
         5           Cd  tau(   5) = (  0.0000000  0.0000000  0.5000000  )
         6           Cd  tau(   6) = (  0.0000000  0.0000000  0.0000000  )
         7           Cd  tau(   7) = (  0.8296720  0.1703280  0.2500000  )
         8           Cd  tau(   8) = (  0.8296720  0.6593440  0.2500000  )
         9           Cd  tau(   9) = (  0.3406560  0.1703280  0.2500000  )
        10           Cd  tau(  10) = (  0.1703280  0.8296720  0.7500000  )
        11           Cd  tau(  11) = (  0.1703280  0.3406560  0.7500000  )
        12           Cd  tau(  12) = (  0.6593440  0.8296720  0.7500000  )

     number of k points=     1  Methfessel-Paxton smearing, width (Ry)=  0.0010
                       cart. coord. in units 2pi/alat
        k(    1) = (   0.0000000   0.0000000   0.0000000), wk =   2.0000000

                       cryst. coord.
        k(    1) = (   0.0000000   0.0000000   0.0000000), wk =   2.0000000

     Check: negative core charge=   -0.000001

     Initial potential from superposition of free atoms

     starting charge     191.9449, renormalised to     192.0000
     Starting wfcs are  200 randomized atomic wfcs
     Checking if some PAW data can be deallocated...

     Self-consistent Calculation

     iteration #  1     ecut=    30.00 Ry     beta= 0.70
     Davidson diagonalization with overlap

     ethr =  1.00E-02,  avg # of iterations =  2.0

     Threshold (ethr) on eigenvalues was too large:
     Diagonalizing with lowered threshold

     Davidson diagonalization with overlap

[...]

     total energy              =   -5019.99033160 Ry
     estimated scf accuracy    <       1.39991663 Ry

[...]

     total energy              =   -5021.66016221 Ry
     estimated scf accuracy    <       0.00001009 Ry

     iteration # 40     ecut=    30.00 Ry     beta= 0.70
     Davidson diagonalization with overlap

     ethr =  5.25E-09,  avg # of iterations =  1.0

     End of self-consistent calculation

          k = 0.0000 0.0000 0.0000 (  2855 PWs)   bands (ev):

   -40.7496 -40.7480 -40.7392 -40.7375 -13.1526 -13.1525 -13.0901 -13.0878
   -12.9846 -12.9846 -12.9781 -12.9781 -12.8628 -12.8628 -12.8563 -12.8563
     1.9546   2.0646   2.2255   2.3235   2.3235   2.3485   2.3485   2.4794
     2.5543   2.5543   2.6492   2.6516   2.6872   2.6872   2.7545   2.7545
     2.9480   2.9480   3.0795   3.1136   3.1136   3.1472   3.1472   3.1848
     3.1969   3.2759   3.2759   3.2778   3.2778   3.2855   3.3042   3.3042
     3.3655   3.3655   3.5446   3.5446   3.6426   3.6427   3.7691   3.7826
     4.0469   5.3862   6.3851   9.2132   9.8858   9.8858  10.0541  10.2850
    10.5486  10.5486  10.5860  10.5860  10.5998  10.6270  10.6302  10.6307
    10.6307  10.6393  10.6393  10.6495  10.6495  10.6647  10.6647  10.7099
    10.7099  10.7177  10.7231  10.7231  10.7969  10.7969  10.8524  10.8733
    10.8803  10.9208  10.9323  10.9386  10.9386  10.9411  10.9452  10.9722
    11.0921  11.0921  11.3675  11.3675  11.8917  12.5652  12.6917  12.6917
    13.4104  13.8666  14.9389  14.9389  14.9836  14.9836  15.3463  15.5038
    15.5794  15.5796  16.1936

     occupation numbers
     1.0000   1.0000   1.0000   1.0000   1.0000   1.0000   1.0000   1.0000
     1.0000   1.0000   1.0000   1.0000   1.0000   1.0000   1.0000   1.0000
     1.0000   1.0000   1.0000   1.0000   1.0000   1.0000   1.0000   1.0000
     1.0000   1.0000   1.0000   1.0000   1.0000   1.0000   1.0000   1.0000
     1.0000   1.0000   1.0000   1.0000   1.0000   1.0000   1.0000   1.0000
     1.0000   1.0000   1.0000   1.0000   1.0000   1.0000   1.0000   1.0000
     1.0000   1.0000   1.0000   1.0000   1.0000   1.0000   1.0000   1.0000
     1.0000   1.0000   1.0000   1.0000   1.0000   1.0000   1.0000   1.0000
     1.0000   1.0000   1.0000   1.0000   1.0000   1.0000   1.0000   1.0000
     1.0000   1.0000   1.0000   1.0000   1.0000   1.0000   1.0000   1.0000
     1.0000   1.0000   1.0000   1.0000   1.0000   1.0000   1.0000   1.0000
     1.0000   1.0000   1.0000   1.0000   1.0000   1.0000   1.0000   1.0000
    -0.0000  -0.0000  -0.0000  -0.0000  -0.0000  -0.0000  -0.0000  -0.0000
    -0.0000  -0.0000  -0.0000  -0.0000  -0.0000  -0.0000  -0.0000  -0.0000
    -0.0000  -0.0000  -0.0000

     the Fermi energy is    11.0316 ev

!    total energy              =   -5021.66016157 Ry
     estimated scf accuracy    <       0.00000091 Ry
     smearing contrib. (-TS)   =       0.00000000 Ry
     internal energy E=F+TS    =   -5021.66016157 Ry

     The total energy is F=E-TS. E is the sum of the following terms:
     one-electron contribution =   -1784.32063899 Ry
     hartree contribution      =     902.66067540 Ry
     xc contribution           =    -495.31293400 Ry
     ewald contribution        =   -1707.51289691 Ry
     one-center paw contrib.   =   -1937.17436707 Ry
      -> PAW hartree energy AE =    1798.72993700 Ry
      -> PAW hartree energy PS =   -1545.37014657 Ry
      -> PAW xc energy AE      =   -2339.20461226 Ry
      -> PAW xc energy PS      =     148.67045476 Ry
      -> total E_H with PAW    =    1156.02046583 Ry
      -> total E_XC with PAW   =   -2685.84709150 Ry

     convergence has been achieved in  40 iterations

     Forces acting on atoms (cartesian axes, Ry/au):

     atom    1 type  1   force =     0.00000000    0.00000000    0.00415215
     atom    2 type  1   force =    -0.00000000   -0.00000000   -0.00415215
     atom    3 type  1   force =     0.00000000    0.00000000    0.00415215
     atom    4 type  1   force =    -0.00000000   -0.00000000   -0.00415215
     atom    5 type  2   force =    -0.00000000   -0.00000000    0.00000000
     atom    6 type  2   force =     0.00000000   -0.00000000    0.00000000
     atom    7 type  2   force =    -0.00836496    0.00482951    0.00000000
     atom    8 type  2   force =    -0.00000000   -0.00965902    0.00000000
     atom    9 type  2   force =     0.00836496    0.00482951    0.00000000
     atom   10 type  2   force =     0.00836496   -0.00482951    0.00000000
     atom   11 type  2   force =     0.00000000    0.00965902    0.00000000
     atom   12 type  2   force =    -0.00836496   -0.00482951   -0.00000000
     The non-local contrib.  to forces
     atom    1 type  1   force =     0.00000000    0.00000000    0.22458674
     atom    2 type  1   force =     0.00000000   -0.00000000   -0.22458674
     atom    3 type  1   force =     0.00000000   -0.00000000    0.22458674
     atom    4 type  1   force =     0.00000000    0.00000000   -0.22458674
     atom    5 type  2   force =    -0.00000000   -0.00000000    0.00000000
     atom    6 type  2   force =    -0.00000000   -0.00000000    0.00000000
     atom    7 type  2   force =     0.13437706   -0.07758264    0.00000000
     atom    8 type  2   force =     0.00000000    0.15516526    0.00000000
     atom    9 type  2   force =    -0.13437706   -0.07758262    0.00000000
     atom   10 type  2   force =    -0.13437706    0.07758264   -0.00000000
     atom   11 type  2   force =     0.00000000   -0.15516526    0.00000000
     atom   12 type  2   force =     0.13437706    0.07758262   -0.00000000
     The ionic contribution  to forces
     atom    1 type  1   force =     0.00012789   -0.00007384   -1.95615264
     atom    2 type  1   force =    -0.00012789    0.00007384    1.95615264
     atom    3 type  1   force =    -0.00012789    0.00007384   -1.95615264
     atom    4 type  1   force =     0.00012789   -0.00007384    1.95615264
     atom    5 type  2   force =    -0.00000000    0.00000000   -0.00000000
     atom    6 type  2   force =    -0.00000000    0.00000000    0.00000000
     atom    7 type  2   force =     0.96672948   -0.55814156    0.00000000
     atom    8 type  2   force =    -0.00006238    1.11625162    0.00000000
     atom    9 type  2   force =    -0.96673349   -0.55807173    0.00000000
     atom   10 type  2   force =    -0.96672948    0.55814156    0.00000000
     atom   11 type  2   force =     0.00006238   -1.11625162    0.00000000
     atom   12 type  2   force =     0.96673349    0.55807173    0.00000000
     The local contribution  to forces
     atom    1 type  1   force =     0.00055474   -0.00032750    1.73817465
     atom    2 type  1   force =     0.00055895   -0.00027912   -1.73726362
     atom    3 type  1   force =    -0.00008000    0.00004327    1.73510238
     atom    4 type  1   force =    -0.00012086    0.00013473   -1.73659424
     atom    5 type  2   force =    -0.00038812    0.00022178    0.00027671
     atom    6 type  2   force =     0.00008958   -0.00003717   -0.00062993
     atom    7 type  2   force =    -1.10620340    0.63852842    0.00131047
     atom    8 type  2   force =     0.00003171   -1.27716831    0.00092570
     atom    9 type  2   force =     1.10616692    0.63847197    0.00097932
     atom   10 type  2   force =     1.10595076   -0.63866293   -0.00034630
     atom   11 type  2   force =    -0.00005880    1.27714336   -0.00072261
     atom   12 type  2   force =    -1.10593809   -0.63860147   -0.00076638
     The core correction contribution to forces
     atom    1 type  1   force =     0.00000000   -0.00000000   -0.00000206
     atom    2 type  1   force =     0.00000000   -0.00000000    0.00000206
     atom    3 type  1   force =    -0.00000000    0.00000000   -0.00000207
     atom    4 type  1   force =     0.00000000    0.00000000    0.00000207
     atom    5 type  2   force =    -0.00000604    0.00000344   -0.00000128
     atom    6 type  2   force =     0.00000352   -0.00000230   -0.00000940
     atom    7 type  2   force =    -0.00341074    0.00196591    0.00001796
     atom    8 type  2   force =    -0.00000001   -0.00393432    0.00000758
     atom    9 type  2   force =     0.00340944    0.00196528    0.00001097
     atom   10 type  2   force =     0.00340464   -0.00196903    0.00000617
     atom   11 type  2   force =     0.00000026    0.00393570   -0.00000223
     atom   12 type  2   force =    -0.00340361   -0.00196928   -0.00000294
     The Hubbard contrib.    to forces
     atom    1 type  1   force =     0.00000000    0.00000000    0.00000000
     atom    2 type  1   force =     0.00000000    0.00000000    0.00000000
     atom    3 type  1   force =     0.00000000    0.00000000    0.00000000
     atom    4 type  1   force =     0.00000000    0.00000000    0.00000000
     atom    5 type  2   force =     0.00000000    0.00000000    0.00000000
     atom    6 type  2   force =     0.00000000    0.00000000    0.00000000
     atom    7 type  2   force =     0.00000000    0.00000000    0.00000000
     atom    8 type  2   force =     0.00000000    0.00000000    0.00000000
     atom    9 type  2   force =     0.00000000    0.00000000    0.00000000
     atom   10 type  2   force =     0.00000000    0.00000000    0.00000000
     atom   11 type  2   force =     0.00000000    0.00000000    0.00000000
     atom   12 type  2   force =     0.00000000    0.00000000    0.00000000
     The SCF correction term to forces
     atom    1 type  1   force =    -0.00077361    0.00042104   -0.00249731
     atom    2 type  1   force =    -0.00043264    0.00021034    0.00153494
     atom    3 type  1   force =     0.00026759   -0.00017521    0.00075282
     atom    4 type  1   force =     0.00000913   -0.00006318    0.00097499
     atom    5 type  2   force =     0.00043420   -0.00025720   -0.00030811
     atom    6 type  2   force =    -0.00007726    0.00004142    0.00068494
     atom    7 type  2   force =     0.00015408    0.00004409   -0.00140705
     atom    8 type  2   force =     0.00004118    0.00004329   -0.00101890
     atom    9 type  2   force =    -0.00011504    0.00002375   -0.00109686
     atom   10 type  2   force =     0.00013068    0.00007654    0.00046901
     atom   11 type  2   force =    -0.00000737    0.00001740    0.00082160
     atom   12 type  2   force =    -0.00015346    0.00007342    0.00085683

     Total force =     0.025075     Total SCF correction =     0.004242
     SCF correction compared to forces is large: reduce conv_thr to get better values

     Computing stress (Cartesian axis) and pressure

          total   stress  (Ry/bohr**3)                   (kbar)     P=     -204.61
  -0.00106715   0.00000000   0.00000000         -156.98        0.00        0.00
   0.00000000  -0.00106715   0.00000000            0.00     -156.98        0.00
   0.00000000   0.00000000  -0.00203847            0.00        0.00     -299.87

     kinetic stress (kbar)  18915.83     -0.00     -0.00
                               -0.00  18915.83     -0.00
                               -0.00     -0.00  18790.61

     local   stress (kbar)   3571.60     -0.03      0.00
                               -0.03   3571.55      0.01
                                0.00      0.01   6119.50

     nonloc. stress (kbar)   2886.81     -0.00      0.00
                               -0.00   2886.81      0.00
                                0.00      0.00   2746.33

     hartree stress (kbar)  21821.08      0.01     -0.00
                                0.01  21821.10     -0.00
                               -0.00     -0.00  20761.25

     exc-cor stress (kbar)   7486.94     -0.00      0.00
                               -0.00   7486.94     -0.00
                                0.00     -0.00   7485.05

     corecor stress (kbar) -14685.23      0.00      0.00
                                0.00 -14685.23     -0.00
                                0.00     -0.00 -14682.23

     ewald   stress (kbar) -40154.02      0.02     -0.00
                                0.02 -40154.00      0.00
                               -0.00      0.00 -41520.38

     hubbard stress (kbar)      0.00      0.00      0.00
                                0.00      0.00      0.00
                                0.00      0.00      0.00

     DFT-D   stress (kbar)      0.00      0.00      0.00
                                0.00      0.00      0.00
                                0.00      0.00      0.00

     XDM     stress (kbar)      0.00      0.00      0.00
                                0.00      0.00      0.00
                                0.00      0.00      0.00

     dft-nl  stress (kbar)      0.00      0.00      0.00
                                0.00      0.00      0.00
                                0.00      0.00      0.00

     TS-vdW  stress (kbar)      0.00      0.00      0.00
                                0.00      0.00      0.00
                                0.00      0.00      0.00

[...]

                                0.00      0.00      0.00

     Writing all to output data dir new_calculations/myprefix.save/

     General routines

     Parallel routines

     PAW routines

   This run was terminated on:   1:25:29  20May2023

   JOB DONE.