     Program PWSCF v.7.0 starts on 21May2023 at  1:57:21

     Reading input from espresso_15419.pwi
Warning: card &CELL ignored
Warning: card / ignored

     Current dimensions of program PWSCF are:
     Max number of different atomic species (ntypx) = 10
     Max number of k-points (npk) =  40000
     Max angular momentum in pseudopotentials (lmaxx) =  4
     file C.pbe-n-kjpaw_psl.1.0.0.UPF: wavefunction(s)  2S 2P renormalized

     gamma-point specific algorithms are used

     Subspace diagonalization in iterative solution of the eigenvalue problem:
     a serial algorithm will be used

     Using Slab Decomposition

     bravais-lattice index     =            0
     lattice parameter (alat)  =       7.7854  a.u.
     unit-cell volume          =    2000.5198 (a.u.)^3
     number of atoms/cell      =           12
     number of atomic types    =            4
     number of electrons       =        88.00
     number of Kohn-Sham states=           53
     kinetic-energy cutoff     =      30.0000  Ry
     charge density cutoff     =     240.0000  Ry
     scf convergence threshold =      1.0E-06
     mixing beta               =       0.7000
     number of iterations used =            8  plain     mixing
     Exchange-correlation=  SLA  PW   PBX  PBC
                           (   1   4   3   4   0   0   0)

     celldm(1)=   7.785368  celldm(2)=   0.000000  celldm(3)=   0.000000
     celldm(4)=   0.000000  celldm(5)=   0.000000  celldm(6)=   0.000000

     crystal axes: (cart. coord. in units of alat)
               a(1) = (   1.000000   0.000000   0.000000 )
               a(2) = (   0.548853   0.835919   0.000000 )
               a(3) = (   0.314769   0.169881   5.071557 )

     reciprocal axes: (cart. coord. in units 2 pi/alat)
               b(1) = (  1.000000 -0.656587 -0.040072 )
               b(2) = (  0.000000  1.196288 -0.040072 )
               b(3) = (  0.000000  0.000000  0.197178 )

     PseudoPot. # 1 for Y  read from file:
     /home/pragov/projects/rrg-bengioy-ad/pragov/crystal_structure_design/SSSP/Y_pbe_v1.uspp.F.UPF
     MD5 check sum: 2cf71db95cafeb975fc457bd7f14888e
     Pseudo is Ultrasoft + core correction, Zval = 11.0
     Generated by new atomic code, or converted to UPF format
     Using radial grid of  885 points,  6 beta functions with:
                l(1) =   0
                l(2) =   0
                l(3) =   1
                l(4) =   1
                l(5) =   2
                l(6) =   2
     Q(r) pseudized with  6 coefficients,  rinner =    1.200   1.200   1.200
                                                       1.200   1.200

     PseudoPot. # 2 for C  read from file:
     /home/pragov/projects/rrg-bengioy-ad/pragov/crystal_structure_design/SSSP/C.pbe-n-kjpaw_psl.1.0.0.UPF
     MD5 check sum: 5d2aebdfa2cae82b50a7e79e9516da0f
     Pseudo is Projector augmented-wave + core cor, Zval =  4.0
     Generated using "atomic" code by A. Dal Corso  v.5.1
     Shape of augmentation charge: PSQ
     Using radial grid of 1073 points,  4 beta functions with:
                l(1) =   0
                l(2) =   0
                l(3) =   1
                l(4) =   1
     Q(r) pseudized with 0 coefficients

     PseudoPot. # 3 for I  read from file:
     /home/pragov/projects/rrg-bengioy-ad/pragov/crystal_structure_design/SSSP/I.pbe-n-kjpaw_psl.0.2.UPF
     MD5 check sum: d4ef18d9c8f18dc85e5843bca1e50dc0
     Pseudo is Projector augmented-wave + core cor, Zval =  7.0
     Generated using "atomic" code by A. Dal Corso  v.5.0.99 svn rev. 10869
     Shape of augmentation charge: PSQ
     Using radial grid of 1247 points,  4 beta functions with:
                l(1) =   0
                l(2) =   0
                l(3) =   1
                l(4) =   1
     Q(r) pseudized with 0 coefficients

     PseudoPot. # 4 for Br read from file:
     /home/pragov/projects/rrg-bengioy-ad/pragov/crystal_structure_design/SSSP/br_pbe_v1.4.uspp.F.UPF
     MD5 check sum: d3ffb7b29f6225aa16fe06858fb2a80b
     Pseudo is Ultrasoft + core correction, Zval =  7.0
     Generated by new atomic code, or converted to UPF format
     Using radial grid of  879 points,  6 beta functions with:
                l(1) =   0
                l(2) =   0
                l(3) =   1
                l(4) =   1
                l(5) =   2
                l(6) =   2
     Q(r) pseudized with  8 coefficients,  rinner =    1.100   1.100   1.100
                                                       1.100   1.100

     atomic species   valence    mass     pseudopotential
        Y             11.00    88.90584     Y ( 1.00)
        C              4.00    12.01100     C ( 1.00)
        I              7.00   126.90447     I ( 1.00)
        Br             7.00    79.90400     Br( 1.00)

     No symmetry found

                                    s                        frac. trans.

      isym =  1     identity

 cryst.   s( 1) = (     1          0          0      )
                  (     0          1          0      )
                  (     0          0          1      )

 cart.    s( 1) = (  1.0000000 -0.0000000 -0.0000000 )
                  (  0.0000000  1.0000000 -0.0000000 )
                  (  0.0000000  0.0000000  1.0000000 )

   Cartesian axes

     site n.     atom                  positions (alat units)
         1           Y   tau(   1) = (   1.3456954   0.7262741   0.3382018  )
         2           Y   tau(   2) = (   1.5032259   0.8112937   2.8646283  )
         3           Y   tau(   3) = (   0.3630710   0.1959500   2.1859373  )
         4           Y   tau(   4) = (   0.5177420   0.2794263   4.7356169  )
         5           C   tau(   5) = (   0.8986891   0.4850241   0.0784266  )
         6           C   tau(   6) = (   1.0563893   0.5701352   2.6041683  )
         7           C   tau(   7) = (   0.8094375   0.4368549   2.4453120  )
         8           C   tau(   8) = (   0.9650092   0.5208172   4.9942054  )
         9           I   tau(   9) = (   1.5420402   0.8322418   4.2256059  )
        10           I   tau(  10) = (   0.3215537   0.1735431   0.8498864  )
        11           I   tau(  11) = (   0.4790993   0.2585708   3.3765563  )
        12           Br  tau(  12) = (   1.3797791   0.7446692   1.7307905  )

   Crystallographic axes

     site n.     atom                  positions (cryst. coord.)
         1           Y   tau(   1) = (  0.8552810  0.8552810  0.0666860  )
         2           Y   tau(   2) = (  0.8557500  0.8557500  0.5648420  )
         3           Y   tau(   3) = (  0.1468180  0.1468180  0.4310190  )
         4           Y   tau(   4) = (  0.1445090  0.1445090  0.9337600  )
         5           C   tau(   5) = (  0.5770860  0.5770860  0.0154640  )
         6           C   tau(   6) = (  0.5776920  0.5776920  0.5134850  )
         7           C   tau(   7) = (  0.4246160  0.4246160  0.4821620  )
         8           C   tau(   8) = (  0.4229200  0.4229200  0.9847480  )
         9           I   tau(   9) = (  0.8262730  0.8262730  0.8331970  )
        10           I   tau(  10) = (  0.1735510  0.1735510  0.1675790  )
        11           I   tau(  11) = (  0.1740200  0.1740200  0.6657830  )
        12           Br  tau(  12) = (  0.8214830  0.8214830  0.3412740  )

     number of k points=     1  Methfessel-Paxton smearing, width (Ry)=  0.0010
                       cart. coord. in units 2pi/alat
        k(    1) = (   0.0000000   0.0000000   0.0000000), wk =   2.0000000

                       cryst. coord.
        k(    1) = (   0.0000000   0.0000000   0.0000000), wk =   2.0000000

     Check: negative core charge=   -0.000009

     Initial potential from superposition of free atoms

     starting charge      87.9817, renormalised to      88.0000

     negative rho (up, down):  1.744E-01 0.000E+00
     Starting wfcs are   84 randomized atomic wfcs
     Checking if some PAW data can be deallocated...

     Self-consistent Calculation

     iteration #  1     ecut=    30.00 Ry     beta= 0.70
     Davidson diagonalization with overlap

     ethr =  1.00E-02,  avg # of iterations =  2.0

     negative rho (up, down):  1.744E-01 0.000E+00

     total energy              =   -1598.03385189 Ry
     estimated scf accuracy    <      11.69282556 Ry

[...]

     c_bands:  2 eigenvalues not converged
     ethr =  4.27E-07,  avg # of iterations = 20.0

[...]

     total energy              =   -1606.97508593 Ry
     estimated scf accuracy    <       0.00000234 Ry

     iteration # 28     ecut=    30.00 Ry     beta= 0.70
     Davidson diagonalization with overlap

     ethr =  2.66E-09,  avg # of iterations =  5.0

[...]

     End of self-consistent calculation

          k = 0.0000 0.0000 0.0000 (  2776 PWs)   bands (ev):

   -35.1081 -35.0132 -34.9243 -34.8882 -15.5345 -15.3931 -15.2096 -15.0598
   -14.9840 -14.9084 -14.8795 -14.8380 -14.8262 -14.7507 -14.7360 -14.7254
    -7.4651  -6.7110  -6.7015  -5.4485  -5.2391  -5.1923   1.2127   1.3169
     2.7737   2.9413   3.0508   3.1181   3.5021   3.6040   4.2350   4.4093
     4.9346   5.1498   5.1615   5.4001   5.8815   6.0476   6.0874   6.1518
     6.2356   6.4463   7.5773   7.6425   8.0356   8.1426   8.8037   8.8549
     9.8380   9.9130  10.5534  10.7304  10.7765

     occupation numbers
     1.0000   1.0000   1.0000   1.0000   1.0000   1.0000   1.0000   1.0000
     1.0000   1.0000   1.0000   1.0000   1.0000   1.0000   1.0000   1.0000
     1.0000   1.0000   1.0000   1.0000   1.0000   1.0000   1.0000   1.0000
     1.0000   1.0000   1.0000   1.0000   1.0000   1.0000   1.0000   1.0000
     1.0000   1.0000   1.0000   1.0000   1.0000   1.0000   1.0000   1.0000
     1.0000   1.0000   1.0000   1.0000  -0.0000  -0.0000  -0.0000  -0.0000
    -0.0000  -0.0000  -0.0000  -0.0000  -0.0000

     the Fermi energy is     7.8475 ev

!    total energy              =   -1606.97508618 Ry
     estimated scf accuracy    <       0.00000003 Ry
     smearing contrib. (-TS)   =       0.00000000 Ry
     internal energy E=F+TS    =   -1606.97508618 Ry

     The total energy is F=E-TS. E is the sum of the following terms:
     one-electron contribution =    -282.93883139 Ry
     hartree contribution      =     176.96368137 Ry
     xc contribution           =    -258.64119047 Ry
     ewald contribution        =    -256.03389917 Ry
     one-center paw contrib.   =    -986.32484652 Ry
      -> PAW hartree energy AE =      64.78005302 Ry
      -> PAW hartree energy PS =     -64.96265602 Ry
      -> PAW xc energy AE      =   -1125.14223714 Ry
      -> PAW xc energy PS      =     138.99999362 Ry
      -> total E_H with PAW    =     176.78107837 Ry
      -> total E_XC with PAW   =   -1244.78343399 Ry

     convergence has been achieved in  28 iterations

     negative rho (up, down):  1.754E-01 0.000E+00

     Forces acting on atoms (cartesian axes, Ry/au):

     atom    1 type  1   force =     0.00480595    0.00259262   -0.11742171
     atom    2 type  1   force =     0.00584997    0.00315831   -0.12096416
     atom    3 type  1   force =    -0.00434040   -0.00234317    0.09465658
     atom    4 type  1   force =    -0.00576651   -0.00311325    0.12116304
     atom    5 type  2   force =     0.05450400    0.02941631   -0.02093184
     atom    6 type  2   force =     0.04875026    0.02631141   -0.02024637
     atom    7 type  2   force =    -0.04902767   -0.02646011    0.02069001
     atom    8 type  2   force =    -0.05380143   -0.02903596    0.02091647
     atom    9 type  3   force =    -0.01292823   -0.00697715    0.03683144
     atom   10 type  3   force =     0.01332048    0.00718836   -0.02922160
     atom   11 type  3   force =     0.01350255    0.00728751   -0.03874874
     atom   12 type  4   force =    -0.01486898   -0.00802489    0.05327688
     The non-local contrib.  to forces
     atom    1 type  1   force =     0.01476339    0.00796858   -0.03513456
     atom    2 type  1   force =     0.01328964    0.00717107   -0.03670130
     atom    3 type  1   force =    -0.01909936   -0.01030753    0.00487196
     atom    4 type  1   force =    -0.01423103   -0.00768141    0.03837202
     atom    5 type  2   force =    -0.26810022   -0.14469099    0.04447879
     atom    6 type  2   force =    -0.26940508   -0.14539860    0.04718021
     atom    7 type  2   force =     0.26465216    0.14283328   -0.03288358
     atom    8 type  2   force =     0.26763564    0.14444509   -0.04186341
     atom    9 type  3   force =    -0.02032868   -0.01097266    0.13180598
     atom   10 type  3   force =     0.02046654    0.01104414   -0.13183790
     atom   11 type  3   force =     0.02048502    0.01105531   -0.13511756
     atom   12 type  4   force =     0.00261169    0.00140891    0.03569587
     The ionic contribution  to forces
     atom    1 type  1   force =     0.24827894    0.13399658   16.27054220
     atom    2 type  1   force =     0.26972222    0.14556955   17.20520268
     atom    3 type  1   force =    -0.38092295   -0.20558478  -15.74275384
     atom    4 type  1   force =    -0.24731521   -0.13347645  -16.49203024
     atom    5 type  2   force =     2.35518299    1.27109636    3.23041822
     atom    6 type  2   force =     2.32756565    1.25619123    3.64598588
     atom    7 type  2   force =    -2.32098890   -1.25264176   -2.95851266
     atom    8 type  2   force =    -2.35698170   -1.27206713   -3.30911208
     atom    9 type  3   force =     0.18320925    0.09887835  -12.10341941
     atom   10 type  3   force =    -0.18294738   -0.09873702   11.84943576
     atom   11 type  3   force =    -0.18177873   -0.09810630   12.41575257
     atom   12 type  4   force =     0.28697584    0.15488136  -14.01150908
     The local contribution  to forces
     atom    1 type  1   force =    -0.25967813   -0.14015425  -16.35750206
     atom    2 type  1   force =    -0.27876365   -0.15044769  -17.29474284
     atom    3 type  1   force =     0.39687395    0.21419102   15.83572872
     atom    4 type  1   force =     0.25728198    0.13884944   16.58027000
     atom    5 type  2   force =    -2.03150101   -1.09640603   -3.29079767
     atom    6 type  2   force =    -2.00836509   -1.08391711   -3.70791249
     atom    7 type  2   force =     2.00628112    1.08279278    3.00690338
     atom    8 type  2   force =     2.03440566    1.09797182    3.36709145
     atom    9 type  3   force =    -0.17834132   -0.09625143   12.00764291
     atom   10 type  3   force =     0.17840507    0.09628465  -11.74325049
     atom   11 type  3   force =     0.17737576    0.09572991  -12.31977422
     atom   12 type  4   force =    -0.30780420   -0.16612269   14.03521077
     The core correction contribution to forces
     atom    1 type  1   force =     0.00144316    0.00077861    0.00508200
     atom    2 type  1   force =     0.00154781    0.00083555    0.00514233
     atom    3 type  1   force =    -0.00120908   -0.00065256   -0.00328346
     atom    4 type  1   force =    -0.00148574   -0.00080195   -0.00537440
     atom    5 type  2   force =    -0.00113543   -0.00061288   -0.00489787
     atom    6 type  2   force =    -0.00100515   -0.00054247   -0.00551657
     atom    7 type  2   force =     0.00097123    0.00052419    0.00514970
     atom    8 type  2   force =     0.00112730    0.00060837    0.00489216
     atom    9 type  3   force =     0.00251658    0.00135753    0.00079818
     atom   10 type  3   force =    -0.00262255   -0.00141530   -0.00353217
     atom   11 type  3   force =    -0.00260334   -0.00140514    0.00033126
     atom   12 type  4   force =     0.00332953    0.00179684   -0.00619516
     The Hubbard contrib.    to forces
     atom    1 type  1   force =     0.00000000    0.00000000    0.00000000
     atom    2 type  1   force =     0.00000000    0.00000000    0.00000000
     atom    3 type  1   force =     0.00000000    0.00000000    0.00000000
     atom    4 type  1   force =     0.00000000    0.00000000    0.00000000
     atom    5 type  2   force =     0.00000000    0.00000000    0.00000000
     atom    6 type  2   force =     0.00000000    0.00000000    0.00000000
     atom    7 type  2   force =     0.00000000    0.00000000    0.00000000
     atom    8 type  2   force =     0.00000000    0.00000000    0.00000000
     atom    9 type  3   force =     0.00000000    0.00000000    0.00000000
     atom   10 type  3   force =     0.00000000    0.00000000    0.00000000
     atom   11 type  3   force =     0.00000000    0.00000000    0.00000000
     atom   12 type  4   force =     0.00000000    0.00000000    0.00000000
     The SCF correction term to forces
     atom    1 type  1   force =    -0.00001789   -0.00000615   -0.00041337
     atom    2 type  1   force =     0.00003748    0.00002057    0.00013090
     atom    3 type  1   force =     0.00000056    0.00000143    0.00008913
     atom    4 type  1   force =    -0.00003298   -0.00001213   -0.00007841
     atom    5 type  2   force =     0.00004120    0.00002060   -0.00013737
     atom    6 type  2   force =    -0.00005655   -0.00003090    0.00001253
     atom    7 type  2   force =     0.00004024    0.00002214    0.00002910
     atom    8 type  2   force =    -0.00000480   -0.00000336   -0.00009571
     atom    9 type  3   force =    -0.00000054    0.00000181   -0.00000030
     atom   10 type  3   force =     0.00000232    0.00000264   -0.00004087
     atom   11 type  3   force =     0.00000737    0.00000448    0.00005514
     atom   12 type  4   force =     0.00000168    0.00000143    0.00007041

     Total force =     0.274186     Total SCF correction =     0.000503

     Computing stress (Cartesian axis) and pressure

     negative rho (up, down):  1.754E-01 0.000E+00
          total   stress  (Ry/bohr**3)                   (kbar)     P=       94.58
   0.00128114  -0.00022622   0.00027218          188.46      -33.28       40.04
  -0.00022622   0.00157821   0.00014690          -33.28      232.16       21.61
   0.00027218   0.00014690  -0.00093051           40.04       21.61     -136.88

     kinetic stress (kbar)   7343.19   -128.18    122.91
                             -128.18   7511.51     66.34
                              122.91     66.34   6731.88

     local   stress (kbar) -17938.21   -174.27   -435.19
                             -174.27 -17709.37   -234.87
                             -435.19   -234.87  16551.42

     nonloc. stress (kbar)   3680.95     -2.19     17.07
                               -2.19   3683.82      9.21
                               17.07      9.21   3758.08

     hartree stress (kbar)   9778.13      7.81     68.73
                                7.81   9767.88     37.09
                               68.73     37.09  -6533.26

     exc-cor stress (kbar)  11013.91      1.95      5.73
                                1.95  11011.35      3.09
                                5.73      3.09  11005.53

     corecor stress (kbar) -13522.76      1.27     -3.61
                                1.27 -13524.43     -1.95
                               -3.61     -1.95 -13498.82

     ewald   stress (kbar)   -166.74    260.32    264.40
                              260.32   -508.59    142.70
                              264.40    142.70 -18151.72

     hubbard stress (kbar)      0.00      0.00      0.00
                                0.00      0.00      0.00
                                0.00      0.00      0.00

     DFT-D   stress (kbar)      0.00      0.00      0.00
                                0.00      0.00      0.00
                                0.00      0.00      0.00

     XDM     stress (kbar)      0.00      0.00      0.00
                                0.00      0.00      0.00
                                0.00      0.00      0.00

     dft-nl  stress (kbar)      0.00      0.00      0.00
                                0.00      0.00      0.00
                                0.00      0.00      0.00

     TS-vdW  stress (kbar)      0.00      0.00      0.00
                                0.00      0.00      0.00
                                0.00      0.00      0.00

[...]

                                0.00      0.00      0.00

     Writing all to output data dir new_calculations/myprefix.save/

     General routines

     Parallel routines

     PAW routines

   This run was terminated on:   1:59: 3  21May2023

   JOB DONE.