     Program PWSCF v.7.0 starts on 21May2023 at 14: 2:51

     Reading input from espresso_22803.pwi
Warning: card &CELL ignored
Warning: card / ignored

     Current dimensions of program PWSCF are:
     Max number of different atomic species (ntypx) = 10
     Max number of k-points (npk) =  40000
     Max angular momentum in pseudopotentials (lmaxx) =  4
     file K.pbe-spn-kjpaw_psl.1.0.0.UPF: wavefunction(s)  3S renormalized

     gamma-point specific algorithms are used
     Message from routine setup:
     using ibrav=0 with symmetry is DISCOURAGED, use correct ibrav instead

     Subspace diagonalization in iterative solution of the eigenvalue problem:
     a serial algorithm will be used

     Using Slab Decomposition

     bravais-lattice index     =            0
     lattice parameter (alat)  =      16.7794  a.u.
     unit-cell volume          =    2134.3387 (a.u.)^3
     number of atoms/cell      =           17
     number of atomic types    =            3
     number of electrons       =       215.00
     number of Kohn-Sham states=          130
     kinetic-energy cutoff     =      30.0000  Ry
     charge density cutoff     =     240.0000  Ry
     scf convergence threshold =      1.0E-06
     mixing beta               =       0.7000
     number of iterations used =            8  plain     mixing
     Exchange-correlation=  SLA  PW   PBX  PBC
                           (   1   4   3   4   0   0   0)

     celldm(1)=  16.779418  celldm(2)=   0.000000  celldm(3)=   0.000000
     celldm(4)=   0.000000  celldm(5)=   0.000000  celldm(6)=   0.000000

     crystal axes: (cart. coord. in units of alat)
               a(1) = (   1.000000   0.000000   0.000000 )
               a(2) = (   0.905706   0.423907   0.000000 )
               a(3) = (   0.308514   0.068626   1.065766 )

     reciprocal axes: (cart. coord. in units 2 pi/alat)
               b(1) = (  1.000000 -2.136566 -0.151900 )
               b(2) = (  0.000000  2.359007 -0.151900 )
               b(3) = (  0.000000  0.000000  0.938292 )

     PseudoPot. # 1 for K  read from file:
     /home/pragov/projects/rrg-bengioy-ad/pragov/crystal_structure_design/SSSP/K.pbe-spn-kjpaw_psl.1.0.0.UPF
     MD5 check sum: 7d58810084cac21f60fbe77ea2b688fd
     Pseudo is Projector augmented-wave + core cor, Zval =  9.0
     Generated using "atomic" code by A. Dal Corso  v.5.1
     Shape of augmentation charge: PSQ
     Using radial grid of 1165 points,  6 beta functions with:
                l(1) =   0
                l(2) =   0
                l(3) =   1
                l(4) =   1
                l(5) =   2
                l(6) =   2
     Q(r) pseudized with 0 coefficients

     PseudoPot. # 2 for Cu read from file:
     /home/pragov/projects/rrg-bengioy-ad/pragov/crystal_structure_design/SSSP/Cu_pbe_v1.2.uspp.F.UPF
     MD5 check sum: 6e991ff952a84172a2a52a1c1e996048
     Pseudo is Ultrasoft + core correction, Zval = 19.0
     Generated by new atomic code, or converted to UPF format
     Using radial grid of  867 points,  6 beta functions with:
                l(1) =   0
                l(2) =   0
                l(3) =   1
                l(4) =   1
                l(5) =   2
                l(6) =   2
     Q(r) pseudized with  8 coefficients,  rinner =    1.150   1.150   1.150
                                                       1.150   1.150

     PseudoPot. # 3 for S  read from file:
     /home/pragov/projects/rrg-bengioy-ad/pragov/crystal_structure_design/SSSP/s_pbe_v1.4.uspp.F.UPF
     MD5 check sum: 88d86576ff6df21479756cfb9bdac1df
     Pseudo is Ultrasoft + core correction, Zval =  6.0
     Generated by new atomic code, or converted to UPF format
     Using radial grid of  907 points,  6 beta functions with:
                l(1) =   0
                l(2) =   0
                l(3) =   1
                l(4) =   1
                l(5) =   2
                l(6) =   2
     Q(r) pseudized with  8 coefficients,  rinner =    1.300   1.300   1.300
                                                       1.300   1.300

     atomic species   valence    mass     pseudopotential
        K              9.00    39.09830     K ( 1.00)
        Cu            19.00    63.54600     Cu( 1.00)
        S              6.00    32.06000     S ( 1.00)

      2 Sym. Ops., with inversion, found

                                    s                        frac. trans.

      isym =  1     identity

 cryst.   s( 1) = (     1          0          0      )
                  (     0          1          0      )
                  (     0          0          1      )

 cart.    s( 1) = (  1.0000000  0.0000000  0.0000000 )
                  (  0.0000000  1.0000000  0.0000000 )
                  (  0.0000000  0.0000000  1.0000000 )

      isym =  2     inversion

 cryst.   s( 2) = (    -1          0          0      )
                  (     0         -1          0      )
                  (     0          0         -1      )

 cart.    s( 2) = ( -1.0000000 -0.0000000 -0.0000000 )
                  (  0.0000000 -1.0000000 -0.0000000 )
                  (  0.0000000  0.0000000 -1.0000000 )

   Cartesian axes

     site n.     atom                  positions (alat units)
         1           K   tau(   1) = (   1.5383788   0.3421986   0.7514418  )
         2           K   tau(   2) = (   0.6758410   0.1503348   0.3143242  )
         3           K   tau(   3) = (   0.9528528   0.2119536   0.0000000  )
         4           Cu  tau(   4) = (   1.0901138   0.2424861   0.3835180  )
         5           Cu  tau(   5) = (   1.1241060   0.2500473   0.6822480  )
         6           Cu  tau(   6) = (   1.3535249   0.3010795   0.0928879  )
         7           Cu  tau(   7) = (   1.8993371   0.4224906   0.5708967  )
         8           Cu  tau(   8) = (   0.3148828   0.0700429   0.4948693  )
         9           Cu  tau(   9) = (   1.9748920   0.4392971   0.8494795  )
        10           Cu  tau(  10) = (   0.2393279   0.0532363   0.2162866  )
        11           Cu  tau(  11) = (   0.8606950   0.1914539   0.9728781  )
        12           S   tau(  12) = (   0.8629091   0.1919464   0.6961488  )
        13           S   tau(  13) = (   1.6061250   0.3572682   0.0252736  )
        14           S   tau(  14) = (   0.6080948   0.1352653   1.0404924  )
        15           S   tau(  15) = (   1.3513108   0.3005870   0.3696172  )
        16           S   tau(  16) = (   0.3015779   0.0670833   0.7497568  )
        17           S   tau(  17) = (   1.9126420   0.4254501   0.3160092  )

   Crystallographic axes

     site n.     atom                  positions (cryst. coord.)
         1           K   tau(   1) = (  0.6931050  0.6931050  0.7050720  )
         2           K   tau(   2) = (  0.3068950  0.3068950  0.2949280  )
         3           K   tau(   3) = (  0.5000000  0.5000000  0.0000000  )
         4           Cu  tau(   4) = (  0.5137700  0.5137700  0.3598520  )
         5           Cu  tau(   5) = (  0.4862300  0.4862300  0.6401480  )
         6           Cu  tau(   6) = (  0.6961390  0.6961390  0.0871560  )
         7           Cu  tau(   7) = (  0.9099390  0.9099390  0.5356680  )
         8           Cu  tau(   8) = (  0.0900610  0.0900610  0.4643320  )
         9           Cu  tau(   9) = (  0.9072690  0.9072690  0.7970600  )
        10           Cu  tau(  10) = (  0.0927310  0.0927310  0.2029400  )
        11           Cu  tau(  11) = (  0.3038610  0.3038610  0.9128440  )
        12           S   tau(  12) = (  0.3470580  0.3470580  0.6531910  )
        13           S   tau(  13) = (  0.8389590  0.8389590  0.0237140  )
        14           S   tau(  14) = (  0.1610410  0.1610410  0.9762860  )
        15           S   tau(  15) = (  0.6529420  0.6529420  0.3468090  )
        16           S   tau(  16) = (  0.0443620  0.0443620  0.7034910  )
        17           S   tau(  17) = (  0.9556380  0.9556380  0.2965090  )

     number of k points=     1  Methfessel-Paxton smearing, width (Ry)=  0.0010
                       cart. coord. in units 2pi/alat
        k(    1) = (   0.0000000   0.0000000   0.0000000), wk =   2.0000000

                       cryst. coord.
        k(    1) = (   0.0000000   0.0000000   0.0000000), wk =   2.0000000

     Check: negative core charge=   -0.000003

     Initial potential from superposition of free atoms

     starting charge     206.9433, renormalised to     215.0000
     Starting wfcs are  152 randomized atomic wfcs
     Checking if some PAW data can be deallocated...

     Self-consistent Calculation

     iteration #  1     ecut=    30.00 Ry     beta= 0.70
     Davidson diagonalization with overlap

     ethr =  1.00E-02,  avg # of iterations =  4.0

     total energy              =   -3701.29177421 Ry
     estimated scf accuracy    <      16.80768667 Ry

[...]

     total energy              =   -3713.03079413 Ry
     estimated scf accuracy    <       0.00000127 Ry

     iteration # 22     ecut=    30.00 Ry     beta= 0.70
     Davidson diagonalization with overlap

     ethr =  5.89E-10,  avg # of iterations =  2.0

     End of self-consistent calculation

          k = 0.0000 0.0000 0.0000 (  2972 PWs)   bands (ev):

  -103.5957-103.5949-103.5478-103.5469-103.4801-103.4785-102.9201-102.9195
   -61.0311 -61.0303 -60.9921 -60.9863 -60.9762 -60.9760 -60.9623 -60.9616
   -60.9403 -60.9395 -60.9337 -60.9193 -60.8754 -60.8734 -60.8559 -60.8546
   -60.8385 -60.8369 -60.3971 -60.3917 -60.3346 -60.3339 -60.2312 -60.2246
   -21.6887 -21.6844 -21.6064  -5.4671  -5.3681  -5.3418  -5.3168  -5.2120
    -5.1057  -5.0993  -5.0965  -5.0202  -4.8400  -4.3005  -4.0699  -4.0372
    -3.8108  -3.5764   2.7334   3.1357   3.1605   3.3967   3.7762   4.0907
     4.3450   4.3959   4.4406   4.4995   4.5274   4.5719   4.6936   4.8334
     4.8499   5.0486   5.1568   5.1965   5.5884   5.6669   5.7068   5.8243
     5.8796   6.0399   6.2247   6.2251   6.2938   6.3066   6.3726   6.4368
     6.5553   6.5725   6.5742   6.6046   6.6640   6.6979   6.7116   6.7238
     6.8985   6.9535   6.9630   7.1399   7.1412   7.1741   7.1744   7.4126
     7.4777   7.7672   7.9669   7.9898   8.0668   8.3225   8.6648   8.7364
     8.7540   9.0372   9.1373   9.1957   9.7127  10.5349  11.1312  11.4485
    11.9779  12.2397  12.4342  12.6352  12.7122  12.9486  13.2779  13.4571
    14.0592  14.1295  14.1971  14.5695  14.6917  14.7787  14.8114  15.1033
    15.2024  15.5800

     occupation numbers
     1.0000   1.0000   1.0000   1.0000   1.0000   1.0000   1.0000   1.0000
     1.0000   1.0000   1.0000   1.0000   1.0000   1.0000   1.0000   1.0000
     1.0000   1.0000   1.0000   1.0000   1.0000   1.0000   1.0000   1.0000
     1.0000   1.0000   1.0000   1.0000   1.0000   1.0000   1.0000   1.0000
     1.0000   1.0000   1.0000   1.0000   1.0000   1.0000   1.0000   1.0000
     1.0000   1.0000   1.0000   1.0000   1.0000   1.0000   1.0000   1.0000
     1.0000   1.0000   1.0000   1.0000   1.0000   1.0000   1.0000   1.0000
     1.0000   1.0000   1.0000   1.0000   1.0000   1.0000   1.0000   1.0000
     1.0000   1.0000   1.0000   1.0000   1.0000   1.0000   1.0000   1.0000
     1.0000   1.0000   1.0000   1.0000   1.0000   1.0000   1.0000   1.0000
     1.0000   1.0000   1.0000   1.0000   1.0000   1.0000   1.0000   1.0000
     1.0000   1.0000   1.0000   1.0000   1.0000   1.0000   1.0000   1.0000
     1.0000   1.0000   1.0000   1.0000   1.0000   1.0000   1.0000   1.0000
     1.0000   1.0000   1.0000   0.5000  -0.0000  -0.0000  -0.0000  -0.0000
    -0.0000  -0.0000  -0.0000  -0.0000  -0.0000  -0.0000  -0.0000  -0.0000
    -0.0000  -0.0000  -0.0000  -0.0000  -0.0000  -0.0000  -0.0000  -0.0000
    -0.0000  -0.0000

     the Fermi energy is     9.1957 ev

!    total energy              =   -3713.03079403 Ry
     estimated scf accuracy    <       0.00000027 Ry
     smearing contrib. (-TS)   =      -0.00028209 Ry
     internal energy E=F+TS    =   -3713.03051194 Ry

     The total energy is F=E-TS. E is the sum of the following terms:
     one-electron contribution =   -3938.38717746 Ry
     hartree contribution      =    2057.07913262 Ry
     xc contribution           =    -396.01194909 Ry
     ewald contribution        =   -1269.45423637 Ry
     one-center paw contrib.   =    -166.25628164 Ry
      -> PAW hartree energy AE =     113.71319765 Ry
      -> PAW hartree energy PS =    -113.08067964 Ry
      -> PAW xc energy AE      =    -198.74203366 Ry
      -> PAW xc energy PS      =      31.85323401 Ry
      -> total E_H with PAW    =    2057.71165063 Ry
      -> total E_XC with PAW   =    -562.90074874 Ry

     convergence has been achieved in  22 iterations

     Forces acting on atoms (cartesian axes, Ry/au):

     atom    1 type  1   force =     0.00422871    0.00094068    0.00674583
     atom    2 type  1   force =    -0.00422871   -0.00094068   -0.00674583
     atom    3 type  1   force =     0.00000000    0.00000000    0.00000000
     atom    4 type  2   force =     0.03476565    0.00773625    0.01464657
     atom    5 type  2   force =    -0.03476565   -0.00773625   -0.01464657
     atom    6 type  2   force =     0.03184914    0.00708662    0.03575810
     atom    7 type  2   force =     0.00380434    0.00084580   -0.04637229
     atom    8 type  2   force =    -0.00380434   -0.00084580    0.04637229
     atom    9 type  2   force =     0.02352342    0.00523526    0.02085882
     atom   10 type  2   force =    -0.02352342   -0.00523526   -0.02085882
     atom   11 type  2   force =    -0.03184914   -0.00708662   -0.03575810
     atom   12 type  3   force =    -0.04268632   -0.00949504    0.02275211
     atom   13 type  3   force =     0.03736540    0.00831213    0.03788316
     atom   14 type  3   force =    -0.03736540   -0.00831213   -0.03788316
     atom   15 type  3   force =     0.04268632    0.00949504   -0.02275211
     atom   16 type  3   force =     0.04635909    0.01031241    0.02371683
     atom   17 type  3   force =    -0.04635909   -0.01031241   -0.02371683
     The non-local contrib.  to forces
     atom    1 type  1   force =    -0.00637073   -0.00141706   -0.04678568
     atom    2 type  1   force =     0.00637073    0.00141706    0.04678568
     atom    3 type  1   force =     0.00000000    0.00000000    0.00000000
     atom    4 type  2   force =    -0.15404539   -0.03426605    0.02570720
     atom    5 type  2   force =     0.15404539    0.03426605   -0.02570720
     atom    6 type  2   force =    -0.30242237   -0.06726881   -0.14896832
     atom    7 type  2   force =    -0.03168477   -0.00704784    0.31670972
     atom    8 type  2   force =     0.03168477    0.00704784   -0.31670972
     atom    9 type  2   force =    -0.31670899   -0.07044936   -0.45402382
     atom   10 type  2   force =     0.31670899    0.07044936    0.45402382
     atom   11 type  2   force =     0.30242237    0.06726881    0.14896832
     atom   12 type  3   force =     0.25968069    0.05776406   -0.02511945
     atom   13 type  3   force =    -0.11282024   -0.02509574   -0.25333529
     atom   14 type  3   force =     0.11282024    0.02509574    0.25333529
     atom   15 type  3   force =    -0.25968069   -0.05776406    0.02511945
     atom   16 type  3   force =    -0.27803424   -0.06184598   -0.16825996
     atom   17 type  3   force =     0.27803424    0.06184598    0.16825996
     The ionic contribution  to forces
     atom    1 type  1   force =    -3.31570814   -0.73754964   -3.96539849
     atom    2 type  1   force =     3.31570814    0.73754964    3.96539849
     atom    3 type  1   force =     0.00000000    0.00000000    0.00000000
     atom    4 type  2   force =   -34.39560065   -7.65099393  -31.33930454
     atom    5 type  2   force =    34.39560065    7.65099392   31.33930454
     atom    6 type  2   force =    12.75129251    2.83641104  -11.01347907
     atom    7 type  2   force =   -71.53835668  -15.91306801  -18.40203381
     atom    8 type  2   force =    71.53835668   15.91306801   18.40203381
     atom    9 type  2   force =     9.95934606    2.21536751   43.17485564
     atom   10 type  2   force =    -9.95934606   -2.21536751  -43.17485564
     atom   11 type  2   force =   -12.75129251   -2.83641104   11.01347907
     atom   12 type  3   force =   -26.95746032   -5.99644609   -3.15170973
     atom   13 type  3   force =    12.98514257    2.88842890   18.43021258
     atom   14 type  3   force =   -12.98514257   -2.88842890  -18.43021258
     atom   15 type  3   force =    26.95746032    5.99644609    3.15170973
     atom   16 type  3   force =    25.95616666    5.77371727   16.60820662
     atom   17 type  3   force =   -25.95616666   -5.77371727  -16.60820662
     The local contribution  to forces
     atom    1 type  1   force =     3.32576640    0.73978732    4.01704104
     atom    2 type  1   force =    -3.32632709   -0.73991099   -4.01708452
     atom    3 type  1   force =     0.00021544    0.00004832    0.00008088
     atom    4 type  2   force =    34.58531457    7.69319366   31.32854309
     atom    5 type  2   force =   -34.58365785   -7.69282529  -31.32923487
     atom    6 type  2   force =   -12.41795543   -2.76226460   11.19821584
     atom    7 type  2   force =    71.57501006   15.92122268   18.03882275
     atom    8 type  2   force =   -71.57414253  -15.92102557  -18.03979792
     atom    9 type  2   force =    -9.61925906   -2.13971793  -42.70025740
     atom   10 type  2   force =     9.62004631    2.13989318   42.70054981
     atom   11 type  2   force =    12.41711040    2.76207610  -11.19725977
     atom   12 type  3   force =    26.66965501    5.93242524    3.19823045
     atom   13 type  3   force =   -12.84138384   -2.85644983  -18.15286603
     atom   14 type  3   force =    12.84124065    2.85641938   18.15317729
     atom   15 type  3   force =   -26.66988533   -5.93247733   -3.19827547
     atom   16 type  3   force =   -25.64715562   -5.70498063  -16.42562482
     atom   17 type  3   force =    25.64748313    5.70505305   16.42539029
     The core correction contribution to forces
     atom    1 type  1   force =     0.00026432    0.00005881    0.00199891
     atom    2 type  1   force =    -0.00026316   -0.00005852   -0.00199956
     atom    3 type  1   force =     0.00000007    0.00000004    0.00000114
     atom    4 type  2   force =     0.00010240    0.00002278   -0.00033546
     atom    5 type  2   force =    -0.00010268   -0.00002284    0.00033551
     atom    6 type  2   force =     0.00057266    0.00012737    0.00017630
     atom    7 type  2   force =    -0.00015297   -0.00003402   -0.00040266
     atom    8 type  2   force =     0.00015316    0.00003407    0.00040240
     atom    9 type  2   force =     0.00052952    0.00011779    0.00055309
     atom   10 type  2   force =    -0.00052978   -0.00011784   -0.00055332
     atom   11 type  2   force =    -0.00057292   -0.00012744   -0.00017675
     atom   12 type  3   force =    -0.01456922   -0.00324082    0.00137957
     atom   13 type  3   force =     0.00627827    0.00139650    0.01396904
     atom   14 type  3   force =    -0.00627787   -0.00139644   -0.01396935
     atom   15 type  3   force =     0.01456457    0.00323982   -0.00138118
     atom   16 type  3   force =     0.01541845    0.00342962    0.00926205
     atom   17 type  3   force =    -0.01542042   -0.00343019   -0.00926323
     The Hubbard contrib.    to forces
     atom    1 type  1   force =     0.00000000    0.00000000    0.00000000
     atom    2 type  1   force =     0.00000000    0.00000000    0.00000000
     atom    3 type  1   force =     0.00000000    0.00000000    0.00000000
     atom    4 type  2   force =     0.00000000    0.00000000    0.00000000
     atom    5 type  2   force =     0.00000000    0.00000000    0.00000000
     atom    6 type  2   force =     0.00000000    0.00000000    0.00000000
     atom    7 type  2   force =     0.00000000    0.00000000    0.00000000
     atom    8 type  2   force =     0.00000000    0.00000000    0.00000000
     atom    9 type  2   force =     0.00000000    0.00000000    0.00000000
     atom   10 type  2   force =     0.00000000    0.00000000    0.00000000
     atom   11 type  2   force =     0.00000000    0.00000000    0.00000000
     atom   12 type  3   force =     0.00000000    0.00000000    0.00000000
     atom   13 type  3   force =     0.00000000    0.00000000    0.00000000
     atom   14 type  3   force =     0.00000000    0.00000000    0.00000000
     atom   15 type  3   force =     0.00000000    0.00000000    0.00000000
     atom   16 type  3   force =     0.00000000    0.00000000    0.00000000
     atom   17 type  3   force =     0.00000000    0.00000000    0.00000000
     The SCF correction term to forces
     atom    1 type  1   force =     0.00028838    0.00006398   -0.00011384
     atom    2 type  1   force =     0.00029419    0.00006486    0.00015020
     atom    3 type  1   force =    -0.00021829   -0.00004867   -0.00005853
     atom    4 type  2   force =    -0.00107517   -0.00023498    0.00001894
     atom    5 type  2   force =    -0.00072105   -0.00016284    0.00063812
     atom    6 type  2   force =     0.00036350    0.00008278   -0.00024969
     atom    7 type  2   force =    -0.00101143   -0.00022507    0.00053307
     atom    8 type  2   force =     0.00014345    0.00003179    0.00044507
     atom    9 type  2   force =    -0.00041624   -0.00009309   -0.00027879
     atom   10 type  2   force =    -0.00043500   -0.00010280   -0.00003360
     atom   11 type  2   force =     0.00048523    0.00010811   -0.00083202
     atom   12 type  3   force =    -0.00001698   -0.00000325   -0.00003761
     atom   13 type  3   force =     0.00014660    0.00003204   -0.00010475
     atom   14 type  3   force =    -0.00000789   -0.00000217   -0.00022144
     atom   15 type  3   force =     0.00020294    0.00004471    0.00006649
     atom   16 type  3   force =    -0.00004765   -0.00001106    0.00012814
     atom   17 type  3   force =    -0.00030087   -0.00006716    0.00009796

     Total force =     0.174472     Total SCF correction =     0.002422

     Computing stress (Cartesian axis) and pressure

          total   stress  (Ry/bohr**3)                   (kbar)     P=     -253.93
  -0.00175998  -0.00005453   0.00003017         -258.90       -8.02        4.44
  -0.00005453  -0.00152698   0.00000671           -8.02     -224.63        0.99
   0.00003017   0.00000671  -0.00189161            4.44        0.99     -278.26

     kinetic stress (kbar)  20821.21      3.95     65.53
                                3.95  20804.35     14.58
                               65.53     14.58  20708.49

     local   stress (kbar)  26195.56  30182.30  66699.26
                            30182.30-102777.39  14836.65
                            66699.26  14836.65 -57801.73

     nonloc. stress (kbar)  13894.28    -16.23    -34.99
                              -16.23  13963.64     -7.78
                              -34.99     -7.78  13854.93

     hartree stress (kbar)  13128.09 -14533.15 -31943.98
                           -14533.15  75230.16  -7105.65
                           -31943.98  -7105.65  53421.86

     exc-cor stress (kbar)  -5869.62     -0.13     -2.95
                               -0.13  -5869.07     -0.66
                               -2.95     -0.66  -5866.19

     corecor stress (kbar)  -2366.61      1.64      0.36
                                1.64  -2373.62      0.08
                                0.36      0.08  -2365.52

     ewald   stress (kbar) -66061.81 -15646.40 -34778.80
                           -15646.40    797.31  -7736.23
                           -34778.80  -7736.23 -22230.12

     hubbard stress (kbar)      0.00      0.00      0.00
                                0.00      0.00      0.00
                                0.00      0.00      0.00

     DFT-D   stress (kbar)      0.00      0.00      0.00
                                0.00      0.00      0.00
                                0.00      0.00      0.00

     XDM     stress (kbar)      0.00      0.00      0.00
                                0.00      0.00      0.00
                                0.00      0.00      0.00

     dft-nl  stress (kbar)      0.00      0.00      0.00
                                0.00      0.00      0.00
                                0.00      0.00      0.00

     TS-vdW  stress (kbar)      0.00      0.00      0.00
                                0.00      0.00      0.00
                                0.00      0.00      0.00

[...]

                                0.00      0.00      0.00

     Writing all to output data dir new_calculations/myprefix.save/

     General routines

     Parallel routines

     PAW routines

   This run was terminated on:  14: 4: 0  21May2023

   JOB DONE.