     Program PWSCF v.7.0 starts on 21May2023 at  2:40:52

     Reading input from espresso_18792.pwi
Warning: card &CELL ignored
Warning: card / ignored

     Current dimensions of program PWSCF are:
     Max number of different atomic species (ntypx) = 10
     Max number of k-points (npk) =  40000
     Max angular momentum in pseudopotentials (lmaxx) =  4

     gamma-point specific algorithms are used
     Message from routine setup:
     using ibrav=0 with symmetry is DISCOURAGED, use correct ibrav instead

     Subspace diagonalization in iterative solution of the eigenvalue problem:
     a serial algorithm will be used

     Using Slab Decomposition

     bravais-lattice index     =            0
     lattice parameter (alat)  =      14.0082  a.u.
     unit-cell volume          =    2115.9111 (a.u.)^3
     number of atoms/cell      =           14
     number of atomic types    =            3
     number of electrons       =       116.00
     number of Kohn-Sham states=           70
     kinetic-energy cutoff     =      30.0000  Ry
     charge density cutoff     =     240.0000  Ry
     scf convergence threshold =      1.0E-06
     mixing beta               =       0.7000
     number of iterations used =            8  plain     mixing
     Exchange-correlation=  SLA  PW   PBX  PBC
                           (   1   4   3   4   0   0   0)

     celldm(1)=  14.008205  celldm(2)=   0.000000  celldm(3)=   0.000000
     celldm(4)=   0.000000  celldm(5)=   0.000000  celldm(6)=   0.000000

     crystal axes: (cart. coord. in units of alat)
               a(1) = (   1.000000   0.000000   0.000000 )
               a(2) = (  -0.324545   0.945870   0.000000 )
               a(3) = (  -0.337728  -0.472935   0.813801 )

     reciprocal axes: (cart. coord. in units 2 pi/alat)
               b(1) = (  1.000000  0.343118  0.614401 )
               b(2) = (  0.000000  1.057227  0.614401 )
               b(3) = (  0.000000  0.000000  1.228801 )

     PseudoPot. # 1 for Ca read from file:
     /home/pragov/projects/rrg-bengioy-ad/pragov/crystal_structure_design/SSSP/Ca_pbe_v1.uspp.F.UPF
     MD5 check sum: 403a4c14b9e4d4dfdc3024c9a3812218
     Pseudo is Ultrasoft + core correction, Zval = 10.0
     Generated by new atomic code, or converted to UPF format
     Using radial grid of  845 points,  6 beta functions with:
                l(1) =   0
                l(2) =   0
                l(3) =   1
                l(4) =   1
                l(5) =   2
                l(6) =   2
     Q(r) pseudized with  8 coefficients,  rinner =    1.500   1.500   1.500
                                                       1.500   1.500

     PseudoPot. # 2 for Ce read from file:
     /home/pragov/projects/rrg-bengioy-ad/pragov/crystal_structure_design/SSSP/Ce.GGA-PBE-paw-v1.0.UPF
     MD5 check sum: f2b950f613061344c13339c8d844425d
     Pseudo is Projector augmented-wave + core cor, Zval = 12.0
     Generated using ATOMPAW code
     Shape of augmentation charge: BESSEL
     Using radial grid of 1102 points,  8 beta functions with:
                l(1) =   0
                l(2) =   0
                l(3) =   1
                l(4) =   1
                l(5) =   2
                l(6) =   2
                l(7) =   3
                l(8) =   3
     Q(r) pseudized with 0 coefficients

     PseudoPot. # 3 for S  read from file:
     /home/pragov/projects/rrg-bengioy-ad/pragov/crystal_structure_design/SSSP/s_pbe_v1.4.uspp.F.UPF
     MD5 check sum: 88d86576ff6df21479756cfb9bdac1df
     Pseudo is Ultrasoft + core correction, Zval =  6.0
     Generated by new atomic code, or converted to UPF format
     Using radial grid of  907 points,  6 beta functions with:
                l(1) =   0
                l(2) =   0
                l(3) =   1
                l(4) =   1
                l(5) =   2
                l(6) =   2
     Q(r) pseudized with  8 coefficients,  rinner =    1.300   1.300   1.300
                                                       1.300   1.300

     atomic species   valence    mass     pseudopotential
        Ca            10.00    40.07800     Ca( 1.00)
        Ce            12.00   140.11600     Ce( 1.00)
        S              6.00    32.06000     S ( 1.00)

      2 Sym. Ops. (no inversion) found ( 1 have fractional translation)

                                    s                        frac. trans.

      isym =  1     identity

 cryst.   s( 1) = (     1          0          0      )
                  (     0          1          0      )
                  (     0          0          1      )

 cart.    s( 1) = (  1.0000000  0.0000000  0.0000000 )
                  (  0.0000000  1.0000000  0.0000000 )
                  (  0.0000000  0.0000000  1.0000000 )

      isym =  2     inv. 180 deg rotation - cart. axis [0,0,1]

 cryst.   s( 2) = (     1          0          0      )    f =(  0.2500000 )
                  (     0          1          0      )       ( -0.2500000 )
                  (    -1         -1         -1      )       ( -0.5000000 )

 cart.    s( 2) = (  1.0000000  0.0000000  0.0000000 )    f =(  0.5000000 )
                  (  0.0000000  1.0000000  0.0000000 )       (  0.0000000 )
                  (  0.0000000  0.0000000 -1.0000000 )       ( -0.4069006 )

   Cartesian axes

     site n.     atom                  positions (alat units)
         1           Ca  tau(   1) = (   0.3377276   0.4729352   0.0000000  )
         2           Ca  tau(   2) = (  -0.1622724   0.4729352   0.4069006  )
         3           Ce  tau(   3) = (  -0.4962355   0.1758392   0.7146769  )
         4           Ce  tau(   4) = (   0.3414921   0.6487744   0.5060248  )
         5           Ce  tau(   5) = (   0.6650993   0.0606284   0.0991242  )
         6           Ce  tau(   6) = (   0.1650993   0.0606284   0.3077764  )
         7           S   tau(   7) = (  -0.0345215   0.3049524   0.0847297  )
         8           S   tau(   8) = (  -0.2003508   0.0663178   0.4916303  )
         9           S   tau(   9) = (   0.6118446   0.7109951   0.2053147  )
        10           S   tau(  10) = (   0.4654785   0.3049524   0.3221709  )
        11           S   tau(  11) = (   0.1118446   0.7109951   0.2015859  )
        12           S   tau(  12) = (   0.2984830  -0.1363950   0.6122153  )
        13           S   tau(  13) = (   0.1362106   0.3365402   0.6084865  )
        14           S   tau(  14) = (  -0.0380784  -0.4066174   0.7290715  )

   Crystallographic axes

     site n.     atom                  positions (cryst. coord.)
         1           Ca  tau(   1) = (  0.5000000  0.5000000  0.0000000  )
         2           Ca  tau(   2) = (  0.2500000  0.7500000  0.5000000  )
         3           Ce  tau(   3) = (  0.0031960  0.6250000  0.8781960  )
         4           Ce  tau(   4) = (  0.8750000  0.9968040  0.6218040  )
         5           Ce  tau(   5) = (  0.7468040  0.1250000  0.1218040  )
         6           Ce  tau(   6) = (  0.3750000  0.2531960  0.3781960  )
         7           S   tau(   7) = (  0.1221710  0.3744620  0.1041160  )
         8           S   tau(   8) = (  0.1244620  0.3721710  0.6041160  )
         9           S   tau(   9) = (  0.9819450  0.8778290  0.2522910  )
        10           S   tau(  10) = (  0.7680550  0.5203460  0.3958840  )
        11           S   tau(  11) = (  0.4796540  0.8755380  0.2477090  )
        12           S   tau(  12) = (  0.6278290  0.2319450  0.7522910  )
        13           S   tau(  13) = (  0.6255380  0.7296540  0.7477090  )
        14           S   tau(  14) = (  0.2703460  0.0180550  0.8958840  )

     number of k points=     1  Methfessel-Paxton smearing, width (Ry)=  0.0010
                       cart. coord. in units 2pi/alat
        k(    1) = (   0.0000000   0.0000000   0.0000000), wk =   2.0000000

                       cryst. coord.
        k(    1) = (   0.0000000   0.0000000   0.0000000), wk =   2.0000000

     Initial potential from superposition of free atoms

     starting charge     115.9608, renormalised to     116.0000
     Starting wfcs are  180 randomized atomic wfcs
     Checking if some PAW data can be deallocated...

     Self-consistent Calculation

     iteration #  1     ecut=    30.00 Ry     beta= 0.70
     Davidson diagonalization with overlap

     ethr =  1.00E-02,  avg # of iterations =  4.0

     total energy              =   -2270.04261726 Ry
     estimated scf accuracy    <       2.31202328 Ry

[...]

     c_bands:  1 eigenvalues not converged
     ethr =  1.43E-05,  avg # of iterations = 20.0

[...]

     c_bands:  1 eigenvalues not converged
     ethr =  1.75E-06,  avg # of iterations = 20.0

[...]

     total energy              =   -2273.20161546 Ry
     estimated scf accuracy    <       0.00000110 Ry

     iteration # 74     ecut=    30.00 Ry     beta= 0.70
     Davidson diagonalization with overlap

     ethr =  9.45E-10,  avg # of iterations =  2.0

     End of self-consistent calculation

          k = 0.0000 0.0000 0.0000 (  2928 PWs)   bands (ev):

   -30.6386 -30.5658 -24.3852 -24.3566 -24.3396 -24.3326 -11.7204 -11.6762
   -11.6517 -11.6398 -11.6199 -11.5919  -7.8028  -7.7672  -7.6846  -7.5842
    -7.5420  -7.5021  -7.4251  -7.3057  -7.2608  -7.2430  -7.1785  -7.0977
    -2.9522  -2.3150  -1.7192  -1.7119  -1.5162  -1.4823  -1.4776  -1.4342
     5.3704   5.3768   5.5592   5.5799   5.5883   5.9024   6.2089   6.4100
     6.8855   6.8962   7.2036   7.3863   7.4081   7.5080   7.8037   8.1645
     8.1878   8.3113   8.3392   8.4322   8.4489   8.7624   8.8888   8.9116
    10.6563  10.6884  10.6985  10.7374  10.7499  10.7747  10.8299  10.8794
    10.8870  10.9387  10.9512  10.9621  10.9836  10.9975

     occupation numbers
     1.0000   1.0000   1.0000   1.0000   1.0000   1.0000   1.0000   1.0000
     1.0000   1.0000   1.0000   1.0000   1.0000   1.0000   1.0000   1.0000
     1.0000   1.0000   1.0000   1.0000   1.0000   1.0000   1.0000   1.0000
     1.0000   1.0000   1.0000   1.0000   1.0000   1.0000   1.0000   1.0000
     1.0000   1.0000   1.0000   1.0000   1.0000   1.0000   1.0000   1.0000
     1.0000   1.0000   1.0000   1.0000   1.0000   1.0000   1.0000   1.0000
     1.0000   1.0000   1.0000   1.0000   1.0000   1.0000   1.0000   1.0000
     1.0004   0.7910   0.2086  -0.0000  -0.0000  -0.0000  -0.0000  -0.0000
    -0.0000  -0.0000  -0.0000  -0.0000  -0.0000  -0.0000

     the Fermi energy is    10.6935 ev

!    total energy              =   -2273.20161501 Ry
     estimated scf accuracy    <       0.00000052 Ry
     smearing contrib. (-TS)   =      -0.00035405 Ry
     internal energy E=F+TS    =   -2273.20126096 Ry

     The total energy is F=E-TS. E is the sum of the following terms:
     one-electron contribution =     -46.44429743 Ry
     hartree contribution      =      86.55257174 Ry
     xc contribution           =    -133.39679539 Ry
     ewald contribution        =    -546.52725816 Ry
     one-center paw contrib.   =   -1633.38548173 Ry
      -> PAW hartree energy AE =     175.46745825 Ry
      -> PAW hartree energy PS =    -174.37709286 Ry
      -> PAW xc energy AE      =   -1668.70126730 Ry
      -> PAW xc energy PS      =      34.22542017 Ry
      -> total E_H with PAW    =      87.64293713 Ry
      -> total E_XC with PAW   =   -1767.87264251 Ry

     convergence has been achieved in  74 iterations

     Forces acting on atoms (cartesian axes, Ry/au):

     atom    1 type  1   force =    -0.00037526    0.00281813    0.00126437
     atom    2 type  1   force =    -0.00037526    0.00281813   -0.00126437
     atom    3 type  2   force =    -0.00862098    0.00040823   -0.01433470
     atom    4 type  2   force =    -0.00862098    0.00040823    0.01433470
     atom    5 type  2   force =     0.00748745   -0.00697682   -0.00251745
     atom    6 type  2   force =     0.00748745   -0.00697682    0.00251745
     atom    7 type  3   force =     0.01092102   -0.00724286   -0.01777618
     atom    8 type  3   force =    -0.01165358    0.00860856   -0.00664861
     atom    9 type  3   force =    -0.01086376    0.01059280   -0.01498058
     atom   10 type  3   force =     0.01092102   -0.00724286    0.01777618
     atom   11 type  3   force =    -0.01086376    0.01059280    0.01498058
     atom   12 type  3   force =     0.01310511   -0.00820805   -0.00916283
     atom   13 type  3   force =     0.01310511   -0.00820805    0.00916283
     atom   14 type  3   force =    -0.01165358    0.00860856    0.00664861
     The non-local contrib.  to forces
     atom    1 type  1   force =    -0.00044991    0.00016286    0.00088712
     atom    2 type  1   force =    -0.00044991    0.00016286   -0.00088712
     atom    3 type  2   force =     0.04327820   -0.02183890    0.03924089
     atom    4 type  2   force =     0.04327820   -0.02183890   -0.03924089
     atom    5 type  2   force =    -0.02526810    0.02569183   -0.02803816
     atom    6 type  2   force =    -0.02526810    0.02569183    0.02803816
     atom    7 type  3   force =    -0.02239331   -0.01115275    0.00478693
     atom    8 type  3   force =    -0.00193935   -0.02253834    0.01506897
     atom    9 type  3   force =     0.02024652    0.01639992    0.01573082
     atom   10 type  3   force =    -0.02239331   -0.01115275   -0.00478693
     atom   11 type  3   force =     0.02024652    0.01639992   -0.01573082
     atom   12 type  3   force =     0.00485787    0.01870239    0.01608349
     atom   13 type  3   force =     0.00485787    0.01870239   -0.01608349
     atom   14 type  3   force =    -0.00193935   -0.02253834   -0.01506897
     The ionic contribution  to forces
     atom    1 type  1   force =     0.00000000   -0.00000000   -0.00000000
     atom    2 type  1   force =    -0.00000000    0.00000000   -0.00000000
     atom    3 type  2   force =     0.09850201   -0.07034125    0.12103940
     atom    4 type  2   force =     0.09850201   -0.07034125   -0.12103940
     atom    5 type  2   force =    -0.09850201    0.07034125   -0.12103940
     atom    6 type  2   force =    -0.09850201    0.07034124    0.12103940
     atom    7 type  3   force =     0.37262769    0.55665494    0.01015378
     atom    8 type  3   force =     0.40558904    0.53311692    0.01015378
     atom    9 type  3   force =    -0.38084521   -0.55078673    0.02025147
     atom   10 type  3   force =     0.37262769    0.55665494   -0.01015378
     atom   11 type  3   force =    -0.38084521   -0.55078673   -0.02025147
     atom   12 type  3   force =    -0.39737152   -0.53898513    0.02025147
     atom   13 type  3   force =    -0.39737152   -0.53898513   -0.02025147
     atom   14 type  3   force =     0.40558904    0.53311692   -0.01015378
     The local contribution  to forces
     atom    1 type  1   force =     0.00132467    0.00282635   -0.00045660
     atom    2 type  1   force =    -0.00071542   -0.00143041   -0.00140082
     atom    3 type  2   force =    -0.15036858    0.07549758   -0.17221531
     atom    4 type  2   force =    -0.14957120    0.10568731    0.17680355
     atom    5 type  2   force =     0.15346246   -0.11988377    0.14386595
     atom    6 type  2   force =     0.10911449   -0.08995238   -0.14982689
     atom    7 type  3   force =    -0.34722121   -0.54960671   -0.04466086
     atom    8 type  3   force =    -0.41670213   -0.50449411   -0.02144038
     atom    9 type  3   force =     0.35224569    0.54370340   -0.05476152
     atom   10 type  3   force =    -0.33289544   -0.56189354    0.01803908
     atom   11 type  3   force =     0.34968462    0.54542506    0.04491981
     atom   12 type  3   force =     0.40817270    0.51289275   -0.03735999
     atom   13 type  3   force =     0.40419679    0.50981642    0.05335136
     atom   14 type  3   force =    -0.41382479   -0.50600860    0.03949777
     The core correction contribution to forces
     atom    1 type  1   force =     0.00004688    0.00003853    0.00003339
     atom    2 type  1   force =    -0.00009328    0.00000594    0.00011831
     atom    3 type  2   force =    -0.00005232    0.00002581   -0.00003523
     atom    4 type  2   force =    -0.00004805    0.00002812    0.00004930
     atom    5 type  2   force =     0.00005531   -0.00003862    0.00003511
     atom    6 type  2   force =     0.00001371   -0.00002485   -0.00003853
     atom    7 type  3   force =    -0.00042547    0.00259072   -0.00414594
     atom    8 type  3   force =    -0.00100180    0.00202911   -0.00033270
     atom    9 type  3   force =    -0.00080335   -0.00148670   -0.00259104
     atom   10 type  3   force =     0.00243625   -0.00054685   -0.00139653
     atom   11 type  3   force =    -0.00109851   -0.00129173   -0.00030284
     atom   12 type  3   force =     0.00036229   -0.00195085    0.00178588
     atom   13 type  3   force =    -0.00091741   -0.00037153    0.00211450
     atom   14 type  3   force =     0.00132392    0.00065434    0.00267085
     The Hubbard contrib.    to forces
     atom    1 type  1   force =     0.00000000    0.00000000    0.00000000
     atom    2 type  1   force =     0.00000000    0.00000000    0.00000000
     atom    3 type  2   force =     0.00000000    0.00000000    0.00000000
     atom    4 type  2   force =     0.00000000    0.00000000    0.00000000
     atom    5 type  2   force =     0.00000000    0.00000000    0.00000000
     atom    6 type  2   force =     0.00000000    0.00000000    0.00000000
     atom    7 type  3   force =     0.00000000    0.00000000    0.00000000
     atom    8 type  3   force =     0.00000000    0.00000000    0.00000000
     atom    9 type  3   force =     0.00000000    0.00000000    0.00000000
     atom   10 type  3   force =     0.00000000    0.00000000    0.00000000
     atom   11 type  3   force =     0.00000000    0.00000000    0.00000000
     atom   12 type  3   force =     0.00000000    0.00000000    0.00000000
     atom   13 type  3   force =     0.00000000    0.00000000    0.00000000
     atom   14 type  3   force =     0.00000000    0.00000000    0.00000000
     The SCF correction term to forces
     atom    1 type  1   force =     0.00020839    0.00005663    0.00002786
     atom    2 type  1   force =    -0.00011459    0.00000233    0.00013265
     atom    3 type  2   force =    -0.00036213    0.00048373   -0.00014337
     atom    4 type  2   force =     0.00010726   -0.00035699   -0.00001680
     atom    5 type  2   force =    -0.00027006    0.00010216   -0.00037172
     atom    6 type  2   force =     0.00064653   -0.00003352    0.00027456
     atom    7 type  3   force =    -0.00008131    0.00013047    0.00002892
     atom    8 type  3   force =    -0.00002654    0.00016279    0.00011522
     atom    9 type  3   force =    -0.00001056   -0.00020414   -0.00010923
     atom   10 type  3   force =     0.00006779    0.00002464    0.00001334
     atom   11 type  3   force =    -0.00004068    0.00000212   -0.00015299
     atom   12 type  3   force =    -0.00010167    0.00000052    0.00012303
     atom   13 type  3   force =     0.00003218   -0.00004911    0.00007863
     atom   14 type  3   force =     0.00013214   -0.00009476   -0.00008377

     Total force =     0.061972     Total SCF correction =     0.001240

     Computing stress (Cartesian axis) and pressure

          total   stress  (Ry/bohr**3)                   (kbar)     P=      121.23
   0.00090049  -0.00050831   0.00000000          132.47      -74.78        0.00
  -0.00050831   0.00045951   0.00000000          -74.78       67.60        0.00
   0.00000000   0.00000000   0.00111223            0.00        0.00      163.61

     kinetic stress (kbar)   8780.21    -49.83      0.00
                              -49.83   8737.46      0.00
                                0.00      0.00   8811.86

     local   stress (kbar)  -2483.48    102.11      0.48
                              102.11  -2414.93     -1.36
                                0.48     -1.36  -2569.11

     nonloc. stress (kbar)   6871.09    -19.23      0.00
                              -19.23   6856.00      0.00
                                0.00      0.00   6879.63

     hartree stress (kbar)   2005.95    -46.36     -0.65
                              -46.36   1972.62      0.66
                               -0.65      0.66   2038.85

     exc-cor stress (kbar)     59.65     -0.44     -0.04
                               -0.44     59.28      0.02
                               -0.04      0.02     59.91

     corecor stress (kbar)  -2434.93      0.03      0.07
                                0.03  -2434.91      0.00
                                0.07      0.00  -2435.11

     ewald   stress (kbar) -12666.02    -61.06      0.00
                              -61.06 -12707.93      0.00
                                0.00      0.00 -12622.42

     hubbard stress (kbar)      0.00      0.00      0.00
                                0.00      0.00      0.00
                                0.00      0.00      0.00

     DFT-D   stress (kbar)      0.00      0.00      0.00
                                0.00      0.00      0.00
                                0.00      0.00      0.00

     XDM     stress (kbar)      0.00      0.00      0.00
                                0.00      0.00      0.00
                                0.00      0.00      0.00

     dft-nl  stress (kbar)      0.00      0.00      0.00
                                0.00      0.00      0.00
                                0.00      0.00      0.00

     TS-vdW  stress (kbar)      0.00      0.00      0.00
                                0.00      0.00      0.00
                                0.00      0.00      0.00

[...]

                                0.00      0.00      0.00

     Writing all to output data dir new_calculations/myprefix.save/

     General routines

     Parallel routines

     PAW routines

   This run was terminated on:   2:45:34  21May2023

   JOB DONE.