     Program PWSCF v.7.0 starts on 20May2023 at 18: 7:58

     Reading input from espresso_3666.pwi
Warning: card &CELL ignored
Warning: card / ignored

     Current dimensions of program PWSCF are:
     Max number of different atomic species (ntypx) = 10
     Max number of k-points (npk) =  40000
     Max angular momentum in pseudopotentials (lmaxx) =  4

     gamma-point specific algorithms are used
     Message from routine setup:
     using ibrav=0 with symmetry is DISCOURAGED, use correct ibrav instead

     Subspace diagonalization in iterative solution of the eigenvalue problem:
     a serial algorithm will be used

     Using Slab Decomposition

     bravais-lattice index     =            0
     lattice parameter (alat)  =       8.7038  a.u.
     unit-cell volume          =     466.2399 (a.u.)^3
     number of atoms/cell      =            4
     number of atomic types    =            3
     number of electrons       =        52.00
     number of Kohn-Sham states=           31
     kinetic-energy cutoff     =      30.0000  Ry
     charge density cutoff     =     240.0000  Ry
     scf convergence threshold =      1.0E-06
     mixing beta               =       0.7000
     number of iterations used =            8  plain     mixing
     Exchange-correlation= SLA  PW   PBE  PBE
                           (   1   4   3   4   0   0   0)

     celldm(1)=   8.703785  celldm(2)=   0.000000  celldm(3)=   0.000000
     celldm(4)=   0.000000  celldm(5)=   0.000000  celldm(6)=   0.000000

     crystal axes: (cart. coord. in units of alat)
               a(1) = (   1.000000   0.000000   0.000000 )
               a(2) = (   0.500000   0.866025   0.000000 )
               a(3) = (   0.500000   0.288675   0.816497 )

     reciprocal axes: (cart. coord. in units 2 pi/alat)
               b(1) = (  1.000000 -0.577350 -0.408248 )
               b(2) = (  0.000000  1.154701 -0.408248 )
               b(3) = (  0.000000  0.000000  1.224745 )

     PseudoPot. # 1 for Ta read from file:
     /home/pragov/projects/rrg-bengioy-ad/pragov/crystal_structure_design/SSSP/Ta_pbe_v1.uspp.F.UPF
     MD5 check sum: f8bbe9446314a3b8ea5d9f3e3836c939
     Pseudo is Ultrasoft + core correction, Zval = 13.0
     Generated by new atomic code, or converted to UPF format
     Using radial grid of  921 points,  7 beta functions with:
                l(1) =   0
                l(2) =   0
                l(3) =   1
                l(4) =   1
                l(5) =   2
                l(6) =   2
                l(7) =   3
     Q(r) pseudized with  6 coefficients,  rinner =    1.300   1.300   1.300
                                                       1.300   1.300   1.300
                                                       1.300

     PseudoPot. # 2 for Ti read from file:
     /home/pragov/projects/rrg-bengioy-ad/pragov/crystal_structure_design/SSSP/ti_pbe_v1.4.uspp.F.UPF
     MD5 check sum: 88a00a6731bd790ddea75d31a80cb452
     Pseudo is Ultrasoft + core correction, Zval = 12.0
     Generated by new atomic code, or converted to UPF format
     Using radial grid of  851 points,  6 beta functions with:
                l(1) =   0
                l(2) =   0
                l(3) =   1
                l(4) =   1
                l(5) =   2
                l(6) =   2
     Q(r) pseudized with  6 coefficients,  rinner =    1.000   1.000   1.000
                                                       1.000   1.000

     PseudoPot. # 3 for W  read from file:
     /home/pragov/projects/rrg-bengioy-ad/pragov/crystal_structure_design/SSSP/W_pbe_v1.2.uspp.F.UPF
     MD5 check sum: 9c083fa34c2a2ea0f02f1f893e16e1c8
     Pseudo is Ultrasoft + core correction, Zval = 14.0
     Generated by new atomic code, or converted to UPF format
     Using radial grid of  923 points,  8 beta functions with:
                l(1) =   0
                l(2) =   0
                l(3) =   0
                l(4) =   1
                l(5) =   1
                l(6) =   2
                l(7) =   2
                l(8) =   3
     Q(r) pseudized with  6 coefficients,  rinner =    1.350   1.350   1.350
                                                       1.350   1.350   1.350
                                                       1.350

     atomic species   valence    mass     pseudopotential
        Ta            13.00   180.94788     Ta( 1.00)
        Ti            12.00    47.86700     Ti( 1.00)
        W             14.00   183.84000     W ( 1.00)

     12 Sym. Ops., with inversion, found

                                    s                        frac. trans.

      isym =  1     identity

 cryst.   s( 1) = (     1          0          0      )
                  (     0          1          0      )
                  (     0          0          1      )

 cart.    s( 1) = (  1.0000000  0.0000000  0.0000000 )
                  (  0.0000000  1.0000000 -0.0000000 )
                  (  0.0000000  0.0000000  1.0000000 )

      isym =  2     180 deg rotation - cart. axis [1,0,0]

[...]

      isym =  3     120 deg rotation - cryst. axis [0,0,1]

[...]

      isym =  6     180 deg rotation - cryst. axis [1,1,0]

[...]

      isym =  7     inversion

[...]

      isym =  8     inv. 180 deg rotation - cart. axis [1,0,0]

[...]

      isym =  9     inv. 120 deg rotation - cryst. axis [0,0,1]

 cryst.   s( 9) = (     1         -1          0      )
                  (     1          0          0      )
                  (     1          0         -1      )

 cart.    s( 9) = (  0.5000000  0.8660254  0.0000000 )
                  ( -0.8660254  0.5000000  0.0000000 )
                  (  0.0000000  0.0000000 -1.0000000 )

[...]

 cryst.   s(10) = (     0          1          0      )
                  (    -1          1          0      )
                  (     0          1         -1      )

 cart.    s(10) = (  0.5000000 -0.8660254  0.0000000 )
                  (  0.8660254  0.5000000  0.0000000 )
                  (  0.0000000  0.0000000 -1.0000000 )

[...]

      isym = 12     inv. 180 deg rotation - cryst. axis [1,1,0]

 cryst.   s(12) = (     1         -1          0      )
                  (     0         -1          0      )
                  (     0         -1          1      )

 cart.    s(12) = (  0.5000000 -0.8660254 -0.0000000 )
                  ( -0.8660254 -0.5000000 -0.0000000 )
                  (  0.0000000  0.0000000  1.0000000 )

   Cartesian axes

     site n.     atom                  positions (alat units)
         1           Ta  tau(   1) = (   0.5000000   0.2886751   0.2041241  )
         2           Ta  tau(   2) = (   1.5000000   0.8660254   0.6123724  )
         3           Ti  tau(   3) = (   1.0000000   0.5773503   0.4082483  )
         4           W   tau(   4) = (   0.0000000   0.0000000   0.0000000  )

   Crystallographic axes

     site n.     atom                  positions (cryst. coord.)
         1           Ta  tau(   1) = (  0.2500000  0.2500000  0.2500000  )
         2           Ta  tau(   2) = (  0.7500000  0.7500000  0.7500000  )
         3           Ti  tau(   3) = (  0.5000000  0.5000000  0.5000000  )
         4           W   tau(   4) = (  0.0000000  0.0000000  0.0000000  )

     number of k points=     1  Methfessel-Paxton smearing, width (Ry)=  0.0010
                       cart. coord. in units 2pi/alat
        k(    1) = (   0.0000000   0.0000000   0.0000000), wk =   2.0000000

                       cryst. coord.
        k(    1) = (   0.0000000   0.0000000   0.0000000), wk =   2.0000000

     Check: negative core charge=   -0.000002

     Initial potential from superposition of free atoms

     starting charge      50.8974, renormalised to      52.0000

     negative rho (up, down):  2.592E-01 0.000E+00
     Starting wfcs are   49 randomized atomic wfcs

     Self-consistent Calculation

     iteration #  1     ecut=    30.00 Ry     beta= 0.70
     Davidson diagonalization with overlap

     ethr =  1.00E-02,  avg # of iterations =  2.0

     negative rho (up, down):  2.526E-01 0.000E+00

     total energy              =    -558.04166305 Ry
     estimated scf accuracy    <       5.72400114 Ry

[...]

     total energy              =    -562.36524743 Ry
     estimated scf accuracy    <       0.00000542 Ry

     iteration # 25     ecut=    30.00 Ry     beta= 0.70
     Davidson diagonalization with overlap

     ethr =  1.01E-08,  avg # of iterations =  1.0

[...]

     End of self-consistent calculation

          k = 0.0000 0.0000 0.0000 (   646 PWs)   bands (ev):

   -54.7093 -48.9959 -48.9701 -37.8378 -18.9969 -18.9968 -18.9967 -15.6149
   -15.6149 -15.6148 -15.4324 -15.4323 -15.4323 -14.1174 -14.1174 -14.1173
    10.3646  14.4120  14.4121  16.5535  16.5535  16.5536  16.9324  16.9325
    16.9325  18.8616  18.8617  18.8617  21.5303  21.5304  21.9084

     occupation numbers
     1.0000   1.0000   1.0000   1.0000   1.0000   1.0000   1.0000   1.0000
     1.0000   1.0000   1.0000   1.0000   1.0000   1.0000   1.0000   1.0000
     1.0000   1.0000   1.0000   1.0000   1.0000   1.0000   1.0000   1.0000
     1.0000   0.3346   0.3329   0.3325  -0.0000  -0.0000  -0.0000

     the Fermi energy is    18.8589 ev

!    total energy              =    -562.36524739 Ry
     estimated scf accuracy    <       0.00000026 Ry
     smearing contrib. (-TS)   =      -0.00074671 Ry
     internal energy E=F+TS    =    -562.36450068 Ry

     The total energy is F=E-TS. E is the sum of the following terms:
     one-electron contribution =     -87.31642007 Ry
     hartree contribution      =      69.22347792 Ry
     xc contribution           =    -143.97668784 Ry
     ewald contribution        =    -400.29487069 Ry

     convergence has been achieved in  25 iterations

     negative rho (up, down):  2.585E-01 0.000E+00

     Forces acting on atoms (cartesian axes, Ry/au):

     atom    1 type  1   force =     0.00000000    0.00000000    0.00004435
     atom    2 type  1   force =    -0.00000000   -0.00000000   -0.00004435
     atom    3 type  2   force =    -0.00000000   -0.00000000    0.00000000
     atom    4 type  3   force =    -0.00000000    0.00000000    0.00000000
     The non-local contrib.  to forces
     atom    1 type  1   force =    -0.00000000    0.00000000    0.00011143
     atom    2 type  1   force =    -0.00000000   -0.00000000   -0.00011143
     atom    3 type  2   force =     0.00000000    0.00000000    0.00000000
     atom    4 type  3   force =     0.00000000    0.00000000   -0.00000000
     The ionic contribution  to forces
     atom    1 type  1   force =    -0.00000000    0.00000000    0.00000000
     atom    2 type  1   force =     0.00000000    0.00000000    0.00000000
     atom    3 type  2   force =     0.00000000   -0.00000000   -0.00000000
     atom    4 type  3   force =    -0.00000000   -0.00000000   -0.00000000
     The local contribution  to forces
     atom    1 type  1   force =     0.00009737    0.00005386   -0.00026064
     atom    2 type  1   force =    -0.00010124   -0.00007644    0.00027144
     atom    3 type  2   force =    -0.00000836   -0.00001103    0.00000795
     atom    4 type  3   force =     0.00000834    0.00002354   -0.00000143
     The core correction contribution to forces
     atom    1 type  1   force =    -0.00000748    0.00000005    0.00002766
     atom    2 type  1   force =     0.00000745    0.00000020   -0.00002634
     atom    3 type  2   force =    -0.00000033   -0.00000022    0.00000009
     atom    4 type  3   force =     0.00000057    0.00000027    0.00000123
     The Hubbard contrib.    to forces
     atom    1 type  1   force =     0.00000000    0.00000000    0.00000000
     atom    2 type  1   force =     0.00000000    0.00000000    0.00000000
     atom    3 type  2   force =     0.00000000    0.00000000    0.00000000
     atom    4 type  3   force =     0.00000000    0.00000000    0.00000000
     The SCF correction term to forces
     atom    1 type  1   force =    -0.00007154   -0.00007026    0.00016652
     atom    2 type  1   force =     0.00007614    0.00008121   -0.00017739
     atom    3 type  2   force =     0.00000776    0.00001772   -0.00000871
     atom    4 type  3   force =    -0.00001160   -0.00002809   -0.00000017

     Total force =     0.000063     Total SCF correction =     0.000288
     SCF correction compared to forces is large: reduce conv_thr to get better values

     Computing stress (Cartesian axis) and pressure

     negative rho (up, down):  2.585E-01 0.000E+00
          total   stress  (Ry/bohr**3)                   (kbar)     P=     -102.48
  -0.00069283  -0.00000000  -0.00000000         -101.92       -0.00       -0.00
  -0.00000000  -0.00069283   0.00000000           -0.00     -101.92        0.00
   0.00000000   0.00000000  -0.00070422            0.00        0.00     -103.59

     kinetic stress (kbar)  32255.60      0.00     -0.00
                                0.00  32255.60      0.00
                                0.00      0.00  32256.48

     local   stress (kbar)  25718.70     -0.92      0.24
                               -0.92  25718.21     -0.56
                                0.24     -0.56  25714.90

     nonloc. stress (kbar) -14078.93     -0.00     -0.00
                                0.00 -14078.93     -0.00
                               -0.00     -0.00 -14079.22

     hartree stress (kbar)   7279.81      0.31     -0.04
                                0.31   7279.93      0.16
                               -0.04      0.16   7281.21

     exc-cor stress (kbar)  18459.99      0.01     -0.00
                                0.01  18460.00      0.01
                               -0.00      0.01  18460.03

     corecor stress (kbar) -27637.40     -0.03      0.01
                               -0.03 -27637.42     -0.02
                                0.01     -0.02 -27637.49

     ewald   stress (kbar) -42099.50     -0.00      0.00
                               -0.00 -42099.50      0.00
                                0.00      0.00 -42099.50

     hubbard stress (kbar)      0.00      0.00      0.00
                                0.00      0.00      0.00
                                0.00      0.00      0.00

     DFT-D   stress (kbar)      0.00      0.00      0.00
                                0.00      0.00      0.00
                                0.00      0.00      0.00

     XDM     stress (kbar)      0.00      0.00      0.00
                                0.00      0.00      0.00
                                0.00      0.00      0.00

     dft-nl  stress (kbar)      0.00      0.00      0.00
                                0.00      0.00      0.00
                                0.00      0.00      0.00

     TS-vdW  stress (kbar)      0.00      0.00      0.00
                                0.00      0.00      0.00
                                0.00      0.00      0.00

[...]

                                0.00      0.00      0.00

     Writing all to output data dir new_calculations/myprefix.save/

     General routines

     Parallel routines

   This run was terminated on:  18: 8:14  20May2023

   JOB DONE.