     Program PWSCF v.7.0 starts on 21May2023 at  0:50:16

     Reading input from espresso_16720.pwi
Warning: card &CELL ignored
Warning: card / ignored

     Current dimensions of program PWSCF are:
     Max number of different atomic species (ntypx) = 10
     Max number of k-points (npk) =  40000
     Max angular momentum in pseudopotentials (lmaxx) =  4

     gamma-point specific algorithms are used
     Message from routine setup:
     using ibrav=0 with symmetry is DISCOURAGED, use correct ibrav instead

     Subspace diagonalization in iterative solution of the eigenvalue problem:
     a serial algorithm will be used

     Using Slab Decomposition

     bravais-lattice index     =            0
     lattice parameter (alat)  =       6.2277  a.u.
     unit-cell volume          =    1941.4639 (a.u.)^3
     number of atoms/cell      =            9
     number of atomic types    =            4
     number of electrons       =        78.00
     number of Kohn-Sham states=           47
     kinetic-energy cutoff     =      30.0000  Ry
     charge density cutoff     =     240.0000  Ry
     scf convergence threshold =      1.0E-06
     mixing beta               =       0.7000
     number of iterations used =            8  plain     mixing
     Exchange-correlation=  SLA  PW   PBX  PBC
                           (   1   4   3   4   0   0   0)

     celldm(1)=   6.227711  celldm(2)=   0.000000  celldm(3)=   0.000000
     celldm(4)=   0.000000  celldm(5)=   0.000000  celldm(6)=   0.000000

     crystal axes: (cart. coord. in units of alat)
               a(1) = (   1.000000   0.000000   0.000000 )
               a(2) = (  -0.500000   0.866025   0.000000 )
               a(3) = (   0.000000   0.000000   9.281400 )

     reciprocal axes: (cart. coord. in units 2 pi/alat)
               b(1) = (  1.000000  0.577351  0.000000 )
               b(2) = (  0.000000  1.154701  0.000000 )
               b(3) = (  0.000000  0.000000  0.107742 )

     PseudoPot. # 1 for Te read from file:
     /home/pragov/projects/rrg-bengioy-ad/pragov/crystal_structure_design/SSSP/Te_pbe_v1.uspp.F.UPF
     MD5 check sum: c319670d6894cc26e93307826a071b75
     Pseudo is Ultrasoft + core correction, Zval =  6.0
     Generated by new atomic code, or converted to UPF format
     Using radial grid of  891 points,  5 beta functions with:
                l(1) =   0
                l(2) =   0
                l(3) =   1
                l(4) =   1
                l(5) =   2
     Q(r) pseudized with  6 coefficients,  rinner =    1.800   1.800   1.800
                                                       1.800   1.800

     PseudoPot. # 2 for Mo read from file:
     /home/pragov/projects/rrg-bengioy-ad/pragov/crystal_structure_design/SSSP/Mo_ONCV_PBE-1.0.oncvpsp.upf
     MD5 check sum: 1b5d28e075c9ccadda658a603575cd1f
     Pseudo is Norm-conserving, Zval = 14.0
     Generated using ONCVPSP code by D. R. Hamann
     Using radial grid of 1526 points,  6 beta functions with:
                l(1) =   0
                l(2) =   0
                l(3) =   1
                l(4) =   1
                l(5) =   2
                l(6) =   2

     PseudoPot. # 3 for W  read from file:
     /home/pragov/projects/rrg-bengioy-ad/pragov/crystal_structure_design/SSSP/W_pbe_v1.2.uspp.F.UPF
     MD5 check sum: 9c083fa34c2a2ea0f02f1f893e16e1c8
     Pseudo is Ultrasoft + core correction, Zval = 14.0
     Generated by new atomic code, or converted to UPF format
     Using radial grid of  923 points,  8 beta functions with:
                l(1) =   0
                l(2) =   0
                l(3) =   0
                l(4) =   1
                l(5) =   1
                l(6) =   2
                l(7) =   2
                l(8) =   3
     Q(r) pseudized with  6 coefficients,  rinner =    1.350   1.350   1.350
                                                       1.350   1.350   1.350
                                                       1.350

     PseudoPot. # 4 for S  read from file:
     /home/pragov/projects/rrg-bengioy-ad/pragov/crystal_structure_design/SSSP/s_pbe_v1.4.uspp.F.UPF
     MD5 check sum: 88d86576ff6df21479756cfb9bdac1df
     Pseudo is Ultrasoft + core correction, Zval =  6.0
     Generated by new atomic code, or converted to UPF format
     Using radial grid of  907 points,  6 beta functions with:
                l(1) =   0
                l(2) =   0
                l(3) =   1
                l(4) =   1
                l(5) =   2
                l(6) =   2
     Q(r) pseudized with  8 coefficients,  rinner =    1.300   1.300   1.300
                                                       1.300   1.300

     atomic species   valence    mass     pseudopotential
        Te             6.00   127.60000     Te( 1.00)
        Mo            14.00    95.95000     Mo( 1.00)
        W             14.00   183.84000     W ( 1.00)
        S              6.00    32.06000     S ( 1.00)

     12 Sym. Ops. (no inversion) found

                                    s                        frac. trans.

      isym =  1     identity

 cryst.   s( 1) = (     1          0          0      )
                  (     0          1          0      )
                  (     0          0          1      )

 cart.    s( 1) = (  1.0000000  0.0000000  0.0000000 )
                  (  0.0000000  1.0000000  0.0000000 )
                  (  0.0000000  0.0000000  1.0000000 )

      isym =  2     180 deg rotation - cart. axis [0,1,0]

[...]

      isym =  3     120 deg rotation - cryst. axis [0,0,1]

[...]

      isym =  6     180 deg rotation - cryst. axis [2,1,0]

[...]

      isym =  7     inv. 180 deg rotation - cart. axis [0,0,1]

[...]

      isym =  8     inv. 180 deg rotation - cart. axis [1,0,0]

[...]

      isym =  9     inv.  60 deg rotation - cryst. axis [0,0,1]

 cryst.   s( 9) = (    -1         -1          0      )
                  (     1          0          0      )
                  (     0          0         -1      )

 cart.    s( 9) = ( -0.4999998  0.8660255  0.0000000 )
                  ( -0.8660253 -0.5000002  0.0000000 )
                  (  0.0000000  0.0000000 -1.0000000 )

[...]

 cryst.   s(10) = (     0          1          0      )
                  (    -1         -1          0      )
                  (     0          0         -1      )

 cart.    s(10) = ( -0.5000002 -0.8660255  0.0000000 )
                  (  0.8660253 -0.4999998  0.0000000 )
                  (  0.0000000  0.0000000 -1.0000000 )

[...]

      isym = 12     inv. 180 deg rotation - cryst. axis [1,1,0]

 cryst.   s(12) = (     0         -1          0      )
                  (    -1          0          0      )
                  (     0          0          1      )

 cart.    s(12) = (  0.5000002 -0.8660253  0.0000000 )
                  ( -0.8660253 -0.5000002  0.0000000 )
                  (  0.0000000  0.0000000  1.0000000 )

   Cartesian axes

     site n.     atom                  positions (alat units)
         1           Te  tau(   1) = (  -0.0000006   0.5773505   0.5821015  )
         2           Te  tau(   2) = (  -0.0000006   0.5773505   8.6992982  )
         3           Mo  tau(   3) = (   0.5000004   0.2886748   0.0000000  )
         4           W   tau(   4) = (  -0.0000006   0.5773505   7.1338231  )
         5           W   tau(   5) = (  -0.0000006   0.5773505   2.1475767  )
         6           S   tau(   6) = (   0.5000004   0.2886748   6.6672657  )
         7           S   tau(   7) = (   0.5000004   0.2886748   1.6807130  )
         8           S   tau(   8) = (   0.5000004   0.2886748   7.6006867  )
         9           S   tau(   9) = (   0.5000004   0.2886748   2.6141341  )

   Crystallographic axes

     site n.     atom                  positions (cryst. coord.)
         1           Te  tau(   1) = (  0.3333330  0.6666670  0.0627170  )
         2           Te  tau(   2) = (  0.3333330  0.6666670  0.9372830  )
         3           Mo  tau(   3) = (  0.6666670  0.3333330  0.0000000  )
         4           W   tau(   4) = (  0.3333330  0.6666670  0.7686150  )
         5           W   tau(   5) = (  0.3333330  0.6666670  0.2313850  )
         6           S   tau(   6) = (  0.6666670  0.3333330  0.7183470  )
         7           S   tau(   7) = (  0.6666670  0.3333330  0.1810840  )
         8           S   tau(   8) = (  0.6666670  0.3333330  0.8189160  )
         9           S   tau(   9) = (  0.6666670  0.3333330  0.2816530  )

     number of k points=     1  Methfessel-Paxton smearing, width (Ry)=  0.0010
                       cart. coord. in units 2pi/alat
        k(    1) = (   0.0000000   0.0000000   0.0000000), wk =   2.0000000

                       cryst. coord.
        k(    1) = (   0.0000000   0.0000000   0.0000000), wk =   2.0000000

     Check: negative core charge=   -0.000002

     Initial potential from superposition of free atoms

     starting charge      77.7978, renormalised to      78.0000

     negative rho (up, down):  1.293E-01 0.000E+00
     Starting wfcs are   60 randomized atomic wfcs

     Self-consistent Calculation

     iteration #  1     ecut=    30.00 Ry     beta= 0.70
     Davidson diagonalization with overlap

     ethr =  1.00E-02,  avg # of iterations =  2.0

     negative rho (up, down):  1.300E-01 0.000E+00

     total energy              =    -597.98306293 Ry
     estimated scf accuracy    <       7.41170973 Ry

[...]

     total energy              =    -603.18772717 Ry
     estimated scf accuracy    <       0.00000182 Ry

     iteration # 58     ecut=    30.00 Ry     beta= 0.70
     Davidson diagonalization with overlap

     ethr =  2.34E-09,  avg # of iterations =  2.0

[...]

     End of self-consistent calculation

          k = 0.0000 0.0000 0.0000 (  2745 PWs)   bands (ev):

   -68.5314 -68.5311 -52.3005 -32.8670 -32.8670 -32.8667 -32.8667 -32.6390
   -32.6387 -26.6939 -26.3456 -26.3455 -10.5785 -10.5779  -9.1523  -9.1434
    -8.8082  -8.2666  -1.9050  -1.8842   0.0354   1.2183   1.2183   1.2188
     1.2188   1.6159   2.2484   2.2620   2.2620   2.2625   2.2626   2.8378
     4.7412   4.9162   5.5184   5.5968   5.5968   6.1107   6.1107   6.8416
     6.8417   6.8422   6.8422   6.9246   6.9246   6.9253   6.9253

     occupation numbers
     1.0000   1.0000   1.0000   1.0000   1.0000   1.0000   1.0000   1.0000
     1.0000   1.0000   1.0000   1.0000   1.0000   1.0000   1.0000   1.0000
     1.0000   1.0000   1.0000   1.0000   1.0000   1.0000   1.0000   1.0000
     1.0000   1.0000   1.0000   1.0000   1.0000   1.0000   1.0000   1.0000
     1.0000   1.0000   1.0000   1.0000   1.0000   1.0000   1.0000  -0.0000
    -0.0000  -0.0000  -0.0000  -0.0000  -0.0000  -0.0000  -0.0000

     the Fermi energy is     6.4698 ev

!    total energy              =    -603.18772650 Ry
     estimated scf accuracy    <       0.00000081 Ry
     smearing contrib. (-TS)   =       0.00000000 Ry
     internal energy E=F+TS    =    -603.18772650 Ry

     The total energy is F=E-TS. E is the sum of the following terms:
     one-electron contribution =   -2734.05272964 Ry
     hartree contribution      =    1384.08235253 Ry
     xc contribution           =    -161.56606471 Ry
     ewald contribution        =     908.34871532 Ry

     convergence has been achieved in  58 iterations

     negative rho (up, down):  1.256E-01 0.000E+00

     Forces acting on atoms (cartesian axes, Ry/au):

     atom    1 type  1   force =     0.00000000    0.00000000   -0.15237635
     atom    2 type  1   force =    -0.00000000    0.00000000    0.15237635
     atom    3 type  2   force =     0.00000000    0.00000000    0.00000000
     atom    4 type  3   force =    -0.00000000   -0.00000000   -0.00523078
     atom    5 type  3   force =    -0.00000000   -0.00000000    0.00523078
     atom    6 type  4   force =     0.00000000    0.00000000    0.07248360
     atom    7 type  4   force =    -0.00000000   -0.00000000    0.10158078
     atom    8 type  4   force =     0.00000000    0.00000000   -0.10158078
     atom    9 type  4   force =     0.00000000    0.00000000   -0.07248360
     The non-local contrib.  to forces
     atom    1 type  1   force =     0.00000000    0.00000000   -0.26685717
     atom    2 type  1   force =    -0.00000000   -0.00000000    0.26685717
     atom    3 type  2   force =     0.00000000    0.00000000    0.00000000
     atom    4 type  3   force =     0.00000000    0.00000000   -0.00521994
     atom    5 type  3   force =     0.00000000   -0.00000000    0.00521994
     atom    6 type  4   force =     0.00000000    0.00000000   -0.05821712
     atom    7 type  4   force =     0.00000000    0.00000000    0.00448316
     atom    8 type  4   force =     0.00000000    0.00000000   -0.00448316
     atom    9 type  4   force =     0.00000000    0.00000000    0.05821712
     The ionic contribution  to forces
     atom    1 type  1   force =     0.00000499   -0.00000288   21.68402943
     atom    2 type  1   force =     0.00000499   -0.00000288  -21.68402943
     atom    3 type  2   force =    -0.00000986    0.00000570   -0.00000000
     atom    4 type  3   force =     0.00002034   -0.00001174  -83.30972294
     atom    5 type  3   force =     0.00002034   -0.00001174   83.30972294
     atom    6 type  4   force =    -0.00001018    0.00000588  -60.30377783
     atom    7 type  4   force =    -0.00001022    0.00000590   11.09090836
     atom    8 type  4   force =    -0.00001022    0.00000590  -11.09090836
     atom    9 type  4   force =    -0.00001018    0.00000588   60.30377783
     The local contribution  to forces
     atom    1 type  1   force =     0.00000625    0.00001197  -21.54858459
     atom    2 type  1   force =     0.00000024    0.00000492   21.55075956
     atom    3 type  2   force =    -0.00000583   -0.00001275    0.00520781
     atom    4 type  3   force =    -0.00001824    0.00000929   83.30879997
     atom    5 type  3   force =    -0.00002002    0.00001149  -83.31107836
     atom    6 type  4   force =     0.00000985   -0.00000415   60.42853180
     atom    7 type  4   force =     0.00001009   -0.00000589  -10.99615853
     atom    8 type  4   force =     0.00001197   -0.00000298   10.99517427
     atom    9 type  4   force =     0.00000976   -0.00000664  -60.42910318
     The core correction contribution to forces
     atom    1 type  1   force =    -0.00000097   -0.00000109   -0.01977783
     atom    2 type  1   force =    -0.00000022    0.00000019    0.01978489
     atom    3 type  2   force =     0.00000000    0.00000000    0.00000000
     atom    4 type  3   force =     0.00000031   -0.00000008   -0.00011434
     atom    5 type  3   force =     0.00000020   -0.00000014    0.00011066
     atom    6 type  4   force =     0.00000003   -0.00000004    0.00548166
     atom    7 type  4   force =     0.00000006   -0.00000008    0.00170354
     atom    8 type  4   force =     0.00000016   -0.00000004   -0.00170244
     atom    9 type  4   force =     0.00000009   -0.00000010   -0.00548039
     The Hubbard contrib.    to forces
     atom    1 type  1   force =     0.00000000    0.00000000    0.00000000
     atom    2 type  1   force =     0.00000000    0.00000000    0.00000000
     atom    3 type  2   force =     0.00000000    0.00000000    0.00000000
     atom    4 type  3   force =     0.00000000    0.00000000    0.00000000
     atom    5 type  3   force =     0.00000000    0.00000000    0.00000000
     atom    6 type  4   force =     0.00000000    0.00000000    0.00000000
     atom    7 type  4   force =     0.00000000    0.00000000    0.00000000
     atom    8 type  4   force =     0.00000000    0.00000000    0.00000000
     atom    9 type  4   force =     0.00000000    0.00000000    0.00000000
     The SCF correction term to forces
     atom    1 type  1   force =     0.00000010   -0.00000047   -0.00122429
     atom    2 type  1   force =    -0.00000057   -0.00000153   -0.00103394
     atom    3 type  2   force =     0.00001226    0.00000911   -0.00502086
     atom    4 type  3   force =    -0.00000002    0.00000172    0.00102951
     atom    5 type  3   force =     0.00000133   -0.00000061    0.00125865
     atom    6 type  4   force =    -0.00000020   -0.00000028    0.00046934
     atom    7 type  4   force =     0.00000009   -0.00000003    0.00065139
     atom    8 type  4   force =    -0.00000043   -0.00000114    0.00034604
     atom    9 type  4   force =    -0.00000036    0.00000016    0.00010925

     Total force =     0.278634     Total SCF correction =     0.005585

     Computing stress (Cartesian axis) and pressure

     negative rho (up, down):  1.256E-01 0.000E+00
          total   stress  (Ry/bohr**3)                   (kbar)     P=       99.21
   0.00133023   0.00000000   0.00000000          195.68        0.00        0.00
   0.00000000   0.00133023   0.00000000            0.00      195.68        0.00
   0.00000000   0.00000000  -0.00063728            0.00        0.00      -93.75

     kinetic stress (kbar)   9075.52      0.00     -0.00
                                0.00   9075.52      0.00
                               -0.00      0.00   9245.73

     local   stress (kbar)-197419.96     -0.02     -0.00
                               -0.02-197419.99      0.00
                               -0.00      0.00 205372.40

     nonloc. stress (kbar)  -1298.26     -0.00      0.00
                               -0.00  -1298.26      0.00
                                0.00      0.00  -1323.88

     hartree stress (kbar) 100876.84      0.00      0.00
                                0.00 100876.85      0.00
                                0.00      0.00 -96881.51

     exc-cor stress (kbar)   4335.53      0.00      0.00
                                0.00   4335.54      0.00
                                0.00      0.00   4344.37

     corecor stress (kbar)  -6804.67      0.00     -0.00
                                0.00  -6804.67      0.00
                               -0.00      0.00  -6815.21

     ewald   stress (kbar)  91430.69      0.01      0.00
                                0.01  91430.70     -0.00
                                0.00     -0.00-114035.64

     hubbard stress (kbar)      0.00      0.00      0.00
                                0.00      0.00      0.00
                                0.00      0.00      0.00

     DFT-D   stress (kbar)      0.00      0.00      0.00
                                0.00      0.00      0.00
                                0.00      0.00      0.00

     XDM     stress (kbar)      0.00      0.00      0.00
                                0.00      0.00      0.00
                                0.00      0.00      0.00

     dft-nl  stress (kbar)      0.00      0.00      0.00
                                0.00      0.00      0.00
                                0.00      0.00      0.00

     TS-vdW  stress (kbar)      0.00      0.00      0.00
                                0.00      0.00      0.00
                                0.00      0.00      0.00

[...]

                                0.00      0.00      0.00

     Writing all to output data dir new_calculations/myprefix.save/

     General routines

     Parallel routines

   This run was terminated on:   0:51:41  21May2023

   JOB DONE.