     Program PWSCF v.7.0 starts on 21May2023 at  0:37: 5

     Reading input from espresso_13785.pwi
Warning: card &CELL ignored
Warning: card / ignored

     Current dimensions of program PWSCF are:
     Max number of different atomic species (ntypx) = 10
     Max number of k-points (npk) =  40000
     Max angular momentum in pseudopotentials (lmaxx) =  4

     gamma-point specific algorithms are used
     Message from routine setup:
     using ibrav=0 with symmetry is DISCOURAGED, use correct ibrav instead

     Subspace diagonalization in iterative solution of the eigenvalue problem:
     a serial algorithm will be used

     Using Slab Decomposition

     bravais-lattice index     =            0
     lattice parameter (alat)  =      12.7954  a.u.
     unit-cell volume          =    3093.6180 (a.u.)^3
     number of atoms/cell      =           15
     number of atomic types    =            3
     number of electrons       =       112.00
     number of Kohn-Sham states=           67
     kinetic-energy cutoff     =      30.0000  Ry
     charge density cutoff     =     240.0000  Ry
     scf convergence threshold =      1.0E-06
     mixing beta               =       0.7000
     number of iterations used =            8  plain     mixing
     Exchange-correlation=  SLA  PW   PBX  PBC
                           (   1   4   3   4   0   0   0)

     celldm(1)=  12.795353  celldm(2)=   0.000000  celldm(3)=   0.000000
     celldm(4)=   0.000000  celldm(5)=   0.000000  celldm(6)=   0.000000

     crystal axes: (cart. coord. in units of alat)
               a(1) = (   1.000000   0.000000   0.000000 )
               a(2) = (   0.483588   0.939371   0.000000 )
               a(3) = (   0.413952   0.376866   1.572074 )

     reciprocal axes: (cart. coord. in units 2 pi/alat)
               b(1) = (  1.000000 -0.514800 -0.139905 )
               b(2) = (  0.000000  1.064543 -0.255198 )
               b(3) = (  0.000000  0.000000  0.636102 )

     PseudoPot. # 1 for Te read from file:
     /home/pragov/projects/rrg-bengioy-ad/pragov/crystal_structure_design/SSSP/Te_pbe_v1.uspp.F.UPF
     MD5 check sum: c319670d6894cc26e93307826a071b75
     Pseudo is Ultrasoft + core correction, Zval =  6.0
     Generated by new atomic code, or converted to UPF format
     Using radial grid of  891 points,  5 beta functions with:
                l(1) =   0
                l(2) =   0
                l(3) =   1
                l(4) =   1
                l(5) =   2
     Q(r) pseudized with  6 coefficients,  rinner =    1.800   1.800   1.800
                                                       1.800   1.800

     PseudoPot. # 2 for Os read from file:
     /home/pragov/projects/rrg-bengioy-ad/pragov/crystal_structure_design/SSSP/Os_pbe_v1.2.uspp.F.UPF
     MD5 check sum: a3fb40a04f0c37c25c34bbc47164c9a8
     Pseudo is Ultrasoft + core correction, Zval = 16.0
     Generated by new atomic code, or converted to UPF format
     Using radial grid of  983 points,  8 beta functions with:
                l(1) =   0
                l(2) =   0
                l(3) =   1
                l(4) =   1
                l(5) =   2
                l(6) =   2
                l(7) =   3
                l(8) =   3
     Q(r) pseudized with  8 coefficients,  rinner =    1.150   1.150   1.150
                                                       1.150   1.150   1.150
                                                       1.150

     PseudoPot. # 3 for Cl read from file:
     /home/pragov/projects/rrg-bengioy-ad/pragov/crystal_structure_design/SSSP/cl_pbe_v1.4.uspp.F.UPF
     MD5 check sum: fc6f6913ecf08c9257cb748ef0700058
     Pseudo is Ultrasoft + core correction, Zval =  7.0
     Generated by new atomic code, or converted to UPF format
     Using radial grid of  909 points,  6 beta functions with:
                l(1) =   0
                l(2) =   0
                l(3) =   1
                l(4) =   1
                l(5) =   2
                l(6) =   2
     Q(r) pseudized with  8 coefficients,  rinner =    1.300   1.300   1.300
                                                       1.300   1.300

     atomic species   valence    mass     pseudopotential
        Te             6.00   127.60000     Te( 1.00)
        Os            16.00   190.23000     Os( 1.00)
        Cl             7.00    35.45000     Cl( 1.00)

      2 Sym. Ops., with inversion, found

                                    s                        frac. trans.

      isym =  1     identity

 cryst.   s( 1) = (     1          0          0      )
                  (     0          1          0      )
                  (     0          0          1      )

 cart.    s( 1) = (  1.0000000  0.0000000  0.0000000 )
                  (  0.0000000  1.0000000 -0.0000000 )
                  (  0.0000000  0.0000000  1.0000000 )

      isym =  2     inversion

 cryst.   s( 2) = (    -1          0          0      )
                  (     0         -1          0      )
                  (     0          0         -1      )

 cart.    s( 2) = ( -1.0000000 -0.0000000 -0.0000000 )
                  (  0.0000000 -1.0000000  0.0000000 )
                  (  0.0000000  0.0000000 -1.0000000 )

   Cartesian axes

     site n.     atom                  positions (alat units)
         1           Te  tau(   1) = (   1.4130374   0.9855251   1.1954285  )
         2           Te  tau(   2) = (   0.4845028   0.3307110   0.3766453  )
         3           Os  tau(   3) = (   0.0000000   0.0000000   0.0000000  )
         4           Cl  tau(   4) = (   0.6042776   0.8663239   0.9299917  )
         5           Cl  tau(   5) = (   1.2932627   0.4499123   0.6420821  )
         6           Cl  tau(   6) = (   1.1369431   0.7964527   1.1001231  )
         7           Cl  tau(   7) = (   1.1842665   1.1233897   1.5441884  )
         8           Cl  tau(   8) = (   0.7132738   0.1928465   0.0278854  )
         9           Cl  tau(   9) = (   0.1088884   0.1096270   0.3095979  )
        10           Cl  tau(  10) = (   1.7886518   1.2066091   1.2624759  )
        11           Cl  tau(  11) = (   0.5805599   0.6406799   1.4208167  )
        12           Cl  tau(  12) = (   1.3169803   0.6755563   0.1512571  )
        13           Cl  tau(  13) = (   1.0698486   0.9866858   0.5501818  )
        14           Cl  tau(  14) = (   0.8276917   0.3295503   1.0218920  )
        15           Cl  tau(  15) = (   0.7605971   0.5197835   0.4719507  )

   Crystallographic axes

     site n.     atom                  positions (cryst. coord.)
         1           Te  tau(   1) = (  0.7384420  0.7440630  0.7604150  )
         2           Te  tau(   2) = (  0.2615580  0.2559370  0.2395850  )
         3           Os  tau(   3) = (  0.0000000  0.0000000  0.0000000  )
         4           Cl  tau(   4) = (  0.0281830  0.6849070  0.5915700  )
         5           Cl  tau(   5) = (  0.9718170  0.3150930  0.4084300  )
         6           Cl  tau(   6) = (  0.5730160  0.5671090  0.6997910  )
         7           Cl  tau(   7) = (  0.3899050  0.8018230  0.9822620  )
         8           Cl  tau(   8) = (  0.6100950  0.1981770  0.0177380  )
         9           Cl  tau(   9) = (  0.0091380  0.0376940  0.1969360  )
        10           Cl  tau(  10) = (  0.9908620  0.9623060  0.8030640  )
        11           Cl  tau(  11) = (  0.0519580  0.3194420  0.9037850  )
        12           Cl  tau(  12) = (  0.9480420  0.6805580  0.0962150  )
        13           Cl  tau(  13) = (  0.4849290  0.9099640  0.3499720  )
        14           Cl  tau(  14) = (  0.5150710  0.0900360  0.6500280  )
        15           Cl  tau(  15) = (  0.4269840  0.4328910  0.3002090  )

     number of k points=     1  Methfessel-Paxton smearing, width (Ry)=  0.0010
                       cart. coord. in units 2pi/alat
        k(    1) = (   0.0000000   0.0000000   0.0000000), wk =   2.0000000

                       cryst. coord.
        k(    1) = (   0.0000000   0.0000000   0.0000000), wk =   2.0000000

     Initial potential from superposition of free atoms

     starting charge     111.4994, renormalised to     112.0000

     negative rho (up, down):  3.056E-01 0.000E+00
     Starting wfcs are   69 randomized atomic wfcs

     Self-consistent Calculation

     iteration #  1     ecut=    30.00 Ry     beta= 0.70
     Davidson diagonalization with overlap

     ethr =  1.00E-02,  avg # of iterations =  4.0

     negative rho (up, down):  3.012E-01 0.000E+00

     total energy              =    -650.76005220 Ry
     estimated scf accuracy    <       1.39152738 Ry

[...]

     c_bands:  1 eigenvalues not converged
     ethr =  5.92E-06,  avg # of iterations = 20.0

[...]

     total energy              =    -651.49841921 Ry
     estimated scf accuracy    <       0.00000402 Ry

     iteration # 19     ecut=    30.00 Ry     beta= 0.70
     Davidson diagonalization with overlap

     ethr =  3.30E-09,  avg # of iterations =  1.0

[...]

     End of self-consistent calculation

          k = 0.0000 0.0000 0.0000 (  4277 PWs)   bands (ev):

   -84.4039 -43.9115 -43.7975 -43.4104 -14.1498 -14.0823 -12.9738 -12.6817
   -12.6801 -12.6494 -12.6389 -12.3780 -12.3754 -12.2406 -12.1899 -12.0946
    -8.8875  -8.7970  -3.6773  -3.4298  -3.3326  -3.3286  -3.1855  -2.9893
    -2.5654  -2.4450  -2.0892  -2.0108  -1.8710  -1.8542  -1.5384  -1.3626
    -1.0878  -0.7492  -0.7304  -0.5688  -0.5416  -0.4731  -0.2182  -0.0561
     0.0970   0.1098   0.2275   0.3028   0.3084   0.3168   0.3968   0.4467
     0.5657   0.5803   0.5825   0.6494   0.7177   0.8790   2.0910   2.1228
     2.1278   4.1126   4.2429   4.2928   4.3429   4.3493   4.4152   5.3553
     5.5562   7.9474   9.2655

     occupation numbers
     1.0000   1.0000   1.0000   1.0000   1.0000   1.0000   1.0000   1.0000
     1.0000   1.0000   1.0000   1.0000   1.0000   1.0000   1.0000   1.0000
     1.0000   1.0000   1.0000   1.0000   1.0000   1.0000   1.0000   1.0000
     1.0000   1.0000   1.0000   1.0000   1.0000   1.0000   1.0000   1.0000
     1.0000   1.0000   1.0000   1.0000   1.0000   1.0000   1.0000   1.0000
     1.0000   1.0000   1.0000   1.0000   1.0000   1.0000   1.0000   1.0000
     1.0000   1.0000   1.0000   1.0000   1.0000   1.0000   1.0011   0.6541
     0.3449  -0.0000  -0.0000  -0.0000  -0.0000  -0.0000  -0.0000  -0.0000
    -0.0000  -0.0000  -0.0000

     the Fermi energy is     2.1253 ev

!    total energy              =    -651.49841911 Ry
     estimated scf accuracy    <       0.00000032 Ry
     smearing contrib. (-TS)   =      -0.00050136 Ry
     internal energy E=F+TS    =    -651.49791775 Ry

     The total energy is F=E-TS. E is the sum of the following terms:
     one-electron contribution =    -337.13524179 Ry
     hartree contribution      =     203.83123386 Ry
     xc contribution           =    -178.95858128 Ry
     ewald contribution        =    -339.23532853 Ry

     convergence has been achieved in  19 iterations

     negative rho (up, down):  3.019E-01 0.000E+00

     Forces acting on atoms (cartesian axes, Ry/au):

     atom    1 type  1   force =     0.00534828   -0.00390726    0.01936519
     atom    2 type  1   force =    -0.00534828    0.00390726   -0.01936519
     atom    3 type  2   force =     0.00000000    0.00000000    0.00000000
     atom    4 type  3   force =     0.00805286    0.00151380   -0.01716087
     atom    5 type  3   force =    -0.00805286   -0.00151380    0.01716087
     atom    6 type  3   force =    -0.00082800   -0.00621963    0.00714171
     atom    7 type  3   force =    -0.00608544    0.00858673    0.00032813
     atom    8 type  3   force =     0.00608544   -0.00858673   -0.00032813
     atom    9 type  3   force =    -0.00230647   -0.00633424   -0.01240055
     atom   10 type  3   force =     0.00230647    0.00633424    0.01240055
     atom   11 type  3   force =     0.00040899   -0.00527603   -0.00465040
     atom   12 type  3   force =    -0.00040899    0.00527603    0.00465040
     atom   13 type  3   force =     0.00802897   -0.00516162    0.00827897
     atom   14 type  3   force =    -0.00802897    0.00516162   -0.00827897
     atom   15 type  3   force =     0.00082800    0.00621963   -0.00714171
     The non-local contrib.  to forces
     atom    1 type  1   force =     0.14866695    0.01502011    0.41795630
     atom    2 type  1   force =    -0.14866695   -0.01502011   -0.41795630
     atom    3 type  2   force =     0.00000000    0.00000000    0.00000000
     atom    4 type  3   force =    -0.14101935    0.08407687    0.19243150
     atom    5 type  3   force =     0.14101935   -0.08407687   -0.19243150
     atom    6 type  3   force =     0.19907239    0.15946605    0.03519133
     atom    7 type  3   force =    -0.20988812    0.12264229   -0.05287744
     atom    8 type  3   force =     0.20988812   -0.12264229    0.05287744
     atom    9 type  3   force =     0.02476694   -0.02338252   -0.26093597
     atom   10 type  3   force =    -0.02476694    0.02338252    0.26093597
     atom   11 type  3   force =    -0.21109936   -0.13849539    0.10639907
     atom   12 type  3   force =     0.21109936    0.13849539   -0.10639907
     atom   13 type  3   force =    -0.08333719    0.21426317   -0.11091623
     atom   14 type  3   force =     0.08333719   -0.21426317    0.11091623
     atom   15 type  3   force =    -0.19907239   -0.15946605   -0.03519133
     The ionic contribution  to forces
     atom    1 type  1   force =     0.70416425   -0.06571466   -1.33546255
     atom    2 type  1   force =    -0.70416425    0.06571466    1.33546255
     atom    3 type  2   force =     0.00000000    0.00000000   -0.00000000
     atom    4 type  3   force =     2.32478224   -1.61287483   -5.30483342
     atom    5 type  3   force =    -2.32478224    1.61287483    5.30483342
     atom    6 type  3   force =    -3.34540522   -2.17676793   -5.29328166
     atom    7 type  3   force =     8.06806764   -5.52951346   -0.09602648
     atom    8 type  3   force =    -8.06806764    5.52951346    0.09602648
     atom    9 type  3   force =     2.29664396    2.66312990   12.75500450
     atom   10 type  3   force =    -2.29664396   -2.66312990  -12.75500450
     atom   11 type  3   force =     5.67756283    7.14586390   -6.15695969
     atom   12 type  3   force =    -5.67756283   -7.14586391    6.15695969
     atom   13 type  3   force =     0.67242788   -3.46444119    5.58704640
     atom   14 type  3   force =    -0.67242788    3.46444119   -5.58704640
     atom   15 type  3   force =     3.34540522    2.17676793    5.29328166
     The local contribution  to forces
     atom    1 type  1   force =    -0.86802774    0.04470197    0.87885585
     atom    2 type  1   force =     0.86801588   -0.04471388   -0.87891334
     atom    3 type  2   force =     0.00012379    0.00008218    0.00086163
     atom    4 type  3   force =    -2.17855293    1.53196599    5.09879197
     atom    5 type  3   force =     2.17864190   -1.53207868   -5.09936050
     atom    6 type  3   force =     3.14933907    2.01457775    5.26540273
     atom    7 type  3   force =    -7.86993756    5.41863184    0.14835627
     atom    8 type  3   force =     7.86989287   -5.41856234   -0.14772166
     atom    9 type  3   force =    -2.32272378   -2.64651386  -12.51317194
     atom   10 type  3   force =     2.32283120    2.64659244   12.51334475
     atom   11 type  3   force =    -5.47185311   -7.01637260    6.04926135
     atom   12 type  3   force =     5.47192119    7.01631858   -6.04870724
     atom   13 type  3   force =    -0.58289160    3.24948869   -5.47004671
     atom   14 type  3   force =     0.58284227   -3.24934651    5.46966061
     atom   15 type  3   force =    -3.14943760   -2.01462516   -5.26560067
     The core correction contribution to forces
     atom    1 type  1   force =     0.02048404    0.00214330    0.05800850
     atom    2 type  1   force =    -0.02049234   -0.00214644   -0.05800757
     atom    3 type  2   force =     0.00000099    0.00000020    0.00001070
     atom    4 type  3   force =     0.00297123   -0.00170646   -0.00391887
     atom    5 type  3   force =    -0.00297099    0.00170599    0.00391773
     atom    6 type  3   force =    -0.00399832   -0.00357125   -0.00027567
     atom    7 type  3   force =     0.00565877   -0.00316073    0.00124988
     atom    8 type  3   force =    -0.00565903    0.00316093   -0.00125021
     atom    9 type  3   force =    -0.00090377    0.00046034    0.00686878
     atom   10 type  3   force =     0.00090464   -0.00045945   -0.00687067
     atom   11 type  3   force =     0.00583529    0.00366559   -0.00310132
     atom   12 type  3   force =    -0.00583482   -0.00366505    0.00310175
     atom   13 type  3   force =     0.00178315   -0.00447247    0.00204133
     atom   14 type  3   force =    -0.00178349    0.00447347   -0.00204174
     atom   15 type  3   force =     0.00399860    0.00357137    0.00027508
     The Hubbard contrib.    to forces
     atom    1 type  1   force =     0.00000000    0.00000000    0.00000000
     atom    2 type  1   force =     0.00000000    0.00000000    0.00000000
     atom    3 type  2   force =     0.00000000    0.00000000    0.00000000
     atom    4 type  3   force =     0.00000000    0.00000000    0.00000000
     atom    5 type  3   force =     0.00000000    0.00000000    0.00000000
     atom    6 type  3   force =     0.00000000    0.00000000    0.00000000
     atom    7 type  3   force =     0.00000000    0.00000000    0.00000000
     atom    8 type  3   force =     0.00000000    0.00000000    0.00000000
     atom    9 type  3   force =     0.00000000    0.00000000    0.00000000
     atom   10 type  3   force =     0.00000000    0.00000000    0.00000000
     atom   11 type  3   force =     0.00000000    0.00000000    0.00000000
     atom   12 type  3   force =     0.00000000    0.00000000    0.00000000
     atom   13 type  3   force =     0.00000000    0.00000000    0.00000000
     atom   14 type  3   force =     0.00000000    0.00000000    0.00000000
     atom   15 type  3   force =     0.00000000    0.00000000    0.00000000
     The SCF correction term to forces
     atom    1 type  1   force =     0.00010430   -0.00004004    0.00000891
     atom    2 type  1   force =     0.00000288    0.00009099    0.00005129
     atom    3 type  2   force =    -0.00014904   -0.00010279   -0.00110320
     atom    4 type  3   force =    -0.00010817    0.00004325    0.00036360
     atom    5 type  3   force =     0.00005929    0.00005195    0.00019738
     atom    6 type  3   force =     0.00016018    0.00007331    0.00011422
     atom    7 type  3   force =     0.00000840   -0.00000743   -0.00039022
     atom    8 type  3   force =     0.00002571   -0.00005070   -0.00027628
     atom    9 type  3   force =    -0.00006930   -0.00000620   -0.00017111
     atom   10 type  3   force =     0.00000207   -0.00002948   -0.00001019
     atom   11 type  3   force =    -0.00003756    0.00005435   -0.00025534
     atom   12 type  3   force =    -0.00003281   -0.00001710   -0.00031028
     atom   13 type  3   force =     0.00004649    0.00001829    0.00015518
     atom   14 type  3   force =     0.00000270   -0.00012526    0.00023333
     atom   15 type  3   force =    -0.00006975   -0.00003089    0.00010278

     Total force =     0.052731     Total SCF correction =     0.001434

     Computing stress (Cartesian axis) and pressure

     negative rho (up, down):  3.019E-01 0.000E+00
          total   stress  (Ry/bohr**3)                   (kbar)     P=        2.76
   0.00000830  -0.00000668  -0.00002490            1.22       -0.98       -3.66
  -0.00000668   0.00006604  -0.00001142           -0.98        9.72       -1.68
  -0.00002490  -0.00001142  -0.00001813           -3.66       -1.68       -2.67

     kinetic stress (kbar)   6566.16     37.58      3.41
                               37.58   6531.73     -2.58
                                3.41     -2.58   6539.13

     local   stress (kbar)  -6115.01     40.99    134.47
                               40.99  -6001.52   -170.69
                              134.47   -170.69    312.73

     nonloc. stress (kbar)   1459.63     -6.97      1.71
                               -6.97   1475.75      2.71
                                1.71      2.71   1458.33

     hartree stress (kbar)   4241.89    -32.81    -46.31
                              -32.81   4197.49     71.06
                              -46.31     71.06   1253.02

     exc-cor stress (kbar)   2144.80      0.48     -0.30
                                0.48   2144.21      0.04
                               -0.30      0.04   2143.59

     corecor stress (kbar)  -4071.41     -1.31     -0.50
                               -1.31  -4070.16     -0.05
                               -0.50     -0.05  -4071.08

     ewald   stress (kbar)  -4224.85    -38.93    -96.14
                              -38.93  -4267.79     97.84
                              -96.14     97.84  -7638.38

     hubbard stress (kbar)      0.00      0.00      0.00
                                0.00      0.00      0.00
                                0.00      0.00      0.00

     DFT-D   stress (kbar)      0.00      0.00      0.00
                                0.00      0.00      0.00
                                0.00      0.00      0.00

     XDM     stress (kbar)      0.00      0.00      0.00
                                0.00      0.00      0.00
                                0.00      0.00      0.00

     dft-nl  stress (kbar)      0.00      0.00      0.00
                                0.00      0.00      0.00
                                0.00      0.00      0.00

     TS-vdW  stress (kbar)      0.00      0.00      0.00
                                0.00      0.00      0.00
                                0.00      0.00      0.00

[...]

                                0.00      0.00      0.00

     Writing all to output data dir new_calculations/myprefix.save/

     General routines

     Parallel routines

   This run was terminated on:   0:37:48  21May2023

   JOB DONE.