     Program PWSCF v.7.0 starts on 21May2023 at  7:51:25

     Reading input from espresso_26546.pwi
Warning: card &CELL ignored
Warning: card / ignored

     Current dimensions of program PWSCF are:
     Max number of different atomic species (ntypx) = 10
     Max number of k-points (npk) =  40000
     Max angular momentum in pseudopotentials (lmaxx) =  4
     file C.pbe-n-kjpaw_psl.1.0.0.UPF: wavefunction(s)  2S 2P renormalized

     gamma-point specific algorithms are used
     Message from routine setup:
     using ibrav=0 with symmetry is DISCOURAGED, use correct ibrav instead

     Subspace diagonalization in iterative solution of the eigenvalue problem:
     a serial algorithm will be used

     Using Slab Decomposition

     bravais-lattice index     =            0
     lattice parameter (alat)  =       7.1294  a.u.
     unit-cell volume          =    2375.3299 (a.u.)^3
     number of atoms/cell      =           16
     number of atomic types    =            4
     number of electrons       =       122.00
     number of Kohn-Sham states=           73
     kinetic-energy cutoff     =      30.0000  Ry
     charge density cutoff     =     240.0000  Ry
     scf convergence threshold =      1.0E-06
     mixing beta               =       0.7000
     number of iterations used =            8  plain     mixing
     Exchange-correlation=  SLA  PW   PBX  PBC
                           (   1   4   3   4   0   0   0)

     celldm(1)=   7.129423  celldm(2)=   0.000000  celldm(3)=   0.000000
     celldm(4)=   0.000000  celldm(5)=   0.000000  celldm(6)=   0.000000

     crystal axes: (cart. coord. in units of alat)
               a(1) = (   1.000000   0.000000   0.000000 )
               a(2) = (   0.000000   2.214135   0.000000 )
               a(3) = (   0.000000   0.566717   2.960444 )

     reciprocal axes: (cart. coord. in units 2 pi/alat)
               b(1) = (  1.000000  0.000000  0.000000 )
               b(2) = (  0.000000  0.451644 -0.086458 )
               b(3) = (  0.000000  0.000000  0.337787 )

     PseudoPot. # 1 for La read from file:
     /home/pragov/projects/rrg-bengioy-ad/pragov/crystal_structure_design/SSSP/La.GGA-PBE-paw-v1.0.UPF
     MD5 check sum: 436541e95c1ad8901025bd0b0ed42ae2
     Pseudo is Projector augmented-wave + core cor, Zval = 11.0
     Generated using ATOMPAW code
     Shape of augmentation charge: BESSEL
     Using radial grid of 1101 points,  8 beta functions with:
                l(1) =   0
                l(2) =   0
                l(3) =   1
                l(4) =   1
                l(5) =   2
                l(6) =   2
                l(7) =   3
                l(8) =   3
     Q(r) pseudized with 0 coefficients

     PseudoPot. # 2 for B  read from file:
     /home/pragov/projects/rrg-bengioy-ad/pragov/crystal_structure_design/SSSP/b_pbe_v1.4.uspp.F.UPF
     MD5 check sum: cc6de2960df11db49a60e589f9ebb39b
     Pseudo is Ultrasoft + core correction, Zval =  3.0
     Generated by new atomic code, or converted to UPF format
     Using radial grid of  781 points,  4 beta functions with:
                l(1) =   0
                l(2) =   0
                l(3) =   1
                l(4) =   1
     Q(r) pseudized with  8 coefficients,  rinner =    1.100   1.100   1.100

     PseudoPot. # 3 for C  read from file:
     /home/pragov/projects/rrg-bengioy-ad/pragov/crystal_structure_design/SSSP/C.pbe-n-kjpaw_psl.1.0.0.UPF
     MD5 check sum: 5d2aebdfa2cae82b50a7e79e9516da0f
     Pseudo is Projector augmented-wave + core cor, Zval =  4.0
     Generated using "atomic" code by A. Dal Corso  v.5.1
     Shape of augmentation charge: PSQ
     Using radial grid of 1073 points,  4 beta functions with:
                l(1) =   0
                l(2) =   0
                l(3) =   1
                l(4) =   1
     Q(r) pseudized with 0 coefficients

     PseudoPot. # 4 for Cl read from file:
     /home/pragov/projects/rrg-bengioy-ad/pragov/crystal_structure_design/SSSP/cl_pbe_v1.4.uspp.F.UPF
     MD5 check sum: fc6f6913ecf08c9257cb748ef0700058
     Pseudo is Ultrasoft + core correction, Zval =  7.0
     Generated by new atomic code, or converted to UPF format
     Using radial grid of  909 points,  6 beta functions with:
                l(1) =   0
                l(2) =   0
                l(3) =   1
                l(4) =   1
                l(5) =   2
                l(6) =   2
     Q(r) pseudized with  8 coefficients,  rinner =    1.300   1.300   1.300
                                                       1.300   1.300

     atomic species   valence    mass     pseudopotential
        La            11.00   138.90547     La( 1.00)
        B              3.00    10.81000     B ( 1.00)
        C              4.00    12.01100     C ( 1.00)
        Cl             7.00    35.45000     Cl( 1.00)

      4 Sym. Ops., with inversion, found ( 2 have fractional translation)

                                    s                        frac. trans.

      isym =  1     identity

 cryst.   s( 1) = (     1          0          0      )
                  (     0          1          0      )
                  (     0          0          1      )

 cart.    s( 1) = (  1.0000000  0.0000000  0.0000000 )
                  (  0.0000000  1.0000000 -0.0000000 )
                  (  0.0000000  0.0000000  1.0000000 )

      isym =  2     180 deg rotation - cart. axis [1,0,0]

 cryst.   s( 2) = (     1          0          0      )    f =( -0.5000000 )
                  (     0         -1          0      )       (  0.0000000 )
                  (     0          0         -1      )       ( -0.0000000 )

 cart.    s( 2) = (  1.0000000  0.0000000  0.0000000 )    f =( -0.5000000 )
                  (  0.0000000 -1.0000000  0.0000000 )       (  0.0000000 )
                  (  0.0000000  0.0000000 -1.0000000 )       ( -0.0000000 )

      isym =  3     inversion

 cryst.   s( 3) = (    -1          0          0      )
                  (     0         -1          0      )
                  (     0          0         -1      )

 cart.    s( 3) = ( -1.0000000  0.0000000  0.0000000 )
                  (  0.0000000 -1.0000000  0.0000000 )
                  (  0.0000000  0.0000000 -1.0000000 )

      isym =  4     inv. 180 deg rotation - cart. axis [1,0,0]

 cryst.   s( 4) = (    -1          0          0      )    f =(  0.5000000 )
                  (     0          1          0      )       (  0.0000000 )
                  (     0          0          1      )       (  0.0000000 )

 cart.    s( 4) = ( -1.0000000  0.0000000  0.0000000 )    f =(  0.5000000 )
                  (  0.0000000  1.0000000 -0.0000000 )       (  0.0000000 )
                  (  0.0000000  0.0000000  1.0000000 )       (  0.0000000 )

   Cartesian axes

     site n.     atom                  positions (alat units)
         1           La  tau(   1) = (   0.2500000   2.2564302   2.6296615  )
         2           La  tau(   2) = (   0.2500000   1.3308482   2.4075276  )
         3           La  tau(   3) = (   0.7500000   0.5244218   0.3307822  )
         4           La  tau(   4) = (   0.2500000   0.8589463   1.1767172  )
         5           La  tau(   5) = (   0.7500000   1.4500038   0.5529162  )
         6           La  tau(   6) = (   0.7500000   1.9219056   1.7837266  )
         7           B   tau(   7) = (   0.2500000   1.0536025   0.1226482  )
         8           B   tau(   8) = (   0.7500000   1.7272495   2.8377955  )
         9           C   tau(   9) = (   0.7500000   1.8073729   2.4243725  )
        10           C   tau(  10) = (   0.2500000   0.9734791   0.5360712  )
        11           Cl  tau(  11) = (   0.2500000   1.6551590   1.1986866  )
        12           Cl  tau(  12) = (   0.7500000   1.1256929   1.7617571  )
        13           Cl  tau(  13) = (   0.2500000   2.0760362   0.3672608  )
        14           Cl  tau(  14) = (   0.2500000   2.5033620   1.8829784  )
        15           Cl  tau(  15) = (   0.7500000   0.2774899   1.0774653  )
        16           Cl  tau(  16) = (   0.7500000   0.7048158   2.5931829  )

   Crystallographic axes

     site n.     atom                  positions (cryst. coord.)
         1           La  tau(   1) = (  0.2500000  0.7917470  0.8882660  )
         2           La  tau(   2) = (  0.2500000  0.3929190  0.8132320  )
         3           La  tau(   3) = (  0.7500000  0.2082530  0.1117340  )
         4           La  tau(   4) = (  0.2500000  0.2862010  0.3974800  )
         5           La  tau(   5) = (  0.7500000  0.6070810  0.1867680  )
         6           La  tau(   6) = (  0.7500000  0.7137990  0.6025200  )
         7           B   tau(   7) = (  0.2500000  0.4652490  0.0414290  )
         8           B   tau(   8) = (  0.7500000  0.5347510  0.9585710  )
         9           C   tau(   9) = (  0.7500000  0.6066820  0.8189220  )
        10           C   tau(  10) = (  0.2500000  0.3933180  0.1810780  )
        11           Cl  tau(  11) = (  0.2500000  0.6439060  0.4049010  )
        12           Cl  tau(  12) = (  0.7500000  0.3560940  0.5950990  )
        13           Cl  tau(  13) = (  0.2500000  0.9058760  0.1240560  )
        14           Cl  tau(  14) = (  0.2500000  0.9678290  0.6360460  )
        15           Cl  tau(  15) = (  0.7500000  0.0321710  0.3639540  )
        16           Cl  tau(  16) = (  0.7500000  0.0941240  0.8759440  )

     number of k points=     1  Methfessel-Paxton smearing, width (Ry)=  0.0010
                       cart. coord. in units 2pi/alat
        k(    1) = (   0.0000000   0.0000000   0.0000000), wk =   2.0000000

                       cryst. coord.
        k(    1) = (   0.0000000   0.0000000   0.0000000), wk =   2.0000000

     Check: negative core charge=   -0.000005

     Initial potential from superposition of free atoms

     starting charge     121.9481, renormalised to     122.0000

     negative rho (up, down):  8.703E-02 0.000E+00
     Starting wfcs are  232 randomized atomic wfcs
     Checking if some PAW data can be deallocated...

     Self-consistent Calculation

     iteration #  1     ecut=    30.00 Ry     beta= 0.70
     Davidson diagonalization with overlap

     ethr =  1.00E-02,  avg # of iterations =  2.0

     negative rho (up, down):  8.965E-02 0.000E+00

     total energy              =   -2995.92499078 Ry
     estimated scf accuracy    <       5.82908659 Ry

[...]

     total energy              =   -2999.81944763 Ry
     estimated scf accuracy    <       0.00000162 Ry

     iteration # 35     ecut=    30.00 Ry     beta= 0.70
     Davidson diagonalization with overlap

     ethr =  1.32E-09,  avg # of iterations =  6.0

[...]

     End of self-consistent calculation

          k = 0.0000 0.0000 0.0000 (  3295 PWs)   bands (ev):

   -22.5186 -22.5131 -21.9880 -21.9589 -21.8918 -21.8671  -7.6316  -7.2918
    -7.2196  -7.0872  -6.9493  -6.7671  -6.5348  -6.3469  -5.9259  -5.8719
    -5.8552  -5.8094  -5.7510  -5.7333  -5.5820  -5.4858  -5.3653  -5.3286
    -5.2928  -5.2053  -5.1982  -5.1548  -5.1495  -5.0041   0.2498   0.5722
     3.7215   4.1196   4.2988   4.6825   4.7306   4.8296   5.1493   5.1605
     5.2602   5.5046   5.6886   5.7408   5.7711   5.8242   5.9228   6.1043
     6.1456   6.3186   6.5636   6.8312   7.3526   7.6240   7.9270   8.1884
     8.6224   9.5697   9.8832  10.1813  10.3268  10.3385  10.4968  11.5959
    11.6498  11.8855  11.9391  12.1184  12.1508  12.2595  12.2639  12.2968
    12.3661

     occupation numbers
     1.0000   1.0000   1.0000   1.0000   1.0000   1.0000   1.0000   1.0000
     1.0000   1.0000   1.0000   1.0000   1.0000   1.0000   1.0000   1.0000
     1.0000   1.0000   1.0000   1.0000   1.0000   1.0000   1.0000   1.0000
     1.0000   1.0000   1.0000   1.0000   1.0000   1.0000   1.0000   1.0000
     1.0000   1.0000   1.0000   1.0000   1.0000   1.0000   1.0000   1.0000
     1.0000   1.0000   1.0000   1.0000   1.0000   1.0000   1.0000   1.0000
     1.0000   1.0000   1.0000   1.0000   1.0000   1.0000   1.0000   1.0000
     1.0000   1.0000   1.0000   1.0000   0.8275   0.1725  -0.0000  -0.0000
    -0.0000  -0.0000  -0.0000  -0.0000  -0.0000  -0.0000  -0.0000  -0.0000
    -0.0000

     the Fermi energy is    10.3327 ev

!    total energy              =   -2999.81944764 Ry
     estimated scf accuracy    <       0.00000048 Ry
     smearing contrib. (-TS)   =      -0.00029862 Ry
     internal energy E=F+TS    =   -2999.81914901 Ry

     The total energy is F=E-TS. E is the sum of the following terms:
     one-electron contribution =     -30.46512277 Ry
     hartree contribution      =      84.97093884 Ry
     xc contribution           =    -125.10609950 Ry
     ewald contribution        =    -528.31272036 Ry
     one-center paw contrib.   =   -2400.90614522 Ry
      -> PAW hartree energy AE =     228.56844011 Ry
      -> PAW hartree energy PS =    -228.77578673 Ry
      -> PAW xc energy AE      =   -2452.96733380 Ry
      -> PAW xc energy PS      =      52.26853519 Ry
      -> total E_H with PAW    =      84.76359223 Ry
      -> total E_XC with PAW   =   -2525.80489811 Ry

     convergence has been achieved in  35 iterations

     negative rho (up, down):  8.742E-02 0.000E+00

     Forces acting on atoms (cartesian axes, Ry/au):

     atom    1 type  1   force =     0.00000000   -0.06634534   -0.03418164
     atom    2 type  1   force =     0.00000000    0.07031256   -0.00047146
     atom    3 type  1   force =     0.00000000    0.06634534    0.03418164
     atom    4 type  1   force =     0.00000000   -0.02377180    0.00450377
     atom    5 type  1   force =    -0.00000000   -0.07031256    0.00047146
     atom    6 type  1   force =     0.00000000    0.02377180   -0.00450377
     atom    7 type  2   force =     0.00000000    0.02478024    0.00345027
     atom    8 type  2   force =     0.00000000   -0.02478024   -0.00345027
     atom    9 type  3   force =     0.00000000   -0.00528369    0.03712480
     atom   10 type  3   force =     0.00000000    0.00528369   -0.03712480
     atom   11 type  4   force =     0.00000000   -0.00813482   -0.00558469
     atom   12 type  4   force =     0.00000000    0.00813482    0.00558469
     atom   13 type  4   force =     0.00000000   -0.01351877   -0.00253059
     atom   14 type  4   force =     0.00000000   -0.03422197    0.00392445
     atom   15 type  4   force =     0.00000000    0.03422197   -0.00392445
     atom   16 type  4   force =    -0.00000000    0.01351877    0.00253059
     The non-local contrib.  to forces
     atom    1 type  1   force =    -0.00000000    0.14866959    0.01951060
     atom    2 type  1   force =     0.00000000   -0.18740397   -0.05459455
     atom    3 type  1   force =     0.00000000   -0.14866959   -0.01951060
     atom    4 type  1   force =     0.00000000   -0.07640757    0.19148456
     atom    5 type  1   force =     0.00000000    0.18740397    0.05459455
     atom    6 type  1   force =     0.00000000    0.07640757   -0.19148456
     atom    7 type  2   force =     0.00000000    0.12473463   -0.20240498
     atom    8 type  2   force =     0.00000000   -0.12473463    0.20240498
     atom    9 type  3   force =     0.00000000   -0.01592143    0.23164068
     atom   10 type  3   force =     0.00000000    0.01592143   -0.23164068
     atom   11 type  4   force =    -0.00000000   -0.07954485   -0.00934635
     atom   12 type  4   force =     0.00000000    0.07954485    0.00934635
     atom   13 type  4   force =     0.00000000   -0.02825659   -0.03248331
     atom   14 type  4   force =     0.00000000   -0.02439185    0.01437905
     atom   15 type  4   force =     0.00000000    0.02439185   -0.01437905
     atom   16 type  4   force =     0.00000000    0.02825659    0.03248331
     The ionic contribution  to forces
     atom    1 type  1   force =    -0.00000000    5.78200274   -0.92027101
     atom    2 type  1   force =    -0.00000000   -5.90625564   -3.77889032
     atom    3 type  1   force =    -0.00000000   -5.78200274    0.92027101
     atom    4 type  1   force =    -0.00000000   -1.98133303    5.43797454
     atom    5 type  1   force =     0.00000000    5.90625564    3.77889032
     atom    6 type  1   force =     0.00000000    1.98133303   -5.43797454
     atom    7 type  2   force =     0.00000000    0.14256939   -1.25925999
     atom    8 type  2   force =     0.00000000   -0.14256939    1.25925999
     atom    9 type  3   force =    -0.00000000    0.73118081   -1.97003587
     atom   10 type  3   force =    -0.00000000   -0.73118081    1.97003587
     atom   11 type  4   force =    -0.00000000    2.86742560    0.19301666
     atom   12 type  4   force =    -0.00000000   -2.86742560   -0.19301666
     atom   13 type  4   force =     0.00000000    1.22017808    2.28410168
     atom   14 type  4   force =     0.00000000    3.87089452   -1.92303188
     atom   15 type  4   force =     0.00000000   -3.87089452    1.92303188
     atom   16 type  4   force =    -0.00000000   -1.22017808   -2.28410168
     The local contribution  to forces
     atom    1 type  1   force =     0.00001038   -5.99683669    0.86577512
     atom    2 type  1   force =     0.00000075    6.16380654    3.83276317
     atom    3 type  1   force =     0.00000603    5.99679148   -0.86660378
     atom    4 type  1   force =     0.00001061    2.03331666   -5.62441028
     atom    5 type  1   force =    -0.00002554   -6.16394519   -3.83301969
     atom    6 type  1   force =    -0.00000953   -2.03403376    5.62524040
     atom    7 type  2   force =    -0.00000265   -0.23850717    1.45546696
     atom    8 type  2   force =    -0.00000200    0.23787562   -1.45581002
     atom    9 type  3   force =     0.00000179   -0.72067692    1.77794279
     atom   10 type  3   force =     0.00002805    0.71990132   -1.77843397
     atom   11 type  4   force =     0.00001331   -2.79766300   -0.18914437
     atom   12 type  4   force =     0.00002888    2.79809741    0.19016544
     atom   13 type  4   force =    -0.00003218   -1.20528213   -2.25463691
     atom   14 type  4   force =    -0.00001593   -3.88013771    1.91287500
     atom   15 type  4   force =     0.00001245    3.88000872   -1.91285143
     atom   16 type  4   force =    -0.00000821    1.20618673    2.25446575
     The core correction contribution to forces
     atom    1 type  1   force =     0.00000000    0.00004032   -0.00000234
     atom    2 type  1   force =     0.00000000   -0.00001405   -0.00008783
     atom    3 type  1   force =     0.00000001   -0.00004029    0.00000243
     atom    4 type  1   force =     0.00000000    0.00003349    0.00003195
     atom    5 type  1   force =    -0.00000001    0.00001405    0.00008780
     atom    6 type  1   force =    -0.00000001   -0.00003360   -0.00003181
     atom    7 type  2   force =    -0.00000018   -0.00436725    0.00947296
     atom    8 type  2   force =    -0.00000005    0.00436859   -0.00947367
     atom    9 type  3   force =     0.00000008   -0.00007597   -0.00277279
     atom   10 type  3   force =     0.00000044    0.00007716    0.00277399
     atom   11 type  4   force =    -0.00000001    0.00199973    0.00056403
     atom   12 type  4   force =     0.00000142   -0.00199685   -0.00056367
     atom   13 type  4   force =    -0.00000257    0.00050911    0.00047001
     atom   14 type  4   force =    -0.00000073   -0.00070806   -0.00027381
     atom   15 type  4   force =     0.00000033    0.00070760    0.00027418
     atom   16 type  4   force =    -0.00000022   -0.00051251   -0.00047072
     The Hubbard contrib.    to forces
     atom    1 type  1   force =     0.00000000    0.00000000    0.00000000
     atom    2 type  1   force =     0.00000000    0.00000000    0.00000000
     atom    3 type  1   force =     0.00000000    0.00000000    0.00000000
     atom    4 type  1   force =     0.00000000    0.00000000    0.00000000
     atom    5 type  1   force =     0.00000000    0.00000000    0.00000000
     atom    6 type  1   force =     0.00000000    0.00000000    0.00000000
     atom    7 type  2   force =     0.00000000    0.00000000    0.00000000
     atom    8 type  2   force =     0.00000000    0.00000000    0.00000000
     atom    9 type  3   force =     0.00000000    0.00000000    0.00000000
     atom   10 type  3   force =     0.00000000    0.00000000    0.00000000
     atom   11 type  4   force =     0.00000000    0.00000000    0.00000000
     atom   12 type  4   force =     0.00000000    0.00000000    0.00000000
     atom   13 type  4   force =     0.00000000    0.00000000    0.00000000
     atom   14 type  4   force =     0.00000000    0.00000000    0.00000000
     atom   15 type  4   force =     0.00000000    0.00000000    0.00000000
     atom   16 type  4   force =     0.00000000    0.00000000    0.00000000
     The SCF correction term to forces
     atom    1 type  1   force =    -0.00001351   -0.00024136    0.00084451
     atom    2 type  1   force =     0.00001709    0.00022926    0.00028606
     atom    3 type  1   force =    -0.00000749    0.00024643    0.00006108
     atom    4 type  1   force =     0.00000444    0.00052017   -0.00053423
     atom    5 type  1   force =     0.00002534    0.00000853   -0.00013353
     atom    6 type  1   force =     0.00000041    0.00000009   -0.00021048
     atom    7 type  2   force =    -0.00000082    0.00035390    0.00016755
     atom    8 type  2   force =     0.00000077    0.00028284    0.00016067
     atom    9 type  3   force =     0.00000049    0.00024220    0.00036676
     atom   10 type  3   force =    -0.00001201    0.00059699    0.00015674
     atom   11 type  4   force =    -0.00000191   -0.00031726   -0.00070555
     atom   12 type  4   force =    -0.00001577   -0.00004993   -0.00037764
     atom   13 type  4   force =     0.00000295   -0.00080537    0.00004225
     atom   14 type  4   force =     0.00000823    0.00009831   -0.00000138
     atom   15 type  4   force =    -0.00000373   -0.00001448    0.00002253
     atom   16 type  4   force =    -0.00000277   -0.00037211    0.00017825

     Total force =     0.170908     Total SCF correction =     0.002000

     Computing stress (Cartesian axis) and pressure

     negative rho (up, down):  8.742E-02 0.000E+00
          total   stress  (Ry/bohr**3)                   (kbar)     P=       56.62
   0.00195799   0.00000000   0.00000000          288.03        0.00        0.00
   0.00000000  -0.00069699  -0.00016441            0.00     -102.53      -24.19
   0.00000000  -0.00016441  -0.00010640            0.00      -24.19      -15.65

     kinetic stress (kbar)   8723.42      0.00      0.00
                                0.00   7975.61    -21.67
                                0.00    -21.67   8052.48

     local   stress (kbar)  -5214.01     -0.00     -0.00
                               -0.00  -2839.11   -432.05
                               -0.00   -432.05  -3384.82

     nonloc. stress (kbar)   6860.78      0.00      0.00
                                0.00   6909.13      1.14
                                0.00      1.14   6877.75

     hartree stress (kbar)   2362.28      0.00     -0.00
                                0.00   1337.74    149.74
                               -0.00    149.74   1562.26

     exc-cor stress (kbar)   -457.37      0.00     -0.00
                                0.00   -460.37      0.27
                               -0.00      0.27   -458.21

     corecor stress (kbar)  -1656.56     -0.00     -0.00
                               -0.00  -1649.76      0.47
                               -0.00      0.47  -1652.77

     ewald   stress (kbar) -10330.51     -0.00     -0.00
                               -0.00 -11375.76    277.91
                               -0.00    277.91 -11012.34

     hubbard stress (kbar)      0.00      0.00      0.00
                                0.00      0.00      0.00
                                0.00      0.00      0.00

     DFT-D   stress (kbar)      0.00      0.00      0.00
                                0.00      0.00      0.00
                                0.00      0.00      0.00

     XDM     stress (kbar)      0.00      0.00      0.00
                                0.00      0.00      0.00
                                0.00      0.00      0.00

     dft-nl  stress (kbar)      0.00      0.00      0.00
                                0.00      0.00      0.00
                                0.00      0.00      0.00

     TS-vdW  stress (kbar)      0.00      0.00      0.00
                                0.00      0.00      0.00
                                0.00      0.00      0.00

[...]

                                0.00      0.00      0.00

     Writing all to output data dir new_calculations/myprefix.save/

     General routines

     Parallel routines

     PAW routines

   This run was terminated on:   7:53:31  21May2023

   JOB DONE.