     Program PWSCF v.7.0 starts on 20May2023 at 12:32:21

     Reading input from espresso_12291.pwi
Warning: card &CELL ignored
Warning: card / ignored

     Current dimensions of program PWSCF are:
     Max number of different atomic species (ntypx) = 10
     Max number of k-points (npk) =  40000
     Max angular momentum in pseudopotentials (lmaxx) =  4

     gamma-point specific algorithms are used
     Message from routine setup:
     using ibrav=0 with symmetry is DISCOURAGED, use correct ibrav instead

     Subspace diagonalization in iterative solution of the eigenvalue problem:
     a serial algorithm will be used

     Using Slab Decomposition

     bravais-lattice index     =            0
     lattice parameter (alat)  =      11.1101  a.u.
     unit-cell volume          =    1371.3706 (a.u.)^3
     number of atoms/cell      =            4
     number of atomic types    =            2
     number of electrons       =        40.00
     number of Kohn-Sham states=           24
     kinetic-energy cutoff     =      30.0000  Ry
     charge density cutoff     =     240.0000  Ry
     scf convergence threshold =      1.0E-06
     mixing beta               =       0.7000
     number of iterations used =            8  plain     mixing
     Exchange-correlation= SLA  PW   PBE  PBE
                           (   1   4   3   4   0   0   0)

     celldm(1)=  11.110108  celldm(2)=   0.000000  celldm(3)=   0.000000
     celldm(4)=   0.000000  celldm(5)=   0.000000  celldm(6)=   0.000000

     crystal axes: (cart. coord. in units of alat)
               a(1) = (   1.000000   0.000000   0.000000 )
               a(2) = (   0.000000   1.000000   0.000000 )
               a(3) = (   0.000000   0.000000   1.000000 )

     reciprocal axes: (cart. coord. in units 2 pi/alat)
               b(1) = (  1.000000  0.000000  0.000000 )
               b(2) = (  0.000000  1.000000  0.000000 )
               b(3) = (  0.000000  0.000000  1.000000 )

     PseudoPot. # 1 for Sr read from file:
     /home/pragov/projects/rrg-bengioy-ad/pragov/crystal_structure_design/SSSP/Sr_pbe_v1.uspp.F.UPF
     MD5 check sum: 6b418c05fbe9db5448babca5e47b7a5b
     Pseudo is Ultrasoft + core correction, Zval = 10.0
     Generated by new atomic code, or converted to UPF format
     Using radial grid of  883 points,  6 beta functions with:
                l(1) =   0
                l(2) =   0
                l(3) =   1
                l(4) =   1
                l(5) =   2
                l(6) =   2
     Q(r) pseudized with  6 coefficients,  rinner =    1.400   1.400   1.400
                                                       1.400   1.400

     PseudoPot. # 2 for Ca read from file:
     /home/pragov/projects/rrg-bengioy-ad/pragov/crystal_structure_design/SSSP/Ca_pbe_v1.uspp.F.UPF
     MD5 check sum: 403a4c14b9e4d4dfdc3024c9a3812218
     Pseudo is Ultrasoft + core correction, Zval = 10.0
     Generated by new atomic code, or converted to UPF format
     Using radial grid of  845 points,  6 beta functions with:
                l(1) =   0
                l(2) =   0
                l(3) =   1
                l(4) =   1
                l(5) =   2
                l(6) =   2
     Q(r) pseudized with  8 coefficients,  rinner =    1.500   1.500   1.500
                                                       1.500   1.500

     atomic species   valence    mass     pseudopotential
        Sr            10.00    87.62000     Sr( 1.00)
        Ca            10.00    40.07800     Ca( 1.00)

     48 Sym. Ops., with inversion, found

                                    s                        frac. trans.

      isym =  1     identity

 cryst.   s( 1) = (     1          0          0      )
                  (     0          1          0      )
                  (     0          0          1      )

 cart.    s( 1) = (  1.0000000  0.0000000  0.0000000 )
                  (  0.0000000  1.0000000  0.0000000 )
                  (  0.0000000  0.0000000  1.0000000 )

      isym =  2     180 deg rotation - cart. axis [0,0,1]

[...]

 cryst.   s( 9) = (     0          0          1      )
                  (     0         -1          0      )
                  (     1          0          0      )

 cart.    s( 9) = (  0.0000000  0.0000000  1.0000000 )
                  (  0.0000000 -1.0000000  0.0000000 )
                  (  1.0000000  0.0000000  0.0000000 )

[...]

 cryst.   s(10) = (     0          0         -1      )
                  (     0         -1          0      )
                  (    -1          0          0      )

 cart.    s(10) = (  0.0000000  0.0000000 -1.0000000 )
                  (  0.0000000 -1.0000000  0.0000000 )
                  ( -1.0000000  0.0000000  0.0000000 )

[...]

      isym = 24     120 deg rotation - cart. axis [-1,-1,1]

[...]

      isym = 25     inversion

[...]

      isym = 26     inv. 180 deg rotation - cart. axis [0,0,1]

[...]

      isym = 48     inv. 120 deg rotation - cart. axis [-1,-1,1]

 cryst.   s(48) = (     0         -1          0      )
                  (     0          0          1      )
                  (     1          0          0      )

 cart.    s(48) = (  0.0000000  0.0000000  1.0000000 )
                  ( -1.0000000  0.0000000  0.0000000 )
                  (  0.0000000  1.0000000  0.0000000 )

   Cartesian axes

     site n.     atom                  positions (alat units)
         1           Sr  tau(   1) = (   0.0000000   0.5000000   0.5000000  )
         2           Sr  tau(   2) = (   0.5000000   0.0000000   0.5000000  )
         3           Sr  tau(   3) = (   0.5000000   0.5000000   0.0000000  )
         4           Ca  tau(   4) = (   0.0000000   0.0000000   0.0000000  )

   Crystallographic axes

     site n.     atom                  positions (cryst. coord.)
         1           Sr  tau(   1) = (  0.0000000  0.5000000  0.5000000  )
         2           Sr  tau(   2) = (  0.5000000  0.0000000  0.5000000  )
         3           Sr  tau(   3) = (  0.5000000  0.5000000  0.0000000  )
         4           Ca  tau(   4) = (  0.0000000  0.0000000  0.0000000  )

     number of k points=     1  Methfessel-Paxton smearing, width (Ry)=  0.0010
                       cart. coord. in units 2pi/alat
        k(    1) = (   0.0000000   0.0000000   0.0000000), wk =   2.0000000

                       cryst. coord.
        k(    1) = (   0.0000000   0.0000000   0.0000000), wk =   2.0000000

     Check: negative core charge=   -0.000003

     Initial potential from superposition of free atoms

     starting charge      39.8936, renormalised to      40.0000

     negative rho (up, down):  1.911E-01 0.000E+00
     Starting wfcs are   49 randomized atomic wfcs

     Self-consistent Calculation

     iteration #  1     ecut=    30.00 Ry     beta= 0.70
     Davidson diagonalization with overlap

     ethr =  1.00E-02,  avg # of iterations =  2.0

     Threshold (ethr) on eigenvalues was too large:
     Diagonalizing with lowered threshold

     Davidson diagonalization with overlap

[...]

     negative rho (up, down):  1.929E-01 0.000E+00

     total energy              =    -285.41082606 Ry
     estimated scf accuracy    <       0.16096165 Ry

[...]

     total energy              =    -285.44625380 Ry
     estimated scf accuracy    <       0.00000389 Ry

     iteration #  6     ecut=    30.00 Ry     beta= 0.70
     Davidson diagonalization with overlap

     ethr =  9.72E-09,  avg # of iterations =  4.0

[...]

     End of self-consistent calculation

          k = 0.0000 0.0000 0.0000 (  1896 PWs)   bands (ev):

   -36.7786 -31.0969 -31.0770 -31.0768 -17.7912 -17.7912 -17.7912 -13.1793
   -13.1793 -13.1792 -13.0693 -13.0692 -13.0691 -13.0095 -13.0094 -13.0094
     1.6674   4.5748   4.7827   4.7827   5.8597   5.8597   5.8597   6.5547

     occupation numbers
     1.0000   1.0000   1.0000   1.0000   1.0000   1.0000   1.0000   1.0000
     1.0000   1.0000   1.0000   1.0000   1.0000   1.0000   1.0000   1.0000
     1.0000   1.0000   1.0000   1.0000  -0.0000  -0.0000  -0.0000  -0.0000

     the Fermi energy is     5.3281 ev

!    total energy              =    -285.44625560 Ry
     estimated scf accuracy    <       0.00000027 Ry
     smearing contrib. (-TS)   =       0.00000000 Ry
     internal energy E=F+TS    =    -285.44625560 Ry

     The total energy is F=E-TS. E is the sum of the following terms:
     one-electron contribution =    -115.75883175 Ry
     hartree contribution      =      61.70813790 Ry
     xc contribution           =     -66.32562555 Ry
     ewald contribution        =    -165.06993620 Ry

     convergence has been achieved in   6 iterations

     negative rho (up, down):  1.963E-01 0.000E+00

     Forces acting on atoms (cartesian axes, Ry/au):

     atom    1 type  1   force =     0.00000000    0.00000000    0.00000000
     atom    2 type  1   force =     0.00000000    0.00000000    0.00000000
     atom    3 type  1   force =     0.00000000    0.00000000    0.00000000
     atom    4 type  2   force =     0.00000000    0.00000000    0.00000000
     The non-local contrib.  to forces
     atom    1 type  1   force =     0.00000000    0.00000000    0.00000000
     atom    2 type  1   force =     0.00000000    0.00000000    0.00000000
     atom    3 type  1   force =     0.00000000    0.00000000    0.00000000
     atom    4 type  2   force =     0.00000000    0.00000000    0.00000000
     The ionic contribution  to forces
     atom    1 type  1   force =    -0.00000000    0.00000000    0.00000000
     atom    2 type  1   force =     0.00000000   -0.00000000    0.00000000
     atom    3 type  1   force =     0.00000000    0.00000000   -0.00000000
     atom    4 type  2   force =    -0.00000000   -0.00000000   -0.00000000
     The local contribution  to forces
     atom    1 type  1   force =     0.00005339    0.00002169    0.00025392
     atom    2 type  1   force =    -0.00008384   -0.00004599    0.00034402
     atom    3 type  1   force =    -0.00006146   -0.00002885   -0.00026388
     atom    4 type  2   force =     0.00018233    0.00004420   -0.00036745
     The core correction contribution to forces
     atom    1 type  1   force =     0.00000525    0.00000197    0.00000221
     atom    2 type  1   force =    -0.00000368   -0.00000469    0.00000867
     atom    3 type  1   force =    -0.00000258    0.00000467    0.00000091
     atom    4 type  2   force =     0.00000199   -0.00000079   -0.00000292
     The Hubbard contrib.    to forces
     atom    1 type  1   force =     0.00000000    0.00000000    0.00000000
     atom    2 type  1   force =     0.00000000    0.00000000    0.00000000
     atom    3 type  1   force =     0.00000000    0.00000000    0.00000000
     atom    4 type  2   force =     0.00000000    0.00000000    0.00000000
     The SCF correction term to forces
     atom    1 type  1   force =    -0.00003933   -0.00006971   -0.00020571
     atom    2 type  1   force =     0.00010406    0.00005227   -0.00031196
     atom    3 type  1   force =     0.00003250    0.00006736    0.00021369
     atom    4 type  2   force =    -0.00019568   -0.00005355    0.00036264

     Total force =     0.000000     Total SCF correction =     0.000619

     Computing stress (Cartesian axis) and pressure

     negative rho (up, down):  1.963E-01 0.000E+00
          total   stress  (Ry/bohr**3)                   (kbar)     P=      -59.70
  -0.00040582   0.00000000   0.00000000          -59.70        0.00        0.00
   0.00000000  -0.00040582   0.00000000            0.00      -59.70        0.00
   0.00000000   0.00000000  -0.00040582            0.00        0.00      -59.70

     kinetic stress (kbar)   5864.84      0.00      0.00
                                0.00   5864.84      0.00
                                0.00      0.00   5864.84

     local   stress (kbar)  -4868.64      0.00      0.00
                                0.00  -4868.64      0.00
                                0.00      0.00  -4868.64

     nonloc. stress (kbar)   4336.61      0.00      0.00
                                0.00   4336.61      0.00
                                0.00      0.00   4336.61

     hartree stress (kbar)   2206.45     -0.00     -0.00
                               -0.00   2206.45     -0.00
                               -0.00     -0.00   2206.45

     exc-cor stress (kbar)   1704.43      0.00     -0.00
                                0.00   1704.43     -0.00
                               -0.00     -0.00   1704.43

     corecor stress (kbar)  -3401.12     -0.00      0.00
                               -0.00  -3401.12      0.00
                                0.00      0.00  -3401.12

     ewald   stress (kbar)  -5902.28      0.00      0.00
                                0.00  -5902.28     -0.00
                                0.00     -0.00  -5902.28

     hubbard stress (kbar)      0.00      0.00      0.00
                                0.00      0.00      0.00
                                0.00      0.00      0.00

     DFT-D   stress (kbar)      0.00      0.00      0.00
                                0.00      0.00      0.00
                                0.00      0.00      0.00

     XDM     stress (kbar)      0.00      0.00      0.00
                                0.00      0.00      0.00
                                0.00      0.00      0.00

     dft-nl  stress (kbar)      0.00      0.00      0.00
                                0.00      0.00      0.00
                                0.00      0.00      0.00

     TS-vdW  stress (kbar)      0.00      0.00      0.00
                                0.00      0.00      0.00
                                0.00      0.00      0.00

[...]

                                0.00      0.00      0.00

     Writing all to output data dir new_calculations/myprefix.save/

     General routines

     Parallel routines

   This run was terminated on:  12:32:31  20May2023

   JOB DONE.