     Program PWSCF v.7.0 starts on 21May2023 at  9: 7:37

     Reading input from espresso_19891.pwi
Warning: card &CELL ignored
Warning: card / ignored

     Current dimensions of program PWSCF are:
     Max number of different atomic species (ntypx) = 10
     Max number of k-points (npk) =  40000
     Max angular momentum in pseudopotentials (lmaxx) =  4

     gamma-point specific algorithms are used

     Subspace diagonalization in iterative solution of the eigenvalue problem:
     a serial algorithm will be used

     Using Slab Decomposition

     bravais-lattice index     =            0
     lattice parameter (alat)  =      11.4549  a.u.
     unit-cell volume          =     998.3606 (a.u.)^3
     number of atoms/cell      =            6
     number of atomic types    =            3
     number of electrons       =        86.00
     number of Kohn-Sham states=           52
     kinetic-energy cutoff     =      30.0000  Ry
     charge density cutoff     =     240.0000  Ry
     scf convergence threshold =      1.0E-06
     mixing beta               =       0.7000
     number of iterations used =            8  plain     mixing
     Exchange-correlation= PBE
                           (   1   4   3   4   0   0   0)

     celldm(1)=  11.454914  celldm(2)=   0.000000  celldm(3)=   0.000000
     celldm(4)=   0.000000  celldm(5)=   0.000000  celldm(6)=   0.000000

     crystal axes: (cart. coord. in units of alat)
               a(1) = (   1.000000   0.000000   0.000000 )
               a(2) = (  -0.057706   0.998334   0.000000 )
               a(3) = (  -0.257647  -0.700682   0.665329 )

     reciprocal axes: (cart. coord. in units 2 pi/alat)
               b(1) = (  1.000000  0.057802  0.448122 )
               b(2) = (  0.000000  1.001669  1.054895 )
               b(3) = (  0.000000  0.000000  1.503017 )

     PseudoPot. # 1 for Ca read from file:
     /home/pragov/projects/rrg-bengioy-ad/pragov/crystal_structure_design/SSSP/Ca_pbe_v1.uspp.F.UPF
     MD5 check sum: 403a4c14b9e4d4dfdc3024c9a3812218
     Pseudo is Ultrasoft + core correction, Zval = 10.0
     Generated by new atomic code, or converted to UPF format
     Using radial grid of  845 points,  6 beta functions with:
                l(1) =   0
                l(2) =   0
                l(3) =   1
                l(4) =   1
                l(5) =   2
                l(6) =   2
     Q(r) pseudized with  8 coefficients,  rinner =    1.500   1.500   1.500
                                                       1.500   1.500

     PseudoPot. # 2 for Sn read from file:
     /home/pragov/projects/rrg-bengioy-ad/pragov/crystal_structure_design/SSSP/Sn_pbe_v1.uspp.F.UPF
     MD5 check sum: 4cf58ce39ec5d5d420df3dd08604eb00
     Pseudo is Ultrasoft + core correction, Zval = 14.0
     Generated by new atomic code, or converted to UPF format
     Using radial grid of  891 points,  6 beta functions with:
                l(1) =   0
                l(2) =   0
                l(3) =   1
                l(4) =   1
                l(5) =   2
                l(6) =   2
     Q(r) pseudized with  6 coefficients,  rinner =    1.200   1.200   1.200
                                                       1.200   1.200

     PseudoPot. # 3 for Au read from file:
     /home/pragov/projects/rrg-bengioy-ad/pragov/crystal_structure_design/SSSP/Au_ONCV_PBE-1.0.oncvpsp.upf
     MD5 check sum: d14007822ba0e19f0206237467fc06c2
     Pseudo is Norm-conserving, Zval = 19.0
     Generated using ONCVPSP code by D. R. Hamann
     Using radial grid of 1278 points,  8 beta functions with:
                l(1) =   0
                l(2) =   0
                l(3) =   1
                l(4) =   1
                l(5) =   2
                l(6) =   2
                l(7) =   3
                l(8) =   3

     atomic species   valence    mass     pseudopotential
        Ca            10.00    40.07800     Ca( 1.00)
        Sn            14.00   118.71000     Sn( 1.00)
        Au            19.00   196.96657     Au( 1.00)

     No symmetry found

                                    s                        frac. trans.

      isym =  1     identity

 cryst.   s( 1) = (     1          0          0      )
                  (     0          1          0      )
                  (     0          0          1      )

 cart.    s( 1) = (  1.0000000 -0.0000000  0.0000000 )
                  (  0.0000000  1.0000000 -0.0000000 )
                  (  0.0000000  0.0000000  1.0000000 )

   Cartesian axes

     site n.     atom                  positions (alat units)
         1           Ca  tau(   1) = (   0.6473843   0.6858852   0.0000000  )
         2           Ca  tau(   2) = (  -0.0456717   0.2674916   0.3326643  )
         3           Sn  tau(   3) = (   0.1489971   0.7788081   0.1961835  )
         4           Sn  tau(   4) = (   0.4535593   0.4913419   0.4691452  )
         5           Au  tau(   5) = (   0.4639580   0.1618222   0.1475120  )
         6           Au  tau(   6) = (  -0.1228677  -0.2281594   0.5178166  )

   Crystallographic axes

     site n.     atom                  positions (cryst. coord.)
         1           Ca  tau(   1) = (  0.6870300  0.6870300  0.0000000  )
         2           Ca  tau(   2) = (  0.1188640  0.6188640  0.5000000  )
         3           Sn  tau(   3) = (  0.2819280  0.9870610  0.2948670  )
         4           Sn  tau(   4) = (  0.6921940  0.9870610  0.7051330  )
         5           Au  tau(   5) = (  0.5394150  0.3177020  0.2217130  )
         6           Au  tau(   6) = (  0.0959890  0.3177020  0.7782870  )

     number of k points=     1  Methfessel-Paxton smearing, width (Ry)=  0.0010
                       cart. coord. in units 2pi/alat
        k(    1) = (   0.0000000   0.0000000   0.0000000), wk =   2.0000000

                       cryst. coord.
        k(    1) = (   0.0000000   0.0000000   0.0000000), wk =   2.0000000

     Check: negative core charge=   -0.000001

     Initial potential from superposition of free atoms

     starting charge      83.9888, renormalised to      86.0000
     Starting wfcs are   58 randomized atomic wfcs

     Self-consistent Calculation

     iteration #  1     ecut=    30.00 Ry     beta= 0.70
     Davidson diagonalization with overlap

     ethr =  1.00E-02,  avg # of iterations =  4.0

     total energy              =   -1024.21415270 Ry
     estimated scf accuracy    <       2.13893704 Ry

[...]

     total energy              =   -1025.38483239 Ry
     estimated scf accuracy    <       0.00000691 Ry

     iteration # 10     ecut=    30.00 Ry     beta= 0.70
     Davidson diagonalization with overlap

     ethr =  8.04E-09,  avg # of iterations =  4.0

     End of self-consistent calculation

          k = 0.0000 0.0000 0.0000 (  1358 PWs)   bands (ev):

   -95.1000 -95.0670 -46.4179 -46.3000 -46.1500 -46.1126 -45.8557 -45.8526
   -29.3932 -29.1560 -10.5362 -10.4288 -10.3930 -10.3064 -10.2580 -10.0868
    -9.5727  -9.5252  -9.4702  -9.4603  -9.4116  -9.3967  -9.3754  -9.3638
    -9.3098  -9.3007   2.2743   4.5014   6.4862   6.5559   6.8004   7.0539
     7.0945   7.1281   7.2637   7.4778   7.7223   8.0672   9.1388   9.7745
    10.6985  11.2264  11.4387  11.5940  12.0595  13.6528  14.4824  14.5862
    14.6946  14.8893  15.7436  15.7986

     occupation numbers
     1.0000   1.0000   1.0000   1.0000   1.0000   1.0000   1.0000   1.0000
     1.0000   1.0000   1.0000   1.0000   1.0000   1.0000   1.0000   1.0000
     1.0000   1.0000   1.0000   1.0000   1.0000   1.0000   1.0000   1.0000
     1.0000   1.0000   1.0000   1.0000   1.0000   1.0000   1.0000   1.0000
     1.0000   1.0000   1.0000   1.0000   1.0000   1.0000   1.0000   1.0000
     1.0000   1.0000   1.0000  -0.0000  -0.0000  -0.0000  -0.0000  -0.0000
    -0.0000  -0.0000  -0.0000  -0.0000

     the Fermi energy is    11.5106 ev

!    total energy              =   -1025.38483290 Ry
     estimated scf accuracy    <       0.00000091 Ry
     smearing contrib. (-TS)   =       0.00000000 Ry
     internal energy E=F+TS    =   -1025.38483290 Ry

     The total energy is F=E-TS. E is the sum of the following terms:
     one-electron contribution =    -466.53132096 Ry
     hartree contribution      =     266.38451778 Ry
     xc contribution           =    -169.75102424 Ry
     ewald contribution        =    -655.48700548 Ry

     convergence has been achieved in  10 iterations

     Forces acting on atoms (cartesian axes, Ry/au):

     atom    1 type  1   force =    -0.05305700   -0.05329272    0.00286990
     atom    2 type  1   force =    -0.00692136   -0.00713455    0.00169853
     atom    3 type  2   force =     0.06104729   -0.05648416    0.05515868
     atom    4 type  2   force =    -0.06171994    0.05877281   -0.05337540
     atom    5 type  3   force =     0.01333973    0.04206838   -0.01910981
     atom    6 type  3   force =     0.04731128    0.01607024    0.01275811
     The non-local contrib.  to forces
     atom    1 type  1   force =    -0.03943903   -0.04128994    0.00059660
     atom    2 type  1   force =     0.01354027    0.01425969    0.00009107
     atom    3 type  2   force =    -0.54481648   -0.18268358   -0.17188454
     atom    4 type  2   force =    -0.15113057   -0.55224405    0.17616400
     atom    5 type  3   force =     0.10341292   -0.13492869    0.10789526
     atom    6 type  3   force =    -0.14212288    0.08313428   -0.10737194
     The ionic contribution  to forces
     atom    1 type  1   force =     1.66224211    1.76109798    0.00000000
     atom    2 type  1   force =    -1.50806694   -1.59775380    0.00000000
     atom    3 type  2   force =    -1.69697754    2.49176444   -1.91908730
     atom    4 type  2   force =     2.58553788   -1.55036017    1.91908730
     atom    5 type  3   force =     2.33878281   -3.25197570    2.56339001
     atom    6 type  3   force =    -3.38151831    2.14722725   -2.56339001
     The local contribution  to forces
     atom    1 type  1   force =    -1.67741703   -1.77633755    0.00076188
     atom    2 type  1   force =     1.48924911    1.57604049    0.00000121
     atom    3 type  2   force =     2.29003328   -2.37022869    2.14081060
     atom    4 type  2   force =    -2.49872351    2.14713297   -2.14525054
     atom    5 type  3   force =    -2.42775153    3.42578668   -2.69077044
     atom    6 type  3   force =     3.56981786   -2.21455462    2.68095829
     The core correction contribution to forces
     atom    1 type  1   force =     0.00145847    0.00145528   -0.00002855
     atom    2 type  1   force =    -0.00199687   -0.00204104    0.00002963
     atom    3 type  2   force =     0.01274619    0.00226137    0.00462386
     atom    4 type  2   force =     0.00145022    0.01270147   -0.00489543
     atom    5 type  3   force =     0.00000000    0.00000000    0.00000000
     atom    6 type  3   force =     0.00000000    0.00000000    0.00000000
     The Hubbard contrib.    to forces
     atom    1 type  1   force =     0.00000000    0.00000000    0.00000000
     atom    2 type  1   force =     0.00000000    0.00000000    0.00000000
     atom    3 type  2   force =     0.00000000    0.00000000    0.00000000
     atom    4 type  2   force =     0.00000000    0.00000000    0.00000000
     atom    5 type  3   force =     0.00000000    0.00000000    0.00000000
     atom    6 type  3   force =     0.00000000    0.00000000    0.00000000
     The SCF correction term to forces
     atom    1 type  1   force =    -0.00009582   -0.00011819    0.00009475
     atom    2 type  1   force =     0.00015877    0.00046041    0.00013139
     atom    3 type  2   force =    -0.00013246    0.00050260   -0.00074916
     atom    4 type  2   force =     0.00095173   -0.00035711    0.00007405
     atom    5 type  3   force =    -0.00129876    0.00128639   -0.00106986
     atom    6 type  3   force =     0.00094030   -0.00163637    0.00111655

     Total force =     0.175527     Total SCF correction =     0.003384

     Computing stress (Cartesian axis) and pressure

          total   stress  (Ry/bohr**3)                   (kbar)     P=     -237.57
  -0.00168185  -0.00004728  -0.00018661         -247.41       -6.96      -27.45
  -0.00004728  -0.00168223   0.00015424           -6.96     -247.46       22.69
  -0.00018661   0.00015424  -0.00148086          -27.45       22.69     -217.84

     kinetic stress (kbar)  24601.94   -109.51     87.14
                             -109.51  24590.66    -77.43
                               87.14    -77.43  24605.62

     local   stress (kbar)  -4587.13  -4130.46   5036.47
                            -4130.46  -5076.74  -4757.18
                             5036.47  -4757.18  -6817.99

     nonloc. stress (kbar)   5673.78    -21.08    -38.82
                              -21.08   5680.45     30.10
                              -38.82     30.10   5737.41

     hartree stress (kbar)  12712.74   1500.24  -1935.17
                             1500.24  12888.56   1828.40
                            -1935.17   1828.40  13649.57

     exc-cor stress (kbar)   3052.18      1.12     -3.40
                                1.12   3052.27      3.26
                               -3.40      3.26   3055.27

     corecor stress (kbar)  -8981.79      0.82      1.24
                                0.82  -8981.66     -1.15
                                1.24     -1.15  -8984.04

     ewald   stress (kbar) -32719.14   2751.91  -3174.91
                             2751.91 -32401.00   2996.69
                            -3174.91   2996.69 -31463.67

     hubbard stress (kbar)      0.00      0.00      0.00
                                0.00      0.00      0.00
                                0.00      0.00      0.00

     DFT-D   stress (kbar)      0.00      0.00      0.00
                                0.00      0.00      0.00
                                0.00      0.00      0.00

     XDM     stress (kbar)      0.00      0.00      0.00
                                0.00      0.00      0.00
                                0.00      0.00      0.00

     dft-nl  stress (kbar)      0.00      0.00      0.00
                                0.00      0.00      0.00
                                0.00      0.00      0.00

     TS-vdW  stress (kbar)      0.00      0.00      0.00
                                0.00      0.00      0.00
                                0.00      0.00      0.00

[...]

                                0.00      0.00      0.00

     Writing all to output data dir new_calculations/myprefix.save/

     General routines

     Parallel routines

   This run was terminated on:   9: 8: 2  21May2023

   JOB DONE.