     Program PWSCF v.7.0 starts on 21May2023 at  1:52: 0

     Reading input from espresso_7847.pwi
Warning: card &CELL ignored
Warning: card / ignored

     Current dimensions of program PWSCF are:
     Max number of different atomic species (ntypx) = 10
     Max number of k-points (npk) =  40000
     Max angular momentum in pseudopotentials (lmaxx) =  4

     gamma-point specific algorithms are used
     Message from routine setup:
     using ibrav=0 with symmetry is DISCOURAGED, use correct ibrav instead

     Subspace diagonalization in iterative solution of the eigenvalue problem:
     a serial algorithm will be used

     Using Slab Decomposition

     bravais-lattice index     =            0
     lattice parameter (alat)  =       6.4298  a.u.
     unit-cell volume          =     918.5119 (a.u.)^3
     number of atoms/cell      =            6
     number of atomic types    =            3
     number of electrons       =        51.00
     number of Kohn-Sham states=           31
     kinetic-energy cutoff     =      30.0000  Ry
     charge density cutoff     =     240.0000  Ry
     scf convergence threshold =      1.0E-06
     mixing beta               =       0.7000
     number of iterations used =            8  plain     mixing
     Exchange-correlation= SLA  PW   PBE  PBE
                           (   1   4   3   4   0   0   0)

     celldm(1)=   6.429834  celldm(2)=   0.000000  celldm(3)=   0.000000
     celldm(4)=   0.000000  celldm(5)=   0.000000  celldm(6)=   0.000000

     crystal axes: (cart. coord. in units of alat)
               a(1) = (   1.000000   0.000000   0.000000 )
               a(2) = (  -0.500000   0.866025   0.000000 )
               a(3) = (   0.000000   0.000000   3.989834 )

     reciprocal axes: (cart. coord. in units 2 pi/alat)
               b(1) = (  1.000000  0.577350  0.000000 )
               b(2) = (  0.000000  1.154700  0.000000 )
               b(3) = (  0.000000  0.000000  0.250637 )

     PseudoPot. # 1 for Ta read from file:
     /home/pragov/projects/rrg-bengioy-ad/pragov/crystal_structure_design/SSSP/Ta_pbe_v1.uspp.F.UPF
     MD5 check sum: f8bbe9446314a3b8ea5d9f3e3836c939
     Pseudo is Ultrasoft + core correction, Zval = 13.0
     Generated by new atomic code, or converted to UPF format
     Using radial grid of  921 points,  7 beta functions with:
                l(1) =   0
                l(2) =   0
                l(3) =   1
                l(4) =   1
                l(5) =   2
                l(6) =   2
                l(7) =   3
     Q(r) pseudized with  6 coefficients,  rinner =    1.300   1.300   1.300
                                                       1.300   1.300   1.300
                                                       1.300

     PseudoPot. # 2 for W  read from file:
     /home/pragov/projects/rrg-bengioy-ad/pragov/crystal_structure_design/SSSP/W_pbe_v1.2.uspp.F.UPF
     MD5 check sum: 9c083fa34c2a2ea0f02f1f893e16e1c8
     Pseudo is Ultrasoft + core correction, Zval = 14.0
     Generated by new atomic code, or converted to UPF format
     Using radial grid of  923 points,  8 beta functions with:
                l(1) =   0
                l(2) =   0
                l(3) =   0
                l(4) =   1
                l(5) =   1
                l(6) =   2
                l(7) =   2
                l(8) =   3
     Q(r) pseudized with  6 coefficients,  rinner =    1.350   1.350   1.350
                                                       1.350   1.350   1.350
                                                       1.350

     PseudoPot. # 3 for Se read from file:
     /home/pragov/projects/rrg-bengioy-ad/pragov/crystal_structure_design/SSSP/Se_pbe_v1.uspp.F.UPF
     MD5 check sum: 1b3568f3a8ae88f9a2a0ad0698632c85
     Pseudo is Ultrasoft + core correction, Zval =  6.0
     Generated by new atomic code, or converted to UPF format
     Using radial grid of  877 points,  6 beta functions with:
                l(1) =   0
                l(2) =   0
                l(3) =   1
                l(4) =   1
                l(5) =   2
                l(6) =   2
     Q(r) pseudized with  8 coefficients,  rinner =    1.300   1.300   1.300
                                                       1.300   1.300

     atomic species   valence    mass     pseudopotential
        Ta            13.00   180.94788     Ta( 1.00)
        W             14.00   183.84000     W ( 1.00)
        Se             6.00    78.97100     Se( 1.00)

     12 Sym. Ops. (no inversion) found

                                    s                        frac. trans.

      isym =  1     identity

 cryst.   s( 1) = (     1          0          0      )
                  (     0          1          0      )
                  (     0          0          1      )

 cart.    s( 1) = (  1.0000000  0.0000000  0.0000000 )
                  (  0.0000000  1.0000000  0.0000000 )
                  (  0.0000000  0.0000000  1.0000000 )

      isym =  2     180 deg rotation - cart. axis [0,1,0]

[...]

      isym =  3     120 deg rotation - cryst. axis [0,0,1]

[...]

      isym =  6     180 deg rotation - cryst. axis [2,1,0]

[...]

      isym =  7     inv. 180 deg rotation - cart. axis [0,0,1]

[...]

      isym =  8     inv. 180 deg rotation - cart. axis [1,0,0]

[...]

      isym =  9     inv.  60 deg rotation - cryst. axis [0,0,1]

 cryst.   s( 9) = (    -1         -1          0      )
                  (     1          0          0      )
                  (     0          0         -1      )

 cart.    s( 9) = ( -0.5000001  0.8660253  0.0000000 )
                  ( -0.8660255 -0.4999999  0.0000000 )
                  (  0.0000000  0.0000000 -1.0000000 )

[...]

 cryst.   s(10) = (     0          1          0      )
                  (    -1         -1          0      )
                  (     0          0         -1      )

 cart.    s(10) = ( -0.4999999 -0.8660253  0.0000000 )
                  (  0.8660255 -0.5000001  0.0000000 )
                  (  0.0000000  0.0000000 -1.0000000 )

[...]

      isym = 12     inv. 180 deg rotation - cryst. axis [1,1,0]

 cryst.   s(12) = (     0         -1          0      )
                  (    -1          0          0      )
                  (     0          0          1      )

 cart.    s(12) = (  0.4999999 -0.8660255  0.0000000 )
                  ( -0.8660255 -0.4999999  0.0000000 )
                  (  0.0000000  0.0000000  1.0000000 )

   Cartesian axes

     site n.     atom                  positions (alat units)
         1           Ta  tau(   1) = (   0.5000005   0.2886749   1.9949171  )
         2           W   tau(   2) = (   0.5000005   0.2886749   0.0000000  )
         3           Se  tau(   3) = (  -0.0000004   0.5773506   2.4974686  )
         4           Se  tau(   4) = (   0.0000000   0.0000000   3.5035452  )
         5           Se  tau(   5) = (   0.0000000   0.0000000   0.4862890  )
         6           Se  tau(   6) = (  -0.0000004   0.5773506   1.4923656  )

   Crystallographic axes

     site n.     atom                  positions (cryst. coord.)
         1           Ta  tau(   1) = (  0.6666670  0.3333330  0.5000000  )
         2           W   tau(   2) = (  0.6666670  0.3333330  0.0000000  )
         3           Se  tau(   3) = (  0.3333330  0.6666670  0.6259580  )
         4           Se  tau(   4) = (  0.0000000  0.0000000  0.8781180  )
         5           Se  tau(   5) = (  0.0000000  0.0000000  0.1218820  )
         6           Se  tau(   6) = (  0.3333330  0.6666670  0.3740420  )

     number of k points=     1  Methfessel-Paxton smearing, width (Ry)=  0.0010
                       cart. coord. in units 2pi/alat
        k(    1) = (   0.0000000   0.0000000   0.0000000), wk =   2.0000000

                       cryst. coord.
        k(    1) = (   0.0000000   0.0000000   0.0000000), wk =   2.0000000

     Initial potential from superposition of free atoms

     starting charge      50.8983, renormalised to      51.0000

     negative rho (up, down):  1.590E-01 0.000E+00
     Starting wfcs are   42 randomized atomic wfcs

     Self-consistent Calculation

     iteration #  1     ecut=    30.00 Ry     beta= 0.70
     Davidson diagonalization with overlap

     ethr =  1.00E-02,  avg # of iterations =  2.0

     negative rho (up, down):  1.588E-01 0.000E+00

     total energy              =    -473.24097769 Ry
     estimated scf accuracy    <       1.70165050 Ry

[...]

     total energy              =    -474.31705030 Ry
     estimated scf accuracy    <       0.00000840 Ry

     iteration # 17     ecut=    30.00 Ry     beta= 0.70
     Davidson diagonalization with overlap

     ethr =  1.65E-08,  avg # of iterations =  3.0

[...]

     End of self-consistent calculation

          k = 0.0000 0.0000 0.0000 (  1271 PWs)   bands (ev):

   -63.5186 -56.5718 -27.8452 -27.8452 -27.6832 -23.3517 -22.9882 -22.9881
    -5.8297  -4.7730  -4.4200  -3.4675   3.0236   4.5443   6.3542   6.7486
     6.7486   7.6478   7.6478   8.4892   8.4893   8.5253   9.1968   9.1968
     9.3316  10.8017  11.7528  11.7528  11.8253  11.8253  13.4425

     occupation numbers
     1.0000   1.0000   1.0000   1.0000   1.0000   1.0000   1.0000   1.0000
     1.0000   1.0000   1.0000   1.0000   1.0000   1.0000   1.0000   1.0000
     1.0000   1.0000   1.0000   1.0000   1.0000   1.0000   1.0000   1.0000
     1.0000   0.5000  -0.0000  -0.0000  -0.0000  -0.0000  -0.0000

     the Fermi energy is    10.8017 ev

!    total energy              =    -474.31705109 Ry
     estimated scf accuracy    <       0.00000059 Ry
     smearing contrib. (-TS)   =      -0.00028209 Ry
     internal energy E=F+TS    =    -474.31676900 Ry

     The total energy is F=E-TS. E is the sum of the following terms:
     one-electron contribution =    -173.27481229 Ry
     hartree contribution      =     107.39123839 Ry
     xc contribution           =    -202.90547553 Ry
     ewald contribution        =    -205.52771956 Ry

     convergence has been achieved in  17 iterations

     negative rho (up, down):  1.552E-01 0.000E+00

     Forces acting on atoms (cartesian axes, Ry/au):

     atom    1 type  1   force =     0.00000000    0.00000000    0.00000000
     atom    2 type  2   force =     0.00000000    0.00000000    0.00000000
     atom    3 type  3   force =     0.00000000   -0.00000000   -0.13960838
     atom    4 type  3   force =     0.00000000    0.00000000    0.10055443
     atom    5 type  3   force =     0.00000000   -0.00000000   -0.10055443
     atom    6 type  3   force =     0.00000000    0.00000000    0.13960838
     The non-local contrib.  to forces
     atom    1 type  1   force =     0.00000000    0.00000000    0.00000000
     atom    2 type  2   force =    -0.00000000   -0.00000000    0.00000000
     atom    3 type  3   force =     0.00000000   -0.00000000    0.04955325
     atom    4 type  3   force =     0.00000000    0.00000000    0.06168237
     atom    5 type  3   force =     0.00000000   -0.00000000   -0.06168237
     atom    6 type  3   force =     0.00000000    0.00000000   -0.04955325
     The ionic contribution  to forces
     atom    1 type  1   force =    -0.00001158    0.00000669   -0.00000000
     atom    2 type  2   force =    -0.00000901    0.00000520   -0.00000000
     atom    3 type  3   force =     0.00000585   -0.00000338   11.12562865
     atom    4 type  3   force =     0.00000445   -0.00000257  -13.73844575
     atom    5 type  3   force =     0.00000445   -0.00000257   13.73844575
     atom    6 type  3   force =     0.00000585   -0.00000338  -11.12562865
     The local contribution  to forces
     atom    1 type  1   force =     0.00003161   -0.00003962   -0.00250741
     atom    2 type  2   force =    -0.00000336    0.00000975    0.00133440
     atom    3 type  3   force =    -0.00003878    0.00004669  -11.30410889
     atom    4 type  3   force =    -0.00000415   -0.00000021   13.78206915
     atom    5 type  3   force =     0.00000190    0.00000123  -13.78105590
     atom    6 type  3   force =     0.00005223   -0.00005037   11.30289888
     The core correction contribution to forces
     atom    1 type  1   force =     0.00000075   -0.00000211    0.00000214
     atom    2 type  2   force =     0.00000084   -0.00000066   -0.00000305
     atom    3 type  3   force =    -0.00000125    0.00000209   -0.01074237
     atom    4 type  3   force =    -0.00000003   -0.00000028   -0.00338238
     atom    5 type  3   force =     0.00000078   -0.00000007    0.00338042
     atom    6 type  3   force =     0.00000622   -0.00000611    0.01072529
     The Hubbard contrib.    to forces
     atom    1 type  1   force =     0.00000000    0.00000000    0.00000000
     atom    2 type  2   force =     0.00000000    0.00000000    0.00000000
     atom    3 type  3   force =     0.00000000    0.00000000    0.00000000
     atom    4 type  3   force =     0.00000000    0.00000000    0.00000000
     atom    5 type  3   force =     0.00000000    0.00000000    0.00000000
     atom    6 type  3   force =     0.00000000    0.00000000    0.00000000
     The SCF correction term to forces
     atom    1 type  1   force =    -0.00001959    0.00001959    0.00255727
     atom    2 type  2   force =     0.00001195   -0.00001090   -0.00131798
     atom    3 type  3   force =     0.00000370   -0.00000440   -0.00000439
     atom    4 type  3   force =    -0.00000017    0.00000069   -0.00138267
     atom    5 type  3   force =    -0.00000124   -0.00000053    0.00034396
     atom    6 type  3   force =    -0.00002356    0.00002608    0.00110074

     Total force =     0.243317     Total SCF correction =     0.003394

     Computing stress (Cartesian axis) and pressure

     negative rho (up, down):  1.552E-01 0.000E+00
          total   stress  (Ry/bohr**3)                   (kbar)     P=      178.34
   0.00215974  -0.00000000   0.00000000          317.71       -0.00        0.00
  -0.00000000   0.00215974   0.00000000           -0.00      317.71        0.00
  -0.00000000  -0.00000000  -0.00068241           -0.00       -0.00     -100.39

     kinetic stress (kbar)  12346.32     -0.00      0.00
                               -0.00  12346.31      0.00
                                0.00      0.00  12219.55

     local   stress (kbar) -15102.56      0.01     -0.01
                                0.01 -15102.55      0.01
                               -0.01      0.01  26175.80

     nonloc. stress (kbar)  -1590.18      0.00      0.00
                                0.00  -1590.18      0.00
                               -0.00     -0.00  -1712.01

     hartree stress (kbar)  12056.30      0.01      0.00
                                0.01  12056.32     -0.00
                                0.00     -0.00  -6913.28

     exc-cor stress (kbar)  20988.14     -0.00      0.00
                               -0.00  20988.14     -0.00
                                0.00     -0.00  21001.27

     corecor stress (kbar) -24902.46      0.00     -0.00
                                0.00 -24902.45      0.00
                               -0.00      0.00 -24910.98

     ewald   stress (kbar)  -3477.86      0.00      0.00
                                0.00  -3477.86      0.00
                                0.00      0.00 -25960.75

     hubbard stress (kbar)      0.00      0.00      0.00
                                0.00      0.00      0.00
                                0.00      0.00      0.00

     DFT-D   stress (kbar)      0.00      0.00      0.00
                                0.00      0.00      0.00
                                0.00      0.00      0.00

     XDM     stress (kbar)      0.00      0.00      0.00
                                0.00      0.00      0.00
                                0.00      0.00      0.00

     dft-nl  stress (kbar)      0.00      0.00      0.00
                                0.00      0.00      0.00
                                0.00      0.00      0.00

     TS-vdW  stress (kbar)      0.00      0.00      0.00
                                0.00      0.00      0.00
                                0.00      0.00      0.00

[...]

                                0.00      0.00      0.00

     Writing all to output data dir new_calculations/myprefix.save/

     General routines

     Parallel routines

   This run was terminated on:   1:52:17  21May2023

   JOB DONE.