     Program PWSCF v.7.0 starts on 20May2023 at 15:51:44

     Reading input from espresso_14518.pwi
Warning: card &CELL ignored
Warning: card / ignored

     Current dimensions of program PWSCF are:
     Max number of different atomic species (ntypx) = 10
     Max number of k-points (npk) =  40000
     Max angular momentum in pseudopotentials (lmaxx) =  4
     file Cd.pbe-dn-rrkjus_psl.0.3.1.UPF: wavefunction(s)  4D renormalized

     gamma-point specific algorithms are used
     Message from routine setup:
     using ibrav=0 with symmetry is DISCOURAGED, use correct ibrav instead

     Subspace diagonalization in iterative solution of the eigenvalue problem:
     a serial algorithm will be used

     Using Slab Decomposition

     bravais-lattice index     =            0
     lattice parameter (alat)  =      16.8261  a.u.
     unit-cell volume          =    4271.9473 (a.u.)^3
     number of atoms/cell      =           20
     number of atomic types    =            2
     number of electrons       =       216.00
     number of Kohn-Sham states=          130
     kinetic-energy cutoff     =      30.0000  Ry
     charge density cutoff     =     240.0000  Ry
     scf convergence threshold =      1.0E-06
     mixing beta               =       0.7000
     number of iterations used =            8  plain     mixing
     Exchange-correlation= PBE
                           (   1   4   3   4   0   0   0)

     celldm(1)=  16.826112  celldm(2)=   0.000000  celldm(3)=   0.000000
     celldm(4)=   0.000000  celldm(5)=   0.000000  celldm(6)=   0.000000

     crystal axes: (cart. coord. in units of alat)
               a(1) = (   1.000000   0.000000   0.000000 )
               a(2) = (   0.000000   1.000000   0.000000 )
               a(3) = (   0.000000   0.000000   0.896757 )

     reciprocal axes: (cart. coord. in units 2 pi/alat)
               b(1) = (  1.000000  0.000000  0.000000 )
               b(2) = (  0.000000  1.000000  0.000000 )
               b(3) = (  0.000000  0.000000  1.115130 )

     PseudoPot. # 1 for Ca read from file:
     /home/pragov/projects/rrg-bengioy-ad/pragov/crystal_structure_design/SSSP/Ca_pbe_v1.uspp.F.UPF
     MD5 check sum: 403a4c14b9e4d4dfdc3024c9a3812218
     Pseudo is Ultrasoft + core correction, Zval = 10.0
     Generated by new atomic code, or converted to UPF format
     Using radial grid of  845 points,  6 beta functions with:
                l(1) =   0
                l(2) =   0
                l(3) =   1
                l(4) =   1
                l(5) =   2
                l(6) =   2
     Q(r) pseudized with  8 coefficients,  rinner =    1.500   1.500   1.500
                                                       1.500   1.500

     PseudoPot. # 2 for Cd read from file:
     /home/pragov/projects/rrg-bengioy-ad/pragov/crystal_structure_design/SSSP/Cd.pbe-dn-rrkjus_psl.0.3.1.UPF
     MD5 check sum: 558e9f355611b531a870a69ef6ace9e2
     Pseudo is Ultrasoft + core correction, Zval = 12.0
     Generated using "atomic" code by A. Dal Corso  v.5.0.99 svn rev. 10869
     Using radial grid of 1239 points,  6 beta functions with:
                l(1) =   0
                l(2) =   0
                l(3) =   1
                l(4) =   1
                l(5) =   2
                l(6) =   2
     Q(r) pseudized with 0 coefficients

     atomic species   valence    mass     pseudopotential
        Ca            10.00    40.07800     Ca( 1.00)
        Cd            12.00   112.41400     Cd( 1.00)

     16 Sym. Ops., with inversion, found ( 8 have fractional translation)

                                    s                        frac. trans.

      isym =  1     identity

 cryst.   s( 1) = (     1          0          0      )
                  (     0          1          0      )
                  (     0          0          1      )

 cart.    s( 1) = (  1.0000000  0.0000000  0.0000000 )
                  (  0.0000000  1.0000000  0.0000000 )
                  (  0.0000000  0.0000000  1.0000000 )

      isym =  2     180 deg rotation - cart. axis [0,0,1]

[...]

 cryst.   s( 3) = (    -1          0          0      )    f =(  0.5000000 )
                  (     0          1          0      )       ( -0.5000000 )
                  (     0          0         -1      )       (  0.5000000 )

 cart.    s( 3) = ( -1.0000000  0.0000000  0.0000000 )    f =(  0.5000000 )
                  (  0.0000000  1.0000000  0.0000000 )       ( -0.5000000 )
                  (  0.0000000  0.0000000 -1.0000000 )       (  0.4483783 )

[...]

      isym =  8      90 deg rotation - cart. axis [0,0,1]

 cryst.   s( 8) = (     0          1          0      )    f =(  0.5000000 )
                  (    -1          0          0      )       ( -0.5000000 )
                  (     0          0          1      )       ( -0.5000000 )

 cart.    s( 8) = (  0.0000000 -1.0000000  0.0000000 )    f =(  0.5000000 )
                  (  1.0000000  0.0000000  0.0000000 )       ( -0.5000000 )
                  (  0.0000000  0.0000000  1.0000000 )       ( -0.4483783 )

      isym =  9     inversion

 cryst.   s( 9) = (    -1          0          0      )
                  (     0         -1          0      )
                  (     0          0         -1      )

 cart.    s( 9) = ( -1.0000000  0.0000000  0.0000000 )
                  (  0.0000000 -1.0000000  0.0000000 )
                  (  0.0000000  0.0000000 -1.0000000 )

      isym = 10     inv. 180 deg rotation - cart. axis [0,0,1]

 cryst.   s(10) = (     1          0          0      )
                  (     0          1          0      )
                  (     0          0         -1      )

 cart.    s(10) = (  1.0000000  0.0000000  0.0000000 )
                  (  0.0000000  1.0000000  0.0000000 )
                  (  0.0000000  0.0000000 -1.0000000 )

[...]

 cryst.   s(11) = (     1          0          0      )    f =( -0.5000000 )
                  (     0         -1          0      )       (  0.5000000 )
                  (     0          0          1      )       ( -0.5000000 )

 cart.    s(11) = (  1.0000000  0.0000000  0.0000000 )    f =( -0.5000000 )
                  (  0.0000000 -1.0000000  0.0000000 )       (  0.5000000 )
                  (  0.0000000  0.0000000  1.0000000 )       ( -0.4483783 )

[...]

 cryst.   s(14) = (     0          1          0      )
                  (     1          0          0      )
                  (     0          0          1      )

 cart.    s(14) = (  0.0000000  1.0000000  0.0000000 )
                  (  1.0000000  0.0000000  0.0000000 )
                  (  0.0000000  0.0000000  1.0000000 )

[...]

      isym = 16     inv.  90 deg rotation - cart. axis [0,0,1]

 cryst.   s(16) = (     0         -1          0      )    f =( -0.5000000 )
                  (     1          0          0      )       (  0.5000000 )
                  (     0          0         -1      )       (  0.5000000 )

 cart.    s(16) = (  0.0000000  1.0000000  0.0000000 )    f =( -0.5000000 )
                  ( -1.0000000  0.0000000  0.0000000 )       (  0.5000000 )
                  (  0.0000000  0.0000000 -1.0000000 )       (  0.4483783 )

   Cartesian axes

     site n.     atom                  positions (alat units)
         1           Ca  tau(   1) = (   0.1460810   0.1460810   0.0000000  )
         2           Ca  tau(   2) = (   0.6460810   0.3539190   0.4483783  )
         3           Ca  tau(   3) = (   0.3539190   0.6460810   0.4483783  )
         4           Ca  tau(   4) = (   0.8539190   0.8539190   0.0000000  )
         5           Ca  tau(   5) = (   0.1971320   0.1971320   0.4483783  )
         6           Ca  tau(   6) = (   0.6971320   0.3028680   0.0000000  )
         7           Ca  tau(   7) = (   0.3028680   0.6971320   0.0000000  )
         8           Ca  tau(   8) = (   0.8028680   0.8028680   0.4483783  )
         9           Ca  tau(   9) = (   0.5000000   0.0000000   0.2241891  )
        10           Ca  tau(  10) = (   0.5000000   0.0000000   0.6725674  )
        11           Ca  tau(  11) = (   0.0000000   0.5000000   0.6725674  )
        12           Ca  tau(  12) = (   0.0000000   0.5000000   0.2241891  )
        13           Cd  tau(  13) = (   0.3753120   0.3753120   0.7192302  )
        14           Cd  tau(  14) = (   0.8753120   0.1246880   0.2708519  )
        15           Cd  tau(  15) = (   0.1246880   0.8753120   0.2708519  )
        16           Cd  tau(  16) = (   0.6246880   0.6246880   0.7192302  )
        17           Cd  tau(  17) = (   0.3753120   0.3753120   0.1775264  )
        18           Cd  tau(  18) = (   0.8753120   0.1246880   0.6259047  )
        19           Cd  tau(  19) = (   0.1246880   0.8753120   0.6259047  )
        20           Cd  tau(  20) = (   0.6246880   0.6246880   0.1775264  )

   Crystallographic axes

     site n.     atom                  positions (cryst. coord.)
         1           Ca  tau(   1) = (  0.1460810  0.1460810  0.0000000  )
         2           Ca  tau(   2) = (  0.6460810  0.3539190  0.5000000  )
         3           Ca  tau(   3) = (  0.3539190  0.6460810  0.5000000  )
         4           Ca  tau(   4) = (  0.8539190  0.8539190  0.0000000  )
         5           Ca  tau(   5) = (  0.1971320  0.1971320  0.5000000  )
         6           Ca  tau(   6) = (  0.6971320  0.3028680  0.0000000  )
         7           Ca  tau(   7) = (  0.3028680  0.6971320  0.0000000  )
         8           Ca  tau(   8) = (  0.8028680  0.8028680  0.5000000  )
         9           Ca  tau(   9) = (  0.5000000  0.0000000  0.2500000  )
        10           Ca  tau(  10) = (  0.5000000  0.0000000  0.7500000  )
        11           Ca  tau(  11) = (  0.0000000  0.5000000  0.7500000  )
        12           Ca  tau(  12) = (  0.0000000  0.5000000  0.2500000  )
        13           Cd  tau(  13) = (  0.3753120  0.3753120  0.8020350  )
        14           Cd  tau(  14) = (  0.8753120  0.1246880  0.3020350  )
        15           Cd  tau(  15) = (  0.1246880  0.8753120  0.3020350  )
        16           Cd  tau(  16) = (  0.6246880  0.6246880  0.8020350  )
        17           Cd  tau(  17) = (  0.3753120  0.3753120  0.1979650  )
        18           Cd  tau(  18) = (  0.8753120  0.1246880  0.6979650  )
        19           Cd  tau(  19) = (  0.1246880  0.8753120  0.6979650  )
        20           Cd  tau(  20) = (  0.6246880  0.6246880  0.1979650  )

     number of k points=     1  Methfessel-Paxton smearing, width (Ry)=  0.0010
                       cart. coord. in units 2pi/alat
        k(    1) = (   0.0000000   0.0000000   0.0000000), wk =   2.0000000

                       cryst. coord.
        k(    1) = (   0.0000000   0.0000000   0.0000000), wk =   2.0000000

     Check: negative core charge=   -0.000002

     Initial potential from superposition of free atoms

     starting charge     215.8954, renormalised to     216.0000
     Starting wfcs are  192 randomized atomic wfcs

     Self-consistent Calculation

     iteration #  1     ecut=    30.00 Ry     beta= 0.70
     Davidson diagonalization with overlap

     ethr =  1.00E-02,  avg # of iterations =  2.0

     Threshold (ethr) on eigenvalues was too large:
     Diagonalizing with lowered threshold

[...]

   -35.0016 -35.0013 -34.9980 -34.9978 -34.6911 -34.6905 -34.6901 -34.6900
   -34.6064 -34.6061 -34.6014 -34.6011 -16.0775 -16.0694 -16.0110 -16.0095
   -15.9840 -15.9839 -15.9722 -15.9722 -15.9716 -15.9716 -15.9654 -15.9654
   -15.7402 -15.7318 -15.7297 -15.7291 -15.6982 -15.6941 -15.6899 -15.6892
   -15.6597 -15.6580 -15.6575 -15.6558 -15.6265 -15.6258 -15.6258 -15.6253
   -15.6187 -15.6176 -15.5905 -15.5901 -15.5831 -15.5828 -15.5527 -15.5524
    -1.5641  -1.5641  -1.5252  -1.4961  -1.4910  -1.4785  -1.4609  -1.4558
    -1.4550  -1.4550  -1.4422  -1.4421  -1.4113  -1.4113  -1.4070  -1.4070
    -1.3737  -1.3713  -1.2780  -1.2603  -1.2603  -1.2554  -1.2338  -1.2296
    -1.2170  -1.2169  -1.2125  -1.2124  -1.1967  -1.1967  -1.1734  -1.1733
    -1.1715  -1.1670  -1.1652  -1.1329  -1.0862  -1.0861  -0.9509  -0.9509
     1.1189   2.1511   3.1324   3.1324   3.3116   3.7220   4.6289   4.6752
     4.9264   4.9264   5.2709   5.4276   5.5176   5.5177   6.0676   6.2371
     6.2954   6.2955   6.8808   7.0082   7.0090   7.1406   7.1407   7.3396
     7.4950   7.4950   7.6133   7.6815   7.9505   8.2739   8.3292   8.4282
     8.4283   8.6333   8.6364   8.6365   8.7789   8.9772   9.1014   9.1015
     9.2375   9.2985

     occupation numbers
     1.0000   1.0000   1.0000   1.0000   1.0000   1.0000   1.0000   1.0000
     1.0000   1.0000   1.0000   1.0000   1.0000   1.0000   1.0000   1.0000
     1.0000   1.0000   1.0000   1.0000   1.0000   1.0000   1.0000   1.0000
     1.0000   1.0000   1.0000   1.0000   1.0000   1.0000   1.0000   1.0000
     1.0000   1.0000   1.0000   1.0000   1.0000   1.0000   1.0000   1.0000
     1.0000   1.0000   1.0000   1.0000   1.0000   1.0000   1.0000   1.0000
     1.0000   1.0000   1.0000   1.0000   1.0000   1.0000   1.0000   1.0000
     1.0000   1.0000   1.0000   1.0000   1.0000   1.0000   1.0000   1.0000
     1.0000   1.0000   1.0000   1.0000   1.0000   1.0000   1.0000   1.0000
     1.0000   1.0000   1.0000   1.0000   1.0000   1.0000   1.0000   1.0000
     1.0000   1.0000   1.0000   1.0000   1.0000   1.0000   1.0000   1.0000
     1.0000   1.0000   1.0000   1.0000   1.0000   1.0000   1.0000   1.0000
     1.0000   1.0000   1.0000   1.0000   1.0000   1.0000   1.0000   1.0000
     1.0000   1.0000   1.0000   0.5221   0.4779  -0.0000  -0.0000  -0.0000
    -0.0000  -0.0000  -0.0000  -0.0000  -0.0000  -0.0000  -0.0000  -0.0000
    -0.0000  -0.0000  -0.0000  -0.0000  -0.0000  -0.0000  -0.0000  -0.0000
    -0.0000  -0.0000

     the Fermi energy is     7.0086 ev

!    total energy              =   -1877.44053087 Ry
     estimated scf accuracy    <       0.00000014 Ry
     smearing contrib. (-TS)   =      -0.00056304 Ry
     internal energy E=F+TS    =   -1877.43996783 Ry

     The total energy is F=E-TS. E is the sum of the following terms:
     one-electron contribution =    -777.63349383 Ry
     hartree contribution      =     494.25362627 Ry
     xc contribution           =    -484.71356209 Ry
     ewald contribution        =   -1109.34653819 Ry

     convergence has been achieved in  16 iterations

     Forces acting on atoms (cartesian axes, Ry/au):

     atom    1 type  1   force =    -0.00213963   -0.00213963    0.00000000
     atom    2 type  1   force =    -0.00213963    0.00213963   -0.00000000
     atom    3 type  1   force =     0.00213963   -0.00213963    0.00000000
     atom    4 type  1   force =     0.00213963    0.00213963   -0.00000000
     atom    5 type  1   force =    -0.00768890   -0.00768890   -0.00000000
     atom    6 type  1   force =    -0.00768890    0.00768890    0.00000000
     atom    7 type  1   force =     0.00768890   -0.00768890   -0.00000000
     atom    8 type  1   force =     0.00768890    0.00768890    0.00000000
     atom    9 type  1   force =     0.00000000    0.00000000    0.00000000
     atom   10 type  1   force =     0.00000000    0.00000000   -0.00000000
     atom   11 type  1   force =     0.00000000    0.00000000   -0.00000000
     atom   12 type  1   force =     0.00000000    0.00000000    0.00000000
     atom   13 type  2   force =    -0.00268920   -0.00268920   -0.00750833
     atom   14 type  2   force =    -0.00268920    0.00268920   -0.00750833
     atom   15 type  2   force =     0.00268920   -0.00268920   -0.00750833
     atom   16 type  2   force =     0.00268920    0.00268920   -0.00750833
     atom   17 type  2   force =    -0.00268920   -0.00268920    0.00750833
     atom   18 type  2   force =    -0.00268920    0.00268920    0.00750833
     atom   19 type  2   force =     0.00268920   -0.00268920    0.00750833
     atom   20 type  2   force =     0.00268920    0.00268920    0.00750833
     The non-local contrib.  to forces
     atom    1 type  1   force =     0.01828026    0.01828026    0.00000000
     atom    2 type  1   force =     0.01828026   -0.01828026    0.00000000
     atom    3 type  1   force =    -0.01828026    0.01828026   -0.00000000
     atom    4 type  1   force =    -0.01828026   -0.01828026    0.00000000
     atom    5 type  1   force =    -0.01704753   -0.01704753    0.00000000
     atom    6 type  1   force =    -0.01704753    0.01704753   -0.00000000
     atom    7 type  1   force =     0.01704753   -0.01704753   -0.00000000
     atom    8 type  1   force =     0.01704753    0.01704753    0.00000000
     atom    9 type  1   force =     0.00000000    0.00000000    0.00000000
     atom   10 type  1   force =     0.00000000    0.00000000    0.00000000
     atom   11 type  1   force =     0.00000000    0.00000000    0.00000000
     atom   12 type  1   force =     0.00000000    0.00000000    0.00000000
     atom   13 type  2   force =     0.02155095    0.02155095    0.06265338
     atom   14 type  2   force =     0.02155095   -0.02155095    0.06265338
     atom   15 type  2   force =    -0.02155095    0.02155095    0.06265338
     atom   16 type  2   force =    -0.02155095   -0.02155095    0.06265338
     atom   17 type  2   force =     0.02155095    0.02155095   -0.06265338
     atom   18 type  2   force =     0.02155095   -0.02155095   -0.06265338
     atom   19 type  2   force =    -0.02155095    0.02155095   -0.06265338
     atom   20 type  2   force =    -0.02155095   -0.02155095   -0.06265338
     The ionic contribution  to forces
     atom    1 type  1   force =     0.57150818    0.57150818    0.00000000
     atom    2 type  1   force =     0.57150818   -0.57150818    0.00000000
     atom    3 type  1   force =    -0.57150818    0.57150818    0.00000000
     atom    4 type  1   force =    -0.57150818   -0.57150818   -0.00000000
     atom    5 type  1   force =     2.40767031    2.40767031    0.00000000
     atom    6 type  1   force =     2.40767031   -2.40767031   -0.00000000
     atom    7 type  1   force =    -2.40767031    2.40767031   -0.00000000
     atom    8 type  1   force =    -2.40767031   -2.40767031    0.00000000
     atom    9 type  1   force =    -0.00000000    0.00000000   -0.00000000
     atom   10 type  1   force =    -0.00000000    0.00000000   -0.00000000
     atom   11 type  1   force =     0.00000000   -0.00000000   -0.00000000
     atom   12 type  1   force =     0.00000000   -0.00000000   -0.00000000
     atom   13 type  2   force =    -2.59192250   -2.59192250   -2.57463755
     atom   14 type  2   force =    -2.59192250    2.59192250   -2.57463755
     atom   15 type  2   force =     2.59192250   -2.59192250   -2.57463755
     atom   16 type  2   force =     2.59192250    2.59192250   -2.57463755
     atom   17 type  2   force =    -2.59192250   -2.59192250    2.57463755
     atom   18 type  2   force =    -2.59192250    2.59192250    2.57463755
     atom   19 type  2   force =     2.59192250   -2.59192250    2.57463755
     atom   20 type  2   force =     2.59192250    2.59192250    2.57463755
     The local contribution  to forces
     atom    1 type  1   force =    -0.59155104   -0.59152360   -0.00006675
     atom    2 type  1   force =    -0.59128363    0.59163227    0.00005707
     atom    3 type  1   force =     0.59119149   -0.59132592    0.00006224
     atom    4 type  1   force =     0.59166008    0.59118531   -0.00005832
     atom    5 type  1   force =    -2.39840738   -2.39834759    0.00007329
     atom    6 type  1   force =    -2.39818173    2.39852270   -0.00006299
     atom    7 type  1   force =     2.39815945   -2.39837783   -0.00006600
     atom    8 type  1   force =     2.39859232    2.39811859    0.00005289
     atom    9 type  1   force =    -0.00013965   -0.00027532   -0.00013798
     atom   10 type  1   force =    -0.00015895   -0.00026438    0.00013786
     atom   11 type  1   force =     0.00008020    0.00034711    0.00017610
     atom   12 type  1   force =     0.00007238    0.00034486   -0.00016854
     atom   13 type  2   force =     2.56722266    2.56786595    2.50501642
     atom   14 type  2   force =     2.56755563   -2.56748716    2.50468761
     atom   15 type  2   force =    -2.56733593    2.56692849    2.50473940
     atom   16 type  2   force =    -2.56746460   -2.56734519    2.50502710
     atom   17 type  2   force =     2.56723950    2.56784800   -2.50505025
     atom   18 type  2   force =     2.56754293   -2.56745793   -2.50461064
     atom   19 type  2   force =    -2.56736022    2.56693160   -2.50468321
     atom   20 type  2   force =    -2.56746390   -2.56732662   -2.50504724
     The core correction contribution to forces
     atom    1 type  1   force =    -0.00044152   -0.00043974   -0.00000105
     atom    2 type  1   force =    -0.00043857    0.00043979    0.00000109
     atom    3 type  1   force =     0.00044011   -0.00044080    0.00000109
     atom    4 type  1   force =     0.00044008    0.00044024   -0.00000107
     atom    5 type  1   force =    -0.00001407   -0.00001262    0.00000125
     atom    6 type  1   force =    -0.00001309    0.00001334   -0.00000087
     atom    7 type  1   force =     0.00001200   -0.00001341   -0.00000089
     atom    8 type  1   force =     0.00001305    0.00001251    0.00000120
     atom    9 type  1   force =     0.00000060   -0.00000012   -0.00000084
     atom   10 type  1   force =     0.00000023   -0.00000020    0.00000058
     atom   11 type  1   force =     0.00000047    0.00000080    0.00000125
     atom   12 type  1   force =    -0.00000002    0.00000031   -0.00000113
     atom   13 type  2   force =     0.00027922    0.00028491   -0.00030152
     atom   14 type  2   force =     0.00028356   -0.00028328   -0.00030614
     atom   15 type  2   force =    -0.00028123    0.00027879   -0.00030478
     atom   16 type  2   force =    -0.00028166   -0.00028066   -0.00030152
     atom   17 type  2   force =     0.00027959    0.00028426    0.00030126
     atom   18 type  2   force =     0.00028317   -0.00028240    0.00030832
     atom   19 type  2   force =    -0.00028241    0.00027867    0.00030658
     atom   20 type  2   force =    -0.00028133   -0.00028030    0.00030107
     The Hubbard contrib.    to forces
     atom    1 type  1   force =     0.00000000    0.00000000    0.00000000
     atom    2 type  1   force =     0.00000000    0.00000000    0.00000000
     atom    3 type  1   force =     0.00000000    0.00000000    0.00000000
     atom    4 type  1   force =     0.00000000    0.00000000    0.00000000
     atom    5 type  1   force =     0.00000000    0.00000000    0.00000000
     atom    6 type  1   force =     0.00000000    0.00000000    0.00000000
     atom    7 type  1   force =     0.00000000    0.00000000    0.00000000
     atom    8 type  1   force =     0.00000000    0.00000000    0.00000000
     atom    9 type  1   force =     0.00000000    0.00000000    0.00000000
     atom   10 type  1   force =     0.00000000    0.00000000    0.00000000
     atom   11 type  1   force =     0.00000000    0.00000000    0.00000000
     atom   12 type  1   force =     0.00000000    0.00000000    0.00000000
     atom   13 type  2   force =     0.00000000    0.00000000    0.00000000
     atom   14 type  2   force =     0.00000000    0.00000000    0.00000000
     atom   15 type  2   force =     0.00000000    0.00000000    0.00000000
     atom   16 type  2   force =     0.00000000    0.00000000    0.00000000
     atom   17 type  2   force =     0.00000000    0.00000000    0.00000000
     atom   18 type  2   force =     0.00000000    0.00000000    0.00000000
     atom   19 type  2   force =     0.00000000    0.00000000    0.00000000
     atom   20 type  2   force =     0.00000000    0.00000000    0.00000000
     The SCF correction term to forces
     atom    1 type  1   force =     0.00004381    0.00004576    0.00004462
     atom    2 type  1   force =    -0.00019153   -0.00016376   -0.00004788
     atom    3 type  1   force =     0.00029599   -0.00017410   -0.00003199
     atom    4 type  1   force =    -0.00017416    0.00031621    0.00004021
     atom    5 type  1   force =     0.00008843    0.00004544   -0.00004596
     atom    6 type  1   force =    -0.00010749   -0.00023498    0.00004092
     atom    7 type  1   force =     0.00011992    0.00008536    0.00003565
     atom    8 type  1   force =    -0.00028746    0.00019604   -0.00002899
     atom    9 type  1   force =     0.00015256    0.00028113    0.00014239
     atom   10 type  1   force =     0.00016271    0.00027108   -0.00014153
     atom   11 type  1   force =    -0.00008294   -0.00034508   -0.00016832
     atom   12 type  1   force =    -0.00007996   -0.00035122    0.00016649
     atom   13 type  2   force =     0.00014729   -0.00051021   -0.00027788
     atom   14 type  2   force =    -0.00015115    0.00006759    0.00013017
     atom   15 type  2   force =    -0.00010321    0.00052625    0.00007850
     atom   16 type  2   force =     0.00008979   -0.00003456   -0.00026760
     atom   17 type  2   force =     0.00012743   -0.00050383    0.00029784
     atom   18 type  2   force =    -0.00011951    0.00003415   -0.00019202
     atom   19 type  2   force =    -0.00008953    0.00053152   -0.00011597
     atom   20 type  2   force =     0.00009483   -0.00004721    0.00029738

     Total force =     0.032807     Total SCF correction =     0.001642

     Computing stress (Cartesian axis) and pressure

          total   stress  (Ry/bohr**3)                   (kbar)     P=      -86.79
  -0.00060471   0.00000000   0.00000000          -88.96        0.00        0.00
   0.00000000  -0.00060471   0.00000000            0.00      -88.96        0.00
   0.00000000   0.00000000  -0.00056049            0.00        0.00      -82.45

     kinetic stress (kbar)  12924.15      0.00      0.00
                                0.00  12924.15      0.00
                                0.00      0.00  12940.44

     local   stress (kbar)  -2255.88      0.04     -0.00
                                0.04  -2255.88     -0.00
                               -0.00     -0.00  -3575.50

     nonloc. stress (kbar)     48.34      0.00      0.00
                                0.00     48.34      0.00
                                0.00      0.00     57.23

     hartree stress (kbar)   5463.02     -0.04      0.00
                               -0.04   5463.02      0.00
                                0.00      0.00   6093.66

     exc-cor stress (kbar)   4478.49     -0.00      0.00
                               -0.00   4478.49      0.00
                                0.00      0.00   4479.12

     corecor stress (kbar)  -7790.10      0.00     -0.00
                                0.00  -7790.10      0.00
                               -0.00      0.00  -7790.86

     ewald   stress (kbar) -12956.98     -0.00      0.00
                               -0.00 -12956.98      0.00
                                0.00      0.00 -12286.54

     hubbard stress (kbar)      0.00      0.00      0.00
                                0.00      0.00      0.00
                                0.00      0.00      0.00

     DFT-D   stress (kbar)      0.00      0.00      0.00
                                0.00      0.00      0.00
                                0.00      0.00      0.00

     XDM     stress (kbar)      0.00      0.00      0.00
                                0.00      0.00      0.00
                                0.00      0.00      0.00

     dft-nl  stress (kbar)      0.00      0.00      0.00
                                0.00      0.00      0.00
                                0.00      0.00      0.00

     TS-vdW  stress (kbar)      0.00      0.00      0.00
                                0.00      0.00      0.00
                                0.00      0.00      0.00

[...]

                                0.00      0.00      0.00

     Writing all to output data dir new_calculations/myprefix.save/

     General routines

     Parallel routines

   This run was terminated on:  15:52:47  20May2023

   JOB DONE.