     Program PWSCF v.7.0 starts on 21May2023 at 18: 8:22

     Reading input from espresso_21165.pwi
Warning: card &CELL ignored
Warning: card / ignored

     Current dimensions of program PWSCF are:
     Max number of different atomic species (ntypx) = 10
     Max number of k-points (npk) =  40000
     Max angular momentum in pseudopotentials (lmaxx) =  4

     gamma-point specific algorithms are used
     Message from routine setup:
     using ibrav=0 with symmetry is DISCOURAGED, use correct ibrav instead

     Subspace diagonalization in iterative solution of the eigenvalue problem:
     a serial algorithm will be used

     Using Slab Decomposition

     bravais-lattice index     =            0
     lattice parameter (alat)  =      10.8208  a.u.
     unit-cell volume          =     895.9009 (a.u.)^3
     number of atoms/cell      =            6
     number of atomic types    =            2
     number of electrons       =       106.00
     number of Kohn-Sham states=           64
     kinetic-energy cutoff     =      30.0000  Ry
     charge density cutoff     =     240.0000  Ry
     scf convergence threshold =      1.0E-06
     mixing beta               =       0.7000
     number of iterations used =            8  plain     mixing
     Exchange-correlation= PBE
                           (   1   4   3   4   0   0   0)

     celldm(1)=  10.820774  celldm(2)=   0.000000  celldm(3)=   0.000000
     celldm(4)=   0.000000  celldm(5)=   0.000000  celldm(6)=   0.000000

     crystal axes: (cart. coord. in units of alat)
               a(1) = (   1.000000   0.000000   0.000000 )
               a(2) = (   0.500000   0.866025   0.000000 )
               a(3) = (   0.500000   0.288675   0.816497 )

     reciprocal axes: (cart. coord. in units 2 pi/alat)
               b(1) = (  1.000000 -0.577350 -0.408248 )
               b(2) = (  0.000000  1.154701 -0.408248 )
               b(3) = (  0.000000  0.000000  1.224745 )

     PseudoPot. # 1 for Bi read from file:
     /home/pragov/projects/rrg-bengioy-ad/pragov/crystal_structure_design/SSSP/Bi_pbe_v1.uspp.F.UPF
     MD5 check sum: cceb9f28ec65b6d7ff33140f5b0b1758
     Pseudo is Ultrasoft + core correction, Zval = 15.0
     Generated by new atomic code, or converted to UPF format
     Using radial grid of  899 points,  6 beta functions with:
                l(1) =   0
                l(2) =   0
                l(3) =   1
                l(4) =   1
                l(5) =   2
                l(6) =   2
     Q(r) pseudized with  6 coefficients,  rinner =    1.000   1.000   1.000
                                                       1.000   1.000

     PseudoPot. # 2 for Au read from file:
     /home/pragov/projects/rrg-bengioy-ad/pragov/crystal_structure_design/SSSP/Au_ONCV_PBE-1.0.oncvpsp.upf
     MD5 check sum: d14007822ba0e19f0206237467fc06c2
     Pseudo is Norm-conserving, Zval = 19.0
     Generated using ONCVPSP code by D. R. Hamann
     Using radial grid of 1278 points,  8 beta functions with:
                l(1) =   0
                l(2) =   0
                l(3) =   1
                l(4) =   1
                l(5) =   2
                l(6) =   2
                l(7) =   3
                l(8) =   3

     atomic species   valence    mass     pseudopotential
        Bi            15.00   208.98040     Bi( 1.00)
        Au            19.00   196.96657     Au( 1.00)

     12 Sym. Ops., with inversion, found ( 6 have fractional translation)

                                    s                        frac. trans.

      isym =  1     identity

 cryst.   s( 1) = (     1          0          0      )
                  (     0          1          0      )
                  (     0          0          1      )

 cart.    s( 1) = (  1.0000000  0.0000000  0.0000000 )
                  (  0.0000000  1.0000000  0.0000000 )
                  (  0.0000000  0.0000000  1.0000000 )

      isym =  2     180 deg rotation - cart. axis [1,0,0]

 cryst.   s( 2) = (     1          0          0      )    f =( -0.2500000 )
                  (     1         -1          0      )       ( -0.2500000 )
                  (     1          0         -1      )       ( -0.2500000 )

 cart.    s( 2) = (  1.0000000  0.0000000  0.0000000 )    f =( -0.5000000 )
                  (  0.0000000 -1.0000000 -0.0000000 )       ( -0.2886751 )
                  (  0.0000000  0.0000000 -1.0000000 )       ( -0.2041241 )

      isym =  3     120 deg rotation - cryst. axis [0,0,1]

[...]

      isym =  6     180 deg rotation - cryst. axis [1,1,0]

[...]

      isym =  7     inversion

[...]

      isym =  8     inv. 180 deg rotation - cart. axis [1,0,0]

 cryst.   s( 8) = (    -1          0          0      )
                  (    -1          1          0      )
                  (    -1          0          1      )

 cart.    s( 8) = ( -1.0000000  0.0000000 -0.0000000 )
                  (  0.0000000  1.0000000  0.0000000 )
                  (  0.0000000  0.0000000  1.0000000 )

      isym =  9     inv. 120 deg rotation - cryst. axis [0,0,1]

 cryst.   s( 9) = (     1         -1          0      )    f =( -0.2500000 )
                  (     1          0          0      )       ( -0.2500000 )
                  (     1          0         -1      )       ( -0.2500000 )

 cart.    s( 9) = (  0.5000000  0.8660254  0.0000000 )    f =( -0.5000000 )
                  ( -0.8660254  0.5000000  0.0000000 )       ( -0.2886751 )
                  (  0.0000000  0.0000000 -1.0000000 )       ( -0.2041241 )

[...]

 cryst.   s(10) = (     0          1          0      )    f =( -0.2500000 )
                  (    -1          1          0      )       ( -0.2500000 )
                  (     0          1         -1      )       ( -0.2500000 )

 cart.    s(10) = (  0.5000000 -0.8660254 -0.0000000 )    f =( -0.5000000 )
                  (  0.8660254  0.5000000  0.0000000 )       ( -0.2886751 )
                  (  0.0000000  0.0000000 -1.0000000 )       ( -0.2041241 )

[...]

 cryst.   s(11) = (     0          1          0      )
                  (     1          0          0      )
                  (     0          0          1      )

 cart.    s(11) = (  0.5000000  0.8660254  0.0000000 )
                  (  0.8660254 -0.5000000 -0.0000000 )
                  (  0.0000000  0.0000000  1.0000000 )

      isym = 12     inv. 180 deg rotation - cryst. axis [1,1,0]

 cryst.   s(12) = (     1         -1          0      )
                  (     0         -1          0      )
                  (     0         -1          1      )

 cart.    s(12) = (  0.5000000 -0.8660254 -0.0000000 )
                  ( -0.8660254 -0.5000000 -0.0000000 )
                  (  0.0000000  0.0000000  1.0000000 )

   Cartesian axes

     site n.     atom                  positions (alat units)
         1           Bi  tau(   1) = (   1.0000000   0.5773503   0.4082483  )
         2           Bi  tau(   2) = (   1.5000000   0.8660254   0.6123724  )
         3           Au  tau(   3) = (   0.5000000   0.2886751   0.5103104  )
         4           Au  tau(   4) = (   0.5000000   0.5773503   0.1020621  )
         5           Au  tau(   5) = (   0.2500000   0.1443376   0.1020621  )
         6           Au  tau(   6) = (   0.7500000   0.1443376   0.1020621  )

   Crystallographic axes

     site n.     atom                  positions (cryst. coord.)
         1           Bi  tau(   1) = (  0.5000000  0.5000000  0.5000000  )
         2           Bi  tau(   2) = (  0.7500000  0.7500000  0.7500000  )
         3           Au  tau(   3) = (  0.1250000  0.1250000  0.6250000  )
         4           Au  tau(   4) = (  0.1250000  0.6250000  0.1250000  )
         5           Au  tau(   5) = (  0.1250000  0.1250000  0.1250000  )
         6           Au  tau(   6) = (  0.6250000  0.1250000  0.1250000  )

     number of k points=     1  Methfessel-Paxton smearing, width (Ry)=  0.0010
                       cart. coord. in units 2pi/alat
        k(    1) = (   0.0000000   0.0000000   0.0000000), wk =   2.0000000

                       cryst. coord.
        k(    1) = (   0.0000000   0.0000000   0.0000000), wk =   2.0000000

     Check: negative core charge=   -0.000005

     Initial potential from superposition of free atoms

     starting charge     103.9996, renormalised to     106.0000

     negative rho (up, down):  8.369E-02 0.000E+00
     Starting wfcs are   58 randomized atomic wfcs +    6 random wfcs

     Self-consistent Calculation

     iteration #  1     ecut=    30.00 Ry     beta= 0.70
     Davidson diagonalization with overlap

     ethr =  1.00E-02,  avg # of iterations =  4.0

     negative rho (up, down):  9.078E-02 0.000E+00

     total energy              =   -1463.87388028 Ry
     estimated scf accuracy    <       5.55511722 Ry

[...]

     total energy              =   -1467.80570330 Ry
     estimated scf accuracy    <       0.00000379 Ry

     iteration # 82     ecut=    30.00 Ry     beta= 0.70
     Davidson diagonalization with overlap

     ethr =  1.43E-09,  avg # of iterations =  1.0

[...]

     End of self-consistent calculation

          k = 0.0000 0.0000 0.0000 (  1223 PWs)   bands (ev):

   -90.7021 -90.6935 -90.6934 -90.6929 -41.7995 -41.7262 -41.7261 -41.7261
   -41.7002 -41.7002 -41.6421 -41.6419 -41.6418 -41.6160 -41.6159 -41.6157
    -6.7882  -6.7882  -6.7881  -6.7664  -6.7664  -6.7093  -6.7093  -6.7085
    -6.7085  -6.7084   3.6239   6.7620   8.1649   9.8439   9.8440   9.8440
    10.2326  10.2327  10.2327  10.5275  10.5275  12.5961  12.5963  12.5963
    12.6320  12.6812  12.6813  12.6815  12.7064  12.7064  14.0965  14.0966
    14.0967  14.2975  14.2975  14.2976  16.0502  16.0603  16.0603  16.0604
    18.2930  18.2931  19.0395  19.0395  19.0396  23.3411  23.3411  23.3411

     occupation numbers
     1.0000   1.0000   1.0000   1.0000   1.0000   1.0000   1.0000   1.0000
     1.0000   1.0000   1.0000   1.0000   1.0000   1.0000   1.0000   1.0000
     1.0000   1.0000   1.0000   1.0000   1.0000   1.0000   1.0000   1.0000
     1.0000   1.0000   1.0000   1.0000   1.0000   1.0000   1.0000   1.0000
     1.0000   1.0000   1.0000   1.0000   1.0000   1.0000   1.0000   1.0000
     1.0000   1.0000   1.0000   1.0000   1.0000   1.0000   1.0000   1.0000
     1.0000   1.0000   1.0000   1.0000   0.6716   0.1105   0.1091   0.1087
    -0.0000  -0.0000  -0.0000  -0.0000  -0.0000  -0.0000  -0.0000  -0.0000

     the Fermi energy is    16.0530 ev

!    total energy              =   -1467.80570304 Ry
     estimated scf accuracy    <       0.00000046 Ry
     smearing contrib. (-TS)   =      -0.00051276 Ry
     internal energy E=F+TS    =   -1467.80519028 Ry

     The total energy is F=E-TS. E is the sum of the following terms:
     one-electron contribution =    -559.76718488 Ry
     hartree contribution      =     326.80142166 Ry
     xc contribution           =    -230.41799335 Ry
     ewald contribution        =   -1004.42143371 Ry

     convergence has been achieved in  82 iterations

     negative rho (up, down):  8.253E-02 0.000E+00

     Forces acting on atoms (cartesian axes, Ry/au):

     atom    1 type  1   force =     0.00000000    0.00000000   -0.00008085
     atom    2 type  1   force =     0.00000000    0.00000000    0.00008085
     atom    3 type  2   force =     0.00000000    0.00000000    0.00000000
     atom    4 type  2   force =     0.00000000    0.00000000    0.00000000
     atom    5 type  2   force =     0.00000000    0.00000000   -0.00000000
     atom    6 type  2   force =    -0.00000000    0.00000000   -0.00000000
     The non-local contrib.  to forces
     atom    1 type  1   force =     0.00000000   -0.00000000   -0.00016992
     atom    2 type  1   force =    -0.00000000   -0.00000000    0.00016992
     atom    3 type  2   force =     0.00000000    0.00000000    0.00000000
     atom    4 type  2   force =    -0.00000000    0.00000000    0.00000000
     atom    5 type  2   force =    -0.00000000    0.00000000    0.00000000
     atom    6 type  2   force =    -0.00000000   -0.00000000    0.00000000
     The ionic contribution  to forces
     atom    1 type  1   force =    -0.00000000    0.00000000    0.00000000
     atom    2 type  1   force =     0.00000000    0.00000000    0.00000000
     atom    3 type  2   force =    -0.00000000   -0.00000000   -0.00000000
     atom    4 type  2   force =    -0.00000000   -0.00000000   -0.00000000
     atom    5 type  2   force =     0.00000000    0.00000000   -0.00000000
     atom    6 type  2   force =    -0.00000000    0.00000000   -0.00000000
     The local contribution  to forces
     atom    1 type  1   force =    -0.00098907    0.00071850    0.00030605
     atom    2 type  1   force =     0.00095871   -0.00064020   -0.00031087
     atom    3 type  2   force =     0.00001691   -0.00003878   -0.00011382
     atom    4 type  2   force =     0.00001188   -0.00005268    0.00001085
     atom    5 type  2   force =     0.00011429    0.00001655    0.00004318
     atom    6 type  2   force =    -0.00013175    0.00004098    0.00006167
     The core correction contribution to forces
     atom    1 type  1   force =    -0.00002378    0.00001766    0.00000741
     atom    2 type  1   force =     0.00002270   -0.00001463   -0.00000756
     atom    3 type  2   force =     0.00000000    0.00000000    0.00000000
     atom    4 type  2   force =     0.00000000    0.00000000    0.00000000
     atom    5 type  2   force =     0.00000000    0.00000000    0.00000000
     atom    6 type  2   force =     0.00000000    0.00000000    0.00000000
     The Hubbard contrib.    to forces
     atom    1 type  1   force =     0.00000000    0.00000000    0.00000000
     atom    2 type  1   force =     0.00000000    0.00000000    0.00000000
     atom    3 type  2   force =     0.00000000    0.00000000    0.00000000
     atom    4 type  2   force =     0.00000000    0.00000000    0.00000000
     atom    5 type  2   force =     0.00000000    0.00000000    0.00000000
     atom    6 type  2   force =     0.00000000    0.00000000    0.00000000
     The SCF correction term to forces
     atom    1 type  1   force =     0.00076365   -0.00056022   -0.00022447
     atom    2 type  1   force =    -0.00074141    0.00050290    0.00022928
     atom    3 type  2   force =    -0.00001693    0.00003898    0.00011941
     atom    4 type  2   force =    -0.00001239    0.00005862   -0.00001147
     atom    5 type  2   force =    -0.00012173   -0.00001926   -0.00004466
     atom    6 type  2   force =     0.00013773   -0.00004422   -0.00006353

     Total force =     0.000114     Total SCF correction =     0.001365
     SCF correction compared to forces is large: reduce conv_thr to get better values

     Computing stress (Cartesian axis) and pressure

     negative rho (up, down):  8.253E-02 0.000E+00
          total   stress  (Ry/bohr**3)                   (kbar)     P=     -447.74
  -0.00304367  -0.00000000  -0.00000000         -447.74       -0.00       -0.00
   0.00000000  -0.00304367  -0.00000000            0.00     -447.74       -0.00
  -0.00000000  -0.00000000  -0.00304376           -0.00       -0.00     -447.75

     kinetic stress (kbar)  39682.22     -0.00      0.00
                                0.00  39682.22      0.00
                                0.00      0.00  39682.11

     local   stress (kbar)  -7182.78      0.11      0.37
                                0.11  -7181.97      0.14
                                0.37      0.14  -7182.27

     nonloc. stress (kbar)  12604.83     -0.00     -0.00
                                0.00  12604.83      0.00
                               -0.00      0.00  12604.68

     hartree stress (kbar)  17886.71      0.14     -0.01
                                0.14  17886.62     -0.14
                               -0.01     -0.14  17886.79

     exc-cor stress (kbar)   7227.62     -0.00     -0.01
                               -0.00   7227.61      0.00
                               -0.01      0.00   7227.61

     corecor stress (kbar) -15692.06      0.01      0.01
                                0.01 -15692.04      0.00
                                0.01      0.00 -15692.04

     ewald   stress (kbar) -54974.64     -0.00      0.00
                               -0.00 -54974.64     -0.00
                                0.00     -0.00 -54974.64

     hubbard stress (kbar)      0.00      0.00      0.00
                                0.00      0.00      0.00
                                0.00      0.00      0.00

     DFT-D   stress (kbar)      0.00      0.00      0.00
                                0.00      0.00      0.00
                                0.00      0.00      0.00

     XDM     stress (kbar)      0.00      0.00      0.00
                                0.00      0.00      0.00
                                0.00      0.00      0.00

     dft-nl  stress (kbar)      0.00      0.00      0.00
                                0.00      0.00      0.00
                                0.00      0.00      0.00

     TS-vdW  stress (kbar)      0.00      0.00      0.00
                                0.00      0.00      0.00
                                0.00      0.00      0.00

[...]

                                0.00      0.00      0.00

     Writing all to output data dir new_calculations/myprefix.save/

     General routines

     Parallel routines

   This run was terminated on:  18: 9:11  21May2023

   JOB DONE.