     Program PWSCF v.7.0 starts on 20May2023 at 23:29:36

     Reading input from espresso_7763.pwi
Warning: card &CELL ignored
Warning: card / ignored

     Current dimensions of program PWSCF are:
     Max number of different atomic species (ntypx) = 10
     Max number of k-points (npk) =  40000
     Max angular momentum in pseudopotentials (lmaxx) =  4
     file O.pbe-n-kjpaw_psl.0.1.UPF: wavefunction(s)  2P renormalized

     gamma-point specific algorithms are used
     Message from routine setup:
     using ibrav=0 with symmetry is DISCOURAGED, use correct ibrav instead

     Subspace diagonalization in iterative solution of the eigenvalue problem:
     a serial algorithm will be used

     Using Slab Decomposition

     bravais-lattice index     =            0
     lattice parameter (alat)  =      11.2291  a.u.
     unit-cell volume          =    1415.8968 (a.u.)^3
     number of atoms/cell      =           16
     number of atomic types    =            3
     number of electrons       =       164.00
     number of Kohn-Sham states=           98
     kinetic-energy cutoff     =      30.0000  Ry
     charge density cutoff     =     240.0000  Ry
     scf convergence threshold =      1.0E-06
     mixing beta               =       0.7000
     number of iterations used =            8  plain     mixing
     Exchange-correlation= SLA  PW   PBX  PBC
                           (   1   4   3   4   0   0   0)

     celldm(1)=  11.229072  celldm(2)=   0.000000  celldm(3)=   0.000000
     celldm(4)=   0.000000  celldm(5)=   0.000000  celldm(6)=   0.000000

     crystal axes: (cart. coord. in units of alat)
               a(1) = (   1.000000   0.000000   0.000000 )
               a(2) = (   0.000000   1.000000   0.000000 )
               a(3) = (   0.000000   0.000000   1.000000 )

     reciprocal axes: (cart. coord. in units 2 pi/alat)
               b(1) = (  1.000000  0.000000  0.000000 )
               b(2) = (  0.000000  1.000000  0.000000 )
               b(3) = (  0.000000  0.000000  1.000000 )

     PseudoPot. # 1 for Sr read from file:
     /home/pragov/projects/rrg-bengioy-ad/pragov/crystal_structure_design/SSSP/Sr_pbe_v1.uspp.F.UPF
     MD5 check sum: 6b418c05fbe9db5448babca5e47b7a5b
     Pseudo is Ultrasoft + core correction, Zval = 10.0
     Generated by new atomic code, or converted to UPF format
     Using radial grid of  883 points,  6 beta functions with:
                l(1) =   0
                l(2) =   0
                l(3) =   1
                l(4) =   1
                l(5) =   2
                l(6) =   2
     Q(r) pseudized with  6 coefficients,  rinner =    1.400   1.400   1.400
                                                       1.400   1.400

     PseudoPot. # 2 for Pt read from file:
     /home/pragov/projects/rrg-bengioy-ad/pragov/crystal_structure_design/SSSP/pt_pbe_v1.4.uspp.F.UPF
     MD5 check sum: f09d6de1a584b5a045c4fc126da2d0c4
     Pseudo is Ultrasoft + core correction, Zval = 16.0
     Generated by new atomic code, or converted to UPF format
     Using radial grid of  985 points,  6 beta functions with:
                l(1) =   0
                l(2) =   0
                l(3) =   1
                l(4) =   1
                l(5) =   2
                l(6) =   2
     Q(r) pseudized with  8 coefficients,  rinner =    1.300   1.300   1.300
                                                       1.300   1.300

     PseudoPot. # 3 for O  read from file:
     /home/pragov/projects/rrg-bengioy-ad/pragov/crystal_structure_design/SSSP/O.pbe-n-kjpaw_psl.0.1.UPF
     MD5 check sum: 0234752ac141de4415c5fc33072bef88
     Pseudo is Projector augmented-wave + core cor, Zval =  6.0
     Generated using "atomic" code by A. Dal Corso  v.5.0.99 svn rev. 10869
     Shape of augmentation charge: BESSEL
     Using radial grid of 1095 points,  4 beta functions with:
                l(1) =   0
                l(2) =   0
                l(3) =   1
                l(4) =   1
     Q(r) pseudized with 0 coefficients

     atomic species   valence    mass     pseudopotential
        Sr            10.00    87.62000     Sr( 1.00)
        Pt            16.00   195.08400     Pt( 1.00)
        O              6.00    15.99900     O ( 1.00)

     48 Sym. Ops., with inversion, found (24 have fractional translation)

                                    s                        frac. trans.

      isym =  1     identity

 cryst.   s( 1) = (     1          0          0      )
                  (     0          1          0      )
                  (     0          0          1      )

 cart.    s( 1) = (  1.0000000  0.0000000  0.0000000 )
                  (  0.0000000  1.0000000  0.0000000 )
                  (  0.0000000  0.0000000  1.0000000 )

      isym =  2     180 deg rotation - cart. axis [0,0,1]

[...]

 cryst.   s( 4) = (     1          0          0      )
                  (     0         -1          0      )
                  (     0          0         -1      )

 cart.    s( 4) = (  1.0000000  0.0000000  0.0000000 )
                  (  0.0000000 -1.0000000  0.0000000 )
                  (  0.0000000  0.0000000 -1.0000000 )

[...]

 cryst.   s( 5) = (     0          1          0      )    f =(  0.5000000 )
                  (     1          0          0      )       (  0.5000000 )
                  (     0          0         -1      )       (  0.5000000 )

 cart.    s( 5) = (  0.0000000  1.0000000  0.0000000 )    f =(  0.5000000 )
                  (  1.0000000  0.0000000  0.0000000 )       (  0.5000000 )
                  (  0.0000000  0.0000000 -1.0000000 )       (  0.5000000 )

[...]

 cryst.   s( 9) = (     0          0          1      )    f =(  0.5000000 )
                  (     0         -1          0      )       (  0.5000000 )
                  (     1          0          0      )       (  0.5000000 )

 cart.    s( 9) = (  0.0000000  0.0000000  1.0000000 )    f =(  0.5000000 )
                  (  0.0000000 -1.0000000  0.0000000 )       (  0.5000000 )
                  (  1.0000000  0.0000000  0.0000000 )       (  0.5000000 )

[...]

 cryst.   s(10) = (     0          0         -1      )    f =(  0.5000000 )
                  (     0         -1          0      )       (  0.5000000 )
                  (    -1          0          0      )       (  0.5000000 )

 cart.    s(10) = (  0.0000000  0.0000000 -1.0000000 )    f =(  0.5000000 )
                  (  0.0000000 -1.0000000  0.0000000 )       (  0.5000000 )
                  ( -1.0000000  0.0000000  0.0000000 )       (  0.5000000 )

[...]

 cryst.   s(17) = (     0          0          1      )
                  (     1          0          0      )
                  (     0          1          0      )

 cart.    s(17) = (  0.0000000  1.0000000  0.0000000 )
                  (  0.0000000  0.0000000  1.0000000 )
                  (  1.0000000  0.0000000  0.0000000 )

[...]

      isym = 24     120 deg rotation - cart. axis [-1,-1,1]

[...]

      isym = 25     inversion

[...]

      isym = 26     inv. 180 deg rotation - cart. axis [0,0,1]

[...]

 cryst.   s(40) = (    -1          0          0      )    f =(  0.5000000 )
                  (     0          0         -1      )       (  0.5000000 )
                  (     0          1          0      )       (  0.5000000 )

 cart.    s(40) = ( -1.0000000  0.0000000  0.0000000 )    f =(  0.5000000 )
                  (  0.0000000  0.0000000  1.0000000 )       (  0.5000000 )
                  (  0.0000000 -1.0000000  0.0000000 )       (  0.5000000 )

[...]

      isym = 48     inv. 120 deg rotation - cart. axis [-1,-1,1]

 cryst.   s(48) = (     0         -1          0      )
                  (     0          0          1      )
                  (     1          0          0      )

 cart.    s(48) = (  0.0000000  0.0000000  1.0000000 )
                  ( -1.0000000  0.0000000  0.0000000 )
                  (  0.0000000  1.0000000  0.0000000 )

   Cartesian axes

     site n.     atom                  positions (alat units)
         1           Sr  tau(   1) = (   0.5000000   0.5000000   0.5000000  )
         2           Sr  tau(   2) = (   0.0000000   0.0000000   0.0000000  )
         3           Pt  tau(   3) = (   0.5000000   0.0000000   0.7500000  )
         4           Pt  tau(   4) = (   0.5000000   0.0000000   0.2500000  )
         5           Pt  tau(   5) = (   0.7500000   0.5000000   0.0000000  )
         6           Pt  tau(   6) = (   0.0000000   0.7500000   0.5000000  )
         7           Pt  tau(   7) = (   0.0000000   0.2500000   0.5000000  )
         8           Pt  tau(   8) = (   0.2500000   0.5000000   0.0000000  )
         9           O   tau(   9) = (   0.7500000   0.7500000   0.7500000  )
        10           O   tau(  10) = (   0.7500000   0.2500000   0.7500000  )
        11           O   tau(  11) = (   0.7500000   0.7500000   0.2500000  )
        12           O   tau(  12) = (   0.7500000   0.2500000   0.2500000  )
        13           O   tau(  13) = (   0.2500000   0.7500000   0.7500000  )
        14           O   tau(  14) = (   0.2500000   0.7500000   0.2500000  )
        15           O   tau(  15) = (   0.2500000   0.2500000   0.7500000  )
        16           O   tau(  16) = (   0.2500000   0.2500000   0.2500000  )

   Crystallographic axes

     site n.     atom                  positions (cryst. coord.)
         1           Sr  tau(   1) = (  0.5000000  0.5000000  0.5000000  )
         2           Sr  tau(   2) = (  0.0000000  0.0000000  0.0000000  )
         3           Pt  tau(   3) = (  0.5000000  0.0000000  0.7500000  )
         4           Pt  tau(   4) = (  0.5000000  0.0000000  0.2500000  )
         5           Pt  tau(   5) = (  0.7500000  0.5000000  0.0000000  )
         6           Pt  tau(   6) = (  0.0000000  0.7500000  0.5000000  )
         7           Pt  tau(   7) = (  0.0000000  0.2500000  0.5000000  )
         8           Pt  tau(   8) = (  0.2500000  0.5000000  0.0000000  )
         9           O   tau(   9) = (  0.7500000  0.7500000  0.7500000  )
        10           O   tau(  10) = (  0.7500000  0.2500000  0.7500000  )
        11           O   tau(  11) = (  0.7500000  0.7500000  0.2500000  )
        12           O   tau(  12) = (  0.7500000  0.2500000  0.2500000  )
        13           O   tau(  13) = (  0.2500000  0.7500000  0.7500000  )
        14           O   tau(  14) = (  0.2500000  0.7500000  0.2500000  )
        15           O   tau(  15) = (  0.2500000  0.2500000  0.7500000  )
        16           O   tau(  16) = (  0.2500000  0.2500000  0.2500000  )

     number of k points=     1  Methfessel-Paxton smearing, width (Ry)=  0.0010
                       cart. coord. in units 2pi/alat
        k(    1) = (   0.0000000   0.0000000   0.0000000), wk =   2.0000000

                       cryst. coord.
        k(    1) = (   0.0000000   0.0000000   0.0000000), wk =   2.0000000

     Check: negative core charge=   -0.000008

     Initial potential from superposition of free atoms

     starting charge     160.9326, renormalised to     164.0000

     negative rho (up, down):  1.197E+00 0.000E+00
     Starting wfcs are  130 randomized atomic wfcs
     Checking if some PAW data can be deallocated...

     Self-consistent Calculation

     iteration #  1     ecut=    30.00 Ry     beta= 0.70
     Davidson diagonalization with overlap

     ethr =  1.00E-02,  avg # of iterations =  2.0

     negative rho (up, down):  1.088E+00 0.000E+00

     total energy              =   -1729.65167528 Ry
     estimated scf accuracy    <      12.25592949 Ry

[...]

     total energy              =   -1736.85166616 Ry
     estimated scf accuracy    <       0.00000853 Ry

     iteration # 21     ecut=    30.00 Ry     beta= 0.70
     Davidson diagonalization with overlap

     ethr =  5.20E-09,  avg # of iterations =  1.0

[...]

     End of self-consistent calculation

          k = 0.0000 0.0000 0.0000 (  1944 PWs)   bands (ev):

   -38.0649 -38.0649 -38.0649 -38.0505 -38.0505 -38.0505 -38.0487 -38.0487
   -38.0487 -38.0438 -38.0438 -38.0438 -37.8455 -37.8455 -37.8411 -37.7306
   -37.7306 -37.7306 -19.2901 -19.2799  -5.2177  -4.9042  -4.9041  -4.9041
    -4.4193  -4.3202  -4.3201  -4.3201  -1.5905  -1.5905  -1.5905  -0.9013
    -0.9013  -0.9013   6.5692   6.5692   7.5352   7.5352   7.5352   7.9260
     7.9421   7.9421   8.4540   8.4540   8.4540   8.7709   8.7709   8.7709
     9.5452   9.5452   9.5452   9.5553   9.8716   9.8717  10.7192  10.7192
    10.7193  11.2598  11.2598  11.2598  11.3888  11.3888  11.3888  11.9128
    11.9128  11.9336  12.0488  12.0488  12.0488  12.8299  12.8299  12.8299
    13.6387  13.6387  13.6387  13.8421  13.8421  13.8421  14.2294  14.3777
    14.9760  14.9761  14.9761  15.6406  16.0735  16.0735  16.8480  16.8480
    16.8480  17.4733  17.4733  19.6268  19.7498  19.7498  19.7498  20.1413
    20.1413  20.9829

     occupation numbers
     1.0000   1.0000   1.0000   1.0000   1.0000   1.0000   1.0000   1.0000
     1.0000   1.0000   1.0000   1.0000   1.0000   1.0000   1.0000   1.0000
     1.0000   1.0000   1.0000   1.0000   1.0000   1.0000   1.0000   1.0000
     1.0000   1.0000   1.0000   1.0000   1.0000   1.0000   1.0000   1.0000
     1.0000   1.0000   1.0000   1.0000   1.0000   1.0000   1.0000   1.0000
     1.0000   1.0000   1.0000   1.0000   1.0000   1.0000   1.0000   1.0000
     1.0000   1.0000   1.0000   1.0000   1.0000   1.0000   1.0000   1.0000
     1.0000   1.0000   1.0000   1.0000   1.0000   1.0000   1.0000   1.0000
     1.0000   1.0000   1.0000   1.0000   1.0000   1.0000   1.0000   1.0000
     1.0000   1.0000   1.0000   1.0000   1.0000   1.0000   1.0000   1.0000
     0.6676   0.6664   0.6660  -0.0000  -0.0000  -0.0000  -0.0000  -0.0000
    -0.0000  -0.0000  -0.0000  -0.0000  -0.0000  -0.0000  -0.0000  -0.0000
    -0.0000  -0.0000

     the Fermi energy is    14.9788 ev

!    total energy              =   -1736.85166529 Ry
     estimated scf accuracy    <       0.00000098 Ry
     smearing contrib. (-TS)   =      -0.00074672 Ry
     internal energy E=F+TS    =   -1736.85091858 Ry

     The total energy is F=E-TS. E is the sum of the following terms:
     one-electron contribution =    -327.36275907 Ry
     hartree contribution      =     281.20321245 Ry
     xc contribution           =    -437.71431690 Ry
     ewald contribution        =   -1176.77259703 Ry
     one-center paw contrib.   =     -76.20445802 Ry
      -> PAW hartree energy AE =     231.83226947 Ry
      -> PAW hartree energy PS =    -231.03171946 Ry
      -> PAW xc energy AE      =    -136.54511989 Ry
      -> PAW xc energy PS      =      59.54011186 Ry
      -> total E_H with PAW    =     282.00376246 Ry
      -> total E_XC with PAW   =    -514.71932493 Ry

     convergence has been achieved in  21 iterations

     negative rho (up, down):  1.147E+00 0.000E+00

     Forces acting on atoms (cartesian axes, Ry/au):

     atom    1 type  1   force =     0.00000000    0.00000000    0.00000000
     atom    2 type  1   force =     0.00000000    0.00000000    0.00000000
     atom    3 type  2   force =     0.00000000    0.00000000    0.00000000
     atom    4 type  2   force =     0.00000000    0.00000000    0.00000000
     atom    5 type  2   force =     0.00000000    0.00000000    0.00000000
     atom    6 type  2   force =     0.00000000   -0.00000000    0.00000000
     atom    7 type  2   force =     0.00000000   -0.00000000    0.00000000
     atom    8 type  2   force =    -0.00000000    0.00000000    0.00000000
     atom    9 type  3   force =     0.00000000    0.00000000   -0.00000000
     atom   10 type  3   force =     0.00000000   -0.00000000    0.00000000
     atom   11 type  3   force =     0.00000000   -0.00000000    0.00000000
     atom   12 type  3   force =    -0.00000000   -0.00000000    0.00000000
     atom   13 type  3   force =    -0.00000000    0.00000000    0.00000000
     atom   14 type  3   force =    -0.00000000    0.00000000    0.00000000
     atom   15 type  3   force =     0.00000000    0.00000000    0.00000000
     atom   16 type  3   force =     0.00000000   -0.00000000    0.00000000
     The non-local contrib.  to forces
     atom    1 type  1   force =     0.00000000    0.00000000    0.00000000
     atom    2 type  1   force =     0.00000000    0.00000000    0.00000000
     atom    3 type  2   force =     0.00000000    0.00000000    0.00000000
     atom    4 type  2   force =     0.00000000    0.00000000   -0.00000000
     atom    5 type  2   force =     0.00000000    0.00000000    0.00000000
     atom    6 type  2   force =     0.00000000   -0.00000000    0.00000000
     atom    7 type  2   force =     0.00000000    0.00000000   -0.00000000
     atom    8 type  2   force =    -0.00000000    0.00000000    0.00000000
     atom    9 type  3   force =     0.00000000   -0.00000000    0.00000000
     atom   10 type  3   force =    -0.00000000   -0.00000000    0.00000000
     atom   11 type  3   force =    -0.00000000    0.00000000    0.00000000
     atom   12 type  3   force =     0.00000000   -0.00000000    0.00000000
     atom   13 type  3   force =    -0.00000000    0.00000000   -0.00000000
     atom   14 type  3   force =    -0.00000000    0.00000000   -0.00000000
     atom   15 type  3   force =     0.00000000   -0.00000000   -0.00000000
     atom   16 type  3   force =    -0.00000000    0.00000000    0.00000000
     The ionic contribution  to forces
     atom    1 type  1   force =     0.00000000    0.00000000    0.00000000
     atom    2 type  1   force =    -0.00000000   -0.00000000   -0.00000000
     atom    3 type  2   force =    -0.00000000   -0.00000000    0.00000000
     atom    4 type  2   force =    -0.00000000   -0.00000000   -0.00000000
     atom    5 type  2   force =     0.00000000    0.00000000   -0.00000000
     atom    6 type  2   force =    -0.00000000    0.00000000    0.00000000
     atom    7 type  2   force =    -0.00000000   -0.00000000    0.00000000
     atom    8 type  2   force =    -0.00000000   -0.00000000   -0.00000000
     atom    9 type  3   force =     0.00000000    0.00000000    0.00000000
     atom   10 type  3   force =     0.00000000   -0.00000000    0.00000000
     atom   11 type  3   force =     0.00000000    0.00000000   -0.00000000
     atom   12 type  3   force =     0.00000000   -0.00000000   -0.00000000
     atom   13 type  3   force =    -0.00000000    0.00000000    0.00000000
     atom   14 type  3   force =    -0.00000000    0.00000000   -0.00000000
     atom   15 type  3   force =    -0.00000000   -0.00000000    0.00000000
     atom   16 type  3   force =    -0.00000000   -0.00000000   -0.00000000
     The local contribution  to forces
     atom    1 type  1   force =    -0.00003534    0.00007685    0.00002875
     atom    2 type  1   force =     0.00004158   -0.00007351   -0.00003828
     atom    3 type  2   force =    -0.00000044   -0.00005434    0.00024224
     atom    4 type  2   force =    -0.00009938   -0.00011903   -0.00024740
     atom    5 type  2   force =    -0.00070508    0.00005004   -0.00009666
     atom    6 type  2   force =     0.00005809    0.00043972    0.00002674
     atom    7 type  2   force =     0.00003197   -0.00043484    0.00012815
     atom    8 type  2   force =     0.00069780    0.00009187   -0.00000896
     atom    9 type  3   force =    -0.00073237    0.00054247    0.00018458
     atom   10 type  3   force =    -0.00076015   -0.00052192    0.00023477
     atom   11 type  3   force =    -0.00073904    0.00051229   -0.00021476
     atom   12 type  3   force =    -0.00077902   -0.00053418   -0.00023571
     atom   13 type  3   force =     0.00074802    0.00054330    0.00020769
     atom   14 type  3   force =     0.00072713    0.00051061   -0.00021500
     atom   15 type  3   force =     0.00076538   -0.00050719    0.00025423
     atom   16 type  3   force =     0.00075761   -0.00052172   -0.00022878
     The core correction contribution to forces
     atom    1 type  1   force =    -0.00000063    0.00000209    0.00000019
     atom    2 type  1   force =     0.00000075   -0.00000214   -0.00000043
     atom    3 type  2   force =     0.00000171   -0.00000069   -0.00000241
     atom    4 type  2   force =    -0.00000280   -0.00000427    0.00000235
     atom    5 type  2   force =     0.00000325    0.00000144   -0.00000199
     atom    6 type  2   force =     0.00000122    0.00000068   -0.00000180
     atom    7 type  2   force =    -0.00000026   -0.00000031    0.00000329
     atom    8 type  2   force =    -0.00000363    0.00000275    0.00000168
     atom    9 type  3   force =    -0.00000103    0.00000102    0.00000004
     atom   10 type  3   force =    -0.00000132   -0.00000087    0.00000042
     atom   11 type  3   force =    -0.00000113    0.00000078   -0.00000033
     atom   12 type  3   force =    -0.00000142   -0.00000103   -0.00000039
     atom   13 type  3   force =     0.00000120    0.00000100    0.00000024
     atom   14 type  3   force =     0.00000101    0.00000072   -0.00000029
     atom   15 type  3   force =     0.00000139   -0.00000072    0.00000062
     atom   16 type  3   force =     0.00000125   -0.00000088   -0.00000035
     The Hubbard contrib.    to forces
     atom    1 type  1   force =     0.00000000    0.00000000    0.00000000
     atom    2 type  1   force =     0.00000000    0.00000000    0.00000000
     atom    3 type  2   force =     0.00000000    0.00000000    0.00000000
     atom    4 type  2   force =     0.00000000    0.00000000    0.00000000
     atom    5 type  2   force =     0.00000000    0.00000000    0.00000000
     atom    6 type  2   force =     0.00000000    0.00000000    0.00000000
     atom    7 type  2   force =     0.00000000    0.00000000    0.00000000
     atom    8 type  2   force =     0.00000000    0.00000000    0.00000000
     atom    9 type  3   force =     0.00000000    0.00000000    0.00000000
     atom   10 type  3   force =     0.00000000    0.00000000    0.00000000
     atom   11 type  3   force =     0.00000000    0.00000000    0.00000000
     atom   12 type  3   force =     0.00000000    0.00000000    0.00000000
     atom   13 type  3   force =     0.00000000    0.00000000    0.00000000
     atom   14 type  3   force =     0.00000000    0.00000000    0.00000000
     atom   15 type  3   force =     0.00000000    0.00000000    0.00000000
     atom   16 type  3   force =     0.00000000    0.00000000    0.00000000
     The SCF correction term to forces
     atom    1 type  1   force =     0.00002777   -0.00004765   -0.00003318
     atom    2 type  1   force =    -0.00003257    0.00004557    0.00003803
     atom    3 type  2   force =    -0.00000467    0.00004132   -0.00025036
     atom    4 type  2   force =     0.00010743    0.00011411    0.00025599
     atom    5 type  2   force =     0.00066793   -0.00003545    0.00011285
     atom    6 type  2   force =    -0.00006192   -0.00041055   -0.00003453
     atom    7 type  2   force =    -0.00003321    0.00039885   -0.00013998
     atom    8 type  2   force =    -0.00066269   -0.00008220    0.00001672
     atom    9 type  3   force =     0.00066903   -0.00047775   -0.00018186
     atom   10 type  3   force =     0.00068350    0.00046767   -0.00021285
     atom   11 type  3   force =     0.00067020   -0.00046418    0.00019213
     atom   12 type  3   force =     0.00069579    0.00047157    0.00021356
     atom   13 type  3   force =    -0.00067104   -0.00047845   -0.00019144
     atom   14 type  3   force =    -0.00066402   -0.00046482    0.00019661
     atom   15 type  3   force =    -0.00068398    0.00046136   -0.00021937
     atom   16 type  3   force =    -0.00068862    0.00046837    0.00021187

     Total force =     0.000000     Total SCF correction =     0.002682

     Computing stress (Cartesian axis) and pressure

     negative rho (up, down):  1.147E+00 0.000E+00
          total   stress  (Ry/bohr**3)                   (kbar)     P=     -187.58
  -0.00127513   0.00000000   0.00000000         -187.58        0.00        0.00
   0.00000000  -0.00127513   0.00000000            0.00     -187.58        0.00
   0.00000000   0.00000000  -0.00127513            0.00        0.00     -187.58

     kinetic stress (kbar)  36298.18      0.00      0.00
                                0.00  36298.18      0.00
                                0.00      0.00  36298.18

     local   stress (kbar)     79.50     -0.00     -0.00
                               -0.00     79.97      0.00
                               -0.00      0.00     78.30

     nonloc. stress (kbar)   3862.64      0.00      0.00
                                0.00   3862.64      0.00
                                0.00      0.00   3862.64

     hartree stress (kbar)   9738.49      0.00     -0.01
                                0.00   9738.35      0.01
                               -0.01      0.01   9738.86

     exc-cor stress (kbar)  17050.17     -0.00      0.00
                               -0.00  17050.17     -0.00
                                0.00     -0.00  17050.18

     corecor stress (kbar) -26462.66      0.00     -0.00
                                0.00 -26462.64      0.00
                               -0.00      0.00 -26462.69

     ewald   stress (kbar) -40753.73      0.00      0.00
                                0.00 -40753.73      0.00
                                0.00      0.00 -40753.73

     hubbard stress (kbar)      0.00      0.00      0.00
                                0.00      0.00      0.00
                                0.00      0.00      0.00

     DFT-D   stress (kbar)      0.00      0.00      0.00
                                0.00      0.00      0.00
                                0.00      0.00      0.00

     XDM     stress (kbar)      0.00      0.00      0.00
                                0.00      0.00      0.00
                                0.00      0.00      0.00

     dft-nl  stress (kbar)      0.00      0.00      0.00
                                0.00      0.00      0.00
                                0.00      0.00      0.00

     TS-vdW  stress (kbar)      0.00      0.00      0.00
                                0.00      0.00      0.00
                                0.00      0.00      0.00

[...]

                                0.00      0.00      0.00

     Writing all to output data dir new_calculations/myprefix.save/

     General routines

     Parallel routines

     PAW routines

   This run was terminated on:  23:30: 6  20May2023

   JOB DONE.