     Program PWSCF v.7.0 starts on 21May2023 at 12: 6:45

     Reading input from espresso_24718.pwi
Warning: card &CELL ignored
Warning: card / ignored

     Current dimensions of program PWSCF are:
     Max number of different atomic species (ntypx) = 10
     Max number of k-points (npk) =  40000
     Max angular momentum in pseudopotentials (lmaxx) =  4
     file Mg.pbe-n-kjpaw_psl.0.3.0.UPF: wavefunction(s)  3S renormalized

     gamma-point specific algorithms are used
     Message from routine setup:
     using ibrav=0 with symmetry is DISCOURAGED, use correct ibrav instead

     Subspace diagonalization in iterative solution of the eigenvalue problem:
     a serial algorithm will be used

     Using Slab Decomposition

     bravais-lattice index     =            0
     lattice parameter (alat)  =      11.9385  a.u.
     unit-cell volume          =    2387.1788 (a.u.)^3
     number of atoms/cell      =           16
     number of atomic types    =            2
     number of electrons       =        34.00
     number of Kohn-Sham states=           21
     kinetic-energy cutoff     =      30.0000  Ry
     charge density cutoff     =     240.0000  Ry
     scf convergence threshold =      1.0E-06
     mixing beta               =       0.7000
     number of iterations used =            8  plain     mixing
     Exchange-correlation= PBE
                           (   1   4   3   4   0   0   0)

     celldm(1)=  11.938542  celldm(2)=   0.000000  celldm(3)=   0.000000
     celldm(4)=   0.000000  celldm(5)=   0.000000  celldm(6)=   0.000000

     crystal axes: (cart. coord. in units of alat)
               a(1) = (   1.000000   0.000000   0.000000 )
               a(2) = (  -0.500000   0.866025   0.000000 )
               a(3) = (   0.000000   0.000000   1.619946 )

     reciprocal axes: (cart. coord. in units 2 pi/alat)
               b(1) = (  1.000000  0.577350  0.000000 )
               b(2) = (  0.000000  1.154701  0.000000 )
               b(3) = (  0.000000  0.000000  0.617305 )

     PseudoPot. # 1 for Mg read from file:
     /home/pragov/projects/rrg-bengioy-ad/pragov/crystal_structure_design/SSSP/Mg.pbe-n-kjpaw_psl.0.3.0.UPF
     MD5 check sum: 24ecedc7f3e3cbe212e682f4413594e4
     Pseudo is Projector augmented-wave + core cor, Zval =  2.0
     Generated using "atomic" code by A. Dal Corso  v.5.0.99 svn rev. 10869
     Shape of augmentation charge: PSQ
     Using radial grid of 1129 points,  4 beta functions with:
                l(1) =   0
                l(2) =   0
                l(3) =   1
                l(4) =   1
     Q(r) pseudized with 0 coefficients

     PseudoPot. # 2 for Si read from file:
     /home/pragov/projects/rrg-bengioy-ad/pragov/crystal_structure_design/SSSP/Si.pbe-n-rrkjus_psl.1.0.0.UPF
     MD5 check sum: 0b0bb1205258b0d07b9f9672cf965d36
     Pseudo is Ultrasoft + core correction, Zval =  4.0
     Generated using "atomic" code by A. Dal Corso  v.5.1
     Using radial grid of 1141 points,  6 beta functions with:
                l(1) =   0
                l(2) =   0
                l(3) =   1
                l(4) =   1
                l(5) =   2
                l(6) =   2
     Q(r) pseudized with 0 coefficients

     atomic species   valence    mass     pseudopotential
        Mg             2.00    24.30500     Mg( 1.00)
        Si             4.00    28.08500     Si( 1.00)

     12 Sym. Ops. (no inversion) found

                                    s                        frac. trans.

      isym =  1     identity

 cryst.   s( 1) = (     1          0          0      )
                  (     0          1          0      )
                  (     0          0          1      )

 cart.    s( 1) = (  1.0000000 -0.0000000  0.0000000 )
                  (  0.0000000  1.0000000  0.0000000 )
                  (  0.0000000  0.0000000  1.0000000 )

      isym =  2     180 deg rotation - cart. axis [0,1,0]

[...]

      isym =  3     120 deg rotation - cryst. axis [0,0,1]

[...]

      isym =  6     180 deg rotation - cryst. axis [2,1,0]

[...]

      isym =  7     inv. 180 deg rotation - cart. axis [0,0,1]

[...]

      isym =  8     inv. 180 deg rotation - cart. axis [1,0,0]

[...]

      isym =  9     inv.  60 deg rotation - cryst. axis [0,0,1]

 cryst.   s( 9) = (    -1         -1          0      )
                  (     1          0          0      )
                  (     0          0         -1      )

 cart.    s( 9) = ( -0.4999999  0.8660254  0.0000000 )
                  ( -0.8660254 -0.5000001  0.0000000 )
                  (  0.0000000  0.0000000 -1.0000000 )

[...]

 cryst.   s(10) = (     0          1          0      )
                  (    -1         -1          0      )
                  (     0          0         -1      )

 cart.    s(10) = ( -0.5000001 -0.8660254  0.0000000 )
                  (  0.8660254 -0.4999999  0.0000000 )
                  (  0.0000000  0.0000000 -1.0000000 )

[...]

      isym = 12     inv. 180 deg rotation - cryst. axis [1,1,0]

 cryst.   s(12) = (     0         -1          0      )
                  (    -1          0          0      )
                  (     0          0          1      )

 cart.    s(12) = (  0.5000001 -0.8660254  0.0000000 )
                  ( -0.8660254 -0.5000001  0.0000000 )
                  (  0.0000000  0.0000000  1.0000000 )

   Cartesian axes

     site n.     atom                  positions (alat units)
         1           Mg  tau(   1) = (   0.5000005   0.2886748   0.8099728  )
         2           Mg  tau(   2) = (  -0.0000000   0.2858836   0.0000000  )
         3           Mg  tau(   3) = (  -0.0000005   0.2895720   0.8099728  )
         4           Mg  tau(   4) = (  -0.2524176   0.7230836   0.0000000  )
         5           Mg  tau(   5) = (  -0.2492241   0.7212398   0.8099728  )
         6           Mg  tau(   6) = (   0.2524174   0.7230836   0.0000000  )
         7           Mg  tau(   7) = (   0.2492229   0.7212398   0.8099728  )
         8           Mg  tau(   8) = (   0.7470720   0.4313222   0.3962225  )
         9           Mg  tau(   9) = (   0.7470720   0.4313222   1.2237232  )
        10           Mg  tau(  10) = (   0.2529280   0.4313222   0.3962225  )
        11           Mg  tau(  11) = (   0.2529280   0.4313222   1.2237232  )
        12           Mg  tau(  12) = (   0.5000000   0.0033810   0.3962225  )
        13           Mg  tau(  13) = (   0.5000000   0.0033810   1.2237232  )
        14           Mg  tau(  14) = (   0.0000000   0.0000000   0.4058709  )
        15           Mg  tau(  15) = (   0.0000000   0.0000000   1.2140748  )
        16           Si  tau(  16) = (   0.5000005   0.2886748   0.0000000  )

   Crystallographic axes

     site n.     atom                  positions (cryst. coord.)
         1           Mg  tau(   1) = (  0.6666670  0.3333330  0.5000000  )
         2           Mg  tau(   2) = (  0.1650550  0.3301100  0.0000000  )
         3           Mg  tau(   3) = (  0.1671840  0.3343690  0.5000000  )
         4           Mg  tau(   4) = (  0.1650550  0.8349450  0.0000000  )
         5           Mg  tau(   5) = (  0.1671840  0.8328160  0.5000000  )
         6           Mg  tau(   6) = (  0.6698900  0.8349450  0.0000000  )
         7           Mg  tau(   7) = (  0.6656310  0.8328160  0.5000000  )
         8           Mg  tau(   8) = (  0.9960960  0.4980480  0.2445900  )
         9           Mg  tau(   9) = (  0.9960960  0.4980480  0.7554100  )
        10           Mg  tau(  10) = (  0.5019520  0.4980480  0.2445900  )
        11           Mg  tau(  11) = (  0.5019520  0.4980480  0.7554100  )
        12           Mg  tau(  12) = (  0.5019520  0.0039040  0.2445900  )
        13           Mg  tau(  13) = (  0.5019520  0.0039040  0.7554100  )
        14           Mg  tau(  14) = (  0.0000000  0.0000000  0.2505460  )
        15           Mg  tau(  15) = (  0.0000000  0.0000000  0.7494540  )
        16           Si  tau(  16) = (  0.6666670  0.3333330  0.0000000  )

     number of k points=     1  Methfessel-Paxton smearing, width (Ry)=  0.0010
                       cart. coord. in units 2pi/alat
        k(    1) = (   0.0000000   0.0000000   0.0000000), wk =   2.0000000

                       cryst. coord.
        k(    1) = (   0.0000000   0.0000000   0.0000000), wk =   2.0000000

     Initial potential from superposition of free atoms

     starting charge      33.9856, renormalised to      34.0000
     Starting wfcs are   64 randomized atomic wfcs
     Checking if some PAW data can be deallocated...

     Self-consistent Calculation

     iteration #  1     ecut=    30.00 Ry     beta= 0.70
     Davidson diagonalization with overlap

     ethr =  1.00E-02,  avg # of iterations =  2.0

     Threshold (ethr) on eigenvalues was too large:
     Diagonalizing with lowered threshold

     Davidson diagonalization with overlap

[...]

     total energy              =    -515.14181543 Ry
     estimated scf accuracy    <       0.21036964 Ry

[...]

     total energy              =    -515.20962618 Ry
     estimated scf accuracy    <       0.00000316 Ry

     iteration # 18     ecut=    30.00 Ry     beta= 0.70
     Davidson diagonalization with overlap

     ethr =  9.30E-09,  avg # of iterations =  4.0

     End of self-consistent calculation

          k = 0.0000 0.0000 0.0000 (  3329 PWs)   bands (ev):

    -4.2184  -2.3674  -1.8101  -0.1230   1.0835   1.0836   1.7247   1.7778
     1.7778   1.7802   2.4291   2.4854   2.4855   2.5536   2.8186   2.8186
     2.9229   2.9465   3.4895   3.5372   3.5386

     occupation numbers
     1.0000   1.0000   1.0000   1.0000   1.0000   1.0000   1.0000   1.0000
     1.0000   1.0000   1.0000   1.0000   1.0000   1.0000   1.0000   1.0000
     1.0055  -0.0055  -0.0000  -0.0000  -0.0000

     the Fermi energy is     2.9347 ev

!    total energy              =    -515.20962612 Ry
     estimated scf accuracy    <       0.00000082 Ry
     smearing contrib. (-TS)   =       0.00013469 Ry
     internal energy E=F+TS    =    -515.20976081 Ry

     The total energy is F=E-TS. E is the sum of the following terms:
     one-electron contribution =      22.52118062 Ry
     hartree contribution      =       1.63780483 Ry
     xc contribution           =     -30.08050290 Ry
     ewald contribution        =     -39.78998342 Ry
     one-center paw contrib.   =    -469.49825994 Ry
      -> PAW hartree energy AE =      12.77897083 Ry
      -> PAW hartree energy PS =     -12.74740706 Ry
      -> PAW xc energy AE      =    -489.67866306 Ry
      -> PAW xc energy PS      =      20.14883935 Ry
      -> total E_H with PAW    =       1.66936860 Ry
      -> total E_XC with PAW   =    -499.61032661 Ry

     convergence has been achieved in  18 iterations

     Forces acting on atoms (cartesian axes, Ry/au):

     atom    1 type  1   force =     0.00000000    0.00000000    0.00000000
     atom    2 type  1   force =    -0.00000000   -0.01577079   -0.00000000
     atom    3 type  1   force =    -0.00000000   -0.00433120    0.00000000
     atom    4 type  1   force =    -0.01365790    0.00788539    0.00000000
     atom    5 type  1   force =    -0.00375093    0.00216560    0.00000000
     atom    6 type  1   force =     0.01365790    0.00788539    0.00000000
     atom    7 type  1   force =     0.00375093    0.00216560    0.00000000
     atom    8 type  1   force =    -0.01015224   -0.00586140   -0.00264962
     atom    9 type  1   force =    -0.01015224   -0.00586140    0.00264962
     atom   10 type  1   force =     0.01015224   -0.00586140   -0.00264962
     atom   11 type  1   force =     0.01015224   -0.00586140    0.00264962
     atom   12 type  1   force =    -0.00000000    0.01172280   -0.00264962
     atom   13 type  1   force =    -0.00000000    0.01172280    0.00264962
     atom   14 type  1   force =     0.00000000    0.00000000    0.00130386
     atom   15 type  1   force =    -0.00000000    0.00000000   -0.00130386
     atom   16 type  2   force =     0.00000000   -0.00000000    0.00000000
     The non-local contrib.  to forces
     atom    1 type  1   force =     0.00000000    0.00000000    0.00000000
     atom    2 type  1   force =    -0.00000000    0.03549784   -0.00000000
     atom    3 type  1   force =     0.00000000   -0.01096404   -0.00000000
     atom    4 type  1   force =     0.03074203   -0.01774892   -0.00000000
     atom    5 type  1   force =    -0.00949513    0.00548202   -0.00000000
     atom    6 type  1   force =    -0.03074203   -0.01774892    0.00000000
     atom    7 type  1   force =     0.00949513    0.00548202    0.00000000
     atom    8 type  1   force =     0.00818533    0.00472581   -0.01053404
     atom    9 type  1   force =     0.00818533    0.00472581    0.01053404
     atom   10 type  1   force =    -0.00818533    0.00472580   -0.01053404
     atom   11 type  1   force =    -0.00818533    0.00472580    0.01053404
     atom   12 type  1   force =    -0.00000000   -0.00945161   -0.01053404
     atom   13 type  1   force =     0.00000000   -0.00945161    0.01053404
     atom   14 type  1   force =    -0.00000000   -0.00000000   -0.01027257
     atom   15 type  1   force =     0.00000000    0.00000000    0.01027257
     atom   16 type  2   force =     0.00000000    0.00000000    0.00000000
     The ionic contribution  to forces
     atom    1 type  1   force =    -0.00000227    0.00000131   -0.00000000
     atom    2 type  1   force =     0.00000189    0.00770855   -0.00000000
     atom    3 type  1   force =     0.00000200    0.00943308   -0.00000000
     atom    4 type  1   force =     0.00667516   -0.00385391   -0.00000000
     atom    5 type  1   force =     0.00816879   -0.00471625   -0.00000000
     atom    6 type  1   force =    -0.00667485   -0.00385591   -0.00000000
     atom    7 type  1   force =    -0.00816829   -0.00471828   -0.00000000
     atom    8 type  1   force =     0.08600573    0.04965604    0.27536895
     atom    9 type  1   force =     0.08600573    0.04965604   -0.27536895
     atom   10 type  1   force =    -0.08600549    0.04965529    0.27536883
     atom   11 type  1   force =    -0.08600549    0.04965529   -0.27536883
     atom   12 type  1   force =    -0.00000052   -0.09931117    0.27536895
     atom   13 type  1   force =    -0.00000052   -0.09931117   -0.27536895
     atom   14 type  1   force =     0.00000029   -0.00000017    0.18980927
     atom   15 type  1   force =     0.00000029   -0.00000017   -0.18980927
     atom   16 type  2   force =    -0.00000244    0.00000141   -0.00000000
     The local contribution  to forces
     atom    1 type  1   force =    -0.00001811   -0.00000311    0.00002171
     atom    2 type  1   force =    -0.00001326   -0.05525348    0.00001878
     atom    3 type  1   force =    -0.00000552   -0.00378168    0.00008588
     atom    4 type  1   force =    -0.04786658    0.02762004    0.00002692
     atom    5 type  1   force =    -0.00328462    0.00191176    0.00008089
     atom    6 type  1   force =     0.04792992    0.02765048    0.00003200
     atom    7 type  1   force =     0.00335914    0.00191206    0.00004703
     atom    8 type  1   force =    -0.10342412   -0.05973110   -0.26854766
     atom    9 type  1   force =    -0.10336174   -0.05973620    0.26844353
     atom   10 type  1   force =     0.10348279   -0.05976507   -0.26850638
     atom   11 type  1   force =     0.10341969   -0.05978277    0.26844785
     atom   12 type  1   force =    -0.00003003    0.11949679   -0.26847798
     atom   13 type  1   force =    -0.00008677    0.11946602    0.26844369
     atom   14 type  1   force =    -0.00005877   -0.00001844   -0.17929158
     atom   15 type  1   force =     0.00000882    0.00003334    0.17916467
     atom   16 type  2   force =     0.00001779    0.00006915    0.00003195
     The core correction contribution to forces
     atom    1 type  1   force =    -0.00000066    0.00000019   -0.00000036
     atom    2 type  1   force =    -0.00000045   -0.00357166    0.00000272
     atom    3 type  1   force =    -0.00000079    0.00101684    0.00000221
     atom    4 type  1   force =    -0.00309386    0.00178632    0.00000285
     atom    5 type  1   force =     0.00087940   -0.00050666    0.00000266
     atom    6 type  1   force =     0.00310009    0.00178839    0.00000168
     atom    7 type  1   force =    -0.00087214   -0.00050585    0.00000191
     atom    8 type  1   force =    -0.00090566   -0.00052438    0.00087050
     atom    9 type  1   force =    -0.00090216   -0.00052590   -0.00087621
     atom   10 type  1   force =     0.00091125   -0.00052794    0.00087419
     atom   11 type  1   force =     0.00090767   -0.00052789   -0.00087582
     atom   12 type  1   force =    -0.00000313    0.00105222    0.00087596
     atom   13 type  1   force =    -0.00000692    0.00105019   -0.00087570
     atom   14 type  1   force =    -0.00000620   -0.00000220    0.00093692
     atom   15 type  1   force =    -0.00000138    0.00000077   -0.00094389
     atom   16 type  2   force =     0.00000329    0.00000396    0.00000180
     The Hubbard contrib.    to forces
     atom    1 type  1   force =     0.00000000    0.00000000    0.00000000
     atom    2 type  1   force =     0.00000000    0.00000000    0.00000000
     atom    3 type  1   force =     0.00000000    0.00000000    0.00000000
     atom    4 type  1   force =     0.00000000    0.00000000    0.00000000
     atom    5 type  1   force =     0.00000000    0.00000000    0.00000000
     atom    6 type  1   force =     0.00000000    0.00000000    0.00000000
     atom    7 type  1   force =     0.00000000    0.00000000    0.00000000
     atom    8 type  1   force =     0.00000000    0.00000000    0.00000000
     atom    9 type  1   force =     0.00000000    0.00000000    0.00000000
     atom   10 type  1   force =     0.00000000    0.00000000    0.00000000
     atom   11 type  1   force =     0.00000000    0.00000000    0.00000000
     atom   12 type  1   force =     0.00000000    0.00000000    0.00000000
     atom   13 type  1   force =     0.00000000    0.00000000    0.00000000
     atom   14 type  1   force =     0.00000000    0.00000000    0.00000000
     atom   15 type  1   force =     0.00000000    0.00000000    0.00000000
     atom   16 type  2   force =     0.00000000    0.00000000    0.00000000
     The SCF correction term to forces
     atom    1 type  1   force =     0.00001003   -0.00000072   -0.00002197
     atom    2 type  1   force =     0.00000144   -0.00012385    0.00001227
     atom    3 type  1   force =    -0.00000512   -0.00000010   -0.00004830
     atom    4 type  1   force =    -0.00010068    0.00006598    0.00000506
     atom    5 type  1   force =    -0.00000023   -0.00000494   -0.00004326
     atom    6 type  1   force =     0.00009264    0.00006492   -0.00000537
     atom    7 type  1   force =    -0.00000738    0.00000286   -0.00002544
     atom    8 type  1   force =     0.00001799    0.00001191    0.00013839
     atom    9 type  1   force =    -0.00000354    0.00000408   -0.00010274
     atom   10 type  1   force =    -0.00002515    0.00001770    0.00013470
     atom   11 type  1   force =    -0.00000407    0.00002702   -0.00010515
     atom   12 type  1   force =     0.00000436   -0.00003103    0.00012963
     atom   13 type  1   force =     0.00002109   -0.00001980   -0.00010114
     atom   14 type  1   force =    -0.00000257   -0.00000318    0.00007494
     atom   15 type  1   force =    -0.00002064   -0.00001798   -0.00003484
     atom   16 type  2   force =    -0.00000159   -0.00004217   -0.00001016

     Total force =     0.040896     Total SCF correction =     0.000384

     Computing stress (Cartesian axis) and pressure

          total   stress  (Ry/bohr**3)                   (kbar)     P=        1.14
   0.00033105   0.00000000   0.00000000           48.70        0.00        0.00
   0.00000000   0.00033105  -0.00000000            0.00       48.70       -0.00
   0.00000000  -0.00000000  -0.00063889            0.00       -0.00      -93.98

     kinetic stress (kbar)    621.42      0.00      0.00
                                0.00    621.42      0.00
                                0.00      0.00    447.88

     local   stress (kbar)    -34.12     -0.01     -0.00
                               -0.01    -34.11     -0.00
                               -0.00     -0.00     83.04

     nonloc. stress (kbar)    572.15      0.00      0.00
                                0.00    572.15     -0.00
                                0.00      0.00    572.55

     hartree stress (kbar)     49.40      0.00     -0.00
                                0.00     49.39     -0.00
                               -0.00     -0.00      2.13

     exc-cor stress (kbar)    539.67      0.00      0.00
                                0.00    539.67      0.00
                                0.00      0.00    539.24

     corecor stress (kbar)   -896.01     -0.00     -0.00
                               -0.00   -896.01     -0.00
                               -0.00     -0.00   -894.48

     ewald   stress (kbar)   -803.81      0.00     -0.00
                                0.00   -803.81      0.00
                               -0.00      0.00   -844.35

     hubbard stress (kbar)      0.00      0.00      0.00
                                0.00      0.00      0.00
                                0.00      0.00      0.00

     DFT-D   stress (kbar)      0.00      0.00      0.00
                                0.00      0.00      0.00
                                0.00      0.00      0.00

     XDM     stress (kbar)      0.00      0.00      0.00
                                0.00      0.00      0.00
                                0.00      0.00      0.00

     dft-nl  stress (kbar)      0.00      0.00      0.00
                                0.00      0.00      0.00
                                0.00      0.00      0.00

     TS-vdW  stress (kbar)      0.00      0.00      0.00
                                0.00      0.00      0.00
                                0.00      0.00      0.00

[...]

                                0.00      0.00      0.00

     Writing all to output data dir new_calculations/myprefix.save/

     General routines

     Parallel routines

     PAW routines

   This run was terminated on:  12: 7: 8  21May2023

   JOB DONE.