     Program PWSCF v.7.0 starts on 20May2023 at 11:18:58

     Reading input from espresso_4385.pwi
Warning: card &CELL ignored
Warning: card / ignored

     Current dimensions of program PWSCF are:
     Max number of different atomic species (ntypx) = 10
     Max number of k-points (npk) =  40000
     Max angular momentum in pseudopotentials (lmaxx) =  4
     file In.pbe-dn-rrkjus_psl.0.2.2.UPF: wavefunction(s)  5S renormalized

     gamma-point specific algorithms are used

     Subspace diagonalization in iterative solution of the eigenvalue problem:
     a serial algorithm will be used

     Using Slab Decomposition

     bravais-lattice index     =            0
     lattice parameter (alat)  =      26.1863  a.u.
     unit-cell volume          =    3892.8164 (a.u.)^3
     number of atoms/cell      =           16
     number of atomic types    =            2
     number of electrons       =       184.00
     number of Kohn-Sham states=          110
     kinetic-energy cutoff     =      30.0000  Ry
     charge density cutoff     =     240.0000  Ry
     scf convergence threshold =      1.0E-06
     mixing beta               =       0.7000
     number of iterations used =            8  plain     mixing
     Exchange-correlation= PBE
                           (   1   4   3   4   0   0   0)

     celldm(1)=  26.186303  celldm(2)=   0.000000  celldm(3)=   0.000000
     celldm(4)=   0.000000  celldm(5)=   0.000000  celldm(6)=   0.000000

     crystal axes: (cart. coord. in units of alat)
               a(1) = (   1.000000   0.000000   0.000000 )
               a(2) = (  -0.811490   0.584366   0.000000 )
               a(3) = (   0.094150   0.291859   0.370985 )

     reciprocal axes: (cart. coord. in units 2 pi/alat)
               b(1) = (  1.000000  1.388669 -1.346269 )
               b(2) = (  0.000000  1.711257 -1.346269 )
               b(3) = (  0.000000  0.000000  2.695525 )

     PseudoPot. # 1 for Sr read from file:
     /home/pragov/projects/rrg-bengioy-ad/pragov/crystal_structure_design/SSSP/Sr_pbe_v1.uspp.F.UPF
     MD5 check sum: 6b418c05fbe9db5448babca5e47b7a5b
     Pseudo is Ultrasoft + core correction, Zval = 10.0
     Generated by new atomic code, or converted to UPF format
     Using radial grid of  883 points,  6 beta functions with:
                l(1) =   0
                l(2) =   0
                l(3) =   1
                l(4) =   1
                l(5) =   2
                l(6) =   2
     Q(r) pseudized with  6 coefficients,  rinner =    1.400   1.400   1.400
                                                       1.400   1.400

     PseudoPot. # 2 for In read from file:
     /home/pragov/projects/rrg-bengioy-ad/pragov/crystal_structure_design/SSSP/In.pbe-dn-rrkjus_psl.0.2.2.UPF
     MD5 check sum: 25e7c42c3b55b68f4bf926be2e7201a4
     Pseudo is Ultrasoft + core correction, Zval = 13.0
     Generated using "atomic" code by A. Dal Corso  v.5.0.99 svn rev. 10869
     Using radial grid of 1241 points,  6 beta functions with:
                l(1) =   0
                l(2) =   0
                l(3) =   1
                l(4) =   1
                l(5) =   2
                l(6) =   2
     Q(r) pseudized with 0 coefficients

     atomic species   valence    mass     pseudopotential
        Sr            10.00    87.62000     Sr( 1.00)
        In            13.00   114.81800     In( 1.00)

     No symmetry found

                                    s                        frac. trans.

      isym =  1     identity

 cryst.   s( 1) = (     1          0          0      )
                  (     0          1          0      )
                  (     0          0          1      )

 cart.    s( 1) = (  1.0000000  0.0000000 -0.0000000 )
                  (  0.0000000  1.0000000 -0.0000000 )
                  (  0.0000000  0.0000000  1.0000000 )

   Cartesian axes

     site n.     atom                  positions (alat units)
         1           Sr  tau(   1) = (   0.0190405   0.3970554   0.1118550  )
         2           Sr  tau(   2) = (   0.5292113   0.3820481   0.1108422  )
         3           Sr  tau(   3) = (  -0.2364906   0.4769527   0.2609551  )
         4           Sr  tau(   4) = (  -0.1591189   0.7652108   0.2963348  )
         5           Sr  tau(   5) = (   0.2636496   0.4792628   0.2973476  )
         6           Sr  tau(   6) = (  -0.6570475   0.7675895   0.2611164  )
         7           Sr  tau(   7) = (   0.9346656   0.0930059   0.0756238  )
         8           Sr  tau(   8) = (   0.4235495   0.1029160   0.0754625  )
         9           In  tau(   9) = (  -0.1197897   0.6258666   0.0909771  )
        10           In  tau(  10) = (  -0.6325069   0.5724418   0.0927504  )
        11           In  tau(  11) = (   0.3983566   0.2385226   0.2780912  )
        12           In  tau(  12) = (   0.0139099   0.5853122   0.2821127  )
        13           In  tau(  13) = (   0.5100184   0.5838132   0.2764697  )
        14           In  tau(  14) = (   0.2836735   0.3371742   0.0966201  )
        15           In  tau(  15) = (   0.8948638   0.2408451   0.2782430  )
        16           In  tau(  16) = (  -0.2309533   0.2804153   0.0925986  )

   Crystallographic axes

     site n.     atom                  positions (cryst. coord.)
         1           Sr  tau(   1) = (  0.4198320  0.5288770  0.3015080  )
         2           Sr  tau(   2) = (  0.9105260  0.5045590  0.2987780  )
         3           Sr  tau(   3) = (  0.0745230  0.4648730  0.7034110  )
         4           Sr  tau(   4) = (  0.5045590  0.9105260  0.7987780  )
         5           Sr  tau(   5) = (  0.5288770  0.4198320  0.8015080  )
         6           Sr  tau(   6) = (  0.0573470  0.9620100  0.7038460  )
         7           Sr  tau(   7) = (  0.9620100  0.0573470  0.2038460  )
         8           Sr  tau(   8) = (  0.4648730  0.0745230  0.2034110  )
         9           In  tau(   9) = (  0.6268520  0.9485390  0.2452310  )
        10           In  tau(  10) = (  0.0375580  0.8547280  0.2500110  )
        11           In  tau(  11) = (  0.3552000  0.0337880  0.7496020  )
        12           In  tau(  12) = (  0.4469150  0.6218200  0.7604420  )
        13           In  tau(  13) = (  0.9485390  0.6268520  0.7452310  )
        14           In  tau(  14) = (  0.6218200  0.4469150  0.2604420  )
        15           In  tau(  15) = (  0.8547280  0.0375580  0.7500110  )
        16           In  tau(  16) = (  0.0337880  0.3552000  0.2496020  )

     number of k points=     1  Methfessel-Paxton smearing, width (Ry)=  0.0010
                       cart. coord. in units 2pi/alat
        k(    1) = (   0.0000000   0.0000000   0.0000000), wk =   2.0000000

                       cryst. coord.
        k(    1) = (   0.0000000   0.0000000   0.0000000), wk =   2.0000000

     Check: negative core charge=   -0.000003

     Initial potential from superposition of free atoms

     starting charge     183.7010, renormalised to     184.0000

     negative rho (up, down):  5.087E-01 0.000E+00
     Starting wfcs are  176 randomized atomic wfcs

     Self-consistent Calculation

     iteration #  1     ecut=    30.00 Ry     beta= 0.70
     Davidson diagonalization with overlap

     ethr =  1.00E-02,  avg # of iterations =  2.0

     Threshold (ethr) on eigenvalues was too large:
     Diagonalizing with lowered threshold

     Davidson diagonalization with overlap

[...]

     negative rho (up, down):  5.183E-01 0.000E+00

     total energy              =   -1720.01896473 Ry
     estimated scf accuracy    <       0.79951333 Ry

[...]

     total energy              =   -1720.28259379 Ry
     estimated scf accuracy    <       0.00000243 Ry

     iteration # 12     ecut=    30.00 Ry     beta= 0.70
     Davidson diagonalization with overlap

     ethr =  1.32E-09,  avg # of iterations =  4.0

[...]

     End of self-consistent calculation

          k = 0.0000 0.0000 0.0000 (  5387 PWs)   bands (ev):

   -28.7655 -28.7624 -28.7623 -28.7592 -28.5497 -28.5432 -28.5375 -28.5306
   -10.8443 -10.8418 -10.8388 -10.8350 -10.8041 -10.7840 -10.7643 -10.7563
   -10.7542 -10.7430 -10.7386 -10.7264 -10.6466 -10.6403 -10.6016 -10.5919
   -10.5917 -10.5781 -10.5565 -10.5434 -10.5218 -10.5121 -10.4886 -10.4724
    -6.5148  -6.5144  -6.5083  -6.5075  -6.4738  -6.4726  -6.4665  -6.4659
    -6.4581  -6.4577  -6.4571  -6.4559  -6.4503  -6.4451  -6.4226  -6.4223
    -6.4001  -6.3996  -6.3859  -6.3851  -6.3782  -6.3775  -6.3643  -6.3636
    -6.3582  -6.3575  -6.3490  -6.3485  -6.3163  -6.3151  -6.2940  -6.2936
    -6.2895  -6.2892  -6.2732  -6.2724  -6.2407  -6.2403  -6.2056  -6.2052
     0.6767   1.0198   2.6955   3.0451   3.0529   3.0945   3.1042   3.3159
     5.9309   6.0159   6.2376   6.3101   6.3494   6.7687   6.7829   6.7901
     6.8166   6.9467   7.0157   7.0815   7.4728   7.6413   7.8910   8.0174
     8.0308   8.1186   8.3522   9.0141   9.1289   9.2149   9.2557   9.4562
     9.7170   9.8197   9.9601  10.2447  10.3144  10.3390

     occupation numbers
     1.0000   1.0000   1.0000   1.0000   1.0000   1.0000   1.0000   1.0000
     1.0000   1.0000   1.0000   1.0000   1.0000   1.0000   1.0000   1.0000
     1.0000   1.0000   1.0000   1.0000   1.0000   1.0000   1.0000   1.0000
     1.0000   1.0000   1.0000   1.0000   1.0000   1.0000   1.0000   1.0000
     1.0000   1.0000   1.0000   1.0000   1.0000   1.0000   1.0000   1.0000
     1.0000   1.0000   1.0000   1.0000   1.0000   1.0000   1.0000   1.0000
     1.0000   1.0000   1.0000   1.0000   1.0000   1.0000   1.0000   1.0000
     1.0000   1.0000   1.0000   1.0000   1.0000   1.0000   1.0000   1.0000
     1.0000   1.0000   1.0000   1.0000   1.0000   1.0000   1.0000   1.0000
     1.0000   1.0000   1.0000   1.0000   1.0000   1.0000   1.0000   1.0000
     1.0000   1.0000   1.0000   1.0000   1.0000   1.0000   1.0000   1.0000
     1.0000   1.0000   1.0000   1.0000  -0.0000  -0.0000  -0.0000  -0.0000
    -0.0000  -0.0000  -0.0000  -0.0000  -0.0000  -0.0000  -0.0000  -0.0000
    -0.0000  -0.0000  -0.0000  -0.0000  -0.0000  -0.0000

     the Fermi energy is     7.3987 ev

!    total energy              =   -1720.28259419 Ry
     estimated scf accuracy    <       0.00000044 Ry
     smearing contrib. (-TS)   =       0.00000000 Ry
     internal energy E=F+TS    =   -1720.28259419 Ry

     The total energy is F=E-TS. E is the sum of the following terms:
     one-electron contribution =    -679.65820287 Ry
     hartree contribution      =     442.97642625 Ry
     xc contribution           =    -526.81504714 Ry
     ewald contribution        =    -956.78577043 Ry

     convergence has been achieved in  12 iterations

     negative rho (up, down):  5.313E-01 0.000E+00

     Forces acting on atoms (cartesian axes, Ry/au):

     atom    1 type  1   force =     0.01997214   -0.00548801   -0.00178100
     atom    2 type  1   force =     0.00543966   -0.00387648   -0.00617771
     atom    3 type  1   force =    -0.02135254    0.00907875    0.00056190
     atom    4 type  1   force =    -0.00669525    0.00007915   -0.00620757
     atom    5 type  1   force =    -0.01941502    0.00718166   -0.00181553
     atom    6 type  1   force =    -0.01008777   -0.00098419    0.00542740
     atom    7 type  1   force =     0.00759844   -0.00675789    0.00540521
     atom    8 type  1   force =     0.02266025   -0.00507479    0.00053021
     atom    9 type  2   force =     0.03232636    0.01221482    0.00455958
     atom   10 type  2   force =     0.01630572   -0.02614995   -0.00963672
     atom   11 type  2   force =    -0.03436489   -0.00891972    0.01313689
     atom   12 type  2   force =    -0.02491146    0.02962693   -0.00544567
     atom   13 type  2   force =    -0.01923317    0.02892622    0.00434560
     atom   14 type  2   force =     0.03726990    0.00935545   -0.00582668
     atom   15 type  2   force =    -0.02849062   -0.01193891   -0.01004901
     atom   16 type  2   force =     0.02297825   -0.02727304    0.01297310
     The non-local contrib.  to forces
     atom    1 type  1   force =    -0.12548410    0.03059740   -0.11248475
     atom    2 type  1   force =    -0.11379629    0.04573168   -0.06349031
     atom    3 type  1   force =     0.12051247   -0.04905202    0.11022085
     atom    4 type  1   force =     0.11902929   -0.02932876   -0.06352149
     atom    5 type  1   force =     0.11970480   -0.04856151   -0.11250031
     atom    6 type  1   force =     0.11813891   -0.02609545    0.06606016
     atom    7 type  1   force =    -0.11113077    0.04780235    0.06602523
     atom    8 type  1   force =    -0.12647466    0.03067600    0.11020822
     atom    9 type  2   force =    -0.04012438   -0.09623530    0.02685259
     atom   10 type  2   force =     0.03822585    0.09186167    0.00601951
     atom   11 type  2   force =     0.00342948    0.10215991    0.00520919
     atom   12 type  2   force =    -0.04167478   -0.10082487   -0.03531561
     atom   13 type  2   force =    -0.02384061   -0.10140529    0.02669134
     atom   14 type  2   force =    -0.02526959   -0.10629833   -0.03558182
     atom   15 type  2   force =     0.02272942    0.09668294    0.00572010
     atom   16 type  2   force =     0.05718365    0.08490441    0.00506194
     The ionic contribution  to forces
     atom    1 type  1   force =     3.62475381   -1.57029344    1.53022691
     atom    2 type  1   force =     5.00005061   -1.27727844    1.48228818
     atom    3 type  1   force =    -3.86326443    0.99940687   -1.54425351
     atom    4 type  1   force =    -4.80389078    1.88535932    1.48228818
     atom    5 type  1   force =    -3.85907859    0.84390407    1.53022691
     atom    6 type  1   force =    -5.09890739    1.96072695   -1.51942807
     atom    7 type  1   force =     5.28349603   -1.38851595   -1.51942807
     atom    8 type  1   force =     3.71902110   -1.44655048   -1.54425351
     atom    9 type  2   force =    -6.22928985   -0.38314338   -0.22469189
     atom   10 type  2   force =    -4.51444989    3.88703274    0.28407708
     atom   11 type  2   force =     5.61217616    0.51881229   -0.44770116
     atom   12 type  2   force =     4.85445312   -3.93704016    0.43948246
     atom   13 type  2   force =     4.83111290   -3.95110099   -0.22469189
     atom   14 type  2   force =    -6.24001355   -0.35809392    0.43948246
     atom   15 type  2   force =     5.93488157    0.51619964    0.28407708
     atom   16 type  2   force =    -4.25105081    3.70057489   -0.44770116
     The local contribution  to forces
     atom    1 type  1   force =    -3.48879602    1.53694719   -1.42777571
     atom    2 type  1   force =    -4.88985816    1.23082408   -1.42946678
     atom    3 type  1   force =     3.73014909   -0.94483057    1.44258621
     atom    4 type  1   force =     4.68716386   -1.85820706   -1.42965176
     atom    5 type  1   force =     3.72938815   -0.79217854   -1.42809875
     atom    6 type  1   force =     4.98020473   -1.93753131    1.46399576
     atom    7 type  1   force =    -5.17360905    1.33726609    1.46369774
     atom    8 type  1   force =    -3.57902076    1.41337101    1.44238897
     atom    9 type  2   force =     6.29518138    0.49180263    0.20233217
     atom   10 type  2   force =     4.48818900   -4.00287674   -0.29913018
     atom   11 type  2   force =    -5.64579277   -0.62924867    0.45384432
     atom   12 type  2   force =    -4.83320743    4.06480757   -0.40936897
     atom   13 type  2   force =    -4.82090649    4.07762661    0.20272271
     atom   14 type  2   force =     6.29794654    0.47439633   -0.40866571
     atom   15 type  2   force =    -5.98129034   -0.62507672   -0.29842109
     atom   16 type  2   force =     4.21307661   -3.80995274    0.45421250
     The core correction contribution to forces
     atom    1 type  1   force =     0.00913082   -0.00227892    0.00807913
     atom    2 type  1   force =     0.00847327   -0.00335065    0.00458417
     atom    3 type  1   force =    -0.00880340    0.00354465   -0.00792782
     atom    4 type  1   force =    -0.00883244    0.00223187    0.00458493
     atom    5 type  1   force =    -0.00873899    0.00348403    0.00807640
     atom    6 type  1   force =    -0.00880146    0.00201271   -0.00476678
     atom    7 type  1   force =     0.00831976   -0.00351259   -0.00476740
     atom    8 type  1   force =     0.00921792   -0.00226990   -0.00792931
     atom    9 type  2   force =     0.00672852   -0.00035601    0.00016767
     atom   10 type  2   force =     0.00451266   -0.00323065   -0.00118807
     atom   11 type  2   force =    -0.00455852   -0.00011866    0.00154712
     atom   12 type  2   force =    -0.00481832    0.00332987   -0.00057438
     atom   13 type  2   force =    -0.00566314    0.00363918    0.00017174
     atom   14 type  2   force =     0.00586543   -0.00010901   -0.00056450
     atom   15 type  2   force =    -0.00555413    0.00002103   -0.00117937
     atom   16 type  2   force =     0.00362091   -0.00276048    0.00155043
     The Hubbard contrib.    to forces
     atom    1 type  1   force =     0.00000000    0.00000000    0.00000000
     atom    2 type  1   force =     0.00000000    0.00000000    0.00000000
     atom    3 type  1   force =     0.00000000    0.00000000    0.00000000
     atom    4 type  1   force =     0.00000000    0.00000000    0.00000000
     atom    5 type  1   force =     0.00000000    0.00000000    0.00000000
     atom    6 type  1   force =     0.00000000    0.00000000    0.00000000
     atom    7 type  1   force =     0.00000000    0.00000000    0.00000000
     atom    8 type  1   force =     0.00000000    0.00000000    0.00000000
     atom    9 type  2   force =     0.00000000    0.00000000    0.00000000
     atom   10 type  2   force =     0.00000000    0.00000000    0.00000000
     atom   11 type  2   force =     0.00000000    0.00000000    0.00000000
     atom   12 type  2   force =     0.00000000    0.00000000    0.00000000
     atom   13 type  2   force =     0.00000000    0.00000000    0.00000000
     atom   14 type  2   force =     0.00000000    0.00000000    0.00000000
     atom   15 type  2   force =     0.00000000    0.00000000    0.00000000
     atom   16 type  2   force =     0.00000000    0.00000000    0.00000000
     The SCF correction term to forces
     atom    1 type  1   force =     0.00037663   -0.00046696    0.00016341
     atom    2 type  1   force =     0.00057921    0.00019013   -0.00010297
     atom    3 type  1   force =     0.00006272    0.00000309   -0.00007384
     atom    4 type  1   force =    -0.00015620    0.00001706    0.00008256
     atom    5 type  1   force =    -0.00068140    0.00052689    0.00047021
     atom    6 type  1   force =    -0.00071356   -0.00010380   -0.00044367
     atom    7 type  1   force =     0.00053145    0.00019548   -0.00013229
     atom    8 type  1   force =    -0.00007436   -0.00030813    0.00010584
     atom    9 type  2   force =    -0.00016032    0.00014016   -0.00011097
     atom   10 type  2   force =    -0.00016292    0.00105631    0.00057493
     atom   11 type  2   force =     0.00038974   -0.00053130    0.00022740
     atom   12 type  2   force =     0.00034493   -0.00065220    0.00032083
     atom   13 type  2   force =     0.00007315    0.00016000   -0.00055830
     atom   14 type  2   force =    -0.00124996   -0.00054634   -0.00050710
     atom   15 type  2   force =     0.00075185    0.00022748   -0.00025574
     atom   16 type  2   force =     0.00015687   -0.00004583   -0.00016062

     Total force =     0.113239     Total SCF correction =     0.002966

     Computing stress (Cartesian axis) and pressure

     negative rho (up, down):  5.313E-01 0.000E+00
          total   stress  (Ry/bohr**3)                   (kbar)     P=      -18.49
  -0.00007547  -0.00006566  -0.00000024          -11.10       -9.66       -0.04
  -0.00006566  -0.00025784  -0.00000076           -9.66      -37.93       -0.11
  -0.00000024  -0.00000076  -0.00004370           -0.04       -0.11       -6.43

     kinetic stress (kbar)   9895.86    -30.67     -0.25
                              -30.67   9810.69     -0.79
                               -0.25     -0.79   9870.15

     local   stress (kbar)  -1780.17  -1112.80    -11.59
                            -1112.80  -4870.86    -35.92
                              -11.59    -35.92  -8077.56

     nonloc. stress (kbar)   5033.14     -3.04     -0.03
                               -3.04   5024.68     -0.10
                               -0.03     -0.10   5052.89

     hartree stress (kbar)   4113.45    550.83      4.70
                              550.83   5643.35     14.58
                                4.70     14.58   6982.78

     exc-cor stress (kbar)   8336.18     -0.69      0.00
                               -0.69   8334.27      0.01
                                0.00      0.01   8336.78

     corecor stress (kbar) -11868.17      0.10      0.00
                                0.10 -11867.88      0.00
                                0.00      0.00 -11869.20

     ewald   stress (kbar) -13741.39    586.61      7.13
                              586.61 -12112.18     22.11
                                7.13     22.11 -10302.27

     hubbard stress (kbar)      0.00      0.00      0.00
                                0.00      0.00      0.00
                                0.00      0.00      0.00

     DFT-D   stress (kbar)      0.00      0.00      0.00
                                0.00      0.00      0.00
                                0.00      0.00      0.00

     XDM     stress (kbar)      0.00      0.00      0.00
                                0.00      0.00      0.00
                                0.00      0.00      0.00

     dft-nl  stress (kbar)      0.00      0.00      0.00
                                0.00      0.00      0.00
                                0.00      0.00      0.00

     TS-vdW  stress (kbar)      0.00      0.00      0.00
                                0.00      0.00      0.00
                                0.00      0.00      0.00

[...]

                                0.00      0.00      0.00

     Writing all to output data dir new_calculations/myprefix.save/

     General routines

     Parallel routines

   This run was terminated on:  11:20: 5  20May2023

   JOB DONE.