     Program PWSCF v.7.0 starts on 20May2023 at 18:36:56

     Reading input from espresso_13601.pwi
Warning: card &CELL ignored
Warning: card / ignored

     Current dimensions of program PWSCF are:
     Max number of different atomic species (ntypx) = 10
     Max number of k-points (npk) =  40000
     Max angular momentum in pseudopotentials (lmaxx) =  4

     gamma-point specific algorithms are used

     Subspace diagonalization in iterative solution of the eigenvalue problem:
     a serial algorithm will be used

     Using Slab Decomposition

     bravais-lattice index     =            0
     lattice parameter (alat)  =      16.7983  a.u.
     unit-cell volume          =    1856.3969 (a.u.)^3
     number of atoms/cell      =            9
     number of atomic types    =            3
     number of electrons       =        87.00
     number of Kohn-Sham states=           53
     kinetic-energy cutoff     =      30.0000  Ry
     charge density cutoff     =     240.0000  Ry
     scf convergence threshold =      1.0E-06
     mixing beta               =       0.7000
     number of iterations used =            8  plain     mixing
     Exchange-correlation= SLA  PW   PBE  PBE
                           (   1   4   3   4   0   0   0)

     celldm(1)=  16.798339  celldm(2)=   0.000000  celldm(3)=   0.000000
     celldm(4)=   0.000000  celldm(5)=   0.000000  celldm(6)=   0.000000

     crystal axes: (cart. coord. in units of alat)
               a(1) = (   1.000000   0.000000   0.000000 )
               a(2) = (   0.871591   0.490234   0.000000 )
               a(3) = (   0.392114   0.102708   0.798855 )

     reciprocal axes: (cart. coord. in units 2 pi/alat)
               b(1) = (  1.000000 -1.777905 -0.262261 )
               b(2) = (  0.000000  2.039840 -0.262261 )
               b(3) = (  0.000000  0.000000  1.251792 )

     PseudoPot. # 1 for Na read from file:
     /home/pragov/projects/rrg-bengioy-ad/pragov/crystal_structure_design/SSSP/na_pbe_v1.5.uspp.F.UPF
     MD5 check sum: 44600605ef58000f06b90626533354dc
     Pseudo is Ultrasoft, Zval =  9.0
     Generated by new atomic code, or converted to UPF format
     Using radial grid of  819 points,  5 beta functions with:
                l(1) =   0
                l(2) =   0
                l(3) =   1
                l(4) =   1
                l(5) =   2
     Q(r) pseudized with  8 coefficients,  rinner =    1.250   1.250   1.250
                                                       1.250   1.250

     PseudoPot. # 2 for Mn read from file:
     /home/pragov/projects/rrg-bengioy-ad/pragov/crystal_structure_design/SSSP/mn_pbe_v1.5.uspp.F.UPF
     MD5 check sum: 82ef2b46521d7a7d9e736dc3972e4928
     Pseudo is Ultrasoft + core correction, Zval = 15.0
     Generated by new atomic code, or converted to UPF format
     Using radial grid of  859 points,  6 beta functions with:
                l(1) =   0
                l(2) =   0
                l(3) =   1
                l(4) =   1
                l(5) =   2
                l(6) =   2
     Q(r) pseudized with  8 coefficients,  rinner =    0.950   0.950   0.950
                                                       0.950   0.950

     PseudoPot. # 3 for Te read from file:
     /home/pragov/projects/rrg-bengioy-ad/pragov/crystal_structure_design/SSSP/Te_pbe_v1.uspp.F.UPF
     MD5 check sum: c319670d6894cc26e93307826a071b75
     Pseudo is Ultrasoft + core correction, Zval =  6.0
     Generated by new atomic code, or converted to UPF format
     Using radial grid of  891 points,  5 beta functions with:
                l(1) =   0
                l(2) =   0
                l(3) =   1
                l(4) =   1
                l(5) =   2
     Q(r) pseudized with  6 coefficients,  rinner =    1.800   1.800   1.800
                                                       1.800   1.800

     atomic species   valence    mass     pseudopotential
        Na             9.00    22.98977     Na( 1.00)
        Mn            15.00    54.93804     Mn( 1.00)
        Te             6.00   127.60000     Te( 1.00)

     No symmetry found

                                    s                        frac. trans.

      isym =  1     identity

 cryst.   s( 1) = (     1          0          0      )
                  (     0          1          0      )
                  (     0          0          1      )

 cart.    s( 1) = (  1.0000000  0.0000000  0.0000000 )
                  (  0.0000000  1.0000000  0.0000000 )
                  (  0.0000000  0.0000000  1.0000000 )

   Cartesian axes

     site n.     atom                  positions (alat units)
         1           Na  tau(   1) = (   0.7430738   0.1946368   0.6104570  )
         2           Na  tau(   2) = (   1.4863958   0.3893386   0.2032463  )
         3           Mn  tau(   3) = (   1.3752803   0.3602336   0.6169429  )
         4           Mn  tau(   4) = (   2.0344687   0.5328979   0.5682950  )
         5           Mn  tau(   5) = (   0.9326376   0.2442901   0.1871909  )
         6           Te  tau(   6) = (   1.8133471   0.4749785   0.3630173  )
         7           Te  tau(   7) = (   1.0930249   0.2863011   0.7590936  )
         8           Te  tau(   8) = (   0.4306042   0.1127902   0.4343878  )
         9           Te  tau(   9) = (   1.1821666   0.3096505   0.0351536  )

   Crystallographic axes

     site n.     atom                  positions (cryst. coord.)
         1           Na  tau(   1) = (  0.2369290  0.2369290  0.7641650  )
         2           Na  tau(   2) = (  0.7408850  0.7408850  0.2544220  )
         3           Mn  tau(   3) = (  0.5730190  0.5730190  0.7722840  )
         4           Mn  tau(   4) = (  0.9379850  0.9379850  0.7113870  )
         5           Mn  tau(   5) = (  0.4492200  0.4492200  0.2343240  )
         6           Te  tau(   6) = (  0.8736750  0.8736750  0.4544220  )
         7           Te  tau(   7) = (  0.3849280  0.3849280  0.9502270  )
         8           Te  tau(   8) = (  0.1161510  0.1161510  0.5437630  )
         9           Te  tau(   9) = (  0.6224180  0.6224180  0.0440050  )

     number of k points=     1  Methfessel-Paxton smearing, width (Ry)=  0.0010
                       cart. coord. in units 2pi/alat
        k(    1) = (   0.0000000   0.0000000   0.0000000), wk =   2.0000000

                       cryst. coord.
        k(    1) = (   0.0000000   0.0000000   0.0000000), wk =   2.0000000

     Check: negative core charge=   -0.000008

     Initial potential from superposition of free atoms

     starting charge      85.4863, renormalised to      87.0000
     Starting wfcs are   65 randomized atomic wfcs

     Self-consistent Calculation

     iteration #  1     ecut=    30.00 Ry     beta= 0.70
     Davidson diagonalization with overlap

     ethr =  1.00E-02,  avg # of iterations =  2.0

     total energy              =    -928.79823262 Ry
     estimated scf accuracy    <       1.56024483 Ry

[...]

     total energy              =    -929.69794489 Ry
     estimated scf accuracy    <       0.00000130 Ry

     iteration # 28     ecut=    30.00 Ry     beta= 0.70
     Davidson diagonalization with overlap

     ethr =  1.49E-09,  avg # of iterations =  1.0

     End of self-consistent calculation

          k = 0.0000 0.0000 0.0000 (  2577 PWs)   bands (ev):

   -73.3375 -73.1234 -72.9561 -48.0556 -47.5553 -42.3894 -42.1898 -42.1418
   -41.9791 -41.9306 -41.7190 -41.6903 -41.5920 -41.5227 -19.9689 -19.9600
   -19.9434 -19.4818 -19.4508 -19.4482  -6.2808  -5.8264  -5.6466  -5.4883
     0.8142   0.9962   1.4244   2.5735   2.6569   2.8665   2.8893   2.9989
     3.0017   3.2041   3.2173   3.8228   4.9480   4.9585   5.2789   5.3592
     5.3778   5.5105   5.6255   5.6268   5.7787   5.9380   6.1179   6.2605
     6.5468   6.6529   6.6724   6.8088   7.7042

     occupation numbers
     1.0000   1.0000   1.0000   1.0000   1.0000   1.0000   1.0000   1.0000
     1.0000   1.0000   1.0000   1.0000   1.0000   1.0000   1.0000   1.0000
     1.0000   1.0000   1.0000   1.0000   1.0000   1.0000   1.0000   1.0000
     1.0000   1.0000   1.0000   1.0000   1.0000   1.0000   1.0000   1.0000
     1.0000   1.0000   1.0000   1.0000   1.0000   1.0000   1.0000   1.0000
     1.0000   1.0000   0.7862   0.7138  -0.0000  -0.0000  -0.0000  -0.0000
    -0.0000  -0.0000  -0.0000  -0.0000  -0.0000

     the Fermi energy is     5.6304 ev

!    total energy              =    -929.69794478 Ry
     estimated scf accuracy    <       0.00000019 Ry
     smearing contrib. (-TS)   =      -0.00040897 Ry
     internal energy E=F+TS    =    -929.69753581 Ry

     The total energy is F=E-TS. E is the sum of the following terms:
     one-electron contribution =    -739.22375079 Ry
     hartree contribution      =     388.84936074 Ry
     xc contribution           =    -165.59840280 Ry
     ewald contribution        =    -413.72474296 Ry

     convergence has been achieved in  28 iterations

     Forces acting on atoms (cartesian axes, Ry/au):

     atom    1 type  1   force =     0.00137789    0.00035907   -0.00336376
     atom    2 type  1   force =     0.00522568    0.00136792    0.00001499
     atom    3 type  2   force =    -0.01234522   -0.00323202   -0.00141374
     atom    4 type  2   force =    -0.00802668   -0.00210119    0.00832243
     atom    5 type  2   force =    -0.02600861   -0.00681016   -0.00778774
     atom    6 type  3   force =     0.07782486    0.02038489   -0.03934661
     atom    7 type  3   force =     0.07986869    0.02092032   -0.05994293
     atom    8 type  3   force =    -0.02653861   -0.00695278    0.09379348
     atom    9 type  3   force =    -0.09137801   -0.02393605    0.00972387
     The non-local contrib.  to forces
     atom    1 type  1   force =     0.12228467    0.03203330    0.01137799
     atom    2 type  1   force =     0.03508953    0.00919208   -0.01481132
     atom    3 type  2   force =     0.07486272    0.01960648   -0.27279428
     atom    4 type  2   force =    -0.07795328   -0.02041763    0.21338171
     atom    5 type  2   force =    -0.07772345   -0.02036160    0.14016278
     atom    6 type  3   force =    -0.08680121   -0.02273290    0.02654357
     atom    7 type  3   force =    -0.08278016   -0.02168451    0.01940841
     atom    8 type  3   force =     0.00948337    0.00248260   -0.10475968
     atom    9 type  3   force =     0.03844916    0.01007265    0.04134003
     The ionic contribution  to forces
     atom    1 type  1   force =     1.92313708    0.50373632    1.43717433
     atom    2 type  1   force =    -2.09143108   -0.54781835   -1.05989923
     atom    3 type  2   force =     6.50629252    1.70422371   -4.10877751
     atom    4 type  2   force =    -6.99212529   -1.83148017   -1.72583835
     atom    5 type  2   force =     0.44201849    0.11577997    5.28424042
     atom    6 type  3   force =    -3.16190125   -0.82821162    0.75629774
     atom    7 type  3   force =    -5.71626873   -1.49728908    4.07555576
     atom    8 type  3   force =     2.51431923    0.65858743   -7.41966972
     atom    9 type  3   force =     6.57595904    1.72247179    2.76091656
     The local contribution  to forces
     atom    1 type  1   force =    -2.04396557   -0.53538730   -1.45205348
     atom    2 type  1   force =     2.06174796    0.54004241    1.07468944
     atom    3 type  2   force =    -6.58734657   -1.72544710    4.36928613
     atom    4 type  2   force =     7.05966196    1.84917448    1.52984036
     atom    5 type  2   force =    -0.38635976   -0.10120707   -5.42607917
     atom    6 type  3   force =     3.33931487    0.87468131   -0.82709920
     atom    7 type  3   force =     5.89135153    1.54315222   -4.16051490
     atom    8 type  3   force =    -2.55176227   -0.66839313    7.63754482
     atom    9 type  3   force =    -6.71659014   -1.75930924   -2.80063490
     The core correction contribution to forces
     atom    1 type  1   force =     0.00000000    0.00000000    0.00000000
     atom    2 type  1   force =     0.00000000    0.00000000    0.00000000
     atom    3 type  2   force =    -0.00620771   -0.00162567    0.01118548
     atom    4 type  2   force =     0.00216464    0.00056717   -0.00924124
     atom    5 type  2   force =    -0.00409874   -0.00107343   -0.00593820
     atom    6 type  3   force =    -0.01272360   -0.00333245    0.00478469
     atom    7 type  3   force =    -0.01235868   -0.00323738    0.00567210
     atom    8 type  3   force =     0.00141571    0.00037066   -0.01931896
     atom    9 type  3   force =     0.01066910    0.00279477    0.00818470
     The Hubbard contrib.    to forces
     atom    1 type  1   force =     0.00000000    0.00000000    0.00000000
     atom    2 type  1   force =     0.00000000    0.00000000    0.00000000
     atom    3 type  2   force =     0.00000000    0.00000000    0.00000000
     atom    4 type  2   force =     0.00000000    0.00000000    0.00000000
     atom    5 type  2   force =     0.00000000    0.00000000    0.00000000
     atom    6 type  3   force =     0.00000000    0.00000000    0.00000000
     atom    7 type  3   force =     0.00000000    0.00000000    0.00000000
     atom    8 type  3   force =     0.00000000    0.00000000    0.00000000
     atom    9 type  3   force =     0.00000000    0.00000000    0.00000000
     The SCF correction term to forces
     atom    1 type  1   force =    -0.00008177   -0.00002298    0.00013852
     atom    2 type  1   force =    -0.00018419   -0.00004796    0.00003721
     atom    3 type  2   force =     0.00005036    0.00001083   -0.00031246
     atom    4 type  2   force =     0.00022183    0.00005522    0.00018105
     atom    5 type  2   force =     0.00015140    0.00005223   -0.00017247
     atom    6 type  3   force =    -0.00006741   -0.00001918    0.00012769
     atom    7 type  3   force =    -0.00007874   -0.00002066   -0.00006320
     atom    8 type  3   force =     0.00000190   -0.00000007   -0.00000187
     atom    9 type  3   force =     0.00013137    0.00003425   -0.00008141

     Total force =     0.195260     Total SCF correction =     0.000601

     Computing stress (Cartesian axis) and pressure

          total   stress  (Ry/bohr**3)                   (kbar)     P=     -125.03
  -0.00094146  -0.00009307  -0.00005311         -138.49      -13.69       -7.81
  -0.00009307  -0.00061054  -0.00001392          -13.69      -89.81       -2.05
  -0.00005311  -0.00001392  -0.00099773           -7.81       -2.05     -146.77

     kinetic stress (kbar)   9534.94     18.58     22.78
                               18.58   9468.87      5.97
                               22.78      5.97   9537.95

     local   stress (kbar)    137.45    641.44   -946.39
                              641.44  -2143.41   -247.90
                             -946.39   -247.90    594.75

     nonloc. stress (kbar)  -5137.61     31.62      5.87
                               31.62  -5250.02      1.54
                                5.87      1.54  -5189.35

     hartree stress (kbar)   9910.27   -360.74    482.52
                             -360.74  11193.01    126.39
                              482.52    126.39   9710.02

     exc-cor stress (kbar)   1009.91      0.93      0.60
                                0.93   1006.61      0.16
                                0.60      0.16   1009.87

     corecor stress (kbar)  -4328.24      0.71     -0.24
                                0.71  -4330.76     -0.06
                               -0.24     -0.06  -4324.89

     ewald   stress (kbar) -11265.22   -346.22    427.05
                             -346.22 -10034.13    111.86
                              427.05    111.86 -11485.14

     hubbard stress (kbar)      0.00      0.00      0.00
                                0.00      0.00      0.00
                                0.00      0.00      0.00

     DFT-D   stress (kbar)      0.00      0.00      0.00
                                0.00      0.00      0.00
                                0.00      0.00      0.00

     XDM     stress (kbar)      0.00      0.00      0.00
                                0.00      0.00      0.00
                                0.00      0.00      0.00

     dft-nl  stress (kbar)      0.00      0.00      0.00
                                0.00      0.00      0.00
                                0.00      0.00      0.00

     TS-vdW  stress (kbar)      0.00      0.00      0.00
                                0.00      0.00      0.00
                                0.00      0.00      0.00

[...]

                                0.00      0.00      0.00

     Writing all to output data dir new_calculations/myprefix.save/

     General routines

     Parallel routines

   This run was terminated on:  18:37:47  20May2023

   JOB DONE.