     Program PWSCF v.7.0 starts on 21May2023 at 13: 5:20

     Reading input from espresso_20631.pwi
Warning: card &CELL ignored
Warning: card / ignored

     Current dimensions of program PWSCF are:
     Max number of different atomic species (ntypx) = 10
     Max number of k-points (npk) =  40000
     Max angular momentum in pseudopotentials (lmaxx) =  4

     gamma-point specific algorithms are used
     Message from routine setup:
     using ibrav=0 with symmetry is DISCOURAGED, use correct ibrav instead

     Subspace diagonalization in iterative solution of the eigenvalue problem:
     a serial algorithm will be used

     Using Slab Decomposition

     bravais-lattice index     =            0
     lattice parameter (alat)  =       9.2961  a.u.
     unit-cell volume          =     371.3288 (a.u.)^3
     number of atoms/cell      =            4
     number of atomic types    =            2
     number of electrons       =        60.00
     number of Kohn-Sham states=           36
     kinetic-energy cutoff     =      30.0000  Ry
     charge density cutoff     =     240.0000  Ry
     scf convergence threshold =      1.0E-06
     mixing beta               =       0.7000
     number of iterations used =            8  plain     mixing
     Exchange-correlation=  SLA  PW   PBX  PBC
                           (   1   4   3   4   0   0   0)

     celldm(1)=   9.296068  celldm(2)=   0.000000  celldm(3)=   0.000000
     celldm(4)=   0.000000  celldm(5)=   0.000000  celldm(6)=   0.000000

     crystal axes: (cart. coord. in units of alat)
               a(1) = (   1.000000   0.000000   0.000000 )
               a(2) = (  -0.824092   0.566457   0.000000 )
               a(3) = (   0.000000   0.000000   0.816007 )

     reciprocal axes: (cart. coord. in units 2 pi/alat)
               b(1) = (  1.000000  1.454818  0.000000 )
               b(2) = (  0.000000  1.765360  0.000000 )
               b(3) = (  0.000000  0.000000  1.225479 )

     PseudoPot. # 1 for Ti read from file:
     /home/pragov/projects/rrg-bengioy-ad/pragov/crystal_structure_design/SSSP/ti_pbe_v1.4.uspp.F.UPF
     MD5 check sum: 88a00a6731bd790ddea75d31a80cb452
     Pseudo is Ultrasoft + core correction, Zval = 12.0
     Generated by new atomic code, or converted to UPF format
     Using radial grid of  851 points,  6 beta functions with:
                l(1) =   0
                l(2) =   0
                l(3) =   1
                l(4) =   1
                l(5) =   2
                l(6) =   2
     Q(r) pseudized with  6 coefficients,  rinner =    1.000   1.000   1.000
                                                       1.000   1.000

     PseudoPot. # 2 for Ni read from file:
     /home/pragov/projects/rrg-bengioy-ad/pragov/crystal_structure_design/SSSP/ni_pbe_v1.4.uspp.F.UPF
     MD5 check sum: 1ee80287db30b12d2bc1f57a5b5d6409
     Pseudo is Ultrasoft + core correction, Zval = 18.0
     Generated by new atomic code, or converted to UPF format
     Using radial grid of  865 points,  6 beta functions with:
                l(1) =   0
                l(2) =   0
                l(3) =   1
                l(4) =   1
                l(5) =   2
                l(6) =   2
     Q(r) pseudized with 10 coefficients,  rinner =    0.980   0.980   0.980
                                                       0.980   0.980

     atomic species   valence    mass     pseudopotential
        Ti            12.00    47.86700     Ti( 1.00)
        Ni            18.00    58.69340     Ni( 1.00)

      4 Sym. Ops., with inversion, found ( 2 have fractional translation)

                                    s                        frac. trans.

      isym =  1     identity

 cryst.   s( 1) = (     1          0          0      )
                  (     0          1          0      )
                  (     0          0          1      )

 cart.    s( 1) = (  1.0000000 -0.0000000  0.0000000 )
                  (  0.0000000  1.0000000  0.0000000 )
                  (  0.0000000  0.0000000  1.0000000 )

      isym =  2     180 deg rotation - cart. axis [0,0,1]

 cryst.   s( 2) = (    -1          0          0      )    f =(  0.0000000 )
                  (     0         -1          0      )       (  0.0000000 )
                  (     0          0          1      )       ( -0.5000000 )

 cart.    s( 2) = ( -1.0000000  0.0000000  0.0000000 )    f =(  0.0000000 )
                  (  0.0000000 -1.0000000  0.0000000 )       (  0.0000000 )
                  (  0.0000000  0.0000000  1.0000000 )       ( -0.4080036 )

      isym =  3     inversion

 cryst.   s( 3) = (    -1          0          0      )
                  (     0         -1          0      )
                  (     0          0         -1      )

 cart.    s( 3) = ( -1.0000000  0.0000000  0.0000000 )
                  (  0.0000000 -1.0000000  0.0000000 )
                  (  0.0000000  0.0000000 -1.0000000 )

      isym =  4     inv. 180 deg rotation - cart. axis [0,0,1]

 cryst.   s( 4) = (     1          0          0      )    f =(  0.0000000 )
                  (     0          1          0      )       (  0.0000000 )
                  (     0          0         -1      )       (  0.5000000 )

 cart.    s( 4) = (  1.0000000 -0.0000000  0.0000000 )    f =(  0.0000000 )
                  (  0.0000000  1.0000000  0.0000000 )       (  0.0000000 )
                  (  0.0000000  0.0000000 -1.0000000 )       (  0.4080036 )

   Cartesian axes

     site n.     atom                  positions (alat units)
         1           Ti  tau(   1) = (  -0.1724294   0.3640883   0.2040018  )
         2           Ti  tau(   2) = (   0.3483378   0.2023683   0.6120054  )
         3           Ni  tau(   3) = (  -0.6689507   0.5182789   0.2040018  )
         4           Ni  tau(   4) = (   0.8448592   0.0481777   0.6120054  )

   Crystallographic axes

     site n.     atom                  positions (cryst. coord.)
         1           Ti  tau(   1) = (  0.3572530  0.6427470  0.2500000  )
         2           Ti  tau(   2) = (  0.6427470  0.3572530  0.7500000  )
         3           Ni  tau(   3) = (  0.0850510  0.9149490  0.2500000  )
         4           Ni  tau(   4) = (  0.9149490  0.0850510  0.7500000  )

     number of k points=     1  Methfessel-Paxton smearing, width (Ry)=  0.0010
                       cart. coord. in units 2pi/alat
        k(    1) = (   0.0000000   0.0000000   0.0000000), wk =   2.0000000

                       cryst. coord.
        k(    1) = (   0.0000000   0.0000000   0.0000000), wk =   2.0000000

     Check: negative core charge=   -0.000012

     Initial potential from superposition of free atoms

     starting charge      53.9999, renormalised to      60.0000

     negative rho (up, down):  3.755E-03 0.000E+00
     Starting wfcs are   46 randomized atomic wfcs

     Self-consistent Calculation

     iteration #  1     ecut=    30.00 Ry     beta= 0.70
     Davidson diagonalization with overlap

     ethr =  1.00E-02,  avg # of iterations =  6.0

     total energy              =    -828.79917212 Ry
     estimated scf accuracy    <     139.54019725 Ry

[...]

     negative rho (up, down):  8.095E-04 0.000E+00

[...]

     total energy              =    -925.08031341 Ry
     estimated scf accuracy    <       0.00001551 Ry

     iteration # 27     ecut=    30.00 Ry     beta= 0.70
     Davidson diagonalization with overlap

     ethr =  2.59E-08,  avg # of iterations =  2.0

[...]

     End of self-consistent calculation

          k = 0.0000 0.0000 0.0000 (   524 PWs)   bands (ev):

   -87.6299 -87.6216 -48.3755 -48.3399 -47.8296 -47.7835 -47.7688 -47.7446
   -41.1786 -41.1450 -17.5727 -17.5312 -17.4147 -17.4069 -17.1583 -17.1269
     8.0626  11.8217  12.1640  12.2046  12.5901  13.4647  13.7691  13.9250
    14.2498  14.2962  14.3711  14.6482  15.1472  16.0758  16.3070  16.4749
    17.2508  17.5659  17.8410  18.1032

     occupation numbers
     1.0000   1.0000   1.0000   1.0000   1.0000   1.0000   1.0000   1.0000
     1.0000   1.0000   1.0000   1.0000   1.0000   1.0000   1.0000   1.0000
     1.0000   1.0000   1.0000   1.0000   1.0000   1.0000   1.0000   1.0000
     1.0000   1.0000   1.0000   1.0000   1.0000   1.0000  -0.0000  -0.0000
    -0.0000  -0.0000  -0.0000  -0.0000

     the Fermi energy is    16.1688 ev

!    total energy              =    -925.08031373 Ry
     estimated scf accuracy    <       0.00000091 Ry
     smearing contrib. (-TS)   =       0.00000000 Ry
     internal energy E=F+TS    =    -925.08031373 Ry

     The total energy is F=E-TS. E is the sum of the following terms:
     one-electron contribution =    -543.55540473 Ry
     hartree contribution      =     301.98064900 Ry
     xc contribution           =    -107.32548984 Ry
     ewald contribution        =    -576.18006817 Ry

     convergence has been achieved in  27 iterations

     negative rho (up, down):  2.157E-03 0.000E+00

     Forces acting on atoms (cartesian axes, Ry/au):

     atom    1 type  1   force =    -0.04168795    0.01294588    0.00000000
     atom    2 type  1   force =     0.04168795   -0.01294588    0.00000000
     atom    3 type  2   force =     0.08001878   -0.02484829   -0.00000000
     atom    4 type  2   force =    -0.08001878    0.02484829   -0.00000000
     The non-local contrib.  to forces
     atom    1 type  1   force =     0.16985768   -0.05274772   -0.00000000
     atom    2 type  1   force =    -0.16985768    0.05274772    0.00000000
     atom    3 type  2   force =     0.00636230   -0.00197512    0.00000000
     atom    4 type  2   force =    -0.00636230    0.00197512    0.00000000
     The ionic contribution  to forces
     atom    1 type  1   force =   -10.98466614    3.41119778    0.00000000
     atom    2 type  1   force =    10.98466614   -3.41119778   -0.00000000
     atom    3 type  2   force =    14.05988323   -4.36618117    0.00000000
     atom    4 type  2   force =   -14.05988323    4.36618117   -0.00000000
     The local contribution  to forces
     atom    1 type  1   force =    10.78943207   -3.35056952    0.00001302
     atom    2 type  1   force =   -10.78887942    3.35039876   -0.00011681
     atom    3 type  2   force =   -13.98908129    4.34419481    0.00013007
     atom    4 type  2   force =    13.98796117   -4.34384478   -0.00010762
     The core correction contribution to forces
     atom    1 type  1   force =    -0.01519986    0.00472019   -0.00000217
     atom    2 type  1   force =     0.01520905   -0.00472300   -0.00000370
     atom    3 type  2   force =     0.00102972   -0.00031983    0.00000123
     atom    4 type  2   force =    -0.00102782    0.00031915    0.00000093
     The Hubbard contrib.    to forces
     atom    1 type  1   force =     0.00000000    0.00000000    0.00000000
     atom    2 type  1   force =     0.00000000    0.00000000    0.00000000
     atom    3 type  2   force =     0.00000000    0.00000000    0.00000000
     atom    4 type  2   force =     0.00000000    0.00000000    0.00000000
     The SCF correction term to forces
     atom    1 type  1   force =    -0.00109138    0.00033918   -0.00003966
     atom    2 type  1   force =     0.00057017   -0.00017754    0.00010459
     atom    3 type  2   force =     0.00196282   -0.00061003   -0.00011477
     atom    4 type  2   force =    -0.00056860    0.00017458    0.00014700

     Total force =     0.133611     Total SCF correction =     0.002508

     Computing stress (Cartesian axis) and pressure

     negative rho (up, down):  2.157E-03 0.000E+00
          total   stress  (Ry/bohr**3)                   (kbar)     P=     -819.43
  -0.00287207  -0.00123314   0.00000000         -422.50     -181.40        0.00
  -0.00123314  -0.00646004   0.00000000         -181.40     -950.30        0.00
   0.00000000   0.00000000  -0.00737898            0.00        0.00    -1085.49

     kinetic stress (kbar)  38692.48     92.79      0.00
                               92.79  38962.47      0.00
                                0.00      0.00  37798.91

     local   stress (kbar)   7214.70  -3837.01     -0.02
                            -3837.01  -3949.59      0.01
                               -0.02      0.01 -19810.54

     nonloc. stress (kbar)  15975.93    -88.79      0.00
                              -88.79  15717.60      0.00
                                0.00      0.00  15236.63

     hartree stress (kbar)  33836.08   2038.10      0.00
                             2038.10  39766.22     -0.00
                                0.00     -0.00  46029.92

     exc-cor stress (kbar)  -8899.32      4.44      0.00
                                4.44  -8886.39     -0.00
                                0.00     -0.00  -8898.56

     corecor stress (kbar)  -4334.52      2.58     -0.00
                                2.58  -4327.00      0.00
                               -0.00      0.00  -4324.64

     ewald   stress (kbar) -82907.85   1606.47     -0.00
                             1606.47 -78233.61     -0.00
                               -0.00     -0.00 -67117.21

     hubbard stress (kbar)      0.00      0.00      0.00
                                0.00      0.00      0.00
                                0.00      0.00      0.00

     DFT-D   stress (kbar)      0.00      0.00      0.00
                                0.00      0.00      0.00
                                0.00      0.00      0.00

     XDM     stress (kbar)      0.00      0.00      0.00
                                0.00      0.00      0.00
                                0.00      0.00      0.00

     dft-nl  stress (kbar)      0.00      0.00      0.00
                                0.00      0.00      0.00
                                0.00      0.00      0.00

     TS-vdW  stress (kbar)      0.00      0.00      0.00
                                0.00      0.00      0.00
                                0.00      0.00      0.00

[...]

                                0.00      0.00      0.00

     Writing all to output data dir new_calculations/myprefix.save/

     General routines

     Parallel routines

   This run was terminated on:  13: 5:31  21May2023

   JOB DONE.