     Program PWSCF v.7.0 starts on 21May2023 at 15:54:32

     Reading input from espresso_21042.pwi
Warning: card &CELL ignored
Warning: card / ignored

     Current dimensions of program PWSCF are:
     Max number of different atomic species (ntypx) = 10
     Max number of k-points (npk) =  40000
     Max angular momentum in pseudopotentials (lmaxx) =  4
     file Ga.pbe-dn-kjpaw_psl.1.0.0.UPF: wavefunction(s)  4S renormalized

     gamma-point specific algorithms are used
     Message from routine setup:
     using ibrav=0 with symmetry is DISCOURAGED, use correct ibrav instead

     Subspace diagonalization in iterative solution of the eigenvalue problem:
     a serial algorithm will be used

     Using Slab Decomposition

     bravais-lattice index     =            0
     lattice parameter (alat)  =       8.3354  a.u.
     unit-cell volume          =    1144.9781 (a.u.)^3
     number of atoms/cell      =            8
     number of atomic types    =            3
     number of electrons       =       126.00
     number of Kohn-Sham states=           76
     kinetic-energy cutoff     =      30.0000  Ry
     charge density cutoff     =     240.0000  Ry
     scf convergence threshold =      1.0E-06
     mixing beta               =       0.7000
     number of iterations used =            8  plain     mixing
     Exchange-correlation= PBE
                           (   1   4   3   4   0   0   0)

     celldm(1)=   8.335446  celldm(2)=   0.000000  celldm(3)=   0.000000
     celldm(4)=   0.000000  celldm(5)=   0.000000  celldm(6)=   0.000000

     crystal axes: (cart. coord. in units of alat)
               a(1) = (   1.000000   0.000000   0.000000 )
               a(2) = (   0.000000   1.000000   0.000000 )
               a(3) = (   0.000000   0.000000   1.977018 )

     reciprocal axes: (cart. coord. in units 2 pi/alat)
               b(1) = (  1.000000  0.000000  0.000000 )
               b(2) = (  0.000000  1.000000  0.000000 )
               b(3) = (  0.000000  0.000000  0.505812 )

     PseudoPot. # 1 for Eu read from file:
     /home/pragov/projects/rrg-bengioy-ad/pragov/crystal_structure_design/SSSP/Eu.GGA-PBE-paw-v1.0.UPF
     MD5 check sum: acec5fd9176fb57ec8e299eae1ecaf48
     Pseudo is Projector augmented-wave + core cor, Zval = 17.0
     Generated using ATOMPAW code
     Shape of augmentation charge: BESSEL
     Using radial grid of 1109 points,  8 beta functions with:
                l(1) =   0
                l(2) =   0
                l(3) =   1
                l(4) =   1
                l(5) =   2
                l(6) =   2
                l(7) =   3
                l(8) =   3
     Q(r) pseudized with 0 coefficients

     PseudoPot. # 2 for Ga read from file:
     /home/pragov/projects/rrg-bengioy-ad/pragov/crystal_structure_design/SSSP/Ga.pbe-dn-kjpaw_psl.1.0.0.UPF
     MD5 check sum: a27b4342b1af7e5f338de752e9ed7044
     Pseudo is Projector augmented-wave + core cor, Zval = 13.0
     Generated using "atomic" code by A. Dal Corso  v.5.1
     Shape of augmentation charge: PSQ
     Using radial grid of 1205 points,  6 beta functions with:
                l(1) =   0
                l(2) =   0
                l(3) =   1
                l(4) =   1
                l(5) =   2
                l(6) =   2
     Q(r) pseudized with 0 coefficients

     PseudoPot. # 3 for Au read from file:
     /home/pragov/projects/rrg-bengioy-ad/pragov/crystal_structure_design/SSSP/Au_ONCV_PBE-1.0.oncvpsp.upf
     MD5 check sum: d14007822ba0e19f0206237467fc06c2
     Pseudo is Norm-conserving, Zval = 19.0
     Generated using ONCVPSP code by D. R. Hamann
     Using radial grid of 1278 points,  8 beta functions with:
                l(1) =   0
                l(2) =   0
                l(3) =   1
                l(4) =   1
                l(5) =   2
                l(6) =   2
                l(7) =   3
                l(8) =   3

     atomic species   valence    mass     pseudopotential
        Eu            17.00   151.96400     Eu( 1.00)
        Ga            13.00    69.72300     Ga( 1.00)
        Au            19.00   196.96657     Au( 1.00)

     16 Sym. Ops., with inversion, found

                                    s                        frac. trans.

      isym =  1     identity

 cryst.   s( 1) = (     1          0          0      )
                  (     0          1          0      )
                  (     0          0          1      )

 cart.    s( 1) = (  1.0000000  0.0000000  0.0000000 )
                  (  0.0000000  1.0000000  0.0000000 )
                  (  0.0000000  0.0000000  1.0000000 )

      isym =  2     180 deg rotation - cart. axis [0,0,1]

[...]

      isym =  8      90 deg rotation - cart. axis [0,0,1]

[...]

      isym =  9     inversion

 cryst.   s( 9) = (    -1          0          0      )
                  (     0         -1          0      )
                  (     0          0         -1      )

 cart.    s( 9) = ( -1.0000000  0.0000000  0.0000000 )
                  (  0.0000000 -1.0000000  0.0000000 )
                  (  0.0000000  0.0000000 -1.0000000 )

      isym = 10     inv. 180 deg rotation - cart. axis [0,0,1]

 cryst.   s(10) = (     1          0          0      )
                  (     0          1          0      )
                  (     0          0         -1      )

 cart.    s(10) = (  1.0000000  0.0000000  0.0000000 )
                  (  0.0000000  1.0000000  0.0000000 )
                  (  0.0000000  0.0000000 -1.0000000 )

[...]

      isym = 16     inv.  90 deg rotation - cart. axis [0,0,1]

 cryst.   s(16) = (     0         -1          0      )
                  (     1          0          0      )
                  (     0          0         -1      )

 cart.    s(16) = (  0.0000000  1.0000000  0.0000000 )
                  ( -1.0000000  0.0000000  0.0000000 )
                  (  0.0000000  0.0000000 -1.0000000 )

   Cartesian axes

     site n.     atom                  positions (alat units)
         1           Eu  tau(   1) = (   0.0000000   0.0000000   0.9885091  )
         2           Ga  tau(   2) = (   0.0000000   0.5000000   0.3467057  )
         3           Ga  tau(   3) = (   0.0000000   0.5000000   1.6303125  )
         4           Ga  tau(   4) = (   0.5000000   0.0000000   0.3467057  )
         5           Ga  tau(   5) = (   0.5000000   0.0000000   1.6303125  )
         6           Au  tau(   6) = (   0.5000000   0.5000000   0.6763498  )
         7           Au  tau(   7) = (   0.5000000   0.5000000   1.3006684  )
         8           Au  tau(   8) = (   0.0000000   0.0000000   0.0000000  )

   Crystallographic axes

     site n.     atom                  positions (cryst. coord.)
         1           Eu  tau(   1) = (  0.0000000  0.0000000  0.5000000  )
         2           Ga  tau(   2) = (  0.0000000  0.5000000  0.1753680  )
         3           Ga  tau(   3) = (  0.0000000  0.5000000  0.8246320  )
         4           Ga  tau(   4) = (  0.5000000  0.0000000  0.1753680  )
         5           Ga  tau(   5) = (  0.5000000  0.0000000  0.8246320  )
         6           Au  tau(   6) = (  0.5000000  0.5000000  0.3421060  )
         7           Au  tau(   7) = (  0.5000000  0.5000000  0.6578940  )
         8           Au  tau(   8) = (  0.0000000  0.0000000  0.0000000  )

     number of k points=     1  Methfessel-Paxton smearing, width (Ry)=  0.0010
                       cart. coord. in units 2pi/alat
        k(    1) = (   0.0000000   0.0000000   0.0000000), wk =   2.0000000

                       cryst. coord.
        k(    1) = (   0.0000000   0.0000000   0.0000000), wk =   2.0000000

     Check: negative core charge=   -0.000002

     Initial potential from superposition of free atoms

     starting charge     125.9832, renormalised to     126.0000
     Starting wfcs are   98 randomized atomic wfcs
     Checking if some PAW data can be deallocated...

     Self-consistent Calculation

     iteration #  1     ecut=    30.00 Ry     beta= 0.70
     Davidson diagonalization with overlap

     ethr =  1.00E-02,  avg # of iterations =  3.0

     total energy              =   -2532.38927970 Ry
     estimated scf accuracy    <      38.08627453 Ry

[...]

     negative rho (up, down):  1.094E-05 0.000E+00

[...]

     ethr =  3.35E-04,  avg # of iterations =  1.0
     Minimization algorithm failed to find Fermi energy: reverting to bisection
     Possible cause: smearing is larger than the electronic band-gap.

[...]

     ethr =  3.35E-04,  avg # of iterations =  1.0
     Minimization algorithm failed to find Fermi energy: reverting to bisection
     Possible cause: smearing is larger than the electronic band-gap.

[...]

     total energy              =   -2576.84800015 Ry
     estimated scf accuracy    <       0.00000185 Ry

     iteration # 46     ecut=    30.00 Ry     beta= 0.70
     Davidson diagonalization with overlap

     ethr =  8.38E-10,  avg # of iterations =  2.0

     End of self-consistent calculation

          k = 0.0000 0.0000 0.0000 (  1587 PWs)   bands (ev):

   -94.4381 -94.3690 -94.3651 -45.4934 -45.4161 -45.4161 -45.4127 -45.4127
   -45.4066 -45.4066 -45.3788 -45.2870 -28.3114  -7.3645  -7.2416  -7.2415
    -1.1920  -1.1831  -1.1660  -1.1585  -1.1494  -1.1419  -1.1419  -1.1061
    -1.1061  -1.0894  -1.0794  -1.0594  -1.0594  -1.0339  -1.0339  -1.0005
    -0.9995  -0.9656  -0.9020  -0.8989   2.9788   4.6734   6.2940   6.4897
     7.0974   7.1763   7.1960   7.3603   7.3603   7.4154   7.4155   7.8236
     8.0963   8.2047   8.2313   8.4206   8.4206   8.5339  11.7918  11.7919
    12.2164  12.6920  12.7927  12.8582  13.0998  13.2266  13.2266  13.4101
    13.4101  13.4464  13.4465  13.5156  13.7454  14.1707  15.2897  16.6610
    16.8795  16.8795  17.2237  17.2237

     occupation numbers
     1.0000   1.0000   1.0000   1.0000   1.0000   1.0000   1.0000   1.0000
     1.0000   1.0000   1.0000   1.0000   1.0000   1.0000   1.0000   1.0000
     1.0000   1.0000   1.0000   1.0000   1.0000   1.0000   1.0000   1.0000
     1.0000   1.0000   1.0000   1.0000   1.0000   1.0000   1.0000   1.0000
     1.0000   1.0000   1.0000   1.0000   1.0000   1.0000   1.0000   1.0000
     1.0000   1.0000   1.0000   1.0000   1.0000   1.0000   1.0000   1.0000
     1.0000   1.0000   1.0000   1.0000   1.0000   1.0000   1.0000   1.0000
     1.0000   1.0000   1.0000   1.0000   1.0000   1.0000   1.0000  -0.0000
    -0.0000  -0.0000  -0.0000  -0.0000  -0.0000  -0.0000  -0.0000  -0.0000
    -0.0000  -0.0000  -0.0000  -0.0000

     the Fermi energy is    13.3153 ev

!    total energy              =   -2576.84800015 Ry
     estimated scf accuracy    <       0.00000008 Ry
     smearing contrib. (-TS)   =       0.00000000 Ry
     internal energy E=F+TS    =   -2576.84800015 Ry

     The total energy is F=E-TS. E is the sum of the following terms:
     one-electron contribution =    -864.14634462 Ry
     hartree contribution      =     516.21211048 Ry
     xc contribution           =    -248.69134220 Ry
     ewald contribution        =   -1079.47236884 Ry
     one-center paw contrib.   =    -900.75005496 Ry
      -> PAW hartree energy AE =     729.21227532 Ry
      -> PAW hartree energy PS =    -713.02559320 Ry
      -> PAW xc energy AE      =   -1087.22757533 Ry
      -> PAW xc energy PS      =     170.29083825 Ry
      -> total E_H with PAW    =     532.39879260 Ry
      -> total E_XC with PAW   =   -1165.62807929 Ry

     convergence has been achieved in  46 iterations

     Forces acting on atoms (cartesian axes, Ry/au):

     atom    1 type  1   force =     0.00000000    0.00000000    0.00000000
     atom    2 type  2   force =     0.00000000    0.00000000   -0.04042155
     atom    3 type  2   force =     0.00000000    0.00000000    0.04042155
     atom    4 type  2   force =     0.00000000    0.00000000   -0.04042155
     atom    5 type  2   force =     0.00000000    0.00000000    0.04042155
     atom    6 type  3   force =     0.00000000    0.00000000    0.14916275
     atom    7 type  3   force =     0.00000000    0.00000000   -0.14916275
     atom    8 type  3   force =     0.00000000    0.00000000    0.00000000
     The non-local contrib.  to forces
     atom    1 type  1   force =     0.00000000    0.00000000    0.00000000
     atom    2 type  2   force =     0.00000000    0.00000000    0.08404228
     atom    3 type  2   force =     0.00000000    0.00000000   -0.08404228
     atom    4 type  2   force =     0.00000000    0.00000000    0.08404228
     atom    5 type  2   force =     0.00000000    0.00000000   -0.08404228
     atom    6 type  3   force =     0.00000000    0.00000000   -0.20404235
     atom    7 type  3   force =     0.00000000    0.00000000    0.20404235
     atom    8 type  3   force =     0.00000000    0.00000000    0.00000000
     The ionic contribution  to forces
     atom    1 type  1   force =    -0.00000000   -0.00000000    0.00000000
     atom    2 type  2   force =    -0.00000000   -0.00000000    3.74450478
     atom    3 type  2   force =     0.00000000   -0.00000000   -3.74450478
     atom    4 type  2   force =    -0.00000000    0.00000000    3.74450478
     atom    5 type  2   force =    -0.00000000    0.00000000   -3.74450478
     atom    6 type  3   force =    -0.00000000   -0.00000000    9.00335507
     atom    7 type  3   force =     0.00000000    0.00000000   -9.00335507
     atom    8 type  3   force =     0.00000000    0.00000000   -0.00000000
     The local contribution  to forces
     atom    1 type  1   force =     0.00026089    0.00016505    0.00072783
     atom    2 type  2   force =     0.00003714    0.00001420   -3.87083190
     atom    3 type  2   force =     0.00002218    0.00000540    3.87081823
     atom    4 type  2   force =     0.00000363    0.00001971   -3.87087494
     atom    5 type  2   force =    -0.00000779    0.00000951    3.87086684
     atom    6 type  3   force =    -0.00009133   -0.00001016   -8.65099562
     atom    7 type  3   force =    -0.00004171   -0.00000358    8.65083854
     atom    8 type  3   force =     0.00000465   -0.00001905    0.00012434
     The core correction contribution to forces
     atom    1 type  1   force =     0.00000001    0.00000000    0.00000002
     atom    2 type  2   force =     0.00000055    0.00000041    0.00106815
     atom    3 type  2   force =     0.00000034    0.00000029   -0.00106801
     atom    4 type  2   force =     0.00000044    0.00000046    0.00106744
     atom    5 type  2   force =     0.00000010    0.00000011   -0.00106703
     atom    6 type  3   force =     0.00000000    0.00000000    0.00000000
     atom    7 type  3   force =     0.00000000    0.00000000    0.00000000
     atom    8 type  3   force =     0.00000000    0.00000000    0.00000000
     The Hubbard contrib.    to forces
     atom    1 type  1   force =     0.00000000    0.00000000    0.00000000
     atom    2 type  2   force =     0.00000000    0.00000000    0.00000000
     atom    3 type  2   force =     0.00000000    0.00000000    0.00000000
     atom    4 type  2   force =     0.00000000    0.00000000    0.00000000
     atom    5 type  2   force =     0.00000000    0.00000000    0.00000000
     atom    6 type  3   force =     0.00000000    0.00000000    0.00000000
     atom    7 type  3   force =     0.00000000    0.00000000    0.00000000
     atom    8 type  3   force =     0.00000000    0.00000000    0.00000000
     The SCF correction term to forces
     atom    1 type  1   force =    -0.00024430   -0.00015897   -0.00054056
     atom    2 type  2   force =    -0.00005954   -0.00001813    0.00081488
     atom    3 type  2   force =    -0.00003001   -0.00000436   -0.00078767
     atom    4 type  2   force =    -0.00000441   -0.00003712    0.00082105
     atom    5 type  2   force =     0.00001709   -0.00001653   -0.00082326
     atom    6 type  3   force =     0.00010236    0.00002348    0.00085359
     atom    7 type  3   force =     0.00004634    0.00001229   -0.00068064
     atom    8 type  3   force =    -0.00000109    0.00002119   -0.00011796

     Total force =     0.225909     Total SCF correction =     0.002059

     Computing stress (Cartesian axis) and pressure

          total   stress  (Ry/bohr**3)                   (kbar)     P=     -157.83
  -0.00125558   0.00000000   0.00000000         -184.70        0.00        0.00
   0.00000000  -0.00125558   0.00000000            0.00     -184.70        0.00
   0.00000000   0.00000000  -0.00070758            0.00        0.00     -104.09

     kinetic stress (kbar)  27963.13      0.00      0.00
                                0.00  27963.13      0.00
                                0.00      0.00  28077.68

     local   stress (kbar)  -2428.45      0.01     -0.00
                                0.01  -2428.58      0.00
                               -0.00      0.00  -1591.42

     nonloc. stress (kbar)   6036.59      0.00      0.00
                                0.00   6036.59      0.00
                                0.00      0.00   6032.59

     hartree stress (kbar)  22328.93     -0.01      0.00
                               -0.01  22328.96     -0.00
                                0.00     -0.00  21664.26

     exc-cor stress (kbar)   -457.12     -0.00      0.00
                               -0.00   -457.12      0.00
                                0.00      0.00   -455.66

     corecor stress (kbar)  -7466.24     -0.00      0.00
                               -0.00  -7466.24      0.00
                                0.00      0.00  -7465.54

     ewald   stress (kbar) -46161.50     -0.00     -0.00
                               -0.00 -46161.50     -0.00
                               -0.00     -0.00 -46366.00

     hubbard stress (kbar)      0.00      0.00      0.00
                                0.00      0.00      0.00
                                0.00      0.00      0.00

     DFT-D   stress (kbar)      0.00      0.00      0.00
                                0.00      0.00      0.00
                                0.00      0.00      0.00

     XDM     stress (kbar)      0.00      0.00      0.00
                                0.00      0.00      0.00
                                0.00      0.00      0.00

     dft-nl  stress (kbar)      0.00      0.00      0.00
                                0.00      0.00      0.00
                                0.00      0.00      0.00

     TS-vdW  stress (kbar)      0.00      0.00      0.00
                                0.00      0.00      0.00
                                0.00      0.00      0.00

[...]

                                0.00      0.00      0.00

     Writing all to output data dir new_calculations/myprefix.save/

     General routines

     Parallel routines

     PAW routines

   This run was terminated on:  15:55:41  21May2023

   JOB DONE.