     Program PWSCF v.7.0 starts on 21May2023 at  3:15: 7

     Reading input from espresso_17817.pwi
Warning: card &CELL ignored
Warning: card / ignored

     Current dimensions of program PWSCF are:
     Max number of different atomic species (ntypx) = 10
     Max number of k-points (npk) =  40000
     Max angular momentum in pseudopotentials (lmaxx) =  4
     file O.pbe-n-kjpaw_psl.0.1.UPF: wavefunction(s)  2P renormalized

     gamma-point specific algorithms are used
     Message from routine setup:
     using ibrav=0 with symmetry is DISCOURAGED, use correct ibrav instead

     Subspace diagonalization in iterative solution of the eigenvalue problem:
     a serial algorithm will be used

     Using Slab Decomposition

     bravais-lattice index     =            0
     lattice parameter (alat)  =      10.6236  a.u.
     unit-cell volume          =    1707.5404 (a.u.)^3
     number of atoms/cell      =           20
     number of atomic types    =            3
     number of electrons       =       172.00
     number of Kohn-Sham states=          103
     kinetic-energy cutoff     =      30.0000  Ry
     charge density cutoff     =     240.0000  Ry
     scf convergence threshold =      1.0E-06
     mixing beta               =       0.7000
     number of iterations used =            8  plain     mixing
     Exchange-correlation= SLA  PW   PBX  PBC
                           (   1   4   3   4   0   0   0)

     celldm(1)=  10.623613  celldm(2)=   0.000000  celldm(3)=   0.000000
     celldm(4)=   0.000000  celldm(5)=   0.000000  celldm(6)=   0.000000

     crystal axes: (cart. coord. in units of alat)
               a(1) = (   1.000000   0.000000   0.000000 )
               a(2) = (   0.000000   1.006258   0.000000 )
               a(3) = (   0.000000   0.000000   1.415288 )

     reciprocal axes: (cart. coord. in units 2 pi/alat)
               b(1) = (  1.000000  0.000000  0.000000 )
               b(2) = (  0.000000  0.993781  0.000000 )
               b(3) = (  0.000000  0.000000  0.706570 )

     PseudoPot. # 1 for Sr read from file:
     /home/pragov/projects/rrg-bengioy-ad/pragov/crystal_structure_design/SSSP/Sr_pbe_v1.uspp.F.UPF
     MD5 check sum: 6b418c05fbe9db5448babca5e47b7a5b
     Pseudo is Ultrasoft + core correction, Zval = 10.0
     Generated by new atomic code, or converted to UPF format
     Using radial grid of  883 points,  6 beta functions with:
                l(1) =   0
                l(2) =   0
                l(3) =   1
                l(4) =   1
                l(5) =   2
                l(6) =   2
     Q(r) pseudized with  6 coefficients,  rinner =    1.400   1.400   1.400
                                                       1.400   1.400

     PseudoPot. # 2 for Tc read from file:
     /home/pragov/projects/rrg-bengioy-ad/pragov/crystal_structure_design/SSSP/Tc_ONCV_PBE-1.0.oncvpsp.upf
     MD5 check sum: 1c2b1e6c8b361b656073c0c20ed4f60a
     Pseudo is Norm-conserving, Zval = 15.0
     Generated using ONCVPSP code by D. R. Hamann
     Using radial grid of 1492 points,  6 beta functions with:
                l(1) =   0
                l(2) =   0
                l(3) =   1
                l(4) =   1
                l(5) =   2
                l(6) =   2

     PseudoPot. # 3 for O  read from file:
     /home/pragov/projects/rrg-bengioy-ad/pragov/crystal_structure_design/SSSP/O.pbe-n-kjpaw_psl.0.1.UPF
     MD5 check sum: 0234752ac141de4415c5fc33072bef88
     Pseudo is Projector augmented-wave + core cor, Zval =  6.0
     Generated using "atomic" code by A. Dal Corso  v.5.0.99 svn rev. 10869
     Shape of augmentation charge: BESSEL
     Using radial grid of 1095 points,  4 beta functions with:
                l(1) =   0
                l(2) =   0
                l(3) =   1
                l(4) =   1
     Q(r) pseudized with 0 coefficients

     atomic species   valence    mass     pseudopotential
        Sr            10.00    87.62000     Sr( 1.00)
        Tc            15.00    97.90721     Tc( 1.00)
        O              6.00    15.99900     O ( 1.00)

      8 Sym. Ops., with inversion, found ( 6 have fractional translation)

                                    s                        frac. trans.

      isym =  1     identity

 cryst.   s( 1) = (     1          0          0      )
                  (     0          1          0      )
                  (     0          0          1      )

 cart.    s( 1) = (  1.0000000  0.0000000  0.0000000 )
                  (  0.0000000  1.0000000  0.0000000 )
                  (  0.0000000  0.0000000  1.0000000 )

      isym =  2     180 deg rotation - cart. axis [0,0,1]

 cryst.   s( 2) = (    -1          0          0      )    f =(  0.0000000 )
                  (     0         -1          0      )       ( -0.0000000 )
                  (     0          0          1      )       (  0.5000000 )

 cart.    s( 2) = ( -1.0000000  0.0000000  0.0000000 )    f =(  0.0000000 )
                  (  0.0000000 -1.0000000  0.0000000 )       ( -0.0000000 )
                  (  0.0000000  0.0000000  1.0000000 )       (  0.7076442 )

[...]

      isym =  4     180 deg rotation - cart. axis [1,0,0]

[...]

      isym =  5     inversion

 cryst.   s( 5) = (    -1          0          0      )
                  (     0         -1          0      )
                  (     0          0         -1      )

 cart.    s( 5) = ( -1.0000000  0.0000000  0.0000000 )
                  (  0.0000000 -1.0000000  0.0000000 )
                  (  0.0000000  0.0000000 -1.0000000 )

      isym =  6     inv. 180 deg rotation - cart. axis [0,0,1]

[...]

      isym =  8     inv. 180 deg rotation - cart. axis [1,0,0]

 cryst.   s( 8) = (    -1          0          0      )    f =( -0.5000000 )
                  (     0          1          0      )       ( -0.5000000 )
                  (     0          0          1      )       (  0.5000000 )

 cart.    s( 8) = ( -1.0000000  0.0000000  0.0000000 )    f =( -0.5000000 )
                  (  0.0000000  1.0000000  0.0000000 )       ( -0.5031289 )
                  (  0.0000000  0.0000000  1.0000000 )       (  0.7076442 )

   Cartesian axes

     site n.     atom                  positions (alat units)
         1           Sr  tau(   1) = (   0.4955140   0.0023516   1.0614664  )
         2           Sr  tau(   2) = (   0.9955140   0.5007773   1.0614664  )
         3           Sr  tau(   3) = (   0.5044860   1.0039062   0.3538221  )
         4           Sr  tau(   4) = (   0.0044860   0.5054805   0.3538221  )
         5           Tc  tau(   5) = (   0.5000000   0.5031289   0.7076442  )
         6           Tc  tau(   6) = (   0.0000000   0.0000000   0.0000000  )
         7           Tc  tau(   7) = (   0.5000000   0.5031289   0.0000000  )
         8           Tc  tau(   8) = (   0.0000000   0.0000000   0.7076442  )
         9           O   tau(   9) = (   0.0023060   0.9586316   1.0614664  )
        10           O   tau(  10) = (   0.5023060   0.5507551   1.0614664  )
        11           O   tau(  11) = (   0.9976940   0.0476262   0.3538221  )
        12           O   tau(  12) = (   0.4976940   0.4555027   0.3538221  )
        13           O   tau(  13) = (   0.7405800   0.2410883   0.7430081  )
        14           O   tau(  14) = (   0.2405800   0.2620406   1.3799247  )
        15           O   tau(  15) = (   0.2594200   0.7651695   0.0353638  )
        16           O   tau(  16) = (   0.7594200   0.7442172   0.6722804  )
        17           O   tau(  17) = (   0.2594200   0.7651695   0.6722804  )
        18           O   tau(  18) = (   0.7594200   0.7442172   0.0353638  )
        19           O   tau(  19) = (   0.7405800   0.2410883   1.3799247  )
        20           O   tau(  20) = (   0.2405800   0.2620406   0.7430081  )

   Crystallographic axes

     site n.     atom                  positions (cryst. coord.)
         1           Sr  tau(   1) = (  0.4955140  0.0023370  0.7500000  )
         2           Sr  tau(   2) = (  0.9955140  0.4976630  0.7500000  )
         3           Sr  tau(   3) = (  0.5044860  0.9976630  0.2500000  )
         4           Sr  tau(   4) = (  0.0044860  0.5023370  0.2500000  )
         5           Tc  tau(   5) = (  0.5000000  0.5000000  0.5000000  )
         6           Tc  tau(   6) = (  0.0000000  0.0000000  0.0000000  )
         7           Tc  tau(   7) = (  0.5000000  0.5000000  0.0000000  )
         8           Tc  tau(   8) = (  0.0000000  0.0000000  0.5000000  )
         9           O   tau(   9) = (  0.0023060  0.9526700  0.7500000  )
        10           O   tau(  10) = (  0.5023060  0.5473300  0.7500000  )
        11           O   tau(  11) = (  0.9976940  0.0473300  0.2500000  )
        12           O   tau(  12) = (  0.4976940  0.4526700  0.2500000  )
        13           O   tau(  13) = (  0.7405800  0.2395890  0.5249870  )
        14           O   tau(  14) = (  0.2405800  0.2604110  0.9750130  )
        15           O   tau(  15) = (  0.2594200  0.7604110  0.0249870  )
        16           O   tau(  16) = (  0.7594200  0.7395890  0.4750130  )
        17           O   tau(  17) = (  0.2594200  0.7604110  0.4750130  )
        18           O   tau(  18) = (  0.7594200  0.7395890  0.0249870  )
        19           O   tau(  19) = (  0.7405800  0.2395890  0.9750130  )
        20           O   tau(  20) = (  0.2405800  0.2604110  0.5249870  )

     number of k points=     1  Methfessel-Paxton smearing, width (Ry)=  0.0010
                       cart. coord. in units 2pi/alat
        k(    1) = (   0.0000000   0.0000000   0.0000000), wk =   2.0000000

                       cryst. coord.
        k(    1) = (   0.0000000   0.0000000   0.0000000), wk =   2.0000000

     Check: negative core charge=   -0.000014

     Initial potential from superposition of free atoms

     starting charge     171.8625, renormalised to     172.0000

     negative rho (up, down):  2.518E-01 0.000E+00
     Starting wfcs are  140 randomized atomic wfcs
     Checking if some PAW data can be deallocated...

     Self-consistent Calculation

     iteration #  1     ecut=    30.00 Ry     beta= 0.70
     Davidson diagonalization with overlap

     ethr =  1.00E-02,  avg # of iterations =  2.0

     negative rho (up, down):  2.569E-01 0.000E+00

     total energy              =   -1423.27113524 Ry
     estimated scf accuracy    <       5.04953131 Ry

[...]

     total energy              =   -1425.94513972 Ry
     estimated scf accuracy    <       0.00000113 Ry

     iteration # 19     ecut=    30.00 Ry     beta= 0.70
     Davidson diagonalization with overlap

     ethr =  6.58E-10,  avg # of iterations =  1.0

[...]

     End of self-consistent calculation

          k = 0.0000 0.0000 0.0000 (  2382 PWs)   bands (ev):

   -55.6304 -55.6298 -55.6293 -55.6288 -27.8014 -27.7883 -27.7835 -27.7689
   -27.7069 -27.7043 -27.6763 -27.6745 -27.6160 -27.5986 -27.5946 -27.5801
   -22.1149 -22.0957 -22.0817 -22.0675  -7.0091  -6.7934  -6.2553  -6.1484
    -6.1459  -6.0714  -6.0689  -6.0002  -5.6855  -5.5821  -5.5509  -5.5505
    -4.3359  -4.2615  -4.1531  -4.1147  -4.0706  -4.0554  -4.0446  -4.0221
    -4.0098  -3.7584  -3.6611  -3.6586   5.2990   5.3153   5.3174   5.4308
     5.4734   5.7517   5.8027   6.4974   6.5241   6.5332   7.4115   7.4379
     7.8354   7.8896   7.9156   7.9242   7.9282   7.9320   7.9393   8.2431
     8.5495   8.8464   9.2426   9.2703   9.4928   9.5245   9.5817   9.7068
     9.8051  10.0917  10.1068  10.1381  10.2409  10.2663  10.2887  10.4917
    10.7742  10.8127  10.9240  10.9810  12.9951  13.1260  13.2500  13.2979
    13.3197  13.5294  13.8308  13.8765  14.1560  14.1775  14.4366  15.0852
    16.2270  16.4457  16.4985  16.5817  17.3142  17.4850  17.5093

     occupation numbers
     1.0000   1.0000   1.0000   1.0000   1.0000   1.0000   1.0000   1.0000
     1.0000   1.0000   1.0000   1.0000   1.0000   1.0000   1.0000   1.0000
     1.0000   1.0000   1.0000   1.0000   1.0000   1.0000   1.0000   1.0000
     1.0000   1.0000   1.0000   1.0000   1.0000   1.0000   1.0000   1.0000
     1.0000   1.0000   1.0000   1.0000   1.0000   1.0000   1.0000   1.0000
     1.0000   1.0000   1.0000   1.0000   1.0000   1.0000   1.0000   1.0000
     1.0000   1.0000   1.0000   1.0000   1.0000   1.0000   1.0000   1.0000
     1.0000   1.0000   1.0000   1.0000   1.0000   1.0000   1.0000   1.0000
     1.0000   1.0000   1.0000   1.0000   1.0000   1.0000   1.0000   1.0000
     1.0000   1.0000   1.0000   1.0000   1.0000   1.0000   1.0000   1.0000
     1.0000   1.0000   1.0000   1.0000   1.0000   1.0000  -0.0000  -0.0000
    -0.0000  -0.0000  -0.0000  -0.0000  -0.0000  -0.0000  -0.0000  -0.0000
    -0.0000  -0.0000  -0.0000  -0.0000  -0.0000  -0.0000  -0.0000

     the Fermi energy is    13.1880 ev

!    total energy              =   -1425.94513940 Ry
     estimated scf accuracy    <       0.00000044 Ry
     smearing contrib. (-TS)   =       0.00000000 Ry
     internal energy E=F+TS    =   -1425.94513940 Ry

     The total energy is F=E-TS. E is the sum of the following terms:
     one-electron contribution =    -372.48993617 Ry
     hartree contribution      =     283.56784233 Ry
     xc contribution           =    -233.02942963 Ry
     ewald contribution        =    -989.81707752 Ry
     one-center paw contrib.   =    -114.17653841 Ry
      -> PAW hartree energy AE =     356.30824117 Ry
      -> PAW hartree energy PS =    -354.98966219 Ry
      -> PAW xc energy AE      =    -206.11259656 Ry
      -> PAW xc energy PS      =      90.61747917 Ry
      -> total E_H with PAW    =     284.88642131 Ry
      -> total E_XC with PAW   =    -348.52454702 Ry

     convergence has been achieved in  19 iterations

     negative rho (up, down):  2.663E-01 0.000E+00

     Forces acting on atoms (cartesian axes, Ry/au):

     atom    1 type  1   force =    -0.00200116    0.00684722    0.00000000
     atom    2 type  1   force =    -0.00200116   -0.00684722    0.00000000
     atom    3 type  1   force =     0.00200116   -0.00684722   -0.00000000
     atom    4 type  1   force =     0.00200116    0.00684722    0.00000000
     atom    5 type  2   force =     0.00000000    0.00000000    0.00000000
     atom    6 type  2   force =     0.00000000    0.00000000    0.00000000
     atom    7 type  2   force =    -0.00000000    0.00000000    0.00000000
     atom    8 type  2   force =     0.00000000    0.00000000    0.00000000
     atom    9 type  3   force =     0.00003561   -0.04781150    0.00000000
     atom   10 type  3   force =     0.00003561    0.04781150    0.00000000
     atom   11 type  3   force =    -0.00003561    0.04781150   -0.00000000
     atom   12 type  3   force =    -0.00003561   -0.04781150    0.00000000
     atom   13 type  3   force =    -0.00413298    0.00107332    0.02471272
     atom   14 type  3   force =    -0.00413298   -0.00107332   -0.02471272
     atom   15 type  3   force =     0.00413298   -0.00107332    0.02471272
     atom   16 type  3   force =     0.00413298    0.00107332   -0.02471272
     atom   17 type  3   force =     0.00413298   -0.00107332   -0.02471272
     atom   18 type  3   force =     0.00413298    0.00107332    0.02471272
     atom   19 type  3   force =    -0.00413298    0.00107332   -0.02471272
     atom   20 type  3   force =    -0.00413298   -0.00107332    0.02471272
     The non-local contrib.  to forces
     atom    1 type  1   force =    -0.00060987   -0.00936199    0.00000000
     atom    2 type  1   force =    -0.00060987    0.00936199    0.00000000
     atom    3 type  1   force =     0.00060987    0.00936199    0.00000000
     atom    4 type  1   force =     0.00060987   -0.00936199    0.00000000
     atom    5 type  2   force =     0.00000000    0.00000000   -0.00000000
     atom    6 type  2   force =    -0.00000000    0.00000000    0.00000000
     atom    7 type  2   force =    -0.00000000   -0.00000000    0.00000000
     atom    8 type  2   force =    -0.00000000    0.00000000    0.00000000
     atom    9 type  3   force =    -0.00051873    0.30318091    0.00000000
     atom   10 type  3   force =    -0.00051873   -0.30318091    0.00000000
     atom   11 type  3   force =     0.00051873   -0.30318091    0.00000000
     atom   12 type  3   force =     0.00051873    0.30318091    0.00000000
     atom   13 type  3   force =     0.04539608    0.04091551   -0.21920017
     atom   14 type  3   force =     0.04539608   -0.04091551    0.21920017
     atom   15 type  3   force =    -0.04539608   -0.04091551   -0.21920017
     atom   16 type  3   force =    -0.04539608    0.04091551    0.21920017
     atom   17 type  3   force =    -0.04539608   -0.04091551    0.21920017
     atom   18 type  3   force =    -0.04539608    0.04091551   -0.21920017
     atom   19 type  3   force =     0.04539608    0.04091551    0.21920017
     atom   20 type  3   force =     0.04539608   -0.04091551   -0.21920017
     The ionic contribution  to forces
     atom    1 type  1   force =     0.17486555   -0.32961909    0.00000000
     atom    2 type  1   force =     0.17486555    0.32961909    0.00000000
     atom    3 type  1   force =    -0.17486555    0.32961909   -0.00000000
     atom    4 type  1   force =    -0.17486555   -0.32961909   -0.00000000
     atom    5 type  2   force =    -0.00000000    0.00000000    0.00000000
     atom    6 type  2   force =     0.00000000   -0.00000000    0.00000000
     atom    7 type  2   force =     0.00000000   -0.00000000   -0.00000000
     atom    8 type  2   force =     0.00000000   -0.00000000    0.00000000
     atom    9 type  3   force =    -0.02222765   -1.67405366   -0.00000000
     atom   10 type  3   force =    -0.02222765    1.67405366   -0.00000000
     atom   11 type  3   force =     0.02222765    1.67405366   -0.00000000
     atom   12 type  3   force =     0.02222765   -1.67405366   -0.00000000
     atom   13 type  3   force =    -0.40210581   -0.25538343    1.00655968
     atom   14 type  3   force =    -0.40210581    0.25538343   -1.00655968
     atom   15 type  3   force =     0.40210581    0.25538343    1.00655968
     atom   16 type  3   force =     0.40210581   -0.25538343   -1.00655968
     atom   17 type  3   force =     0.40210581    0.25538343   -1.00655968
     atom   18 type  3   force =     0.40210581   -0.25538343    1.00655968
     atom   19 type  3   force =    -0.40210581   -0.25538343   -1.00655968
     atom   20 type  3   force =    -0.40210581    0.25538343    1.00655968
     The local contribution  to forces
     atom    1 type  1   force =    -0.17623406    0.34508369    0.00023933
     atom    2 type  1   force =    -0.17625022   -0.34512420    0.00023638
     atom    3 type  1   force =     0.17623262   -0.34509673   -0.00024532
     atom    4 type  1   force =     0.17624760    0.34513201   -0.00024222
     atom    5 type  2   force =     0.00000284    0.00001319    0.00006203
     atom    6 type  2   force =     0.00000205   -0.00001494   -0.00006533
     atom    7 type  2   force =    -0.00000439    0.00001027   -0.00006964
     atom    8 type  2   force =    -0.00000310   -0.00001884    0.00008393
     atom    9 type  3   force =     0.02270782    1.32721215    0.00068778
     atom   10 type  3   force =     0.02273608   -1.32676870   -0.00023114
     atom   11 type  3   force =    -0.02270817   -1.32720644   -0.00069168
     atom   12 type  3   force =    -0.02273752    1.32676329    0.00023008
     atom   13 type  3   force =     0.35248639    0.21664514   -0.76545563
     atom   14 type  3   force =     0.35303477   -0.21616038    0.76543246
     atom   15 type  3   force =    -0.35313642   -0.21600904   -0.76543965
     atom   16 type  3   force =    -0.35370008    0.21554147    0.76556114
     atom   17 type  3   force =    -0.35248651   -0.21664419    0.76549571
     atom   18 type  3   force =    -0.35303494    0.21616215   -0.76546685
     atom   19 type  3   force =     0.35313682    0.21600622    0.76540119
     atom   20 type  3   force =     0.35369906   -0.21553989   -0.76551954
     The core correction contribution to forces
     atom    1 type  1   force =    -0.00001514    0.00073155    0.00000003
     atom    2 type  1   force =    -0.00001439   -0.00073187   -0.00000044
     atom    3 type  1   force =     0.00001507   -0.00073154   -0.00000012
     atom    4 type  1   force =     0.00001436    0.00073170    0.00000031
     atom    5 type  2   force =     0.00000000    0.00000000    0.00000000
     atom    6 type  2   force =     0.00000000    0.00000000    0.00000000
     atom    7 type  2   force =     0.00000000    0.00000000    0.00000000
     atom    8 type  2   force =     0.00000000    0.00000000    0.00000000
     atom    9 type  3   force =     0.00005999   -0.00391753   -0.00000033
     atom   10 type  3   force =     0.00006025    0.00392288    0.00000003
     atom   11 type  3   force =    -0.00005999    0.00391768    0.00000038
     atom   12 type  3   force =    -0.00006028   -0.00392305   -0.00000005
     atom   13 type  3   force =    -0.00051301   -0.00054750    0.00283426
     atom   14 type  3   force =    -0.00051307    0.00054749   -0.00283499
     atom   15 type  3   force =     0.00051337    0.00054749    0.00283534
     atom   16 type  3   force =     0.00051313   -0.00054717   -0.00283376
     atom   17 type  3   force =     0.00051301    0.00054750   -0.00283426
     atom   18 type  3   force =     0.00051307   -0.00054749    0.00283511
     atom   19 type  3   force =    -0.00051337   -0.00054751   -0.00283527
     atom   20 type  3   force =    -0.00051314    0.00054721    0.00283362
     The Hubbard contrib.    to forces
     atom    1 type  1   force =     0.00000000    0.00000000    0.00000000
     atom    2 type  1   force =     0.00000000    0.00000000    0.00000000
     atom    3 type  1   force =     0.00000000    0.00000000    0.00000000
     atom    4 type  1   force =     0.00000000    0.00000000    0.00000000
     atom    5 type  2   force =     0.00000000    0.00000000    0.00000000
     atom    6 type  2   force =     0.00000000    0.00000000    0.00000000
     atom    7 type  2   force =     0.00000000    0.00000000    0.00000000
     atom    8 type  2   force =     0.00000000    0.00000000    0.00000000
     atom    9 type  3   force =     0.00000000    0.00000000    0.00000000
     atom   10 type  3   force =     0.00000000    0.00000000    0.00000000
     atom   11 type  3   force =     0.00000000    0.00000000    0.00000000
     atom   12 type  3   force =     0.00000000    0.00000000    0.00000000
     atom   13 type  3   force =     0.00000000    0.00000000    0.00000000
     atom   14 type  3   force =     0.00000000    0.00000000    0.00000000
     atom   15 type  3   force =     0.00000000    0.00000000    0.00000000
     atom   16 type  3   force =     0.00000000    0.00000000    0.00000000
     atom   17 type  3   force =     0.00000000    0.00000000    0.00000000
     atom   18 type  3   force =     0.00000000    0.00000000    0.00000000
     atom   19 type  3   force =     0.00000000    0.00000000    0.00000000
     atom   20 type  3   force =     0.00000000    0.00000000    0.00000000
     The SCF correction term to forces
     atom    1 type  1   force =    -0.00001073    0.00000898   -0.00023483
     atom    2 type  1   force =     0.00001006    0.00002316   -0.00023543
     atom    3 type  1   force =     0.00001182    0.00000315    0.00023822
     atom    4 type  1   force =    -0.00000855   -0.00003276    0.00023843
     atom    5 type  2   force =    -0.00000357   -0.00001207   -0.00007447
     atom    6 type  2   force =    -0.00000315    0.00001529    0.00007876
     atom    7 type  2   force =     0.00000520   -0.00001166    0.00008074
     atom    8 type  2   force =     0.00000289    0.00001616   -0.00009211
     atom    9 type  3   force =     0.00000396   -0.00003643   -0.00073179
     atom   10 type  3   force =    -0.00000460   -0.00002648    0.00024286
     atom   11 type  3   force =    -0.00000356    0.00003924    0.00073368
     atom   12 type  3   force =     0.00000507    0.00002473   -0.00024396
     atom   13 type  3   force =     0.00062189   -0.00056830   -0.00005128
     atom   14 type  3   force =     0.00006154    0.00007655    0.00002629
     atom   15 type  3   force =     0.00006457   -0.00007480    0.00001480
     atom   16 type  3   force =     0.00061698    0.00056996   -0.00002463
     atom   17 type  3   force =    -0.00062215    0.00056776    0.00000060
     atom   18 type  3   force =    -0.00006150   -0.00007862    0.00002237
     atom   19 type  3   force =    -0.00006495    0.00007679    0.00003406
     atom   20 type  3   force =    -0.00061638   -0.00057047   -0.00002825

     Total force =     0.119912     Total SCF correction =     0.002080

     Computing stress (Cartesian axis) and pressure

     negative rho (up, down):  2.663E-01 0.000E+00
          total   stress  (Ry/bohr**3)                   (kbar)     P=     -342.78
  -0.00205850   0.00000000   0.00000000         -302.82        0.00        0.00
   0.00000000  -0.00208407   0.00000000            0.00     -306.58        0.00
   0.00000000   0.00000000  -0.00284791            0.00        0.00     -418.94

     kinetic stress (kbar)  28140.66      0.00      0.00
                                0.00  28304.94      0.00
                                0.00      0.00  27945.99

     local   stress (kbar) -11048.77      0.04     -0.02
                                0.04 -12235.94      0.04
                               -0.02      0.04 -11438.60

     nonloc. stress (kbar)   9109.43      0.00      0.00
                                0.00   9102.85      0.00
                                0.00      0.00   9103.93

     hartree stress (kbar)   7942.78     -0.04      0.00
                               -0.04   8320.96     -0.01
                                0.00     -0.01   8165.70

     exc-cor stress (kbar)  -1837.85      0.00      0.00
                                0.00  -1834.92     -0.00
                                0.00     -0.00  -1837.16

     corecor stress (kbar)  -3886.74     -0.00     -0.00
                               -0.00  -3887.43      0.00
                               -0.00      0.00  -3885.17

     ewald   stress (kbar) -28722.33     -0.00     -0.00
                               -0.00 -28077.04     -0.00
                               -0.00     -0.00 -28473.64

     hubbard stress (kbar)      0.00      0.00      0.00
                                0.00      0.00      0.00
                                0.00      0.00      0.00

     DFT-D   stress (kbar)      0.00      0.00      0.00
                                0.00      0.00      0.00
                                0.00      0.00      0.00

     XDM     stress (kbar)      0.00      0.00      0.00
                                0.00      0.00      0.00
                                0.00      0.00      0.00

     dft-nl  stress (kbar)      0.00      0.00      0.00
                                0.00      0.00      0.00
                                0.00      0.00      0.00

     TS-vdW  stress (kbar)      0.00      0.00      0.00
                                0.00      0.00      0.00
                                0.00      0.00      0.00

[...]

                                0.00      0.00      0.00

     Writing all to output data dir new_calculations/myprefix.save/

     General routines

     Parallel routines

     PAW routines

   This run was terminated on:   3:15:37  21May2023

   JOB DONE.