     Program PWSCF v.7.0 starts on 20May2023 at  8:58:46

     Reading input from espresso_6213.pwi
Warning: card &CELL ignored
Warning: card / ignored

     Current dimensions of program PWSCF are:
     Max number of different atomic species (ntypx) = 10
     Max number of k-points (npk) =  40000
     Max angular momentum in pseudopotentials (lmaxx) =  4

     gamma-point specific algorithms are used

     Subspace diagonalization in iterative solution of the eigenvalue problem:
     a serial algorithm will be used

     Using Slab Decomposition

     bravais-lattice index     =            0
     lattice parameter (alat)  =       9.7592  a.u.
     unit-cell volume          =     376.5252 (a.u.)^3
     number of atoms/cell      =            4
     number of atomic types    =            2
     number of electrons       =        48.00
     number of Kohn-Sham states=           29
     kinetic-energy cutoff     =      30.0000  Ry
     charge density cutoff     =     240.0000  Ry
     scf convergence threshold =      1.0E-06
     mixing beta               =       0.7000
     number of iterations used =            8  plain     mixing
     Exchange-correlation= SLA  PW   PBE  PBE
                           (   1   4   3   4   0   0   0)

     celldm(1)=   9.759231  celldm(2)=   0.000000  celldm(3)=   0.000000
     celldm(4)=   0.000000  celldm(5)=   0.000000  celldm(6)=   0.000000

     crystal axes: (cart. coord. in units of alat)
               a(1) = (   1.000000   0.000000   0.000000 )
               a(2) = (   0.449195   0.893434   0.000000 )
               a(3) = (  -0.585923  -0.671654   0.453404 )

     reciprocal axes: (cart. coord. in units 2 pi/alat)
               b(1) = (  1.000000 -0.502774  0.547487 )
               b(2) = (  0.000000  1.119277  1.658054 )
               b(3) = (  0.000000  0.000000  2.205541 )

     PseudoPot. # 1 for Li read from file:
     /home/pragov/projects/rrg-bengioy-ad/pragov/crystal_structure_design/SSSP/li_pbe_v1.4.uspp.F.UPF
     MD5 check sum: e912e257baa3777c20ea3d68f190483c
     Pseudo is Ultrasoft, Zval =  3.0
     Generated by new atomic code, or converted to UPF format
     Using radial grid of  751 points,  5 beta functions with:
                l(1) =   0
                l(2) =   0
                l(3) =   0
                l(4) =   1
                l(5) =   1
     Q(r) pseudized with 10 coefficients,  rinner =    1.150   1.150   1.150

     PseudoPot. # 2 for Ir read from file:
     /home/pragov/projects/rrg-bengioy-ad/pragov/crystal_structure_design/SSSP/Ir_pbe_v1.2.uspp.F.UPF
     MD5 check sum: 8836f839c3459d2b385c504ce6d91f2c
     Pseudo is Ultrasoft + core correction, Zval = 15.0
     Generated by new atomic code, or converted to UPF format
     Using radial grid of  983 points,  7 beta functions with:
                l(1) =   0
                l(2) =   0
                l(3) =   1
                l(4) =   1
                l(5) =   1
                l(6) =   2
                l(7) =   2
     Q(r) pseudized with  8 coefficients,  rinner =    1.400   1.400   1.400
                                                       1.400   1.400

     atomic species   valence    mass     pseudopotential
        Li             3.00     6.94000     Li( 1.00)
        Ir            15.00   192.21700     Ir( 1.00)

     No symmetry found

                                    s                        frac. trans.

      isym =  1     identity

 cryst.   s( 1) = (     1          0          0      )
                  (     0          1          0      )
                  (     0          0          1      )

 cart.    s( 1) = (  1.0000000  0.0000000  0.0000000 )
                  (  0.0000000  1.0000000  0.0000000 )
                  (  0.0000000  0.0000000  1.0000000 )

   Cartesian axes

     site n.     atom                  positions (alat units)
         1           Li  tau(   1) = (   0.1315605  -0.2133978   0.4456137  )
         2           Ir  tau(   2) = (   0.2002948   0.4549905   0.1394035  )
         3           Ir  tau(   3) = (   0.5035247   0.0254294   0.1394035  )
         4           Ir  tau(   4) = (   0.4133566  -0.6704857   0.4526147  )

   Crystallographic axes

     site n.     atom                  positions (cryst. coord.)
         1           Li  tau(   1) = (  0.4828190  0.5000000  0.9828190  )
         2           Ir  tau(   2) = (  0.0478590  0.7403990  0.3074600  )
         3           Ir  tau(   3) = (  0.5670610  0.2596010  0.3074600  )
         4           Ir  tau(   4) = (  0.9982600  0.0000000  0.9982600  )

     number of k points=     1  Methfessel-Paxton smearing, width (Ry)=  0.0010
                       cart. coord. in units 2pi/alat
        k(    1) = (   0.0000000   0.0000000   0.0000000), wk =   2.0000000

                       cryst. coord.
        k(    1) = (   0.0000000   0.0000000   0.0000000), wk =   2.0000000

     Initial potential from superposition of free atoms

     starting charge      46.0492, renormalised to      48.0000

     negative rho (up, down):  1.138E+00 0.000E+00
     Starting wfcs are   41 randomized atomic wfcs

     Self-consistent Calculation

     iteration #  1     ecut=    30.00 Ry     beta= 0.70
     Davidson diagonalization with overlap

     ethr =  1.00E-02,  avg # of iterations =  2.0

     negative rho (up, down):  8.766E-01 0.000E+00

     total energy              =    -557.25401360 Ry
     estimated scf accuracy    <       5.36340412 Ry

[...]

     total energy              =    -559.55366754 Ry
     estimated scf accuracy    <       0.00000272 Ry

     iteration # 28     ecut=    30.00 Ry     beta= 0.70
     Davidson diagonalization with overlap

     ethr =  5.67E-09,  avg # of iterations =  1.0

[...]

     End of self-consistent calculation

          k = 0.0000 0.0000 0.0000 (   523 PWs)   bands (ev):

   -30.9945 -30.3677 -30.2824 -30.0649 -30.0305 -29.8841 -29.5833 -29.2182
   -28.7343 -25.4270   9.2474  12.4213  12.7090  13.1953  14.5442  15.3215
    15.6687  16.0550  17.6038  17.6911  18.0470  18.1898  18.8887  19.2694
    19.2803  19.5086  20.2942  20.5720  20.8884

     occupation numbers
     1.0000   1.0000   1.0000   1.0000   1.0000   1.0000   1.0000   1.0000
     1.0000   1.0000   1.0000   1.0000   1.0000   1.0000   1.0000   1.0000
     1.0000   1.0000   1.0000   1.0000   1.0000   1.0000   1.0000   0.8117
     0.1883  -0.0000  -0.0000  -0.0000  -0.0000

     the Fermi energy is    19.2749 ev

!    total energy              =    -559.55366676 Ry
     estimated scf accuracy    <       0.00000091 Ry
     smearing contrib. (-TS)   =      -0.00032482 Ry
     internal energy E=F+TS    =    -559.55334194 Ry

     The total energy is F=E-TS. E is the sum of the following terms:
     one-electron contribution =     -92.52597455 Ry
     hartree contribution      =      81.36941928 Ry
     xc contribution           =    -154.85230467 Ry
     ewald contribution        =    -393.54448200 Ry

     convergence has been achieved in  28 iterations

     negative rho (up, down):  9.542E-01 0.000E+00

     Forces acting on atoms (cartesian axes, Ry/au):

     atom    1 type  1   force =    -0.00857113    0.01382121   -0.00932399
     atom    2 type  2   force =    -0.07551469   -0.18320723    0.06683458
     atom    3 type  2   force =     0.19763678   -0.01478468    0.06684313
     atom    4 type  2   force =    -0.11355097    0.18417071   -0.12435372
     The non-local contrib.  to forces
     atom    1 type  1   force =     0.00863718   -0.01405261    0.00950482
     atom    2 type  2   force =     0.06426311   -0.03059839    0.03434141
     atom    3 type  2   force =    -0.00148493   -0.07110548    0.03433784
     atom    4 type  2   force =    -0.06103370    0.09905456   -0.06686525
     The ionic contribution  to forces
     atom    1 type  1   force =    -0.00870140    0.01411413   -0.00952781
     atom    2 type  2   force =     2.30792708    2.36565031   -0.46116700
     atom    3 type  2   force =    -3.15026137   -0.99934085   -0.46116700
     atom    4 type  2   force =     0.85103570   -1.38042359    0.93186181
     The local contribution  to forces
     atom    1 type  1   force =    -0.00845075    0.01370050   -0.00924475
     atom    2 type  2   force =    -2.43376964   -2.46459951    0.47162493
     atom    3 type  2   force =     3.29519010    1.06738681    0.47160230
     atom    4 type  2   force =    -0.89060394    1.44458773   -0.97519598
     The core correction contribution to forces
     atom    1 type  1   force =     0.00000000    0.00000000    0.00000000
     atom    2 type  2   force =    -0.01363863   -0.05363333    0.02212210
     atom    3 type  2   force =     0.05403878   -0.01191509    0.02212366
     atom    4 type  2   force =    -0.01300377    0.02108010   -0.01423341
     The Hubbard contrib.    to forces
     atom    1 type  1   force =     0.00000000    0.00000000    0.00000000
     atom    2 type  2   force =     0.00000000    0.00000000    0.00000000
     atom    3 type  2   force =     0.00000000    0.00000000    0.00000000
     atom    4 type  2   force =     0.00000000    0.00000000    0.00000000
     The SCF correction term to forces
     atom    1 type  1   force =    -0.00003001    0.00005367   -0.00003929
     atom    2 type  2   force =    -0.00027044   -0.00003184   -0.00006992
     atom    3 type  2   force =     0.00018036    0.00018440   -0.00003671
     atom    4 type  2   force =     0.00008091   -0.00013362    0.00009607

     Total force =     0.387439     Total SCF correction =     0.000431

     Computing stress (Cartesian axis) and pressure

     negative rho (up, down):  9.542E-01 0.000E+00
          total   stress  (Ry/bohr**3)                   (kbar)     P=      203.88
   0.00222602   0.00166834  -0.00083907          327.46      245.42     -123.43
   0.00166834   0.00054830   0.00136098          245.42       80.66      200.21
  -0.00083907   0.00136098   0.00138344         -123.43      200.21      203.51

     kinetic stress (kbar)  37473.31    333.22   -265.46
                              333.22  37138.24    430.50
                             -265.46    430.50  37522.30

     local   stress (kbar)  17138.17   1632.59   5802.26
                             1632.59  15496.48  -9411.56
                             5802.26  -9411.56   1602.40

     nonloc. stress (kbar)   3695.01    -17.74   -248.56
                              -17.74   3712.86    403.26
                             -248.56    403.26   4276.00

     hartree stress (kbar)   8375.37   -646.41  -2235.65
                             -646.41   9025.38   3626.34
                            -2235.65   3626.34  14389.56

     exc-cor stress (kbar)  28191.29      1.23     -8.05
                                1.23  28190.06     13.06
                               -8.05     13.06  28207.18

     corecor stress (kbar) -40036.03    -14.60     -0.95
                              -14.60 -40021.35      1.53
                               -0.95      1.53 -40010.25

     ewald   stress (kbar) -54509.67  -1042.88  -3167.02
                            -1042.88 -53461.00   5137.07
                            -3167.02   5137.07 -45783.68

     hubbard stress (kbar)      0.00      0.00      0.00
                                0.00      0.00      0.00
                                0.00      0.00      0.00

     DFT-D   stress (kbar)      0.00      0.00      0.00
                                0.00      0.00      0.00
                                0.00      0.00      0.00

     XDM     stress (kbar)      0.00      0.00      0.00
                                0.00      0.00      0.00
                                0.00      0.00      0.00

     dft-nl  stress (kbar)      0.00      0.00      0.00
                                0.00      0.00      0.00
                                0.00      0.00      0.00

     TS-vdW  stress (kbar)      0.00      0.00      0.00
                                0.00      0.00      0.00
                                0.00      0.00      0.00

[...]

                                0.00      0.00      0.00

     Writing all to output data dir new_calculations/myprefix.save/

     General routines

     Parallel routines

   This run was terminated on:   8:59:18  20May2023

   JOB DONE.