     Program PWSCF v.7.1 starts on 16Jul2023 at 16:26:14

     Reading input from espresso_4004.pwi
Warning: card &CELL ignored
Warning: card / ignored

     Current dimensions of program PWSCF are:
     Max number of different atomic species (ntypx) = 10
     Max number of k-points (npk) =  40000
     Max angular momentum in pseudopotentials (lmaxx) =  4
     file In.pbe-dn-rrkjus_psl.0.2.2.UPF: wavefunction(s)  5S renormalized
     file Cu.paw.z_11.ld1.psl.v1.0.0-low.upf: wavefunction(s)  4S 3D renormalized

     K-points division:     npool     =       2
     R & G space division:  proc/nbgrp/npool/nimage =       4
     Subspace diagonalization in iterative solution of the eigenvalue problem:
     a serial algorithm will be used

     Using Slab Decomposition

     bravais-lattice index     =            0
     lattice parameter (alat)  =      11.7639  a.u.
     unit-cell volume          =    1618.5627 (a.u.)^3
     number of atoms/cell      =            7
     number of atomic types    =            4
     number of electrons       =        62.00
     number of Kohn-Sham states=           37
     kinetic-energy cutoff     =      30.0000  Ry
     charge density cutoff     =     240.0000  Ry
     scf convergence threshold =      1.0E-06
     mixing beta               =       0.7000
     number of iterations used =            8  plain     mixing
     Exchange-correlation=  SLA  PW   PBX  PBC
                           (   1   4   3   4   0   0   0)

     celldm(1)=  11.763861  celldm(2)=   0.000000  celldm(3)=   0.000000
     celldm(4)=   0.000000  celldm(5)=   0.000000  celldm(6)=   0.000000

     crystal axes: (cart. coord. in units of alat)
               a(1) = (   1.000000   0.000000   0.000000 )
               a(2) = (  -0.012150   0.996911   0.000000 )
               a(3) = (   0.499059   0.479766   0.997295 )

     reciprocal axes: (cart. coord. in units 2 pi/alat)
               b(1) = (  1.000000  0.012188 -0.506276 )
               b(2) = (  0.000000  1.003099 -0.482558 )
               b(3) = (  0.000000  0.000000  1.002713 )

     PseudoPot. # 1 for In read from file:
     /lustre07/scratch/pragov/crystal_structure_design/utils/SSSP/In.pbe-dn-rrkjus_psl.0.2.2.UPF
     MD5 check sum: 25e7c42c3b55b68f4bf926be2e7201a4
     Pseudo is Ultrasoft + core correction, Zval = 13.0
     Generated using "atomic" code by A. Dal Corso  v.5.0.99 svn rev. 10869
     Using radial grid of 1241 points,  6 beta functions with:
                l(1) =   0
                l(2) =   0
                l(3) =   1
                l(4) =   1
                l(5) =   2
                l(6) =   2
     Q(r) pseudized with 0 coefficients

     PseudoPot. # 2 for Cu read from file:
     /lustre07/scratch/pragov/crystal_structure_design/utils/SSSP/Cu.paw.z_11.ld1.psl.v1.0.0-low.upf
     MD5 check sum: 619f40885d92a09a85a8b37550532d0c
     Pseudo is Projector augmented-wave + core cor, Zval = 11.0
     Generated using &quot;atomic&quot; code by A. Dal Corso  v.6.3MaX
     Shape of augmentation charge: PSQ
     Using radial grid of 1199 points,  6 beta functions with:
                l(1) =   0
                l(2) =   0
                l(3) =   1
                l(4) =   1
                l(5) =   2
                l(6) =   2
     Q(r) pseudized with 0 coefficients

     PseudoPot. # 3 for Te read from file:
     /lustre07/scratch/pragov/crystal_structure_design/utils/SSSP/Te_pbe_v1.uspp.F.UPF
     MD5 check sum: c319670d6894cc26e93307826a071b75
     Pseudo is Ultrasoft + core correction, Zval =  6.0
     Generated by new atomic code, or converted to UPF format
     Using radial grid of  891 points,  5 beta functions with:
                l(1) =   0
                l(2) =   0
                l(3) =   1
                l(4) =   1
                l(5) =   2
     Q(r) pseudized with  6 coefficients,  rinner =    1.800   1.800   1.800
                                                       1.800   1.800

     PseudoPot. # 4 for Br read from file:
     /lustre07/scratch/pragov/crystal_structure_design/utils/SSSP/br_pbe_v1.4.uspp.F.UPF
     MD5 check sum: d3ffb7b29f6225aa16fe06858fb2a80b
     Pseudo is Ultrasoft + core correction, Zval =  7.0
     Generated by new atomic code, or converted to UPF format
     Using radial grid of  879 points,  6 beta functions with:
                l(1) =   0
                l(2) =   0
                l(3) =   1
                l(4) =   1
                l(5) =   2
                l(6) =   2
     Q(r) pseudized with  8 coefficients,  rinner =    1.100   1.100   1.100
                                                       1.100   1.100

     atomic species   valence    mass     pseudopotential
        In            13.00   114.81800     In( 1.00)
        Cu            11.00    63.54600     Cu( 1.00)
        Te             6.00   127.60000     Te( 1.00)
        Br             7.00    79.90400     Br( 1.00)

     No symmetry found

                                    s                        frac. trans.

      isym =  1     identity

 cryst.   s( 1) = (     1          0          0      )
                  (     0          1          0      )
                  (     0          0          1      )

 cart.    s( 1) = (  1.0000000  0.0000000  0.0000000 )
                  (  0.0000000  1.0000000  0.0000000 )
                  (  0.0000000  0.0000000  1.0000000 )

   Cartesian axes

     site n.     atom                  positions (alat units)
         1           In  tau(   1) = (   1.4792254   1.4556903   0.9866155  )
         2           In  tau(   2) = (   0.9905437   0.4974735   0.5197969  )
         3           Cu  tau(   3) = (   1.0139976   0.9935818   0.9851226  )
         4           Te  tau(   4) = (   1.2687901   0.7713411   0.7456522  )
         5           Te  tau(   5) = (   0.7388031   1.1789362   0.7396944  )
         6           Te  tau(   6) = (   0.7068847   0.7480070   0.2697642  )
         7           Br  tau(   7) = (   0.2519592   0.2523303   0.2411797  )

   Crystallographic axes

     site n.     atom                  positions (cryst. coord.)
         1           In  tau(   1) = (  0.9974670  0.9841020  0.9892920  )
         2           In  tau(   2) = (  0.7334460  0.2481830  0.5212070  )
         3           Cu  tau(   3) = (  0.5273630  0.5212820  0.9877950  )
         4           Te  tau(   4) = (  0.9006850  0.4139110  0.7476750  )
         5           Te  tau(   5) = (  0.3786820  0.8256440  0.7417010  )
         6           Te  tau(   6) = (  0.5794260  0.6201480  0.2704960  )
         7           Br  tau(   7) = (  0.1329310  0.1367290  0.2418340  )

     number of k points=    14  Gaussian smearing, width (Ry)=  0.0010
                       cart. coord. in units 2pi/alat
        k(    1) = (   0.0000000   0.0000000   0.0000000), wk =   0.0740741
        k(    2) = (   0.0000000   0.0000000   0.3342376), wk =   0.1481481
        k(    3) = (   0.0000000   0.3343662  -0.1608526), wk =   0.1481481
        k(    4) = (   0.0000000   0.3343662   0.1733850), wk =   0.1481481
        k(    5) = (   0.0000000   0.3343662  -0.4950902), wk =   0.1481481
        k(    6) = (   0.3333333   0.0040625  -0.1687587), wk =   0.1481481
        k(    7) = (   0.3333333   0.0040625   0.1654789), wk =   0.1481481
        k(    8) = (   0.3333333   0.0040625  -0.5029963), wk =   0.1481481
        k(    9) = (   0.3333333   0.3384287  -0.3296112), wk =   0.1481481
        k(   10) = (   0.3333333   0.3384287   0.0046264), wk =   0.1481481
        k(   11) = (   0.3333333   0.3384287  -0.6638488), wk =   0.1481481
        k(   12) = (   0.3333333  -0.3303037  -0.0079061), wk =   0.1481481
        k(   13) = (   0.3333333  -0.3303037   0.3263315), wk =   0.1481481
        k(   14) = (   0.3333333  -0.3303037  -0.3421437), wk =   0.1481481

                       cryst. coord.
        k(    1) = (   0.0000000   0.0000000   0.0000000), wk =   0.0740741
        k(    2) = (   0.0000000   0.0000000   0.3333333), wk =   0.1481481
        k(    3) = (   0.0000000   0.3333333   0.0000000), wk =   0.1481481
        k(    4) = (   0.0000000   0.3333333   0.3333333), wk =   0.1481481
        k(    5) = (   0.0000000   0.3333333  -0.3333333), wk =   0.1481481
        k(    6) = (   0.3333333   0.0000000   0.0000000), wk =   0.1481481
        k(    7) = (   0.3333333   0.0000000   0.3333333), wk =   0.1481481
        k(    8) = (   0.3333333   0.0000000  -0.3333333), wk =   0.1481481
        k(    9) = (   0.3333333   0.3333333   0.0000000), wk =   0.1481481
        k(   10) = (   0.3333333   0.3333333   0.3333333), wk =   0.1481481
        k(   11) = (   0.3333333   0.3333333  -0.3333333), wk =   0.1481481
        k(   12) = (   0.3333333  -0.3333333   0.0000000), wk =   0.1481481
        k(   13) = (   0.3333333  -0.3333333   0.3333333), wk =   0.1481481
        k(   14) = (   0.3333333  -0.3333333  -0.3333333), wk =   0.1481481

     Initial potential from superposition of free atoms

     starting charge      61.9917, renormalised to      62.0000
     Starting wfcs are   43 randomized atomic wfcs
     Checking if some PAW data can be deallocated...

     Self-consistent Calculation

     iteration #  1     ecut=    30.00 Ry     beta= 0.70
     Davidson diagonalization with overlap

     ethr =  1.00E-02,  avg # of iterations =  2.9

     Threshold (ethr) on eigenvalues was too large:
     Diagonalizing with lowered threshold

     Davidson diagonalization with overlap

[...]

     total energy              =    -629.18072232 Ry
     estimated scf accuracy    <       0.17880507 Ry

[...]

     total energy              =    -629.26100679 Ry
     estimated scf accuracy    <       0.00000842 Ry

     iteration #  8     ecut=    30.00 Ry     beta= 0.70
     Davidson diagonalization with overlap

     ethr =  1.36E-08,  avg # of iterations =  3.4

     End of self-consistent calculation

          k = 0.0000 0.0000 0.0000 (  4503 PWs)   bands (ev):

   -10.7628  -9.9903  -9.9843  -9.9411  -9.9255  -9.9055  -9.8777  -9.8738
    -9.8670  -9.8565  -9.7506  -6.5879  -5.5656  -5.5569  -1.2643  -0.4512
     1.0062   1.1081   1.1958   1.5088   1.9488   2.1170   2.2437   2.5481
     2.7605   2.9871   3.1395   3.3892   4.2485   4.5647   4.7392   5.3029
     6.1468   6.8115   8.1232   8.5511   8.8353

     occupation numbers
     1.0000   1.0000   1.0000   1.0000   1.0000   1.0000   1.0000   1.0000
     1.0000   1.0000   1.0000   1.0000   1.0000   1.0000   1.0000   1.0000
     1.0000   1.0000   1.0000   1.0000   1.0000   1.0000   1.0000   1.0000
     1.0000   1.0000   1.0000   1.0000   1.0000   1.0000   1.0000   0.0000
     0.0000   0.0000   0.0000   0.0000   0.0000

[...]

          k = 0.3333-0.3303-0.3421 (  4483 PWs)   bands (ev):

   -10.7617  -9.9941  -9.9774  -9.9625  -9.9251  -9.9133  -9.8778  -9.8709
    -9.8651  -9.8569  -9.7160  -6.1708  -5.8907  -5.7988  -0.9902  -0.7453
     0.4230   1.1000   1.5281   1.7835   1.9683   1.9989   2.3627   2.6743
     2.8873   3.1186   3.4657   3.6055   3.8229   4.1638   4.3820   5.8096
     6.2060   7.6325   8.0457   8.6140   8.7934

     occupation numbers
     1.0000   1.0000   1.0000   1.0000   1.0000   1.0000   1.0000   1.0000
     1.0000   1.0000   1.0000   1.0000   1.0000   1.0000   1.0000   1.0000
     1.0000   1.0000   1.0000   1.0000   1.0000   1.0000   1.0000   1.0000
     1.0000   1.0000   1.0000   1.0000   1.0000   1.0000   1.0000   0.0000
     0.0000   0.0000   0.0000   0.0000   0.0000

     the Fermi energy is     5.1076 ev

!    total energy              =    -629.26101067 Ry
     estimated scf accuracy    <       0.00000100 Ry
     smearing contrib. (-TS)   =      -0.00000000 Ry
     internal energy E=F+TS    =    -629.26101067 Ry

     The total energy is F=E-TS. E is the sum of the following terms:
     one-electron contribution =    -238.14216231 Ry
     hartree contribution      =     162.48476647 Ry
     xc contribution           =    -209.29743133 Ry
     ewald contribution        =    -254.49381159 Ry
     one-center paw contrib.   =     -89.81237189 Ry
      -> PAW hartree energy AE =       0.00000000 Ry
      -> PAW hartree energy PS =       0.00000000 Ry
      -> PAW xc energy AE      =       0.00000000 Ry
      -> PAW xc energy PS      =       0.00000000 Ry
      -> total E_H with PAW    =     162.48476647 Ry
      -> total E_XC with PAW   =    -209.29743133 Ry

     convergence has been achieved in   8 iterations

     Writing all to output data dir energy_m/myprefix.save/

     General routines

     Parallel routines

     PAW routines

   This run was terminated on:  16:26:28  16Jul2023

   JOB DONE.