     Program PWSCF v.7.0 starts on 21May2023 at  3: 9:14

     Reading input from espresso_22423.pwi
Warning: card &CELL ignored
Warning: card / ignored

     Current dimensions of program PWSCF are:
     Max number of different atomic species (ntypx) = 10
     Max number of k-points (npk) =  40000
     Max angular momentum in pseudopotentials (lmaxx) =  4
     file Al.pbe-n-kjpaw_psl.1.0.0.UPF: wavefunction(s)  3S 3P renormalized
     file O.pbe-n-kjpaw_psl.0.1.UPF: wavefunction(s)  2P renormalized

     gamma-point specific algorithms are used

     Subspace diagonalization in iterative solution of the eigenvalue problem:
     a serial algorithm will be used

     Using Slab Decomposition

     bravais-lattice index     =            0
     lattice parameter (alat)  =      15.6871  a.u.
     unit-cell volume          =    1461.7748 (a.u.)^3
     number of atoms/cell      =           18
     number of atomic types    =            4
     number of electrons       =       140.00
     number of Kohn-Sham states=           84
     kinetic-energy cutoff     =      30.0000  Ry
     charge density cutoff     =     240.0000  Ry
     scf convergence threshold =      1.0E-06
     mixing beta               =       0.7000
     number of iterations used =            8  plain     mixing
     Exchange-correlation= SLA  PW   PBX  PBC
                           (   1   4   3   4   0   0   0)

     celldm(1)=  15.687145  celldm(2)=   0.000000  celldm(3)=   0.000000
     celldm(4)=   0.000000  celldm(5)=   0.000000  celldm(6)=   0.000000

     crystal axes: (cart. coord. in units of alat)
               a(1) = (   1.000000   0.000000   0.000000 )
               a(2) = (   0.799627   0.600497   0.000000 )
               a(3) = (   0.224086   0.074773   0.630576 )

     reciprocal axes: (cart. coord. in units 2 pi/alat)
               b(1) = (  1.000000 -1.331608 -0.197467 )
               b(2) = (  0.000000  1.665287 -0.197467 )
               b(3) = (  0.000000  0.000000  1.585851 )

     PseudoPot. # 1 for Ca read from file:
     /home/pragov/projects/rrg-bengioy-ad/pragov/crystal_structure_design/SSSP/Ca_pbe_v1.uspp.F.UPF
     MD5 check sum: 403a4c14b9e4d4dfdc3024c9a3812218
     Pseudo is Ultrasoft + core correction, Zval = 10.0
     Generated by new atomic code, or converted to UPF format
     Using radial grid of  845 points,  6 beta functions with:
                l(1) =   0
                l(2) =   0
                l(3) =   1
                l(4) =   1
                l(5) =   2
                l(6) =   2
     Q(r) pseudized with  8 coefficients,  rinner =    1.500   1.500   1.500
                                                       1.500   1.500

     PseudoPot. # 2 for Al read from file:
     /home/pragov/projects/rrg-bengioy-ad/pragov/crystal_structure_design/SSSP/Al.pbe-n-kjpaw_psl.1.0.0.UPF
     MD5 check sum: cfc449ca30b5f3223ec38ddd88ac046d
     Pseudo is Projector augmented-wave + core cor, Zval =  3.0
     Generated using "atomic" code by A. Dal Corso  v.5.1
     Shape of augmentation charge: PSQ
     Using radial grid of 1135 points,  6 beta functions with:
                l(1) =   0
                l(2) =   0
                l(3) =   1
                l(4) =   1
                l(5) =   2
                l(6) =   2
     Q(r) pseudized with 0 coefficients

     PseudoPot. # 3 for Co read from file:
     /home/pragov/projects/rrg-bengioy-ad/pragov/crystal_structure_design/SSSP/Co_pbe_v1.2.uspp.F.UPF
     MD5 check sum: 5f91765df6ddd3222702df6e7b74a16d
     Pseudo is Ultrasoft + core correction, Zval = 17.0
     Generated by new atomic code, or converted to UPF format
     Using radial grid of  863 points,  6 beta functions with:
                l(1) =   0
                l(2) =   0
                l(3) =   1
                l(4) =   1
                l(5) =   2
                l(6) =   2
     Q(r) pseudized with  8 coefficients,  rinner =    1.200   1.200   1.200
                                                       1.200   1.200

     PseudoPot. # 4 for O  read from file:
     /home/pragov/projects/rrg-bengioy-ad/pragov/crystal_structure_design/SSSP/O.pbe-n-kjpaw_psl.0.1.UPF
     MD5 check sum: 0234752ac141de4415c5fc33072bef88
     Pseudo is Projector augmented-wave + core cor, Zval =  6.0
     Generated using "atomic" code by A. Dal Corso  v.5.0.99 svn rev. 10869
     Shape of augmentation charge: BESSEL
     Using radial grid of 1095 points,  4 beta functions with:
                l(1) =   0
                l(2) =   0
                l(3) =   1
                l(4) =   1
     Q(r) pseudized with 0 coefficients

     atomic species   valence    mass     pseudopotential
        Ca            10.00    40.07800     Ca( 1.00)
        Al             3.00    26.98154     Al( 1.00)
        Co            17.00    58.93319     Co( 1.00)
        O              6.00    15.99900     O ( 1.00)

     No symmetry found

                                    s                        frac. trans.

      isym =  1     identity

 cryst.   s( 1) = (     1          0          0      )
                  (     0          1          0      )
                  (     0          0          1      )

 cart.    s( 1) = (  1.0000000  0.0000000 -0.0000000 )
                  (  0.0000000  1.0000000 -0.0000000 )
                  (  0.0000000  0.0000000  1.0000000 )

   Cartesian axes

     site n.     atom                  positions (alat units)
         1           Ca  tau(   1) = (   1.7446840   0.5872235   0.4062476  )
         2           Ca  tau(   2) = (   1.3016137   0.4417656   0.5799310  )
         3           Ca  tau(   3) = (   0.2759906   0.0971518   0.2243288  )
         4           Ca  tau(   4) = (   0.7176286   0.2469021   0.0506454  )
         5           Al  tau(   5) = (   1.4125045   0.4993771   0.2056852  )
         6           Al  tau(   6) = (   0.5943617   0.2263803   0.4248912  )
         7           Co  tau(   7) = (   1.0123950   0.3360209   0.3152882  )
         8           Co  tau(   8) = (   0.7999434   0.5995485   0.0000000  )
         9           O   tau(   9) = (   0.5614542   0.1070125   0.2462716  )
        10           O   tau(  10) = (   1.5104982   0.4236883   0.3843048  )
        11           O   tau(  11) = (   0.8044570   0.2500702   0.4478599  )
        12           O   tau(  12) = (   1.2302810   0.3921586   0.1827164  )
        13           O   tau(  13) = (   1.5531836   0.4966293   0.0485506  )
        14           O   tau(  14) = (   0.4835210   0.1397056   0.5820258  )
        15           O   tau(  15) = (   1.1406723   0.2147741   0.4689616  )
        16           O   tau(  16) = (   0.9826294   0.1620385   0.1616148  )
        17           O   tau(  17) = (   0.8843256   0.4620672   0.1666065  )
        18           O   tau(  18) = (   1.0391123   0.5137162   0.4639699  )

   Crystallographic axes

     site n.     atom                  positions (cryst. coord.)
         1           Ca  tau(   1) = (  0.8825120  0.8976750  0.6442480  )
         2           Ca  tau(   2) = (  0.5988380  0.6211490  0.9196840  )
         3           Ca  tau(   3) = (  0.1023250  0.1174880  0.3557520  )
         4           Ca  tau(   4) = (  0.3788510  0.4011620  0.0803160  )
         5           Al  tau(   5) = (  0.7069140  0.7909900  0.3261860  )
         6           Al  tau(   6) = (  0.2090100  0.2930860  0.6738140  )
         7           Co  tau(   7) = (  0.5026880  0.4973120  0.5000000  )
         8           Co  tau(   8) = (  0.0015800  0.9984200  0.0000000  )
         9           O   tau(   9) = (  0.3703250  0.1295760  0.3905500  )
        10           O   tau(  10) = (  0.8704240  0.6296750  0.6094500  )
        11           O   tau(  11) = (  0.3830240  0.3280010  0.7102390  )
        12           O   tau(  12) = (  0.6719990  0.6169760  0.2897610  )
        13           O   tau(  13) = (  0.8822810  0.8174430  0.0769940  )
        14           O   tau(  14) = (  0.1825570  0.1177190  0.9230060  )
        15           O   tau(  15) = (  0.7620730  0.2650560  0.7437030  )
        16           O   tau(  16) = (  0.7349440  0.2379270  0.2562970  )
        17           O   tau(  17) = (  0.2361340  0.7365750  0.2642130  )
        18           O   tau(  18) = (  0.2634250  0.7638660  0.7357870  )

     number of k points=     1  Methfessel-Paxton smearing, width (Ry)=  0.0010
                       cart. coord. in units 2pi/alat
        k(    1) = (   0.0000000   0.0000000   0.0000000), wk =   2.0000000

                       cryst. coord.
        k(    1) = (   0.0000000   0.0000000   0.0000000), wk =   2.0000000

     Check: negative core charge=   -0.000015

     Initial potential from superposition of free atoms

     starting charge     137.9736, renormalised to     140.0000
     Starting wfcs are  114 randomized atomic wfcs
     Checking if some PAW data can be deallocated...

     Self-consistent Calculation

     iteration #  1     ecut=    30.00 Ry     beta= 0.70
     Davidson diagonalization with overlap

     ethr =  1.00E-02,  avg # of iterations =  2.0

     total energy              =   -1389.54150453 Ry
     estimated scf accuracy    <       6.40471026 Ry

[...]

     total energy              =   -1393.21323124 Ry
     estimated scf accuracy    <       0.00000432 Ry

     iteration # 30     ecut=    30.00 Ry     beta= 0.70
     Davidson diagonalization with overlap

     ethr =  2.27E-09,  avg # of iterations =  1.0

     End of self-consistent calculation

          k = 0.0000 0.0000 0.0000 (  2035 PWs)   bands (ev):

   -86.6563 -86.6376 -49.9959 -49.9631 -49.9155 -49.8785 -49.8049 -49.7563
   -30.5969 -30.5710 -30.5479 -30.5241 -12.2530 -11.9508 -11.8804 -11.8006
   -11.7999 -11.7690 -11.7260 -11.5977 -11.5928 -11.5909 -11.5506 -11.5388
   -10.1790  -9.2735  -9.2729  -8.8632  -8.6840  -8.6295  -8.5829  -8.4693
    -8.4221  -8.4057   2.1475   2.2257   3.3487   3.5220   3.5554   3.6188
     3.9055   4.2178   4.2489   4.2999   4.3414   4.5445   4.6141   4.8051
     5.1531   5.2225   5.4746   5.7274   6.1614   6.2254   6.2312   6.2939
     6.4316   6.4954   6.6435   6.6772   6.8998   6.9630   7.1523   7.4620
     7.5826   7.6405   7.8143   8.3124   8.3817   8.7853   8.7880   8.7888
     9.7689  11.9816  12.2308  13.3422  13.3876  14.0235  14.2132  14.3535
    14.3574  14.4505  14.6489  14.6775

     occupation numbers
     1.0000   1.0000   1.0000   1.0000   1.0000   1.0000   1.0000   1.0000
     1.0000   1.0000   1.0000   1.0000   1.0000   1.0000   1.0000   1.0000
     1.0000   1.0000   1.0000   1.0000   1.0000   1.0000   1.0000   1.0000
     1.0000   1.0000   1.0000   1.0000   1.0000   1.0000   1.0000   1.0000
     1.0000   1.0000   1.0000   1.0000   1.0000   1.0000   1.0000   1.0000
     1.0000   1.0000   1.0000   1.0000   1.0000   1.0000   1.0000   1.0000
     1.0000   1.0000   1.0000   1.0000   1.0000   1.0000   1.0000   1.0000
     1.0000   1.0000   1.0000   1.0000   1.0000   1.0000   1.0000   1.0000
     1.0000   1.0000   1.0000   1.0000   1.0000   0.4542   0.2947   0.2510
    -0.0000  -0.0000  -0.0000  -0.0000  -0.0000  -0.0000  -0.0000  -0.0000
    -0.0000  -0.0000  -0.0000  -0.0000

     the Fermi energy is     8.7845 ev

!    total energy              =   -1393.21323075 Ry
     estimated scf accuracy    <       0.00000080 Ry
     smearing contrib. (-TS)   =      -0.00071802 Ry
     internal energy E=F+TS    =   -1393.21251273 Ry

     The total energy is F=E-TS. E is the sum of the following terms:
     one-electron contribution =    -831.67099157 Ry
     hartree contribution      =     487.76604840 Ry
     xc contribution           =    -193.28783496 Ry
     ewald contribution        =    -691.47549937 Ry
     one-center paw contrib.   =    -164.54423523 Ry
      -> PAW hartree energy AE =     304.47738159 Ry
      -> PAW hartree energy PS =    -303.39240813 Ry
      -> PAW xc energy AE      =    -246.51334384 Ry
      -> PAW xc energy PS      =      80.88413516 Ry
      -> total E_H with PAW    =     488.85102185 Ry
      -> total E_XC with PAW   =    -358.91704364 Ry

     convergence has been achieved in  30 iterations

     Forces acting on atoms (cartesian axes, Ry/au):

     atom    1 type  1   force =     0.03078762    0.01534230   -0.02110168
     atom    2 type  1   force =    -0.03491892   -0.00848286    0.01132995
     atom    3 type  1   force =    -0.03387423   -0.00620956    0.02105406
     atom    4 type  1   force =     0.03302716    0.01418989   -0.01128233
     atom    5 type  2   force =    -0.00684188    0.00018955   -0.00185376
     atom    6 type  2   force =     0.00535395    0.00425539    0.00186013
     atom    7 type  3   force =    -0.00090409    0.00314086    0.00023581
     atom    8 type  3   force =    -0.00243444    0.00708214   -0.00026159
     atom    9 type  4   force =    -0.00218547   -0.00323906   -0.01003715
     atom   10 type  4   force =     0.00368114   -0.00128210    0.01004368
     atom   11 type  4   force =    -0.00077145   -0.00108908    0.00801945
     atom   12 type  4   force =     0.00126770   -0.00040914   -0.00801240
     atom   13 type  4   force =    -0.00263058   -0.00426124   -0.00813778
     atom   14 type  4   force =     0.00466217   -0.00182701    0.00813699
     atom   15 type  4   force =     0.02353736   -0.00029866   -0.01737658
     atom   16 type  4   force =    -0.01864416   -0.01436019    0.01738428
     atom   17 type  4   force =    -0.02087763   -0.00848509    0.01377086
     atom   18 type  4   force =     0.02176570    0.00574384   -0.01377194
     The non-local contrib.  to forces
     atom    1 type  1   force =    -0.00469946   -0.01358901   -0.03061978
     atom    2 type  1   force =     0.00247687   -0.01682288   -0.02290331
     atom    3 type  1   force =     0.01189169   -0.00804601    0.03057590
     atom    4 type  1   force =     0.00813156   -0.01493300    0.02294451
     atom    5 type  2   force =    -0.00848474    0.02286462    0.02605007
     atom    6 type  2   force =    -0.00694623    0.02337718   -0.02605158
     atom    7 type  3   force =     0.00357050   -0.01033546    0.00019310
     atom    8 type  3   force =     0.00810831   -0.02448886   -0.00022331
     atom    9 type  4   force =     0.22289418   -0.20466724    0.39803533
     atom   10 type  4   force =    -0.05532634   -0.29750249   -0.39803887
     atom   11 type  4   force =    -0.41060552    0.03900236   -0.25295826
     atom   12 type  4   force =     0.30491393    0.27774260    0.25295090
     atom   13 type  4   force =    -0.22521676    0.09705054    0.46832126
     atom   14 type  4   force =     0.12184200    0.21286778   -0.46829735
     atom   15 type  4   force =    -0.24925444   -0.15195896    0.07745893
     atom   16 type  4   force =     0.28996719    0.02806515   -0.07731282
     atom   17 type  4   force =     0.25882994    0.08575807   -0.10815615
     atom   18 type  4   force =    -0.25797598   -0.08674553    0.10800793
     The ionic contribution  to forces
     atom    1 type  1   force =   -17.60142118   -6.05560039    4.89405823
     atom    2 type  1   force =    17.08776419    5.04407239   -8.23282327
     atom    3 type  1   force =    17.71093993    5.72738425   -4.89405823
     atom    4 type  1   force =   -16.69278625   -6.22777957    8.23282327
     atom    5 type  2   force =    -0.03481435   -0.17473539   -0.42913308
     atom    6 type  2   force =     0.13276661   -0.11881719    0.42913308
     atom    7 type  3   force =    -0.19649151    0.58886432    0.00000000
     atom    8 type  3   force =    -0.27542558    0.82542138   -0.00000000
     atom    9 type  4   force =    -0.24133063    0.21023608   -0.49676150
     atom   10 type  4   force =     0.06672826    0.31302879    0.49676150
     atom   11 type  4   force =   -12.95090531   -4.72012019    5.67640025
     atom   12 type  4   force =    13.19031050    4.00264811   -5.67640025
     atom   13 type  4   force =   -12.42141200   -4.33280606    4.60289352
     atom   14 type  4   force =    12.53433238    3.99439561   -4.60289352
     atom   15 type  4   force =     3.73550960    1.60666307   -1.49238759
     atom   16 type  4   force =    -3.95181044   -0.95843230    1.49238759
     atom   17 type  4   force =    -3.67422480   -1.07288062    2.09448331
     atom   18 type  4   force =     3.58227057    1.34845771   -2.09448331
     The local contribution  to forces
     atom    1 type  1   force =    17.63645211    6.08437712   -4.88367463
     atom    2 type  1   force =   -17.12435149   -5.03539102    8.26775628
     atom    3 type  1   force =   -17.75641273   -5.72537706    4.88338303
     atom    4 type  1   force =    16.71691062    6.25671667   -8.26747797
     atom    5 type  2   force =     0.03533157    0.15430816    0.40379038
     atom    6 type  2   force =    -0.12088287    0.10216425   -0.40379176
     atom    7 type  3   force =     0.19171716   -0.57558412   -0.00054616
     atom    8 type  3   force =     0.26508969   -0.79404933    0.00061797
     atom    9 type  4   force =     0.01837258   -0.01065288    0.09245898
     atom   10 type  4   force =    -0.00823551   -0.01950863   -0.09246360
     atom   11 type  4   force =    13.35758115    4.68079078   -5.41870742
     atom   12 type  4   force =   -13.49195731   -4.27837128    5.41859575
     atom   13 type  4   force =    12.64260669    4.23269581   -5.07482139
     atom   14 type  4   force =   -12.65110906   -4.20726468    5.07486327
     atom   15 type  4   force =    -3.46584978   -1.45649079    1.39809391
     atom   16 type  4   force =     3.64682942    0.91673158   -1.39826500
     atom   17 type  4   force =     3.39774816    0.97939933   -1.97338902
     atom   18 type  4   force =    -3.30582445   -1.25734956    1.97362593
     The core correction contribution to forces
     atom    1 type  1   force =     0.00055239    0.00016111   -0.00111862
     atom    2 type  1   force =    -0.00090402   -0.00039385   -0.00050870
     atom    3 type  1   force =    -0.00053909   -0.00020275    0.00111756
     atom    4 type  1   force =     0.00095985    0.00022800    0.00050980
     atom    5 type  2   force =     0.00112092   -0.00224048   -0.00255830
     atom    6 type  2   force =     0.00044924   -0.00246457    0.00255849
     atom    7 type  3   force =    -0.00002057    0.00005986   -0.00000090
     atom    8 type  3   force =    -0.00008137    0.00024623    0.00000121
     atom    9 type  4   force =    -0.00207987    0.00185034   -0.00378035
     atom   10 type  4   force =     0.00055193    0.00272847    0.00378040
     atom   11 type  4   force =     0.00324645   -0.00070149    0.00315117
     atom   12 type  4   force =    -0.00217475   -0.00251021   -0.00315107
     atom   13 type  4   force =     0.00127612   -0.00127371   -0.00452408
     atom   14 type  4   force =    -0.00025603   -0.00178512    0.00452371
     atom   15 type  4   force =     0.00303402    0.00177835   -0.00084768
     atom   16 type  4   force =    -0.00348511   -0.00039829    0.00084551
     atom   17 type  4   force =    -0.00314699   -0.00104346    0.00117360
     atom   18 type  4   force =     0.00313559    0.00105371   -0.00117139
     The Hubbard contrib.    to forces
     atom    1 type  1   force =     0.00000000    0.00000000    0.00000000
     atom    2 type  1   force =     0.00000000    0.00000000    0.00000000
     atom    3 type  1   force =     0.00000000    0.00000000    0.00000000
     atom    4 type  1   force =     0.00000000    0.00000000    0.00000000
     atom    5 type  2   force =     0.00000000    0.00000000    0.00000000
     atom    6 type  2   force =     0.00000000    0.00000000    0.00000000
     atom    7 type  3   force =     0.00000000    0.00000000    0.00000000
     atom    8 type  3   force =     0.00000000    0.00000000    0.00000000
     atom    9 type  4   force =     0.00000000    0.00000000    0.00000000
     atom   10 type  4   force =     0.00000000    0.00000000    0.00000000
     atom   11 type  4   force =     0.00000000    0.00000000    0.00000000
     atom   12 type  4   force =     0.00000000    0.00000000    0.00000000
     atom   13 type  4   force =     0.00000000    0.00000000    0.00000000
     atom   14 type  4   force =     0.00000000    0.00000000    0.00000000
     atom   15 type  4   force =     0.00000000    0.00000000    0.00000000
     atom   16 type  4   force =     0.00000000    0.00000000    0.00000000
     atom   17 type  4   force =     0.00000000    0.00000000    0.00000000
     atom   18 type  4   force =     0.00000000    0.00000000    0.00000000
     The SCF correction term to forces
     atom    1 type  1   force =    -0.00009417   -0.00000562    0.00025118
     atom    2 type  1   force =     0.00009762    0.00005342   -0.00019299
     atom    3 type  1   force =     0.00024805    0.00003292    0.00003386
     atom    4 type  1   force =    -0.00018654   -0.00004130   -0.00008387
     atom    5 type  2   force =     0.00000680   -0.00000644   -0.00000476
     atom    6 type  2   force =    -0.00003073   -0.00000338    0.00000996
     atom    7 type  3   force =     0.00032240    0.00013716    0.00058783
     atom    8 type  3   force =    -0.00012341   -0.00004638   -0.00065939
     atom    9 type  4   force =    -0.00003964   -0.00000445    0.00000845
     atom   10 type  4   force =    -0.00003513   -0.00002733    0.00000231
     atom   11 type  4   force =    -0.00008614   -0.00005963    0.00013178
     atom   12 type  4   force =     0.00017741    0.00008254   -0.00000967
     atom   13 type  4   force =     0.00011746    0.00007309   -0.00000903
     atom   14 type  4   force =    -0.00014504   -0.00003969   -0.00006106
     atom   15 type  4   force =     0.00010003   -0.00028942    0.00030391
     atom   16 type  4   force =    -0.00014314   -0.00032541   -0.00027293
     atom   17 type  4   force =    -0.00008186    0.00028250   -0.00034282
     atom   18 type  4   force =     0.00016205    0.00032841    0.00024695

     Total force =     0.099584     Total SCF correction =     0.001433

     Computing stress (Cartesian axis) and pressure

          total   stress  (Ry/bohr**3)                   (kbar)     P=     -402.11
  -0.00285594  -0.00010223   0.00004731         -420.12      -15.04        6.96
  -0.00010223  -0.00258327   0.00001573          -15.04     -380.01        2.31
   0.00004731   0.00001573  -0.00276116            6.96        2.31     -406.18

     kinetic stress (kbar)  22940.16    -76.77     69.39
                              -76.77  23144.73     23.47
                               69.39     23.47  23062.95

     local   stress (kbar)   7871.00  14508.53 -17646.43
                            14508.53 -30769.12  -5889.63
                           -17646.43  -5889.63 -30035.39

     nonloc. stress (kbar)   7040.06      0.62     -7.09
                                0.62   7038.60     -2.04
                               -7.09     -2.04   7028.17

     hartree stress (kbar)   4359.67  -6844.81   8301.39
                            -6844.81  22589.44   2770.73
                             8301.39   2770.73  22137.02

     exc-cor stress (kbar)  -4251.25     -1.18      2.74
                               -1.18  -4248.10      0.92
                                2.74      0.92  -4244.46

     corecor stress (kbar)  -1762.04     -0.48      1.06
                               -0.48  -1760.76      0.35
                                1.06      0.35  -1760.64

     ewald   stress (kbar) -36617.73  -7600.93   9285.90
                            -7600.93 -16374.80   3098.51
                             9285.90   3098.51 -16593.81

     hubbard stress (kbar)      0.00      0.00      0.00
                                0.00      0.00      0.00
                                0.00      0.00      0.00

     DFT-D   stress (kbar)      0.00      0.00      0.00
                                0.00      0.00      0.00
                                0.00      0.00      0.00

     XDM     stress (kbar)      0.00      0.00      0.00
                                0.00      0.00      0.00
                                0.00      0.00      0.00

     dft-nl  stress (kbar)      0.00      0.00      0.00
                                0.00      0.00      0.00
                                0.00      0.00      0.00

     TS-vdW  stress (kbar)      0.00      0.00      0.00
                                0.00      0.00      0.00
                                0.00      0.00      0.00

[...]

                                0.00      0.00      0.00

     Writing all to output data dir new_calculations/myprefix.save/

     General routines

     Parallel routines

     PAW routines

   This run was terminated on:   3:10:12  21May2023

   JOB DONE.