     Program PWSCF v.7.0 starts on 20May2023 at 17:50:54

     Reading input from espresso_20128.pwi
Warning: card &CELL ignored
Warning: card / ignored

     Current dimensions of program PWSCF are:
     Max number of different atomic species (ntypx) = 10
     Max number of k-points (npk) =  40000
     Max angular momentum in pseudopotentials (lmaxx) =  4

     gamma-point specific algorithms are used
     Message from routine setup:
     using ibrav=0 with symmetry is DISCOURAGED, use correct ibrav instead

     Subspace diagonalization in iterative solution of the eigenvalue problem:
     a serial algorithm will be used

     Using Slab Decomposition

     bravais-lattice index     =            0
     lattice parameter (alat)  =      24.6904  a.u.
     unit-cell volume          =    1610.3483 (a.u.)^3
     number of atoms/cell      =           11
     number of atomic types    =            3
     number of electrons       =       161.00
     number of Kohn-Sham states=           97
     kinetic-energy cutoff     =      30.0000  Ry
     charge density cutoff     =     240.0000  Ry
     scf convergence threshold =      1.0E-06
     mixing beta               =       0.7000
     number of iterations used =            8  plain     mixing
     Exchange-correlation= PBE
                           (   1   4   3   4   0   0   0)

     celldm(1)=  24.690414  celldm(2)=   0.000000  celldm(3)=   0.000000
     celldm(4)=   0.000000  celldm(5)=   0.000000  celldm(6)=   0.000000

     crystal axes: (cart. coord. in units of alat)
               a(1) = (   1.000000   0.000000   0.000000 )
               a(2) = (   0.889827   0.456297   0.000000 )
               a(3) = (  -0.942449  -0.238356   0.234470 )

     reciprocal axes: (cart. coord. in units 2 pi/alat)
               b(1) = (  1.000000 -1.950104  2.037065 )
               b(2) = (  0.000000  2.191553  2.227878 )
               b(3) = (  0.000000  0.000000  4.264943 )

     PseudoPot. # 1 for La read from file:
     /home/pragov/projects/rrg-bengioy-ad/pragov/crystal_structure_design/SSSP/La.GGA-PBE-paw-v1.0.UPF
     MD5 check sum: 436541e95c1ad8901025bd0b0ed42ae2
     Pseudo is Projector augmented-wave + core cor, Zval = 11.0
     Generated using ATOMPAW code
     Shape of augmentation charge: BESSEL
     Using radial grid of 1101 points,  8 beta functions with:
                l(1) =   0
                l(2) =   0
                l(3) =   1
                l(4) =   1
                l(5) =   2
                l(6) =   2
                l(7) =   3
                l(8) =   3
     Q(r) pseudized with 0 coefficients

     PseudoPot. # 2 for Ge read from file:
     /home/pragov/projects/rrg-bengioy-ad/pragov/crystal_structure_design/SSSP/ge_pbe_v1.4.uspp.F.UPF
     MD5 check sum: 9c9eaa91e581c3f09632fb3098b2c6b2
     Pseudo is Ultrasoft + core correction, Zval = 14.0
     Generated by new atomic code, or converted to UPF format
     Using radial grid of  873 points,  6 beta functions with:
                l(1) =   0
                l(2) =   0
                l(3) =   1
                l(4) =   1
                l(5) =   2
                l(6) =   2
     Q(r) pseudized with  8 coefficients,  rinner =    1.400   1.400   1.400
                                                       1.400   1.400

     PseudoPot. # 3 for Pd read from file:
     /home/pragov/projects/rrg-bengioy-ad/pragov/crystal_structure_design/SSSP/Pd_ONCV_PBE-1.0.oncvpsp.upf
     MD5 check sum: eb77f42b51d86fb18e25f68156a31cf1
     Pseudo is Norm-conserving, Zval = 18.0
     Generated using ONCVPSP code by D. R. Hamann
     Using radial grid of 1410 points,  6 beta functions with:
                l(1) =   0
                l(2) =   0
                l(3) =   1
                l(4) =   1
                l(5) =   2
                l(6) =   2

     atomic species   valence    mass     pseudopotential
        La            11.00   138.90547     La( 1.00)
        Ge            14.00    72.63000     Ge( 1.00)
        Pd            18.00   106.42000     Pd( 1.00)

      2 Sym. Ops., with inversion, found

                                    s                        frac. trans.

      isym =  1     identity

 cryst.   s( 1) = (     1          0          0      )
                  (     0          1          0      )
                  (     0          0          1      )

 cart.    s( 1) = (  1.0000000  0.0000000  0.0000000 )
                  (  0.0000000  1.0000000 -0.0000000 )
                  (  0.0000000  0.0000000  1.0000000 )

      isym =  2     inversion

 cryst.   s( 2) = (    -1          0          0      )
                  (     0         -1          0      )
                  (     0          0         -1      )

 cart.    s( 2) = ( -1.0000000 -0.0000000 -0.0000000 )
                  (  0.0000000 -1.0000000  0.0000000 )
                  (  0.0000000  0.0000000 -1.0000000 )

   Cartesian axes

     site n.     atom                  positions (alat units)
         1           La  tau(   1) = (   0.6383830   0.2694605   0.1172349  )
         2           La  tau(   2) = (   0.3089953  -0.0515192   0.1172349  )
         3           La  tau(   3) = (   0.0000000   0.0000000   0.0000000  )
         4           Ge  tau(   4) = (   0.8509080   0.2054511   0.0000000  )
         5           Ge  tau(   5) = (   1.0389194   0.2508463   0.0000000  )
         6           Ge  tau(   6) = (   0.3448531   0.1985879   0.1172349  )
         7           Ge  tau(   7) = (   0.6025251   0.0193534   0.1172349  )
         8           Pd  tau(   8) = (   0.7904193   0.0647203   0.1172349  )
         9           Pd  tau(   9) = (   1.4170379   0.3421427   0.0000000  )
        10           Pd  tau(  10) = (   0.4727895   0.1141546   0.0000000  )
        11           Pd  tau(  11) = (   0.1569589   0.1532210   0.1172349  )

   Crystallographic axes

     site n.     atom                  positions (cryst. coord.)
         1           La  tau(   1) = (  0.3517220  0.8517220  0.5000000  )
         2           La  tau(   2) = (  0.6482780  0.1482780  0.5000000  )
         3           La  tau(   3) = (  0.0000000  0.0000000  0.0000000  )
         4           Ge  tau(   4) = (  0.4502570  0.4502570  0.0000000  )
         5           Ge  tau(   5) = (  0.5497430  0.5497430  0.0000000  )
         6           Ge  tau(   6) = (  0.1964010  0.6964010  0.5000000  )
         7           Ge  tau(   7) = (  0.8035990  0.3035990  0.5000000  )
         8           Pd  tau(   8) = (  0.9030230  0.4030230  0.5000000  )
         9           Pd  tau(   9) = (  0.7498240  0.7498240  0.0000000  )
        10           Pd  tau(  10) = (  0.2501760  0.2501760  0.0000000  )
        11           Pd  tau(  11) = (  0.0969770  0.5969770  0.5000000  )

     number of k points=     1  Methfessel-Paxton smearing, width (Ry)=  0.0010
                       cart. coord. in units 2pi/alat
        k(    1) = (   0.0000000   0.0000000   0.0000000), wk =   2.0000000

                       cryst. coord.
        k(    1) = (   0.0000000   0.0000000   0.0000000), wk =   2.0000000

     Initial potential from superposition of free atoms

     starting charge     160.9695, renormalised to     161.0000
     Starting wfcs are  172 randomized atomic wfcs
     Checking if some PAW data can be deallocated...

     Self-consistent Calculation

     iteration #  1     ecut=    30.00 Ry     beta= 0.70
     Davidson diagonalization with overlap

     ethr =  1.00E-02,  avg # of iterations =  2.0

     Threshold (ethr) on eigenvalues was too large:
     Diagonalizing with lowered threshold

     Davidson diagonalization with overlap

[...]

     total energy              =   -3241.04559288 Ry
     estimated scf accuracy    <       0.61024917 Ry

[...]

     c_bands:  2 eigenvalues not converged
     ethr =  7.65E-06,  avg # of iterations = 20.0

[...]

     total energy              =   -3241.31525778 Ry
     estimated scf accuracy    <       0.00000329 Ry

     iteration # 21     ecut=    30.00 Ry     beta= 0.70
     Davidson diagonalization with overlap

     ethr =  1.74E-09,  avg # of iterations =  2.0

     End of self-consistent calculation

          k = 0.0000 0.0000 0.0000 (  2213 PWs)   bands (ev):

   -72.5522 -72.5520 -72.3737 -72.3662 -37.9861 -37.9859 -37.9460 -37.9349
   -37.8708 -37.8696 -37.8607 -37.8602 -37.7249 -37.6807 -37.6683 -37.6192
   -18.6795 -18.6779 -18.4923 -10.9905 -10.9901 -10.9900 -10.9864 -10.9786
   -10.9743 -10.9565 -10.9550 -10.9426 -10.9375 -10.3651 -10.2806 -10.2599
   -10.2073 -10.1874 -10.1865 -10.1432 -10.1296 -10.1291 -10.1202  -2.5233
    -2.4798  -2.4324  -2.4274  -2.4229  -2.4188  -2.2614  -2.2509  -2.1636
     3.5176   4.1412   4.4533   6.0919   8.2278   8.6718   8.9517   8.9677
     9.0403   9.3814   9.6636   9.6933   9.9912  10.0146  10.0963  10.3738
    10.3823  10.4218  10.4304  10.4599  10.5114  10.6844  10.8143  11.3181
    12.1434  12.3322  12.7598  12.7861  13.0862  13.3471  13.5288  13.7344
    13.8810  13.8885  14.0438  14.4490  15.4943  15.5634  15.8867  16.0076
    16.0392  16.0628  16.0904  16.0912  16.1286  16.1412  16.1597  16.2110
    16.2211

     occupation numbers
     1.0000   1.0000   1.0000   1.0000   1.0000   1.0000   1.0000   1.0000
     1.0000   1.0000   1.0000   1.0000   1.0000   1.0000   1.0000   1.0000
     1.0000   1.0000   1.0000   1.0000   1.0000   1.0000   1.0000   1.0000
     1.0000   1.0000   1.0000   1.0000   1.0000   1.0000   1.0000   1.0000
     1.0000   1.0000   1.0000   1.0000   1.0000   1.0000   1.0000   1.0000
     1.0000   1.0000   1.0000   1.0000   1.0000   1.0000   1.0000   1.0000
     1.0000   1.0000   1.0000   1.0000   1.0000   1.0000   1.0000   1.0000
     1.0000   1.0000   1.0000   1.0000   1.0000   1.0000   1.0000   1.0000
     1.0000   1.0000   1.0000   1.0000   1.0000   1.0000   1.0000   1.0000
     1.0000   1.0000   1.0000   1.0000   1.0000   1.0000   1.0000   1.0000
     0.4331   0.0669  -0.0000  -0.0000  -0.0000  -0.0000  -0.0000  -0.0000
    -0.0000  -0.0000  -0.0000  -0.0000  -0.0000  -0.0000  -0.0000  -0.0000
    -0.0000

     the Fermi energy is    13.8799 ev

!    total energy              =   -3241.31525771 Ry
     estimated scf accuracy    <       0.00000046 Ry
     smearing contrib. (-TS)   =      -0.00031579 Ry
     internal energy E=F+TS    =   -3241.31494193 Ry

     The total energy is F=E-TS. E is the sum of the following terms:
     one-electron contribution =   -1206.54701036 Ry
     hartree contribution      =     712.48741416 Ry
     xc contribution           =    -358.69361015 Ry
     ewald contribution        =   -1194.25452141 Ry
     one-center paw contrib.   =   -1194.30721417 Ry
      -> PAW hartree energy AE =     106.05333986 Ry
      -> PAW hartree energy PS =    -106.15287363 Ry
      -> PAW xc energy AE      =   -1216.26574981 Ry
      -> PAW xc energy PS      =      22.05806942 Ry
      -> total E_H with PAW    =     712.38788039 Ry
      -> total E_XC with PAW   =   -1552.90129055 Ry

     convergence has been achieved in  21 iterations

     Forces acting on atoms (cartesian axes, Ry/au):

     atom    1 type  1   force =     0.07693042    0.01858002    0.00000633
     atom    2 type  1   force =    -0.07693042   -0.01858002   -0.00000633
     atom    3 type  1   force =     0.00000000    0.00000000    0.00000000
     atom    4 type  2   force =    -0.01860811   -0.00454528   -0.00004422
     atom    5 type  2   force =     0.01860811    0.00454528    0.00004422
     atom    6 type  2   force =     0.01926777    0.00463045   -0.00004430
     atom    7 type  2   force =    -0.01926777   -0.00463045    0.00004430
     atom    8 type  3   force =    -0.02534741   -0.00611936    0.00000505
     atom    9 type  3   force =     0.00305366    0.00073035   -0.00000208
     atom   10 type  3   force =    -0.00305366   -0.00073035    0.00000208
     atom   11 type  3   force =     0.02534741    0.00611936   -0.00000505
     The non-local contrib.  to forces
     atom    1 type  1   force =    -0.16296729   -0.03936480   -0.00001502
     atom    2 type  1   force =     0.16296729    0.03936480    0.00001502
     atom    3 type  1   force =     0.00000000    0.00000000    0.00000000
     atom    4 type  2   force =    -0.10063482   -0.02434752   -0.00004776
     atom    5 type  2   force =     0.10063482    0.02434752    0.00004776
     atom    6 type  2   force =    -0.04168164   -0.01007428   -0.00003138
     atom    7 type  2   force =     0.04168164    0.01007428    0.00003138
     atom    8 type  3   force =     0.06742811    0.01630271    0.00002603
     atom    9 type  3   force =    -0.01590189   -0.00384425   -0.00000740
     atom   10 type  3   force =     0.01590189    0.00384425    0.00000740
     atom   11 type  3   force =    -0.06742811   -0.01630271   -0.00002603
     The ionic contribution  to forces
     atom    1 type  1   force =    20.41538940    4.92927975   -0.00000000
     atom    2 type  1   force =   -20.41538940   -4.92927975    0.00000000
     atom    3 type  1   force =    -0.00000000   -0.00000000   -0.00000000
     atom    4 type  2   force =    11.83136598    2.85667403   -0.00000000
     atom    5 type  2   force =   -11.83136598   -2.85667403    0.00000000
     atom    6 type  2   force =   -26.63814423   -6.43175902    0.00000001
     atom    7 type  2   force =    26.63814423    6.43175902   -0.00000001
     atom    8 type  3   force =    22.97321152    5.54686389   -0.00000000
     atom    9 type  3   force =    -1.38395359   -0.33415451    0.00000000
     atom   10 type  3   force =     1.38395359    0.33415450   -0.00000000
     atom   11 type  3   force =   -22.97321152   -5.54686389    0.00000000
     The local contribution  to forces
     atom    1 type  1   force =   -20.17539428   -4.87131207    0.00001501
     atom    2 type  1   force =    20.17544767    4.87133095   -0.00004135
     atom    3 type  1   force =    -0.00067926   -0.00018094   -0.00002010
     atom    4 type  2   force =   -11.75404894   -2.83792964    0.00008385
     atom    5 type  2   force =    11.75216874    2.83746907   -0.00006326
     atom    6 type  2   force =    26.69554555    6.44563762    0.00005256
     atom    7 type  2   force =   -26.69341277   -6.44511144   -0.00003393
     atom    8 type  3   force =   -23.06763995   -5.56971151   -0.00001092
     atom    9 type  3   force =     1.40524717    0.33932890   -0.00001230
     atom   10 type  3   force =    -1.40063783   -0.33821167    0.00000102
     atom   11 type  3   force =    23.06560141    5.56919893    0.00011104
     The core correction contribution to forces
     atom    1 type  1   force =     0.00010525    0.00002544    0.00000002
     atom    2 type  1   force =    -0.00010533   -0.00002545   -0.00000003
     atom    3 type  1   force =    -0.00000000   -0.00000000   -0.00000001
     atom    4 type  2   force =     0.00304951    0.00073724    0.00000145
     atom    5 type  2   force =    -0.00305301   -0.00073847   -0.00000065
     atom    6 type  2   force =     0.00459508    0.00110994    0.00000086
     atom    7 type  2   force =    -0.00459167   -0.00110890   -0.00000069
     atom    8 type  3   force =     0.00000000    0.00000000    0.00000000
     atom    9 type  3   force =     0.00000000    0.00000000    0.00000000
     atom   10 type  3   force =     0.00000000    0.00000000    0.00000000
     atom   11 type  3   force =     0.00000000    0.00000000    0.00000000
     The Hubbard contrib.    to forces
     atom    1 type  1   force =     0.00000000    0.00000000    0.00000000
     atom    2 type  1   force =     0.00000000    0.00000000    0.00000000
     atom    3 type  1   force =     0.00000000    0.00000000    0.00000000
     atom    4 type  2   force =     0.00000000    0.00000000    0.00000000
     atom    5 type  2   force =     0.00000000    0.00000000    0.00000000
     atom    6 type  2   force =     0.00000000    0.00000000    0.00000000
     atom    7 type  2   force =     0.00000000    0.00000000    0.00000000
     atom    8 type  3   force =     0.00000000    0.00000000    0.00000000
     atom    9 type  3   force =     0.00000000    0.00000000    0.00000000
     atom   10 type  3   force =     0.00000000    0.00000000    0.00000000
     atom   11 type  3   force =     0.00000000    0.00000000    0.00000000
     The SCF correction term to forces
     atom    1 type  1   force =    -0.00022459   -0.00004952    0.00000308
     atom    2 type  1   force =     0.00012742    0.00002820    0.00001678
     atom    3 type  1   force =     0.00070803    0.00017649    0.00000906
     atom    4 type  2   force =     0.00170239    0.00032797   -0.00007871
     atom    5 type  2   force =     0.00026577    0.00014854    0.00006344
     atom    6 type  2   force =    -0.00114352   -0.00030256   -0.00006291
     atom    7 type  2   force =    -0.00118573   -0.00026215    0.00005099
     atom    8 type  3   force =     0.00166894    0.00042873   -0.00001609
     atom    9 type  3   force =    -0.00238771   -0.00060824    0.00001668
     atom   10 type  3   force =    -0.00232099   -0.00052587   -0.00000727
     atom   11 type  3   force =     0.00040166    0.00009021   -0.00009608

     Total force =     0.124201     Total SCF correction =     0.004634

     Computing stress (Cartesian axis) and pressure

          total   stress  (Ry/bohr**3)                   (kbar)     P=     -486.44
  -0.00334645  -0.00001808   0.00006891         -492.28       -2.66       10.14
  -0.00001808  -0.00327598  -0.00028546           -2.66     -481.91      -41.99
   0.00006891  -0.00028546  -0.00329791           10.14      -41.99     -485.14

     kinetic stress (kbar)  27694.50    -12.26     -4.59
                              -12.26  27742.21     18.92
                               -4.59     18.92  27746.93

     local   stress (kbar)   2587.32   6126.04  -2660.51
                             6126.04 -21305.36  11019.09
                            -2660.51  11019.09 -21769.15

     nonloc. stress (kbar)   7217.66    -30.90     16.39
                              -30.90   7338.15    -67.91
                               16.39    -67.91   7339.35

     hartree stress (kbar)  13536.89  -3098.98   1169.95
                            -3098.98  25623.49  -4845.61
                             1169.95  -4845.61  25925.24

     exc-cor stress (kbar)   3901.31      0.74      0.58
                                0.74   3898.43     -2.40
                                0.58     -2.40   3898.03

     corecor stress (kbar) -11245.24      0.46     -0.10
                                0.46 -11247.03      0.40
                               -0.10      0.40 -11247.10

     ewald   stress (kbar) -44184.72  -2987.77   1488.41
                            -2987.77 -32531.81  -6164.47
                             1488.41  -6164.47 -32378.44

     hubbard stress (kbar)      0.00      0.00      0.00
                                0.00      0.00      0.00
                                0.00      0.00      0.00

     DFT-D   stress (kbar)      0.00      0.00      0.00
                                0.00      0.00      0.00
                                0.00      0.00      0.00

     XDM     stress (kbar)      0.00      0.00      0.00
                                0.00      0.00      0.00
                                0.00      0.00      0.00

     dft-nl  stress (kbar)      0.00      0.00      0.00
                                0.00      0.00      0.00
                                0.00      0.00      0.00

     TS-vdW  stress (kbar)      0.00      0.00      0.00
                                0.00      0.00      0.00
                                0.00      0.00      0.00

[...]

                                0.00      0.00      0.00

     Writing all to output data dir new_calculations/myprefix.save/

     General routines

     Parallel routines

     PAW routines

   This run was terminated on:  17:53:27  20May2023

   JOB DONE.