     Program PWSCF v.7.0 starts on 20May2023 at 13:47:54

     Reading input from espresso_7417.pwi
Warning: card &CELL ignored
Warning: card / ignored

     Current dimensions of program PWSCF are:
     Max number of different atomic species (ntypx) = 10
     Max number of k-points (npk) =  40000
     Max angular momentum in pseudopotentials (lmaxx) =  4
     file In.pbe-dn-rrkjus_psl.0.2.2.UPF: wavefunction(s)  5S renormalized

     gamma-point specific algorithms are used

     Subspace diagonalization in iterative solution of the eigenvalue problem:
     a serial algorithm will be used

     Using Slab Decomposition

     bravais-lattice index     =            0
     lattice parameter (alat)  =       8.4168  a.u.
     unit-cell volume          =    1834.1811 (a.u.)^3
     number of atoms/cell      =           12
     number of atomic types    =            3
     number of electrons       =       188.00
     number of Kohn-Sham states=          113
     kinetic-energy cutoff     =      30.0000  Ry
     charge density cutoff     =     240.0000  Ry
     scf convergence threshold =      1.0E-06
     mixing beta               =       0.7000
     number of iterations used =            8  plain     mixing
     Exchange-correlation=  SLA  PW   PBX  PBC
                           (   1   4   3   4   0   0   0)

     celldm(1)=   8.416824  celldm(2)=   0.000000  celldm(3)=   0.000000
     celldm(4)=   0.000000  celldm(5)=   0.000000  celldm(6)=   0.000000

     crystal axes: (cart. coord. in units of alat)
               a(1) = (   1.000000   0.000000   0.000000 )
               a(2) = (   0.001718   1.662498   0.000000 )
               a(3) = (  -0.479498   0.002967   1.850275 )

     reciprocal axes: (cart. coord. in units 2 pi/alat)
               b(1) = (  1.000000 -0.001033  0.259151 )
               b(2) = (  0.000000  0.601505 -0.000965 )
               b(3) = (  0.000000  0.000000  0.540460 )

     PseudoPot. # 1 for Yb read from file:
     /home/pragov/projects/rrg-bengioy-ad/pragov/crystal_structure_design/SSSP/Yb.GGA-PBE-paw-v1.0.UPF
     MD5 check sum: 43b6465ad8021f06e3edb42ae292e187
     Pseudo is Projector augmented-wave + core cor, Zval = 24.0
     Generated using ATOMPAW code
     Shape of augmentation charge: BESSEL
     Using radial grid of 1117 points,  8 beta functions with:
                l(1) =   0
                l(2) =   0
                l(3) =   1
                l(4) =   1
                l(5) =   2
                l(6) =   2
                l(7) =   3
                l(8) =   3
     Q(r) pseudized with 0 coefficients

     PseudoPot. # 2 for In read from file:
     /home/pragov/projects/rrg-bengioy-ad/pragov/crystal_structure_design/SSSP/In.pbe-dn-rrkjus_psl.0.2.2.UPF
     MD5 check sum: 25e7c42c3b55b68f4bf926be2e7201a4
     Pseudo is Ultrasoft + core correction, Zval = 13.0
     Generated using "atomic" code by A. Dal Corso  v.5.0.99 svn rev. 10869
     Using radial grid of 1241 points,  6 beta functions with:
                l(1) =   0
                l(2) =   0
                l(3) =   1
                l(4) =   1
                l(5) =   2
                l(6) =   2
     Q(r) pseudized with 0 coefficients

     PseudoPot. # 3 for Ni read from file:
     /home/pragov/projects/rrg-bengioy-ad/pragov/crystal_structure_design/SSSP/ni_pbe_v1.4.uspp.F.UPF
     MD5 check sum: 1ee80287db30b12d2bc1f57a5b5d6409
     Pseudo is Ultrasoft + core correction, Zval = 18.0
     Generated by new atomic code, or converted to UPF format
     Using radial grid of  865 points,  6 beta functions with:
                l(1) =   0
                l(2) =   0
                l(3) =   1
                l(4) =   1
                l(5) =   2
                l(6) =   2
     Q(r) pseudized with 10 coefficients,  rinner =    0.980   0.980   0.980
                                                       0.980   0.980

     atomic species   valence    mass     pseudopotential
        Yb            24.00   173.05400     Yb( 1.00)
        In            13.00   114.81800     In( 1.00)
        Ni            18.00    58.69340     Ni( 1.00)

     No symmetry found

                                    s                        frac. trans.

      isym =  1     identity

 cryst.   s( 1) = (     1          0          0      )
                  (     0          1          0      )
                  (     0          0          1      )

 cart.    s( 1) = (  1.0000000 -0.0000000  0.0000000 )
                  (  0.0000000  1.0000000 -0.0000000 )
                  (  0.0000000  0.0000000  1.0000000 )

   Cartesian axes

     site n.     atom                  positions (alat units)
         1           Yb  tau(   1) = (   0.5197837   0.4231717   1.3795659  )
         2           Yb  tau(   2) = (   0.0049381   1.2519445   0.4717017  )
         3           In  tau(   3) = (   0.0028062   0.4138290   0.2600824  )
         4           In  tau(   4) = (   0.5057272   0.7569822   0.6876145  )
         5           In  tau(   5) = (   0.5202197   1.2521876   1.5887170  )
         6           In  tau(   6) = (   0.5059366   0.0852184   0.6904105  )
         7           In  tau(   7) = (   0.0147559   0.9168179   1.1582892  )
         8           In  tau(   8) = (   0.0227966   0.0062466   1.8478081  )
         9           In  tau(   9) = (   0.0210257   0.8396716   1.8498846  )
        10           In  tau(  10) = (   0.0148368   1.5893646   1.1595926  )
        11           Ni  tau(  11) = (   0.0072385   0.4218793   0.8434624  )
        12           Ni  tau(  12) = (   0.5117650   1.2517703   1.0049143  )

   Crystallographic axes

     site n.     atom                  positions (cryst. coord.)
         1           Yb  tau(   1) = (  0.8768623  0.2532090  0.7456003  )
         2           Yb  tau(   2) = (  0.1258865  0.7525953  0.2549359  )
         3           In  tau(   3) = (  0.0697792  0.2486691  0.1405642  )
         4           In  tau(   4) = (  0.6831411  0.4546650  0.3716282  )
         5           In  tau(   5) = (  0.9306434  0.7516641  0.8586381  )
         6           In  tau(   6) = (  0.6847692  0.0505933  0.3731393  )
         7           In  tau(   7) = (  0.3139804  0.5503529  0.6260091  )
         8           In  tau(   8) = (  0.5016514  0.0019749  0.9986665  )
         9           In  tau(   9) = (  0.4995575  0.5032819  0.9997888  )
        10           In  tau(  10) = (  0.3137042  0.9548915  0.6267135  )
        11           Ni  tau(  11) = (  0.2253867  0.2529487  0.4558578  )
        12           Ni  tau(  12) = (  0.7708961  0.7519762  0.5431161  )

     number of k points=     1  Methfessel-Paxton smearing, width (Ry)=  0.0010
                       cart. coord. in units 2pi/alat
        k(    1) = (   0.0000000   0.0000000   0.0000000), wk =   2.0000000

                       cryst. coord.
        k(    1) = (   0.0000000   0.0000000   0.0000000), wk =   2.0000000

     Check: negative core charge=   -0.000002

     Initial potential from superposition of free atoms

     starting charge     183.9622, renormalised to     188.0000
     Starting wfcs are  162 randomized atomic wfcs
     Checking if some PAW data can be deallocated...

     Self-consistent Calculation

     iteration #  1     ecut=    30.00 Ry     beta= 0.70
     Davidson diagonalization with overlap

     ethr =  1.00E-02,  avg # of iterations =  3.0

     total energy              =   -3716.43860171 Ry
     estimated scf accuracy    <     136.01276034 Ry

[...]

     c_bands:  1 eigenvalues not converged
     ethr =  1.00E-02,  avg # of iterations = 20.0

[...]

     total energy              =   -3866.72399824 Ry
     estimated scf accuracy    <       0.00000276 Ry

     iteration # 48     ecut=    30.00 Ry     beta= 0.70
     Davidson diagonalization with overlap

     ethr =  1.47E-09,  avg # of iterations =  5.0

     End of self-consistent calculation

          k = 0.0000 0.0000 0.0000 (  2548 PWs)   bands (ev):

   -90.3789 -90.3748 -50.8788 -50.8719 -50.7600 -50.7555 -50.5890 -50.5849
   -38.9529 -38.9509 -11.4151 -11.4120 -11.2605 -11.2568 -11.2320 -11.2304
    -2.5914  -2.5311  -2.5055  -2.4835  -2.4800  -2.4217  -2.3816  -2.3455
    -2.3433  -2.3208  -2.2952  -2.2834  -2.2785  -2.2725  -2.2552  -2.2434
    -2.2406  -2.1450  -2.1246  -2.1122  -2.1007  -2.0867  -2.0723  -2.0628
    -2.0507  -2.0221  -1.9830  -1.9738  -1.9673  -1.9667  -1.9573  -1.9261
    -1.8947  -1.8867  -1.8432  -1.8183  -1.8020  -1.7971  -1.7914  -1.7734
     2.7953   4.7389   5.1117   5.5776   7.2726   7.7744   8.1369   8.3911
     9.0814  10.2470  10.3754  10.3801  10.7409  10.9690  10.9986  11.0304
    11.0545  11.0928  11.3059  11.3714  11.7345  11.9832  12.6045  12.6509
    12.6653  12.6979  12.7134  12.7226  12.7337  12.7455  12.7495  12.7639
    12.7648  12.7925  12.7944  12.8075  13.3257  13.6673  13.6760  14.0653
    14.1061  14.1484  14.5926  14.5958  15.0317  15.2284  15.2685  15.3771
    15.4035  15.4774  15.4998  15.9190  16.1329  16.2607  16.4255  16.9781
    17.0099

     occupation numbers
     1.0000   1.0000   1.0000   1.0000   1.0000   1.0000   1.0000   1.0000
     1.0000   1.0000   1.0000   1.0000   1.0000   1.0000   1.0000   1.0000
     1.0000   1.0000   1.0000   1.0000   1.0000   1.0000   1.0000   1.0000
     1.0000   1.0000   1.0000   1.0000   1.0000   1.0000   1.0000   1.0000
     1.0000   1.0000   1.0000   1.0000   1.0000   1.0000   1.0000   1.0000
     1.0000   1.0000   1.0000   1.0000   1.0000   1.0000   1.0000   1.0000
     1.0000   1.0000   1.0000   1.0000   1.0000   1.0000   1.0000   1.0000
     1.0000   1.0000   1.0000   1.0000   1.0000   1.0000   1.0000   1.0000
     1.0000   1.0000   1.0000   1.0000   1.0000   1.0000   1.0000   1.0000
     1.0000   1.0000   1.0000   1.0000   1.0000   1.0000   1.0000   1.0000
     1.0000   1.0000   1.0000   1.0000   1.0000   1.0000   1.0000   1.0000
     1.0000   1.0000   1.0000   1.0000   1.0000   0.7556   0.2444  -0.0000
    -0.0000  -0.0000  -0.0000  -0.0000  -0.0000  -0.0000  -0.0000  -0.0000
    -0.0000  -0.0000  -0.0000  -0.0000  -0.0000  -0.0000  -0.0000  -0.0000
    -0.0000

     the Fermi energy is    13.6716 ev

!    total energy              =   -3866.72399817 Ry
     estimated scf accuracy    <       0.00000062 Ry
     smearing contrib. (-TS)   =      -0.00040553 Ry
     internal energy E=F+TS    =   -3866.72359264 Ry

     The total energy is F=E-TS. E is the sum of the following terms:
     one-electron contribution =   -1716.22448947 Ry
     hartree contribution      =     933.37395278 Ry
     xc contribution           =    -529.24350833 Ry
     ewald contribution        =   -1586.18663104 Ry
     one-center paw contrib.   =    -968.44291658 Ry
      -> PAW hartree energy AE =     903.80581707 Ry
      -> PAW hartree energy PS =    -776.93592794 Ry
      -> PAW xc energy AE      =   -1169.86640839 Ry
      -> PAW xc energy PS      =      74.55360268 Ry
      -> total E_H with PAW    =    1060.24384191 Ry
      -> total E_XC with PAW   =   -1624.55631404 Ry

     convergence has been achieved in  48 iterations

     Forces acting on atoms (cartesian axes, Ry/au):

     atom    1 type  1   force =    -0.00103932    0.00153185   -0.02479226
     atom    2 type  1   force =     0.00010309    0.00057119    0.02487997
     atom    3 type  2   force =     0.00191644    0.00086474   -0.00916563
     atom    4 type  2   force =     0.00177811   -0.01139318   -0.00882469
     atom    5 type  2   force =    -0.00221557   -0.00089944    0.00770903
     atom    6 type  2   force =     0.00153831    0.01135736   -0.00975682
     atom    7 type  2   force =    -0.00230464    0.01096820    0.01053290
     atom    8 type  2   force =    -0.00005162   -0.00042169   -0.00016416
     atom    9 type  2   force =    -0.00030109   -0.00222495    0.00042706
     atom   10 type  2   force =    -0.00003606   -0.01059870    0.01004092
     atom   11 type  3   force =     0.00010089    0.00131695    0.02442278
     atom   12 type  3   force =     0.00051147   -0.00107233   -0.02530910
     The non-local contrib.  to forces
     atom    1 type  1   force =     0.00001654    0.00100343   -0.10789867
     atom    2 type  1   force =    -0.00356036    0.00290724    0.10424901
     atom    3 type  2   force =    -0.00796658    0.01508069   -0.01544826
     atom    4 type  2   force =    -0.00513188   -0.00450983   -0.00532293
     atom    5 type  2   force =     0.01159839    0.00638470    0.01598196
     atom    6 type  2   force =    -0.00535078    0.00245641   -0.00996295
     atom    7 type  2   force =     0.00341590   -0.00103020    0.00771391
     atom    8 type  2   force =     0.01013186    0.00754135    0.00376955
     atom    9 type  2   force =    -0.00965102    0.00475404   -0.00351966
     atom   10 type  2   force =     0.00590823   -0.00656274    0.00668285
     atom   11 type  3   force =     0.00385127    0.00300577   -0.27931482
     atom   12 type  3   force =     0.00813636   -0.00957471    0.27962171
     The ionic contribution  to forces
     atom    1 type  1   force =    -0.57312201   -0.05480791   31.74296831
     atom    2 type  1   force =     0.21515010   -0.10120302  -32.08544289
     atom    3 type  2   force =    -0.02657953    0.20787134  -15.27988499
     atom    4 type  2   force =     0.04840009   -0.91317291  -16.46605134
     atom    5 type  2   force =     0.05377828    0.03015102   15.26834823
     atom    6 type  2   force =    -0.02488398    0.84008152  -16.22275487
     atom    7 type  2   force =     0.00779802    0.78754042   16.38055473
     atom    8 type  2   force =    -0.06802116   -0.03155014    0.10790122
     atom    9 type  2   force =     0.07019222   -0.11748994    0.06019637
     atom   10 type  2   force =     0.03363852   -0.78267971   16.35790597
     atom   11 type  3   force =     0.19714192    0.02859434   -6.49500389
     atom   12 type  3   force =     0.06650753    0.10666499    6.63126314
     The local contribution  to forces
     atom    1 type  1   force =     0.57192855    0.05383609  -31.66084166
     atom    2 type  1   force =    -0.21168419    0.10030231   32.00558936
     atom    3 type  2   force =     0.03610839   -0.22192035   15.28470455
     atom    4 type  2   force =    -0.04104287    0.91011902   16.45669671
     atom    5 type  2   force =    -0.06712618   -0.03572251  -15.27414959
     atom    6 type  2   force =     0.03202000   -0.83582923   16.21674115
     atom    7 type  2   force =    -0.01371976   -0.77779292  -16.37196220
     atom    8 type  2   force =     0.05739737    0.02250237   -0.11090731
     atom    9 type  2   force =    -0.06047039    0.11157057   -0.05576575
     atom   10 type  2   force =    -0.03966583    0.78125173  -16.34887000
     atom   11 type  3   force =    -0.20094535   -0.03123269    6.79610756
     atom   12 type  3   force =    -0.07398906   -0.09720819   -6.93423368
     The core correction contribution to forces
     atom    1 type  1   force =    -0.00000006    0.00000003    0.00000016
     atom    2 type  1   force =     0.00000008   -0.00000005   -0.00000010
     atom    3 type  2   force =     0.00032884   -0.00125087    0.00249151
     atom    4 type  2   force =    -0.00053904   -0.00347713    0.00610269
     atom    5 type  2   force =    -0.00042373   -0.00049454   -0.00230511
     atom    6 type  2   force =    -0.00012894    0.00377590    0.00631817
     atom    7 type  2   force =     0.00019989    0.00359119   -0.00625661
     atom    8 type  2   force =     0.00024071   -0.00017780   -0.00044740
     atom    9 type  2   force =    -0.00010571    0.00017706    0.00002766
     atom   10 type  2   force =     0.00024480   -0.00347701   -0.00599474
     atom   11 type  3   force =     0.00005624   -0.00007048    0.00213948
     atom   12 type  3   force =    -0.00012810    0.00010405   -0.00217562
     The Hubbard contrib.    to forces
     atom    1 type  1   force =     0.00000000    0.00000000    0.00000000
     atom    2 type  1   force =     0.00000000    0.00000000    0.00000000
     atom    3 type  2   force =     0.00000000    0.00000000    0.00000000
     atom    4 type  2   force =     0.00000000    0.00000000    0.00000000
     atom    5 type  2   force =     0.00000000    0.00000000    0.00000000
     atom    6 type  2   force =     0.00000000    0.00000000    0.00000000
     atom    7 type  2   force =     0.00000000    0.00000000    0.00000000
     atom    8 type  2   force =     0.00000000    0.00000000    0.00000000
     atom    9 type  2   force =     0.00000000    0.00000000    0.00000000
     atom   10 type  2   force =     0.00000000    0.00000000    0.00000000
     atom   11 type  3   force =     0.00000000    0.00000000    0.00000000
     atom   12 type  3   force =     0.00000000    0.00000000    0.00000000
     The SCF correction term to forces
     atom    1 type  1   force =     0.00016734    0.00149815    0.00108416
     atom    2 type  1   force =     0.00022713   -0.00143734    0.00058915
     atom    3 type  2   force =     0.00005499    0.00108186   -0.00092389
     atom    4 type  2   force =     0.00012147   -0.00035439   -0.00014527
     atom    5 type  2   force =    -0.00001266   -0.00122016   -0.00006191
     atom    6 type  2   force =    -0.00008832    0.00087070    0.00000624
     atom    7 type  2   force =     0.00003099   -0.00134236    0.00058762
     atom    8 type  2   force =     0.00022927    0.00126046   -0.00037568
     atom    9 type  2   force =    -0.00023651   -0.00123875   -0.00040701
     atom   10 type  2   force =    -0.00013211    0.00086697    0.00042140
     atom   11 type  3   force =     0.00002649    0.00101794    0.00059900
     atom   12 type  3   force =     0.00001441   -0.00106054    0.00031992

     Total force =     0.059361     Total SCF correction =     0.004429

     Computing stress (Cartesian axis) and pressure

          total   stress  (Ry/bohr**3)                   (kbar)     P=     -110.92
   0.00001383   0.00000279  -0.00004914            2.03        0.41       -7.23
   0.00000279  -0.00168580   0.00000455            0.41     -247.99        0.67
  -0.00004914   0.00000455  -0.00059016           -7.23        0.67      -86.82

     kinetic stress (kbar)  19591.70     -0.27     -5.33
                               -0.27  19338.10     -0.72
                               -5.33     -0.72  19546.76

     local   stress (kbar)  -9257.91     33.88    427.68
                               33.88  -7010.17      2.77
                              427.68      2.77   9292.48

     nonloc. stress (kbar)   8844.30      0.00     -4.79
                                0.00   8763.20      0.03
                               -4.79      0.03   8855.96

     hartree stress (kbar)  28447.23    -12.96   -176.97
                              -12.96  27286.23     -2.89
                             -176.97     -2.89  19125.04

     exc-cor stress (kbar)  10413.38     -0.04     -0.27
                               -0.04  10412.89     -0.01
                               -0.27     -0.01  10415.20

     corecor stress (kbar) -19060.94      0.01      0.08
                                0.01 -19059.79      0.02
                                0.08      0.02 -19061.02

     ewald   stress (kbar) -38975.74    -20.21   -247.63
                              -20.21 -39978.44      1.46
                             -247.63      1.46 -48261.23

     hubbard stress (kbar)      0.00      0.00      0.00
                                0.00      0.00      0.00
                                0.00      0.00      0.00

     DFT-D   stress (kbar)      0.00      0.00      0.00
                                0.00      0.00      0.00
                                0.00      0.00      0.00

     XDM     stress (kbar)      0.00      0.00      0.00
                                0.00      0.00      0.00
                                0.00      0.00      0.00

     dft-nl  stress (kbar)      0.00      0.00      0.00
                                0.00      0.00      0.00
                                0.00      0.00      0.00

     TS-vdW  stress (kbar)      0.00      0.00      0.00
                                0.00      0.00      0.00
                                0.00      0.00      0.00

[...]

                                0.00      0.00      0.00

     Writing all to output data dir new_calculations/myprefix.save/

     General routines

     Parallel routines

     PAW routines

   This run was terminated on:  13:50:26  20May2023

   JOB DONE.