     Program PWSCF v.7.0 starts on 20May2023 at  7: 3:13

     Reading input from espresso_9201.pwi
Warning: card &CELL ignored
Warning: card / ignored

     Current dimensions of program PWSCF are:
     Max number of different atomic species (ntypx) = 10
     Max number of k-points (npk) =  40000
     Max angular momentum in pseudopotentials (lmaxx) =  4
     file Al.pbe-n-kjpaw_psl.1.0.0.UPF: wavefunction(s)  3S 3P renormalized

     gamma-point specific algorithms are used
     Message from routine setup:
     using ibrav=0 with symmetry is DISCOURAGED, use correct ibrav instead

     Subspace diagonalization in iterative solution of the eigenvalue problem:
     a serial algorithm will be used

     Using Slab Decomposition

     bravais-lattice index     =            0
     lattice parameter (alat)  =      13.3794  a.u.
     unit-cell volume          =    1194.8254 (a.u.)^3
     number of atoms/cell      =            9
     number of atomic types    =            3
     number of electrons       =       102.00
     number of Kohn-Sham states=           61
     kinetic-energy cutoff     =      30.0000  Ry
     charge density cutoff     =     240.0000  Ry
     scf convergence threshold =      1.0E-06
     mixing beta               =       0.7000
     number of iterations used =            8  plain     mixing
     Exchange-correlation=  SLA  PW   PBX  PBC
                           (   1   4   3   4   0   0   0)

     celldm(1)=  13.379412  celldm(2)=   0.000000  celldm(3)=   0.000000
     celldm(4)=   0.000000  celldm(5)=   0.000000  celldm(6)=   0.000000

     crystal axes: (cart. coord. in units of alat)
               a(1) = (   1.000000   0.000000   0.000000 )
               a(2) = (  -0.500000   0.866025   0.000000 )
               a(3) = (   0.000000   0.000000   0.576053 )

     reciprocal axes: (cart. coord. in units 2 pi/alat)
               b(1) = (  1.000000  0.577350  0.000000 )
               b(2) = (  0.000000  1.154701  0.000000 )
               b(3) = (  0.000000  0.000000  1.735950 )

     PseudoPot. # 1 for Pr read from file:
     /home/pragov/projects/rrg-bengioy-ad/pragov/crystal_structure_design/SSSP/Pr.GGA-PBE-paw-v1.0.UPF
     MD5 check sum: b5e1e58e76df433569641143f671cc27
     Pseudo is Projector augmented-wave + core cor, Zval = 13.0
     Generated using ATOMPAW code
     Shape of augmentation charge: BESSEL
     Using radial grid of 1103 points,  8 beta functions with:
                l(1) =   0
                l(2) =   0
                l(3) =   1
                l(4) =   1
                l(5) =   2
                l(6) =   2
                l(7) =   3
                l(8) =   3
     Q(r) pseudized with 0 coefficients

     PseudoPot. # 2 for Al read from file:
     /home/pragov/projects/rrg-bengioy-ad/pragov/crystal_structure_design/SSSP/Al.pbe-n-kjpaw_psl.1.0.0.UPF
     MD5 check sum: cfc449ca30b5f3223ec38ddd88ac046d
     Pseudo is Projector augmented-wave + core cor, Zval =  3.0
     Generated using "atomic" code by A. Dal Corso  v.5.1
     Shape of augmentation charge: PSQ
     Using radial grid of 1135 points,  6 beta functions with:
                l(1) =   0
                l(2) =   0
                l(3) =   1
                l(4) =   1
                l(5) =   2
                l(6) =   2
     Q(r) pseudized with 0 coefficients

     PseudoPot. # 3 for Ni read from file:
     /home/pragov/projects/rrg-bengioy-ad/pragov/crystal_structure_design/SSSP/ni_pbe_v1.4.uspp.F.UPF
     MD5 check sum: 1ee80287db30b12d2bc1f57a5b5d6409
     Pseudo is Ultrasoft + core correction, Zval = 18.0
     Generated by new atomic code, or converted to UPF format
     Using radial grid of  865 points,  6 beta functions with:
                l(1) =   0
                l(2) =   0
                l(3) =   1
                l(4) =   1
                l(5) =   2
                l(6) =   2
     Q(r) pseudized with 10 coefficients,  rinner =    0.980   0.980   0.980
                                                       0.980   0.980

     atomic species   valence    mass     pseudopotential
        Pr            13.00   140.90766     Pr( 1.00)
        Al             3.00    26.98154     Al( 1.00)
        Ni            18.00    58.69340     Ni( 1.00)

     12 Sym. Ops. (no inversion) found

                                    s                        frac. trans.

      isym =  1     identity

 cryst.   s( 1) = (     1          0          0      )
                  (     0          1          0      )
                  (     0          0          1      )

 cart.    s( 1) = (  1.0000000  0.0000000  0.0000000 )
                  (  0.0000000  1.0000000  0.0000000 )
                  (  0.0000000  0.0000000  1.0000000 )

      isym =  2     180 deg rotation - cart. axis [1,0,0]

[...]

      isym =  3     120 deg rotation - cryst. axis [0,0,1]

[...]

      isym =  6     180 deg rotation - cryst. axis [1,1,0]

[...]

      isym =  7     inv. 180 deg rotation - cart. axis [0,0,1]

[...]

      isym =  8     inv. 180 deg rotation - cart. axis [0,1,0]

[...]

      isym =  9     inv.  60 deg rotation - cryst. axis [0,0,1]

 cryst.   s( 9) = (    -1         -1          0      )
                  (     1          0          0      )
                  (     0          0         -1      )

 cart.    s( 9) = ( -0.5000000  0.8660254  0.0000000 )
                  ( -0.8660254 -0.5000000  0.0000000 )
                  (  0.0000000  0.0000000 -1.0000000 )

[...]

 cryst.   s(10) = (     0          1          0      )
                  (    -1         -1          0      )
                  (     0          0         -1      )

 cart.    s(10) = ( -0.5000000 -0.8660254  0.0000000 )
                  (  0.8660254 -0.5000000  0.0000000 )
                  (  0.0000000  0.0000000 -1.0000000 )

[...]

      isym = 12     inv. 180 deg rotation - cryst. axis [2,1,0]

 cryst.   s(12) = (    -1         -1          0      )
                  (     0          1          0      )
                  (     0          0          1      )

 cart.    s(12) = ( -0.5000000 -0.8660254  0.0000000 )
                  ( -0.8660254  0.5000000  0.0000000 )
                  (  0.0000000  0.0000000  1.0000000 )

   Cartesian axes

     site n.     atom                  positions (alat units)
         1           Pr  tau(   1) = (   0.7905240   0.3628231   0.2880267  )
         2           Pr  tau(   2) = (   0.2905240   0.5032023   0.2880267  )
         3           Pr  tau(   3) = (   0.4189520   0.0000000   0.2880267  )
         4           Al  tau(   4) = (  -0.3867405   0.6698542   0.0000000  )
         5           Al  tau(   5) = (   0.1132595   0.1961712   0.0000000  )
         6           Al  tau(   6) = (   0.7734810   0.0000000   0.0000000  )
         7           Ni  tau(   7) = (  -0.0000005   0.5773506   0.0000000  )
         8           Ni  tau(   8) = (   0.5000005   0.2886748   0.0000000  )
         9           Ni  tau(   9) = (   0.0000000   0.0000000   0.2880267  )

   Crystallographic axes

     site n.     atom                  positions (cryst. coord.)
         1           Pr  tau(   1) = (  1.0000000  0.4189520  0.5000000  )
         2           Pr  tau(   2) = (  0.5810480  0.5810480  0.5000000  )
         3           Pr  tau(   3) = (  0.4189520  0.0000000  0.5000000  )
         4           Al  tau(   4) = ( -0.0000000  0.7734810  0.0000000  )
         5           Al  tau(   5) = (  0.2265190  0.2265190  0.0000000  )
         6           Al  tau(   6) = (  0.7734810  0.0000000  0.0000000  )
         7           Ni  tau(   7) = (  0.3333330  0.6666670  0.0000000  )
         8           Ni  tau(   8) = (  0.6666670  0.3333330  0.0000000  )
         9           Ni  tau(   9) = (  0.0000000  0.0000000  0.5000000  )

     number of k points=     1  Methfessel-Paxton smearing, width (Ry)=  0.0010
                       cart. coord. in units 2pi/alat
        k(    1) = (   0.0000000   0.0000000   0.0000000), wk =   2.0000000

                       cryst. coord.
        k(    1) = (   0.0000000   0.0000000   0.0000000), wk =   2.0000000

     Check: negative core charge=   -0.000003

     Initial potential from superposition of free atoms

     starting charge      95.9709, renormalised to     102.0000
     Starting wfcs are  147 randomized atomic wfcs
     Checking if some PAW data can be deallocated...

     Self-consistent Calculation

     iteration #  1     ecut=    30.00 Ry     beta= 0.70
     Davidson diagonalization with overlap

     ethr =  1.00E-02,  avg # of iterations =  4.0

     total energy              =   -2559.87197841 Ry
     estimated scf accuracy    <     148.41021507 Ry

[...]

     total energy              =   -2673.09796684 Ry
     estimated scf accuracy    <       0.00000270 Ry

     iteration # 97     ecut=    30.00 Ry     beta= 0.70
     Davidson diagonalization with overlap

     ethr =  2.65E-09,  avg # of iterations =  2.0

     End of self-consistent calculation

          k = 0.0000 0.0000 0.0000 (  1660 PWs)   bands (ev):

   -91.6996 -91.5048 -91.5027 -52.2273 -52.0759 -52.0656 -51.9230 -51.9229
   -51.6767 -51.6766 -51.6737 -51.6737 -23.3480 -23.2652 -23.2652  -5.9072
    -5.7178  -5.7178  -5.3541  -5.2516  -5.1348  -5.1347  -5.0554  -5.0554
     4.0260   7.7804   7.8754   7.8754   9.2588   9.4465   9.4465   9.4646
     9.4646   9.5330   9.9801   9.9875   9.9875  10.1213  10.1213  10.3008
    10.3008  10.5818  10.5818  10.7502  10.7594  10.7594  11.8388  12.3639
    12.3639  12.3866  12.4262  12.5333  12.5333  12.5461  12.5637  12.5637
    12.5872  12.6846  12.7260  12.7261  12.7979

     occupation numbers
     1.0000   1.0000   1.0000   1.0000   1.0000   1.0000   1.0000   1.0000
     1.0000   1.0000   1.0000   1.0000   1.0000   1.0000   1.0000   1.0000
     1.0000   1.0000   1.0000   1.0000   1.0000   1.0000   1.0000   1.0000
     1.0000   1.0000   1.0000   1.0000   1.0000   1.0000   1.0000   1.0000
     1.0000   1.0000   1.0000   1.0000   1.0000   1.0000   1.0000   1.0000
     1.0000   1.0000   1.0000   1.0000   1.0000   1.0000   1.0000   1.0000
     1.0000   1.0000   1.0000  -0.0000  -0.0000  -0.0000  -0.0000  -0.0000
    -0.0000  -0.0000  -0.0000  -0.0000  -0.0000

     the Fermi energy is    12.4791 ev

!    total energy              =   -2673.09796596 Ry
     estimated scf accuracy    <       0.00000094 Ry
     smearing contrib. (-TS)   =       0.00000000 Ry
     internal energy E=F+TS    =   -2673.09796596 Ry

     The total energy is F=E-TS. E is the sum of the following terms:
     one-electron contribution =    -929.82530149 Ry
     hartree contribution      =     524.07976784 Ry
     xc contribution           =    -150.03155683 Ry
     ewald contribution        =    -754.62080190 Ry
     one-center paw contrib.   =   -1362.70007359 Ry
      -> PAW hartree energy AE =     193.96956381 Ry
      -> PAW hartree energy PS =    -194.14615562 Ry
      -> PAW xc energy AE      =   -1400.09665551 Ry
      -> PAW xc energy PS      =      37.57317374 Ry
      -> total E_H with PAW    =     523.90317602 Ry
      -> total E_XC with PAW   =   -1512.55503860 Ry

     convergence has been achieved in  97 iterations

     Forces acting on atoms (cartesian axes, Ry/au):

     atom    1 type  1   force =    -0.00421794    0.00730569    0.00000000
     atom    2 type  1   force =    -0.00421794   -0.00730569   -0.00000000
     atom    3 type  1   force =     0.00843589   -0.00000000    0.00000000
     atom    4 type  2   force =     0.00827609   -0.01433461    0.00000000
     atom    5 type  2   force =     0.00827609    0.01433461    0.00000000
     atom    6 type  2   force =    -0.01655219    0.00000000   -0.00000000
     atom    7 type  3   force =     0.00000000    0.00000000    0.00000000
     atom    8 type  3   force =     0.00000000    0.00000000   -0.00000000
     atom    9 type  3   force =    -0.00000000    0.00000000    0.00000000
     The non-local contrib.  to forces
     atom    1 type  1   force =     0.05445364   -0.09431647    0.00000000
     atom    2 type  1   force =     0.05445364    0.09431647   -0.00000000
     atom    3 type  1   force =    -0.10890728    0.00000000    0.00000000
     atom    4 type  2   force =     0.01639801   -0.02840219    0.00000000
     atom    5 type  2   force =     0.01639801    0.02840219   -0.00000000
     atom    6 type  2   force =    -0.03279603    0.00000000    0.00000000
     atom    7 type  3   force =     0.00000000    0.00000000    0.00000000
     atom    8 type  3   force =     0.00000000    0.00000000    0.00000000
     atom    9 type  3   force =    -0.00000000   -0.00000000    0.00000000
     The ionic contribution  to forces
     atom    1 type  1   force =     0.55072079   -0.95381206    0.00000000
     atom    2 type  1   force =     0.55066559    0.95378075    0.00000000
     atom    3 type  1   force =    -1.10138587    0.00003219    0.00000000
     atom    4 type  2   force =    -0.11216342    0.19423964    0.00000000
     atom    5 type  2   force =    -0.11213487   -0.19422329   -0.00000000
     atom    6 type  2   force =     0.22429817   -0.00001655    0.00000000
     atom    7 type  3   force =     0.00009656   -0.00005600   -0.00000000
     atom    8 type  3   force =    -0.00009678    0.00005563   -0.00000000
     atom    9 type  3   force =    -0.00000018   -0.00000031    0.00000000
     The local contribution  to forces
     atom    1 type  1   force =    -0.60996003    1.05549848   -0.00001399
     atom    2 type  1   force =    -0.60873332   -1.05538580   -0.00000492
     atom    3 type  1   force =     1.21881238    0.00035276    0.00001008
     atom    4 type  2   force =     0.10610888   -0.18406197   -0.00000142
     atom    5 type  2   force =     0.10618719    0.18405343   -0.00000222
     atom    6 type  2   force =    -0.21236355   -0.00007045    0.00000382
     atom    7 type  3   force =     0.00058418   -0.00067764    0.00000409
     atom    8 type  3   force =    -0.00013258    0.00105772   -0.00000924
     atom    9 type  3   force =    -0.00046109   -0.00046124    0.00001394
     The core correction contribution to forces
     atom    1 type  1   force =    -0.00002582    0.00004450   -0.00000000
     atom    2 type  1   force =    -0.00002559   -0.00004451   -0.00000000
     atom    3 type  1   force =     0.00005140    0.00000008    0.00000000
     atom    4 type  2   force =    -0.00217225    0.00376082    0.00000003
     atom    5 type  2   force =    -0.00217172   -0.00376090   -0.00000000
     atom    6 type  2   force =     0.00434372   -0.00000033    0.00000012
     atom    7 type  3   force =     0.00000017    0.00000051    0.00000057
     atom    8 type  3   force =    -0.00000045   -0.00000034   -0.00000003
     atom    9 type  3   force =    -0.00000089   -0.00000032   -0.00000001
     The Hubbard contrib.    to forces
     atom    1 type  1   force =     0.00000000    0.00000000    0.00000000
     atom    2 type  1   force =     0.00000000    0.00000000    0.00000000
     atom    3 type  1   force =     0.00000000    0.00000000    0.00000000
     atom    4 type  2   force =     0.00000000    0.00000000    0.00000000
     atom    5 type  2   force =     0.00000000    0.00000000    0.00000000
     atom    6 type  2   force =     0.00000000    0.00000000    0.00000000
     atom    7 type  3   force =     0.00000000    0.00000000    0.00000000
     atom    8 type  3   force =     0.00000000    0.00000000    0.00000000
     atom    9 type  3   force =     0.00000000    0.00000000    0.00000000
     The SCF correction term to forces
     atom    1 type  1   force =     0.00036650   -0.00010700   -0.00000112
     atom    2 type  1   force =    -0.00034884    0.00004487    0.00001013
     atom    3 type  1   force =    -0.00011990   -0.00026000   -0.00000857
     atom    4 type  2   force =     0.00008537    0.00011654    0.00000050
     atom    5 type  2   force =    -0.00000112   -0.00012695    0.00000055
     atom    6 type  2   force =    -0.00002413    0.00007453   -0.00000039
     atom    7 type  3   force =    -0.00059699    0.00071311    0.00000960
     atom    8 type  3   force =     0.00014915   -0.00107582    0.00001017
     atom    9 type  3   force =     0.00041670    0.00039744   -0.00001238

     Total force =     0.032178     Total SCF correction =     0.001665

     Computing stress (Cartesian axis) and pressure

          total   stress  (Ry/bohr**3)                   (kbar)     P=     -419.75
  -0.00300940   0.00000000   0.00000000         -442.70        0.00        0.00
   0.00000000  -0.00300940  -0.00000000            0.00     -442.70       -0.00
   0.00000000  -0.00000000  -0.00254132            0.00       -0.00     -373.84

     kinetic stress (kbar)  17050.20     -0.00      0.00
                               -0.00  17050.20      0.00
                               -0.00      0.00  17107.93

     local   stress (kbar)  -9885.90      0.00      0.02
                                0.00  -9885.58      0.01
                                0.02      0.01 -16631.96

     nonloc. stress (kbar)   9950.39     -0.00      0.00
                               -0.00   9950.39     -0.00
                               -0.00      0.00   9632.79

     hartree stress (kbar)  20556.67     -0.05      0.00
                               -0.05  20556.39     -0.00
                                0.00     -0.00  23410.84

     exc-cor stress (kbar)  -4704.25     -0.00      0.00
                               -0.00  -4704.25      0.00
                                0.00      0.00  -4700.76

     corecor stress (kbar)  -1034.93      0.00      0.00
                                0.00  -1034.93      0.00
                                0.00      0.00  -1034.70

     ewald   stress (kbar) -32374.91      0.03     -0.00
                                0.03 -32374.87     -0.00
                               -0.00     -0.00 -28157.98

     hubbard stress (kbar)      0.00      0.00      0.00
                                0.00      0.00      0.00
                                0.00      0.00      0.00

     DFT-D   stress (kbar)      0.00      0.00      0.00
                                0.00      0.00      0.00
                                0.00      0.00      0.00

     XDM     stress (kbar)      0.00      0.00      0.00
                                0.00      0.00      0.00
                                0.00      0.00      0.00

     dft-nl  stress (kbar)      0.00      0.00      0.00
                                0.00      0.00      0.00
                                0.00      0.00      0.00

     TS-vdW  stress (kbar)      0.00      0.00      0.00
                                0.00      0.00      0.00
                                0.00      0.00      0.00

[...]

                                0.00      0.00      0.00

     Writing all to output data dir new_calculations/myprefix.save/

     General routines

     Parallel routines

     PAW routines

   This run was terminated on:   7: 7: 4  20May2023

   JOB DONE.