     Program PWSCF v.7.0 starts on 20May2023 at 15: 4:49

     Reading input from espresso_1497.pwi
Warning: card &CELL ignored
Warning: card / ignored

     Current dimensions of program PWSCF are:
     Max number of different atomic species (ntypx) = 10
     Max number of k-points (npk) =  40000
     Max angular momentum in pseudopotentials (lmaxx) =  4
     file O.pbe-n-kjpaw_psl.0.1.UPF: wavefunction(s)  2P renormalized

     gamma-point specific algorithms are used

     Subspace diagonalization in iterative solution of the eigenvalue problem:
     a serial algorithm will be used

     Using Slab Decomposition

     bravais-lattice index     =            0
     lattice parameter (alat)  =      10.8420  a.u.
     unit-cell volume          =    1682.6283 (a.u.)^3
     number of atoms/cell      =           20
     number of atomic types    =            3
     number of electrons       =       192.00
     number of Kohn-Sham states=          115
     kinetic-energy cutoff     =      30.0000  Ry
     charge density cutoff     =     240.0000  Ry
     scf convergence threshold =      1.0E-06
     mixing beta               =       0.7000
     number of iterations used =            8  plain     mixing
     Exchange-correlation= SLA  PW   PBX  PBC
                           (   1   4   3   4   0   0   0)

     celldm(1)=  10.841952  celldm(2)=   0.000000  celldm(3)=   0.000000
     celldm(4)=   0.000000  celldm(5)=   0.000000  celldm(6)=   0.000000

     crystal axes: (cart. coord. in units of alat)
               a(1) = (   1.000000   0.000000   0.000000 )
               a(2) = (   0.000001   0.976574   0.000000 )
               a(3) = (   0.000000   0.000000   1.351950 )

     reciprocal axes: (cart. coord. in units 2 pi/alat)
               b(1) = (  1.000000 -0.000001  0.000000 )
               b(2) = (  0.000000  1.023988  0.000000 )
               b(3) = (  0.000000  0.000000  0.739672 )

     PseudoPot. # 1 for Mn read from file:
     /home/pragov/projects/rrg-bengioy-ad/pragov/crystal_structure_design/SSSP/mn_pbe_v1.5.uspp.F.UPF
     MD5 check sum: 82ef2b46521d7a7d9e736dc3972e4928
     Pseudo is Ultrasoft + core correction, Zval = 15.0
     Generated by new atomic code, or converted to UPF format
     Using radial grid of  859 points,  6 beta functions with:
                l(1) =   0
                l(2) =   0
                l(3) =   1
                l(4) =   1
                l(5) =   2
                l(6) =   2
     Q(r) pseudized with  8 coefficients,  rinner =    0.950   0.950   0.950
                                                       0.950   0.950

     PseudoPot. # 2 for Bi read from file:
     /home/pragov/projects/rrg-bengioy-ad/pragov/crystal_structure_design/SSSP/Bi_pbe_v1.uspp.F.UPF
     MD5 check sum: cceb9f28ec65b6d7ff33140f5b0b1758
     Pseudo is Ultrasoft + core correction, Zval = 15.0
     Generated by new atomic code, or converted to UPF format
     Using radial grid of  899 points,  6 beta functions with:
                l(1) =   0
                l(2) =   0
                l(3) =   1
                l(4) =   1
                l(5) =   2
                l(6) =   2
     Q(r) pseudized with  6 coefficients,  rinner =    1.000   1.000   1.000
                                                       1.000   1.000

     PseudoPot. # 3 for O  read from file:
     /home/pragov/projects/rrg-bengioy-ad/pragov/crystal_structure_design/SSSP/O.pbe-n-kjpaw_psl.0.1.UPF
     MD5 check sum: 0234752ac141de4415c5fc33072bef88
     Pseudo is Projector augmented-wave + core cor, Zval =  6.0
     Generated using "atomic" code by A. Dal Corso  v.5.0.99 svn rev. 10869
     Shape of augmentation charge: BESSEL
     Using radial grid of 1095 points,  4 beta functions with:
                l(1) =   0
                l(2) =   0
                l(3) =   1
                l(4) =   1
     Q(r) pseudized with 0 coefficients

     atomic species   valence    mass     pseudopotential
        Mn            15.00    54.93804     Mn( 1.00)
        Bi            15.00   208.98040     Bi( 1.00)
        O              6.00    15.99900     O ( 1.00)

     No symmetry found

                                    s                        frac. trans.

      isym =  1     identity

 cryst.   s( 1) = (     1          0          0      )
                  (     0          1          0      )
                  (     0          0          1      )

 cart.    s( 1) = (  1.0000000 -0.0000000  0.0000000 )
                  (  0.0000000  1.0000000  0.0000000 )
                  (  0.0000000  0.0000000  1.0000000 )

   Cartesian axes

     site n.     atom                  positions (alat units)
         1           Mn  tau(   1) = (   0.0000063   0.4882763   0.0000122  )
         2           Mn  tau(   2) = (   0.4999850   0.0000029   0.6759573  )
         3           Mn  tau(   3) = (   0.0000063   0.4882851   0.6759708  )
         4           Mn  tau(   4) = (   0.4999697   0.9765721   1.3519484  )
         5           Bi  tau(   5) = (   0.5445503   0.4819871   1.0139623  )
         6           Bi  tau(   6) = (   0.0445500   0.0063009   1.0139623  )
         7           Bi  tau(   7) = (   0.4554553   0.4945879   0.3379874  )
         8           Bi  tau(   8) = (   0.9554557   0.9702742   0.3379874  )
         9           O   tau(   9) = (   0.9651374   0.5899171   1.0139636  )
        10           O   tau(  10) = (   0.4651376   0.8749459   1.0139623  )
        11           O   tau(  11) = (   0.0348673   0.3866589   0.3379874  )
        12           O   tau(  12) = (   0.5348671   0.1016301   0.3379874  )
        13           O   tau(  13) = (   0.2886722   0.3173944   1.2860908  )
        14           O   tau(  14) = (   0.7886721   0.1708936   0.7418351  )
        15           O   tau(  15) = (   0.7113325   0.6591807   0.6101160  )
        16           O   tau(  16) = (   0.2113326   0.8056814   0.0658602  )
        17           O   tau(  17) = (   0.7113335   0.6591816   0.0658602  )
        18           O   tau(  18) = (   0.2113326   0.8056814   0.6101160  )
        19           O   tau(  19) = (   0.2886722   0.3173944   0.7418351  )
        20           O   tau(  20) = (   0.7886721   0.1708936   1.2860908  )

   Crystallographic axes

     site n.     atom                  positions (cryst. coord.)
         1           Mn  tau(   1) = (  0.0000060  0.4999890  0.0000090  )
         2           Mn  tau(   2) = (  0.4999850  0.0000030  0.4999870  )
         3           Mn  tau(   3) = (  0.0000060  0.4999980  0.4999970  )
         4           Mn  tau(   4) = (  0.4999690  0.9999980  0.9999990  )
         5           Bi  tau(   5) = (  0.5445500  0.4935490  0.7500000  )
         6           Bi  tau(   6) = (  0.0445500  0.0064520  0.7500000  )
         7           Bi  tau(   7) = (  0.4554550  0.5064520  0.2500000  )
         8           Bi  tau(   8) = (  0.9554550  0.9935490  0.2500000  )
         9           O   tau(   9) = (  0.9651370  0.6040680  0.7500010  )
        10           O   tau(  10) = (  0.4651370  0.8959340  0.7500000  )
        11           O   tau(  11) = (  0.0348670  0.3959340  0.2500000  )
        12           O   tau(  12) = (  0.5348670  0.1040680  0.2500000  )
        13           O   tau(  13) = (  0.2886720  0.3250080  0.9512860  )
        14           O   tau(  14) = (  0.7886720  0.1749930  0.5487150  )
        15           O   tau(  15) = (  0.7113320  0.6749930  0.4512860  )
        16           O   tau(  16) = (  0.2113320  0.8250080  0.0487150  )
        17           O   tau(  17) = (  0.7113330  0.6749940  0.0487150  )
        18           O   tau(  18) = (  0.2113320  0.8250080  0.4512860  )
        19           O   tau(  19) = (  0.2886720  0.3250080  0.5487150  )
        20           O   tau(  20) = (  0.7886720  0.1749930  0.9512860  )

     number of k points=     1  Methfessel-Paxton smearing, width (Ry)=  0.0010
                       cart. coord. in units 2pi/alat
        k(    1) = (   0.0000000   0.0000000   0.0000000), wk =   2.0000000

                       cryst. coord.
        k(    1) = (   0.0000000   0.0000000   0.0000000), wk =   2.0000000

     Check: negative core charge=   -0.000021

     Initial potential from superposition of free atoms

     starting charge     185.9995, renormalised to     192.0000

     negative rho (up, down):  1.664E-01 0.000E+00
     Starting wfcs are  136 randomized atomic wfcs
     Checking if some PAW data can be deallocated...

     Self-consistent Calculation

     iteration #  1     ecut=    30.00 Ry     beta= 0.70
     Davidson diagonalization with overlap

     ethr =  1.00E-02,  avg # of iterations =  2.0

     negative rho (up, down):  1.607E-01 0.000E+00

     total energy              =   -2063.26861658 Ry
     estimated scf accuracy    <      29.26033697 Ry

[...]

     total energy              =   -2085.04558174 Ry
     estimated scf accuracy    <       0.00002145 Ry

     iteration # 31     ecut=    30.00 Ry     beta= 0.70
     Davidson diagonalization with overlap

     ethr =  1.12E-08,  avg # of iterations =  1.0

[...]

     End of self-consistent calculation

          k = 0.0000 0.0000 0.0000 (  2337 PWs)   bands (ev):

   -67.5477 -67.5476 -67.5471 -67.5458 -36.4835 -36.4819 -36.4778 -36.4777
   -36.2725 -36.2707 -36.2691 -36.2688 -36.0397 -36.0390 -36.0371 -36.0334
   -11.5453 -11.5166 -11.4932 -11.4724 -11.4527 -11.4457 -11.4457 -11.4371
   -11.4272 -11.4249 -11.4224 -11.4090 -11.3926 -11.3903 -11.3773 -11.3745
   -11.3679 -11.3451 -11.3384 -11.3327  -7.7432  -6.8809  -6.5991  -6.5917
    -6.4386  -6.1983  -6.1583  -6.0430  -6.0063  -5.8554  -5.7309  -5.7050
     0.7463   1.1249   1.5455   2.4264   5.2211   5.4005   5.4458   5.8642
     5.9799   6.0551   6.0562   6.3327   6.4366   6.9487   7.0463   7.2059
     7.2532   7.3497   7.3896   7.4089   7.6536   7.7173   8.1103   8.4314
     8.5902   8.6878   8.8375   8.8537   8.8958   9.0198   9.2204   9.3936
     9.3964   9.4954   9.6708   9.6920   9.7477   9.9723  10.4003  10.6463
    11.1183  11.3966  11.4599  11.5514  11.9197  11.9395  12.0789  12.0942
    12.1314  12.2248  12.2670  12.2859  12.7750  12.8232  12.8716  12.9216
    13.5004  14.5569  14.7415  14.9256  15.0263  15.2486  15.2857  15.3538
    15.6229  15.9641  16.5039

     occupation numbers
     1.0000   1.0000   1.0000   1.0000   1.0000   1.0000   1.0000   1.0000
     1.0000   1.0000   1.0000   1.0000   1.0000   1.0000   1.0000   1.0000
     1.0000   1.0000   1.0000   1.0000   1.0000   1.0000   1.0000   1.0000
     1.0000   1.0000   1.0000   1.0000   1.0000   1.0000   1.0000   1.0000
     1.0000   1.0000   1.0000   1.0000   1.0000   1.0000   1.0000   1.0000
     1.0000   1.0000   1.0000   1.0000   1.0000   1.0000   1.0000   1.0000
     1.0000   1.0000   1.0000   1.0000   1.0000   1.0000   1.0000   1.0000
     1.0000   1.0000   1.0000   1.0000   1.0000   1.0000   1.0000   1.0000
     1.0000   1.0000   1.0000   1.0000   1.0000   1.0000   1.0000   1.0000
     1.0000   1.0000   1.0000   1.0000   1.0000   1.0000   1.0000   1.0000
     1.0000   1.0000   1.0000   1.0000   1.0000   1.0000   1.0000   1.0000
     1.0000   1.0000   1.0000   1.0000   1.0000   1.0000   1.0011   1.0322
    -0.0334  -0.0000  -0.0000  -0.0000  -0.0000  -0.0000  -0.0000  -0.0000
    -0.0000  -0.0000  -0.0000  -0.0000  -0.0000  -0.0000  -0.0000  -0.0000
    -0.0000  -0.0000  -0.0000

     the Fermi energy is    12.1130 ev

!    total energy              =   -2085.04558173 Ry
     estimated scf accuracy    <       0.00000027 Ry
     smearing contrib. (-TS)   =       0.00024398 Ry
     internal energy E=F+TS    =   -2085.04582572 Ry

     The total energy is F=E-TS. E is the sum of the following terms:
     one-electron contribution =    -668.52209248 Ry
     hartree contribution      =     458.08378747 Ry
     xc contribution           =    -452.62532083 Ry
     ewald contribution        =   -1307.63170744 Ry
     one-center paw contrib.   =    -114.35049244 Ry
      -> PAW hartree energy AE =     343.08387055 Ry
      -> PAW hartree energy PS =    -341.91239585 Ry
      -> PAW xc energy AE      =    -204.11145160 Ry
      -> PAW xc energy PS      =      88.58948447 Ry
      -> total E_H with PAW    =     459.25526217 Ry
      -> total E_XC with PAW   =    -568.14728796 Ry

     convergence has been achieved in  31 iterations

     negative rho (up, down):  1.557E-01 0.000E+00

     Forces acting on atoms (cartesian axes, Ry/au):

     atom    1 type  1   force =    -0.00000659    0.00003139   -0.00002677
     atom    2 type  1   force =     0.00006980    0.00003401    0.00003251
     atom    3 type  1   force =    -0.00000298    0.00001087    0.00001775
     atom    4 type  1   force =     0.00012519    0.00007993    0.00002240
     atom    5 type  2   force =    -0.02248231   -0.01325599   -0.00017988
     atom    6 type  2   force =    -0.02248492    0.01325037   -0.00004966
     atom    7 type  2   force =     0.02255560    0.01317753    0.00017049
     atom    8 type  2   force =     0.02237935   -0.01317437    0.00003741
     atom    9 type  3   force =     0.01772890   -0.02995264   -0.00001259
     atom   10 type  3   force =     0.01769782    0.02995872   -0.00002408
     atom   11 type  3   force =    -0.01771687    0.02993215    0.00001870
     atom   12 type  3   force =    -0.01775619   -0.02996136    0.00000088
     atom   13 type  3   force =     0.01210903   -0.01901922    0.00302344
     atom   14 type  3   force =     0.01208460    0.01896578   -0.00302082
     atom   15 type  3   force =    -0.01212526    0.01897173    0.00298889
     atom   16 type  3   force =    -0.01211333   -0.01898643   -0.00300241
     atom   17 type  3   force =    -0.01214284    0.01895659   -0.00298660
     atom   18 type  3   force =    -0.01210807   -0.01897473    0.00298849
     atom   19 type  3   force =     0.01211251   -0.01899863   -0.00303246
     atom   20 type  3   force =     0.01207655    0.01895430    0.00303429
     The non-local contrib.  to forces
     atom    1 type  1   force =     0.00002614   -0.00002940    0.00006937
     atom    2 type  1   force =    -0.00008569   -0.00001866   -0.00008139
     atom    3 type  1   force =     0.00004541   -0.00003867   -0.00007273
     atom    4 type  1   force =    -0.00007236   -0.00000697    0.00003902
     atom    5 type  2   force =    -0.11722640    0.07633936   -0.00020279
     atom    6 type  2   force =    -0.11721080   -0.07636255   -0.00004735
     atom    7 type  2   force =     0.11730912   -0.07642803    0.00019451
     atom    8 type  2   force =     0.11712941    0.07641241    0.00005889
     atom    9 type  3   force =     0.04429339   -0.06994313   -0.00008480
     atom   10 type  3   force =     0.04419301    0.06992954    0.00010725
     atom   11 type  3   force =    -0.04433051    0.06998926   -0.00003894
     atom   12 type  3   force =    -0.04450726   -0.06998080    0.00014943
     atom   13 type  3   force =    -0.03090700    0.03886735    0.15935213
     atom   14 type  3   force =    -0.03076800   -0.03895844   -0.15930686
     atom   15 type  3   force =     0.03081321   -0.03903896    0.15913290
     atom   16 type  3   force =     0.03102148    0.03912464   -0.15924916
     atom   17 type  3   force =     0.03078330   -0.03914874   -0.15915260
     atom   18 type  3   force =     0.03096438    0.03908261    0.15918893
     atom   19 type  3   force =    -0.03088844    0.03894130   -0.15930735
     atom   20 type  3   force =    -0.03070069   -0.03891148    0.15925182
     The ionic contribution  to forces
     atom    1 type  1   force =    -0.00234192    0.00145049   -0.00267693
     atom    2 type  1   force =     0.00292806    0.00002740    0.00294254
     atom    3 type  1   force =    -0.00154804    0.00062339    0.00195998
     atom    4 type  1   force =     0.00543666    0.00095815   -0.00097392
     atom    5 type  2   force =    -1.43631965   -0.48778101   -0.00001838
     atom    6 type  2   force =    -1.43994213    0.48747963   -0.00029869
     atom    7 type  2   force =     1.43907609    0.48828532   -0.00003590
     atom    8 type  2   force =     1.43542277   -0.48854485   -0.00020867
     atom    9 type  3   force =     0.30288200    1.46751433    0.00055879
     atom   10 type  3   force =     0.30495209   -1.46746841   -0.00143718
     atom   11 type  3   force =    -0.30374850   -1.46776759    0.00075876
     atom   12 type  3   force =    -0.30168327    1.46781099   -0.00142453
     atom   13 type  3   force =     2.22274850   -0.72197122   -1.02152445
     atom   14 type  3   force =     2.22102840    0.72199499    1.02106337
     atom   15 type  3   force =    -2.22196106    0.72330300   -1.01947466
     atom   16 type  3   force =    -2.22431828   -0.72462262    1.02033407
     atom   17 type  3   force =    -2.22176128    0.72386403    1.01937852
     atom   18 type  3   force =    -2.22340134   -0.72386511   -1.01978466
     atom   19 type  3   force =     2.22247478   -0.72252998    1.02139342
     atom   20 type  3   force =     2.22007612    0.72123906   -1.02053148
     The local contribution  to forces
     atom    1 type  1   force =     0.00231908   -0.00129867    0.00242449
     atom    2 type  1   force =    -0.00280870   -0.00006632   -0.00262913
     atom    3 type  1   force =     0.00149174   -0.00050747   -0.00172708
     atom    4 type  1   force =    -0.00532280   -0.00100335    0.00074113
     atom    5 type  2   force =     1.52951657    0.40046718    0.00036292
     atom    6 type  2   force =     1.53298044   -0.40012084    0.00041361
     atom    7 type  2   force =    -1.53229842   -0.40078241   -0.00030265
     atom    8 type  2   force =    -1.52840543    0.40106514    0.00007506
     atom    9 type  3   force =    -0.32849639   -1.42902983   -0.00034023
     atom   10 type  3   force =    -0.33064225    1.42880153    0.00144966
     atom   11 type  3   force =     0.32942012    1.42925729   -0.00084127
     atom   12 type  3   force =     0.32760030   -1.42913660    0.00114366
     atom   13 type  3   force =    -2.18017367    0.66408454    0.86756857
     atom   14 type  3   force =    -2.17806327   -0.66368395   -0.86708168
     atom   15 type  3   force =     2.17944322   -0.66528350    0.86571336
     atom   16 type  3   force =     2.18112805    0.66609658   -0.86652790
     atom   17 type  3   force =     2.17926273   -0.66574309   -0.86567892
     atom   18 type  3   force =     2.18021935    0.66539918    0.86597915
     atom   19 type  3   force =    -2.17990588    0.66458928   -0.86741686
     atom   20 type  3   force =    -2.17723418   -0.66297771    0.86665750
     The core correction contribution to forces
     atom    1 type  1   force =     0.00000055    0.00000380   -0.00000384
     atom    2 type  1   force =     0.00000660    0.00000077    0.00000572
     atom    3 type  1   force =    -0.00000163    0.00000323    0.00000299
     atom    4 type  1   force =     0.00000699    0.00000145   -0.00000090
     atom    5 type  2   force =     0.00158906   -0.00229101    0.00000257
     atom    6 type  2   force =     0.00159464    0.00229237   -0.00000011
     atom    7 type  2   force =    -0.00159454    0.00229142   -0.00000202
     atom    8 type  2   force =    -0.00158986   -0.00228984   -0.00000005
     atom    9 type  3   force =    -0.00084589    0.00140635    0.00000536
     atom   10 type  3   force =    -0.00084498   -0.00140591    0.00000351
     atom   11 type  3   force =     0.00084645   -0.00140675   -0.00000413
     atom   12 type  3   force =     0.00084842    0.00140636   -0.00000594
     atom   13 type  3   force =     0.00017684    0.00019173   -0.00239681
     atom   14 type  3   force =     0.00017525   -0.00019036    0.00240463
     atom   15 type  3   force =    -0.00017574   -0.00018953   -0.00240249
     atom   16 type  3   force =    -0.00017743    0.00018945    0.00239555
     atom   17 type  3   force =    -0.00017549   -0.00018846    0.00239463
     atom   18 type  3   force =    -0.00017706    0.00018933   -0.00240318
     atom   19 type  3   force =     0.00017657    0.00019063    0.00240444
     atom   20 type  3   force =     0.00017464   -0.00019112   -0.00239578
     The Hubbard contrib.    to forces
     atom    1 type  1   force =     0.00000000    0.00000000    0.00000000
     atom    2 type  1   force =     0.00000000    0.00000000    0.00000000
     atom    3 type  1   force =     0.00000000    0.00000000    0.00000000
     atom    4 type  1   force =     0.00000000    0.00000000    0.00000000
     atom    5 type  2   force =     0.00000000    0.00000000    0.00000000
     atom    6 type  2   force =     0.00000000    0.00000000    0.00000000
     atom    7 type  2   force =     0.00000000    0.00000000    0.00000000
     atom    8 type  2   force =     0.00000000    0.00000000    0.00000000
     atom    9 type  3   force =     0.00000000    0.00000000    0.00000000
     atom   10 type  3   force =     0.00000000    0.00000000    0.00000000
     atom   11 type  3   force =     0.00000000    0.00000000    0.00000000
     atom   12 type  3   force =     0.00000000    0.00000000    0.00000000
     atom   13 type  3   force =     0.00000000    0.00000000    0.00000000
     atom   14 type  3   force =     0.00000000    0.00000000    0.00000000
     atom   15 type  3   force =     0.00000000    0.00000000    0.00000000
     atom   16 type  3   force =     0.00000000    0.00000000    0.00000000
     atom   17 type  3   force =     0.00000000    0.00000000    0.00000000
     atom   18 type  3   force =     0.00000000    0.00000000    0.00000000
     atom   19 type  3   force =     0.00000000    0.00000000    0.00000000
     atom   20 type  3   force =     0.00000000    0.00000000    0.00000000
     The SCF correction term to forces
     atom    1 type  1   force =    -0.00001194   -0.00009614    0.00015944
     atom    2 type  1   force =     0.00002803    0.00008951   -0.00020593
     atom    3 type  1   force =     0.00000803   -0.00007093   -0.00014611
     atom    4 type  1   force =     0.00007519    0.00012934    0.00021636
     atom    5 type  2   force =    -0.00004340    0.00000818   -0.00032490
     atom    6 type  2   force =     0.00009144   -0.00003956   -0.00011782
     atom    7 type  2   force =     0.00006184   -0.00019008    0.00031585
     atom    8 type  2   force =    -0.00017906    0.00018146    0.00011147
     atom    9 type  3   force =    -0.00010571    0.00009833   -0.00015241
     atom   10 type  3   force =     0.00003845    0.00010066   -0.00014803
     atom   11 type  3   force =     0.00009407   -0.00014137    0.00014358
     atom   12 type  3   force =    -0.00001588   -0.00006262    0.00013755
     atom   13 type  3   force =     0.00026286   -0.00019294    0.00002329
     atom   14 type  3   force =    -0.00028929   -0.00019776   -0.00010098
     atom   15 type  3   force =    -0.00024640    0.00017941    0.00001908
     atom   16 type  3   force =     0.00023135    0.00022420    0.00004433
     atom   17 type  3   force =    -0.00025361    0.00017153    0.00007108
     atom   18 type  3   force =     0.00028509    0.00021794    0.00000756
     atom   19 type  3   force =     0.00025397   -0.00019117   -0.00010681
     atom   20 type  3   force =    -0.00024084   -0.00020576    0.00005152

     Total force =     0.108126     Total SCF correction =     0.001250

     Computing stress (Cartesian axis) and pressure

     negative rho (up, down):  1.557E-01 0.000E+00
          total   stress  (Ry/bohr**3)                   (kbar)     P=     -540.23
  -0.00368898  -0.00000008  -0.00000004         -542.67       -0.01       -0.01
  -0.00000008  -0.00412233  -0.00000009           -0.01     -606.42       -0.01
  -0.00000004  -0.00000009  -0.00320593           -0.01       -0.01     -471.61

     kinetic stress (kbar)  24961.08      0.03      0.00
                                0.03  24902.32      0.02
                                0.00      0.02  24961.83

     local   stress (kbar) -10132.72     -0.04     -0.05
                               -0.04  -6298.25     -0.07
                               -0.05     -0.07  -9475.16

     nonloc. stress (kbar)  16611.01      0.02      0.01
                                0.02  16673.97      0.02
                                0.01      0.02  16612.42

     hartree stress (kbar)  13887.17      0.00      0.02
                                0.00  12442.77      0.03
                                0.02      0.03  13718.39

     exc-cor stress (kbar)   9692.92      0.00      0.00
                                0.00   9688.55      0.00
                                0.00      0.00   9689.93

     corecor stress (kbar) -18411.72     -0.00      0.00
                               -0.00 -18413.16     -0.00
                                0.00     -0.00 -18411.33

     ewald   stress (kbar) -37150.40     -0.03      0.01
                               -0.03 -39602.62     -0.01
                                0.01     -0.01 -37567.69

     hubbard stress (kbar)      0.00      0.00      0.00
                                0.00      0.00      0.00
                                0.00      0.00      0.00

     DFT-D   stress (kbar)      0.00      0.00      0.00
                                0.00      0.00      0.00
                                0.00      0.00      0.00

     XDM     stress (kbar)      0.00      0.00      0.00
                                0.00      0.00      0.00
                                0.00      0.00      0.00

     dft-nl  stress (kbar)      0.00      0.00      0.00
                                0.00      0.00      0.00
                                0.00      0.00      0.00

     TS-vdW  stress (kbar)      0.00      0.00      0.00
                                0.00      0.00      0.00
                                0.00      0.00      0.00

[...]

                                0.00      0.00      0.00

     Writing all to output data dir new_calculations/myprefix.save/

     General routines

     Parallel routines

     PAW routines

   This run was terminated on:  15: 5:51  20May2023

   JOB DONE.