     Program PWSCF v.7.0 starts on 20May2023 at  2:29:26

     Reading input from espresso_5078.pwi
Warning: card &CELL ignored
Warning: card / ignored

     Current dimensions of program PWSCF are:
     Max number of different atomic species (ntypx) = 10
     Max number of k-points (npk) =  40000
     Max angular momentum in pseudopotentials (lmaxx) =  4

     gamma-point specific algorithms are used
     Message from routine setup:
     using ibrav=0 with symmetry is DISCOURAGED, use correct ibrav instead

     Subspace diagonalization in iterative solution of the eigenvalue problem:
     a serial algorithm will be used

     Using Slab Decomposition

     bravais-lattice index     =            0
     lattice parameter (alat)  =      11.5678  a.u.
     unit-cell volume          =    1172.7455 (a.u.)^3
     number of atoms/cell      =           11
     number of atomic types    =            3
     number of electrons       =       118.00
     number of Kohn-Sham states=           71
     kinetic-energy cutoff     =      30.0000  Ry
     charge density cutoff     =     240.0000  Ry
     scf convergence threshold =      1.0E-06
     mixing beta               =       0.7000
     number of iterations used =            8  plain     mixing
     Exchange-correlation=  SLA  PW   PBX  PBC
                           (   1   4   3   4   0   0   0)

     celldm(1)=  11.567842  celldm(2)=   0.000000  celldm(3)=   0.000000
     celldm(4)=   0.000000  celldm(5)=   0.000000  celldm(6)=   0.000000

     crystal axes: (cart. coord. in units of alat)
               a(1) = (   1.000000   0.000000   0.000000 )
               a(2) = (  -0.500000   0.866025   0.000000 )
               a(3) = (   0.000000   0.000000   0.874815 )

     reciprocal axes: (cart. coord. in units 2 pi/alat)
               b(1) = (  1.000000  0.577350  0.000000 )
               b(2) = (  0.000000  1.154701  0.000000 )
               b(3) = (  0.000000  0.000000  1.143099 )

     PseudoPot. # 1 for Ca read from file:
     /home/pragov/projects/rrg-bengioy-ad/pragov/crystal_structure_design/SSSP/Ca_pbe_v1.uspp.F.UPF
     MD5 check sum: 403a4c14b9e4d4dfdc3024c9a3812218
     Pseudo is Ultrasoft + core correction, Zval = 10.0
     Generated by new atomic code, or converted to UPF format
     Using radial grid of  845 points,  6 beta functions with:
                l(1) =   0
                l(2) =   0
                l(3) =   1
                l(4) =   1
                l(5) =   2
                l(6) =   2
     Q(r) pseudized with  8 coefficients,  rinner =    1.500   1.500   1.500
                                                       1.500   1.500

     PseudoPot. # 2 for B  read from file:
     /home/pragov/projects/rrg-bengioy-ad/pragov/crystal_structure_design/SSSP/b_pbe_v1.4.uspp.F.UPF
     MD5 check sum: cc6de2960df11db49a60e589f9ebb39b
     Pseudo is Ultrasoft + core correction, Zval =  3.0
     Generated by new atomic code, or converted to UPF format
     Using radial grid of  781 points,  4 beta functions with:
                l(1) =   0
                l(2) =   0
                l(3) =   1
                l(4) =   1
     Q(r) pseudized with  8 coefficients,  rinner =    1.100   1.100   1.100

     PseudoPot. # 3 for Pt read from file:
     /home/pragov/projects/rrg-bengioy-ad/pragov/crystal_structure_design/SSSP/pt_pbe_v1.4.uspp.F.UPF
     MD5 check sum: f09d6de1a584b5a045c4fc126da2d0c4
     Pseudo is Ultrasoft + core correction, Zval = 16.0
     Generated by new atomic code, or converted to UPF format
     Using radial grid of  985 points,  6 beta functions with:
                l(1) =   0
                l(2) =   0
                l(3) =   1
                l(4) =   1
                l(5) =   2
                l(6) =   2
     Q(r) pseudized with  8 coefficients,  rinner =    1.300   1.300   1.300
                                                       1.300   1.300

     atomic species   valence    mass     pseudopotential
        Ca            10.00    40.07800     Ca( 1.00)
        B              3.00    10.81000     B ( 1.00)
        Pt            16.00   195.08400     Pt( 1.00)

     12 Sym. Ops., with inversion, found

                                    s                        frac. trans.

      isym =  1     identity

 cryst.   s( 1) = (     1          0          0      )
                  (     0          1          0      )
                  (     0          0          1      )

 cart.    s( 1) = (  1.0000000 -0.0000000  0.0000000 )
                  (  0.0000000  1.0000000  0.0000000 )
                  (  0.0000000  0.0000000  1.0000000 )

      isym =  2     180 deg rotation - cart. axis [1,0,0]

[...]

      isym =  3     120 deg rotation - cryst. axis [0,0,1]

[...]

      isym =  6     180 deg rotation - cryst. axis [1,1,0]

[...]

      isym =  7     inversion

[...]

      isym =  8     inv. 180 deg rotation - cart. axis [1,0,0]

[...]

      isym =  9     inv. 120 deg rotation - cryst. axis [0,0,1]

 cryst.   s( 9) = (     0         -1          0      )
                  (     1          1          0      )
                  (     0          0         -1      )

 cart.    s( 9) = (  0.5000000  0.8660254  0.0000000 )
                  ( -0.8660254  0.5000000  0.0000000 )
                  (  0.0000000  0.0000000 -1.0000000 )

[...]

 cryst.   s(10) = (     1          1          0      )
                  (    -1          0          0      )
                  (     0          0         -1      )

 cart.    s(10) = (  0.5000000 -0.8660254  0.0000000 )
                  (  0.8660254  0.5000000  0.0000000 )
                  (  0.0000000  0.0000000 -1.0000000 )

[...]

      isym = 12     inv. 180 deg rotation - cryst. axis [1,1,0]

 cryst.   s(12) = (     0         -1          0      )
                  (    -1          0          0      )
                  (     0          0          1      )

 cart.    s(12) = (  0.5000000 -0.8660254  0.0000000 )
                  ( -0.8660254 -0.5000000  0.0000000 )
                  (  0.0000000  0.0000000  1.0000000 )

   Cartesian axes

     site n.     atom                  positions (alat units)
         1           Ca  tau(   1) = (   0.0000000   0.0000000   0.4374074  )
         2           B   tau(   2) = (  -0.0000005   0.5773505   0.3777573  )
         3           B   tau(   3) = (   0.5000005   0.2886748   0.4970575  )
         4           B   tau(   4) = (   0.5000005   0.2886748   0.8172284  )
         5           B   tau(   5) = (  -0.0000005   0.5773505   0.0575864  )
         6           Pt  tau(   6) = (   0.2733835   0.4195122   0.2184308  )
         7           Pt  tau(   7) = (   0.5000000   0.0270009   0.2184308  )
         8           Pt  tau(   8) = (   0.7266165   0.4195122   0.2184308  )
         9           Pt  tau(   9) = (   0.2266165   0.4465132   0.6563841  )
        10           Pt  tau(  10) = (  -0.0000000   0.8390244   0.6563841  )
        11           Pt  tau(  11) = (  -0.2266165   0.4465132   0.6563841  )

   Crystallographic axes

     site n.     atom                  positions (cryst. coord.)
         1           Ca  tau(   1) = (  0.0000000  0.0000000  0.5000000  )
         2           B   tau(   2) = (  0.3333330  0.6666670  0.4318140  )
         3           B   tau(   3) = (  0.6666670  0.3333330  0.5681860  )
         4           B   tau(   4) = (  0.6666670  0.3333330  0.9341730  )
         5           B   tau(   5) = (  0.3333330  0.6666670  0.0658270  )
         6           Pt  tau(   6) = (  0.5155890  0.4844110  0.2496880  )
         7           Pt  tau(   7) = (  0.5155890  0.0311780  0.2496880  )
         8           Pt  tau(   8) = (  0.9688220  0.4844110  0.2496880  )
         9           Pt  tau(   9) = (  0.4844110  0.5155890  0.7503120  )
        10           Pt  tau(  10) = (  0.4844110  0.9688220  0.7503120  )
        11           Pt  tau(  11) = (  0.0311780  0.5155890  0.7503120  )

     number of k points=     1  Methfessel-Paxton smearing, width (Ry)=  0.0010
                       cart. coord. in units 2pi/alat
        k(    1) = (   0.0000000   0.0000000   0.0000000), wk =   2.0000000

                       cryst. coord.
        k(    1) = (   0.0000000   0.0000000   0.0000000), wk =   2.0000000

     Initial potential from superposition of free atoms

     starting charge     114.9933, renormalised to     118.0000

     negative rho (up, down):  1.154E+00 0.000E+00
     Starting wfcs are   98 randomized atomic wfcs

     Self-consistent Calculation

     iteration #  1     ecut=    30.00 Ry     beta= 0.70
     Davidson diagonalization with overlap

     ethr =  1.00E-02,  avg # of iterations =  2.0

     negative rho (up, down):  1.020E+00 0.000E+00

     total energy              =   -1354.86302363 Ry
     estimated scf accuracy    <      15.46909391 Ry

[...]

     total energy              =   -1364.17058356 Ry
     estimated scf accuracy    <       0.00000914 Ry

     iteration # 38     ecut=    30.00 Ry     beta= 0.70
     Davidson diagonalization with overlap

     ethr =  2.20E-09,  avg # of iterations =  1.0

[...]

     End of self-consistent calculation

          k = 0.0000 0.0000 0.0000 (  1632 PWs)   bands (ev):

   -39.1107 -39.0882 -39.0881 -38.8338 -38.7974 -38.7644 -38.7498 -38.7497
   -38.6646 -38.6645 -38.6356 -38.6355 -38.1124 -38.1123 -38.0792 -38.0790
   -38.0499 -38.0183 -27.3069  -8.4125  -8.2172  -8.2172   2.1216   4.4484
     4.9852   6.5451   6.5451   7.2684   7.5150   7.9855   7.9855   8.2075
     9.0007   9.0008   9.5418   9.5419   9.6228  10.2228  10.2228  10.2843
    10.6360  10.8840  11.0174  11.3013  11.3013  11.4287  11.4288  11.5915
    11.5916  12.4814  12.4816  12.9428  12.9429  13.2189  13.4561  13.6092
    13.9235  13.9235  13.9241  13.9241  14.2901  14.2901  15.1602  16.5281
    16.5281  16.9577  18.0738  18.0739  18.7626  18.7626  19.0087

     occupation numbers
     1.0000   1.0000   1.0000   1.0000   1.0000   1.0000   1.0000   1.0000
     1.0000   1.0000   1.0000   1.0000   1.0000   1.0000   1.0000   1.0000
     1.0000   1.0000   1.0000   1.0000   1.0000   1.0000   1.0000   1.0000
     1.0000   1.0000   1.0000   1.0000   1.0000   1.0000   1.0000   1.0000
     1.0000   1.0000   1.0000   1.0000   1.0000   1.0000   1.0000   1.0000
     1.0000   1.0000   1.0000   1.0000   1.0000   1.0000   1.0000   1.0000
     1.0000   1.0000   1.0000   1.0000   1.0000   1.0000   1.0000   1.0000
     0.7677   0.7647   0.7340   0.7335  -0.0000  -0.0000  -0.0000  -0.0000
    -0.0000  -0.0000  -0.0000  -0.0000  -0.0000  -0.0000  -0.0000

     the Fermi energy is    13.9280 ev

!    total energy              =   -1364.17058324 Ry
     estimated scf accuracy    <       0.00000073 Ry
     smearing contrib. (-TS)   =      -0.00082376 Ry
     internal energy E=F+TS    =   -1364.16975949 Ry

     The total energy is F=E-TS. E is the sum of the following terms:
     one-electron contribution =    -459.21547662 Ry
     hartree contribution      =     300.64775473 Ry
     xc contribution           =    -365.39036396 Ry
     ewald contribution        =    -840.21167363 Ry

     convergence has been achieved in  38 iterations

     negative rho (up, down):  1.080E+00 0.000E+00

     Forces acting on atoms (cartesian axes, Ry/au):

     atom    1 type  1   force =     0.00000000    0.00000000    0.00000000
     atom    2 type  2   force =     0.00000000    0.00000000   -0.03174548
     atom    3 type  2   force =     0.00000000    0.00000000    0.03174548
     atom    4 type  2   force =     0.00000000    0.00000000   -0.04559234
     atom    5 type  2   force =     0.00000000    0.00000000    0.04559234
     atom    6 type  3   force =     0.05628100   -0.03249385    0.00102378
     atom    7 type  3   force =    -0.00000000    0.06498770    0.00102378
     atom    8 type  3   force =    -0.05628100   -0.03249385    0.00102378
     atom    9 type  3   force =    -0.05628100    0.03249385   -0.00102378
     atom   10 type  3   force =    -0.00000000   -0.06498770   -0.00102378
     atom   11 type  3   force =     0.05628100    0.03249385   -0.00102378
     The non-local contrib.  to forces
     atom    1 type  1   force =    -0.00000000    0.00000000    0.00000000
     atom    2 type  2   force =     0.00000000   -0.00000000    0.03438153
     atom    3 type  2   force =     0.00000000   -0.00000000   -0.03438153
     atom    4 type  2   force =    -0.00000000   -0.00000000    0.01731569
     atom    5 type  2   force =     0.00000000    0.00000000   -0.01731569
     atom    6 type  3   force =     0.06202545   -0.03581041   -0.05349206
     atom    7 type  3   force =    -0.00000000    0.07162082   -0.05349206
     atom    8 type  3   force =    -0.06202545   -0.03581041   -0.05349206
     atom    9 type  3   force =    -0.06202545    0.03581041    0.05349206
     atom   10 type  3   force =     0.00000000   -0.07162082    0.05349206
     atom   11 type  3   force =     0.06202545    0.03581041    0.05349206
     The ionic contribution  to forces
     atom    1 type  1   force =    -0.00000000    0.00000000   -0.00000000
     atom    2 type  2   force =     0.00001473   -0.00000850   -0.24090579
     atom    3 type  2   force =    -0.00001473    0.00000850    0.24090579
     atom    4 type  2   force =    -0.00001332    0.00000769    0.01046316
     atom    5 type  2   force =     0.00001332   -0.00000769   -0.01046316
     atom    6 type  3   force =    -3.48134961    2.00995806   -2.74935441
     atom    7 type  3   force =     0.00000146   -4.01988529   -2.74935387
     atom    8 type  3   force =     3.48132345    2.00994149   -2.74935387
     atom    9 type  3   force =     3.48134960   -2.00995806    2.74935441
     atom   10 type  3   force =    -0.00000146    4.01988529    2.74935387
     atom   11 type  3   force =    -3.48132345   -2.00994149    2.74935387
     The local contribution  to forces
     atom    1 type  1   force =    -0.00007656   -0.00003888    0.00047137
     atom    2 type  2   force =     0.00025177    0.00029029    0.17840567
     atom    3 type  2   force =    -0.00016016   -0.00027277   -0.17767756
     atom    4 type  2   force =    -0.00012378   -0.00022138   -0.07105477
     atom    5 type  2   force =     0.00016919    0.00023072    0.07036775
     atom    6 type  3   force =     3.43504876   -1.98359600    2.78747179
     atom    7 type  3   force =     0.00082408    3.96631242    2.78762178
     atom    8 type  3   force =    -3.43609794   -1.98325414    2.78679973
     atom    9 type  3   force =    -3.43552966    1.98307984   -2.78745911
     atom   10 type  3   force =     0.00070326   -3.96646801   -2.78762271
     atom   11 type  3   force =     3.43560960    1.98418876   -2.78684999
     The core correction contribution to forces
     atom    1 type  1   force =     0.00000199    0.00000025   -0.00000004
     atom    2 type  2   force =     0.00000074    0.00000098   -0.00328292
     atom    3 type  2   force =    -0.00000035   -0.00000054    0.00328345
     atom    4 type  2   force =    -0.00000029   -0.00000022   -0.00268500
     atom    5 type  2   force =     0.00000032    0.00000066    0.00268490
     atom    6 type  3   force =     0.04003662   -0.02313862    0.01659454
     atom    7 type  3   force =    -0.00002148    0.04623115    0.01660967
     atom    8 type  3   force =    -0.04007016   -0.02314492    0.01653516
     atom    9 type  3   force =    -0.04009031    0.02317797   -0.01662128
     atom   10 type  3   force =     0.00001344   -0.04629451   -0.01663876
     atom   11 type  3   force =     0.04011676    0.02316490   -0.01657200
     The Hubbard contrib.    to forces
     atom    1 type  1   force =     0.00000000    0.00000000    0.00000000
     atom    2 type  2   force =     0.00000000    0.00000000    0.00000000
     atom    3 type  2   force =     0.00000000    0.00000000    0.00000000
     atom    4 type  2   force =     0.00000000    0.00000000    0.00000000
     atom    5 type  2   force =     0.00000000    0.00000000    0.00000000
     atom    6 type  3   force =     0.00000000    0.00000000    0.00000000
     atom    7 type  3   force =     0.00000000    0.00000000    0.00000000
     atom    8 type  3   force =     0.00000000    0.00000000    0.00000000
     atom    9 type  3   force =     0.00000000    0.00000000    0.00000000
     atom   10 type  3   force =     0.00000000    0.00000000    0.00000000
     atom   11 type  3   force =     0.00000000    0.00000000    0.00000000
     The SCF correction term to forces
     atom    1 type  1   force =     0.00009238    0.00004109   -0.00044357
     atom    2 type  2   force =    -0.00017506   -0.00020241   -0.00028225
     atom    3 type  2   force =     0.00012280    0.00019926   -0.00032295
     atom    4 type  2   force =     0.00009716    0.00017445    0.00032101
     atom    5 type  2   force =    -0.00013005   -0.00017159    0.00027100
     atom    6 type  3   force =     0.00044011    0.00004276   -0.00016460
     atom    7 type  3   force =    -0.00066242    0.00059926   -0.00026101
     atom    8 type  3   force =     0.00039772   -0.00021134    0.00035284
     atom    9 type  3   force =    -0.00000160    0.00027413    0.00016270
     atom   10 type  3   force =    -0.00057953   -0.00038613    0.00026082
     atom   11 type  3   force =    -0.00007167   -0.00058232   -0.00031915

     Total force =     0.177538     Total SCF correction =     0.001816

     Computing stress (Cartesian axis) and pressure

     negative rho (up, down):  1.080E+00 0.000E+00
          total   stress  (Ry/bohr**3)                   (kbar)     P=      113.12
   0.00155936   0.00000000   0.00000000          229.39        0.00        0.00
   0.00000000   0.00155936   0.00000000            0.00      229.39        0.00
   0.00000000   0.00000000  -0.00081170            0.00        0.00     -119.41

     kinetic stress (kbar)  32143.60      0.00      0.00
                                0.00  32143.60      0.00
                                0.00      0.00  30764.47

     local   stress (kbar)   8269.11      0.94      0.24
                                0.94   8266.59      0.21
                                0.24      0.21 -19185.30

     nonloc. stress (kbar)    848.15      0.00      0.00
                                0.00    848.15      0.00
                                0.00      0.00    402.07

     hartree stress (kbar)   8767.08     -0.44     -0.06
                               -0.44   8768.34     -0.05
                               -0.06     -0.05  20176.77

     exc-cor stress (kbar)  20783.63     -0.01     -0.00
                               -0.01  20783.64     -0.00
                               -0.00     -0.00  20778.65

     corecor stress (kbar) -29618.51      0.02      0.01
                                0.02 -29618.55      0.01
                                0.01      0.01 -29588.91

     ewald   stress (kbar) -40963.05      0.04     -0.00
                                0.04 -40963.00      0.00
                               -0.00      0.00 -23467.16

     hubbard stress (kbar)      0.00      0.00      0.00
                                0.00      0.00      0.00
                                0.00      0.00      0.00

     DFT-D   stress (kbar)      0.00      0.00      0.00
                                0.00      0.00      0.00
                                0.00      0.00      0.00

     XDM     stress (kbar)      0.00      0.00      0.00
                                0.00      0.00      0.00
                                0.00      0.00      0.00

     dft-nl  stress (kbar)      0.00      0.00      0.00
                                0.00      0.00      0.00
                                0.00      0.00      0.00

     TS-vdW  stress (kbar)      0.00      0.00      0.00
                                0.00      0.00      0.00
                                0.00      0.00      0.00

[...]

                                0.00      0.00      0.00

     Writing all to output data dir new_calculations/myprefix.save/

     General routines

     Parallel routines

   This run was terminated on:   2:30:11  20May2023

   JOB DONE.