     Program PWSCF v.7.0 starts on 21May2023 at  4:16: 2

     Reading input from espresso_14042.pwi
Warning: card &CELL ignored
Warning: card / ignored

     Current dimensions of program PWSCF are:
     Max number of different atomic species (ntypx) = 10
     Max number of k-points (npk) =  40000
     Max angular momentum in pseudopotentials (lmaxx) =  4

     gamma-point specific algorithms are used
     Message from routine setup:
     using ibrav=0 with symmetry is DISCOURAGED, use correct ibrav instead

     Subspace diagonalization in iterative solution of the eigenvalue problem:
     a serial algorithm will be used

     Using Slab Decomposition

     bravais-lattice index     =            0
     lattice parameter (alat)  =      10.1199  a.u.
     unit-cell volume          =     797.8312 (a.u.)^3
     number of atoms/cell      =            5
     number of atomic types    =            2
     number of electrons       =        98.00
     number of Kohn-Sham states=           59
     kinetic-energy cutoff     =      30.0000  Ry
     charge density cutoff     =     240.0000  Ry
     scf convergence threshold =      1.0E-06
     mixing beta               =       0.7000
     number of iterations used =            8  plain     mixing
     Exchange-correlation= PBE
                           (   1   4   3   4   0   0   0)

     celldm(1)=  10.119933  celldm(2)=   0.000000  celldm(3)=   0.000000
     celldm(4)=   0.000000  celldm(5)=   0.000000  celldm(6)=   0.000000

     crystal axes: (cart. coord. in units of alat)
               a(1) = (   1.000000   0.000000   0.000000 )
               a(2) = (  -0.333333   0.942809   0.000000 )
               a(3) = (  -0.333333  -0.471405   0.816497 )

     reciprocal axes: (cart. coord. in units 2 pi/alat)
               b(1) = (  1.000000  0.353553  0.612372 )
               b(2) = (  0.000000  1.060660  0.612372 )
               b(3) = (  0.000000  0.000000  1.224745 )

     PseudoPot. # 1 for Ni read from file:
     /home/pragov/projects/rrg-bengioy-ad/pragov/crystal_structure_design/SSSP/ni_pbe_v1.4.uspp.F.UPF
     MD5 check sum: 1ee80287db30b12d2bc1f57a5b5d6409
     Pseudo is Ultrasoft + core correction, Zval = 18.0
     Generated by new atomic code, or converted to UPF format
     Using radial grid of  865 points,  6 beta functions with:
                l(1) =   0
                l(2) =   0
                l(3) =   1
                l(4) =   1
                l(5) =   2
                l(6) =   2
     Q(r) pseudized with 10 coefficients,  rinner =    0.980   0.980   0.980
                                                       0.980   0.980

     PseudoPot. # 2 for Hg read from file:
     /home/pragov/projects/rrg-bengioy-ad/pragov/crystal_structure_design/SSSP/Hg_ONCV_PBE-1.0.oncvpsp.upf
     MD5 check sum: dd5a8773074bfcf4280086d4d95875c4
     Pseudo is Norm-conserving, Zval = 20.0
     Generated using ONCVPSP code by D. R. Hamann
     Using radial grid of 1262 points,  8 beta functions with:
                l(1) =   0
                l(2) =   0
                l(3) =   1
                l(4) =   1
                l(5) =   2
                l(6) =   2
                l(7) =   3
                l(8) =   3

     atomic species   valence    mass     pseudopotential
        Ni            18.00    58.69340     Ni( 1.00)
        Hg            20.00   200.59200     Hg( 1.00)

      4 Sym. Ops., with inversion, found

                                    s                        frac. trans.

      isym =  1     identity

 cryst.   s( 1) = (     1          0          0      )
                  (     0          1          0      )
                  (     0          0          1      )

 cart.    s( 1) = (  1.0000000 -0.0000000 -0.0000000 )
                  (  0.0000000  1.0000000 -0.0000000 )
                  (  0.0000000  0.0000000  1.0000000 )

      isym =  2     180 deg rotation - cart. axis [0,0,1]

[...]

      isym =  3     inversion

[...]

      isym =  4     inv. 180 deg rotation - cart. axis [0,0,1]

 cryst.   s( 4) = (     1          0          0      )
                  (     0          1          0      )
                  (    -1         -1         -1      )

 cart.    s( 4) = (  1.0000000 -0.0000000 -0.0000000 )
                  (  0.0000000  1.0000000 -0.0000000 )
                  (  0.0000000  0.0000000 -1.0000000 )

   Cartesian axes

     site n.     atom                  positions (alat units)
         1           Ni  tau(   1) = (   0.0000000   0.0000000   0.0000000  )
         2           Hg  tau(   2) = (  -0.1666667  -0.2357023   0.4082483  )
         3           Hg  tau(   3) = (   0.5000000   0.0000000   0.0000000  )
         4           Hg  tau(   4) = (   0.1666667   0.2357023   0.4082483  )
         5           Hg  tau(   5) = (  -0.1666667   0.4714045   0.0000000  )

   Crystallographic axes

     site n.     atom                  positions (cryst. coord.)
         1           Ni  tau(   1) = (  0.0000000  0.0000000  0.0000000  )
         2           Hg  tau(   2) = (  0.0000000 -0.0000000  0.5000000  )
         3           Hg  tau(   3) = (  0.5000000  0.0000000  0.0000000  )
         4           Hg  tau(   4) = (  0.5000000  0.5000000  0.5000000  )
         5           Hg  tau(   5) = (  0.0000000  0.5000000  0.0000000  )

     number of k points=     1  Methfessel-Paxton smearing, width (Ry)=  0.0010
                       cart. coord. in units 2pi/alat
        k(    1) = (   0.0000000   0.0000000   0.0000000), wk =   2.0000000

                       cryst. coord.
        k(    1) = (   0.0000000   0.0000000   0.0000000), wk =   2.0000000

     Check: negative core charge=   -0.000003

     Initial potential from superposition of free atoms

     starting charge      95.9997, renormalised to      98.0000
     Starting wfcs are   53 randomized atomic wfcs +    6 random wfcs

     Self-consistent Calculation

     iteration #  1     ecut=    30.00 Ry     beta= 0.70
     Davidson diagonalization with overlap

     ethr =  1.00E-02,  avg # of iterations =  8.0

     total energy              =   -1580.92182439 Ry
     estimated scf accuracy    <       5.22666421 Ry

[...]

     ethr =  7.48E-04,  avg # of iterations =  1.0
     Minimization algorithm failed to find Fermi energy: reverting to bisection
     Possible cause: smearing is larger than the electronic band-gap.

[...]

     ethr =  6.04E-04,  avg # of iterations =  1.0
     Minimization algorithm failed to find Fermi energy: reverting to bisection
     Possible cause: smearing is larger than the electronic band-gap.

[...]

     total energy              =   -1583.36771683 Ry
     estimated scf accuracy    <       0.00000494 Ry

     iteration # 49     ecut=    30.00 Ry     beta= 0.70
     Davidson diagonalization with overlap

     ethr =  5.05E-09,  avg # of iterations =  1.0

     End of self-consistent calculation

          k = 0.0000 0.0000 0.0000 (  1086 PWs)   bands (ev):

  -106.0839-105.2827-104.4610-101.5548 -93.5919 -53.9352 -53.1419 -52.3408
   -52.0045 -51.7890 -51.5195 -51.3296 -51.1595 -50.9774 -50.8519 -50.6756
   -50.6562 -50.0407 -49.9280 -49.9041   4.2936   4.8016   5.0181   5.5473
     5.6906   5.8098   5.8306   6.2103   6.2803   6.4053   6.6459   6.8518
     7.1856   7.2886   7.4417   7.5160   7.5404   7.8467   8.1622   8.2626
     8.3978   9.7274  10.0000  10.6751  11.2623  11.6547  12.7505  12.9289
    12.9324  12.9353  13.0144  13.4427  14.3137  14.3201  14.4785  18.1401
    20.5231  20.6761  21.6726

     occupation numbers
     1.0000   1.0000   1.0000   1.0000   1.0000   1.0000   1.0000   1.0000
     1.0000   1.0000   1.0000   1.0000   1.0000   1.0000   1.0000   1.0000
     1.0000   1.0000   1.0000   1.0000   1.0000   1.0000   1.0000   1.0000
     1.0000   1.0000   1.0000   1.0000   1.0000   1.0000   1.0000   1.0000
     1.0000   1.0000   1.0000   1.0000   1.0000   1.0000   1.0000   1.0000
     1.0000   1.0000   1.0000   1.0000   1.0000   1.0000   1.0000   0.8468
     0.6659   0.4873  -0.0000  -0.0000  -0.0000  -0.0000  -0.0000  -0.0000
    -0.0000  -0.0000  -0.0000

     the Fermi energy is    12.9351 ev

!    total energy              =   -1583.36771633 Ry
     estimated scf accuracy    <       0.00000082 Ry
     smearing contrib. (-TS)   =      -0.00066329 Ry
     internal energy E=F+TS    =   -1583.36705305 Ry

     The total energy is F=E-TS. E is the sum of the following terms:
     one-electron contribution =    -956.41033525 Ry
     hartree contribution      =     494.70687575 Ry
     xc contribution           =    -144.96090294 Ry
     ewald contribution        =    -976.70269061 Ry

     convergence has been achieved in  49 iterations

     Forces acting on atoms (cartesian axes, Ry/au):

     atom    1 type  1   force =     0.00000000    0.00000000    0.00000000
     atom    2 type  2   force =     0.00000000   -0.00000000    0.00000000
     atom    3 type  2   force =     0.00000000    0.00000000    0.00000000
     atom    4 type  2   force =     0.00000000    0.00000000    0.00000000
     atom    5 type  2   force =     0.00000000    0.00000000    0.00000000
     The non-local contrib.  to forces
     atom    1 type  1   force =     0.00000000    0.00000000    0.00000000
     atom    2 type  2   force =     0.00000000    0.00000000   -0.00000000
     atom    3 type  2   force =     0.00000000    0.00000000    0.00000000
     atom    4 type  2   force =     0.00000000    0.00000000    0.00000000
     atom    5 type  2   force =     0.00000000    0.00000000    0.00000000
     The ionic contribution  to forces
     atom    1 type  1   force =     0.00000000   -0.00000000   -0.00000000
     atom    2 type  2   force =    -0.00000000   -0.00000000    0.00000000
     atom    3 type  2   force =    -0.00000000   -0.00000000   -0.00000000
     atom    4 type  2   force =     0.00000000    0.00000000    0.00000000
     atom    5 type  2   force =    -0.00000000    0.00000000   -0.00000000
     The local contribution  to forces
     atom    1 type  1   force =    -0.00153125   -0.00041163   -0.00098567
     atom    2 type  2   force =    -0.00084664   -0.00015743   -0.00078547
     atom    3 type  2   force =     0.00231811   -0.00020235    0.00064987
     atom    4 type  2   force =     0.00164612    0.00097840    0.00224586
     atom    5 type  2   force =    -0.00012641   -0.00065495   -0.00052728
     The core correction contribution to forces
     atom    1 type  1   force =    -0.00001063    0.00001016   -0.00000897
     atom    2 type  2   force =     0.00000000    0.00000000    0.00000000
     atom    3 type  2   force =     0.00000000    0.00000000    0.00000000
     atom    4 type  2   force =     0.00000000    0.00000000    0.00000000
     atom    5 type  2   force =     0.00000000    0.00000000    0.00000000
     The Hubbard contrib.    to forces
     atom    1 type  1   force =     0.00000000    0.00000000    0.00000000
     atom    2 type  2   force =     0.00000000    0.00000000    0.00000000
     atom    3 type  2   force =     0.00000000    0.00000000    0.00000000
     atom    4 type  2   force =     0.00000000    0.00000000    0.00000000
     atom    5 type  2   force =     0.00000000    0.00000000    0.00000000
     The SCF correction term to forces
     atom    1 type  1   force =     0.00141888    0.00057993    0.00075302
     atom    2 type  2   force =     0.00068907    0.00007280    0.00076626
     atom    3 type  2   force =    -0.00218968    0.00013848   -0.00054059
     atom    4 type  2   force =    -0.00152160   -0.00069874   -0.00207157
     atom    5 type  2   force =     0.00036957    0.00065032    0.00065597

     Total force =     0.000000     Total SCF correction =     0.004144

     Computing stress (Cartesian axis) and pressure

          total   stress  (Ry/bohr**3)                   (kbar)     P=    -1173.41
  -0.00807020   0.00061050   0.00000000        -1187.17       89.81        0.00
   0.00061050  -0.00778006   0.00000000           89.81    -1144.49        0.00
   0.00000000   0.00000000  -0.00807984            0.00        0.00    -1188.59

     kinetic stress (kbar)  52201.19    277.72     -0.00
                              277.72  52444.47     -0.00
                               -0.00     -0.00  52146.57

     local   stress (kbar) -23518.65   -108.82    728.49
                             -108.82 -23238.00   -124.76
                              728.49   -124.76 -22438.09

     nonloc. stress (kbar)   8083.64   -154.39     -0.00
                             -154.39   7601.05     -0.00
                               -0.00     -0.00   7405.66

     hartree stress (kbar)  30522.21     72.76   -280.24
                               72.76  30520.54     50.26
                             -280.24     50.26  30171.90

     exc-cor stress (kbar)  -8113.65      2.30     -3.87
                                2.30  -8113.76      1.28
                               -3.87      1.28  -8117.15

     corecor stress (kbar)   -333.36      0.24      1.35
                                0.24   -330.23     -0.19
                                1.35     -0.19   -328.94

     ewald   stress (kbar) -60028.54     -0.00     -0.00
                               -0.00 -60028.54     -0.00
                               -0.00     -0.00 -60028.54

     hubbard stress (kbar)      0.00      0.00      0.00
                                0.00      0.00      0.00
                                0.00      0.00      0.00

     DFT-D   stress (kbar)      0.00      0.00      0.00
                                0.00      0.00      0.00
                                0.00      0.00      0.00

     XDM     stress (kbar)      0.00      0.00      0.00
                                0.00      0.00      0.00
                                0.00      0.00      0.00

     dft-nl  stress (kbar)      0.00      0.00      0.00
                                0.00      0.00      0.00
                                0.00      0.00      0.00

     TS-vdW  stress (kbar)      0.00      0.00      0.00
                                0.00      0.00      0.00
                                0.00      0.00      0.00

[...]

                                0.00      0.00      0.00

     Writing all to output data dir new_calculations/myprefix.save/

     General routines

     Parallel routines

   This run was terminated on:   4:16:30  21May2023

   JOB DONE.