     Program PWSCF v.7.0 starts on 21May2023 at 15:29: 4

     Reading input from espresso_20705.pwi
Warning: card &CELL ignored
Warning: card / ignored

     Current dimensions of program PWSCF are:
     Max number of different atomic species (ntypx) = 10
     Max number of k-points (npk) =  40000
     Max angular momentum in pseudopotentials (lmaxx) =  4
     file O.pbe-n-kjpaw_psl.0.1.UPF: wavefunction(s)  2P renormalized

     gamma-point specific algorithms are used
     Message from routine setup:
     using ibrav=0 with symmetry is DISCOURAGED, use correct ibrav instead

     Subspace diagonalization in iterative solution of the eigenvalue problem:
     a serial algorithm will be used

     Using Slab Decomposition

     bravais-lattice index     =            0
     lattice parameter (alat)  =      11.1458  a.u.
     unit-cell volume          =    2131.5604 (a.u.)^3
     number of atoms/cell      =           20
     number of atomic types    =            4
     number of electrons       =       178.00
     number of Kohn-Sham states=          107
     kinetic-energy cutoff     =      30.0000  Ry
     charge density cutoff     =     240.0000  Ry
     scf convergence threshold =      1.0E-06
     mixing beta               =       0.7000
     number of iterations used =            8  plain     mixing
     Exchange-correlation= SLA  PW   PBX  PBC
                           (   1   4   3   4   0   0   0)

     celldm(1)=  11.145839  celldm(2)=   0.000000  celldm(3)=   0.000000
     celldm(4)=   0.000000  celldm(5)=   0.000000  celldm(6)=   0.000000

     crystal axes: (cart. coord. in units of alat)
               a(1) = (   1.000000   0.000000   0.000000 )
               a(2) = (   0.000000   1.049261   0.000000 )
               a(3) = (   0.000000   0.000000   1.467154 )

     reciprocal axes: (cart. coord. in units 2 pi/alat)
               b(1) = (  1.000000  0.000000  0.000000 )
               b(2) = (  0.000000  0.953051  0.000000 )
               b(3) = (  0.000000  0.000000  0.681592 )

     PseudoPot. # 1 for Ca read from file:
     /home/pragov/projects/rrg-bengioy-ad/pragov/crystal_structure_design/SSSP/Ca_pbe_v1.uspp.F.UPF
     MD5 check sum: 403a4c14b9e4d4dfdc3024c9a3812218
     Pseudo is Ultrasoft + core correction, Zval = 10.0
     Generated by new atomic code, or converted to UPF format
     Using radial grid of  845 points,  6 beta functions with:
                l(1) =   0
                l(2) =   0
                l(3) =   1
                l(4) =   1
                l(5) =   2
                l(6) =   2
     Q(r) pseudized with  8 coefficients,  rinner =    1.500   1.500   1.500
                                                       1.500   1.500

     PseudoPot. # 2 for Pr read from file:
     /home/pragov/projects/rrg-bengioy-ad/pragov/crystal_structure_design/SSSP/Pr.GGA-PBE-paw-v1.0.UPF
     MD5 check sum: b5e1e58e76df433569641143f671cc27
     Pseudo is Projector augmented-wave + core cor, Zval = 13.0
     Generated using ATOMPAW code
     Shape of augmentation charge: BESSEL
     Using radial grid of 1103 points,  8 beta functions with:
                l(1) =   0
                l(2) =   0
                l(3) =   1
                l(4) =   1
                l(5) =   2
                l(6) =   2
                l(7) =   3
                l(8) =   3
     Q(r) pseudized with 0 coefficients

     PseudoPot. # 3 for Bi read from file:
     /home/pragov/projects/rrg-bengioy-ad/pragov/crystal_structure_design/SSSP/Bi_pbe_v1.uspp.F.UPF
     MD5 check sum: cceb9f28ec65b6d7ff33140f5b0b1758
     Pseudo is Ultrasoft + core correction, Zval = 15.0
     Generated by new atomic code, or converted to UPF format
     Using radial grid of  899 points,  6 beta functions with:
                l(1) =   0
                l(2) =   0
                l(3) =   1
                l(4) =   1
                l(5) =   2
                l(6) =   2
     Q(r) pseudized with  6 coefficients,  rinner =    1.000   1.000   1.000
                                                       1.000   1.000

     PseudoPot. # 4 for O  read from file:
     /home/pragov/projects/rrg-bengioy-ad/pragov/crystal_structure_design/SSSP/O.pbe-n-kjpaw_psl.0.1.UPF
     MD5 check sum: 0234752ac141de4415c5fc33072bef88
     Pseudo is Projector augmented-wave + core cor, Zval =  6.0
     Generated using "atomic" code by A. Dal Corso  v.5.0.99 svn rev. 10869
     Shape of augmentation charge: BESSEL
     Using radial grid of 1095 points,  4 beta functions with:
                l(1) =   0
                l(2) =   0
                l(3) =   1
                l(4) =   1
     Q(r) pseudized with 0 coefficients

     atomic species   valence    mass     pseudopotential
        Ca            10.00    40.07800     Ca( 1.00)
        Pr            13.00   140.90766     Pr( 1.00)
        Bi            15.00   208.98040     Bi( 1.00)
        O              6.00    15.99900     O ( 1.00)

      4 Sym. Ops. (no inversion) found ( 2 have fractional translation)

                                    s                        frac. trans.

      isym =  1     identity

 cryst.   s( 1) = (     1          0          0      )
                  (     0          1          0      )
                  (     0          0          1      )

 cart.    s( 1) = (  1.0000000  0.0000000  0.0000000 )
                  (  0.0000000  1.0000000  0.0000000 )
                  (  0.0000000  0.0000000  1.0000000 )

      isym =  2     180 deg rotation - cart. axis [1,0,0]

 cryst.   s( 2) = (     1          0          0      )    f =(  0.5000000 )
                  (     0         -1          0      )       ( -0.0000000 )
                  (     0          0         -1      )       (  0.5000000 )

 cart.    s( 2) = (  1.0000000  0.0000000  0.0000000 )    f =(  0.5000000 )
                  (  0.0000000 -1.0000000  0.0000000 )       ( -0.0000000 )
                  (  0.0000000  0.0000000 -1.0000000 )       (  0.7335769 )

      isym =  3     inv. 180 deg rotation - cart. axis [0,0,1]

 cryst.   s( 3) = (     1          0          0      )
                  (     0          1          0      )
                  (     0          0         -1      )

 cart.    s( 3) = (  1.0000000  0.0000000  0.0000000 )
                  (  0.0000000  1.0000000  0.0000000 )
                  (  0.0000000  0.0000000 -1.0000000 )

      isym =  4     inv. 180 deg rotation - cart. axis [0,1,0]

 cryst.   s( 4) = (     1          0          0      )    f =(  0.5000000 )
                  (     0         -1          0      )       ( -0.0000000 )
                  (     0          0          1      )       ( -0.5000000 )

 cart.    s( 4) = (  1.0000000  0.0000000  0.0000000 )    f =(  0.5000000 )
                  (  0.0000000 -1.0000000  0.0000000 )       ( -0.0000000 )
                  (  0.0000000  0.0000000  1.0000000 )       ( -0.7335769 )

   Cartesian axes

     site n.     atom                  positions (alat units)
         1           Ca  tau(   1) = (   0.4868090   0.2104713   0.0000000  )
         2           Ca  tau(   2) = (   0.9868090   0.8387901   0.7335769  )
         3           Pr  tau(   3) = (   0.0247440   0.7185909   0.0000000  )
         4           Pr  tau(   4) = (   0.5247440   0.3306705   0.7335769  )
         5           Bi  tau(   5) = (   0.0021680   0.2571813   1.1014848  )
         6           Bi  tau(   6) = (   0.0021680   0.2571813   0.3656690  )
         7           Bi  tau(   7) = (   0.5021680   0.7920801   0.3679079  )
         8           Bi  tau(   8) = (   0.5021680   0.7920801   1.0992459  )
         9           O   tau(   9) = (   0.1454350   0.1898806   0.7335769  )
        10           O   tau(  10) = (   0.1838340   0.9827970   1.2078681  )
        11           O   tau(  11) = (   0.1838340   0.9827970   0.2592857  )
        12           O   tau(  12) = (   0.3051600   0.4704290   0.2543839  )
        13           O   tau(  13) = (   0.3051600   0.4704290   1.2127699  )
        14           O   tau(  14) = (   0.3612190   0.7147957   0.7335769  )
        15           O   tau(  15) = (   0.6454350   0.8593808   0.0000000  )
        16           O   tau(  16) = (   0.6838340   0.0664644   0.9928626  )
        17           O   tau(  17) = (   0.6838340   0.0664644   0.4742912  )
        18           O   tau(  18) = (   0.8051600   0.5788324   0.9879608  )
        19           O   tau(  19) = (   0.8051600   0.5788324   0.4791930  )
        20           O   tau(  20) = (   0.8612190   0.3344657   0.0000000  )

   Crystallographic axes

     site n.     atom                  positions (cryst. coord.)
         1           Ca  tau(   1) = (  0.4868090  0.2005900  0.0000000  )
         2           Ca  tau(   2) = (  0.9868090  0.7994100  0.5000000  )
         3           Pr  tau(   3) = (  0.0247440  0.6848540  0.0000000  )
         4           Pr  tau(   4) = (  0.5247440  0.3151460  0.5000000  )
         5           Bi  tau(   5) = (  0.0021680  0.2451070  0.7507630  )
         6           Bi  tau(   6) = (  0.0021680  0.2451070  0.2492370  )
         7           Bi  tau(   7) = (  0.5021680  0.7548930  0.2507630  )
         8           Bi  tau(   8) = (  0.5021680  0.7548930  0.7492370  )
         9           O   tau(   9) = (  0.1454350  0.1809660  0.5000000  )
        10           O   tau(  10) = (  0.1838340  0.9366560  0.8232730  )
        11           O   tau(  11) = (  0.1838340  0.9366560  0.1767270  )
        12           O   tau(  12) = (  0.3051600  0.4483430  0.1733860  )
        13           O   tau(  13) = (  0.3051600  0.4483430  0.8266140  )
        14           O   tau(  14) = (  0.3612190  0.6812370  0.5000000  )
        15           O   tau(  15) = (  0.6454350  0.8190340  0.0000000  )
        16           O   tau(  16) = (  0.6838340  0.0633440  0.6767270  )
        17           O   tau(  17) = (  0.6838340  0.0633440  0.3232730  )
        18           O   tau(  18) = (  0.8051600  0.5516570  0.6733860  )
        19           O   tau(  19) = (  0.8051600  0.5516570  0.3266140  )
        20           O   tau(  20) = (  0.8612190  0.3187630  0.0000000  )

     number of k points=     1  Methfessel-Paxton smearing, width (Ry)=  0.0010
                       cart. coord. in units 2pi/alat
        k(    1) = (   0.0000000   0.0000000   0.0000000), wk =   2.0000000

                       cryst. coord.
        k(    1) = (   0.0000000   0.0000000   0.0000000), wk =   2.0000000

     Check: negative core charge=   -0.000011

     Initial potential from superposition of free atoms

     starting charge     173.9741, renormalised to     178.0000

     negative rho (up, down):  1.678E-01 0.000E+00
     Starting wfcs are  168 randomized atomic wfcs
     Checking if some PAW data can be deallocated...

     Self-consistent Calculation

     iteration #  1     ecut=    30.00 Ry     beta= 0.70
     Davidson diagonalization with overlap

     ethr =  1.00E-02,  avg # of iterations =  2.0

     negative rho (up, down):  1.539E-01 0.000E+00

     total energy              =   -2401.83476469 Ry
     estimated scf accuracy    <       8.59888773 Ry

[...]

     ethr =  2.40E-04,  avg # of iterations =  1.0
[...]
   -12.7581 -12.6895 -12.6854 -12.6803 -12.6716 -12.6673 -12.6568 -12.6562
   -12.6546 -12.6518 -12.6507 -12.6447 -12.6393 -12.6365 -12.6296 -12.6274
   -10.8855 -10.8617 -10.8538 -10.8481 -10.8016 -10.7926  -8.6630  -8.6420
    -8.5085  -8.3988  -8.2368  -8.1542  -8.0829  -7.5484  -7.4903  -7.2504
    -7.0445  -6.8839  -6.4210  -6.3372  -6.0678  -6.0505  -5.7691  -5.7018
    -1.3545  -0.5735   0.7999   1.8701   4.2064   4.5472   4.7948   4.8519
     4.8982   5.3919   5.9463   6.0817   6.1770   6.6411   6.7204   6.7410
     6.9351   7.1303   7.1941   7.1955   7.2135   7.2222   7.4248   7.4590
     7.4852   7.5513   7.5701   7.7034   7.7239   7.8082   7.9088   7.9201
     7.9582   8.0220   8.0412   8.2060   8.6501   8.9837  10.0630  10.6847
    10.8084  10.8110  10.8155  10.8403  10.8511  10.8823  10.9184  10.9543
    10.9762  11.0064  11.0366  11.0926  11.1423  11.3885  12.6991  12.8532
    12.8620  12.8778  13.4308

     occupation numbers
     1.0000   1.0000   1.0000   1.0000   1.0000   1.0000   1.0000   1.0000
     1.0000   1.0000   1.0000   1.0000   1.0000   1.0000   1.0000   1.0000
     1.0000   1.0000   1.0000   1.0000   1.0000   1.0000   1.0000   1.0000
     1.0000   1.0000   1.0000   1.0000   1.0000   1.0000   1.0000   1.0000
     1.0000   1.0000   1.0000   1.0000   1.0000   1.0000   1.0000   1.0000
     1.0000   1.0000   1.0000   1.0000   1.0000   1.0000   1.0000   1.0000
     1.0000   1.0000   1.0000   1.0000   1.0000   1.0000   1.0000   1.0000
     1.0000   1.0000   1.0000   1.0000   1.0000   1.0000   1.0000   1.0000
     1.0000   1.0000   1.0000   1.0000   1.0000   1.0000   1.0000   1.0000
     1.0000   1.0000   1.0000   1.0000   1.0000   1.0000   1.0000   1.0000
     1.0000   1.0000   1.0000   1.0000   1.0000   1.0000   1.0000   1.0000
     0.5145   0.3591   0.1289  -0.0025  -0.0000  -0.0000  -0.0000  -0.0000
    -0.0000  -0.0000  -0.0000  -0.0000  -0.0000  -0.0000  -0.0000  -0.0000
    -0.0000  -0.0000  -0.0000

     the Fermi energy is    10.8087 ev

!    total energy              =   -2407.87404901 Ry
     estimated scf accuracy    <       0.00000023 Ry
     smearing contrib. (-TS)   =      -0.00063631 Ry
     internal energy E=F+TS    =   -2407.87341270 Ry

     The total energy is F=E-TS. E is the sum of the following terms:
     one-electron contribution =    -331.27296600 Ry
     hartree contribution      =     288.42383436 Ry
     xc contribution           =    -395.83117779 Ry
     ewald contribution        =   -1015.79765111 Ry
     one-center paw contrib.   =    -953.39545216 Ry
      -> PAW hartree energy AE =     470.59368339 Ry
      -> PAW hartree energy PS =    -469.50506516 Ry
      -> PAW xc energy AE      =   -1064.65131247 Ry
      -> PAW xc energy PS      =     110.16724209 Ry
      -> total E_H with PAW    =     289.51245258 Ry
      -> total E_XC with PAW   =   -1350.31524817 Ry

     convergence has been achieved in  97 iterations

     negative rho (up, down):  1.616E-01 0.000E+00

     Forces acting on atoms (cartesian axes, Ry/au):

     atom    1 type  1   force =    -0.00173722    0.00225742    0.00000000
     atom    2 type  1   force =    -0.00173722   -0.00225742    0.00000000
     atom    3 type  2   force =    -0.01197292    0.01436496    0.00000000
     atom    4 type  2   force =    -0.01197292   -0.01436496    0.00000000
     atom    5 type  3   force =     0.00137279    0.00109568    0.00216993
     atom    6 type  3   force =     0.00137279    0.00109568   -0.00216993
     atom    7 type  3   force =     0.00137279   -0.00109568    0.00216993
     atom    8 type  3   force =     0.00137279   -0.00109568   -0.00216993
     atom    9 type  4   force =     0.03812887   -0.00564829    0.00000000
     atom   10 type  4   force =    -0.02695903   -0.03443561    0.03850985
     atom   11 type  4   force =    -0.02695903   -0.03443561   -0.03850985
     atom   12 type  4   force =     0.01176520    0.00835021   -0.02240972
     atom   13 type  4   force =     0.01176520    0.00835021    0.02240972
     atom   14 type  4   force =     0.00322336   -0.02960745    0.00000000
     atom   15 type  4   force =     0.03812887    0.00564829    0.00000000
     atom   16 type  4   force =    -0.02695903    0.03443561   -0.03850985
     atom   17 type  4   force =    -0.02695903    0.03443561    0.03850985
     atom   18 type  4   force =     0.01176520   -0.00835021   -0.02240972
     atom   19 type  4   force =     0.01176520   -0.00835021    0.02240972
     atom   20 type  4   force =     0.00322336    0.02960745   -0.00000000
     The non-local contrib.  to forces
     atom    1 type  1   force =    -0.03020189   -0.03911642   -0.00000000
     atom    2 type  1   force =    -0.03020189    0.03911642    0.00000000
     atom    3 type  2   force =    -0.08744477    0.03163636    0.00000000
     atom    4 type  2   force =    -0.08744477   -0.03163636    0.00000000
     atom    5 type  3   force =    -0.02984610    0.02931706   -0.01374193
     atom    6 type  3   force =    -0.02984610    0.02931706    0.01374193
     atom    7 type  3   force =    -0.02984610   -0.02931706   -0.01374193
     atom    8 type  3   force =    -0.02984610   -0.02931706    0.01374193
     atom    9 type  4   force =    -0.06957856    0.16953529   -0.00000000
     atom   10 type  4   force =     0.06145827   -0.01605734   -0.04560088
     atom   11 type  4   force =     0.06145827   -0.01605734    0.04560088
     atom   12 type  4   force =    -0.13737267    0.08780049    0.14108676
     atom   13 type  4   force =    -0.13737267    0.08780049   -0.14108676
     atom   14 type  4   force =     0.19982394    0.04129845    0.00000000
     atom   15 type  4   force =    -0.06957856   -0.16953529    0.00000000
     atom   16 type  4   force =     0.06145827    0.01605734    0.04560088
     atom   17 type  4   force =     0.06145827    0.01605734   -0.04560088
     atom   18 type  4   force =    -0.13737267   -0.08780049    0.14108676
     atom   19 type  4   force =    -0.13737267   -0.08780049   -0.14108676
     atom   20 type  4   force =     0.19982394   -0.04129845   -0.00000000
     The ionic contribution  to forces
     atom    1 type  1   force =     0.71490965   -0.03985765   -0.00000000
     atom    2 type  1   force =     0.71490965    0.03985765    0.00000000
     atom    3 type  2   force =    -1.90919113    1.51398895    0.00000000
     atom    4 type  2   force =    -1.90919113   -1.51398895    0.00000000
     atom    5 type  3   force =     0.36570775   -0.83653615   -0.23681972
     atom    6 type  3   force =     0.36570775   -0.83653615    0.23681972
     atom    7 type  3   force =     0.36570775    0.83653615   -0.23681972
     atom    8 type  3   force =     0.36570775    0.83653615    0.23681972
     atom    9 type  4   force =     1.20485192   -1.03253809    0.00000000
     atom   10 type  4   force =    -1.08344725    0.25882788    0.26083378
     atom   11 type  4   force =    -1.08344725    0.25882788   -0.26083378
     atom   12 type  4   force =     2.05507732   -0.89142989   -0.53014019
     atom   13 type  4   force =     2.05507732   -0.89142989    0.53014019
     atom   14 type  4   force =    -2.68524606    0.62510561    0.00000000
     atom   15 type  4   force =     1.20485192    1.03253809    0.00000000
     atom   16 type  4   force =    -1.08344725   -0.25882788   -0.26083378
     atom   17 type  4   force =    -1.08344725   -0.25882788    0.26083378
     atom   18 type  4   force =     2.05507732    0.89142989   -0.53014019
     atom   19 type  4   force =     2.05507732    0.89142989    0.53014019
     atom   20 type  4   force =    -2.68524606   -0.62510561    0.00000000
     The local contribution  to forces
     atom    1 type  1   force =    -0.68645897    0.08221895   -0.00012440
     atom    2 type  1   force =    -0.68649987   -0.08220605    0.00011584
     atom    3 type  2   force =     1.98452112   -1.53109227   -0.00020651
     atom    4 type  2   force =     1.98473866    1.53135299    0.00006467
     atom    5 type  3   force =    -0.33714549    0.81084323    0.25121323
     atom    6 type  3   force =    -0.33721668    0.81082909   -0.25118481
     atom    7 type  3   force =    -0.33708565   -0.81087244    0.25181168
     atom    8 type  3   force =    -0.33713385   -0.81087956   -0.25178049
     atom    9 type  4   force =    -1.09821194    0.85927266    0.00007902
     atom   10 type  4   force =     0.99582566   -0.27709166   -0.17753692
     atom   11 type  4   force =     0.99581448   -0.27710469    0.17747487
     atom   12 type  4   force =    -1.90713793    0.81300840    0.36853904
     atom   13 type  4   force =    -1.90716925    0.81303345   -0.36858690
     atom   14 type  4   force =     2.49088969   -0.69533074    0.00006276
     atom   15 type  4   force =    -1.09834320   -0.85918783   -0.00006641
     atom   16 type  4   force =     0.99568512    0.27725340    0.17727331
     atom   17 type  4   force =     0.99570361    0.27725928   -0.17723944
     atom   18 type  4   force =    -1.90728499   -0.81310644    0.36828907
     atom   19 type  4   force =    -1.90730293   -0.81312900   -0.36822458
     atom   20 type  4   force =     2.49075834    0.69520109   -0.00007982
     The core correction contribution to forces
     atom    1 type  1   force =     0.00004144   -0.00097608   -0.00000046
     atom    2 type  1   force =     0.00004141    0.00097624    0.00000040
     atom    3 type  2   force =     0.00002091    0.00000054   -0.00000002
     atom    4 type  2   force =     0.00002095   -0.00000048   -0.00000001
     atom    5 type  3   force =     0.00263580   -0.00251176    0.00123634
     atom    6 type  3   force =     0.00263530   -0.00251121   -0.00123625
     atom    7 type  3   force =     0.00263567    0.00251209    0.00123677
     atom    8 type  3   force =     0.00263584    0.00251174   -0.00123642
     atom    9 type  4   force =     0.00113759   -0.00183470   -0.00000008
     atom   10 type  4   force =    -0.00072716   -0.00007617    0.00070790
     atom   11 type  4   force =    -0.00072709   -0.00007629   -0.00070784
     atom   12 type  4   force =     0.00129984   -0.00107859   -0.00173948
     atom   13 type  4   force =     0.00129987   -0.00107843    0.00173954
     atom   14 type  4   force =    -0.00218158   -0.00080665   -0.00000008
     atom   15 type  4   force =     0.00113784    0.00183490    0.00000000
     atom   16 type  4   force =    -0.00072744    0.00007632   -0.00070781
     atom   17 type  4   force =    -0.00072735    0.00007624    0.00070758
     atom   18 type  4   force =     0.00129990    0.00107892   -0.00173992
     atom   19 type  4   force =     0.00130006    0.00107880    0.00173980
     atom   20 type  4   force =    -0.00218177    0.00080704    0.00000006
     The Hubbard contrib.    to forces
     atom    1 type  1   force =     0.00000000    0.00000000    0.00000000
     atom    2 type  1   force =     0.00000000    0.00000000    0.00000000
     atom    3 type  2   force =     0.00000000    0.00000000    0.00000000
     atom    4 type  2   force =     0.00000000    0.00000000    0.00000000
     atom    5 type  3   force =     0.00000000    0.00000000    0.00000000
     atom    6 type  3   force =     0.00000000    0.00000000    0.00000000
     atom    7 type  3   force =     0.00000000    0.00000000    0.00000000
     atom    8 type  3   force =     0.00000000    0.00000000    0.00000000
     atom    9 type  4   force =     0.00000000    0.00000000    0.00000000
     atom   10 type  4   force =     0.00000000    0.00000000    0.00000000
     atom   11 type  4   force =     0.00000000    0.00000000    0.00000000
     atom   12 type  4   force =     0.00000000    0.00000000    0.00000000
     atom   13 type  4   force =     0.00000000    0.00000000    0.00000000
     atom   14 type  4   force =     0.00000000    0.00000000    0.00000000
     atom   15 type  4   force =     0.00000000    0.00000000    0.00000000
     atom   16 type  4   force =     0.00000000    0.00000000    0.00000000
     atom   17 type  4   force =     0.00000000    0.00000000    0.00000000
     atom   18 type  4   force =     0.00000000    0.00000000    0.00000000
     atom   19 type  4   force =     0.00000000    0.00000000    0.00000000
     atom   20 type  4   force =     0.00000000    0.00000000    0.00000000
     The SCF correction term to forces
     atom    1 type  1   force =    -0.00002463   -0.00001133    0.00012406
     atom    2 type  1   force =     0.00001729   -0.00000162   -0.00011438
     atom    3 type  2   force =     0.00002011   -0.00004546    0.00018728
     atom    4 type  2   force =     0.00001083    0.00003099   -0.00010580
     atom    5 type  3   force =     0.00002191   -0.00002089    0.00026632
     atom    6 type  3   force =     0.00009419   -0.00000091   -0.00029514
     atom    7 type  3   force =    -0.00003664    0.00004495   -0.00030060
     atom    8 type  3   force =     0.00001745    0.00005171    0.00027051
     atom    9 type  4   force =    -0.00007705   -0.00007673   -0.00008712
     atom   10 type  4   force =    -0.00006062   -0.00003385    0.00011931
     atom   11 type  4   force =    -0.00004183   -0.00002630   -0.00004810
     atom   12 type  4   force =    -0.00010606    0.00005678   -0.00013690
     atom   13 type  4   force =    -0.00007130    0.00003949    0.00019390
     atom   14 type  4   force =    -0.00005452    0.00013911   -0.00007159
     atom   15 type  4   force =     0.00007442    0.00000515    0.00006865
     atom   16 type  4   force =     0.00006409   -0.00011959    0.00015653
     atom   17 type  4   force =     0.00005157   -0.00012996   -0.00020964
     atom   18 type  4   force =     0.00005112    0.00006259    0.00007414
     atom   19 type  4   force =     0.00007711    0.00007776   -0.00015066
     atom   20 type  4   force =     0.00006742    0.00001662    0.00008541

     Total force =     0.148041     Total SCF correction =     0.000861

     Computing stress (Cartesian axis) and pressure

     negative rho (up, down):  1.616E-01 0.000E+00
          total   stress  (Ry/bohr**3)                   (kbar)     P=     -278.49
  -0.00189487   0.00000000   0.00000000         -278.74        0.00        0.00
   0.00000000  -0.00188658   0.00000000            0.00     -277.53        0.00
   0.00000000   0.00000000  -0.00189798            0.00        0.00     -279.20

     kinetic stress (kbar)  15749.26      0.00      0.00
                                0.00  15813.23      0.00
                                0.00      0.00  15731.65

     local   stress (kbar)  -5313.84     -0.02      0.07
                               -0.02  -5808.99     -0.01
                                0.07     -0.01  -3230.82

     nonloc. stress (kbar)  11136.76      0.00      0.00
                                0.00  11137.38      0.00
                                0.00      0.00  11140.35

     hartree stress (kbar)   6760.52     -0.00     -0.01
                               -0.00   6953.50      0.00
                               -0.01      0.00   6190.93

     exc-cor stress (kbar)   8120.14     -0.00      0.00
                               -0.00   8121.58      0.00
                                0.00      0.00   8115.29

     corecor stress (kbar) -13783.20      0.00      0.00
                                0.00 -13783.71     -0.00
                                0.00     -0.00 -13782.42

     ewald   stress (kbar) -22948.39      0.00     -0.00
                                0.00 -22710.52     -0.00
                               -0.00     -0.00 -24444.19

     hubbard stress (kbar)      0.00      0.00      0.00
                                0.00      0.00      0.00
                                0.00      0.00      0.00

     DFT-D   stress (kbar)      0.00      0.00      0.00
                                0.00      0.00      0.00
                                0.00      0.00      0.00

     XDM     stress (kbar)      0.00      0.00      0.00
                                0.00      0.00      0.00
                                0.00      0.00      0.00

     dft-nl  stress (kbar)      0.00      0.00      0.00
                                0.00      0.00      0.00
                                0.00      0.00      0.00

     TS-vdW  stress (kbar)      0.00      0.00      0.00
                                0.00      0.00      0.00
                                0.00      0.00      0.00

[...]

                                0.00      0.00      0.00

     Writing all to output data dir new_calculations/myprefix.save/

     General routines

     Parallel routines

     PAW routines

   This run was terminated on:  15:36:42  21May2023

   JOB DONE.