     Program PWSCF v.7.0 starts on 20May2023 at 14: 0:34

     Reading input from espresso_9419.pwi
Warning: card &CELL ignored
Warning: card / ignored

     Current dimensions of program PWSCF are:
     Max number of different atomic species (ntypx) = 10
     Max number of k-points (npk) =  40000
     Max angular momentum in pseudopotentials (lmaxx) =  4

     gamma-point specific algorithms are used
     Message from routine setup:
     using ibrav=0 with symmetry is DISCOURAGED, use correct ibrav instead

     Subspace diagonalization in iterative solution of the eigenvalue problem:
     a serial algorithm will be used

     Using Slab Decomposition

     bravais-lattice index     =            0
     lattice parameter (alat)  =      15.3194  a.u.
     unit-cell volume          =     449.1695 (a.u.)^3
     number of atoms/cell      =            8
     number of atomic types    =            2
     number of electrons       =        68.00
     number of Kohn-Sham states=           41
     kinetic-energy cutoff     =      30.0000  Ry
     charge density cutoff     =     240.0000  Ry
     scf convergence threshold =      1.0E-06
     mixing beta               =       0.7000
     number of iterations used =            8  plain     mixing
     Exchange-correlation=  SLA  PW   PBX  PBC
                           (   1   4   3   4   0   0   0)

     celldm(1)=  15.319416  celldm(2)=   0.000000  celldm(3)=   0.000000
     celldm(4)=   0.000000  celldm(5)=   0.000000  celldm(6)=   0.000000

     crystal axes: (cart. coord. in units of alat)
               a(1) = (   1.000000   0.000000   0.000000 )
               a(2) = (   0.870824   0.491595   0.000000 )
               a(3) = (  -0.935412  -0.245798   0.254142 )

     reciprocal axes: (cart. coord. in units 2 pi/alat)
               b(1) = (  1.000000 -1.771425  1.967406 )
               b(2) = (  0.000000  2.034195  1.967406 )
               b(3) = (  0.000000  0.000000  3.934812 )

     PseudoPot. # 1 for Cr read from file:
     /home/pragov/projects/rrg-bengioy-ad/pragov/crystal_structure_design/SSSP/cr_pbe_v1.5.uspp.F.UPF
     MD5 check sum: 0d52af634a40206e4dee301ad30da4bf
     Pseudo is Ultrasoft + core correction, Zval = 14.0
     Generated by new atomic code, or converted to UPF format
     Using radial grid of  857 points,  6 beta functions with:
                l(1) =   0
                l(2) =   0
                l(3) =   1
                l(4) =   1
                l(5) =   2
                l(6) =   2
     Q(r) pseudized with  8 coefficients,  rinner =    0.950   0.950   0.950
                                                       0.950   0.950

     PseudoPot. # 2 for B  read from file:
     /home/pragov/projects/rrg-bengioy-ad/pragov/crystal_structure_design/SSSP/b_pbe_v1.4.uspp.F.UPF
     MD5 check sum: cc6de2960df11db49a60e589f9ebb39b
     Pseudo is Ultrasoft + core correction, Zval =  3.0
     Generated by new atomic code, or converted to UPF format
     Using radial grid of  781 points,  4 beta functions with:
                l(1) =   0
                l(2) =   0
                l(3) =   1
                l(4) =   1
     Q(r) pseudized with  8 coefficients,  rinner =    1.100   1.100   1.100

     atomic species   valence    mass     pseudopotential
        Cr            14.00    51.99610     Cr( 1.00)
        B              3.00    10.81000     B ( 1.00)

      4 Sym. Ops., with inversion, found ( 2 have fractional translation)

                                    s                        frac. trans.

      isym =  1     identity

 cryst.   s( 1) = (     1          0          0      )
                  (     0          1          0      )
                  (     0          0          1      )

 cart.    s( 1) = (  1.0000000  0.0000000 -0.0000000 )
                  (  0.0000000  1.0000000 -0.0000000 )
                  (  0.0000000  0.0000000  1.0000000 )

      isym =  2     180 deg rotation - cart. axis [0,0,1]

 cryst.   s( 2) = (    -1          0          0      )
                  (     0         -1          0      )
                  (     1          1          1      )

 cart.    s( 2) = ( -1.0000000 -0.0000000 -0.0000000 )
                  (  0.0000000 -1.0000000 -0.0000000 )
                  (  0.0000000  0.0000000  1.0000000 )

      isym =  3     inversion

 cryst.   s( 3) = (    -1          0          0      )    f =(  0.2500000 )
                  (     0         -1          0      )       ( -0.2500000 )
                  (     0          0         -1      )       ( -0.5000000 )

 cart.    s( 3) = ( -1.0000000 -0.0000000  0.0000000 )    f =(  0.5000000 )
                  (  0.0000000 -1.0000000  0.0000000 )       (  0.0000000 )
                  (  0.0000000  0.0000000 -1.0000000 )       ( -0.1270709 )

      isym =  4     inv. 180 deg rotation - cart. axis [0,0,1]

 cryst.   s( 4) = (     1          0          0      )    f =(  0.2500000 )
                  (     0          1          0      )       ( -0.2500000 )
                  (    -1         -1         -1      )       ( -0.5000000 )

 cart.    s( 4) = (  1.0000000  0.0000000  0.0000000 )    f =(  0.5000000 )
                  (  0.0000000  1.0000000  0.0000000 )       ( -0.0000000 )
                  (  0.0000000  0.0000000 -1.0000000 )       ( -0.1270709 )

   Cartesian axes

     site n.     atom                  positions (alat units)
         1           Cr  tau(   1) = (   0.3696655   0.0971367   0.0000000  )
         2           Cr  tau(   2) = (   0.8696655   0.0971367   0.1270709  )
         3           Cr  tau(   3) = (   0.1303345  -0.0971367   0.1270709  )
         4           Cr  tau(   4) = (   1.5011585   0.3944583   0.0000000  )
         5           B   tau(   5) = (   0.6411126   0.1684647   0.0000000  )
         6           B   tau(   6) = (   0.1411126   0.1684647   0.1270709  )
         7           B   tau(   7) = (   0.7297113   0.3231303   0.1270709  )
         8           B   tau(   8) = (   1.2297113   0.3231303   0.0000000  )

   Crystallographic axes

     site n.     atom                  positions (cryst. coord.)
         1           Cr  tau(   1) = (  0.1975950  0.1975950  0.0000000  )
         2           Cr  tau(   2) = (  0.9475950  0.4475950  0.5000000  )
         3           Cr  tau(   3) = (  0.5524050  0.0524050  0.5000000  )
         4           Cr  tau(   4) = (  0.8024050  0.8024050  0.0000000  )
         5           B   tau(   5) = (  0.3426900  0.3426900  0.0000000  )
         6           B   tau(   6) = (  0.0926900  0.5926900  0.5000000  )
         7           B   tau(   7) = (  0.4073100  0.9073100  0.5000000  )
         8           B   tau(   8) = (  0.6573100  0.6573100  0.0000000  )

     number of k points=     1  Methfessel-Paxton smearing, width (Ry)=  0.0010
                       cart. coord. in units 2pi/alat
        k(    1) = (   0.0000000   0.0000000   0.0000000), wk =   2.0000000

                       cryst. coord.
        k(    1) = (   0.0000000   0.0000000   0.0000000), wk =   2.0000000

     Check: negative core charge=   -0.000015

     Initial potential from superposition of free atoms

     starting charge      63.9988, renormalised to      68.0000

     negative rho (up, down):  2.005E-03 0.000E+00
     Starting wfcs are   56 randomized atomic wfcs

     Self-consistent Calculation

     iteration #  1     ecut=    30.00 Ry     beta= 0.70
     Davidson diagonalization with overlap

     ethr =  1.00E-02,  avg # of iterations =  3.0

     negative rho (up, down):  1.108E-02 0.000E+00

     total energy              =    -719.45930541 Ry
     estimated scf accuracy    <      12.09128113 Ry

[...]

     total energy              =    -727.00303348 Ry
     estimated scf accuracy    <       0.00000285 Ry

     iteration # 50     ecut=    30.00 Ry     beta= 0.70
     Davidson diagonalization with overlap

     ethr =  4.19E-09,  avg # of iterations =  1.0

[...]

     End of self-consistent calculation

          k = 0.0000 0.0000 0.0000 (   627 PWs)   bands (ev):

   -52.8262 -52.7897 -52.7393 -52.7032 -24.6563 -24.4532 -24.4262 -24.2168
   -24.1122 -24.1121 -24.0670 -24.0670 -23.8758 -23.8758 -23.8504 -23.8503
     5.0133   6.0393   9.2731  10.9698  14.0957  14.4896  15.0491  15.0494
    15.1510  15.4056  15.4059  15.7129  16.9296  17.1356  18.2179  18.2179
    18.5069  18.8506  18.8506  18.8599  19.0733  19.1977  19.5457  19.9660
    20.6741

     occupation numbers
     1.0000   1.0000   1.0000   1.0000   1.0000   1.0000   1.0000   1.0000
     1.0000   1.0000   1.0000   1.0000   1.0000   1.0000   1.0000   1.0000
     1.0000   1.0000   1.0000   1.0000   1.0000   1.0000   1.0000   1.0000
     1.0000   1.0000   1.0000   1.0000   1.0000   1.0000   1.0000   1.0000
     1.0000   0.4819   0.4812   0.0369  -0.0000  -0.0000  -0.0000  -0.0000
    -0.0000

     the Fermi energy is    18.8503 ev

!    total energy              =    -727.00303312 Ry
     estimated scf accuracy    <       0.00000047 Ry
     smearing contrib. (-TS)   =      -0.00056232 Ry
     internal energy E=F+TS    =    -727.00247080 Ry

     The total energy is F=E-TS. E is the sum of the following terms:
     one-electron contribution =    -252.49085795 Ry
     hartree contribution      =     168.24095525 Ry
     xc contribution           =    -102.56632752 Ry
     ewald contribution        =    -540.18624058 Ry

     convergence has been achieved in  50 iterations

     negative rho (up, down):  2.156E-03 0.000E+00

     Forces acting on atoms (cartesian axes, Ry/au):

     atom    1 type  1   force =     0.02886659    0.00758682    0.00000028
     atom    2 type  1   force =     0.02886659    0.00758682   -0.00000028
     atom    3 type  1   force =    -0.02886659   -0.00758682   -0.00000028
     atom    4 type  1   force =    -0.02886659   -0.00758682    0.00000028
     atom    5 type  2   force =     0.21812900    0.05731695    0.00000027
     atom    6 type  2   force =     0.21812900    0.05731695   -0.00000027
     atom    7 type  2   force =    -0.21812900   -0.05731695   -0.00000027
     atom    8 type  2   force =    -0.21812900   -0.05731695    0.00000027
     The non-local contrib.  to forces
     atom    1 type  1   force =    -0.22493190   -0.05910495   -0.00000069
     atom    2 type  1   force =    -0.22493190   -0.05910495    0.00000069
     atom    3 type  1   force =     0.22493190    0.05910495    0.00000069
     atom    4 type  1   force =     0.22493190    0.05910495   -0.00000069
     atom    5 type  2   force =     0.04282005    0.01125177   -0.00000032
     atom    6 type  2   force =     0.04282005    0.01125177    0.00000032
     atom    7 type  2   force =    -0.04282005   -0.01125177    0.00000032
     atom    8 type  2   force =    -0.04282005   -0.01125177   -0.00000032
     The ionic contribution  to forces
     atom    1 type  1   force =    -0.98822067   -0.25967403   -0.00000000
     atom    2 type  1   force =    -0.98822066   -0.25967403   -0.00000000
     atom    3 type  1   force =     0.98822067    0.25967403    0.00000000
     atom    4 type  1   force =     0.98822066    0.25967403    0.00000000
     atom    5 type  2   force =     0.25573265    0.06719868    0.00000000
     atom    6 type  2   force =     0.25573265    0.06719868    0.00000000
     atom    7 type  2   force =    -0.25573265   -0.06719868   -0.00000000
     atom    8 type  2   force =    -0.25573265   -0.06719868   -0.00000000
     The local contribution  to forces
     atom    1 type  1   force =     1.23048362    0.32328157   -0.00000692
     atom    2 type  1   force =     1.23222980    0.32386752    0.00004685
     atom    3 type  1   force =    -1.22891536   -0.32298105   -0.00001835
     atom    4 type  1   force =    -1.23383982   -0.32414698    0.00005108
     atom    5 type  2   force =    -0.08482212   -0.02230965   -0.00002997
     atom    6 type  2   force =    -0.08386739   -0.02204293   -0.00002388
     atom    7 type  2   force =     0.08430156    0.02213173   -0.00003028
     atom    8 type  2   force =     0.08442852    0.02218203   -0.00002227
     The core correction contribution to forces
     atom    1 type  1   force =     0.01058649    0.00278647    0.00000081
     atom    2 type  1   force =     0.01059494    0.00277747   -0.00000467
     atom    3 type  1   force =    -0.01059087   -0.00277831    0.00000034
     atom    4 type  1   force =    -0.01059145   -0.00278967   -0.00000444
     atom    5 type  2   force =     0.00394544    0.00103656   -0.00000024
     atom    6 type  2   force =     0.00394533    0.00103675   -0.00000013
     atom    7 type  2   force =    -0.00394537   -0.00103693   -0.00000027
     atom    8 type  2   force =    -0.00394603   -0.00103685   -0.00000012
     The Hubbard contrib.    to forces
     atom    1 type  1   force =     0.00000000    0.00000000    0.00000000
     atom    2 type  1   force =     0.00000000    0.00000000    0.00000000
     atom    3 type  1   force =     0.00000000    0.00000000    0.00000000
     atom    4 type  1   force =     0.00000000    0.00000000    0.00000000
     atom    5 type  2   force =     0.00000000    0.00000000    0.00000000
     atom    6 type  2   force =     0.00000000    0.00000000    0.00000000
     atom    7 type  2   force =     0.00000000    0.00000000    0.00000000
     atom    8 type  2   force =     0.00000000    0.00000000    0.00000000
     The SCF correction term to forces
     atom    1 type  1   force =     0.00090091    0.00030717    0.00001015
     atom    2 type  1   force =    -0.00076028   -0.00030568   -0.00006941
     atom    3 type  1   force =    -0.00237750   -0.00054711    0.00001921
     atom    4 type  1   force =     0.00227387    0.00049443   -0.00007279
     atom    5 type  2   force =     0.00042153    0.00011664    0.00000941
     atom    6 type  2   force =    -0.00047334   -0.00012122    0.00000827
     atom    7 type  2   force =     0.00007269    0.00002445    0.00000896
     atom    8 type  2   force =    -0.00006715   -0.00001427    0.00000824

     Total force =     0.455000     Total SCF correction =     0.003660

     Computing stress (Cartesian axis) and pressure

     negative rho (up, down):  2.156E-03 0.000E+00
          total   stress  (Ry/bohr**3)                   (kbar)     P=       25.62
  -0.00225483  -0.00099177  -0.00000000         -331.70     -145.89       -0.00
  -0.00099177   0.00125874  -0.00000000         -145.89      185.17       -0.00
  -0.00000000  -0.00000000   0.00151852           -0.00       -0.00      223.38

     kinetic stress (kbar)  36996.21   -476.64      0.00
                             -476.64  38684.86      0.00
                                0.00      0.00  38810.24

     local   stress (kbar)   1939.66    -80.81     -0.23
                              -80.81   2225.93      0.83
                               -0.23      0.83   2246.64

     nonloc. stress (kbar)  10597.10    -17.55      0.00
                              -17.55  10659.29      0.00
                                0.00      0.00  10664.00

     hartree stress (kbar)  18496.16     52.94      0.07
                               52.94  18308.63     -0.26
                                0.07     -0.26  18294.90

     exc-cor stress (kbar)  -5938.74     -5.35      0.00
                               -5.35  -5919.78     -0.00
                                0.00     -0.00  -5918.37

     corecor stress (kbar)  -4378.45      2.86     -0.00
                                2.86  -4388.59      0.01
                               -0.00      0.01  -4389.34

     ewald   stress (kbar) -58043.64    378.66      0.00
                              378.66 -59385.18      0.00
                                0.00      0.00 -59484.68

     hubbard stress (kbar)      0.00      0.00      0.00
                                0.00      0.00      0.00
                                0.00      0.00      0.00

     DFT-D   stress (kbar)      0.00      0.00      0.00
                                0.00      0.00      0.00
                                0.00      0.00      0.00

     XDM     stress (kbar)      0.00      0.00      0.00
                                0.00      0.00      0.00
                                0.00      0.00      0.00

     dft-nl  stress (kbar)      0.00      0.00      0.00
                                0.00      0.00      0.00
                                0.00      0.00      0.00

     TS-vdW  stress (kbar)      0.00      0.00      0.00
                                0.00      0.00      0.00
                                0.00      0.00      0.00

[...]

                                0.00      0.00      0.00

     Writing all to output data dir new_calculations/myprefix.save/

     General routines

     Parallel routines

   This run was terminated on:  14: 1:20  20May2023

   JOB DONE.