     Program PWSCF v.7.0 starts on 20May2023 at 14:34:50

     Reading input from espresso_18380.pwi
Warning: card &CELL ignored
Warning: card / ignored

     Current dimensions of program PWSCF are:
     Max number of different atomic species (ntypx) = 10
     Max number of k-points (npk) =  40000
     Max angular momentum in pseudopotentials (lmaxx) =  4
     file Ga.pbe-dn-kjpaw_psl.1.0.0.UPF: wavefunction(s)  4S renormalized
     file Fe.pbe-spn-kjpaw_psl.0.2.1.UPF: wavefunction(s)  3D renormalized

     gamma-point specific algorithms are used
     Message from routine setup:
     using ibrav=0 with symmetry is DISCOURAGED, use correct ibrav instead

     Subspace diagonalization in iterative solution of the eigenvalue problem:
     a serial algorithm will be used

     Using Slab Decomposition

     bravais-lattice index     =            0
     lattice parameter (alat)  =       8.8156  a.u.
     unit-cell volume          =    1393.2472 (a.u.)^3
     number of atoms/cell      =           16
     number of atomic types    =            3
     number of electrons       =       217.00
     number of Kohn-Sham states=          131
     kinetic-energy cutoff     =      30.0000  Ry
     charge density cutoff     =     240.0000  Ry
     scf convergence threshold =      1.0E-06
     mixing beta               =       0.7000
     number of iterations used =            8  plain     mixing
     Exchange-correlation= SLA  PW   PBX  PBC
                           (   1   4   3   4   0   0   0)

     celldm(1)=   8.815620  celldm(2)=   0.000000  celldm(3)=   0.000000
     celldm(4)=   0.000000  celldm(5)=   0.000000  celldm(6)=   0.000000

     crystal axes: (cart. coord. in units of alat)
               a(1) = (   1.000000   0.000000   0.000000 )
               a(2) = (   0.000000   1.007566   0.000000 )
               a(3) = (   0.000000   0.010474   2.018348 )

     reciprocal axes: (cart. coord. in units 2 pi/alat)
               b(1) = (  1.000000  0.000000  0.000000 )
               b(2) = (  0.000000  0.992491 -0.005150 )
               b(3) = (  0.000000  0.000000  0.495455 )

     PseudoPot. # 1 for V  read from file:
     /home/pragov/projects/rrg-bengioy-ad/pragov/crystal_structure_design/SSSP/v_pbe_v1.4.uspp.F.UPF
     MD5 check sum: 22b79981416ebb76fdaf5b1b8640f6fb
     Pseudo is Ultrasoft + core correction, Zval = 13.0
     Generated by new atomic code, or converted to UPF format
     Using radial grid of  853 points,  6 beta functions with:
                l(1) =   0
                l(2) =   0
                l(3) =   1
                l(4) =   1
                l(5) =   2
                l(6) =   2
     Q(r) pseudized with  8 coefficients,  rinner =    1.100   1.100   1.100
                                                       1.100   1.100

     PseudoPot. # 2 for Ga read from file:
     /home/pragov/projects/rrg-bengioy-ad/pragov/crystal_structure_design/SSSP/Ga.pbe-dn-kjpaw_psl.1.0.0.UPF
     MD5 check sum: a27b4342b1af7e5f338de752e9ed7044
     Pseudo is Projector augmented-wave + core cor, Zval = 13.0
     Generated using "atomic" code by A. Dal Corso  v.5.1
     Shape of augmentation charge: PSQ
     Using radial grid of 1205 points,  6 beta functions with:
                l(1) =   0
                l(2) =   0
                l(3) =   1
                l(4) =   1
                l(5) =   2
                l(6) =   2
     Q(r) pseudized with 0 coefficients

     PseudoPot. # 3 for Fe read from file:
     /home/pragov/projects/rrg-bengioy-ad/pragov/crystal_structure_design/SSSP/Fe.pbe-spn-kjpaw_psl.0.2.1.UPF
     MD5 check sum: e86618425769142926afa95317d90200
     Pseudo is Projector augmented-wave + core cor, Zval = 16.0
     Generated using "atomic" code by A. Dal Corso  v.5.0.99 svn rev. 10869
     Shape of augmentation charge: PSQ
     Using radial grid of 1191 points,  6 beta functions with:
                l(1) =   0
                l(2) =   0
                l(3) =   1
                l(4) =   1
                l(5) =   2
                l(6) =   2
     Q(r) pseudized with 0 coefficients

     atomic species   valence    mass     pseudopotential
        V             13.00    50.94150     V ( 1.00)
        Ga            13.00    69.72300     Ga( 1.00)
        Fe            16.00    55.84500     Fe( 1.00)

      2 Sym. Ops. (no inversion) found

                                    s                        frac. trans.

      isym =  1     identity

 cryst.   s( 1) = (     1          0          0      )
                  (     0          1          0      )
                  (     0          0          1      )

 cart.    s( 1) = (  1.0000000  0.0000000  0.0000000 )
                  (  0.0000000  1.0000000 -0.0000000 )
                  (  0.0000000  0.0000000  1.0000000 )

      isym =  2     inv. 180 deg rotation - cart. axis [1,0,0]

 cryst.   s( 2) = (    -1          0          0      )
                  (     0          1          0      )
                  (     0          0          1      )

 cart.    s( 2) = ( -1.0000000  0.0000000  0.0000000 )
                  (  0.0000000  1.0000000 -0.0000000 )
                  (  0.0000000  0.0000000  1.0000000 )

   Cartesian axes

     site n.     atom                  positions (alat units)
         1           V   tau(   1) = (   0.5000000   0.7606844   1.0104316  )
         2           V   tau(   2) = (   0.7504290   0.0048389   0.5000599  )
         3           V   tau(   3) = (   0.7496870   1.0141075   1.5160359  )
         4           V   tau(   4) = (   0.0000000   0.5017378   0.2450557  )
         5           V   tau(   5) = (   0.0000000   0.5075330   1.2627614  )
         6           V   tau(   6) = (   0.5000000   0.2593273   0.0034736  )
         7           V   tau(   7) = (   0.5000000   0.2550933   1.0101449  )
         8           V   tau(   8) = (   0.2495710   0.0048389   0.5000599  )
         9           V   tau(   9) = (   0.2503130   1.0141075   1.5160359  )
        10           Ga  tau(  10) = (   0.5000000   0.5079546   0.5027161  )
        11           Ga  tau(  11) = (   0.5000000   0.5126339   1.5214894  )
        12           Ga  tau(  12) = (   0.0000000   1.0133087   2.0160271  )
        13           Ga  tau(  13) = (   0.0000000   1.0124438   1.0075029  )
        14           Fe  tau(  14) = (   0.0000000   0.5069494   0.7536391  )
        15           Fe  tau(  15) = (   0.0000000   0.5133965   1.7678551  )
        16           Fe  tau(  16) = (   0.5000000   0.7576940   0.0043233  )

   Crystallographic axes

     site n.     atom                  positions (cryst. coord.)
         1           V   tau(   1) = (  0.5000000  0.7497680  0.5006230  )
         2           V   tau(   2) = (  0.7504290  0.0022270  0.2477570  )
         3           V   tau(   3) = (  0.7496870  0.9986840  0.7511270  )
         4           V   tau(   4) = (  0.0000000  0.4967080  0.1214140  )
         5           V   tau(   5) = (  0.0000000  0.4972180  0.6256410  )
         6           V   tau(   6) = (  0.5000000  0.2573620  0.0017210  )
         7           V   tau(   7) = (  0.5000000  0.2479750  0.5004810  )
         8           V   tau(   8) = (  0.2495710  0.0022270  0.2477570  )
         9           V   tau(   9) = (  0.2503130  0.9986840  0.7511270  )
        10           Ga  tau(  10) = (  0.5000000  0.5015510  0.2490730  )
        11           Ga  tau(  11) = (  0.5000000  0.5009480  0.7538290  )
        12           Ga  tau(  12) = (  0.0000000  0.9953160  0.9988500  )
        13           Ga  tau(  13) = (  0.0000000  0.9996520  0.4991720  )
        14           Fe  tau(  14) = (  0.0000000  0.4992610  0.3733940  )
        15           Fe  tau(  15) = (  0.0000000  0.5004360  0.8758920  )
        16           Fe  tau(  16) = (  0.5000000  0.7519820  0.0021420  )

     number of k points=     1  Methfessel-Paxton smearing, width (Ry)=  0.0010
                       cart. coord. in units 2pi/alat
        k(    1) = (   0.0000000   0.0000000   0.0000000), wk =   2.0000000

                       cryst. coord.
        k(    1) = (   0.0000000   0.0000000   0.0000000), wk =   2.0000000

     Check: negative core charge=   -0.000092

     Initial potential from superposition of free atoms

     starting charge     216.9758, renormalised to     217.0000

     negative rho (up, down):  5.767E-03 0.000E+00
     Starting wfcs are  165 randomized atomic wfcs
     Checking if some PAW data can be deallocated...

     Self-consistent Calculation

     iteration #  1     ecut=    30.00 Ry     beta= 0.70
     Davidson diagonalization with overlap

     ethr =  1.00E-02,  avg # of iterations =  2.0

     Threshold (ethr) on eigenvalues was too large:
     Diagonalizing with lowered threshold

     Davidson diagonalization with overlap

[...]

     negative rho (up, down):  1.029E-02 0.000E+00

     total energy              =   -3403.94787912 Ry
     estimated scf accuracy    <       1.56571832 Ry

[...]

     total energy              =   -3404.79380576 Ry
     estimated scf accuracy    <       0.00000313 Ry

     iteration # 37     ecut=    30.00 Ry     beta= 0.70
     Davidson diagonalization with overlap

     ethr =  9.26E-10,  avg # of iterations =  2.0

[...]

     End of self-consistent calculation

          k = 0.0000 0.0000 0.0000 (  1935 PWs)   bands (ev):

   -70.8869 -70.5294 -70.3799 -47.9213 -47.2656 -47.0272 -46.9468 -46.8460
   -46.8080 -46.6904 -46.5874 -46.5758 -37.0752 -36.3619 -36.3433 -36.2510
   -36.1143 -36.0054 -35.9621 -35.8669 -35.8215 -22.0657 -21.6860 -21.5896
   -21.3652 -21.2898 -21.2432 -21.2270 -21.1210 -21.0775 -21.0765 -20.9154
   -20.8566 -20.8533 -20.7966 -20.7276 -20.6724 -20.6641 -20.6414 -20.5943
   -20.5737 -20.5661 -20.5189 -20.4885 -20.4606 -19.8934 -19.8366 -19.8155
     1.8042   1.8206   1.8386   1.8413   1.8524   2.1086   2.1455   2.1610
     2.1622   2.1695   2.1903   2.1973   2.2177   2.2305   2.2384   2.2854
     2.3215   2.3424   2.3470   2.3626   7.1059   8.5793   8.7888   9.9831
    12.3929  12.5660  13.0982  13.1218  13.3328  13.5101  13.5402  13.6241
    13.6382  13.7235  13.9130  13.9866  14.2171  14.4885  14.5422  14.6395
    14.7015  14.7213  14.8413  14.9551  14.9886  15.0154  15.1984  15.2663
    15.3814  15.3855  15.5000  15.7330  15.7954  15.8999  16.1135  16.1911
    16.2347  16.3194  16.3580  16.4642  16.9034  17.0440  17.1920  17.4101
    17.6060  17.7634  17.7679  17.7733  17.9067  17.9143  18.4942  18.5541
    18.6601  18.7068  18.7515  18.9248  19.0256  19.0864  19.2389  19.5320
    19.7785  19.8298  19.8881

     occupation numbers
     1.0000   1.0000   1.0000   1.0000   1.0000   1.0000   1.0000   1.0000
     1.0000   1.0000   1.0000   1.0000   1.0000   1.0000   1.0000   1.0000
     1.0000   1.0000   1.0000   1.0000   1.0000   1.0000   1.0000   1.0000
     1.0000   1.0000   1.0000   1.0000   1.0000   1.0000   1.0000   1.0000
     1.0000   1.0000   1.0000   1.0000   1.0000   1.0000   1.0000   1.0000
     1.0000   1.0000   1.0000   1.0000   1.0000   1.0000   1.0000   1.0000
     1.0000   1.0000   1.0000   1.0000   1.0000   1.0000   1.0000   1.0000
     1.0000   1.0000   1.0000   1.0000   1.0000   1.0000   1.0000   1.0000
     1.0000   1.0000   1.0000   1.0000   1.0000   1.0000   1.0000   1.0000
     1.0000   1.0000   1.0000   1.0000   1.0000   1.0000   1.0000   1.0000
     1.0000   1.0000   1.0000   1.0000   1.0000   1.0000   1.0000   1.0000
     1.0000   1.0000   1.0000   1.0000   1.0000   1.0000   1.0000   1.0000
     1.0000   1.0000   1.0000   1.0000   1.0000   1.0000   1.0000   1.0000
     1.0000   1.0000   1.0000   1.0000   0.5000  -0.0000  -0.0000  -0.0000
    -0.0000  -0.0000  -0.0000  -0.0000  -0.0000  -0.0000  -0.0000  -0.0000
    -0.0000  -0.0000  -0.0000  -0.0000  -0.0000  -0.0000  -0.0000  -0.0000
    -0.0000  -0.0000  -0.0000

     the Fermi energy is    16.9034 ev

!    total energy              =   -3404.79380576 Ry
     estimated scf accuracy    <       0.00000022 Ry
     smearing contrib. (-TS)   =      -0.00028209 Ry
     internal energy E=F+TS    =   -3404.79352366 Ry

     The total energy is F=E-TS. E is the sum of the following terms:
     one-electron contribution =   -1068.52014767 Ry
     hartree contribution      =     687.09153608 Ry
     xc contribution           =    -434.07785803 Ry
     ewald contribution        =   -1917.46553379 Ry
     one-center paw contrib.   =    -671.82152025 Ry
      -> PAW hartree energy AE =    1221.96113140 Ry
      -> PAW hartree energy PS =   -1210.56419045 Ry
      -> PAW xc energy AE      =    -938.13023284 Ry
      -> PAW xc energy PS      =     254.91177163 Ry
      -> total E_H with PAW    =     698.48847703 Ry
      -> total E_XC with PAW   =   -1117.29631923 Ry

     convergence has been achieved in  37 iterations

     negative rho (up, down):  9.960E-03 0.000E+00

     Forces acting on atoms (cartesian axes, Ry/au):

     atom    1 type  1   force =     0.00000000    0.01475198   -0.01369802
     atom    2 type  1   force =    -0.00874170    0.00222768    0.02625689
     atom    3 type  1   force =    -0.01266153    0.00345215    0.00550470
     atom    4 type  1   force =     0.00000000    0.01465257   -0.00392706
     atom    5 type  1   force =     0.00000000   -0.00778186   -0.00613074
     atom    6 type  1   force =     0.00000000   -0.02500548   -0.01595462
     atom    7 type  1   force =     0.00000000   -0.01480153   -0.01560519
     atom    8 type  1   force =     0.00874170    0.00222768    0.02625689
     atom    9 type  1   force =     0.01266153    0.00345215    0.00550470
     atom   10 type  2   force =     0.00000000    0.00310197    0.00565935
     atom   11 type  2   force =     0.00000000   -0.00107700   -0.03053161
     atom   12 type  2   force =     0.00000000    0.00253350    0.00624466
     atom   13 type  2   force =     0.00000000   -0.00179035    0.01067242
     atom   14 type  3   force =     0.00000000   -0.00141889    0.00248941
     atom   15 type  3   force =     0.00000000    0.00919807    0.00393565
     atom   16 type  3   force =     0.00000000   -0.00372263   -0.00667742
     The non-local contrib.  to forces
     atom    1 type  1   force =     0.00000000    0.01908530    0.00515810
     atom    2 type  1   force =    -0.04290267   -0.00678416   -0.02012647
     atom    3 type  1   force =    -0.03910608    0.00164667    0.03035751
     atom    4 type  1   force =     0.00000000    0.01657437   -0.02770063
     atom    5 type  1   force =     0.00000000   -0.00134426    0.00274742
     atom    6 type  1   force =     0.00000000   -0.01450267    0.00435165
     atom    7 type  1   force =     0.00000000   -0.02362433    0.00327559
     atom    8 type  1   force =     0.04290267   -0.00678416   -0.02012647
     atom    9 type  1   force =     0.03910608    0.00164667    0.03035751
     atom   10 type  2   force =     0.00000000    0.02911431    0.11391209
     atom   11 type  2   force =     0.00000000    0.01406064    0.30432527
     atom   12 type  2   force =     0.00000000   -0.07181810   -0.16755582
     atom   13 type  2   force =     0.00000000   -0.01005016   -0.19854084
     atom   14 type  3   force =     0.00000000    0.00433540    0.02196660
     atom   15 type  3   force =     0.00000000    0.01919514    0.11368614
     atom   16 type  3   force =     0.00000000   -0.03902167   -0.04079728
     The ionic contribution  to forces
     atom    1 type  1   force =    -0.00000000    0.66429431    1.06323316
     atom    2 type  1   force =    -0.49668321    0.23281385    3.74283415
     atom    3 type  1   force =    -0.52993362    0.79000001   -5.53478640
     atom    4 type  1   force =    -0.00000000   -0.92185807    4.48268287
     atom    5 type  1   force =    -0.00000000   -0.03347021   -2.53144997
     atom    6 type  1   force =     0.00000000   -2.34080693    0.55332408
     atom    7 type  1   force =     0.00000000   -0.62925746    1.25363765
     atom    8 type  1   force =     0.49668321    0.23281385    3.74283415
     atom    9 type  1   force =     0.52993362    0.79000001   -5.53478640
     atom   10 type  2   force =    -0.00000000   -0.53956840    4.14969059
     atom   11 type  2   force =    -0.00000000   -1.03653378   -7.10425932
     atom   12 type  2   force =    -0.00000000    1.99906342    1.22500523
     atom   13 type  2   force =    -0.00000000   -0.22719355    1.64440103
     atom   14 type  3   force =     0.00000000    0.29503487    3.10848646
     atom   15 type  3   force =    -0.00000000   -1.63781084   -5.12718754
     atom   16 type  3   force =     0.00000000    2.36247892    0.86634026
     The local contribution  to forces
     atom    1 type  1   force =     0.00000650   -0.66212308   -1.07564479
     atom    2 type  1   force =     0.52318168   -0.22253723   -3.69679445
     atom    3 type  1   force =     0.54977421   -0.78668048    5.50184209
     atom    4 type  1   force =    -0.00002094    0.91655129   -4.45608708
     atom    5 type  1   force =     0.00000111    0.02492451    2.52185685
     atom    6 type  1   force =     0.00000783    2.32660544   -0.56728690
     atom    7 type  1   force =     0.00001018    0.63138697   -1.26573116
     atom    8 type  1   force =    -0.52318332   -0.22253473   -3.69680166
     atom    9 type  1   force =    -0.54977206   -0.78667880    5.50183888
     atom   10 type  2   force =     0.00003211    0.51388126   -4.25515225
     atom   11 type  2   force =    -0.00000338    1.02152887    6.77215788
     atom   12 type  2   force =    -0.00001266   -1.92573154   -1.05419440
     atom   13 type  2   force =    -0.00000985    0.23559189   -1.43731070
     atom   14 type  3   force =    -0.00002761   -0.30109128   -3.12558586
     atom   15 type  3   force =     0.00000326    1.62757658    5.01546885
     atom   16 type  3   force =     0.00001202   -2.32150167   -0.83198749
     The core correction contribution to forces
     atom    1 type  1   force =    -0.00000015   -0.00632612   -0.00613502
     atom    2 type  1   force =     0.00756824   -0.00111151    0.00092784
     atom    3 type  1   force =     0.00653440   -0.00140137    0.00737323
     atom    4 type  1   force =    -0.00000004    0.00318926   -0.00266674
     atom    5 type  1   force =    -0.00000001    0.00189042    0.00053716
     atom    6 type  1   force =    -0.00000001    0.00356426   -0.00676624
     atom    7 type  1   force =     0.00000011    0.00647114   -0.00650566
     atom    8 type  1   force =    -0.00756826   -0.00111142    0.00092770
     atom    9 type  1   force =    -0.00653448   -0.00140145    0.00737312
     atom   10 type  2   force =     0.00000011   -0.00062608   -0.00220677
     atom   11 type  2   force =    -0.00000004   -0.00038948   -0.00336863
     atom   12 type  2   force =    -0.00000000    0.00116546    0.00253077
     atom   13 type  2   force =     0.00000005    0.00010272    0.00242477
     atom   14 type  3   force =    -0.00000025   -0.00002078   -0.00157457
     atom   15 type  3   force =     0.00000008    0.00004171    0.00091798
     atom   16 type  3   force =     0.00000009   -0.00558038   -0.00077564
     The Hubbard contrib.    to forces
     atom    1 type  1   force =     0.00000000    0.00000000    0.00000000
     atom    2 type  1   force =     0.00000000    0.00000000    0.00000000
     atom    3 type  1   force =     0.00000000    0.00000000    0.00000000
     atom    4 type  1   force =     0.00000000    0.00000000    0.00000000
     atom    5 type  1   force =     0.00000000    0.00000000    0.00000000
     atom    6 type  1   force =     0.00000000    0.00000000    0.00000000
     atom    7 type  1   force =     0.00000000    0.00000000    0.00000000
     atom    8 type  1   force =     0.00000000    0.00000000    0.00000000
     atom    9 type  1   force =     0.00000000    0.00000000    0.00000000
     atom   10 type  2   force =     0.00000000    0.00000000    0.00000000
     atom   11 type  2   force =     0.00000000    0.00000000    0.00000000
     atom   12 type  2   force =     0.00000000    0.00000000    0.00000000
     atom   13 type  2   force =     0.00000000    0.00000000    0.00000000
     atom   14 type  3   force =     0.00000000    0.00000000    0.00000000
     atom   15 type  3   force =     0.00000000    0.00000000    0.00000000
     atom   16 type  3   force =     0.00000000    0.00000000    0.00000000
     The SCF correction term to forces
     atom    1 type  1   force =    -0.00000825   -0.00020960   -0.00037676
     atom    2 type  1   force =     0.00009471   -0.00018440   -0.00064982
     atom    3 type  1   force =     0.00006901   -0.00014331    0.00065200
     atom    4 type  1   force =     0.00002048    0.00016454   -0.00022277
     atom    5 type  1   force =    -0.00000174    0.00018649    0.00011050
     atom    6 type  1   force =    -0.00000762    0.00010325    0.00035549
     atom    7 type  1   force =    -0.00000918    0.00019098   -0.00034890
     atom    8 type  1   force =    -0.00009215   -0.00018710   -0.00064577
     atom    9 type  1   force =    -0.00007219   -0.00014600    0.00065327
     atom   10 type  2   force =    -0.00003475    0.00026970   -0.00065161
     atom   11 type  2   force =     0.00000392    0.00022558    0.00054590
     atom   12 type  2   force =     0.00001325   -0.00017692    0.00039159
     atom   13 type  2   force =     0.00001467   -0.00027243   -0.00036914
     atom   14 type  3   force =     0.00002889    0.00029172   -0.00087051
     atom   15 type  3   force =    -0.00000503    0.00016431    0.00098292
     atom   16 type  3   force =    -0.00001236   -0.00012901    0.00047545

     Total force =     0.072986     Total SCF correction =     0.002399

     Computing stress (Cartesian axis) and pressure

     negative rho (up, down):  9.960E-03 0.000E+00
          total   stress  (Ry/bohr**3)                   (kbar)     P=     -374.47
  -0.00330321   0.00000000   0.00000000         -485.92        0.00        0.00
   0.00000000  -0.00322538  -0.00003935            0.00     -474.47       -5.79
   0.00000000  -0.00003935  -0.00110827            0.00       -5.79     -163.03

     kinetic stress (kbar)  38021.32      0.00      0.00
                                0.00  37743.54    -13.00
                                0.00    -13.00  38069.67

     local   stress (kbar)  23236.56     -0.00     -0.00
                               -0.00  24455.16    -47.18
                               -0.00    -47.18  24802.65

     nonloc. stress (kbar)  -6861.22      0.00      0.00
                                0.00  -6843.59      3.56
                                0.00      3.56  -6863.40

     hartree stress (kbar)  24570.58      0.00      0.00
                                0.00  24089.87     35.41
                                0.00     35.41  23885.66

     exc-cor stress (kbar)   -975.26      0.00     -0.00
                                0.00   -981.02     -0.24
                               -0.00     -0.24   -981.47

     corecor stress (kbar) -11347.90     -0.00     -0.00
                               -0.00 -11343.48     -0.13
                               -0.00     -0.13 -11346.75

     ewald   stress (kbar) -67129.99      0.00     -0.00
                                0.00 -67594.94     15.78
                               -0.00     15.78 -67729.39

     hubbard stress (kbar)      0.00      0.00      0.00
                                0.00      0.00      0.00
                                0.00      0.00      0.00

     DFT-D   stress (kbar)      0.00      0.00      0.00
                                0.00      0.00      0.00
                                0.00      0.00      0.00

     XDM     stress (kbar)      0.00      0.00      0.00
                                0.00      0.00      0.00
                                0.00      0.00      0.00

     dft-nl  stress (kbar)      0.00      0.00      0.00
                                0.00      0.00      0.00
                                0.00      0.00      0.00

     TS-vdW  stress (kbar)      0.00      0.00      0.00
                                0.00      0.00      0.00
                                0.00      0.00      0.00

[...]

                                0.00      0.00      0.00

     Writing all to output data dir new_calculations/myprefix.save/

     General routines

     Parallel routines

     PAW routines

   This run was terminated on:  14:35:49  20May2023

   JOB DONE.