     Program PWSCF v.7.0 starts on 21May2023 at 15:54:10

     Reading input from espresso_21041.pwi
Warning: card &CELL ignored
Warning: card / ignored

     Current dimensions of program PWSCF are:
     Max number of different atomic species (ntypx) = 10
     Max number of k-points (npk) =  40000
     Max angular momentum in pseudopotentials (lmaxx) =  4

     gamma-point specific algorithms are used
     Message from routine setup:
     using ibrav=0 with symmetry is DISCOURAGED, use correct ibrav instead

     Subspace diagonalization in iterative solution of the eigenvalue problem:
     a serial algorithm will be used

     Using Slab Decomposition

     bravais-lattice index     =            0
     lattice parameter (alat)  =      13.5204  a.u.
     unit-cell volume          =    1040.2531 (a.u.)^3
     number of atoms/cell      =           10
     number of atomic types    =            3
     number of electrons       =       100.00
     number of Kohn-Sham states=           60
     kinetic-energy cutoff     =      30.0000  Ry
     charge density cutoff     =     240.0000  Ry
     scf convergence threshold =      1.0E-06
     mixing beta               =       0.7000
     number of iterations used =            8  plain     mixing
     Exchange-correlation= PBE
                           (   1   4   3   4   0   0   0)

     celldm(1)=  13.520356  celldm(2)=   0.000000  celldm(3)=   0.000000
     celldm(4)=   0.000000  celldm(5)=   0.000000  celldm(6)=   0.000000

     crystal axes: (cart. coord. in units of alat)
               a(1) = (   1.000000   0.000000   0.000000 )
               a(2) = (   0.562241   0.652739   0.000000 )
               a(3) = (   0.437759  -0.101395   0.644815 )

     reciprocal axes: (cart. coord. in units 2 pi/alat)
               b(1) = (  1.000000 -0.861357 -0.814336 )
               b(2) = (  0.000000  1.532007  0.240903 )
               b(3) = (  0.000000  0.000000  1.550832 )

     PseudoPot. # 1 for Sr read from file:
     /home/pragov/projects/rrg-bengioy-ad/pragov/crystal_structure_design/SSSP/Sr_pbe_v1.uspp.F.UPF
     MD5 check sum: 6b418c05fbe9db5448babca5e47b7a5b
     Pseudo is Ultrasoft + core correction, Zval = 10.0
     Generated by new atomic code, or converted to UPF format
     Using radial grid of  883 points,  6 beta functions with:
                l(1) =   0
                l(2) =   0
                l(3) =   1
                l(4) =   1
                l(5) =   2
                l(6) =   2
     Q(r) pseudized with  6 coefficients,  rinner =    1.400   1.400   1.400
                                                       1.400   1.400

     PseudoPot. # 2 for B  read from file:
     /home/pragov/projects/rrg-bengioy-ad/pragov/crystal_structure_design/SSSP/b_pbe_v1.4.uspp.F.UPF
     MD5 check sum: cc6de2960df11db49a60e589f9ebb39b
     Pseudo is Ultrasoft + core correction, Zval =  3.0
     Generated by new atomic code, or converted to UPF format
     Using radial grid of  781 points,  4 beta functions with:
                l(1) =   0
                l(2) =   0
                l(3) =   1
                l(4) =   1
     Q(r) pseudized with  8 coefficients,  rinner =    1.100   1.100   1.100

     PseudoPot. # 3 for Rh read from file:
     /home/pragov/projects/rrg-bengioy-ad/pragov/crystal_structure_design/SSSP/Rh_ONCV_PBE-1.0.oncvpsp.upf
     MD5 check sum: ba07c69523b14cacd10683cd4c4284c1
     Pseudo is Norm-conserving, Zval = 17.0
     Generated using ONCVPSP code by D. R. Hamann
     Using radial grid of 1442 points,  6 beta functions with:
                l(1) =   0
                l(2) =   0
                l(3) =   1
                l(4) =   1
                l(5) =   2
                l(6) =   2

     atomic species   valence    mass     pseudopotential
        Sr            10.00    87.62000     Sr( 1.00)
        B              3.00    10.81000     B ( 1.00)
        Rh            17.00   102.90550     Rh( 1.00)

      2 Sym. Ops., with inversion, found ( 1 have fractional translation)

                                    s                        frac. trans.

      isym =  1     identity

 cryst.   s( 1) = (     1          0          0      )
                  (     0          1          0      )
                  (     0          0          1      )

 cart.    s( 1) = (  1.0000000 -0.0000000 -0.0000000 )
                  (  0.0000000  1.0000000 -0.0000000 )
                  (  0.0000000  0.0000000  1.0000000 )

      isym =  2     inversion

 cryst.   s( 2) = (    -1          0          0      )    f =( -0.2500000 )
                  (     0         -1          0      )       ( -0.2500000 )
                  (     0          0         -1      )       ( -0.2500000 )

 cart.    s( 2) = ( -1.0000000  0.0000000  0.0000000 )    f =( -0.5000000 )
                  (  0.0000000 -1.0000000  0.0000000 )       ( -0.1378359 )
                  (  0.0000000  0.0000000 -1.0000000 )       ( -0.1612038 )

   Cartesian axes

     site n.     atom                  positions (alat units)
         1           Sr  tau(   1) = (   0.0000000   0.0000000   0.0000000  )
         2           Sr  tau(   2) = (   0.5000000   0.1378359   0.1612038  )
         3           B   tau(   3) = (   0.8497288   0.4051091   0.2117335  )
         4           B   tau(   4) = (   1.3497288   0.5429450   0.3729373  )
         5           B   tau(   5) = (   1.1502712   0.1462346   0.4330818  )
         6           B   tau(   6) = (   1.6502712   0.2840705   0.5942856  )
         7           Rh  tau(   7) = (   1.1469912   0.3742514   0.2381180  )
         8           Rh  tau(   8) = (   1.6469912   0.5120873   0.3993219  )
         9           Rh  tau(   9) = (   1.3530088   0.3149282   0.5679011  )
        10           Rh  tau(  10) = (   0.8530088   0.1770923   0.4066972  )

   Crystallographic axes

     site n.     atom                  positions (cryst. coord.)
         1           Sr  tau(   1) = (  0.0000000  0.0000000  0.0000000  )
         2           Sr  tau(   2) = (  0.2500000  0.2500000  0.2500000  )
         3           B   tau(   3) = (  0.3283630  0.6716370  0.3283630  )
         4           B   tau(   4) = (  0.5783630  0.9216370  0.5783630  )
         5           B   tau(   5) = (  0.6716370  0.3283630  0.6716370  )
         6           B   tau(   6) = (  0.9216370  0.5783630  0.9216370  )
         7           Rh  tau(   7) = (  0.6307190  0.6307190  0.3692810  )
         8           Rh  tau(   8) = (  0.8807190  0.8807190  0.6192810  )
         9           Rh  tau(   9) = (  0.6192810  0.6192810  0.8807190  )
        10           Rh  tau(  10) = (  0.3692810  0.3692810  0.6307190  )

     number of k points=     1  Methfessel-Paxton smearing, width (Ry)=  0.0010
                       cart. coord. in units 2pi/alat
        k(    1) = (   0.0000000   0.0000000   0.0000000), wk =   2.0000000

                       cryst. coord.
        k(    1) = (   0.0000000   0.0000000   0.0000000), wk =   2.0000000

     Check: negative core charge=   -0.000003

     Initial potential from superposition of free atoms

     starting charge      99.9298, renormalised to     100.0000

     negative rho (up, down):  1.249E-01 0.000E+00
     Starting wfcs are   82 randomized atomic wfcs

     Self-consistent Calculation

     iteration #  1     ecut=    30.00 Ry     beta= 0.70
     Davidson diagonalization with overlap

     ethr =  1.00E-02,  avg # of iterations =  2.0

     Threshold (ethr) on eigenvalues was too large:
     Diagonalizing with lowered threshold

     Davidson diagonalization with overlap

[...]

     negative rho (up, down):  1.264E-01 0.000E+00

     total energy              =   -1033.21476466 Ry
     estimated scf accuracy    <       0.84041694 Ry

[...]

     total energy              =   -1033.52235504 Ry
     estimated scf accuracy    <       0.00000284 Ry

     iteration # 13     ecut=    30.00 Ry     beta= 0.70
     Davidson diagonalization with overlap

     ethr =  1.07E-09,  avg # of iterations =  2.0

[...]

     End of self-consistent calculation

          k = 0.0000 0.0000 0.0000 (  1438 PWs)   bands (ev):

   -65.1128 -65.1010 -65.0903 -65.0791 -33.3800 -33.3725 -33.1196 -33.1180
   -33.1132 -33.0867 -32.9799 -32.9565 -32.7344 -32.7322 -32.7071 -32.7063
   -21.1321 -21.0960  -3.4001  -3.3506  -3.1888  -3.1804  -3.1558  -3.1455
     4.3960   6.1145   6.7069   7.2362   7.4975   8.5762   8.8797   8.9275
     9.2735   9.9296   9.9784  10.1096  10.4783  10.5703  11.0885  11.1912
    11.2829  11.2862  11.4730  11.7743  11.9636  12.0621  12.5182  12.7152
    13.0221  13.4893  13.6102  14.1947  14.4349  14.7058  14.9363  15.3394
    15.7899  17.7175  18.7414  18.7758

     occupation numbers
     1.0000   1.0000   1.0000   1.0000   1.0000   1.0000   1.0000   1.0000
     1.0000   1.0000   1.0000   1.0000   1.0000   1.0000   1.0000   1.0000
     1.0000   1.0000   1.0000   1.0000   1.0000   1.0000   1.0000   1.0000
     1.0000   1.0000   1.0000   1.0000   1.0000   1.0000   1.0000   1.0000
     1.0000   1.0000   1.0000   1.0000   1.0000   1.0000   1.0000   1.0000
     1.0000   1.0000   1.0000   1.0000   1.0000   1.0000   1.0000   1.0000
     1.0000   1.0000  -0.0000  -0.0000  -0.0000  -0.0000  -0.0000  -0.0000
    -0.0000  -0.0000  -0.0000  -0.0000

     the Fermi energy is    13.5498 ev

!    total energy              =   -1033.52235519 Ry
     estimated scf accuracy    <       0.00000020 Ry
     smearing contrib. (-TS)   =       0.00000000 Ry
     internal energy E=F+TS    =   -1033.52235519 Ry

     The total energy is F=E-TS. E is the sum of the following terms:
     one-electron contribution =    -455.74333565 Ry
     hartree contribution      =     269.64337986 Ry
     xc contribution           =    -136.18704926 Ry
     ewald contribution        =    -711.23535015 Ry

     convergence has been achieved in  13 iterations

     negative rho (up, down):  1.306E-01 0.000E+00

     Forces acting on atoms (cartesian axes, Ry/au):

     atom    1 type  1   force =     0.00001596    0.00001564   -0.00001536
     atom    2 type  1   force =    -0.00001596   -0.00001564    0.00001536
     atom    3 type  2   force =     0.00677939   -0.00578203    0.00497204
     atom    4 type  2   force =     0.00670503   -0.00581821    0.00501330
     atom    5 type  2   force =    -0.00670503    0.00581821   -0.00501330
     atom    6 type  2   force =    -0.00677939    0.00578203   -0.00497204
     atom    7 type  3   force =     0.01978340    0.01327430   -0.01135960
     atom    8 type  3   force =     0.01978272    0.01325226   -0.01133988
     atom    9 type  3   force =    -0.01978340   -0.01327430    0.01135960
     atom   10 type  3   force =    -0.01978272   -0.01325226    0.01133988
     The non-local contrib.  to forces
     atom    1 type  1   force =     0.00008512    0.00005905   -0.00005072
     atom    2 type  1   force =    -0.00008512   -0.00005905    0.00005072
     atom    3 type  2   force =    -0.00131737    0.00101403   -0.00092171
     atom    4 type  2   force =    -0.00120488    0.00109749   -0.00098285
     atom    5 type  2   force =     0.00120488   -0.00109749    0.00098285
     atom    6 type  2   force =     0.00131737   -0.00101403    0.00092171
     atom    7 type  3   force =    -0.15525208   -0.10411104    0.08900750
     atom    8 type  3   force =    -0.15524929   -0.10414098    0.08903193
     atom    9 type  3   force =     0.15525208    0.10411104   -0.08900750
     atom   10 type  3   force =     0.15524929    0.10414098   -0.08903193
     The ionic contribution  to forces
     atom    1 type  1   force =    -0.00000001   -0.00000001    0.00000002
     atom    2 type  1   force =     0.00000001    0.00000001   -0.00000002
     atom    3 type  2   force =    -2.06449262    1.77826606   -1.52049088
     atom    4 type  2   force =    -2.06449263    1.77826605   -1.52049087
     atom    5 type  2   force =     2.06449263   -1.77826605    1.52049087
     atom    6 type  2   force =     2.06449262   -1.77826606    1.52049088
     atom    7 type  3   force =     6.18893936    4.15060857   -3.54894162
     atom    8 type  3   force =     6.18893935    4.15060855   -3.54894160
     atom    9 type  3   force =    -6.18893936   -4.15060857    3.54894162
     atom   10 type  3   force =    -6.18893935   -4.15060855    3.54894160
     The local contribution  to forces
     atom    1 type  1   force =     0.00002634    0.00025506   -0.00023946
     atom    2 type  1   force =    -0.00035028   -0.00004268    0.00003349
     atom    3 type  2   force =     2.07190037   -1.78431392    1.52571357
     atom    4 type  2   force =     2.07159184   -1.78466129    1.52604311
     atom    5 type  2   force =    -2.07143733    1.78452225   -1.52587502
     atom    6 type  2   force =    -2.07195848    1.78433359   -1.52577167
     atom    7 type  3   force =    -6.01382812   -4.03385874    3.44801742
     atom    8 type  3   force =    -6.01343807   -4.03330264    3.44942493
     atom    9 type  3   force =     6.01449820    4.03252760   -3.44872352
     atom   10 type  3   force =     6.01398528    4.03372945   -3.44778497
     The core correction contribution to forces
     atom    1 type  1   force =    -0.00000557   -0.00000366    0.00000302
     atom    2 type  1   force =     0.00000406    0.00000275   -0.00000214
     atom    3 type  2   force =     0.00078418   -0.00067973    0.00058035
     atom    4 type  2   force =     0.00077595   -0.00067632    0.00058700
     atom    5 type  2   force =    -0.00077582    0.00067587   -0.00058614
     atom    6 type  2   force =    -0.00078384    0.00067878   -0.00058013
     atom    7 type  3   force =     0.00000000    0.00000000    0.00000000
     atom    8 type  3   force =     0.00000000    0.00000000    0.00000000
     atom    9 type  3   force =     0.00000000    0.00000000    0.00000000
     atom   10 type  3   force =     0.00000000    0.00000000    0.00000000
     The Hubbard contrib.    to forces
     atom    1 type  1   force =     0.00000000    0.00000000    0.00000000
     atom    2 type  1   force =     0.00000000    0.00000000    0.00000000
     atom    3 type  2   force =     0.00000000    0.00000000    0.00000000
     atom    4 type  2   force =     0.00000000    0.00000000    0.00000000
     atom    5 type  2   force =     0.00000000    0.00000000    0.00000000
     atom    6 type  2   force =     0.00000000    0.00000000    0.00000000
     atom    7 type  3   force =     0.00000000    0.00000000    0.00000000
     atom    8 type  3   force =     0.00000000    0.00000000    0.00000000
     atom    9 type  3   force =     0.00000000    0.00000000    0.00000000
     atom   10 type  3   force =     0.00000000    0.00000000    0.00000000
     The SCF correction term to forces
     atom    1 type  1   force =    -0.00011018   -0.00029475    0.00027249
     atom    2 type  1   force =     0.00039512    0.00008336   -0.00006597
     atom    3 type  2   force =    -0.00009142   -0.00008213    0.00009273
     atom    4 type  2   force =     0.00004125    0.00014483   -0.00012444
     atom    5 type  2   force =    -0.00018288   -0.00002741   -0.00000721
     atom    6 type  2   force =     0.00015670    0.00003611   -0.00003080
     atom    7 type  3   force =    -0.00005150    0.00063315    0.00054211
     atom    8 type  3   force =    -0.00046002    0.00009387   -0.00084904
     atom    9 type  3   force =    -0.00057004    0.00069325    0.00013401
     atom   10 type  3   force =    -0.00006870   -0.00050758   -0.00077870

     Total force =     0.056573     Total SCF correction =     0.001948

     Computing stress (Cartesian axis) and pressure

     negative rho (up, down):  1.306E-01 0.000E+00
          total   stress  (Ry/bohr**3)                   (kbar)     P=       26.06
   0.00006984   0.00017973  -0.00015390           10.27       26.44      -22.64
   0.00017973   0.00019695   0.00021774           26.44       28.97       32.03
  -0.00015390   0.00021774   0.00026475          -22.64       32.03       38.95

     kinetic stress (kbar)  31283.64    112.01    -95.81
                              112.01  31465.26    255.60
                              -95.81    255.60  31545.52

     local   stress (kbar) -18059.69   2113.30  -1806.90
                             2113.30 -11496.77   8491.44
                            -1806.90   8491.44  -8826.37

     nonloc. stress (kbar)   7694.64    -37.79     32.31
                              -37.79   7689.77    -20.29
                               32.31    -20.29   7683.38

     hartree stress (kbar)  14977.72   -780.42    667.25
                             -780.42  12144.93  -3614.30
                              667.25  -3614.30  11008.38

     exc-cor stress (kbar)  -2219.02      1.34     -1.15
                                1.34  -2221.71     -2.63
                               -1.15     -2.63  -2222.54

     corecor stress (kbar)  -3264.24     -1.73      1.48
                               -1.73  -3263.50      0.19
                                1.48      0.19  -3263.44

     ewald   stress (kbar) -30402.78  -1380.26   1180.18
                            -1380.26 -34289.00  -5077.98
                             1180.18  -5077.98 -35885.98

     hubbard stress (kbar)      0.00      0.00      0.00
                                0.00      0.00      0.00
                                0.00      0.00      0.00

     DFT-D   stress (kbar)      0.00      0.00      0.00
                                0.00      0.00      0.00
                                0.00      0.00      0.00

     XDM     stress (kbar)      0.00      0.00      0.00
                                0.00      0.00      0.00
                                0.00      0.00      0.00

     dft-nl  stress (kbar)      0.00      0.00      0.00
                                0.00      0.00      0.00
                                0.00      0.00      0.00

     TS-vdW  stress (kbar)      0.00      0.00      0.00
                                0.00      0.00      0.00
                                0.00      0.00      0.00

[...]

                                0.00      0.00      0.00

     Writing all to output data dir new_calculations/myprefix.save/

     General routines

     Parallel routines

   This run was terminated on:  15:54:30  21May2023

   JOB DONE.