     Program PWSCF v.7.0 starts on 20May2023 at 20:48:47

     Reading input from espresso_12533.pwi
Warning: card &CELL ignored
Warning: card / ignored

     Current dimensions of program PWSCF are:
     Max number of different atomic species (ntypx) = 10
     Max number of k-points (npk) =  40000
     Max angular momentum in pseudopotentials (lmaxx) =  4

     gamma-point specific algorithms are used
     Message from routine setup:
     using ibrav=0 with symmetry is DISCOURAGED, use correct ibrav instead

     Subspace diagonalization in iterative solution of the eigenvalue problem:
     a serial algorithm will be used

     Using Slab Decomposition

     bravais-lattice index     =            0
     lattice parameter (alat)  =       9.2719  a.u.
     unit-cell volume          =    1103.4225 (a.u.)^3
     number of atoms/cell      =            6
     number of atomic types    =            3
     number of electrons       =        88.00
     number of Kohn-Sham states=           53
     kinetic-energy cutoff     =      30.0000  Ry
     charge density cutoff     =     240.0000  Ry
     scf convergence threshold =      1.0E-06
     mixing beta               =       0.7000
     number of iterations used =            8  plain     mixing
     Exchange-correlation= SLA  PW   PBE  PBE
                           (   1   4   3   4   0   0   0)

     celldm(1)=   9.271859  celldm(2)=   0.000000  celldm(3)=   0.000000
     celldm(4)=   0.000000  celldm(5)=   0.000000  celldm(6)=   0.000000

     crystal axes: (cart. coord. in units of alat)
               a(1) = (   1.000000   0.000000   0.000000 )
               a(2) = (  -0.500000   0.866025   0.000000 )
               a(3) = (   0.000000   0.000000   1.598493 )

     reciprocal axes: (cart. coord. in units 2 pi/alat)
               b(1) = (  1.000000  0.577350  0.000000 )
               b(2) = (  0.000000  1.154701  0.000000 )
               b(3) = (  0.000000  0.000000  0.625589 )

     PseudoPot. # 1 for Ca read from file:
     /home/pragov/projects/rrg-bengioy-ad/pragov/crystal_structure_design/SSSP/Ca_pbe_v1.uspp.F.UPF
     MD5 check sum: 403a4c14b9e4d4dfdc3024c9a3812218
     Pseudo is Ultrasoft + core correction, Zval = 10.0
     Generated by new atomic code, or converted to UPF format
     Using radial grid of  845 points,  6 beta functions with:
                l(1) =   0
                l(2) =   0
                l(3) =   1
                l(4) =   1
                l(5) =   2
                l(6) =   2
     Q(r) pseudized with  8 coefficients,  rinner =    1.500   1.500   1.500
                                                       1.500   1.500

     PseudoPot. # 2 for Ag read from file:
     /home/pragov/projects/rrg-bengioy-ad/pragov/crystal_structure_design/SSSP/Ag_ONCV_PBE-1.0.oncvpsp.upf
     MD5 check sum: 94f47bd0669c641108e45594df92fabc
     Pseudo is Norm-conserving, Zval = 19.0
     Generated using ONCVPSP code by D. R. Hamann
     Using radial grid of 1398 points,  6 beta functions with:
                l(1) =   0
                l(2) =   0
                l(3) =   1
                l(4) =   1
                l(5) =   2
                l(6) =   2

     PseudoPot. # 3 for Bi read from file:
     /home/pragov/projects/rrg-bengioy-ad/pragov/crystal_structure_design/SSSP/Bi_pbe_v1.uspp.F.UPF
     MD5 check sum: cceb9f28ec65b6d7ff33140f5b0b1758
     Pseudo is Ultrasoft + core correction, Zval = 15.0
     Generated by new atomic code, or converted to UPF format
     Using radial grid of  899 points,  6 beta functions with:
                l(1) =   0
                l(2) =   0
                l(3) =   1
                l(4) =   1
                l(5) =   2
                l(6) =   2
     Q(r) pseudized with  6 coefficients,  rinner =    1.000   1.000   1.000
                                                       1.000   1.000

     atomic species   valence    mass     pseudopotential
        Ca            10.00    40.07800     Ca( 1.00)
        Ag            19.00   107.86820     Ag( 1.00)
        Bi            15.00   208.98040     Bi( 1.00)

     12 Sym. Ops. (no inversion) found ( 6 have fractional translation)

                                    s                        frac. trans.

      isym =  1     identity

 cryst.   s( 1) = (     1          0          0      )
                  (     0          1          0      )
                  (     0          0          1      )

 cart.    s( 1) = (  1.0000000  0.0000000  0.0000000 )
                  (  0.0000000  1.0000000  0.0000000 )
                  (  0.0000000  0.0000000  1.0000000 )

      isym =  2     180 deg rotation - cart. axis [0,0,1]

 cryst.   s( 2) = (    -1          0          0      )    f =(  0.0000000 )
                  (     0         -1          0      )       (  0.0000000 )
                  (     0          0          1      )       ( -0.5000000 )

 cart.    s( 2) = ( -1.0000000 -0.0000000  0.0000000 )    f =(  0.0000000 )
                  (  0.0000000 -1.0000000  0.0000000 )       (  0.0000000 )
                  (  0.0000000  0.0000000  1.0000000 )       ( -0.7992466 )

      isym =  3      60 deg rotation - cryst. axis [0,0,1]

[...]

      isym =  6     120 deg rotation - cryst. axis [0,0,-1]

[...]

      isym =  7     inv. 180 deg rotation - cart. axis [0,1,0]

[...]

      isym =  8     inv. 180 deg rotation - cart. axis [1,0,0]

 cryst.   s( 8) = (    -1          0          0      )
                  (     1          1          0      )
                  (     0          0          1      )

 cart.    s( 8) = ( -1.0000000 -0.0000002  0.0000000 )
                  (  0.0000000  1.0000000  0.0000000 )
                  (  0.0000000  0.0000000  1.0000000 )

      isym =  9     inv. 180 deg rotation - cryst. axis [1,-1,0]

 cryst.   s( 9) = (     0          1          0      )    f =(  0.0000000 )
                  (     1          0          0      )       (  0.0000000 )
                  (     0          0          1      )       ( -0.5000000 )

 cart.    s( 9) = ( -0.5000001  0.8660254  0.0000000 )    f =(  0.0000000 )
                  (  0.8660254  0.5000001  0.0000000 )       (  0.0000000 )
                  (  0.0000000  0.0000000  1.0000000 )       ( -0.7992466 )

[...]

 cryst.   s(10) = (    -1         -1          0      )    f =(  0.0000000 )
                  (     0          1          0      )       (  0.0000000 )
                  (     0          0          1      )       ( -0.5000000 )

 cart.    s(10) = ( -0.4999999 -0.8660255  0.0000000 )    f =(  0.0000000 )
                  ( -0.8660254  0.4999999  0.0000000 )       (  0.0000000 )
                  (  0.0000000  0.0000000  1.0000000 )       ( -0.7992466 )

[...]

 cryst.   s(11) = (     1          1          0      )
                  (     0         -1          0      )
                  (     0          0          1      )

 cart.    s(11) = (  0.4999999  0.8660255  0.0000000 )
                  (  0.8660254 -0.4999999  0.0000000 )
                  (  0.0000000  0.0000000  1.0000000 )

      isym = 12     inv. 180 deg rotation - cryst. axis [1,1,0]

 cryst.   s(12) = (     0         -1          0      )
                  (    -1          0          0      )
                  (     0          0          1      )

 cart.    s(12) = (  0.5000001 -0.8660254  0.0000000 )
                  ( -0.8660254 -0.5000001  0.0000000 )
                  (  0.0000000  0.0000000  1.0000000 )

   Cartesian axes

     site n.     atom                  positions (alat units)
         1           Ca  tau(   1) = (   0.0000000   0.0000000   0.0365224  )
         2           Ca  tau(   2) = (   0.0000000   0.0000000   0.8357690  )
         3           Ag  tau(   3) = (  -0.0000006   0.5773505   0.5404473  )
         4           Ag  tau(   4) = (   0.5000005   0.2886748   1.3396939  )
         5           Bi  tau(   5) = (   0.5000005   0.2886748   0.3815987  )
         6           Bi  tau(   6) = (  -0.0000006   0.5773505   1.1808453  )

   Crystallographic axes

     site n.     atom                  positions (cryst. coord.)
         1           Ca  tau(   1) = (  0.0000000  0.0000000  0.0228480  )
         2           Ca  tau(   2) = (  0.0000000  0.0000000  0.5228480  )
         3           Ag  tau(   3) = (  0.3333330  0.6666670  0.3380980  )
         4           Ag  tau(   4) = (  0.6666670  0.3333330  0.8380980  )
         5           Bi  tau(   5) = (  0.6666670  0.3333330  0.2387240  )
         6           Bi  tau(   6) = (  0.3333330  0.6666670  0.7387240  )

     number of k points=     1  Methfessel-Paxton smearing, width (Ry)=  0.0010
                       cart. coord. in units 2pi/alat
        k(    1) = (   0.0000000   0.0000000   0.0000000), wk =   2.0000000

                       cryst. coord.
        k(    1) = (   0.0000000   0.0000000   0.0000000), wk =   2.0000000

     Check: negative core charge=   -0.000004

     Initial potential from superposition of free atoms

     starting charge      85.9884, renormalised to      88.0000

     negative rho (up, down):  9.052E-02 0.000E+00
     Starting wfcs are   58 randomized atomic wfcs

     Self-consistent Calculation

     iteration #  1     ecut=    30.00 Ry     beta= 0.70
     Davidson diagonalization with overlap

     ethr =  1.00E-02,  avg # of iterations =  3.0

     negative rho (up, down):  8.978E-02 0.000E+00

     total energy              =   -1093.17377472 Ry
     estimated scf accuracy    <       1.29102287 Ry

[...]

     total energy              =   -1093.85845755 Ry
     estimated scf accuracy    <       0.00000265 Ry

     iteration # 21     ecut=    30.00 Ry     beta= 0.70
     Davidson diagonalization with overlap

     ethr =  2.82E-09,  avg # of iterations =  1.0

[...]

     End of self-consistent calculation

          k = 0.0000 0.0000 0.0000 (  1501 PWs)   bands (ev):

   -83.0649 -83.0648 -46.0698 -46.0698 -46.0648 -46.0648 -46.0143 -46.0114
   -30.5728 -30.5680 -11.7393 -11.6535 -11.5710 -11.5710 -11.5703 -11.5703
   -11.2968 -11.2928 -11.2496 -11.2496 -11.2192 -11.2191 -11.1046 -11.1046
   -11.0866 -11.0866  -0.3387   0.2074   5.5141   5.5141   5.5372   5.5373
     5.7575   5.9412   5.9412   5.9922   5.9923   6.1824   6.6047   9.8814
     9.8814  10.2786  11.2711  11.3443  11.3444  11.3542  12.1263  12.5363
    12.5363  13.2271  13.2272  14.4582  14.4582

     occupation numbers
     1.0000   1.0000   1.0000   1.0000   1.0000   1.0000   1.0000   1.0000
     1.0000   1.0000   1.0000   1.0000   1.0000   1.0000   1.0000   1.0000
     1.0000   1.0000   1.0000   1.0000   1.0000   1.0000   1.0000   1.0000
     1.0000   1.0000   1.0000   1.0000   1.0000   1.0000   1.0000   1.0000
     1.0000   1.0000   1.0000   1.0000   1.0000   1.0000   1.0000   1.0000
     1.0000   1.0000   1.0000   0.4876   0.4857   0.0267  -0.0000  -0.0000
    -0.0000  -0.0000  -0.0000  -0.0000  -0.0000

     the Fermi energy is    11.3441 ev

!    total energy              =   -1093.85845746 Ry
     estimated scf accuracy    <       0.00000027 Ry
     smearing contrib. (-TS)   =      -0.00054788 Ry
     internal energy E=F+TS    =   -1093.85790958 Ry

     The total energy is F=E-TS. E is the sum of the following terms:
     one-electron contribution =    -514.86069865 Ry
     hartree contribution      =     290.81475846 Ry
     xc contribution           =    -207.22266627 Ry
     ewald contribution        =    -662.58930312 Ry

     convergence has been achieved in  21 iterations

     negative rho (up, down):  9.148E-02 0.000E+00

     Forces acting on atoms (cartesian axes, Ry/au):

     atom    1 type  1   force =     0.00000000    0.00000000    0.03795346
     atom    2 type  1   force =     0.00000000    0.00000000    0.03795346
     atom    3 type  2   force =     0.00000000   -0.00000000   -0.00732738
     atom    4 type  2   force =     0.00000000    0.00000000   -0.00732738
     atom    5 type  3   force =     0.00000000    0.00000000   -0.03062608
     atom    6 type  3   force =    -0.00000000   -0.00000000   -0.03062608
     The non-local contrib.  to forces
     atom    1 type  1   force =    -0.00000000   -0.00000000    0.03924449
     atom    2 type  1   force =     0.00000000    0.00000000    0.03924449
     atom    3 type  2   force =     0.00000000    0.00000000    0.18064590
     atom    4 type  2   force =     0.00000000    0.00000000    0.18064590
     atom    5 type  3   force =     0.00000000   -0.00000000    0.05603288
     atom    6 type  3   force =     0.00000000    0.00000000    0.05603288
     The ionic contribution  to forces
     atom    1 type  1   force =     0.00001046   -0.00000604    1.27982109
     atom    2 type  1   force =    -0.00001046    0.00000604    1.27982109
     atom    3 type  2   force =     0.00008181   -0.00004723   -1.46095463
     atom    4 type  2   force =    -0.00008181    0.00004723   -1.46095463
     atom    5 type  3   force =    -0.00007635    0.00004408    0.18113354
     atom    6 type  3   force =     0.00007635   -0.00004408    0.18113354
     The local contribution  to forces
     atom    1 type  1   force =     0.00017576   -0.00009616   -1.28014790
     atom    2 type  1   force =    -0.00013428    0.00008693   -1.27967846
     atom    3 type  2   force =    -0.00089199    0.00054134    1.27243882
     atom    4 type  2   force =     0.00070802   -0.00007856    1.27309375
     atom    5 type  3   force =     0.00002937   -0.00035975   -0.26350203
     atom    6 type  3   force =     0.00009595   -0.00033775   -0.26214659
     The core correction contribution to forces
     atom    1 type  1   force =    -0.00000146    0.00000168   -0.00122119
     atom    2 type  1   force =     0.00000150    0.00000135   -0.00121812
     atom    3 type  2   force =     0.00000000    0.00000000    0.00000000
     atom    4 type  2   force =     0.00000000    0.00000000    0.00000000
     atom    5 type  3   force =    -0.00000015   -0.00001695   -0.00495487
     atom    6 type  3   force =     0.00000765   -0.00002037   -0.00491511
     The Hubbard contrib.    to forces
     atom    1 type  1   force =     0.00000000    0.00000000    0.00000000
     atom    2 type  1   force =     0.00000000    0.00000000    0.00000000
     atom    3 type  2   force =     0.00000000    0.00000000    0.00000000
     atom    4 type  2   force =     0.00000000    0.00000000    0.00000000
     atom    5 type  3   force =     0.00000000    0.00000000    0.00000000
     atom    6 type  3   force =     0.00000000    0.00000000    0.00000000
     The SCF correction term to forces
     atom    1 type  1   force =    -0.00016746    0.00010196    0.00021618
     atom    2 type  1   force =     0.00012500   -0.00006544   -0.00020527
     atom    3 type  2   force =     0.00059156   -0.00036198    0.00053107
     atom    4 type  2   force =    -0.00042173    0.00000246   -0.00013150
     atom    5 type  3   force =     0.00007674    0.00021833    0.00044513
     atom    6 type  3   force =    -0.00012776    0.00016585   -0.00054204

     Total force =     0.069744     Total SCF correction =     0.001302

     Computing stress (Cartesian axis) and pressure

     negative rho (up, down):  9.148E-02 0.000E+00
          total   stress  (Ry/bohr**3)                   (kbar)     P=     -227.98
  -0.00100318  -0.00000000   0.00000000         -147.57       -0.00        0.00
  -0.00000000  -0.00100318   0.00000000           -0.00     -147.57        0.00
   0.00000000   0.00000000  -0.00264292            0.00        0.00     -388.79

     kinetic stress (kbar)  23226.81      0.00      0.00
                                0.00  23226.82      0.00
                                0.00      0.00  22961.02

     local   stress (kbar) -11526.62     -0.95     -0.13
                               -0.95 -11527.52      0.63
                               -0.13      0.63  -1754.74

     nonloc. stress (kbar)   7356.38      0.00     -0.00
                                0.00   7356.38      0.00
                               -0.00      0.00   7200.83

     hartree stress (kbar)  14156.59      0.39      0.05
                                0.39  14156.97     -0.24
                                0.05     -0.24  10457.01

     exc-cor stress (kbar)   7318.09      0.01      0.00
                                0.01   7318.10     -0.01
                                0.00     -0.01   7309.73

     corecor stress (kbar) -13197.11     -0.01     -0.00
                               -0.01 -13197.12      0.01
                               -0.00      0.01 -13191.08

     ewald   stress (kbar) -27481.48      0.05      0.00
                                0.05 -27481.43      0.00
                                0.00      0.00 -33371.56

     hubbard stress (kbar)      0.00      0.00      0.00
                                0.00      0.00      0.00
                                0.00      0.00      0.00

     DFT-D   stress (kbar)      0.00      0.00      0.00
                                0.00      0.00      0.00
                                0.00      0.00      0.00

     XDM     stress (kbar)      0.00      0.00      0.00
                                0.00      0.00      0.00
                                0.00      0.00      0.00

     dft-nl  stress (kbar)      0.00      0.00      0.00
                                0.00      0.00      0.00
                                0.00      0.00      0.00

     TS-vdW  stress (kbar)      0.00      0.00      0.00
                                0.00      0.00      0.00
                                0.00      0.00      0.00

[...]

                                0.00      0.00      0.00

     Writing all to output data dir new_calculations/myprefix.save/

     General routines

     Parallel routines

   This run was terminated on:  20:49:13  20May2023

   JOB DONE.