     Program PWSCF v.7.0 starts on 21May2023 at  2:13:34

     Reading input from espresso_12704.pwi
Warning: card &CELL ignored
Warning: card / ignored

     Current dimensions of program PWSCF are:
     Max number of different atomic species (ntypx) = 10
     Max number of k-points (npk) =  40000
     Max angular momentum in pseudopotentials (lmaxx) =  4

     gamma-point specific algorithms are used
     Message from routine setup:
     using ibrav=0 with symmetry is DISCOURAGED, use correct ibrav instead

     Subspace diagonalization in iterative solution of the eigenvalue problem:
     a serial algorithm will be used

     Using Slab Decomposition

     bravais-lattice index     =            0
     lattice parameter (alat)  =      10.5109  a.u.
     unit-cell volume          =     510.8505 (a.u.)^3
     number of atoms/cell      =            4
     number of atomic types    =            2
     number of electrons       =        30.00
     number of Kohn-Sham states=           19
     kinetic-energy cutoff     =      30.0000  Ry
     charge density cutoff     =     240.0000  Ry
     scf convergence threshold =      1.0E-06
     mixing beta               =       0.7000
     number of iterations used =            8  plain     mixing
     Exchange-correlation= PBE
                           (   1   4   3   4   0   0   0)

     celldm(1)=  10.510939  celldm(2)=   0.000000  celldm(3)=   0.000000
     celldm(4)=   0.000000  celldm(5)=   0.000000  celldm(6)=   0.000000

     crystal axes: (cart. coord. in units of alat)
               a(1) = (   1.000000   0.000000   0.000000 )
               a(2) = (   0.490395   0.871500   0.000000 )
               a(3) = (  -0.745198  -0.435750   0.504780 )

     reciprocal axes: (cart. coord. in units 2 pi/alat)
               b(1) = (  1.000000 -0.562702  0.990531 )
               b(2) = (  0.000000  1.147447  0.990531 )
               b(3) = (  0.000000  0.000000  1.981063 )

     PseudoPot. # 1 for Pm read from file:
     /home/pragov/projects/rrg-bengioy-ad/pragov/crystal_structure_design/SSSP/Pm.GGA-PBE-paw-v1.0.UPF
     MD5 check sum: 4b6c6c601cafc6eebaa7bee0af846dec
     Pseudo is Projector augmented-wave + core cor, Zval = 15.0
     Generated using ATOMPAW code
     Shape of augmentation charge: BESSEL
     Using radial grid of 1106 points,  8 beta functions with:
                l(1) =   0
                l(2) =   0
                l(3) =   1
                l(4) =   1
                l(5) =   2
                l(6) =   2
                l(7) =   3
                l(8) =   3
     Q(r) pseudized with 0 coefficients

     PseudoPot. # 2 for P  read from file:
     /home/pragov/projects/rrg-bengioy-ad/pragov/crystal_structure_design/SSSP/P.pbe-n-rrkjus_psl.1.0.0.UPF
     MD5 check sum: 8b930f418f0a4573dca56cd030ffe088
     Pseudo is Ultrasoft + core correction, Zval =  5.0
     Generated using "atomic" code by A. Dal Corso  v.5.1
     Using radial grid of 1147 points,  6 beta functions with:
                l(1) =   0
                l(2) =   0
                l(3) =   1
                l(4) =   1
                l(5) =   2
                l(6) =   2
     Q(r) pseudized with 0 coefficients

     atomic species   valence    mass     pseudopotential
        Pm            15.00   144.91276     Pm( 1.00)
        P              5.00    30.97376     P ( 1.00)

      4 Sym. Ops., with inversion, found

                                    s                        frac. trans.

      isym =  1     identity

 cryst.   s( 1) = (     1          0          0      )
                  (     0          1          0      )
                  (     0          0          1      )

 cart.    s( 1) = (  1.0000000  0.0000000  0.0000000 )
                  (  0.0000000  1.0000000 -0.0000000 )
                  (  0.0000000  0.0000000  1.0000000 )

      isym =  2     180 deg rotation - cart. axis [0,0,1]

[...]

      isym =  3     inversion

[...]

      isym =  4     inv. 180 deg rotation - cart. axis [0,0,1]

 cryst.   s( 4) = (     1          0          0      )
                  (     0          1          0      )
                  (    -1         -1         -1      )

 cart.    s( 4) = (  1.0000000  0.0000000 -0.0000000 )
                  (  0.0000000  1.0000000 -0.0000000 )
                  (  0.0000000  0.0000000 -1.0000000 )

   Cartesian axes

     site n.     atom                  positions (alat units)
         1           Pm  tau(   1) = (   0.0000000   0.0000000   0.0000000  )
         2           P   tau(   2) = (   0.5000000   0.0000000   0.2523898  )
         3           P   tau(   3) = (   0.2451976   0.4357501   0.2523898  )
         4           P   tau(   4) = (   0.7451976   0.4357501   0.0000000  )

   Crystallographic axes

     site n.     atom                  positions (cryst. coord.)
         1           Pm  tau(   1) = (  0.0000000  0.0000000  0.0000000  )
         2           P   tau(   2) = (  0.7500000  0.2500000  0.5000000  )
         3           P   tau(   3) = (  0.2500000  0.7500000  0.5000000  )
         4           P   tau(   4) = (  0.5000000  0.5000000  0.0000000  )

     number of k points=     1  Methfessel-Paxton smearing, width (Ry)=  0.0010
                       cart. coord. in units 2pi/alat
        k(    1) = (   0.0000000   0.0000000   0.0000000), wk =   2.0000000

                       cryst. coord.
        k(    1) = (   0.0000000   0.0000000   0.0000000), wk =   2.0000000

     Initial potential from superposition of free atoms

     starting charge      29.9944, renormalised to      30.0000
     Starting wfcs are   44 randomized atomic wfcs
     Checking if some PAW data can be deallocated...

     Self-consistent Calculation

     iteration #  1     ecut=    30.00 Ry     beta= 0.70
     Davidson diagonalization with overlap

     ethr =  1.00E-02,  avg # of iterations =  2.0

     total energy              =    -609.48155372 Ry
     estimated scf accuracy    <       1.77289121 Ry

[...]

     total energy              =    -611.27973656 Ry
     estimated scf accuracy    <       0.00000720 Ry

     iteration # 71     ecut=    30.00 Ry     beta= 0.70
     Davidson diagonalization with overlap

     ethr =  6.61E-09,  avg # of iterations =  2.0

     End of self-consistent calculation

          k = 0.0000 0.0000 0.0000 (   710 PWs)   bands (ev):

   -26.3511  -7.0966  -6.8438  -6.8320  -2.1134   2.2153   3.8708   6.5094
     7.0632   7.0639   9.0492  10.1668  10.1718  11.8184  12.0296  12.0335
    12.1859  12.1986  12.5458

     occupation numbers
     1.0000   1.0000   1.0000   1.0000   1.0000   1.0000   1.0000   1.0000
     1.0000   1.0000   1.0000   1.0000   1.0000   1.0000   0.6187   0.3813
    -0.0000  -0.0000  -0.0000

     the Fermi energy is    12.0315 ev

!    total energy              =    -611.27973645 Ry
     estimated scf accuracy    <       0.00000090 Ry
     smearing contrib. (-TS)   =      -0.00053069 Ry
     internal energy E=F+TS    =    -611.27920577 Ry

     The total energy is F=E-TS. E is the sum of the following terms:
     one-electron contribution =     -29.83855432 Ry
     hartree contribution      =      37.11063542 Ry
     xc contribution           =     -28.92043867 Ry
     ewald contribution        =    -149.70771928 Ry
     one-center paw contrib.   =    -439.92312892 Ry
      -> PAW hartree energy AE =     103.42729155 Ry
      -> PAW hartree energy PS =    -101.87404576 Ry
      -> PAW xc energy AE      =    -456.18158964 Ry
      -> PAW xc energy PS      =      14.70521493 Ry
      -> total E_H with PAW    =      38.66388121 Ry
      -> total E_XC with PAW   =    -470.39681338 Ry

     convergence has been achieved in  71 iterations

     Forces acting on atoms (cartesian axes, Ry/au):

     atom    1 type  1   force =     0.00000000    0.00000000    0.00000000
     atom    2 type  2   force =     0.00000000    0.00000000   -0.01174479
     atom    3 type  2   force =     0.00000000    0.00000000    0.01174479
     atom    4 type  2   force =     0.00000000    0.00000000   -0.00000000
     The non-local contrib.  to forces
     atom    1 type  1   force =     0.00000000    0.00000000    0.00000000
     atom    2 type  2   force =     0.00000000    0.00000000    0.00548531
     atom    3 type  2   force =     0.00000000    0.00000000   -0.00548531
     atom    4 type  2   force =     0.00000000    0.00000000    0.00000000
     The ionic contribution  to forces
     atom    1 type  1   force =    -0.00000000   -0.00000000    0.00000000
     atom    2 type  2   force =    -0.00000000    0.00000000   -0.00000000
     atom    3 type  2   force =     0.00000000   -0.00000000   -0.00000000
     atom    4 type  2   force =    -0.00000000    0.00000000    0.00000000
     The local contribution  to forces
     atom    1 type  1   force =     0.00017382    0.00005110   -0.00002414
     atom    2 type  2   force =     0.00016632   -0.00044487   -0.01661574
     atom    3 type  2   force =    -0.00022576    0.00040311    0.01662446
     atom    4 type  2   force =     0.00005586    0.00003842    0.00000746
     The core correction contribution to forces
     atom    1 type  1   force =     0.00000001    0.00000000   -0.00000000
     atom    2 type  2   force =    -0.00001004    0.00001583   -0.00036843
     atom    3 type  2   force =     0.00000950   -0.00001644    0.00036893
     atom    4 type  2   force =     0.00000165    0.00000090   -0.00000002
     The Hubbard contrib.    to forces
     atom    1 type  1   force =     0.00000000    0.00000000    0.00000000
     atom    2 type  2   force =     0.00000000    0.00000000    0.00000000
     atom    3 type  2   force =     0.00000000    0.00000000    0.00000000
     atom    4 type  2   force =     0.00000000    0.00000000    0.00000000
     The SCF correction term to forces
     atom    1 type  1   force =    -0.00003953   -0.00001767   -0.00000692
     atom    2 type  2   force =     0.00000679   -0.00000046   -0.00024093
     atom    3 type  2   force =     0.00003564    0.00002691    0.00024173
     atom    4 type  2   force =    -0.00003210   -0.00001999   -0.00000341

     Total force =     0.016610     Total SCF correction =     0.000349

     Computing stress (Cartesian axis) and pressure

          total   stress  (Ry/bohr**3)                   (kbar)     P=      -59.05
  -0.00183315  -0.00140507   0.00000000         -269.67     -206.69        0.00
  -0.00140507  -0.00010689   0.00000000         -206.69      -15.72        0.00
   0.00000000   0.00000000   0.00073587            0.00        0.00      108.25

     kinetic stress (kbar)   6867.58   -237.45     -0.00
                             -237.45   7127.52     -0.00
                               -0.00     -0.00   7273.92

     local   stress (kbar)   2596.12   2587.44    -10.09
                             2587.44   -314.44     -6.23
                              -10.09     -6.23  -1814.80

     nonloc. stress (kbar)   5941.84    -16.80     -0.00
                              -16.80   5997.04     -0.00
                               -0.00     -0.00   5990.17

     hartree stress (kbar)   2545.38  -1082.24      2.43
                            -1082.24   3754.30      1.56
                                2.43      1.56   4386.74

     exc-cor stress (kbar)  -1595.72     -2.78     -0.04
                               -2.78  -1592.88     -0.03
                               -0.04     -0.03  -1591.16

     corecor stress (kbar)   -878.13      1.71      0.01
                                1.71   -879.77      0.01
                                0.01      0.01   -880.84

     ewald   stress (kbar) -15746.72  -1456.56     -0.00
                            -1456.56 -14107.50     -0.00
                               -0.00     -0.00 -13255.78

     hubbard stress (kbar)      0.00      0.00      0.00
                                0.00      0.00      0.00
                                0.00      0.00      0.00

     DFT-D   stress (kbar)      0.00      0.00      0.00
                                0.00      0.00      0.00
                                0.00      0.00      0.00

     XDM     stress (kbar)      0.00      0.00      0.00
                                0.00      0.00      0.00
                                0.00      0.00      0.00

     dft-nl  stress (kbar)      0.00      0.00      0.00
                                0.00      0.00      0.00
                                0.00      0.00      0.00

     TS-vdW  stress (kbar)      0.00      0.00      0.00
                                0.00      0.00      0.00
                                0.00      0.00      0.00

[...]

                                0.00      0.00      0.00

     Writing all to output data dir new_calculations/myprefix.save/

     General routines

     Parallel routines

     PAW routines

   This run was terminated on:   2:14:26  21May2023

   JOB DONE.