     Program PWSCF v.7.0 starts on 21May2023 at  3:21:39

     Reading input from espresso_3003.pwi
Warning: card &CELL ignored
Warning: card / ignored

     Current dimensions of program PWSCF are:
     Max number of different atomic species (ntypx) = 10
     Max number of k-points (npk) =  40000
     Max angular momentum in pseudopotentials (lmaxx) =  4
     file Pb.pbe-dn-kjpaw_psl.0.2.2.UPF: wavefunction(s)  6S renormalized
     file O.pbe-n-kjpaw_psl.0.1.UPF: wavefunction(s)  2P renormalized

     gamma-point specific algorithms are used
     Message from routine setup:
     using ibrav=0 with symmetry is DISCOURAGED, use correct ibrav instead

     Subspace diagonalization in iterative solution of the eigenvalue problem:
     a serial algorithm will be used

     Using Slab Decomposition

     bravais-lattice index     =            0
     lattice parameter (alat)  =       7.2966  a.u.
     unit-cell volume          =     465.5323 (a.u.)^3
     number of atoms/cell      =            5
     number of atomic types    =            3
     number of electrons       =        44.00
     number of Kohn-Sham states=           26
     kinetic-energy cutoff     =      30.0000  Ry
     charge density cutoff     =     240.0000  Ry
     scf convergence threshold =      1.0E-06
     mixing beta               =       0.7000
     number of iterations used =            8  plain     mixing
     Exchange-correlation= SLA  PW   PBX  PBC
                           (   1   4   3   4   0   0   0)

     celldm(1)=   7.296639  celldm(2)=   0.000000  celldm(3)=   0.000000
     celldm(4)=   0.000000  celldm(5)=   0.000000  celldm(6)=   0.000000

     crystal axes: (cart. coord. in units of alat)
               a(1) = (   1.000000   0.000000   0.000000 )
               a(2) = (   0.000000   1.000000   0.000000 )
               a(3) = (   0.000000   0.000000   1.198343 )

     reciprocal axes: (cart. coord. in units 2 pi/alat)
               b(1) = (  1.000000  0.000000  0.000000 )
               b(2) = (  0.000000  1.000000  0.000000 )
               b(3) = (  0.000000  0.000000  0.834485 )

     PseudoPot. # 1 for Ti read from file:
     /home/pragov/projects/rrg-bengioy-ad/pragov/crystal_structure_design/SSSP/ti_pbe_v1.4.uspp.F.UPF
     MD5 check sum: 88a00a6731bd790ddea75d31a80cb452
     Pseudo is Ultrasoft + core correction, Zval = 12.0
     Generated by new atomic code, or converted to UPF format
     Using radial grid of  851 points,  6 beta functions with:
                l(1) =   0
                l(2) =   0
                l(3) =   1
                l(4) =   1
                l(5) =   2
                l(6) =   2
     Q(r) pseudized with  6 coefficients,  rinner =    1.000   1.000   1.000
                                                       1.000   1.000

     PseudoPot. # 2 for Pb read from file:
     /home/pragov/projects/rrg-bengioy-ad/pragov/crystal_structure_design/SSSP/Pb.pbe-dn-kjpaw_psl.0.2.2.UPF
     MD5 check sum: 9d431e6316058b74ade52399a6cf67da
     Pseudo is Projector augmented-wave + core cor, Zval = 14.0
     Generated using "atomic" code by A. Dal Corso  v.5.0.99 svn rev. 10869
     Shape of augmentation charge: PSQ
     Using radial grid of 1281 points,  6 beta functions with:
                l(1) =   0
                l(2) =   0
                l(3) =   1
                l(4) =   1
                l(5) =   2
                l(6) =   2
     Q(r) pseudized with 0 coefficients

     PseudoPot. # 3 for O  read from file:
     /home/pragov/projects/rrg-bengioy-ad/pragov/crystal_structure_design/SSSP/O.pbe-n-kjpaw_psl.0.1.UPF
     MD5 check sum: 0234752ac141de4415c5fc33072bef88
     Pseudo is Projector augmented-wave + core cor, Zval =  6.0
     Generated using "atomic" code by A. Dal Corso  v.5.0.99 svn rev. 10869
     Shape of augmentation charge: BESSEL
     Using radial grid of 1095 points,  4 beta functions with:
                l(1) =   0
                l(2) =   0
                l(3) =   1
                l(4) =   1
     Q(r) pseudized with 0 coefficients

     atomic species   valence    mass     pseudopotential
        Ti            12.00    47.86700     Ti( 1.00)
        Pb            14.00   207.20000     Pb( 1.00)
        O              6.00    15.99900     O ( 1.00)

      8 Sym. Ops. (no inversion) found

                                    s                        frac. trans.

      isym =  1     identity

 cryst.   s( 1) = (     1          0          0      )
                  (     0          1          0      )
                  (     0          0          1      )

 cart.    s( 1) = (  1.0000000  0.0000000  0.0000000 )
                  (  0.0000000  1.0000000  0.0000000 )
                  (  0.0000000  0.0000000  1.0000000 )

      isym =  2     180 deg rotation - cart. axis [0,0,1]

[...]

      isym =  4      90 deg rotation - cart. axis [0,0,1]

[...]

      isym =  5     inv. 180 deg rotation - cart. axis [0,1,0]

[...]

      isym =  8     inv. 180 deg rotation - cart. axis [1,-1,0]

 cryst.   s( 8) = (     0          1          0      )
                  (     1          0          0      )
                  (     0          0          1      )

 cart.    s( 8) = (  0.0000000  1.0000000  0.0000000 )
                  (  1.0000000  0.0000000  0.0000000 )
                  (  0.0000000  0.0000000  1.0000000 )

   Cartesian axes

     site n.     atom                  positions (alat units)
         1           Ti  tau(   1) = (   0.5000000   0.5000000   0.6242446  )
         2           Pb  tau(   2) = (   0.0000000   0.0000000   1.1614487  )
         3           O   tau(   3) = (   0.5000000   0.5000000   0.1707028  )
         4           O   tau(   4) = (   0.0000000   0.5000000   0.7509514  )
         5           O   tau(   5) = (   0.5000000   0.0000000   0.7509514  )

   Crystallographic axes

     site n.     atom                  positions (cryst. coord.)
         1           Ti  tau(   1) = (  0.5000000  0.5000000  0.5209230  )
         2           Pb  tau(   2) = (  0.0000000  0.0000000  0.9692120  )
         3           O   tau(   3) = (  0.5000000  0.5000000  0.1424490  )
         4           O   tau(   4) = (  0.0000000  0.5000000  0.6266580  )
         5           O   tau(   5) = (  0.5000000  0.0000000  0.6266580  )

     number of k points=     1  Methfessel-Paxton smearing, width (Ry)=  0.0010
                       cart. coord. in units 2pi/alat
        k(    1) = (   0.0000000   0.0000000   0.0000000), wk =   2.0000000

                       cryst. coord.
        k(    1) = (   0.0000000   0.0000000   0.0000000), wk =   2.0000000

     Check: negative core charge=   -0.000012

     Initial potential from superposition of free atoms

     starting charge      42.9976, renormalised to      44.0000

     negative rho (up, down):  2.161E-03 0.000E+00
     Starting wfcs are   31 randomized atomic wfcs
     Checking if some PAW data can be deallocated...

     Self-consistent Calculation

     iteration #  1     ecut=    30.00 Ry     beta= 0.70
     Davidson diagonalization with overlap

     ethr =  1.00E-02,  avg # of iterations =  2.0

     negative rho (up, down):  2.301E-03 0.000E+00

     total energy              =   -1114.15388301 Ry
     estimated scf accuracy    <       1.32129282 Ry

[...]

     total energy              =   -1114.79575696 Ry
     estimated scf accuracy    <       0.00000709 Ry

     iteration # 11     ecut=    30.00 Ry     beta= 0.70
     Davidson diagonalization with overlap

     ethr =  1.61E-08,  avg # of iterations =  4.0

[...]

     End of self-consistent calculation

          k = 0.0000 0.0000 0.0000 (   648 PWs)   bands (ev):

   -47.6126 -23.9883 -23.9883 -23.6980  -8.5303  -7.7328  -7.1085  -6.7077
    -6.7077  -6.6967  -6.4962  -6.4237   2.5449   5.6988   5.6989   6.3431
     7.1175   7.1176   7.3612   7.5145   8.4199   8.4202  10.9194  12.8991
    12.8992  13.3576

     occupation numbers
     1.0000   1.0000   1.0000   1.0000   1.0000   1.0000   1.0000   1.0000
     1.0000   1.0000   1.0000   1.0000   1.0000   1.0000   1.0000   1.0000
     1.0000   1.0000   1.0000   1.0000   1.0000   1.0000  -0.0000  -0.0000
    -0.0000  -0.0000

     the Fermi energy is     9.6660 ev

!    total energy              =   -1114.79575852 Ry
     estimated scf accuracy    <       0.00000029 Ry
     smearing contrib. (-TS)   =       0.00000000 Ry
     internal energy E=F+TS    =   -1114.79575852 Ry

     The total energy is F=E-TS. E is the sum of the following terms:
     one-electron contribution =    -101.71799931 Ry
     hartree contribution      =      80.37357247 Ry
     xc contribution           =     -84.81592725 Ry
     ewald contribution        =    -251.59425336 Ry
     one-center paw contrib.   =    -757.04115105 Ry
      -> PAW hartree energy AE =     184.42886980 Ry
      -> PAW hartree energy PS =    -183.90613966 Ry
      -> PAW xc energy AE      =    -823.86366351 Ry
      -> PAW xc energy PS      =      66.29978233 Ry
      -> total E_H with PAW    =      80.89630260 Ry
      -> total E_XC with PAW   =    -842.37980844 Ry

     convergence has been achieved in  11 iterations

     negative rho (up, down):  1.765E-03 0.000E+00

     Forces acting on atoms (cartesian axes, Ry/au):

     atom    1 type  1   force =     0.00000000    0.00000000   -0.56423264
     atom    2 type  2   force =     0.00000000    0.00000000    0.08430663
     atom    3 type  3   force =     0.00000000    0.00000000    0.06246224
     atom    4 type  3   force =     0.00000000    0.00000000    0.20873189
     atom    5 type  3   force =     0.00000000    0.00000000    0.20873189
     The non-local contrib.  to forces
     atom    1 type  1   force =     0.00000000    0.00000000    0.21251380
     atom    2 type  2   force =     0.00000000    0.00000000   -0.26338396
     atom    3 type  3   force =     0.00000000    0.00000000    1.00779396
     atom    4 type  3   force =     0.00000000    0.00000000   -0.52870124
     atom    5 type  3   force =     0.00000000    0.00000000   -0.52870124
     The ionic contribution  to forces
     atom    1 type  1   force =    -0.00000000   -0.00000000   -0.82105125
     atom    2 type  2   force =     0.00000000    0.00000000    8.32604402
     atom    3 type  3   force =     0.00000000    0.00000000   -6.32823754
     atom    4 type  3   force =     0.00000000   -0.00000000   -0.58837761
     atom    5 type  3   force =    -0.00000000    0.00000000   -0.58837761
     The local contribution  to forces
     atom    1 type  1   force =    -0.00006809   -0.00013733    0.06203402
     atom    2 type  2   force =     0.00003161   -0.00002856   -7.99880214
     atom    3 type  3   force =    -0.00000572   -0.00002554    5.39117349
     atom    4 type  3   force =     0.00006796    0.00003922    1.31894046
     atom    5 type  3   force =     0.00002292    0.00003888    1.31876406
     The core correction contribution to forces
     atom    1 type  1   force =    -0.00000157   -0.00000427   -0.01715988
     atom    2 type  2   force =     0.00000035   -0.00000325    0.02033882
     atom    3 type  3   force =     0.00000031   -0.00000031   -0.00917749
     atom    4 type  3   force =     0.00000009    0.00000018    0.00720827
     atom    5 type  3   force =     0.00000059    0.00000045    0.00720674
     The Hubbard contrib.    to forces
     atom    1 type  1   force =     0.00000000    0.00000000    0.00000000
     atom    2 type  2   force =     0.00000000    0.00000000    0.00000000
     atom    3 type  3   force =     0.00000000    0.00000000    0.00000000
     atom    4 type  3   force =     0.00000000    0.00000000    0.00000000
     atom    5 type  3   force =     0.00000000    0.00000000    0.00000000
     The SCF correction term to forces
     atom    1 type  1   force =     0.00006724    0.00013603   -0.00063857
     atom    2 type  2   force =    -0.00001319    0.00005677    0.00004065
     atom    3 type  3   force =     0.00003200    0.00003093    0.00084057
     atom    4 type  3   force =    -0.00005163   -0.00002684   -0.00036886
     atom    5 type  3   force =    -0.00000203   -0.00004090   -0.00026772

     Total force =     0.645372     Total SCF correction =     0.001165

     Computing stress (Cartesian axis) and pressure

     negative rho (up, down):  1.765E-03 0.000E+00
          total   stress  (Ry/bohr**3)                   (kbar)     P=     -279.06
  -0.00207946   0.00000000   0.00000000         -305.90        0.00        0.00
   0.00000000  -0.00207946   0.00000000            0.00     -305.90        0.00
   0.00000000   0.00000000  -0.00153216            0.00        0.00     -225.39

     kinetic stress (kbar)  22821.16      0.00      0.00
                                0.00  22821.16      0.00
                                0.00      0.00  23068.65

     local   stress (kbar)  -5119.21     -0.00      0.00
                               -0.00  -5119.44      0.00
                                0.00      0.00   1690.27

     nonloc. stress (kbar)   4171.64      0.00      0.00
                                0.00   4171.64      0.00
                                0.00      0.00   4167.98

     hartree stress (kbar)   9476.11     -0.00     -0.00
                               -0.00   9476.34     -0.00
                               -0.00     -0.00   6445.06

     exc-cor stress (kbar)   4141.78     -0.00      0.00
                               -0.00   4141.78     -0.00
                                0.00     -0.00   4146.55

     corecor stress (kbar) -10610.26     -0.00     -0.00
                               -0.00 -10610.25     -0.00
                               -0.00     -0.00 -10616.05

     ewald   stress (kbar) -25187.13      0.00      0.00
                                0.00 -25187.13      0.00
                                0.00      0.00 -29127.84

     hubbard stress (kbar)      0.00      0.00      0.00
                                0.00      0.00      0.00
                                0.00      0.00      0.00

     DFT-D   stress (kbar)      0.00      0.00      0.00
                                0.00      0.00      0.00
                                0.00      0.00      0.00

     XDM     stress (kbar)      0.00      0.00      0.00
                                0.00      0.00      0.00
                                0.00      0.00      0.00

     dft-nl  stress (kbar)      0.00      0.00      0.00
                                0.00      0.00      0.00
                                0.00      0.00      0.00

     TS-vdW  stress (kbar)      0.00      0.00      0.00
                                0.00      0.00      0.00
                                0.00      0.00      0.00

[...]

                                0.00      0.00      0.00

     Writing all to output data dir new_calculations/myprefix.save/

     General routines

     Parallel routines

     PAW routines

   This run was terminated on:   3:21:45  21May2023

   JOB DONE.