     Program PWSCF v.7.0 starts on 20May2023 at 18:43:56

     Reading input from espresso_25035.pwi
Warning: card &CELL ignored
Warning: card / ignored

     Current dimensions of program PWSCF are:
     Max number of different atomic species (ntypx) = 10
     Max number of k-points (npk) =  40000
     Max angular momentum in pseudopotentials (lmaxx) =  4
     file K.pbe-spn-kjpaw_psl.1.0.0.UPF: wavefunction(s)  3S renormalized

     gamma-point specific algorithms are used
     Message from routine setup:
     using ibrav=0 with symmetry is DISCOURAGED, use correct ibrav instead

     Subspace diagonalization in iterative solution of the eigenvalue problem:
     a serial algorithm will be used

     Using Slab Decomposition

     bravais-lattice index     =            0
     lattice parameter (alat)  =      15.2512  a.u.
     unit-cell volume          =    2508.3789 (a.u.)^3
     number of atoms/cell      =           10
     number of atomic types    =            4
     number of electrons       =        86.00
     number of Kohn-Sham states=           52
     kinetic-energy cutoff     =      30.0000  Ry
     charge density cutoff     =     240.0000  Ry
     scf convergence threshold =      1.0E-06
     mixing beta               =       0.7000
     number of iterations used =            8  plain     mixing
     Exchange-correlation=  SLA  PW   PBX  PBC
                           (   1   4   3   4   0   0   0)

     celldm(1)=  15.251154  celldm(2)=   0.000000  celldm(3)=   0.000000
     celldm(4)=   0.000000  celldm(5)=   0.000000  celldm(6)=   0.000000

     crystal axes: (cart. coord. in units of alat)
               a(1) = (   1.000000   0.000000   0.000000 )
               a(2) = (   0.500000   0.866025   0.000000 )
               a(3) = (   0.500000   0.288675   0.816497 )

     reciprocal axes: (cart. coord. in units 2 pi/alat)
               b(1) = (  1.000000 -0.577350 -0.408248 )
               b(2) = (  0.000000  1.154701 -0.408248 )
               b(3) = (  0.000000  0.000000  1.224745 )

     PseudoPot. # 1 for K  read from file:
     /home/pragov/projects/rrg-bengioy-ad/pragov/crystal_structure_design/SSSP/K.pbe-spn-kjpaw_psl.1.0.0.UPF
     MD5 check sum: 7d58810084cac21f60fbe77ea2b688fd
     Pseudo is Projector augmented-wave + core cor, Zval =  9.0
     Generated using "atomic" code by A. Dal Corso  v.5.1
     Shape of augmentation charge: PSQ
     Using radial grid of 1165 points,  6 beta functions with:
                l(1) =   0
                l(2) =   0
                l(3) =   1
                l(4) =   1
                l(5) =   2
                l(6) =   2
     Q(r) pseudized with 0 coefficients

     PseudoPot. # 2 for Rb read from file:
     /home/pragov/projects/rrg-bengioy-ad/pragov/crystal_structure_design/SSSP/Rb_ONCV_PBE-1.0.oncvpsp.upf
     MD5 check sum: 55a5172d6bfbce6759a58e35d43f6aa9
     Pseudo is Norm-conserving, Zval =  9.0
     Generated using ONCVPSP code by D. R. Hamann
     Using radial grid of 2308 points,  6 beta functions with:
                l(1) =   0
                l(2) =   0
                l(3) =   1
                l(4) =   1
                l(5) =   2
                l(6) =   2

     PseudoPot. # 3 for Eu read from file:
     /home/pragov/projects/rrg-bengioy-ad/pragov/crystal_structure_design/SSSP/Eu.GGA-PBE-paw-v1.0.UPF
     MD5 check sum: acec5fd9176fb57ec8e299eae1ecaf48
     Pseudo is Projector augmented-wave + core cor, Zval = 17.0
     Generated using ATOMPAW code
     Shape of augmentation charge: BESSEL
     Using radial grid of 1109 points,  8 beta functions with:
                l(1) =   0
                l(2) =   0
                l(3) =   1
                l(4) =   1
                l(5) =   2
                l(6) =   2
                l(7) =   3
                l(8) =   3
     Q(r) pseudized with 0 coefficients

     PseudoPot. # 4 for Cl read from file:
     /home/pragov/projects/rrg-bengioy-ad/pragov/crystal_structure_design/SSSP/cl_pbe_v1.4.uspp.F.UPF
     MD5 check sum: fc6f6913ecf08c9257cb748ef0700058
     Pseudo is Ultrasoft + core correction, Zval =  7.0
     Generated by new atomic code, or converted to UPF format
     Using radial grid of  909 points,  6 beta functions with:
                l(1) =   0
                l(2) =   0
                l(3) =   1
                l(4) =   1
                l(5) =   2
                l(6) =   2
     Q(r) pseudized with  8 coefficients,  rinner =    1.300   1.300   1.300
                                                       1.300   1.300

     atomic species   valence    mass     pseudopotential
        K              9.00    39.09830     K ( 1.00)
        Rb             9.00    85.46780     Rb( 1.00)
        Eu            17.00   151.96400     Eu( 1.00)
        Cl             7.00    35.45000     Cl( 1.00)

     12 Sym. Ops., with inversion, found

                                    s                        frac. trans.

      isym =  1     identity

 cryst.   s( 1) = (     1          0          0      )
                  (     0          1          0      )
                  (     0          0          1      )

 cart.    s( 1) = (  1.0000000  0.0000000  0.0000000 )
                  (  0.0000000  1.0000000 -0.0000000 )
                  (  0.0000000  0.0000000  1.0000000 )

      isym =  2     180 deg rotation - cart. axis [1,0,0]

[...]

      isym =  3     120 deg rotation - cryst. axis [0,0,1]

[...]

      isym =  6     180 deg rotation - cryst. axis [1,1,0]

[...]

      isym =  7     inversion

[...]

      isym =  8     inv. 180 deg rotation - cart. axis [1,0,0]

[...]

      isym =  9     inv. 120 deg rotation - cryst. axis [0,0,1]

 cryst.   s( 9) = (     1         -1          0      )
                  (     1          0          0      )
                  (     1          0         -1      )

 cart.    s( 9) = (  0.5000000  0.8660254 -0.0000000 )
                  ( -0.8660254  0.5000000 -0.0000000 )
                  (  0.0000000  0.0000000 -1.0000000 )

[...]

 cryst.   s(10) = (     0          1          0      )
                  (    -1          1          0      )
                  (     0          1         -1      )

 cart.    s(10) = (  0.5000000 -0.8660254  0.0000000 )
                  (  0.8660254  0.5000000 -0.0000000 )
                  (  0.0000000  0.0000000 -1.0000000 )

[...]

      isym = 12     inv. 180 deg rotation - cryst. axis [1,1,0]

 cryst.   s(12) = (     1         -1          0      )
                  (     0         -1          0      )
                  (     0         -1          1      )

 cart.    s(12) = (  0.5000000 -0.8660254  0.0000000 )
                  ( -0.8660254 -0.5000000  0.0000000 )
                  (  0.0000000  0.0000000  1.0000000 )

   Cartesian axes

     site n.     atom                  positions (alat units)
         1           K   tau(   1) = (   1.0000000   0.5773503   0.4082483  )
         2           Rb  tau(   2) = (   1.5000000   0.8660254   0.6123724  )
         3           Rb  tau(   3) = (   0.5000000   0.2886751   0.2041241  )
         4           Eu  tau(   4) = (   0.0000000   0.0000000   0.0000000  )
         5           Cl  tau(   5) = (   1.0000000   0.2739412   0.1937056  )
         6           Cl  tau(   6) = (   0.7372400   0.4256457   0.6227909  )
         7           Cl  tau(   7) = (   1.0000000   0.8807594   0.6227909  )
         8           Cl  tau(   8) = (   0.7372400   0.7290548   0.1937056  )
         9           Cl  tau(   9) = (   1.2627600   0.4256457   0.6227909  )
        10           Cl  tau(  10) = (   1.2627600   0.7290548   0.1937056  )

   Crystallographic axes

     site n.     atom                  positions (cryst. coord.)
         1           K   tau(   1) = (  0.5000000  0.5000000  0.5000000  )
         2           Rb  tau(   2) = (  0.7500000  0.7500000  0.7500000  )
         3           Rb  tau(   3) = (  0.2500000  0.2500000  0.2500000  )
         4           Eu  tau(   4) = (  0.0000000  0.0000000  0.0000000  )
         5           Cl  tau(   5) = (  0.7627600  0.2372400  0.2372400  )
         6           Cl  tau(   6) = (  0.2372400  0.2372400  0.7627600  )
         7           Cl  tau(   7) = (  0.2372400  0.7627600  0.7627600  )
         8           Cl  tau(   8) = (  0.2372400  0.7627600  0.2372400  )
         9           Cl  tau(   9) = (  0.7627600  0.2372400  0.7627600  )
        10           Cl  tau(  10) = (  0.7627600  0.7627600  0.2372400  )

     number of k points=     1  Methfessel-Paxton smearing, width (Ry)=  0.0010
                       cart. coord. in units 2pi/alat
        k(    1) = (   0.0000000   0.0000000   0.0000000), wk =   2.0000000

                       cryst. coord.
        k(    1) = (   0.0000000   0.0000000   0.0000000), wk =   2.0000000

     Check: negative core charge=   -0.000001

     Initial potential from superposition of free atoms

     starting charge      85.9269, renormalised to      86.0000

     negative rho (up, down):  8.843E-02 0.000E+00
     Starting wfcs are   74 randomized atomic wfcs
     Checking if some PAW data can be deallocated...

     Self-consistent Calculation

     iteration #  1     ecut=    30.00 Ry     beta= 0.70
     Davidson diagonalization with overlap

     ethr =  1.00E-02,  avg # of iterations =  3.0

     Threshold (ethr) on eigenvalues was too large:
     Diagonalizing with lowered threshold

     Davidson diagonalization with overlap

[...]

     negative rho (up, down):  9.151E-02 0.000E+00

     total energy              =   -1053.65848940 Ry
     estimated scf accuracy    <       0.47211293 Ry

[...]

     total energy              =   -1054.04222006 Ry
     estimated scf accuracy    <       0.00001088 Ry

     iteration # 34     ecut=    30.00 Ry     beta= 0.70
     Davidson diagonalization with overlap

     ethr =  1.26E-08,  avg # of iterations =  2.0

[...]

     End of self-consistent calculation

          k = 0.0000 0.0000 0.0000 (  3440 PWs)   bands (ev):

   -38.0195 -26.3872 -24.3687 -24.3681 -16.9186 -16.9179 -16.9163 -11.7072
   -11.5043 -11.5041 -11.4340 -11.4338 -11.4337  -9.8275  -9.8275  -9.8274
    -8.4225  -8.4225  -8.4225  -8.4114  -8.4114  -8.4114  -1.1582  -0.4995
    -0.4993  -0.4436  -0.4435  -0.4434  -0.1832  -0.1831  -0.1831   0.4062
     0.4063   0.4064   0.5385   0.5385   0.5387   0.8497   0.8498   0.8499
     2.5890   2.5911   2.5913   2.8144   2.8146   2.8162   3.1790   5.4288
     6.5547   6.5548   6.5553   7.1568

     occupation numbers
     1.0000   1.0000   1.0000   1.0000   1.0000   1.0000   1.0000   1.0000
     1.0000   1.0000   1.0000   1.0000   1.0000   1.0000   1.0000   1.0000
     1.0000   1.0000   1.0000   1.0000   1.0000   1.0000   1.0000   1.0000
     1.0000   1.0000   1.0000   1.0000   1.0000   1.0000   1.0000   1.0000
     1.0000   1.0000   1.0000   1.0000   1.0000   1.0000   1.0000   1.0000
     1.0000   1.0000   1.0000  -0.0000  -0.0000  -0.0000  -0.0000  -0.0000
    -0.0000  -0.0000  -0.0000  -0.0000

     the Fermi energy is     2.6770 ev

!    total energy              =   -1054.04222253 Ry
     estimated scf accuracy    <       0.00000077 Ry
     smearing contrib. (-TS)   =       0.00000000 Ry
     internal energy E=F+TS    =   -1054.04222253 Ry

     The total energy is F=E-TS. E is the sum of the following terms:
     one-electron contribution =    -287.25274809 Ry
     hartree contribution      =     173.49803599 Ry
     xc contribution           =    -103.31892438 Ry
     ewald contribution        =    -324.32802178 Ry
     one-center paw contrib.   =    -512.64056426 Ry
      -> PAW hartree energy AE =     192.89177279 Ry
      -> PAW hartree energy PS =    -185.75673994 Ry
      -> PAW xc energy AE      =    -549.36359607 Ry
      -> PAW xc energy PS      =      29.58799896 Ry
      -> total E_H with PAW    =     180.63306884 Ry
      -> total E_XC with PAW   =    -623.09452149 Ry

     convergence has been achieved in  34 iterations

     negative rho (up, down):  8.761E-02 0.000E+00

     Forces acting on atoms (cartesian axes, Ry/au):

     atom    1 type  1   force =     0.00000000    0.00000000   -0.00000000
     atom    2 type  2   force =     0.00000000    0.00000000   -0.00001871
     atom    3 type  2   force =     0.00000000   -0.00000000    0.00001871
     atom    4 type  3   force =     0.00000000   -0.00000000   -0.00000000
     atom    5 type  4   force =    -0.00000000   -0.00984852   -0.00695703
     atom    6 type  4   force =    -0.00852907   -0.00492426    0.00695703
     atom    7 type  4   force =     0.00000000    0.00984852    0.00695703
     atom    8 type  4   force =    -0.00852907    0.00492426   -0.00695703
     atom    9 type  4   force =     0.00852907   -0.00492426    0.00695703
     atom   10 type  4   force =     0.00852907    0.00492426   -0.00695703
     The non-local contrib.  to forces
     atom    1 type  1   force =     0.00000000   -0.00000000   -0.00000000
     atom    2 type  2   force =     0.00000000    0.00000000    0.00002245
     atom    3 type  2   force =     0.00000000   -0.00000000   -0.00002245
     atom    4 type  3   force =     0.00000000    0.00000000   -0.00000000
     atom    5 type  4   force =     0.00000000   -0.04085999   -0.02888458
     atom    6 type  4   force =    -0.03538579   -0.02042999    0.02888458
     atom    7 type  4   force =     0.00000000    0.04085999    0.02888458
     atom    8 type  4   force =    -0.03538579    0.02042999   -0.02888458
     atom    9 type  4   force =     0.03538579   -0.02042999    0.02888458
     atom   10 type  4   force =     0.03538579    0.02042999   -0.02888458
     The ionic contribution  to forces
     atom    1 type  1   force =     0.00000000   -0.00000000   -0.00000000
     atom    2 type  2   force =     0.00000000    0.00000000    0.00000000
     atom    3 type  2   force =    -0.00000000   -0.00000000    0.00000000
     atom    4 type  3   force =     0.00000000   -0.00000000   -0.00000000
     atom    5 type  4   force =     0.00000000    4.37150999    3.09112436
     atom    6 type  4   force =     3.78583870    2.18575500   -3.09112436
     atom    7 type  4   force =     0.00000000   -4.37150999   -3.09112436
     atom    8 type  4   force =     3.78583870   -2.18575500    3.09112436
     atom    9 type  4   force =    -3.78583870    2.18575500   -3.09112436
     atom   10 type  4   force =    -3.78583870   -2.18575500    3.09112436
     The local contribution  to forces
     atom    1 type  1   force =    -0.00001011   -0.00000919   -0.00000281
     atom    2 type  2   force =     0.00005923    0.00012106    0.00018177
     atom    3 type  2   force =    -0.00004757   -0.00010978   -0.00017761
     atom    4 type  3   force =    -0.00019099   -0.00015336   -0.00009251
     atom    5 type  4   force =     0.00005656   -4.34048976   -3.06938038
     atom    6 type  4   force =    -3.75883207   -2.17020639    3.06940394
     atom    7 type  4   force =    -0.00007283    4.34053802    3.06940995
     atom    8 type  4   force =    -3.75886305    2.17027660   -3.06937175
     atom    9 type  4   force =     3.75887600   -2.17031097    3.06938260
     atom   10 type  4   force =     3.75884539    2.17020006   -3.06944096
     The core correction contribution to forces
     atom    1 type  1   force =    -0.00000003    0.00000004   -0.00000001
     atom    2 type  2   force =     0.00000000    0.00000000    0.00000000
     atom    3 type  2   force =     0.00000000    0.00000000    0.00000000
     atom    4 type  3   force =    -0.00000000   -0.00000000   -0.00000000
     atom    5 type  4   force =     0.00000041    0.00046976    0.00033030
     atom    6 type  4   force =     0.00040507    0.00023674   -0.00033196
     atom    7 type  4   force =    -0.00000037   -0.00046908   -0.00032993
     atom    8 type  4   force =     0.00040572   -0.00023646    0.00033274
     atom    9 type  4   force =    -0.00040552    0.00023624   -0.00033256
     atom   10 type  4   force =    -0.00040509   -0.00023678    0.00033172
     The Hubbard contrib.    to forces
     atom    1 type  1   force =     0.00000000    0.00000000    0.00000000
     atom    2 type  2   force =     0.00000000    0.00000000    0.00000000
     atom    3 type  2   force =     0.00000000    0.00000000    0.00000000
     atom    4 type  3   force =     0.00000000    0.00000000    0.00000000
     atom    5 type  4   force =     0.00000000    0.00000000    0.00000000
     atom    6 type  4   force =     0.00000000    0.00000000    0.00000000
     atom    7 type  4   force =     0.00000000    0.00000000    0.00000000
     atom    8 type  4   force =     0.00000000    0.00000000    0.00000000
     atom    9 type  4   force =     0.00000000    0.00000000    0.00000000
     atom   10 type  4   force =     0.00000000    0.00000000    0.00000000
     The SCF correction term to forces
     atom    1 type  1   force =     0.00001400    0.00000642    0.00000210
     atom    2 type  2   force =    -0.00007025   -0.00017383   -0.00022244
     atom    3 type  2   force =     0.00005616    0.00015904    0.00021926
     atom    4 type  3   force =     0.00021885    0.00016903    0.00009615
     atom    5 type  4   force =    -0.00004679   -0.00046654   -0.00017612
     atom    6 type  4   force =    -0.00059149   -0.00023625    0.00011960
     atom    7 type  4   force =     0.00006582    0.00043015    0.00015199
     atom    8 type  4   force =    -0.00054509    0.00016464   -0.00012971
     atom    9 type  4   force =     0.00053810   -0.00013036    0.00012137
     atom   10 type  4   force =     0.00057491    0.00023859   -0.00008166

     Total force =     0.029536     Total SCF correction =     0.001479

     Computing stress (Cartesian axis) and pressure

     negative rho (up, down):  8.761E-02 0.000E+00
          total   stress  (Ry/bohr**3)                   (kbar)     P=        2.28
   0.00001556   0.00000000  -0.00000000            2.29        0.00       -0.00
   0.00000000   0.00001556  -0.00000000            0.00        2.29       -0.00
  -0.00000000  -0.00000000   0.00001536           -0.00       -0.00        2.26

     kinetic stress (kbar)   5362.57      0.00      0.00
                                0.00   5362.57     -0.00
                                0.00     -0.00   5362.60

     local   stress (kbar)  -4327.52      0.08     -0.12
                                0.08  -4327.90     -0.22
                               -0.12     -0.22  -4327.59

     nonloc. stress (kbar)   3564.37      0.00      0.00
                                0.00   3564.37     -0.00
                                0.00     -0.00   3564.26

     hartree stress (kbar)   3391.58     -0.03      0.05
                               -0.03   3391.72      0.09
                                0.05      0.09   3391.58

     exc-cor stress (kbar)   -167.88     -0.00      0.00
                               -0.00   -167.88      0.00
                                0.00      0.00   -167.88

     corecor stress (kbar)  -1480.59      0.00      0.00
                                0.00  -1480.59      0.00
                                0.00      0.00  -1480.59

     ewald   stress (kbar)  -6340.12      0.00     -0.00
                                0.00  -6340.12     -0.00
                               -0.00     -0.00  -6340.12

     hubbard stress (kbar)      0.00      0.00      0.00
                                0.00      0.00      0.00
                                0.00      0.00      0.00

     DFT-D   stress (kbar)      0.00      0.00      0.00
                                0.00      0.00      0.00
                                0.00      0.00      0.00

     XDM     stress (kbar)      0.00      0.00      0.00
                                0.00      0.00      0.00
                                0.00      0.00      0.00

     dft-nl  stress (kbar)      0.00      0.00      0.00
                                0.00      0.00      0.00
                                0.00      0.00      0.00

     TS-vdW  stress (kbar)      0.00      0.00      0.00
                                0.00      0.00      0.00
                                0.00      0.00      0.00

[...]

                                0.00      0.00      0.00

     Writing all to output data dir new_calculations/myprefix.save/

     General routines

     Parallel routines

     PAW routines

   This run was terminated on:  18:46:18  20May2023

   JOB DONE.