     Program PWSCF v.7.0 starts on 20May2023 at  9:54: 7

     Reading input from espresso_5315.pwi
Warning: card &CELL ignored
Warning: card / ignored

     Current dimensions of program PWSCF are:
     Max number of different atomic species (ntypx) = 10
     Max number of k-points (npk) =  40000
     Max angular momentum in pseudopotentials (lmaxx) =  4

     gamma-point specific algorithms are used
     Message from routine setup:
     using ibrav=0 with symmetry is DISCOURAGED, use correct ibrav instead

     Subspace diagonalization in iterative solution of the eigenvalue problem:
     a serial algorithm will be used

     Using Slab Decomposition

     bravais-lattice index     =            0
     lattice parameter (alat)  =       8.7869  a.u.
     unit-cell volume          =    1035.0913 (a.u.)^3
     number of atoms/cell      =            6
     number of atomic types    =            3
     number of electrons       =        88.00
     number of Kohn-Sham states=           53
     kinetic-energy cutoff     =      30.0000  Ry
     charge density cutoff     =     240.0000  Ry
     scf convergence threshold =      1.0E-06
     mixing beta               =       0.7000
     number of iterations used =            8  plain     mixing
     Exchange-correlation= PBE
                           (   1   4   3   4   0   0   0)

     celldm(1)=   8.786862  celldm(2)=   0.000000  celldm(3)=   0.000000
     celldm(4)=   0.000000  celldm(5)=   0.000000  celldm(6)=   0.000000

     crystal axes: (cart. coord. in units of alat)
               a(1) = (   1.000000   0.000000   0.000000 )
               a(2) = (  -0.500000   0.866025   0.000000 )
               a(3) = (   0.000000   0.000000   1.761759 )

     reciprocal axes: (cart. coord. in units 2 pi/alat)
               b(1) = (  1.000000  0.577350  0.000000 )
               b(2) = (  0.000000  1.154700  0.000000 )
               b(3) = (  0.000000  0.000000  0.567615 )

     PseudoPot. # 1 for La read from file:
     /home/pragov/projects/rrg-bengioy-ad/pragov/crystal_structure_design/SSSP/La.GGA-PBE-paw-v1.0.UPF
     MD5 check sum: 436541e95c1ad8901025bd0b0ed42ae2
     Pseudo is Projector augmented-wave + core cor, Zval = 11.0
     Generated using ATOMPAW code
     Shape of augmentation charge: BESSEL
     Using radial grid of 1101 points,  8 beta functions with:
                l(1) =   0
                l(2) =   0
                l(3) =   1
                l(4) =   1
                l(5) =   2
                l(6) =   2
                l(7) =   3
                l(8) =   3
     Q(r) pseudized with 0 coefficients

     PseudoPot. # 2 for Sb read from file:
     /home/pragov/projects/rrg-bengioy-ad/pragov/crystal_structure_design/SSSP/sb_pbe_v1.4.uspp.F.UPF
     MD5 check sum: 9bc50dfb53373b713f5709b9110fe27f
     Pseudo is Ultrasoft + core correction, Zval = 15.0
     Generated by new atomic code, or converted to UPF format
     Using radial grid of  891 points,  6 beta functions with:
                l(1) =   0
                l(2) =   0
                l(3) =   1
                l(4) =   1
                l(5) =   2
                l(6) =   2
     Q(r) pseudized with  8 coefficients,  rinner =    1.350   1.350   1.350
                                                       1.350   1.350

     PseudoPot. # 3 for Pd read from file:
     /home/pragov/projects/rrg-bengioy-ad/pragov/crystal_structure_design/SSSP/Pd_ONCV_PBE-1.0.oncvpsp.upf
     MD5 check sum: eb77f42b51d86fb18e25f68156a31cf1
     Pseudo is Norm-conserving, Zval = 18.0
     Generated using ONCVPSP code by D. R. Hamann
     Using radial grid of 1410 points,  6 beta functions with:
                l(1) =   0
                l(2) =   0
                l(3) =   1
                l(4) =   1
                l(5) =   2
                l(6) =   2

     atomic species   valence    mass     pseudopotential
        La            11.00   138.90547     La( 1.00)
        Sb            15.00   121.76000     Sb( 1.00)
        Pd            18.00   106.42000     Pd( 1.00)

     12 Sym. Ops. (no inversion) found ( 6 have fractional translation)

                                    s                        frac. trans.

      isym =  1     identity

 cryst.   s( 1) = (     1          0          0      )
                  (     0          1          0      )
                  (     0          0          1      )

 cart.    s( 1) = (  1.0000000 -0.0000000  0.0000000 )
                  (  0.0000000  1.0000000  0.0000000 )
                  (  0.0000000  0.0000000  1.0000000 )

      isym =  2     180 deg rotation - cart. axis [0,0,1]

 cryst.   s( 2) = (    -1          0          0      )    f =(  0.0000000 )
                  (     0         -1          0      )       (  0.0000000 )
                  (     0          0          1      )       (  0.5000000 )

 cart.    s( 2) = ( -1.0000000  0.0000000  0.0000000 )    f =(  0.0000000 )
                  (  0.0000000 -1.0000000  0.0000000 )       (  0.0000000 )
                  (  0.0000000  0.0000000  1.0000000 )       (  0.8808795 )

      isym =  3      60 deg rotation - cryst. axis [0,0,1]

[...]

      isym =  6     120 deg rotation - cryst. axis [0,0,-1]

[...]

      isym =  7     inv. 180 deg rotation - cart. axis [0,1,0]

[...]

      isym =  8     inv. 180 deg rotation - cart. axis [1,0,0]

 cryst.   s( 8) = (    -1          0          0      )
                  (     1          1          0      )
                  (     0          0          1      )

 cart.    s( 8) = ( -1.0000000  0.0000004  0.0000000 )
                  (  0.0000000  1.0000000  0.0000000 )
                  (  0.0000000  0.0000000  1.0000000 )

      isym =  9     inv. 180 deg rotation - cryst. axis [1,-1,0]

 cryst.   s( 9) = (     0          1          0      )    f =(  0.0000000 )
                  (     1          0          0      )       (  0.0000000 )
                  (     0          0          1      )       (  0.5000000 )

 cart.    s( 9) = ( -0.4999998  0.8660255  0.0000000 )    f =(  0.0000000 )
                  (  0.8660255  0.4999998  0.0000000 )       (  0.0000000 )
                  (  0.0000000  0.0000000  1.0000000 )       (  0.8808795 )

[...]

 cryst.   s(10) = (    -1         -1          0      )    f =(  0.0000000 )
                  (     0          1          0      )       (  0.0000000 )
                  (     0          0          1      )       (  0.5000000 )

 cart.    s(10) = ( -0.5000002 -0.8660251  0.0000000 )    f =(  0.0000000 )
                  ( -0.8660255  0.5000002  0.0000000 )       (  0.0000000 )
                  (  0.0000000  0.0000000  1.0000000 )       (  0.8808795 )

[...]

 cryst.   s(11) = (     1          1          0      )
                  (     0         -1          0      )
                  (     0          0          1      )

 cart.    s(11) = (  0.5000002  0.8660251  0.0000000 )
                  (  0.8660255 -0.5000002  0.0000000 )
                  (  0.0000000  0.0000000  1.0000000 )

      isym = 12     inv. 180 deg rotation - cryst. axis [1,1,0]

 cryst.   s(12) = (     0         -1          0      )
                  (    -1          0          0      )
                  (     0          0          1      )

 cart.    s(12) = (  0.4999998 -0.8660255  0.0000000 )
                  ( -0.8660255 -0.4999998  0.0000000 )
                  (  0.0000000  0.0000000  1.0000000 )

   Cartesian axes

     site n.     atom                  positions (alat units)
         1           La  tau(   1) = (   0.0000000   0.0000000   1.7533431  )
         2           La  tau(   2) = (   0.0000000   0.0000000   0.8724636  )
         3           Sb  tau(   3) = (   0.5000006   0.2886749   1.2873561  )
         4           Sb  tau(   4) = (  -0.0000004   0.5773506   0.4064766  )
         5           Pd  tau(   5) = (   0.5000006   0.2886749   0.4986747  )
         6           Pd  tau(   6) = (  -0.0000004   0.5773506   1.3795542  )

   Crystallographic axes

     site n.     atom                  positions (cryst. coord.)
         1           La  tau(   1) = (  0.0000000  0.0000000  0.9952230  )
         2           La  tau(   2) = (  0.0000000  0.0000000  0.4952230  )
         3           Sb  tau(   3) = (  0.6666670  0.3333330  0.7307220  )
         4           Sb  tau(   4) = (  0.3333330  0.6666670  0.2307220  )
         5           Pd  tau(   5) = (  0.6666670  0.3333330  0.2830550  )
         6           Pd  tau(   6) = (  0.3333330  0.6666670  0.7830550  )

     number of k points=     1  Methfessel-Paxton smearing, width (Ry)=  0.0010
                       cart. coord. in units 2pi/alat
        k(    1) = (   0.0000000   0.0000000   0.0000000), wk =   2.0000000

                       cryst. coord.
        k(    1) = (   0.0000000   0.0000000   0.0000000), wk =   2.0000000

     Check: negative core charge=   -0.000004

     Initial potential from superposition of free atoms

     starting charge      85.9822, renormalised to      88.0000
     Starting wfcs are  102 randomized atomic wfcs
     Checking if some PAW data can be deallocated...

     Self-consistent Calculation

     iteration #  1     ecut=    30.00 Ry     beta= 0.70
     Davidson diagonalization with overlap

     ethr =  1.00E-02,  avg # of iterations =  2.0

     total energy              =   -1790.85496421 Ry
     estimated scf accuracy    <       1.96471940 Ry

[...]

     total energy              =   -1792.16981147 Ry
     estimated scf accuracy    <       0.00000499 Ry

     iteration # 38     ecut=    30.00 Ry     beta= 0.70
     Davidson diagonalization with overlap

     ethr =  3.77E-09,  avg # of iterations =  1.0

     End of self-consistent calculation

          k = 0.0000 0.0000 0.0000 (  1463 PWs)   bands (ev):

   -72.9697 -72.9690 -38.5376 -38.5376 -38.5367 -38.5367 -38.1021 -38.0980
   -18.6153 -18.5863 -15.3977 -15.3977 -15.3972 -15.3972 -15.2808 -15.2808
   -15.2713 -15.2712 -15.2574 -15.2469  -2.9040  -2.3854  -2.3854  -2.3445
    -2.3280  -2.3280   3.1235   4.0824   8.2415   8.2415   8.6015   8.6015
     9.5296   9.6110   9.6324   9.6324   9.9248   9.9248  10.4583  12.5352
    12.5352  13.1317  13.7131  13.7170  13.7170  14.5626  14.6377  14.6378
    15.0696  15.3803  15.3803  16.0411  16.1007

     occupation numbers
     1.0000   1.0000   1.0000   1.0000   1.0000   1.0000   1.0000   1.0000
     1.0000   1.0000   1.0000   1.0000   1.0000   1.0000   1.0000   1.0000
     1.0000   1.0000   1.0000   1.0000   1.0000   1.0000   1.0000   1.0000
     1.0000   1.0000   1.0000   1.0000   1.0000   1.0000   1.0000   1.0000
     1.0000   1.0000   1.0000   1.0000   1.0000   1.0000   1.0000   1.0000
     1.0000   1.0000   0.8094   0.5958   0.5948  -0.0000  -0.0000  -0.0000
    -0.0000  -0.0000  -0.0000  -0.0000  -0.0000

     the Fermi energy is    13.7185 ev

!    total energy              =   -1792.16981109 Ry
     estimated scf accuracy    <       0.00000079 Ry
     smearing contrib. (-TS)   =      -0.00070687 Ry
     internal energy E=F+TS    =   -1792.16910422 Ry

     The total energy is F=E-TS. E is the sum of the following terms:
     one-electron contribution =    -447.32924026 Ry
     hartree contribution      =     270.13543318 Ry
     xc contribution           =    -155.40452223 Ry
     ewald contribution        =    -663.32899644 Ry
     one-center paw contrib.   =    -796.24177847 Ry
      -> PAW hartree energy AE =      71.34820254 Ry
      -> PAW hartree energy PS =     -71.40736943 Ry
      -> PAW xc energy AE      =    -810.94356269 Ry
      -> PAW xc energy PS      =      14.76095110 Ry
      -> total E_H with PAW    =     270.07626630 Ry
      -> total E_XC with PAW   =    -951.58713381 Ry

     convergence has been achieved in  38 iterations

     Forces acting on atoms (cartesian axes, Ry/au):

     atom    1 type  1   force =    -0.00000000    0.00000000    0.00205709
     atom    2 type  1   force =     0.00000000   -0.00000000    0.00205709
     atom    3 type  2   force =     0.00000000   -0.00000000   -0.01755292
     atom    4 type  2   force =    -0.00000000    0.00000000   -0.01755292
     atom    5 type  3   force =     0.00000000    0.00000000    0.01549583
     atom    6 type  3   force =    -0.00000000    0.00000000    0.01549583
     The non-local contrib.  to forces
     atom    1 type  1   force =     0.00000000    0.00000000    0.04770542
     atom    2 type  1   force =     0.00000000   -0.00000000    0.04770542
     atom    3 type  2   force =    -0.00000000   -0.00000000    0.42559451
     atom    4 type  2   force =     0.00000000    0.00000000    0.42559451
     atom    5 type  3   force =     0.00000000    0.00000000   -0.09411979
     atom    6 type  3   force =    -0.00000000   -0.00000000   -0.09411979
     The ionic contribution  to forces
     atom    1 type  1   force =    -0.00000794    0.00000458    1.45690975
     atom    2 type  1   force =     0.00000794   -0.00000458    1.45690975
     atom    3 type  2   force =    -0.00008213    0.00004742   -2.44852283
     atom    4 type  2   force =     0.00008213   -0.00004742   -2.44852283
     atom    5 type  3   force =    -0.00008611    0.00004971    0.99161308
     atom    6 type  3   force =     0.00008611   -0.00004971    0.99161308
     The local contribution  to forces
     atom    1 type  1   force =    -0.00019322    0.00001039   -1.50207434
     atom    2 type  1   force =     0.00018397   -0.00014695   -1.50250584
     atom    3 type  2   force =     0.00030451    0.00004924    2.00622628
     atom    4 type  2   force =    -0.00018141    0.00023595    2.00716173
     atom    5 type  3   force =     0.00062611    0.00000482   -0.88159249
     atom    6 type  3   force =    -0.00043126    0.00046035   -0.88247728
     The core correction contribution to forces
     atom    1 type  1   force =    -0.00000010    0.00000000   -0.00001720
     atom    2 type  1   force =     0.00000010   -0.00000006   -0.00001731
     atom    3 type  2   force =     0.00000423    0.00000597   -0.00183810
     atom    4 type  2   force =    -0.00000026    0.00000541   -0.00183761
     atom    5 type  3   force =     0.00000000    0.00000000    0.00000000
     atom    6 type  3   force =     0.00000000    0.00000000    0.00000000
     The Hubbard contrib.    to forces
     atom    1 type  1   force =     0.00000000    0.00000000    0.00000000
     atom    2 type  1   force =     0.00000000    0.00000000    0.00000000
     atom    3 type  2   force =     0.00000000    0.00000000    0.00000000
     atom    4 type  2   force =     0.00000000    0.00000000    0.00000000
     atom    5 type  3   force =     0.00000000    0.00000000    0.00000000
     atom    6 type  3   force =     0.00000000    0.00000000    0.00000000
     The SCF correction term to forces
     atom    1 type  1   force =     0.00009358   -0.00000323   -0.00031540
     atom    2 type  1   force =    -0.00008315    0.00009028    0.00000916
     atom    3 type  2   force =    -0.00017310   -0.00010755    0.00104789
     atom    4 type  2   force =     0.00007288   -0.00014666    0.00018586
     atom    5 type  3   force =    -0.00027167   -0.00013153   -0.00035798
     atom    6 type  3   force =     0.00009106   -0.00021872    0.00062810

     Total force =     0.033240     Total SCF correction =     0.001412

     Computing stress (Cartesian axis) and pressure

          total   stress  (Ry/bohr**3)                   (kbar)     P=     -373.00
  -0.00209166   0.00000000   0.00000000         -307.69        0.00        0.00
   0.00000000  -0.00209166   0.00000000            0.00     -307.69        0.00
   0.00000000  -0.00000000  -0.00342346            0.00       -0.00     -503.61

     kinetic stress (kbar)  26159.37     -0.00      0.00
                               -0.00  26159.36      0.00
                                0.00      0.00  26641.04

     local   stress (kbar) -16457.57     -0.44      0.01
                               -0.44 -16458.08      0.02
                                0.01      0.02   8124.74

     nonloc. stress (kbar)   5605.60     -0.00      0.00
                               -0.00   5605.60      0.00
                                0.00      0.00   5568.12

     hartree stress (kbar)  16113.16      0.21     -0.01
                                0.21  16113.40     -0.01
                               -0.01     -0.01   6164.54

     exc-cor stress (kbar)   1154.95      0.00     -0.00
                                0.00   1154.95     -0.00
                               -0.00     -0.00   1151.01

     corecor stress (kbar)  -6549.18     -0.00      0.00
                               -0.00  -6549.19      0.00
                                0.00      0.00  -6549.85

     ewald   stress (kbar) -26333.92      0.06     -0.00
                                0.06 -26333.85     -0.00
                               -0.00     -0.00 -41603.21

     hubbard stress (kbar)      0.00      0.00      0.00
                                0.00      0.00      0.00
                                0.00      0.00      0.00

     DFT-D   stress (kbar)      0.00      0.00      0.00
                                0.00      0.00      0.00
                                0.00      0.00      0.00

     XDM     stress (kbar)      0.00      0.00      0.00
                                0.00      0.00      0.00
                                0.00      0.00      0.00

     dft-nl  stress (kbar)      0.00      0.00      0.00
                                0.00      0.00      0.00
                                0.00      0.00      0.00

     TS-vdW  stress (kbar)      0.00      0.00      0.00
                                0.00      0.00      0.00
                                0.00      0.00      0.00

[...]

                                0.00      0.00      0.00

     Writing all to output data dir new_calculations/myprefix.save/

     General routines

     Parallel routines

     PAW routines

   This run was terminated on:   9:55:33  20May2023

   JOB DONE.