     Program PWSCF v.7.1 starts on 16Jul2023 at 17: 6: 1

     Reading input from espresso_15783.pwi
Warning: card &CELL ignored
Warning: card / ignored

     Current dimensions of program PWSCF are:
     Max number of different atomic species (ntypx) = 10
     Max number of k-points (npk) =  40000
     Max angular momentum in pseudopotentials (lmaxx) =  4
     Message from routine setup:
     using ibrav=0 with symmetry is DISCOURAGED, use correct ibrav instead

     K-points division:     npool     =       2
     R & G space division:  proc/nbgrp/npool/nimage =       4
     Subspace diagonalization in iterative solution of the eigenvalue problem:
     a serial algorithm will be used

     Using Slab Decomposition

     bravais-lattice index     =            0
     lattice parameter (alat)  =      10.3860  a.u.
     unit-cell volume          =    1507.6230 (a.u.)^3
     number of atoms/cell      =           18
     number of atomic types    =            3
     number of electrons       =       224.00
     number of Kohn-Sham states=          134
     kinetic-energy cutoff     =      30.0000  Ry
     charge density cutoff     =     240.0000  Ry
     scf convergence threshold =      1.0E-06
     mixing beta               =       0.7000
     number of iterations used =            8  plain     mixing
     Exchange-correlation= PBE
                           (   1   4   3   4   0   0   0)

     celldm(1)=  10.386036  celldm(2)=   0.000000  celldm(3)=   0.000000
     celldm(4)=   0.000000  celldm(5)=   0.000000  celldm(6)=   0.000000

     crystal axes: (cart. coord. in units of alat)
               a(1) = (   1.000000   0.000000   0.000000 )
               a(2) = (   0.347566   0.953979   0.000000 )
               a(3) = (   0.117317   0.525718   1.410602 )

     reciprocal axes: (cart. coord. in units 2 pi/alat)
               b(1) = (  1.000000 -0.364333  0.052616 )
               b(2) = (  0.000000  1.048241 -0.390669 )
               b(3) = (  0.000000  0.000000  0.708917 )

     PseudoPot. # 1 for Ti read from file:
     /lustre07/scratch/pragov/crystal_structure_design/utils/SSSP/ti_pbe_v1.4.uspp.F.UPF
     MD5 check sum: 88a00a6731bd790ddea75d31a80cb452
     Pseudo is Ultrasoft + core correction, Zval = 12.0
     Generated by new atomic code, or converted to UPF format
     Using radial grid of  851 points,  6 beta functions with:
                l(1) =   0
                l(2) =   0
                l(3) =   1
                l(4) =   1
                l(5) =   2
                l(6) =   2
     Q(r) pseudized with  6 coefficients,  rinner =    1.000   1.000   1.000
                                                       1.000   1.000

     PseudoPot. # 2 for Zn read from file:
     /lustre07/scratch/pragov/crystal_structure_design/utils/SSSP/Zn_pbe_v1.uspp.F.UPF
     MD5 check sum: df62231357ef9e81f77b2b3087fa5675
     Pseudo is Ultrasoft, Zval = 20.0
     Generated by new atomic code, or converted to UPF format
     Using radial grid of  943 points,  6 beta functions with:
                l(1) =   0
                l(2) =   0
                l(3) =   1
                l(4) =   1
                l(5) =   2
                l(6) =   2
     Q(r) pseudized with  8 coefficients,  rinner =    1.100   1.100   1.100
                                                       1.100   1.100

     PseudoPot. # 3 for N  read from file:
     /lustre07/scratch/pragov/crystal_structure_design/utils/SSSP/N.pbe-n-radius_5.UPF
     MD5 check sum: 16739722b17309cd8fe442a2ace49922
     Pseudo is Ultrasoft + core correction, Zval =  5.0
     Generated using "atomic" code by A. Dal Corso  v.5.1
     Using radial grid of 1085 points,  4 beta functions with:
                l(1) =   0
                l(2) =   0
                l(3) =   1
                l(4) =   1
     Q(r) pseudized with 0 coefficients

     atomic species   valence    mass     pseudopotential
        Ti            12.00    47.86700     Ti( 1.00)
        Zn            20.00    65.38000     Zn( 1.00)
        N              5.00    14.00700     N ( 1.00)

      2 Sym. Ops., with inversion, found

                                    s                        frac. trans.

      isym =  1     identity

 cryst.   s( 1) = (     1          0          0      )
                  (     0          1          0      )
                  (     0          0          1      )

 cart.    s( 1) = (  1.0000000  0.0000000  0.0000000 )
                  (  0.0000000  1.0000000  0.0000000 )
                  (  0.0000000  0.0000000  1.0000000 )

      isym =  2     inversion

 cryst.   s( 2) = (    -1          0          0      )
                  (     0         -1          0      )
                  (     0          0         -1      )

 cart.    s( 2) = ( -1.0000000  0.0000000  0.0000000 )
                  (  0.0000000 -1.0000000  0.0000000 )
                  (  0.0000000  0.0000000 -1.0000000 )

   Cartesian axes

     site n.     atom                  positions (alat units)
         1           Ti  tau(   1) = (   1.0915374   1.2190871   1.0951207  )
         2           Ti  tau(   2) = (   0.3733455   0.2606097   0.3154811  )
         3           Zn  tau(   3) = (   0.9392522   0.6844384   0.2743762  )
         4           Zn  tau(   4) = (   0.5256307   0.7952584   1.1362257  )
         5           Zn  tau(   5) = (   0.8547803   0.1874361   0.0470760  )
         6           Zn  tau(   6) = (   0.6101027   1.2922608   1.3635258  )
         7           Zn  tau(   7) = (   0.9888184   0.7695962   0.7852609  )
         8           Zn  tau(   8) = (   0.4760645   0.7101006   0.6253410  )
         9           Zn  tau(   9) = (   0.6293488   1.1680272   0.8027326  )
        10           Zn  tau(  10) = (   0.8355341   0.3116696   0.6078692  )
        11           N   tau(  11) = (   1.2685859   0.9970507   0.8641488  )
        12           N   tau(  12) = (   0.1962970   0.4826461   0.5464530  )
        13           N   tau(  13) = (   1.2450762   1.3114184   1.3983860  )
        14           N   tau(  14) = (   0.2198067   0.1682784   0.0122158  )
        15           N   tau(  15) = (   0.7715644   1.0792864   1.1272021  )
        16           N   tau(  16) = (   0.6933186   0.4004104   0.2833998  )
        17           N   tau(  17) = (   0.7566767   0.9250911   0.5118764  )
        18           N   tau(  18) = (   0.7082062   0.5546057   0.8987255  )

   Crystallographic axes

     site n.     atom                  positions (cryst. coord.)
         1           Ti  tau(   1) = (  0.7050040  0.8500670  0.7763500  )
         2           Ti  tau(   2) = (  0.2949960  0.1499330  0.2236500  )
         3           Zn  tau(   3) = (  0.7043250  0.6102660  0.1945100  )
         4           Zn  tau(   4) = (  0.2956750  0.3897340  0.8054900  )
         5           Zn  tau(   5) = (  0.7889680  0.1780870  0.0333730  )
         6           Zn  tau(   6) = (  0.2110320  0.8219130  0.9666270  )
         7           Zn  tau(   7) = (  0.7497460  0.4999450  0.5566850  )
         8           Zn  tau(   8) = (  0.2502540  0.5000550  0.4433150  )
         9           Zn  tau(   9) = (  0.2460340  0.9107710  0.5690710  )
        10           Zn  tau(  10) = (  0.7539660  0.0892290  0.4309290  )
        11           N   tau(  11) = (  0.9507950  0.7075530  0.6126100  )
        12           N   tau(  12) = (  0.0492050  0.2924470  0.3873900  )
        13           N   tau(  13) = (  0.8408600  0.8283760  0.9913400  )
        14           N   tau(  14) = (  0.1591400  0.1716240  0.0086600  )
        15           N   tau(  15) = (  0.4376530  0.6909890  0.7990930  )
        16           N   tau(  16) = (  0.5623470  0.3090110  0.2009070  )
        17           N   tau(  17) = (  0.4465680  0.7697440  0.3628780  )
        18           N   tau(  18) = (  0.5534320  0.2302560  0.6371220  )

     number of k points=    14  Gaussian smearing, width (Ry)=  0.0010
                       cart. coord. in units 2pi/alat
        k(    1) = (   0.0000000   0.0000000   0.0000000), wk =   0.0740741
        k(    2) = (   0.0000000   0.0000000   0.2363058), wk =   0.1481481
        k(    3) = (   0.0000000   0.3494137  -0.1302231), wk =   0.1481481
        k(    4) = (   0.0000000   0.3494137   0.1060827), wk =   0.1481481
        k(    5) = (   0.0000000   0.3494137  -0.3665289), wk =   0.1481481
        k(    6) = (   0.3333333  -0.1214444   0.0175386), wk =   0.1481481
        k(    7) = (   0.3333333  -0.1214444   0.2538444), wk =   0.1481481
        k(    8) = (   0.3333333  -0.1214444  -0.2187672), wk =   0.1481481
        k(    9) = (   0.3333333   0.2279692  -0.1126845), wk =   0.1481481
        k(   10) = (   0.3333333   0.2279692   0.1236213), wk =   0.1481481
        k(   11) = (   0.3333333   0.2279692  -0.3489903), wk =   0.1481481
        k(   12) = (   0.3333333  -0.4708581   0.1477617), wk =   0.1481481
        k(   13) = (   0.3333333  -0.4708581   0.3840675), wk =   0.1481481
        k(   14) = (   0.3333333  -0.4708581  -0.0885440), wk =   0.1481481

                       cryst. coord.
        k(    1) = (   0.0000000   0.0000000   0.0000000), wk =   0.0740741
        k(    2) = (   0.0000000   0.0000000   0.3333333), wk =   0.1481481
        k(    3) = (   0.0000000   0.3333333   0.0000000), wk =   0.1481481
        k(    4) = (   0.0000000   0.3333333   0.3333333), wk =   0.1481481
        k(    5) = (   0.0000000   0.3333333  -0.3333333), wk =   0.1481481
        k(    6) = (   0.3333333   0.0000000   0.0000000), wk =   0.1481481
        k(    7) = (   0.3333333   0.0000000   0.3333333), wk =   0.1481481
        k(    8) = (   0.3333333   0.0000000  -0.3333333), wk =   0.1481481
        k(    9) = (   0.3333333   0.3333333   0.0000000), wk =   0.1481481
        k(   10) = (   0.3333333   0.3333333   0.3333333), wk =   0.1481481
        k(   11) = (   0.3333333   0.3333333  -0.3333333), wk =   0.1481481
        k(   12) = (   0.3333333  -0.3333333   0.0000000), wk =   0.1481481
        k(   13) = (   0.3333333  -0.3333333   0.3333333), wk =   0.1481481
        k(   14) = (   0.3333333  -0.3333333  -0.3333333), wk =   0.1481481

     Check: negative core charge=   -0.000005

     Initial potential from superposition of free atoms

     starting charge     221.9987, renormalised to     224.0000

     negative rho (up, down):  2.851E-03 0.000E+00
     Starting wfcs are  156 randomized atomic wfcs

     Self-consistent Calculation

     iteration #  1     ecut=    30.00 Ry     beta= 0.70
     Davidson diagonalization with overlap

     ethr =  1.00E-02,  avg # of iterations =  2.0

     total energy              =   -3992.34454872 Ry
     estimated scf accuracy    <     119.35085808 Ry

[...]

     negative rho (up, down):  8.284E-04 0.000E+00

[...]

     total energy              =   -4092.23728456 Ry
     estimated scf accuracy    <       0.00000295 Ry

     iteration # 18     ecut=    30.00 Ry     beta= 0.70
     Davidson diagonalization with overlap

     ethr =  1.32E-09,  avg # of iterations =  2.0

     negative rho (up, down):  2.511E-03 0.000E+00

     End of self-consistent calculation

          k = 0.0000 0.0000 0.0000 (  4171 PWs)   bands (ev):

  -114.8966-114.8949-114.6128-114.6125-114.5618-114.5608-114.4816-114.4813
   -69.0426 -69.0420 -69.0236 -69.0168 -68.9620 -68.9619 -68.8234 -68.8178
   -68.7209 -68.7170 -68.6885 -68.6856 -68.6805 -68.6738 -68.6709 -68.6649
   -68.6442 -68.6431 -68.6261 -68.6209 -68.5936 -68.5888 -68.5480 -68.5460
   -45.9453 -45.9453 -22.3170 -22.3166 -22.2701 -22.2691 -22.2385 -22.2372
    -4.3386  -3.3307  -3.3024  -2.8923  -2.8301  -2.8166  -2.6922  -2.5887
     3.3188   3.3910   3.5336   3.6023   3.7227   3.7931   3.8275   3.8389
     3.9412   3.9978   4.0025   4.0327   4.1071   4.1465   4.1919   4.2139
     4.2428   4.2559   4.2847   4.3328   4.3457   4.3566   4.4046   4.4184
     4.4427   4.4643   4.4802   4.4926   4.4966   4.5318   4.5731   4.6642
     4.6808   4.6862   4.7311   4.7401   4.8121   4.8299   4.9421   5.0180
     5.7178   5.9635   6.0091   6.1874   6.2152   6.7128   7.0832   7.1795
     7.4178   7.5209   7.5566   8.0465   8.1116   8.3765   8.5634   8.5679
     8.8479   8.9571   9.1774   9.3475   9.3889   9.4072   9.8482   9.8517
    11.4895  12.8270  12.8955  13.2379  13.4921  13.6482  13.7225  14.1390
    14.3196  14.4926  14.7668  14.8548  14.8609  15.1451  15.6731  15.8003
    16.6511  16.9504  17.4680  17.4682  17.5984  18.0940

     occupation numbers
     1.0000   1.0000   1.0000   1.0000   1.0000   1.0000   1.0000   1.0000
     1.0000   1.0000   1.0000   1.0000   1.0000   1.0000   1.0000   1.0000
     1.0000   1.0000   1.0000   1.0000   1.0000   1.0000   1.0000   1.0000
     1.0000   1.0000   1.0000   1.0000   1.0000   1.0000   1.0000   1.0000
     1.0000   1.0000   1.0000   1.0000   1.0000   1.0000   1.0000   1.0000
     1.0000   1.0000   1.0000   1.0000   1.0000   1.0000   1.0000   1.0000
     1.0000   1.0000   1.0000   1.0000   1.0000   1.0000   1.0000   1.0000
     1.0000   1.0000   1.0000   1.0000   1.0000   1.0000   1.0000   1.0000
     1.0000   1.0000   1.0000   1.0000   1.0000   1.0000   1.0000   1.0000
     1.0000   1.0000   1.0000   1.0000   1.0000   1.0000   1.0000   1.0000
     1.0000   1.0000   1.0000   1.0000   1.0000   1.0000   1.0000   1.0000
     1.0000   1.0000   1.0000   1.0000   1.0000   1.0000   1.0000   1.0000
     1.0000   1.0000   1.0000   1.0000   1.0000   1.0000   1.0000   1.0000
     1.0000   1.0000   1.0000   1.0000   1.0000   1.0000   1.0000   1.0000
     0.0000   0.0000   0.0000   0.0000   0.0000   0.0000   0.0000   0.0000
     0.0000   0.0000   0.0000   0.0000   0.0000   0.0000   0.0000   0.0000
     0.0000   0.0000   0.0000   0.0000   0.0000   0.0000

[...]

          k = 0.3333-0.4709-0.0885 (  4176 PWs)   bands (ev):

  -114.8967-114.8954-114.6138-114.6123-114.5622-114.5611-114.4822-114.4814
   -69.0415 -69.0398 -69.0264 -69.0228 -68.9641 -68.9615 -68.8229 -68.8193
   -68.7177 -68.7151 -68.6911 -68.6859 -68.6801 -68.6789 -68.6701 -68.6659
   -68.6476 -68.6449 -68.6307 -68.6256 -68.5928 -68.5876 -68.5508 -68.5469
   -45.9453 -45.9453 -22.3171 -22.3169 -22.2701 -22.2694 -22.2382 -22.2376
    -3.6442  -3.4685  -3.3041  -3.1683  -3.0221  -2.9195  -2.7268  -2.6403
     3.3998   3.4481   3.5710   3.6057   3.6911   3.7723   3.8188   3.8419
     3.8716   3.9489   3.9920   4.0069   4.0647   4.0910   4.1192   4.1624
     4.1715   4.2067   4.2512   4.2586   4.3341   4.3492   4.4057   4.4196
     4.4552   4.4889   4.5169   4.5340   4.5467   4.5582   4.5865   4.5908
     4.6293   4.6565   4.6913   4.7255   4.7674   4.7988   4.8200   4.8898
     5.5336   5.8619   5.9731   6.0521   6.2303   6.8473   6.9407   7.1652
     7.4834   7.8569   8.0371   8.1723   8.3644   8.5819   8.6931   8.8377
     8.9709   9.0322   9.1596   9.2006   9.3666   9.6843   9.7495   9.9190
    12.8872  13.0382  13.1916  13.3583  13.5556  13.7031  13.7755  13.9455
    14.1482  14.4355  14.6070  14.7896  14.9495  15.3162  15.4004  15.7552
    15.7967  16.6115  17.0330  17.1376  17.3413  17.9308

     occupation numbers
     1.0000   1.0000   1.0000   1.0000   1.0000   1.0000   1.0000   1.0000
     1.0000   1.0000   1.0000   1.0000   1.0000   1.0000   1.0000   1.0000
     1.0000   1.0000   1.0000   1.0000   1.0000   1.0000   1.0000   1.0000
     1.0000   1.0000   1.0000   1.0000   1.0000   1.0000   1.0000   1.0000
     1.0000   1.0000   1.0000   1.0000   1.0000   1.0000   1.0000   1.0000
     1.0000   1.0000   1.0000   1.0000   1.0000   1.0000   1.0000   1.0000
     1.0000   1.0000   1.0000   1.0000   1.0000   1.0000   1.0000   1.0000
     1.0000   1.0000   1.0000   1.0000   1.0000   1.0000   1.0000   1.0000
     1.0000   1.0000   1.0000   1.0000   1.0000   1.0000   1.0000   1.0000
     1.0000   1.0000   1.0000   1.0000   1.0000   1.0000   1.0000   1.0000
     1.0000   1.0000   1.0000   1.0000   1.0000   1.0000   1.0000   1.0000
     1.0000   1.0000   1.0000   1.0000   1.0000   1.0000   1.0000   1.0000
     1.0000   1.0000   1.0000   1.0000   1.0000   1.0000   1.0000   1.0000
     1.0000   1.0000   1.0000   1.0000   1.0000   1.0000   1.0000   1.0000
     0.0000   0.0000   0.0000   0.0000   0.0000   0.0000   0.0000   0.0000
     0.0000   0.0000   0.0000   0.0000   0.0000   0.0000   0.0000   0.0000
     0.0000   0.0000   0.0000   0.0000   0.0000   0.0000

     the Fermi energy is    10.9590 ev

!    total energy              =   -4092.23728490 Ry
     estimated scf accuracy    <       0.00000022 Ry
     smearing contrib. (-TS)   =      -0.00000000 Ry
     internal energy E=F+TS    =   -4092.23728490 Ry

     The total energy is F=E-TS. E is the sum of the following terms:
     one-electron contribution =   -3362.63120450 Ry
     hartree contribution      =    1767.74579676 Ry
     xc contribution           =    -417.08536377 Ry
     ewald contribution        =   -2080.26651338 Ry

     convergence has been achieved in  18 iterations

     Writing all to output data dir energy_m/myprefix.save/

     General routines

     Parallel routines

   This run was terminated on:  17: 7:15  16Jul2023

   JOB DONE.