     Program PWSCF v.7.0 starts on 21May2023 at  6:30: 4

     Reading input from espresso_13995.pwi
Warning: card &CELL ignored
Warning: card / ignored

     Current dimensions of program PWSCF are:
     Max number of different atomic species (ntypx) = 10
     Max number of k-points (npk) =  40000
     Max angular momentum in pseudopotentials (lmaxx) =  4

     gamma-point specific algorithms are used
     Message from routine setup:
     using ibrav=0 with symmetry is DISCOURAGED, use correct ibrav instead

     Subspace diagonalization in iterative solution of the eigenvalue problem:
     a serial algorithm will be used

     Using Slab Decomposition

     bravais-lattice index     =            0
     lattice parameter (alat)  =       8.6176  a.u.
     unit-cell volume          =     993.5996 (a.u.)^3
     number of atoms/cell      =            6
     number of atomic types    =            3
     number of electrons       =        82.00
     number of Kohn-Sham states=           49
     kinetic-energy cutoff     =      30.0000  Ry
     charge density cutoff     =     240.0000  Ry
     scf convergence threshold =      1.0E-06
     mixing beta               =       0.7000
     number of iterations used =            8  plain     mixing
     Exchange-correlation= PBE
                           (   1   4   3   4   0   0   0)

     celldm(1)=   8.617554  celldm(2)=   0.000000  celldm(3)=   0.000000
     celldm(4)=   0.000000  celldm(5)=   0.000000  celldm(6)=   0.000000

     crystal axes: (cart. coord. in units of alat)
               a(1) = (   1.000000   0.000000   0.000000 )
               a(2) = (  -0.500000   0.866026   0.000000 )
               a(3) = (   0.000000   0.000000   1.792787 )

     reciprocal axes: (cart. coord. in units 2 pi/alat)
               b(1) = (  1.000000  0.577350  0.000000 )
               b(2) = (  0.000000  1.154700  0.000000 )
               b(3) = (  0.000000  0.000000  0.557791 )

     PseudoPot. # 1 for Eu read from file:
     /home/pragov/projects/rrg-bengioy-ad/pragov/crystal_structure_design/SSSP/Eu.GGA-PBE-paw-v1.0.UPF
     MD5 check sum: acec5fd9176fb57ec8e299eae1ecaf48
     Pseudo is Projector augmented-wave + core cor, Zval = 17.0
     Generated using ATOMPAW code
     Shape of augmentation charge: BESSEL
     Using radial grid of 1109 points,  8 beta functions with:
                l(1) =   0
                l(2) =   0
                l(3) =   1
                l(4) =   1
                l(5) =   2
                l(6) =   2
                l(7) =   3
                l(8) =   3
     Q(r) pseudized with 0 coefficients

     PseudoPot. # 2 for Ag read from file:
     /home/pragov/projects/rrg-bengioy-ad/pragov/crystal_structure_design/SSSP/Ag_ONCV_PBE-1.0.oncvpsp.upf
     MD5 check sum: 94f47bd0669c641108e45594df92fabc
     Pseudo is Norm-conserving, Zval = 19.0
     Generated using ONCVPSP code by D. R. Hamann
     Using radial grid of 1398 points,  6 beta functions with:
                l(1) =   0
                l(2) =   0
                l(3) =   1
                l(4) =   1
                l(5) =   2
                l(6) =   2

     PseudoPot. # 3 for As read from file:
     /home/pragov/projects/rrg-bengioy-ad/pragov/crystal_structure_design/SSSP/As.pbe-n-rrkjus_psl.0.2.UPF
     MD5 check sum: 767315de957beeeb34f87d97bf945c8f
     Pseudo is Ultrasoft + core correction, Zval =  5.0
     Generated using "atomic" code by A. Dal Corso  v.5.0.99 svn rev. 10869
     Using radial grid of 1209 points,  4 beta functions with:
                l(1) =   0
                l(2) =   0
                l(3) =   1
                l(4) =   1
     Q(r) pseudized with 0 coefficients

     atomic species   valence    mass     pseudopotential
        Eu            17.00   151.96400     Eu( 1.00)
        Ag            19.00   107.86820     Ag( 1.00)
        As             5.00    74.92159     As( 1.00)

     24 Sym. Ops., with inversion, found (12 have fractional translation)

                                    s                        frac. trans.

      isym =  1     identity

 cryst.   s( 1) = (     1          0          0      )
                  (     0          1          0      )
                  (     0          0          1      )

 cart.    s( 1) = (  1.0000000  0.0000000  0.0000000 )
                  (  0.0000000  1.0000000  0.0000000 )
                  (  0.0000000  0.0000000  1.0000000 )

      isym =  2     180 deg rotation - cart. axis [0,0,1]

 cryst.   s( 2) = (    -1          0          0      )    f =(  0.0000000 )
                  (     0         -1          0      )       (  0.0000000 )
                  (     0          0          1      )       ( -0.5000000 )

 cart.    s( 2) = ( -1.0000000 -0.0000000  0.0000000 )    f =(  0.0000000 )
                  (  0.0000000 -1.0000000  0.0000000 )       (  0.0000000 )
                  (  0.0000000  0.0000000  1.0000000 )       ( -0.8963935 )

[...]

      isym =  4     180 deg rotation - cart. axis [1,0,0]

[...]

      isym =  5      60 deg rotation - cryst. axis [0,0,1]

[...]

 cryst.   s( 8) = (    -1         -1          0      )
                  (     1          0          0      )
                  (     0          0          1      )

 cart.    s( 8) = ( -0.5000002  0.8660253  0.0000000 )
                  ( -0.8660255 -0.4999998  0.0000000 )
                  (  0.0000000  0.0000000  1.0000000 )

[...]

 cryst.   s( 9) = (     0         -1          0      )    f =(  0.0000000 )
                  (    -1          0          0      )       (  0.0000000 )
                  (     0          0         -1      )       (  0.5000000 )

 cart.    s( 9) = (  0.4999998 -0.8660255  0.0000000 )    f =(  0.0000000 )
                  ( -0.8660255 -0.4999998  0.0000000 )       (  0.0000000 )
                  (  0.0000000  0.0000000 -1.0000000 )       (  0.8963935 )

[...]

 cryst.   s(10) = (     1          1          0      )    f =(  0.0000000 )
                  (     0         -1          0      )       (  0.0000000 )
                  (     0          0         -1      )       (  0.5000000 )

 cart.    s(10) = (  0.5000002  0.8660250  0.0000000 )    f =(  0.0000000 )
                  (  0.8660255 -0.5000002  0.0000000 )       (  0.0000000 )
                  (  0.0000000  0.0000000 -1.0000000 )       (  0.8963935 )

[...]

 cryst.   s(11) = (    -1         -1          0      )
                  (     0          1          0      )
                  (     0          0         -1      )

 cart.    s(11) = ( -0.5000002 -0.8660250  0.0000000 )
                  ( -0.8660255  0.5000002  0.0000000 )
                  (  0.0000000  0.0000000 -1.0000000 )

      isym = 12     180 deg rotation - cryst. axis [1,1,0]

[...]

      isym = 13     inversion

[...]

      isym = 14     inv. 180 deg rotation - cart. axis [0,0,1]

[...]

      isym = 16     inv. 180 deg rotation - cart. axis [1,0,0]

[...]

      isym = 17     inv.  60 deg rotation - cryst. axis [0,0,1]

[...]

 cryst.   s(22) = (    -1         -1          0      )    f =(  0.0000000 )
                  (     0          1          0      )       (  0.0000000 )
                  (     0          0          1      )       ( -0.5000000 )

 cart.    s(22) = ( -0.5000002 -0.8660250  0.0000000 )    f =(  0.0000000 )
                  ( -0.8660255  0.5000002  0.0000000 )       (  0.0000000 )
                  (  0.0000000  0.0000000  1.0000000 )       ( -0.8963935 )

[...]

      isym = 24     inv. 180 deg rotation - cryst. axis [1,1,0]

 cryst.   s(24) = (     0         -1          0      )
                  (    -1          0          0      )
                  (     0          0          1      )

 cart.    s(24) = (  0.4999998 -0.8660255  0.0000000 )
                  ( -0.8660255 -0.4999998  0.0000000 )
                  (  0.0000000  0.0000000  1.0000000 )

   Cartesian axes

     site n.     atom                  positions (alat units)
         1           Eu  tau(   1) = (   0.0000000   0.0000000   0.0000000  )
         2           Eu  tau(   2) = (   0.0000000   0.0000000   0.8963935  )
         3           Ag  tau(   3) = (  -0.0000004   0.5773506   1.3445903  )
         4           Ag  tau(   4) = (   0.5000006   0.2886749   0.4481968  )
         5           As  tau(   5) = (   0.5000006   0.2886749   1.3445903  )
         6           As  tau(   6) = (  -0.0000004   0.5773506   0.4481968  )

   Crystallographic axes

     site n.     atom                  positions (cryst. coord.)
         1           Eu  tau(   1) = (  0.0000000  0.0000000  0.0000000  )
         2           Eu  tau(   2) = (  0.0000000  0.0000000  0.5000000  )
         3           Ag  tau(   3) = (  0.3333330  0.6666670  0.7500000  )
         4           Ag  tau(   4) = (  0.6666670  0.3333330  0.2500000  )
         5           As  tau(   5) = (  0.6666670  0.3333330  0.7500000  )
         6           As  tau(   6) = (  0.3333330  0.6666670  0.2500000  )

     number of k points=     1  Methfessel-Paxton smearing, width (Ry)=  0.0010
                       cart. coord. in units 2pi/alat
        k(    1) = (   0.0000000   0.0000000   0.0000000), wk =   2.0000000

                       cryst. coord.
        k(    1) = (   0.0000000   0.0000000   0.0000000), wk =   2.0000000

     Initial potential from superposition of free atoms

     starting charge      81.9895, renormalised to      82.0000
     Starting wfcs are   92 randomized atomic wfcs
     Checking if some PAW data can be deallocated...

     Self-consistent Calculation

     iteration #  1     ecut=    30.00 Ry     beta= 0.70
     Davidson diagonalization with overlap

     ethr =  1.00E-02,  avg # of iterations =  2.0

     total energy              =   -1853.66233035 Ry
     estimated scf accuracy    <      33.39708041 Ry

[...]

     total energy              =   -1894.21375575 Ry
     estimated scf accuracy    <       0.00000408 Ry

     iteration # 97     ecut=    30.00 Ry     beta= 0.70
     Davidson diagonalization with overlap

     ethr =  2.33E-09,  avg # of iterations =  1.0

     End of self-consistent calculation

          k = 0.0000 0.0000 0.0000 (  1361 PWs)   bands (ev):

   -82.6811 -82.6805 -45.7230 -45.7230 -45.7166 -45.7166 -45.5796 -45.5760
   -29.2297 -29.2230  -8.3155  -8.1123  -8.0705  -8.0704  -8.0512  -8.0512
     0.6157   1.1481   5.4989   5.4989   5.5974   5.5974   6.3104   6.3104
     6.3872   6.4317   6.4317   6.7806   7.7750  10.7438  10.7438  10.7597
    11.3050  11.3050  11.3134  11.4583  11.7345  11.8798  11.9541  11.9541
    12.0533  12.0533  12.0583  12.0600  12.1866  12.1866  12.2776  12.5883
    12.5883

     occupation numbers
     1.0000   1.0000   1.0000   1.0000   1.0000   1.0000   1.0000   1.0000
     1.0000   1.0000   1.0000   1.0000   1.0000   1.0000   1.0000   1.0000
     1.0000   1.0000   1.0000   1.0000   1.0000   1.0000   1.0000   1.0000
     1.0000   1.0000   1.0000   1.0000   1.0000   1.0000   1.0000   1.0000
     1.0000   1.0000   1.0000   1.0000   1.0000   1.0000   1.0000   1.0000
     0.3957   0.3955   0.1360   0.0728  -0.0000  -0.0000  -0.0000  -0.0000
    -0.0000

     the Fermi energy is    12.0516 ev

!    total energy              =   -1894.21375457 Ry
     estimated scf accuracy    <       0.00000088 Ry
     smearing contrib. (-TS)   =      -0.00070056 Ry
     internal energy E=F+TS    =   -1894.21305402 Ry

     The total energy is F=E-TS. E is the sum of the following terms:
     one-electron contribution =    -508.82409958 Ry
     hartree contribution      =     293.74426934 Ry
     xc contribution           =    -112.72392361 Ry
     ewald contribution        =    -652.20029423 Ry
     one-center paw contrib.   =    -914.20900593 Ry
      -> PAW hartree energy AE =     313.87946731 Ry
      -> PAW hartree energy PS =    -299.83691151 Ry
      -> PAW xc energy AE      =    -966.47007247 Ry
      -> PAW xc energy PS      =      38.21851073 Ry
      -> total E_H with PAW    =     307.78682514 Ry
      -> total E_XC with PAW   =   -1040.97548534 Ry

     convergence has been achieved in  97 iterations

     Forces acting on atoms (cartesian axes, Ry/au):

     atom    1 type  1   force =     0.00000000   -0.00000000    0.00000000
     atom    2 type  1   force =     0.00000000    0.00000000    0.00000000
     atom    3 type  2   force =     0.00000000    0.00000000    0.00000000
     atom    4 type  2   force =     0.00000000    0.00000000    0.00000000
     atom    5 type  3   force =     0.00000000    0.00000000    0.00000000
     atom    6 type  3   force =     0.00000000   -0.00000000    0.00000000
     The non-local contrib.  to forces
     atom    1 type  1   force =    -0.00000000    0.00000000    0.00000000
     atom    2 type  1   force =     0.00000000    0.00000000    0.00000000
     atom    3 type  2   force =     0.00000000   -0.00000000    0.00000000
     atom    4 type  2   force =    -0.00000000    0.00000000   -0.00000000
     atom    5 type  3   force =     0.00000000   -0.00000000    0.00000000
     atom    6 type  3   force =     0.00000000    0.00000000    0.00000000
     The ionic contribution  to forces
     atom    1 type  1   force =    -0.00000000    0.00000000   -0.00000000
     atom    2 type  1   force =    -0.00000000    0.00000000   -0.00000000
     atom    3 type  2   force =     0.00005466   -0.00003156    0.00000000
     atom    4 type  2   force =    -0.00005466    0.00003156   -0.00000000
     atom    5 type  3   force =    -0.00003307    0.00001909    0.00000000
     atom    6 type  3   force =     0.00003307   -0.00001909    0.00000000
     The local contribution  to forces
     atom    1 type  1   force =    -0.00001646    0.00000898    0.00048154
     atom    2 type  1   force =     0.00004535    0.00000468   -0.00048824
     atom    3 type  2   force =    -0.00007482    0.00002298   -0.00198872
     atom    4 type  2   force =     0.00006803   -0.00002353    0.00200400
     atom    5 type  3   force =     0.00003667   -0.00001699   -0.00053151
     atom    6 type  3   force =    -0.00003216    0.00001786    0.00052583
     The core correction contribution to forces
     atom    1 type  1   force =    -0.00000000    0.00000000   -0.00000000
     atom    2 type  1   force =     0.00000000    0.00000000    0.00000000
     atom    3 type  2   force =     0.00000000    0.00000000    0.00000000
     atom    4 type  2   force =     0.00000000    0.00000000    0.00000000
     atom    5 type  3   force =     0.00000028    0.00000018   -0.00000120
     atom    6 type  3   force =     0.00000051   -0.00000003    0.00000029
     The Hubbard contrib.    to forces
     atom    1 type  1   force =     0.00000000    0.00000000    0.00000000
     atom    2 type  1   force =     0.00000000    0.00000000    0.00000000
     atom    3 type  2   force =     0.00000000    0.00000000    0.00000000
     atom    4 type  2   force =     0.00000000    0.00000000    0.00000000
     atom    5 type  3   force =     0.00000000    0.00000000    0.00000000
     atom    6 type  3   force =     0.00000000    0.00000000    0.00000000
     The SCF correction term to forces
     atom    1 type  1   force =     0.00001375    0.00000100   -0.00054535
     atom    2 type  1   force =    -0.00003349   -0.00000985    0.00055204
     atom    3 type  2   force =     0.00001976    0.00000564    0.00198821
     atom    4 type  2   force =    -0.00000851   -0.00000936   -0.00199393
     atom    5 type  3   force =    -0.00000403   -0.00000089    0.00051911
     atom    6 type  3   force =     0.00000302    0.00000035   -0.00051776

     Total force =     0.000000     Total SCF correction =     0.003012

     Computing stress (Cartesian axis) and pressure

          total   stress  (Ry/bohr**3)                   (kbar)     P=     -360.38
  -0.00169029   0.00000000   0.00000000         -248.65        0.00        0.00
   0.00000000  -0.00169029   0.00000000            0.00     -248.65        0.00
   0.00000000   0.00000000  -0.00396881            0.00        0.00     -583.83

     kinetic stress (kbar)  23392.69     -0.01      0.00
                               -0.01  23392.68      0.00
                                0.00      0.00  23272.63

     local   stress (kbar)  -6040.60      0.15     -0.00
                                0.15  -6040.69      0.06
                               -0.00      0.06  -2442.31

     nonloc. stress (kbar)   3693.22     -0.00     -0.00
                               -0.00   3693.22      0.00
                               -0.00      0.00   3674.97

     hartree stress (kbar)  14784.11     -0.05      0.00
                               -0.05  14784.14     -0.02
                                0.00     -0.02  13921.37

     exc-cor stress (kbar)  -3061.60     -0.00      0.00
                               -0.00  -3061.60     -0.00
                                0.00     -0.00  -3069.01

     corecor stress (kbar)  -1805.32     -0.00     -0.00
                               -0.00  -1805.32      0.00
                               -0.00      0.00  -1803.72

     ewald   stress (kbar) -31211.12     -0.00      0.00
                               -0.00 -31211.12     -0.00
                                0.00     -0.00 -34137.76

     hubbard stress (kbar)      0.00      0.00      0.00
                                0.00      0.00      0.00
                                0.00      0.00      0.00

     DFT-D   stress (kbar)      0.00      0.00      0.00
                                0.00      0.00      0.00
                                0.00      0.00      0.00

     XDM     stress (kbar)      0.00      0.00      0.00
                                0.00      0.00      0.00
                                0.00      0.00      0.00

     dft-nl  stress (kbar)      0.00      0.00      0.00
                                0.00      0.00      0.00
                                0.00      0.00      0.00

     TS-vdW  stress (kbar)      0.00      0.00      0.00
                                0.00      0.00      0.00
                                0.00      0.00      0.00

[...]

                                0.00      0.00      0.00

     Writing all to output data dir new_calculations/myprefix.save/

     General routines

     Parallel routines

     PAW routines

   This run was terminated on:   6:32: 1  21May2023

   JOB DONE.