     Program PWSCF v.7.1 starts on 16Jul2023 at 17:12:14

     Reading input from espresso_15926.pwi
Warning: card &CELL ignored
Warning: card / ignored

     Current dimensions of program PWSCF are:
     Max number of different atomic species (ntypx) = 10
     Max number of k-points (npk) =  40000
     Max angular momentum in pseudopotentials (lmaxx) =  4
     file Ba.pbe-spn-kjpaw_psl.1.0.0.UPF: wavefunction(s)  5S 6S renormalized
     file Er.paw.z_22.atompaw.wentzcovitch.v1.2.upf: wavefunction(s)  6S 0P 5D 0D 4F 0F renormalized
     file O.pbe-n-kjpaw_psl.0.1.UPF: wavefunction(s)  2P renormalized
     Message from routine setup:
     using ibrav=0 with symmetry is DISCOURAGED, use correct ibrav instead

     K-points division:     npool     =       2
     R & G space division:  proc/nbgrp/npool/nimage =       4
     Subspace diagonalization in iterative solution of the eigenvalue problem:
     a serial algorithm will be used

     Using Slab Decomposition

     bravais-lattice index     =            0
     lattice parameter (alat)  =      19.6072  a.u.
     unit-cell volume          =    2011.7394 (a.u.)^3
     number of atoms/cell      =           20
     number of atomic types    =            4
     number of electrons       =       182.00
     number of Kohn-Sham states=          109
     kinetic-energy cutoff     =      30.0000  Ry
     charge density cutoff     =     240.0000  Ry
     scf convergence threshold =      1.0E-06
     mixing beta               =       0.7000
     number of iterations used =            8  plain     mixing
     Exchange-correlation= SLA  PW   PBX  PBC
                           (   1   4   3   4   0   0   0)

     celldm(1)=  19.607241  celldm(2)=   0.000000  celldm(3)=   0.000000
     celldm(4)=   0.000000  celldm(5)=   0.000000  celldm(6)=   0.000000

     crystal axes: (cart. coord. in units of alat)
               a(1) = (   1.000000   0.000000   0.000000 )
               a(2) = (   0.836778   0.547542   0.000000 )
               a(3) = (   0.836778   0.249443   0.487422 )

     reciprocal axes: (cart. coord. in units 2 pi/alat)
               b(1) = (  1.000000 -1.528246 -0.934649 )
               b(2) = (  0.000000  1.826345 -0.934649 )
               b(3) = (  0.000000  0.000000  2.051610 )

     PseudoPot. # 1 for Ba read from file:
     /lustre07/scratch/pragov/crystal_structure_design/utils/SSSP/Ba.pbe-spn-kjpaw_psl.1.0.0.UPF
     MD5 check sum: c432291d3e53af55f19d5e8866385beb
     Pseudo is Projector augmented-wave + core cor, Zval = 10.0
     Generated using "atomic" code by A. Dal Corso  v.5.1
     Shape of augmentation charge: PSQ
     Using radial grid of 1251 points,  7 beta functions with:
                l(1) =   0
                l(2) =   0
                l(3) =   0
                l(4) =   1
                l(5) =   1
                l(6) =   2
                l(7) =   2
     Q(r) pseudized with 0 coefficients

     PseudoPot. # 2 for Er read from file:
     /lustre07/scratch/pragov/crystal_structure_design/utils/SSSP/Er.paw.z_22.atompaw.wentzcovitch.v1.2.upf
     MD5 check sum: 5ba6a5c626b1678e031aafe1da34e245
     Pseudo is Projector augmented-wave + core cor, Zval = 22.0
     Generated using ATOMPAW code
     Shape of augmentation charge: BESSEL
     Using radial grid of 1114 points,  8 beta functions with:
                l(1) =   0
                l(2) =   0
                l(3) =   1
                l(4) =   1
                l(5) =   2
                l(6) =   2
                l(7) =   3
                l(8) =   3
     Q(r) pseudized with 0 coefficients

     PseudoPot. # 3 for Ru read from file:
     /lustre07/scratch/pragov/crystal_structure_design/utils/SSSP/Ru_ONCV_PBE-1.0.oncvpsp.upf
     MD5 check sum: be037bb81c227cfb9b1461a9f099f4bd
     Pseudo is Norm-conserving, Zval = 16.0
     Generated using ONCVPSP code by D. R. Hamann
     Using radial grid of 1458 points,  6 beta functions with:
                l(1) =   0
                l(2) =   0
                l(3) =   1
                l(4) =   1
                l(5) =   2
                l(6) =   2

     PseudoPot. # 4 for O  read from file:
     /lustre07/scratch/pragov/crystal_structure_design/utils/SSSP/O.pbe-n-kjpaw_psl.0.1.UPF
     MD5 check sum: 0234752ac141de4415c5fc33072bef88
     Pseudo is Projector augmented-wave + core cor, Zval =  6.0
     Generated using "atomic" code by A. Dal Corso  v.5.0.99 svn rev. 10869
     Shape of augmentation charge: BESSEL
     Using radial grid of 1095 points,  4 beta functions with:
                l(1) =   0
                l(2) =   0
                l(3) =   1
                l(4) =   1
     Q(r) pseudized with 0 coefficients

     atomic species   valence    mass     pseudopotential
        Ba            10.00   137.32700     Ba( 1.00)
        Er            22.00   167.25900     Er( 1.00)
        Ru            16.00   101.07000     Ru( 1.00)
        O              6.00    15.99900     O ( 1.00)

      2 Sym. Ops., with inversion, found

                                    s                        frac. trans.

      isym =  1     identity

 cryst.   s( 1) = (     1          0          0      )
                  (     0          1          0      )
                  (     0          0          1      )

 cart.    s( 1) = (  1.0000000 -0.0000000  0.0000000 )
                  (  0.0000000  1.0000000  0.0000000 )
                  (  0.0000000  0.0000000  1.0000000 )

      isym =  2     inversion

 cryst.   s( 2) = (    -1          0          0      )
                  (     0         -1          0      )
                  (     0          0         -1      )

 cart.    s( 2) = ( -1.0000000  0.0000000 -0.0000000 )
                  (  0.0000000 -1.0000000  0.0000000 )
                  (  0.0000000  0.0000000 -1.0000000 )

   Cartesian axes

     site n.     atom                  positions (alat units)
         1           Ba  tau(   1) = (   0.7646907   0.2279535   0.1394124  )
         2           Ba  tau(   2) = (   1.9088669   0.5690311   0.3480101  )
         3           Ba  tau(   3) = (   0.3442311   0.1026149   0.0627575  )
         4           Ba  tau(   4) = (   2.3293265   0.6943697   0.4246650  )
         5           Er  tau(   5) = (   0.0000000   0.0000000   0.0000000  )
         6           Ru  tau(   6) = (   1.1050933   0.3294271   0.2014720  )
         7           Ru  tau(   7) = (   1.5684643   0.4675575   0.2859505  )
         8           Ru  tau(   8) = (   1.3367784   0.3984922   0.2437110  )
         9           O   tau(   9) = (   1.6931147   0.3625600   0.3814253  )
        10           O   tau(  10) = (   1.6931158   0.5047160   0.1489859  )
        11           O   tau(  11) = (   1.6152786   0.6236684   0.3814253  )
        12           O   tau(  12) = (   1.0582782   0.1733160   0.1059967  )
        13           O   tau(  13) = (   0.9804419   0.2922687   0.3384366  )
        14           O   tau(  14) = (   0.9804421   0.4344243   0.1059967  )
        15           O   tau(  15) = (   1.2482254   0.2332580   0.2986176  )
        16           O   tau(  16) = (   1.2482264   0.3720949   0.0716052  )
        17           O   tau(  17) = (   1.1722066   0.4882701   0.2986176  )
        18           O   tau(  18) = (   1.5013501   0.3087145   0.1888049  )
        19           O   tau(  19) = (   1.4253313   0.4248897   0.4158173  )
        20           O   tau(  20) = (   1.4253314   0.5637260   0.1888049  )

   Crystallographic axes

     site n.     atom                  positions (cryst. coord.)
         1           Ba  tau(   1) = (  0.2860200  0.2860200  0.2860200  )
         2           Ba  tau(   2) = (  0.7139800  0.7139800  0.7139810  )
         3           Ba  tau(   3) = (  0.1287540  0.1287540  0.1287540  )
         4           Ba  tau(   4) = (  0.8712460  0.8712460  0.8712470  )
         5           Er  tau(   5) = (  0.0000000  0.0000000  0.0000000  )
         6           Ru  tau(   6) = (  0.4133420  0.4133420  0.4133420  )
         7           Ru  tau(   7) = (  0.5866580  0.5866580  0.5866590  )
         8           Ru  tau(   8) = (  0.5000000  0.5000000  0.5000000  )
         9           O   tau(   9) = (  0.7825350  0.3056610  0.7825360  )
        10           O   tau(  10) = (  0.7825360  0.7825360  0.3056610  )
        11           O   tau(  11) = (  0.3056610  0.7825350  0.7825360  )
        12           O   tau(  12) = (  0.6943390  0.2174650  0.2174640  )
        13           O   tau(  13) = (  0.2174640  0.2174640  0.6943400  )
        14           O   tau(  14) = (  0.2174650  0.6943390  0.2174640  )
        15           O   tau(  15) = (  0.6126470  0.1469070  0.6126470  )
        16           O   tau(  16) = (  0.6126480  0.6126480  0.1469060  )
        17           O   tau(  17) = (  0.1469070  0.6126470  0.6126470  )
        18           O   tau(  18) = (  0.8530920  0.3873530  0.3873540  )
        19           O   tau(  19) = (  0.3873520  0.3873520  0.8530950  )
        20           O   tau(  20) = (  0.3873530  0.8530920  0.3873540  )

     number of k points=    14  Gaussian smearing, width (Ry)=  0.0010
                       cart. coord. in units 2pi/alat
        k(    1) = (   0.0000000   0.0000000   0.0000000), wk =   0.0740741
        k(    2) = (   0.0000000   0.0000000   0.6838701), wk =   0.1481481
        k(    3) = (   0.0000000   0.6087817  -0.3115497), wk =   0.1481481
        k(    4) = (   0.0000000   0.6087817   0.3723204), wk =   0.1481481
        k(    5) = (   0.0000000   0.6087817  -0.9954198), wk =   0.1481481
        k(    6) = (   0.3333333  -0.5094154  -0.3115497), wk =   0.1481481
        k(    7) = (   0.3333333  -0.5094154   0.3723204), wk =   0.1481481
        k(    8) = (   0.3333333  -0.5094154  -0.9954198), wk =   0.1481481
        k(    9) = (   0.3333333   0.0993663  -0.6230993), wk =   0.1481481
        k(   10) = (   0.3333333   0.0993663   0.0607708), wk =   0.1481481
        k(   11) = (   0.3333333   0.0993663  -1.3069694), wk =   0.1481481
        k(   12) = (   0.3333333  -1.1181971  -0.0000000), wk =   0.1481481
        k(   13) = (   0.3333333  -1.1181971   0.6838701), wk =   0.1481481
        k(   14) = (   0.3333333  -1.1181971  -0.6838701), wk =   0.1481481

                       cryst. coord.
        k(    1) = (   0.0000000   0.0000000   0.0000000), wk =   0.0740741
        k(    2) = (   0.0000000   0.0000000   0.3333333), wk =   0.1481481
        k(    3) = (   0.0000000   0.3333333   0.0000000), wk =   0.1481481
        k(    4) = (   0.0000000   0.3333333   0.3333333), wk =   0.1481481
        k(    5) = (   0.0000000   0.3333333  -0.3333333), wk =   0.1481481
        k(    6) = (   0.3333333   0.0000000   0.0000000), wk =   0.1481481
        k(    7) = (   0.3333333   0.0000000   0.3333333), wk =   0.1481481
        k(    8) = (   0.3333333   0.0000000  -0.3333333), wk =   0.1481481
        k(    9) = (   0.3333333   0.3333333   0.0000000), wk =   0.1481481
        k(   10) = (   0.3333333   0.3333333   0.3333333), wk =   0.1481481
        k(   11) = (   0.3333333   0.3333333  -0.3333333), wk =   0.1481481
        k(   12) = (   0.3333333  -0.3333333  -0.0000000), wk =   0.1481481
        k(   13) = (   0.3333333  -0.3333333   0.3333333), wk =   0.1481481
        k(   14) = (   0.3333333  -0.3333333  -0.3333333), wk =   0.1481481

     Check: negative core charge=   -0.000011

     Initial potential from superposition of free atoms

     starting charge     181.9261, renormalised to     182.0000
     Starting wfcs are  130 randomized atomic wfcs
     Checking if some PAW data can be deallocated...

     Self-consistent Calculation

     iteration #  1     ecut=    30.00 Ry     beta= 0.70
     Davidson diagonalization with overlap

     ethr =  1.00E-02,  avg # of iterations =  5.5

     negative rho (up, down):  3.225E-02 0.000E+00

     total energy              =   -3684.84685002 Ry
     estimated scf accuracy    <      13.16514706 Ry

[...]

     negative rho (up, down):  7.659E-05 0.000E+00

[...]

     c_bands:  1 eigenvalues not converged
     ethr =  5.35E-05,  avg # of iterations = 15.0

[...]

     total energy              =   -3696.70572241 Ry
     estimated scf accuracy    <       0.00000225 Ry

     iteration # 42     ecut=    30.00 Ry     beta= 0.70
     Davidson diagonalization with overlap

     ethr =  1.24E-09,  avg # of iterations =  1.0

     End of self-consistent calculation

          k = 0.0000 0.0000 0.0000 (  5541 PWs)   bands (ev):

   -62.7435 -62.7399 -62.3058 -36.1236 -33.0597 -32.7960 -32.6604 -32.6604
   -32.6563 -32.6563 -32.3640 -32.1496 -32.1496 -15.6796 -15.6012 -15.4150
   -15.3820 -10.7734 -10.7734 -10.7561  -7.4336  -6.9763  -6.9049  -6.9048
    -6.6716  -6.6673  -6.6672  -6.3865  -6.3864  -5.9258  -5.8164  -5.8163
    -1.1496  -1.1496  -1.0338  -0.8966  -0.8966  -0.7904  -0.7904  -0.7267
    -0.6106  -0.5985  -0.5985  -0.4887   4.7620   5.4569   5.4570   5.7845
     5.7845   5.8556   5.9137   5.9137   6.0519   6.4739   6.4740   6.5108
     6.5108   6.6766   6.8460   7.1477   7.2371   7.2371   7.5704   7.7984
     7.7984   8.2431   8.2431   8.5900   8.5901   8.7857   9.1574   9.1574
     9.1589   9.1871   9.2283   9.2302   9.2302   9.4237   9.4238   9.6427
     9.6953  10.6016  10.6016  10.7812  10.9282  10.9283  11.2520  11.2599
    11.2600  11.2644  11.3365  11.3365  11.5050  11.5647  11.5648  12.1701
    14.0380  14.0380  14.4323  14.4323  14.5682  14.5682  15.2714  15.2715
    15.5503  15.9932  15.9990  15.9991  16.0175

     occupation numbers
     1.0000   1.0000   1.0000   1.0000   1.0000   1.0000   1.0000   1.0000
     1.0000   1.0000   1.0000   1.0000   1.0000   1.0000   1.0000   1.0000
     1.0000   1.0000   1.0000   1.0000   1.0000   1.0000   1.0000   1.0000
     1.0000   1.0000   1.0000   1.0000   1.0000   1.0000   1.0000   1.0000
     1.0000   1.0000   1.0000   1.0000   1.0000   1.0000   1.0000   1.0000
     1.0000   1.0000   1.0000   1.0000   1.0000   1.0000   1.0000   1.0000
     1.0000   1.0000   1.0000   1.0000   1.0000   1.0000   1.0000   1.0000
     1.0000   1.0000   1.0000   1.0000   1.0000   1.0000   1.0000   1.0000
     1.0000   1.0000   1.0000   1.0000   1.0000   1.0000   1.0000   1.0000
     1.0000   1.0000   1.0000   1.0000   1.0000   1.0000   1.0000   1.0000
     1.0000   1.0000   1.0000   1.0000   1.0000   1.0000   1.0000   1.0000
     1.0000   1.0000   0.9977   0.9977   0.0000   0.0000   0.0000   0.0000
     0.0000   0.0000   0.0000   0.0000   0.0000   0.0000   0.0000   0.0000
     0.0000   0.0000   0.0000   0.0000   0.0000

[...]

          k = 0.3333-1.1182-0.6839 (  5589 PWs)   bands (ev):

   -62.7435 -62.7399 -62.3058 -36.1236 -33.0598 -32.7964 -32.6606 -32.6604
   -32.6565 -32.6563 -32.3644 -32.1498 -32.1496 -15.6564 -15.6115 -15.4101
   -15.3871 -10.7789 -10.7767 -10.7533  -7.4702  -7.0452  -6.9888  -6.8912
    -6.7428  -6.7054  -6.5242  -6.4561  -6.3864  -5.9604  -5.8454  -5.8386
    -0.9823  -0.9349  -0.8815  -0.8527  -0.7389  -0.6785  -0.6391  -0.6300
    -0.5930  -0.5516  -0.5091  -0.4819   4.8612   5.1666   5.4624   5.5774
     5.6150   5.7049   5.8085   5.9231   6.1009   6.1820   6.3487   6.4463
     6.5309   6.5618   7.0757   7.1605   7.3756   7.4266   7.5419   7.6475
     7.7979   7.9823   8.0040   8.3720   8.4168   8.4197   8.5720   8.6638
     8.6952   8.9500   8.9846   9.0118   9.1087   9.1655   9.2567   9.5759
    10.1398  10.7054  10.8128  10.8523  11.0267  11.0869  11.1721  11.2254
    11.2515  11.3004  11.3360  11.4179  11.4609  11.5269  11.6731  12.3393
    14.0664  14.0711  14.2042  14.3664  14.4031  14.7332  15.9558  16.0338
    16.0572  16.1290  16.5120  16.7505  16.8277

     occupation numbers
     1.0000   1.0000   1.0000   1.0000   1.0000   1.0000   1.0000   1.0000
     1.0000   1.0000   1.0000   1.0000   1.0000   1.0000   1.0000   1.0000
     1.0000   1.0000   1.0000   1.0000   1.0000   1.0000   1.0000   1.0000
     1.0000   1.0000   1.0000   1.0000   1.0000   1.0000   1.0000   1.0000
     1.0000   1.0000   1.0000   1.0000   1.0000   1.0000   1.0000   1.0000
     1.0000   1.0000   1.0000   1.0000   1.0000   1.0000   1.0000   1.0000
     1.0000   1.0000   1.0000   1.0000   1.0000   1.0000   1.0000   1.0000
     1.0000   1.0000   1.0000   1.0000   1.0000   1.0000   1.0000   1.0000
     1.0000   1.0000   1.0000   1.0000   1.0000   1.0000   1.0000   1.0000
     1.0000   1.0000   1.0000   1.0000   1.0000   1.0000   1.0000   1.0000
     1.0000   1.0000   1.0000   1.0000   1.0000   1.0000   1.0000   1.0000
     1.0000   1.0000   0.9981   0.0000   0.0000   0.0000   0.0000   0.0000
     0.0000   0.0000   0.0000   0.0000   0.0000   0.0000   0.0000   0.0000
     0.0000   0.0000   0.0000   0.0000   0.0000

     the Fermi energy is    11.3638 ev

!    total energy              =   -3696.70572255 Ry
     estimated scf accuracy    <       0.00000006 Ry
     smearing contrib. (-TS)   =      -0.00009499 Ry
     internal energy E=F+TS    =   -3696.70562755 Ry

     The total energy is F=E-TS. E is the sum of the following terms:
     one-electron contribution =    -800.95779300 Ry
     hartree contribution      =     496.17005648 Ry
     xc contribution           =    -262.50179953 Ry
     ewald contribution        =   -1026.89339328 Ry
     one-center paw contrib.   =   -2102.52269823 Ry
      -> PAW hartree energy AE =      85.78079095 Ry
      -> PAW hartree energy PS =     -85.44387180 Ry
      -> PAW xc energy AE      =   -1182.62758975 Ry
      -> PAW xc energy PS      =      57.42939114 Ry
      -> total E_H with PAW    =     496.50697563 Ry
      -> total E_XC with PAW   =   -1387.69999814 Ry

     convergence has been achieved in  42 iterations

     Writing all to output data dir energy_m/myprefix.save/

     General routines

     Parallel routines

     PAW routines

   This run was terminated on:  17:15: 6  16Jul2023

   JOB DONE.