     Program PWSCF v.7.0 starts on 21May2023 at  7:18:46

     Reading input from espresso_19823.pwi
Warning: card &CELL ignored
Warning: card / ignored

     Current dimensions of program PWSCF are:
     Max number of different atomic species (ntypx) = 10
     Max number of k-points (npk) =  40000
     Max angular momentum in pseudopotentials (lmaxx) =  4
     file O.pbe-n-kjpaw_psl.0.1.UPF: wavefunction(s)  2P renormalized

     gamma-point specific algorithms are used

     Subspace diagonalization in iterative solution of the eigenvalue problem:
     a serial algorithm will be used

     Using Slab Decomposition

     bravais-lattice index     =            0
     lattice parameter (alat)  =      10.3667  a.u.
     unit-cell volume          =    1608.4317 (a.u.)^3
     number of atoms/cell      =           20
     number of atomic types    =            3
     number of electrons       =       184.00
     number of Kohn-Sham states=          110
     kinetic-energy cutoff     =      30.0000  Ry
     charge density cutoff     =     240.0000  Ry
     scf convergence threshold =      1.0E-06
     mixing beta               =       0.7000
     number of iterations used =            8  plain     mixing
     Exchange-correlation= SLA  PW   PBX  PBC
                           (   1   4   3   4   0   0   0)

     celldm(1)=  10.366749  celldm(2)=   0.000000  celldm(3)=   0.000000
     celldm(4)=   0.000000  celldm(5)=   0.000000  celldm(6)=   0.000000

     crystal axes: (cart. coord. in units of alat)
               a(1) = (   1.000000   0.000000   0.000000 )
               a(2) = (  -0.016718   1.019021   0.000000 )
               a(3) = (  -0.042507  -0.000451   1.416745 )

     reciprocal axes: (cart. coord. in units 2 pi/alat)
               b(1) = (  1.000000  0.016406  0.030008 )
               b(2) = (  0.000000  0.981334  0.000312 )
               b(3) = (  0.000000  0.000000  0.705843 )

     PseudoPot. # 1 for La read from file:
     /home/pragov/projects/rrg-bengioy-ad/pragov/crystal_structure_design/SSSP/La.GGA-PBE-paw-v1.0.UPF
     MD5 check sum: 436541e95c1ad8901025bd0b0ed42ae2
     Pseudo is Projector augmented-wave + core cor, Zval = 11.0
     Generated using ATOMPAW code
     Shape of augmentation charge: BESSEL
     Using radial grid of 1101 points,  8 beta functions with:
                l(1) =   0
                l(2) =   0
                l(3) =   1
                l(4) =   1
                l(5) =   2
                l(6) =   2
                l(7) =   3
                l(8) =   3
     Q(r) pseudized with 0 coefficients

     PseudoPot. # 2 for Co read from file:
     /home/pragov/projects/rrg-bengioy-ad/pragov/crystal_structure_design/SSSP/Co_pbe_v1.2.uspp.F.UPF
     MD5 check sum: 5f91765df6ddd3222702df6e7b74a16d
     Pseudo is Ultrasoft + core correction, Zval = 17.0
     Generated by new atomic code, or converted to UPF format
     Using radial grid of  863 points,  6 beta functions with:
                l(1) =   0
                l(2) =   0
                l(3) =   1
                l(4) =   1
                l(5) =   2
                l(6) =   2
     Q(r) pseudized with  8 coefficients,  rinner =    1.200   1.200   1.200
                                                       1.200   1.200

     PseudoPot. # 3 for O  read from file:
     /home/pragov/projects/rrg-bengioy-ad/pragov/crystal_structure_design/SSSP/O.pbe-n-kjpaw_psl.0.1.UPF
     MD5 check sum: 0234752ac141de4415c5fc33072bef88
     Pseudo is Projector augmented-wave + core cor, Zval =  6.0
     Generated using "atomic" code by A. Dal Corso  v.5.0.99 svn rev. 10869
     Shape of augmentation charge: BESSEL
     Using radial grid of 1095 points,  4 beta functions with:
                l(1) =   0
                l(2) =   0
                l(3) =   1
                l(4) =   1
     Q(r) pseudized with 0 coefficients

     atomic species   valence    mass     pseudopotential
        La            11.00   138.90547     La( 1.00)
        Co            17.00    58.93319     Co( 1.00)
        O              6.00    15.99900     O ( 1.00)

     No symmetry found

                                    s                        frac. trans.

      isym =  1     identity

 cryst.   s( 1) = (     1          0          0      )
                  (     0          1          0      )
                  (     0          0          1      )

 cart.    s( 1) = (  1.0000000  0.0000000 -0.0000000 )
                  (  0.0000000  1.0000000  0.0000000 )
                  (  0.0000000  0.0000000  1.0000000 )

   Cartesian axes

     site n.     atom                  positions (alat units)
         1           La  tau(   1) = (   0.2137463   0.7618623   0.7059487  )
         2           La  tau(   2) = (   0.7467553   0.2583032   0.0007948  )
         3           La  tau(   3) = (   0.7236329   0.2509889   0.7075807  )
         4           La  tau(   4) = (   0.2399219   0.7664416   0.0024184  )
         5           Co  tau(   5) = (   0.2351937   0.2546425   0.3541864  )
         6           Co  tau(   6) = (   0.7055811   0.7639254   1.0625591  )
         7           Co  tau(   7) = (   0.2139403   0.2544150   1.0625591  )
         8           Co  tau(   8) = (   0.7268345   0.7641530   0.3541864  )
         9           O   tau(   9) = (   0.9515161   0.0207182   0.4050206  )
        10           O   tau(  10) = (   0.4320466   0.5514246   1.1050756  )
        11           O   tau(  11) = (  -0.0208845   0.9764283   1.0200454  )
        12           O   tau(  12) = (   0.5188742   0.4885709   0.3033521  )
        13           O   tau(  13) = (   0.7273958   0.6899088   0.6976508  )
        14           O   tau(  14) = (   0.2062322   0.1891224   1.4108730  )
        15           O   tau(  15) = (   0.2216491   0.3197116   0.7142536  )
        16           O   tau(  16) = (   0.7262763   0.8383920   0.0107219  )
        17           O   tau(  17) = (   0.5010590   0.0330093   1.0111312  )
        18           O   tau(  18) = (   0.0051004   0.5505961   0.3050267  )
        19           O   tau(  19) = (   0.4485647   0.9777078   0.4033460  )
        20           O   tau(  20) = (   0.9268187   0.4758237   1.1139827  )

   Crystallographic axes

     site n.     atom                  positions (cryst. coord.)
         1           La  tau(   1) = (  0.2474300  0.7478620  0.4982890  )
         2           La  tau(   2) = (  0.7510170  0.2534820  0.0005610  )
         3           La  tau(   3) = (  0.7489840  0.2465250  0.4994410  )
         4           La  tau(   4) = (  0.2525690  0.7521360  0.0017070  )
         5           Co  tau(   5) = (  0.2500000  0.2500000  0.2500000  )
         6           Co  tau(   6) = (  0.7500000  0.7499980  0.7500000  )
         7           Co  tau(   7) = (  0.2500000  0.2499980  0.7500000  )
         8           Co  tau(   8) = (  0.7500000  0.7500000  0.2500000  )
         9           O   tau(   9) = (  0.9640100  0.0204580  0.2858810  )
        10           O   tau(  10) = (  0.4742550  0.5414770  0.7800100  )
        11           O   tau(  11) = (  0.0257450  0.9585210  0.7199920  )
        12           O   tau(  12) = (  0.5359930  0.4795460  0.2141190  )
        13           O   tau(  13) = (  0.7596500  0.6772490  0.4924320  )
        14           O   tau(  14) = (  0.2516730  0.1860330  0.9958550  )
        15           O   tau(  15) = (  0.2483280  0.3139670  0.5041510  )
        16           O   tau(  16) = (  0.7403530  0.8227460  0.0075680  )
        17           O   tau(  17) = (  0.5319430  0.0327090  0.7137000  )
        18           O   tau(  18) = (  0.0232870  0.5404140  0.2153010  )
        19           O   tau(  19) = (  0.4767090  0.9595840  0.2846990  )
        20           O   tau(  20) = (  0.9680540  0.4672900  0.7862970  )

     number of k points=     1  Methfessel-Paxton smearing, width (Ry)=  0.0010
                       cart. coord. in units 2pi/alat
        k(    1) = (   0.0000000   0.0000000   0.0000000), wk =   2.0000000

                       cryst. coord.
        k(    1) = (   0.0000000   0.0000000   0.0000000), wk =   2.0000000

     Check: negative core charge=   -0.000018

     Initial potential from superposition of free atoms

     starting charge     179.9658, renormalised to     184.0000
     Starting wfcs are  228 randomized atomic wfcs
     Checking if some PAW data can be deallocated...

     Self-consistent Calculation

     iteration #  1     ecut=    30.00 Ry     beta= 0.70
     Davidson diagonalization with overlap

     ethr =  1.00E-02,  avg # of iterations =  2.0

     total energy              =   -3504.55544159 Ry
     estimated scf accuracy    <      29.40447117 Ry

[...]

     c_bands:  1 eigenvalues not converged
     ethr =  1.72E-07,  avg # of iterations = 20.0

[...]

     total energy              =   -3527.10832386 Ry
     estimated scf accuracy    <       0.00000169 Ry

     iteration # 42     ecut=    30.00 Ry     beta= 0.70
     Davidson diagonalization with overlap

     ethr =  9.20E-10,  avg # of iterations =  2.0

     End of self-consistent calculation

          k = 0.0000 0.0000 0.0000 (  2220 PWs)   bands (ev):

   -83.0087 -82.7994 -82.7821 -82.6269 -46.3853 -46.2375 -46.2282 -46.1402
   -46.0872 -46.0780 -46.0400 -45.9789 -45.9076 -45.8288 -45.8205 -45.6826
   -18.8542 -18.7847 -18.7311 -18.6775  -6.6527  -6.0526  -5.9776  -5.7649
    -5.4381  -5.4248  -5.3910  -5.3432  -5.2694  -5.0160  -4.9644  -4.8783
    -2.9098  -2.4293  -2.4139  -2.3529  -2.3183  -2.2777  -2.2220  -2.1976
    -2.1605  -1.8840  -1.6773  -1.4699   5.9220   6.4697   7.0097   7.0985
     7.5639   7.6191   7.6743   7.7411   7.8714   8.1603   8.1824   8.3474
     8.4118   8.4538   8.4642   8.4860   8.5831   8.6954   9.0304   9.1473
     9.2133   9.3223   9.7940  10.0246  10.1690  10.2448  10.2917  10.2991
    10.3135  10.5092  10.6499  10.6864  10.8986  11.0319  11.0526  11.0771
    11.1748  11.2376  11.3296  11.3392  11.8119  11.9371  11.9940  12.0922
    12.1472  12.3499  12.4988  12.6303  12.6318  12.7557  12.8195  13.0238
    13.8579  15.3095  15.3614  15.4766  15.7862  15.8836  16.0749  16.0970
    16.1360  16.1433  16.1609  16.2140  16.2159  16.2354

     occupation numbers
     1.0000   1.0000   1.0000   1.0000   1.0000   1.0000   1.0000   1.0000
     1.0000   1.0000   1.0000   1.0000   1.0000   1.0000   1.0000   1.0000
     1.0000   1.0000   1.0000   1.0000   1.0000   1.0000   1.0000   1.0000
     1.0000   1.0000   1.0000   1.0000   1.0000   1.0000   1.0000   1.0000
     1.0000   1.0000   1.0000   1.0000   1.0000   1.0000   1.0000   1.0000
     1.0000   1.0000   1.0000   1.0000   1.0000   1.0000   1.0000   1.0000
     1.0000   1.0000   1.0000   1.0000   1.0000   1.0000   1.0000   1.0000
     1.0000   1.0000   1.0000   1.0000   1.0000   1.0000   1.0000   1.0000
     1.0000   1.0000   1.0000   1.0000   1.0000   1.0000   1.0000   1.0000
     1.0000   1.0000   1.0000   1.0000   1.0000   1.0000   1.0000   1.0000
     1.0000   1.0000   1.0000   1.0000   1.0000   1.0000   1.0000   1.0000
     1.0000   1.0000   1.0000   0.5446   0.4554  -0.0000  -0.0000  -0.0000
    -0.0000  -0.0000  -0.0000  -0.0000  -0.0000  -0.0000  -0.0000  -0.0000
    -0.0000  -0.0000  -0.0000  -0.0000  -0.0000  -0.0000

     the Fermi energy is    12.6310 ev

!    total energy              =   -3527.10832324 Ry
     estimated scf accuracy    <       0.00000085 Ry
     smearing contrib. (-TS)   =      -0.00055948 Ry
     internal energy E=F+TS    =   -3527.10776377 Ry

     The total energy is F=E-TS. E is the sum of the following terms:
     one-electron contribution =    -992.00926759 Ry
     hartree contribution      =     619.62710852 Ry
     xc contribution           =    -254.73937119 Ry
     ewald contribution        =   -1193.27410129 Ry
     one-center paw contrib.   =   -1706.71213222 Ry
      -> PAW hartree energy AE =     490.06324312 Ry
      -> PAW hartree energy PS =    -489.02220454 Ry
      -> PAW xc energy AE      =   -1826.70244704 Ry
      -> PAW xc energy PS      =     118.94927624 Ry
      -> total E_H with PAW    =     620.66814710 Ry
      -> total E_XC with PAW   =   -1962.49254199 Ry

     convergence has been achieved in  42 iterations

     Forces acting on atoms (cartesian axes, Ry/au):

     atom    1 type  1   force =    -0.00664204    0.00689563    0.00757682
     atom    2 type  1   force =    -0.00214883    0.00270348    0.00130213
     atom    3 type  1   force =     0.00215542   -0.00269453   -0.00129881
     atom    4 type  1   force =     0.00662800   -0.00690403   -0.00756652
     atom    5 type  2   force =     0.00000530    0.00002722    0.00004967
     atom    6 type  2   force =    -0.00008104    0.00005900    0.00008477
     atom    7 type  2   force =     0.00007251   -0.00002239   -0.00010510
     atom    8 type  2   force =    -0.00000200   -0.00002731   -0.00007461
     atom    9 type  3   force =     0.01984347    0.04860277    0.02543887
     atom   10 type  3   force =    -0.03405935   -0.00178285    0.02530486
     atom   11 type  3   force =     0.03406124    0.00177330   -0.02527323
     atom   12 type  3   force =    -0.01985292   -0.04859782   -0.02546458
     atom   13 type  3   force =     0.00326073   -0.04934218    0.02656386
     atom   14 type  3   force =     0.00299886   -0.04966764    0.01602705
     atom   15 type  3   force =    -0.00300184    0.04965883   -0.01605604
     atom   16 type  3   force =    -0.00325264    0.04932786   -0.02653272
     atom   17 type  3   force =     0.00927939    0.01309709   -0.01963050
     atom   18 type  3   force =     0.04219263   -0.01453479   -0.02493949
     atom   19 type  3   force =    -0.04218128    0.01453436    0.02492405
     atom   20 type  3   force =    -0.00927561   -0.01310599    0.01966954
     The non-local contrib.  to forces
     atom    1 type  1   force =     0.00534892   -0.03174640    0.00512115
     atom    2 type  1   force =    -0.00831132   -0.03836264    0.00135752
     atom    3 type  1   force =     0.00832334    0.03834603   -0.00136491
     atom    4 type  1   force =    -0.00536413    0.03175254   -0.00510898
     atom    5 type  2   force =     0.00003301    0.00006507    0.00010027
     atom    6 type  2   force =    -0.00005014    0.00004068    0.00005966
     atom    7 type  2   force =     0.00003551   -0.00003073   -0.00006739
     atom    8 type  2   force =    -0.00000047    0.00000297   -0.00004199
     atom    9 type  3   force =     0.10023693   -0.11703884   -0.12180280
     atom   10 type  3   force =     0.18056633   -0.08857005   -0.09210624
     atom   11 type  3   force =    -0.18055401    0.08857020    0.09215134
     atom   12 type  3   force =    -0.10022857    0.11707402    0.12182471
     atom   13 type  3   force =    -0.05585172    0.39553985   -0.03006271
     atom   14 type  3   force =    -0.00852035    0.36541131   -0.00174746
     atom   15 type  3   force =     0.00848915   -0.36540718    0.00177127
     atom   16 type  3   force =     0.05587271   -0.39567489    0.03006160
     atom   17 type  3   force =    -0.09629898   -0.08815498    0.07097110
     atom   18 type  3   force =    -0.10061249   -0.07563141    0.06572236
     atom   19 type  3   force =     0.10061676    0.07563833   -0.06569831
     atom   20 type  3   force =     0.09625489    0.08816843   -0.07090777
     The ionic contribution  to forces
     atom    1 type  1   force =     0.47479862    0.07813152    0.53208820
     atom    2 type  1   force =    -0.04498552   -0.26735573   -0.12022558
     atom    3 type  1   force =     0.04482775    0.26607283    0.11992324
     atom    4 type  1   force =    -0.47466085   -0.07787737   -0.53170161
     atom    5 type  2   force =     0.00036533    0.00025350    0.00052208
     atom    6 type  2   force =    -0.00028571    0.00075304   -0.00012879
     atom    7 type  2   force =    -0.00008111   -0.00018436    0.00077217
     atom    8 type  2   force =     0.00003600    0.00102377    0.00022659
     atom    9 type  3   force =     0.71683820    3.00889885    1.68641790
     atom   10 type  3   force =    -2.58339601   -0.19045846    1.39043386
     atom   11 type  3   force =     2.58312652    0.19042757   -1.39042688
     atom   12 type  3   force =    -0.71767629   -3.00951993   -1.68635407
     atom   13 type  3   force =     0.09820062   -2.68255094    2.27026030
     atom   14 type  3   force =     0.04656059   -2.10559699    1.11708053
     atom   15 type  3   force =    -0.04641919    2.10555799   -1.11845846
     atom   16 type  3   force =    -0.09820004    2.68307976   -2.27036659
     atom   17 type  3   force =     0.91288279    0.99267752   -1.47181371
     atom   18 type  3   force =     2.80597565   -0.93226659   -1.63083588
     atom   19 type  3   force =    -2.80561958    0.93217265    1.63079785
     atom   20 type  3   force =    -0.91228778   -0.99323864    1.47178884
     The local contribution  to forces
     atom    1 type  1   force =    -0.48683847   -0.03952959   -0.53006715
     atom    2 type  1   force =     0.05122235    0.30837542    0.12062321
     atom    3 type  1   force =    -0.05098958   -0.30702126   -0.12035223
     atom    4 type  1   force =     0.48663233    0.03926027    0.52965429
     atom    5 type  2   force =    -0.00041785   -0.00035826   -0.00059705
     atom    6 type  2   force =     0.00046237   -0.00088752   -0.00002616
     atom    7 type  2   force =    -0.00007448    0.00027313   -0.00065523
     atom    8 type  2   force =    -0.00002850   -0.00098520   -0.00004997
     atom    9 type  3   force =    -0.79483806   -2.84434177   -1.54122585
     atom   10 type  3   force =     2.37117470    0.27564552   -1.27464680
     atom   11 type  3   force =    -2.37093449   -0.27564407    1.27458243
     atom   12 type  3   force =     0.79564933    2.84491744    1.54115884
     atom   13 type  3   force =    -0.03993823    2.24341897   -2.21348979
     atom   14 type  3   force =    -0.03526761    1.69593872   -1.09832974
     atom   15 type  3   force =     0.03509768   -1.69588075    1.09964861
     atom   16 type  3   force =     0.03996146   -2.24379574    2.21364570
     atom   17 type  3   force =    -0.80877017   -0.89307352    1.38272139
     atom   18 type  3   force =    -2.66418249    0.99120851    1.54151972
     atom   19 type  3   force =     2.66384769   -0.99112337   -1.54149334
     atom   20 type  3   force =     0.80825387    0.89361804   -1.38275024
     The core correction contribution to forces
     atom    1 type  1   force =     0.00002693    0.00005200   -0.00000729
     atom    2 type  1   force =     0.00001029    0.00005218   -0.00000090
     atom    3 type  1   force =    -0.00001029   -0.00005214    0.00000089
     atom    4 type  1   force =    -0.00002693   -0.00005203    0.00000729
     atom    5 type  2   force =    -0.00000062    0.00000108   -0.00001420
     atom    6 type  2   force =     0.00000051   -0.00000127    0.00001110
     atom    7 type  2   force =     0.00000018    0.00000169    0.00000695
     atom    8 type  2   force =    -0.00000011   -0.00000170   -0.00000259
     atom    9 type  3   force =    -0.00190393    0.00151517    0.00204517
     atom   10 type  3   force =    -0.00233729    0.00176472    0.00157280
     atom   11 type  3   force =     0.00233713   -0.00176451   -0.00157221
     atom   12 type  3   force =     0.00190393   -0.00151562   -0.00204358
     atom   13 type  3   force =     0.00085319   -0.00580114   -0.00002101
     atom   14 type  3   force =     0.00015467   -0.00537844   -0.00020374
     atom   15 type  3   force =    -0.00015437    0.00537840    0.00019378
     atom   16 type  3   force =    -0.00085337    0.00580142    0.00002535
     atom   17 type  3   force =     0.00165324    0.00156763   -0.00151016
     atom   18 type  3   force =     0.00139005    0.00162294   -0.00134164
     atom   19 type  3   force =    -0.00139008   -0.00162275    0.00134598
     atom   20 type  3   force =    -0.00165292   -0.00156804    0.00150826
     The Hubbard contrib.    to forces
     atom    1 type  1   force =     0.00000000    0.00000000    0.00000000
     atom    2 type  1   force =     0.00000000    0.00000000    0.00000000
     atom    3 type  1   force =     0.00000000    0.00000000    0.00000000
     atom    4 type  1   force =     0.00000000    0.00000000    0.00000000
     atom    5 type  2   force =     0.00000000    0.00000000    0.00000000
     atom    6 type  2   force =     0.00000000    0.00000000    0.00000000
     atom    7 type  2   force =     0.00000000    0.00000000    0.00000000
     atom    8 type  2   force =     0.00000000    0.00000000    0.00000000
     atom    9 type  3   force =     0.00000000    0.00000000    0.00000000
     atom   10 type  3   force =     0.00000000    0.00000000    0.00000000
     atom   11 type  3   force =     0.00000000    0.00000000    0.00000000
     atom   12 type  3   force =     0.00000000    0.00000000    0.00000000
     atom   13 type  3   force =     0.00000000    0.00000000    0.00000000
     atom   14 type  3   force =     0.00000000    0.00000000    0.00000000
     atom   15 type  3   force =     0.00000000    0.00000000    0.00000000
     atom   16 type  3   force =     0.00000000    0.00000000    0.00000000
     atom   17 type  3   force =     0.00000000    0.00000000    0.00000000
     atom   18 type  3   force =     0.00000000    0.00000000    0.00000000
     atom   19 type  3   force =     0.00000000    0.00000000    0.00000000
     atom   20 type  3   force =     0.00000000    0.00000000    0.00000000
     The SCF correction term to forces
     atom    1 type  1   force =     0.00002184   -0.00001120    0.00043918
     atom    2 type  1   force =    -0.00008475   -0.00000505   -0.00045484
     atom    3 type  1   force =     0.00000409   -0.00003928    0.00049149
     atom    4 type  1   force =     0.00004747    0.00001326   -0.00042024
     atom    5 type  2   force =     0.00002530    0.00006653    0.00003584
     atom    6 type  2   force =    -0.00020819    0.00015478    0.00016624
     atom    7 type  2   force =     0.00019228   -0.00008141   -0.00016431
     atom    8 type  2   force =    -0.00000902   -0.00006645   -0.00020937
     atom    9 type  3   force =    -0.00048979   -0.00042993    0.00000172
     atom   10 type  3   force =    -0.00006720   -0.00016388    0.00004851
     atom   11 type  3   force =     0.00008598    0.00018482   -0.00001063
     atom   12 type  3   force =     0.00049857    0.00044697   -0.00005321
     atom   13 type  3   force =    -0.00000325    0.00005180   -0.00012565
     atom   14 type  3   force =     0.00007145   -0.00004153   -0.00077526
     atom   15 type  3   force =    -0.00001523    0.00001108    0.00078604
     atom   16 type  3   force =    -0.00003352   -0.00008199    0.00009849
     atom   17 type  3   force =    -0.00018762    0.00008115   -0.00000183
     atom   18 type  3   force =    -0.00037821    0.00053246   -0.00000677
     atom   19 type  3   force =     0.00036382   -0.00052979   -0.00003084
     atom   20 type  3   force =     0.00015620   -0.00008507    0.00002773

     Total force =     0.170339     Total SCF correction =     0.002044

     Computing stress (Cartesian axis) and pressure

          total   stress  (Ry/bohr**3)                   (kbar)     P=     -527.43
  -0.00329540   0.00008504   0.00005953         -484.77       12.51        8.76
   0.00008504  -0.00321034   0.00000458           12.51     -472.26        0.67
   0.00005953   0.00000458  -0.00425052            8.76        0.67     -625.27

     kinetic stress (kbar)  27447.88     19.42     62.89
                               19.42  27305.87     -3.46
                               62.89     -3.46  27050.98

     local   stress (kbar) -13875.20  -1056.24   1830.00
                            -1056.24 -15653.95    412.69
                             1830.00    412.69 -14980.65

     nonloc. stress (kbar)  11869.41     -4.47     55.26
                               -4.47  11782.91      5.27
                               55.26      5.27  11726.92

     hartree stress (kbar)  18472.33    398.58   -695.18
                              398.58  19172.50   -140.13
                             -695.18   -140.13  19025.46

     exc-cor stress (kbar)  -5956.96      1.56     -2.48
                                1.56  -5953.95     -0.69
                               -2.48     -0.69  -5955.06

     corecor stress (kbar)  -1309.97     -0.10     -0.66
                               -0.10  -1308.55      0.01
                               -0.66      0.01  -1306.96

     ewald   stress (kbar) -37132.25    653.76  -1241.08
                              653.76 -35817.08   -273.02
                            -1241.08   -273.02 -36185.96

     hubbard stress (kbar)      0.00      0.00      0.00
                                0.00      0.00      0.00
                                0.00      0.00      0.00

     DFT-D   stress (kbar)      0.00      0.00      0.00
                                0.00      0.00      0.00
                                0.00      0.00      0.00

     XDM     stress (kbar)      0.00      0.00      0.00
                                0.00      0.00      0.00
                                0.00      0.00      0.00

     dft-nl  stress (kbar)      0.00      0.00      0.00
                                0.00      0.00      0.00
                                0.00      0.00      0.00

     TS-vdW  stress (kbar)      0.00      0.00      0.00
                                0.00      0.00      0.00
                                0.00      0.00      0.00

[...]

                                0.00      0.00      0.00

     Writing all to output data dir new_calculations/myprefix.save/

     General routines

     Parallel routines

     PAW routines

   This run was terminated on:   7:21: 3  21May2023

   JOB DONE.