     Program PWSCF v.7.0 starts on 20May2023 at  3:13:33

     Reading input from espresso_15011.pwi
Warning: card &CELL ignored
Warning: card / ignored

     Current dimensions of program PWSCF are:
     Max number of different atomic species (ntypx) = 10
     Max number of k-points (npk) =  40000
     Max angular momentum in pseudopotentials (lmaxx) =  4

     gamma-point specific algorithms are used
     Message from routine setup:
     using ibrav=0 with symmetry is DISCOURAGED, use correct ibrav instead

     Subspace diagonalization in iterative solution of the eigenvalue problem:
     a serial algorithm will be used

     Using Slab Decomposition

     bravais-lattice index     =            0
     lattice parameter (alat)  =       6.6691  a.u.
     unit-cell volume          =     612.6504 (a.u.)^3
     number of atoms/cell      =            6
     number of atomic types    =            2
     number of electrons       =        60.00
     number of Kohn-Sham states=           36
     kinetic-energy cutoff     =      30.0000  Ry
     charge density cutoff     =     240.0000  Ry
     scf convergence threshold =      1.0E-06
     mixing beta               =       0.7000
     number of iterations used =            8  plain     mixing
     Exchange-correlation=  SLA  PW   PBX  PBC
                           (   1   4   3   4   0   0   0)

     celldm(1)=   6.669150  celldm(2)=   0.000000  celldm(3)=   0.000000
     celldm(4)=   0.000000  celldm(5)=   0.000000  celldm(6)=   0.000000

     crystal axes: (cart. coord. in units of alat)
               a(1) = (   1.000000   0.000000   0.000000 )
               a(2) = (   0.000000   1.299524   0.000000 )
               a(3) = (   0.000000   0.000000   1.589341 )

     reciprocal axes: (cart. coord. in units 2 pi/alat)
               b(1) = (  1.000000  0.000000  0.000000 )
               b(2) = (  0.000000  0.769513  0.000000 )
               b(3) = (  0.000000  0.000000  0.629192 )

     PseudoPot. # 1 for Ni read from file:
     /home/pragov/projects/rrg-bengioy-ad/pragov/crystal_structure_design/SSSP/ni_pbe_v1.4.uspp.F.UPF
     MD5 check sum: 1ee80287db30b12d2bc1f57a5b5d6409
     Pseudo is Ultrasoft + core correction, Zval = 18.0
     Generated by new atomic code, or converted to UPF format
     Using radial grid of  865 points,  6 beta functions with:
                l(1) =   0
                l(2) =   0
                l(3) =   1
                l(4) =   1
                l(5) =   2
                l(6) =   2
     Q(r) pseudized with 10 coefficients,  rinner =    0.980   0.980   0.980
                                                       0.980   0.980

     PseudoPot. # 2 for S  read from file:
     /home/pragov/projects/rrg-bengioy-ad/pragov/crystal_structure_design/SSSP/s_pbe_v1.4.uspp.F.UPF
     MD5 check sum: 88d86576ff6df21479756cfb9bdac1df
     Pseudo is Ultrasoft + core correction, Zval =  6.0
     Generated by new atomic code, or converted to UPF format
     Using radial grid of  907 points,  6 beta functions with:
                l(1) =   0
                l(2) =   0
                l(3) =   1
                l(4) =   1
                l(5) =   2
                l(6) =   2
     Q(r) pseudized with  8 coefficients,  rinner =    1.300   1.300   1.300
                                                       1.300   1.300

     atomic species   valence    mass     pseudopotential
        Ni            18.00    58.69340     Ni( 1.00)
        S              6.00    32.06000     S ( 1.00)

      8 Sym. Ops., with inversion, found ( 4 have fractional translation)

                                    s                        frac. trans.

      isym =  1     identity

 cryst.   s( 1) = (     1          0          0      )
                  (     0          1          0      )
                  (     0          0          1      )

 cart.    s( 1) = (  1.0000000  0.0000000  0.0000000 )
                  (  0.0000000  1.0000000  0.0000000 )
                  (  0.0000000  0.0000000  1.0000000 )

      isym =  2     180 deg rotation - cart. axis [0,0,1]

 cryst.   s( 2) = (    -1          0          0      )    f =(  0.5000000 )
                  (     0         -1          0      )       (  0.5000000 )
                  (     0          0          1      )       (  0.5000000 )

 cart.    s( 2) = ( -1.0000000  0.0000000  0.0000000 )    f =(  0.5000000 )
                  (  0.0000000 -1.0000000  0.0000000 )       (  0.6497619 )
                  (  0.0000000  0.0000000  1.0000000 )       (  0.7946705 )

[...]

      isym =  4     180 deg rotation - cart. axis [1,0,0]

[...]

      isym =  5     inversion

[...]

      isym =  6     inv. 180 deg rotation - cart. axis [0,0,1]

[...]

 cryst.   s( 7) = (     1          0          0      )    f =(  0.5000000 )
                  (     0         -1          0      )       (  0.5000000 )
                  (     0          0          1      )       (  0.5000000 )

 cart.    s( 7) = (  1.0000000  0.0000000  0.0000000 )    f =(  0.5000000 )
                  (  0.0000000 -1.0000000  0.0000000 )       (  0.6497619 )
                  (  0.0000000  0.0000000  1.0000000 )       (  0.7946705 )

      isym =  8     inv. 180 deg rotation - cart. axis [1,0,0]

 cryst.   s( 8) = (    -1          0          0      )
                  (     0          1          0      )
                  (     0          0          1      )

 cart.    s( 8) = ( -1.0000000  0.0000000  0.0000000 )
                  (  0.0000000  1.0000000  0.0000000 )
                  (  0.0000000  0.0000000  1.0000000 )

   Cartesian axes

     site n.     atom                  positions (alat units)
         1           Ni  tau(   1) = (   0.5000000   0.6497619   0.7946705  )
         2           Ni  tau(   2) = (   0.0000000   0.0000000   0.0000000  )
         3           S   tau(   3) = (   0.5000000   0.4113474   1.4133215  )
         4           S   tau(   4) = (   0.0000000   0.2384145   0.6186510  )
         5           S   tau(   5) = (   0.0000000   1.0611093   0.9706900  )
         6           S   tau(   6) = (   0.5000000   0.8881764   0.1760195  )

   Crystallographic axes

     site n.     atom                  positions (cryst. coord.)
         1           Ni  tau(   1) = (  0.5000000  0.5000000  0.5000000  )
         2           Ni  tau(   2) = (  0.0000000  0.0000000  0.0000000  )
         3           S   tau(   3) = (  0.5000000  0.3165370  0.8892500  )
         4           S   tau(   4) = (  0.0000000  0.1834630  0.3892500  )
         5           S   tau(   5) = (  0.0000000  0.8165370  0.6107500  )
         6           S   tau(   6) = (  0.5000000  0.6834630  0.1107500  )

     number of k points=     1  Methfessel-Paxton smearing, width (Ry)=  0.0010
                       cart. coord. in units 2pi/alat
        k(    1) = (   0.0000000   0.0000000   0.0000000), wk =   2.0000000

                       cryst. coord.
        k(    1) = (   0.0000000   0.0000000   0.0000000), wk =   2.0000000

     Check: negative core charge=   -0.000005

     Initial potential from superposition of free atoms

     starting charge      55.9999, renormalised to      60.0000
     Starting wfcs are   42 randomized atomic wfcs

     Self-consistent Calculation

     iteration #  1     ecut=    30.00 Ry     beta= 0.70
     Davidson diagonalization with overlap

     ethr =  1.00E-02,  avg # of iterations =  8.0

     total energy              =    -712.91099660 Ry
     estimated scf accuracy    <      93.52322253 Ry

[...]

     total energy              =    -782.51957398 Ry
     estimated scf accuracy    <       0.00000181 Ry

     iteration # 38     ecut=    30.00 Ry     beta= 0.70
     Davidson diagonalization with overlap

     ethr =  3.02E-09,  avg # of iterations =  1.0

     End of self-consistent calculation

          k = 0.0000 0.0000 0.0000 (   854 PWs)   bands (ev):

   -92.4594 -92.4568 -53.1858 -53.1784 -52.6877 -52.6844 -52.5694 -52.5615
    -5.9077  -4.2898  -1.3276  -0.8788   3.4370   4.4688   5.2009   5.4350
     6.4397   6.7790   7.0175   7.3536   7.3769   8.4356   8.7877   8.9882
     9.1376   9.2832   9.5208   9.5552  10.9000  12.4085  12.4218  12.6408
    12.7375  13.7799  15.0243  16.4187

     occupation numbers
     1.0000   1.0000   1.0000   1.0000   1.0000   1.0000   1.0000   1.0000
     1.0000   1.0000   1.0000   1.0000   1.0000   1.0000   1.0000   1.0000
     1.0000   1.0000   1.0000   1.0000   1.0000   1.0000   1.0000   1.0000
     1.0000   1.0000   1.0000   1.0000   1.0000   0.8644   0.1356  -0.0000
    -0.0000  -0.0000  -0.0000  -0.0000

     the Fermi energy is    12.4152 ev

!    total energy              =    -782.51957399 Ry
     estimated scf accuracy    <       0.00000002 Ry
     smearing contrib. (-TS)   =      -0.00023106 Ry
     internal energy E=F+TS    =    -782.51934293 Ry

     The total energy is F=E-TS. E is the sum of the following terms:
     one-electron contribution =    -575.32214878 Ry
     hartree contribution      =     317.22430667 Ry
     xc contribution           =    -105.10205635 Ry
     ewald contribution        =    -419.31944447 Ry

     convergence has been achieved in  38 iterations

     Forces acting on atoms (cartesian axes, Ry/au):

     atom    1 type  1   force =     0.00000000    0.00000000    0.00000000
     atom    2 type  1   force =     0.00000000    0.00000000    0.00000000
     atom    3 type  2   force =    -0.00000000    0.07710238    0.01432843
     atom    4 type  2   force =    -0.00000000   -0.07710238    0.01432843
     atom    5 type  2   force =     0.00000000    0.07710238   -0.01432843
     atom    6 type  2   force =     0.00000000   -0.07710238   -0.01432843
     The non-local contrib.  to forces
     atom    1 type  1   force =     0.00000000    0.00000000    0.00000000
     atom    2 type  1   force =     0.00000000   -0.00000000    0.00000000
     atom    3 type  2   force =     0.00000000    0.07363410    0.13259501
     atom    4 type  2   force =    -0.00000000   -0.07363410    0.13259501
     atom    5 type  2   force =     0.00000000    0.07363410   -0.13259501
     atom    6 type  2   force =     0.00000000   -0.07363410   -0.13259501
     The ionic contribution  to forces
     atom    1 type  1   force =    -0.00000000   -0.00000000    0.00000000
     atom    2 type  1   force =    -0.00000000    0.00000000   -0.00000000
     atom    3 type  2   force =     0.00000000    2.18815349    0.65576856
     atom    4 type  2   force =    -0.00000000   -2.18815349    0.65576856
     atom    5 type  2   force =     0.00000000    2.18815349   -0.65576856
     atom    6 type  2   force =     0.00000000   -2.18815349   -0.65576856
     The local contribution  to forces
     atom    1 type  1   force =    -0.00000039    0.00001468   -0.00000459
     atom    2 type  1   force =     0.00000032   -0.00001006    0.00000164
     atom    3 type  2   force =     0.00000017   -2.18136568   -0.76684071
     atom    4 type  2   force =     0.00000023    2.18136999   -0.76684129
     atom    5 type  2   force =    -0.00000252   -2.18137508    0.76684035
     atom    6 type  2   force =    -0.00000251    2.18136793    0.76684288
     The core correction contribution to forces
     atom    1 type  1   force =    -0.00000002    0.00000002    0.00000006
     atom    2 type  1   force =    -0.00000001   -0.00000004    0.00000005
     atom    3 type  2   force =    -0.00000001   -0.00332100   -0.00721216
     atom    4 type  2   force =    -0.00000002    0.00332096   -0.00721197
     atom    5 type  2   force =    -0.00000009   -0.00332102    0.00721204
     atom    6 type  2   force =    -0.00000009    0.00332091    0.00721207
     The Hubbard contrib.    to forces
     atom    1 type  1   force =     0.00000000    0.00000000    0.00000000
     atom    2 type  1   force =     0.00000000    0.00000000    0.00000000
     atom    3 type  2   force =     0.00000000    0.00000000    0.00000000
     atom    4 type  2   force =     0.00000000    0.00000000    0.00000000
     atom    5 type  2   force =     0.00000000    0.00000000    0.00000000
     atom    6 type  2   force =     0.00000000    0.00000000    0.00000000
     The SCF correction term to forces
     atom    1 type  1   force =     0.00000049   -0.00001884    0.00001452
     atom    2 type  1   force =    -0.00000012    0.00000984   -0.00000104
     atom    3 type  2   force =    -0.00000002    0.00000118    0.00001716
     atom    4 type  2   force =    -0.00000009   -0.00000740    0.00001938
     atom    5 type  2   force =     0.00000086    0.00001107   -0.00001611
     atom    6 type  2   force =     0.00000092   -0.00000206   -0.00002025

     Total force =     0.156845     Total SCF correction =     0.000047

     Computing stress (Cartesian axis) and pressure

          total   stress  (Ry/bohr**3)                   (kbar)     P=     -447.46
  -0.00157626   0.00000000   0.00000000         -231.88        0.00        0.00
   0.00000000  -0.00377702   0.00000000            0.00     -555.62        0.00
   0.00000000   0.00000000  -0.00377202            0.00        0.00     -554.88

     kinetic stress (kbar)  20575.68      0.00      0.00
                                0.00  20031.29      0.00
                                0.00      0.00  20196.31

     local   stress (kbar) -21392.71     -0.00      0.00
                               -0.00 -10272.43      0.01
                                0.00      0.01 -16006.69

     nonloc. stress (kbar)  10399.40      0.00      0.00
                                0.00  10352.33      0.00
                                0.00      0.00  10537.80

     hartree stress (kbar)  27993.69      0.00      0.00
                                0.00  22886.43     -0.01
                                0.00     -0.01  25289.44

     exc-cor stress (kbar)  -2485.75     -0.00     -0.00
                               -0.00  -2472.56     -0.00
                               -0.00     -0.00  -2472.82

     corecor stress (kbar)  -4621.91      0.00      0.00
                                0.00  -4593.14      0.00
                                0.00      0.00  -4602.84

     ewald   stress (kbar) -30700.27      0.00     -0.00
                                0.00 -36487.54     -0.00
                               -0.00     -0.00 -33496.08

     hubbard stress (kbar)      0.00      0.00      0.00
                                0.00      0.00      0.00
                                0.00      0.00      0.00

     DFT-D   stress (kbar)      0.00      0.00      0.00
                                0.00      0.00      0.00
                                0.00      0.00      0.00

     XDM     stress (kbar)      0.00      0.00      0.00
                                0.00      0.00      0.00
                                0.00      0.00      0.00

     dft-nl  stress (kbar)      0.00      0.00      0.00
                                0.00      0.00      0.00
                                0.00      0.00      0.00

     TS-vdW  stress (kbar)      0.00      0.00      0.00
                                0.00      0.00      0.00
                                0.00      0.00      0.00

[...]

                                0.00      0.00      0.00

     Writing all to output data dir new_calculations/myprefix.save/

     General routines

     Parallel routines

   This run was terminated on:   3:14:16  20May2023

   JOB DONE.