     Program PWSCF v.7.0 starts on 21May2023 at 20:56:37

     Reading input from espresso_20893.pwi
Warning: card &CELL ignored
Warning: card / ignored

     Current dimensions of program PWSCF are:
     Max number of different atomic species (ntypx) = 10
     Max number of k-points (npk) =  40000
     Max angular momentum in pseudopotentials (lmaxx) =  4

     gamma-point specific algorithms are used
     Message from routine setup:
     using ibrav=0 with symmetry is DISCOURAGED, use correct ibrav instead

     Subspace diagonalization in iterative solution of the eigenvalue problem:
     a serial algorithm will be used

     Using Slab Decomposition

     bravais-lattice index     =            0
     lattice parameter (alat)  =      14.1544  a.u.
     unit-cell volume          =    1289.1069 (a.u.)^3
     number of atoms/cell      =            9
     number of atomic types    =            3
     number of electrons       =       165.00
     number of Kohn-Sham states=          100
     kinetic-energy cutoff     =      30.0000  Ry
     charge density cutoff     =     240.0000  Ry
     scf convergence threshold =      1.0E-06
     mixing beta               =       0.7000
     number of iterations used =            8  plain     mixing
     Exchange-correlation=  SLA  PW   PBX  PBC
                           (   1   4   3   4   0   0   0)

     celldm(1)=  14.154387  celldm(2)=   0.000000  celldm(3)=   0.000000
     celldm(4)=   0.000000  celldm(5)=   0.000000  celldm(6)=   0.000000

     crystal axes: (cart. coord. in units of alat)
               a(1) = (   1.000000   0.000000   0.000000 )
               a(2) = (  -0.500000   0.866025   0.000000 )
               a(3) = (   0.000000   0.000000   0.524910 )

     reciprocal axes: (cart. coord. in units 2 pi/alat)
               b(1) = (  1.000000  0.577350  0.000000 )
               b(2) = (  0.000000  1.154700  0.000000 )
               b(3) = (  0.000000  0.000000  1.905087 )

     PseudoPot. # 1 for Lu read from file:
     /home/pragov/projects/rrg-bengioy-ad/pragov/crystal_structure_design/SSSP/Lu.GGA-PBE-paw-v1.0.UPF
     MD5 check sum: 9ceca61ee0c17e9380a83635bfffa61d
     Pseudo is Projector augmented-wave + core cor, Zval = 25.0
     Generated using ATOMPAW code
     Shape of augmentation charge: BESSEL
     Using radial grid of 1118 points,  8 beta functions with:
                l(1) =   0
                l(2) =   0
                l(3) =   1
                l(4) =   1
                l(5) =   2
                l(6) =   2
                l(7) =   3
                l(8) =   3
     Q(r) pseudized with 0 coefficients

     PseudoPot. # 2 for Sn read from file:
     /home/pragov/projects/rrg-bengioy-ad/pragov/crystal_structure_design/SSSP/Sn_pbe_v1.uspp.F.UPF
     MD5 check sum: 4cf58ce39ec5d5d420df3dd08604eb00
     Pseudo is Ultrasoft + core correction, Zval = 14.0
     Generated by new atomic code, or converted to UPF format
     Using radial grid of  891 points,  6 beta functions with:
                l(1) =   0
                l(2) =   0
                l(3) =   1
                l(4) =   1
                l(5) =   2
                l(6) =   2
     Q(r) pseudized with  6 coefficients,  rinner =    1.200   1.200   1.200
                                                       1.200   1.200

     PseudoPot. # 3 for Pt read from file:
     /home/pragov/projects/rrg-bengioy-ad/pragov/crystal_structure_design/SSSP/pt_pbe_v1.4.uspp.F.UPF
     MD5 check sum: f09d6de1a584b5a045c4fc126da2d0c4
     Pseudo is Ultrasoft + core correction, Zval = 16.0
     Generated by new atomic code, or converted to UPF format
     Using radial grid of  985 points,  6 beta functions with:
                l(1) =   0
                l(2) =   0
                l(3) =   1
                l(4) =   1
                l(5) =   2
                l(6) =   2
     Q(r) pseudized with  8 coefficients,  rinner =    1.300   1.300   1.300
                                                       1.300   1.300

     atomic species   valence    mass     pseudopotential
        Lu            25.00   174.96680     Lu( 1.00)
        Sn            14.00   118.71000     Sn( 1.00)
        Pt            16.00   195.08400     Pt( 1.00)

     12 Sym. Ops. (no inversion) found

                                    s                        frac. trans.

      isym =  1     identity

 cryst.   s( 1) = (     1          0          0      )
                  (     0          1          0      )
                  (     0          0          1      )

 cart.    s( 1) = (  1.0000000 -0.0000000  0.0000000 )
                  (  0.0000000  1.0000000  0.0000000 )
                  (  0.0000000  0.0000000  1.0000000 )

      isym =  2     180 deg rotation - cart. axis [1,0,0]

[...]

      isym =  3     120 deg rotation - cryst. axis [0,0,1]

[...]

      isym =  6     180 deg rotation - cryst. axis [1,1,0]

[...]

      isym =  7     inv. 180 deg rotation - cart. axis [0,0,1]

[...]

      isym =  8     inv. 180 deg rotation - cart. axis [0,1,0]

[...]

      isym =  9     inv.  60 deg rotation - cryst. axis [0,0,1]

 cryst.   s( 9) = (    -1         -1          0      )
                  (     1          0          0      )
                  (     0          0         -1      )

 cart.    s( 9) = ( -0.5000001  0.8660253  0.0000000 )
                  ( -0.8660255 -0.4999999  0.0000000 )
                  (  0.0000000  0.0000000 -1.0000000 )

[...]

 cryst.   s(10) = (     0          1          0      )
                  (    -1         -1          0      )
                  (     0          0         -1      )

 cart.    s(10) = ( -0.4999999 -0.8660253  0.0000000 )
                  (  0.8660255 -0.5000001  0.0000000 )
                  (  0.0000000  0.0000000 -1.0000000 )

[...]

      isym = 12     inv. 180 deg rotation - cryst. axis [2,1,0]

 cryst.   s(12) = (    -1         -1          0      )
                  (     0          1          0      )
                  (     0          0          1      )

 cart.    s(12) = ( -0.5000001 -0.8660252  0.0000000 )
                  ( -0.8660255  0.5000001  0.0000000 )
                  (  0.0000000  0.0000000  1.0000000 )

   Cartesian axes

     site n.     atom                  positions (alat units)
         1           Lu  tau(   1) = (   0.2006861   0.3475984   0.2624551  )
         2           Lu  tau(   2) = (   0.5986280   0.0000000   0.2624551  )
         3           Lu  tau(   3) = (   0.7006861   0.5184271   0.2624551  )
         4           Sn  tau(   4) = (   0.3689906   0.6391104   0.0000000  )
         5           Sn  tau(   5) = (   0.2620190   0.0000000   0.0000000  )
         6           Sn  tau(   6) = (   0.8689905   0.2269151   0.0000000  )
         7           Pt  tau(   7) = (   0.5000005   0.2886749   0.0000000  )
         8           Pt  tau(   8) = (  -0.0000004   0.5773506   0.0000000  )
         9           Pt  tau(   9) = (   0.0000000   0.0000000   0.2624551  )

   Crystallographic axes

     site n.     atom                  positions (cryst. coord.)
         1           Lu  tau(   1) = (  0.4013720  0.4013720  0.5000000  )
         2           Lu  tau(   2) = (  0.5986280  0.0000000  0.5000000  )
         3           Lu  tau(   3) = (  1.0000000  0.5986280  0.5000000  )
         4           Sn  tau(   4) = (  0.7379810  0.7379810  0.0000000  )
         5           Sn  tau(   5) = (  0.2620190  0.0000000  0.0000000  )
         6           Sn  tau(   6) = (  1.0000000  0.2620190  0.0000000  )
         7           Pt  tau(   7) = (  0.6666670  0.3333330  0.0000000  )
         8           Pt  tau(   8) = (  0.3333330  0.6666670  0.0000000  )
         9           Pt  tau(   9) = (  0.0000000  0.0000000  0.5000000  )

     number of k points=     1  Methfessel-Paxton smearing, width (Ry)=  0.0010
                       cart. coord. in units 2pi/alat
        k(    1) = (   0.0000000   0.0000000   0.0000000), wk =   2.0000000

                       cryst. coord.
        k(    1) = (   0.0000000   0.0000000   0.0000000), wk =   2.0000000

     Initial potential from superposition of free atoms

     starting charge     160.4885, renormalised to     165.0000

     negative rho (up, down):  5.516E-01 0.000E+00
     Starting wfcs are  159 randomized atomic wfcs
     Checking if some PAW data can be deallocated...

     Self-consistent Calculation

     iteration #  1     ecut=    30.00 Ry     beta= 0.70
     Davidson diagonalization with overlap

     ethr =  1.00E-02,  avg # of iterations =  3.0
     Minimization algorithm failed to find Fermi energy: reverting to bisection
     Possible cause: smearing is larger than the electronic band-gap.

     negative rho (up, down):  5.000E-01 0.000E+00

     total energy              =   -4264.11654168 Ry
     estimated scf accuracy    <      79.84152177 Ry

[...]

     ethr =  1.00E-02,  avg # of iterations =  6.0

[...]

     total energy              =   -4362.77449099 Ry
     estimated scf accuracy    <       0.00000268 Ry

     iteration # 20     ecut=    30.00 Ry     beta= 0.70
     Davidson diagonalization with overlap

     ethr =  1.62E-09,  avg # of iterations =  2.0

[...]

     End of self-consistent calculation

          k = 0.0000 0.0000 0.0000 (  1789 PWs)   bands (ev):

   -39.2023 -39.2010 -39.2004 -36.4257 -36.1578 -36.1578 -36.0726 -36.0723
   -35.8310 -35.8309 -35.8303 -35.8303  -9.9198  -9.9052  -9.9026  -9.9021
    -9.8890  -9.8888  -9.8567  -9.8307  -9.8305  -4.6940  -4.6820  -4.6820
    -4.6614  -4.6614  -4.6503  -4.6494  -4.6468  -4.6468  -4.6221  -4.6052
    -4.6051  -4.5846  -4.5786  -4.5785   6.2379   8.8583   8.8584  10.3871
    12.0319  12.0502  12.0503  12.1052  12.1300  12.1301  12.1380  12.1381
    12.1592  12.1594  12.1619  12.1767  12.1770  12.1966  12.1967  12.1987
    12.1989  12.2022  12.2423  12.2578  12.2580  12.2880  12.2882  12.3819
    12.5930  12.6709  12.6709  12.9117  12.9118  12.9482  13.3110  13.4661
    13.4661  13.8394  13.8394  13.9606  13.9606  14.2280  14.2280  16.9627
    17.3582  17.3583  17.7749  18.3277  18.9234  18.9952  18.9953  19.0417
    19.0419  19.4041  19.5404  20.8125  20.9221  20.9222  21.1530  21.1532
    21.7334  21.7334  22.8011  22.9263

     occupation numbers
     1.0000   1.0000   1.0000   1.0000   1.0000   1.0000   1.0000   1.0000
     1.0000   1.0000   1.0000   1.0000   1.0000   1.0000   1.0000   1.0000
     1.0000   1.0000   1.0000   1.0000   1.0000   1.0000   1.0000   1.0000
     1.0000   1.0000   1.0000   1.0000   1.0000   1.0000   1.0000   1.0000
     1.0000   1.0000   1.0000   1.0000   1.0000   1.0000   1.0000   1.0000
     1.0000   1.0000   1.0000   1.0000   1.0000   1.0000   1.0000   1.0000
     1.0000   1.0000   1.0000   1.0000   1.0000   1.0000   1.0000   1.0000
     1.0000   1.0000   1.0000   1.0000   1.0000   1.0000   1.0000   1.0000
     1.0000   1.0000   1.0000   1.0000   1.0000   1.0000   1.0000   1.0000
     1.0000   1.0000   1.0000   1.0000   1.0000   1.0000   1.0000   1.0000
     1.0000   1.0000   0.5000  -0.0000  -0.0000  -0.0000  -0.0000  -0.0000
    -0.0000  -0.0000  -0.0000  -0.0000  -0.0000  -0.0000  -0.0000  -0.0000
    -0.0000  -0.0000  -0.0000  -0.0000

     the Fermi energy is    17.7749 ev

!    total energy              =   -4362.77449117 Ry
     estimated scf accuracy    <       0.00000038 Ry
     smearing contrib. (-TS)   =      -0.00028209 Ry
     internal energy E=F+TS    =   -4362.77420908 Ry

     The total energy is F=E-TS. E is the sum of the following terms:
     one-electron contribution =   -1460.34220819 Ry
     hartree contribution      =     733.03277254 Ry
     xc contribution           =    -438.18593515 Ry
     ewald contribution        =   -1724.50842159 Ry
     one-center paw contrib.   =   -1472.77041669 Ry
      -> PAW hartree energy AE =    1475.01461271 Ry
      -> PAW hartree energy PS =   -1269.83816382 Ry
      -> PAW xc energy AE      =   -1798.06244823 Ry
      -> PAW xc energy PS      =     120.11558264 Ry
      -> total E_H with PAW    =     938.20922143 Ry
      -> total E_XC with PAW   =   -2116.13280073 Ry

     convergence has been achieved in  20 iterations

     negative rho (up, down):  5.080E-01 0.000E+00

     Forces acting on atoms (cartesian axes, Ry/au):

     atom    1 type  1   force =    -0.02768865   -0.04795814    0.00000000
     atom    2 type  1   force =     0.05537730   -0.00000001   -0.00000000
     atom    3 type  1   force =    -0.02768865    0.04795814    0.00000000
     atom    4 type  2   force =    -0.00288717   -0.00500073    0.00000000
     atom    5 type  2   force =     0.00577434   -0.00000000    0.00000000
     atom    6 type  2   force =    -0.00288717    0.00500073    0.00000000
     atom    7 type  3   force =    -0.00000000   -0.00000000   -0.00000000
     atom    8 type  3   force =     0.00000000    0.00000000   -0.00000000
     atom    9 type  3   force =    -0.00000000   -0.00000000    0.00000000
     The non-local contrib.  to forces
     atom    1 type  1   force =     0.03834377    0.06641335    0.00000000
     atom    2 type  1   force =    -0.07668754    0.00000001    0.00000000
     atom    3 type  1   force =     0.03834377   -0.06641336    0.00000000
     atom    4 type  2   force =     0.00130119    0.00225373   -0.00000000
     atom    5 type  2   force =    -0.00260239    0.00000000    0.00000000
     atom    6 type  2   force =     0.00130119   -0.00225373    0.00000000
     atom    7 type  3   force =    -0.00000000    0.00000000   -0.00000000
     atom    8 type  3   force =     0.00000000    0.00000000    0.00000000
     atom    9 type  3   force =    -0.00000000    0.00000000    0.00000000
     The ionic contribution  to forces
     atom    1 type  1   force =    -0.74236168   -1.28580791    0.00000000
     atom    2 type  1   force =     1.48483960   -0.00007179    0.00000000
     atom    3 type  1   force =    -0.74248177    1.28587303    0.00000000
     atom    4 type  2   force =     1.47402381    2.55308367   -0.00000000
     atom    5 type  2   force =    -2.94817465    0.00007529    0.00000000
     atom    6 type  2   force =     1.47415214   -2.55315672    0.00000000
     atom    7 type  3   force =    -0.00014335    0.00008401   -0.00000000
     atom    8 type  3   force =     0.00014443   -0.00008214   -0.00000000
     atom    9 type  3   force =     0.00000148    0.00000256    0.00000000
     The local contribution  to forces
     atom    1 type  1   force =     0.67627358    1.17002564   -0.00000005
     atom    2 type  1   force =    -1.35186867    0.00076881    0.00000481
     atom    3 type  1   force =     0.67544476   -1.17044440    0.00000839
     atom    4 type  2   force =    -1.47632005   -2.55675682    0.00000074
     atom    5 type  2   force =     2.95312940   -0.00012933   -0.00000013
     atom    6 type  2   force =    -1.47691137    2.55681274    0.00000019
     atom    7 type  3   force =     0.00059007   -0.00077023    0.00000606
     atom    8 type  3   force =    -0.00021390    0.00080102    0.00000132
     atom    9 type  3   force =    -0.00017867   -0.00014157   -0.00000044
     The core correction contribution to forces
     atom    1 type  1   force =    -0.00000047   -0.00000082    0.00000000
     atom    2 type  1   force =     0.00000094    0.00000000    0.00000000
     atom    3 type  1   force =    -0.00000048    0.00000082    0.00000000
     atom    4 type  2   force =    -0.00129835   -0.00224419    0.00000004
     atom    5 type  2   force =     0.00259415    0.00000448   -0.00000008
     atom    6 type  2   force =    -0.00129461    0.00223960   -0.00000008
     atom    7 type  3   force =    -0.00000463   -0.00000639    0.00000030
     atom    8 type  3   force =     0.00000528    0.00000095    0.00000002
     atom    9 type  3   force =    -0.00000094   -0.00000187   -0.00000007
     The Hubbard contrib.    to forces
     atom    1 type  1   force =     0.00000000    0.00000000    0.00000000
     atom    2 type  1   force =     0.00000000    0.00000000    0.00000000
     atom    3 type  1   force =     0.00000000    0.00000000    0.00000000
     atom    4 type  2   force =     0.00000000    0.00000000    0.00000000
     atom    5 type  2   force =     0.00000000    0.00000000    0.00000000
     atom    6 type  2   force =     0.00000000    0.00000000    0.00000000
     atom    7 type  3   force =     0.00000000    0.00000000    0.00000000
     atom    8 type  3   force =     0.00000000    0.00000000    0.00000000
     atom    9 type  3   force =     0.00000000    0.00000000    0.00000000
     The SCF correction term to forces
     atom    1 type  1   force =     0.00004733    0.00137286    0.00000202
     atom    2 type  1   force =    -0.00095142   -0.00076762   -0.00000451
     atom    3 type  1   force =     0.00102719   -0.00103777   -0.00000658
     atom    4 type  2   force =    -0.00059836   -0.00135191   -0.00000004
     atom    5 type  2   force =     0.00082193    0.00006745    0.00000013
     atom    6 type  2   force =    -0.00009096    0.00137336   -0.00000147
     atom    7 type  3   force =    -0.00048686    0.00067916   -0.00000548
     atom    8 type  3   force =     0.00008550   -0.00072033   -0.00000187
     atom    9 type  3   force =     0.00021891    0.00015610    0.00000104

     Total force =     0.096436     Total SCF correction =     0.003402

     Computing stress (Cartesian axis) and pressure

     negative rho (up, down):  5.080E-01 0.000E+00
          total   stress  (Ry/bohr**3)                   (kbar)     P=      -23.83
   0.00034002  -0.00000000   0.00000000           50.02       -0.00        0.00
  -0.00000000   0.00034002   0.00000000           -0.00       50.02        0.00
   0.00000000   0.00000000  -0.00116593            0.00        0.00     -171.51

     kinetic stress (kbar)  23924.89     -0.00     -0.00
                               -0.00  23924.89     -0.00
                                0.00      0.00  23476.43

     local   stress (kbar)  11176.38     -0.03     -0.00
                               -0.03  11176.26     -0.00
                               -0.00     -0.00  12324.68

     nonloc. stress (kbar)  13443.31     -0.00      0.00
                               -0.00  13443.30     -0.00
                                0.00     -0.00  13305.39

     hartree stress (kbar)  27893.06      0.02      0.00
                                0.02  27893.15      0.00
                                0.00      0.00  27863.05

     exc-cor stress (kbar)  12005.32     -0.00      0.00
                               -0.00  12005.32     -0.00
                                0.00     -0.00  11999.17

     corecor stress (kbar) -23050.00     -0.00      0.00
                               -0.00 -23050.00      0.00
                                0.00      0.00 -23035.61

     ewald   stress (kbar) -65342.93      0.01     -0.00
                                0.01 -65342.91     -0.00
                               -0.00     -0.00 -66104.62

     hubbard stress (kbar)      0.00      0.00      0.00
                                0.00      0.00      0.00
                                0.00      0.00      0.00

     DFT-D   stress (kbar)      0.00      0.00      0.00
                                0.00      0.00      0.00
                                0.00      0.00      0.00

     XDM     stress (kbar)      0.00      0.00      0.00
                                0.00      0.00      0.00
                                0.00      0.00      0.00

     dft-nl  stress (kbar)      0.00      0.00      0.00
                                0.00      0.00      0.00
                                0.00      0.00      0.00

     TS-vdW  stress (kbar)      0.00      0.00      0.00
                                0.00      0.00      0.00
                                0.00      0.00      0.00

[...]

                                0.00      0.00      0.00

     Writing all to output data dir new_calculations/myprefix.save/

     General routines

     Parallel routines

     PAW routines

   This run was terminated on:  20:57:16  21May2023

   JOB DONE.