     Program PWSCF v.7.0 starts on 20May2023 at  9:52:53

     Reading input from espresso_5313.pwi
Warning: card &CELL ignored
Warning: card / ignored

     Current dimensions of program PWSCF are:
     Max number of different atomic species (ntypx) = 10
     Max number of k-points (npk) =  40000
     Max angular momentum in pseudopotentials (lmaxx) =  4
     file Cd.pbe-dn-rrkjus_psl.0.3.1.UPF: wavefunction(s)  4D renormalized

     gamma-point specific algorithms are used
     Message from routine setup:
     using ibrav=0 with symmetry is DISCOURAGED, use correct ibrav instead

     Subspace diagonalization in iterative solution of the eigenvalue problem:
     a serial algorithm will be used

     Using Slab Decomposition

     bravais-lattice index     =            0
     lattice parameter (alat)  =      22.0757  a.u.
     unit-cell volume          =    1374.0631 (a.u.)^3
     number of atoms/cell      =            8
     number of atomic types    =            3
     number of electrons       =        72.00
     number of Kohn-Sham states=           43
     kinetic-energy cutoff     =      30.0000  Ry
     charge density cutoff     =     240.0000  Ry
     scf convergence threshold =      1.0E-06
     mixing beta               =       0.7000
     number of iterations used =            8  plain     mixing
     Exchange-correlation= PBE
                           (   1   4   3   4   0   0   0)

     celldm(1)=  22.075693  celldm(2)=   0.000000  celldm(3)=   0.000000
     celldm(4)=   0.000000  celldm(5)=   0.000000  celldm(6)=   0.000000

     crystal axes: (cart. coord. in units of alat)
               a(1) = (   1.000000   0.000000   0.000000 )
               a(2) = (   0.924327   0.381603   0.000000 )
               a(3) = (   0.924326   0.183298   0.334697 )

     reciprocal axes: (cart. coord. in units 2 pi/alat)
               b(1) = (  1.000000 -2.422223 -1.435140 )
               b(2) = (  0.000000  2.620528 -1.435140 )
               b(3) = (  0.000000  0.000000  2.987773 )

     PseudoPot. # 1 for Na read from file:
     /home/pragov/projects/rrg-bengioy-ad/pragov/crystal_structure_design/SSSP/na_pbe_v1.5.uspp.F.UPF
     MD5 check sum: 44600605ef58000f06b90626533354dc
     Pseudo is Ultrasoft, Zval =  9.0
     Generated by new atomic code, or converted to UPF format
     Using radial grid of  819 points,  5 beta functions with:
                l(1) =   0
                l(2) =   0
                l(3) =   1
                l(4) =   1
                l(5) =   2
     Q(r) pseudized with  8 coefficients,  rinner =    1.250   1.250   1.250
                                                       1.250   1.250

     PseudoPot. # 2 for Cd read from file:
     /home/pragov/projects/rrg-bengioy-ad/pragov/crystal_structure_design/SSSP/Cd.pbe-dn-rrkjus_psl.0.3.1.UPF
     MD5 check sum: 558e9f355611b531a870a69ef6ace9e2
     Pseudo is Ultrasoft + core correction, Zval = 12.0
     Generated using "atomic" code by A. Dal Corso  v.5.0.99 svn rev. 10869
     Using radial grid of 1239 points,  6 beta functions with:
                l(1) =   0
                l(2) =   0
                l(3) =   1
                l(4) =   1
                l(5) =   2
                l(6) =   2
     Q(r) pseudized with 0 coefficients

     PseudoPot. # 3 for As read from file:
     /home/pragov/projects/rrg-bengioy-ad/pragov/crystal_structure_design/SSSP/As.pbe-n-rrkjus_psl.0.2.UPF
     MD5 check sum: 767315de957beeeb34f87d97bf945c8f
     Pseudo is Ultrasoft + core correction, Zval =  5.0
     Generated using "atomic" code by A. Dal Corso  v.5.0.99 svn rev. 10869
     Using radial grid of 1209 points,  4 beta functions with:
                l(1) =   0
                l(2) =   0
                l(3) =   1
                l(4) =   1
     Q(r) pseudized with 0 coefficients

     atomic species   valence    mass     pseudopotential
        Na             9.00    22.98977     Na( 1.00)
        Cd            12.00   112.41400     Cd( 1.00)
        As             5.00    74.92159     As( 1.00)

      2 Sym. Ops., with inversion, found

                                    s                        frac. trans.

      isym =  1     identity

 cryst.   s( 1) = (     1          0          0      )
                  (     0          1          0      )
                  (     0          0          1      )

 cart.    s( 1) = (  1.0000000  0.0000000 -0.0000000 )
                  (  0.0000000  1.0000000 -0.0000000 )
                  (  0.0000000  0.0000000  1.0000000 )

      isym =  2     inversion

 cryst.   s( 2) = (    -1          0          0      )
                  (     0         -1          0      )
                  (     0          0         -1      )

 cart.    s( 2) = ( -1.0000000 -0.0000000  0.0000000 )
                  (  0.0000000 -1.0000000  0.0000000 )
                  (  0.0000000  0.0000000 -1.0000000 )

   Cartesian axes

     site n.     atom                  positions (alat units)
         1           Na  tau(   1) = (   1.4243265   0.2824503   0.1673487  )
         2           Cd  tau(   2) = (   2.5766949   0.5109701   0.3027442  )
         3           Cd  tau(   3) = (   0.2719580   0.0539305   0.0319532  )
         4           Cd  tau(   4) = (   1.9964044   0.3958959   0.2345640  )
         5           Cd  tau(   5) = (   0.8522486   0.1690047   0.1001334  )
         6           As  tau(   6) = (   2.2225333   0.4407383   0.2611326  )
         7           As  tau(   7) = (   0.6261197   0.1241623   0.0735648  )
         8           As  tau(   8) = (   0.0000000   0.0000000   0.0000000  )

   Crystallographic axes

     site n.     atom                  positions (cryst. coord.)
         1           Na  tau(   1) = (  0.5000000  0.5000000  0.5000000  )
         2           Cd  tau(   2) = (  0.9045310  0.9045310  0.9045310  )
         3           Cd  tau(   3) = (  0.0954690  0.0954690  0.0954690  )
         4           Cd  tau(   4) = (  0.7008240  0.7008240  0.7008240  )
         5           Cd  tau(   5) = (  0.2991760  0.2991760  0.2991760  )
         6           As  tau(   6) = (  0.7802050  0.7802050  0.7802050  )
         7           As  tau(   7) = (  0.2197950  0.2197950  0.2197950  )
         8           As  tau(   8) = (  0.0000000  0.0000000  0.0000000  )

     number of k points=     1  Methfessel-Paxton smearing, width (Ry)=  0.0010
                       cart. coord. in units 2pi/alat
        k(    1) = (   0.0000000   0.0000000   0.0000000), wk =   2.0000000

                       cryst. coord.
        k(    1) = (   0.0000000   0.0000000   0.0000000), wk =   2.0000000

     Initial potential from superposition of free atoms

     starting charge      71.9735, renormalised to      72.0000
     Starting wfcs are   53 randomized atomic wfcs

     Self-consistent Calculation

     iteration #  1     ecut=    30.00 Ry     beta= 0.70
     Davidson diagonalization with overlap

     ethr =  1.00E-02,  avg # of iterations =  2.0

     Threshold (ethr) on eigenvalues was too large:
     Diagonalizing with lowered threshold

     Davidson diagonalization with overlap

[...]

     total energy              =    -637.26162574 Ry
     estimated scf accuracy    <       0.56695808 Ry

[...]

     ethr =  2.66E-05,  avg # of iterations = 11.0
     Minimization algorithm failed to find Fermi energy: reverting to bisection
     Possible cause: smearing is larger than the electronic band-gap.

[...]

     WARNING: integrated charge=    71.99841478, expected=    72.00000000

[...]

     WARNING: integrated charge=    71.99995694, expected=    72.00000000

     total energy              =    -637.49029059 Ry
     estimated scf accuracy    <       0.00000864 Ry

     iteration # 21     ecut=    30.00 Ry     beta= 0.70
     Davidson diagonalization with overlap

     ethr =  1.20E-08,  avg # of iterations =  2.0

     End of self-consistent calculation

          k = 0.0000 0.0000 0.0000 (  1927 PWs)   bands (ev):

   -45.8082 -17.7651 -17.6916 -17.6916  -4.4706  -4.2379  -4.0502  -2.2912
    -2.2912  -2.2861  -2.2861  -2.1485  -2.1485  -2.1401  -2.1401  -2.0032
    -1.9721  -1.9721  -1.8438  -1.8438  -1.7802  -1.7765  -1.7765  -1.7140
    -1.6360  -1.6105  -1.6105   2.2612   3.1092   6.0452   6.0453   6.1687
     6.1689   6.2228   6.6514   6.7175   6.7373   6.7374   7.0181  10.1220
    10.1220  10.5988  10.8415

     occupation numbers
     1.0000   1.0000   1.0000   1.0000   1.0000   1.0000   1.0000   1.0000
     1.0000   1.0000   1.0000   1.0000   1.0000   1.0000   1.0000   1.0000
     1.0000   1.0000   1.0000   1.0000   1.0000   1.0000   1.0000   1.0000
     1.0000   1.0000   1.0000   1.0000   1.0000   1.0000   1.0000   1.0000
     1.0000   1.0000   1.0000   0.9589   0.0218   0.0194  -0.0000  -0.0000
    -0.0000  -0.0000  -0.0000

     the Fermi energy is     6.7270 ev

!    total energy              =    -637.49029044 Ry
     estimated scf accuracy    <       0.00000095 Ry
     smearing contrib. (-TS)   =       0.00004531 Ry
     internal energy E=F+TS    =    -637.49033575 Ry

     The total energy is F=E-TS. E is the sum of the following terms:
     one-electron contribution =    -258.52807814 Ry
     hartree contribution      =     184.62437889 Ry
     xc contribution           =    -213.59208695 Ry
     ewald contribution        =    -349.99454955 Ry

     convergence has been achieved in  21 iterations

     Forces acting on atoms (cartesian axes, Ry/au):

     atom    1 type  1   force =     0.00000000    0.00000000    0.00000000
     atom    2 type  2   force =     0.04205184    0.00834052    0.00489033
     atom    3 type  2   force =    -0.04205184   -0.00834052   -0.00489033
     atom    4 type  2   force =     0.01895482    0.00377715    0.00234854
     atom    5 type  2   force =    -0.01895482   -0.00377715   -0.00234854
     atom    6 type  3   force =     0.07974078    0.01586220    0.00941057
     atom    7 type  3   force =    -0.07974078   -0.01586220   -0.00941057
     atom    8 type  3   force =     0.00000000    0.00000000    0.00000000
     The non-local contrib.  to forces
     atom    1 type  1   force =     0.00000000    0.00000000    0.00000000
     atom    2 type  2   force =    -0.12298485   -0.02430058   -0.01432069
     atom    3 type  2   force =     0.12298485    0.02430058    0.01432069
     atom    4 type  2   force =     0.13512255    0.02681978    0.01605957
     atom    5 type  2   force =    -0.13512255   -0.02681978   -0.01605957
     atom    6 type  3   force =    -0.10133725   -0.02027130   -0.01208451
     atom    7 type  3   force =     0.10133725    0.02027130    0.01208451
     atom    8 type  3   force =     0.00000000    0.00000000    0.00000000
     The ionic contribution  to forces
     atom    1 type  1   force =    -0.00000000    0.00000000   -0.00000000
     atom    2 type  2   force =    -5.13447619   -1.01818957   -0.60326999
     atom    3 type  2   force =     5.13447619    1.01818957    0.60326999
     atom    4 type  2   force =     1.22996261    0.24390708    0.14451097
     atom    5 type  2   force =    -1.22996261   -0.24390708   -0.14451097
     atom    6 type  3   force =     3.85344662    0.76415568    0.45275247
     atom    7 type  3   force =    -3.85344662   -0.76415568   -0.45275247
     atom    8 type  3   force =     0.00000000   -0.00000000    0.00000000
     The local contribution  to forces
     atom    1 type  1   force =     0.00135379    0.00025437    0.00019053
     atom    2 type  2   force =     5.30040317    1.05138419    0.62254830
     atom    3 type  2   force =    -5.29983712   -1.05094476   -0.62249393
     atom    4 type  2   force =    -1.35462555   -0.26859272   -0.15942123
     atom    5 type  2   force =     1.35178550    0.26797129    0.15909824
     atom    6 type  3   force =    -3.67940685   -0.72931951   -0.43207247
     atom    7 type  3   force =     3.68048433    0.72967353    0.43220317
     atom    8 type  3   force =    -0.00074874   -0.00021664   -0.00010035
     The core correction contribution to forces
     atom    1 type  1   force =     0.00000000    0.00000000    0.00000000
     atom    2 type  2   force =    -0.00007913    0.00000057   -0.00001398
     atom    3 type  2   force =     0.00007980    0.00001445    0.00001450
     atom    4 type  2   force =     0.00809906    0.00160378    0.00094387
     atom    5 type  2   force =    -0.00810126   -0.00160695   -0.00094470
     atom    6 type  3   force =     0.00739093    0.00151042    0.00090262
     atom    7 type  3   force =    -0.00733723   -0.00147434   -0.00089039
     atom    8 type  3   force =    -0.00001094   -0.00001377   -0.00000188
     The Hubbard contrib.    to forces
     atom    1 type  1   force =     0.00000000    0.00000000    0.00000000
     atom    2 type  2   force =     0.00000000    0.00000000    0.00000000
     atom    3 type  2   force =     0.00000000    0.00000000    0.00000000
     atom    4 type  2   force =     0.00000000    0.00000000    0.00000000
     atom    5 type  2   force =     0.00000000    0.00000000    0.00000000
     atom    6 type  3   force =     0.00000000    0.00000000    0.00000000
     atom    7 type  3   force =     0.00000000    0.00000000    0.00000000
     atom    8 type  3   force =     0.00000000    0.00000000    0.00000000
     The SCF correction term to forces
     atom    1 type  1   force =    -0.00109821   -0.00018904   -0.00012017
     atom    2 type  2   force =    -0.00114410   -0.00058014   -0.00003880
     atom    3 type  2   force =    -0.00008850    0.00007362    0.00001292
     atom    4 type  2   force =     0.00043781    0.00005702    0.00022080
     atom    5 type  2   force =     0.00248775    0.00060316    0.00003390
     atom    6 type  3   force =    -0.00021084   -0.00010962   -0.00007593
     atom    7 type  3   force =    -0.00063668   -0.00007355   -0.00004378
     atom    8 type  3   force =     0.00079501    0.00016172    0.00010331

     Total force =     0.133714     Total SCF correction =     0.003295

     Computing stress (Cartesian axis) and pressure

          total   stress  (Ry/bohr**3)                   (kbar)     P=       77.30
  -0.00018529  -0.00021693  -0.00012869          -27.26      -31.91      -18.93
  -0.00021693   0.00086762  -0.00002488          -31.91      127.63       -3.66
  -0.00012869  -0.00002488   0.00089407          -18.93       -3.66      131.52

     kinetic stress (kbar)  13623.57    -15.80     -9.32
                              -15.80  13700.57     -1.58
                               -9.32     -1.58  13702.43

     local   stress (kbar)   3382.30    167.56     99.16
                              167.56   2571.68     19.64
                               99.16     19.64   2549.76

     nonloc. stress (kbar)  -6711.31      1.07      0.64
                                1.07  -6716.63      0.13
                                0.64      0.13  -6716.75

     hartree stress (kbar)   6371.11    -66.63    -39.43
                              -66.63   6692.81     -7.95
                              -39.43     -7.95   6701.68

     exc-cor stress (kbar)   9165.50      0.18      0.11
                                0.18   9164.63      0.03
                                0.11      0.03   9164.61

     corecor stress (kbar) -12981.19      0.05      0.03
                                0.05 -12981.49     -0.02
                                0.03     -0.02 -12981.49

     ewald   stress (kbar) -12877.23   -118.34    -70.11
                             -118.34 -12303.94    -13.90
                              -70.11    -13.90 -12288.71

     hubbard stress (kbar)      0.00      0.00      0.00
                                0.00      0.00      0.00
                                0.00      0.00      0.00

     DFT-D   stress (kbar)      0.00      0.00      0.00
                                0.00      0.00      0.00
                                0.00      0.00      0.00

     XDM     stress (kbar)      0.00      0.00      0.00
                                0.00      0.00      0.00
                                0.00      0.00      0.00

     dft-nl  stress (kbar)      0.00      0.00      0.00
                                0.00      0.00      0.00
                                0.00      0.00      0.00

     TS-vdW  stress (kbar)      0.00      0.00      0.00
                                0.00      0.00      0.00
                                0.00      0.00      0.00

[...]

                                0.00      0.00      0.00

     Writing all to output data dir new_calculations/myprefix.save/

     General routines

     Parallel routines

   This run was terminated on:   9:53:51  20May2023

   JOB DONE.