     Program PWSCF v.7.1 starts on 16Jul2023 at 16:57:19

     Reading input from espresso_14152.pwi
Warning: card &CELL ignored
Warning: card / ignored

     Current dimensions of program PWSCF are:
     Max number of different atomic species (ntypx) = 10
     Max number of k-points (npk) =  40000
     Max angular momentum in pseudopotentials (lmaxx) =  4
     file Nd.paw.z_14.atompaw.wentzcovitch.v1.2.upf: wavefunction(s)  6S 0P 5D 0D 0F renormalized
     file Fe.pbe-spn-kjpaw_psl.0.2.1.UPF: wavefunction(s)  3D renormalized
     Message from routine setup:
     using ibrav=0 with symmetry is DISCOURAGED, use correct ibrav instead

     K-points division:     npool     =       2
     R & G space division:  proc/nbgrp/npool/nimage =       4
     Subspace diagonalization in iterative solution of the eigenvalue problem:
     a serial algorithm will be used

     Using Slab Decomposition

     bravais-lattice index     =            0
     lattice parameter (alat)  =       7.6042  a.u.
     unit-cell volume          =    1183.1307 (a.u.)^3
     number of atoms/cell      =           10
     number of atomic types    =            4
     number of electrons       =       145.00
     number of Kohn-Sham states=           88
     kinetic-energy cutoff     =      30.0000  Ry
     charge density cutoff     =     240.0000  Ry
     scf convergence threshold =      1.0E-06
     mixing beta               =       0.7000
     number of iterations used =            8  plain     mixing
     Exchange-correlation=  SLA  PW   PBX  PBC
                           (   1   4   3   4   0   0   0)

     celldm(1)=   7.604205  celldm(2)=   0.000000  celldm(3)=   0.000000
     celldm(4)=   0.000000  celldm(5)=   0.000000  celldm(6)=   0.000000

     crystal axes: (cart. coord. in units of alat)
               a(1) = (   1.000000   0.000000   0.000000 )
               a(2) = (   0.000000   1.000000   0.000000 )
               a(3) = (   0.000000   0.000000   2.690737 )

     reciprocal axes: (cart. coord. in units 2 pi/alat)
               b(1) = (  1.000000  0.000000  0.000000 )
               b(2) = (  0.000000  1.000000  0.000000 )
               b(3) = (  0.000000  0.000000  0.371645 )

     PseudoPot. # 1 for Nd read from file:
     /lustre07/scratch/pragov/crystal_structure_design/utils/SSSP/Nd.paw.z_14.atompaw.wentzcovitch.v1.2.upf
     MD5 check sum: 8a77231a7dfbac907351543c5ef6bfc9
     Pseudo is Projector augmented-wave + core cor, Zval = 14.0
     Generated using ATOMPAW code
     Shape of augmentation charge: BESSEL
     Using radial grid of 1105 points,  8 beta functions with:
                l(1) =   0
                l(2) =   0
                l(3) =   1
                l(4) =   1
                l(5) =   2
                l(6) =   2
                l(7) =   3
                l(8) =   3
     Q(r) pseudized with 0 coefficients

     PseudoPot. # 2 for Mn read from file:
     /lustre07/scratch/pragov/crystal_structure_design/utils/SSSP/mn_pbe_v1.5.uspp.F.UPF
     MD5 check sum: 82ef2b46521d7a7d9e736dc3972e4928
     Pseudo is Ultrasoft + core correction, Zval = 15.0
     Generated by new atomic code, or converted to UPF format
     Using radial grid of  859 points,  6 beta functions with:
                l(1) =   0
                l(2) =   0
                l(3) =   1
                l(4) =   1
                l(5) =   2
                l(6) =   2
     Q(r) pseudized with  8 coefficients,  rinner =    0.950   0.950   0.950
                                                       0.950   0.950

     PseudoPot. # 3 for Fe read from file:
     /lustre07/scratch/pragov/crystal_structure_design/utils/SSSP/Fe.pbe-spn-kjpaw_psl.0.2.1.UPF
     MD5 check sum: e86618425769142926afa95317d90200
     Pseudo is Projector augmented-wave + core cor, Zval = 16.0
     Generated using "atomic" code by A. Dal Corso  v.5.0.99 svn rev. 10869
     Shape of augmentation charge: PSQ
     Using radial grid of 1191 points,  6 beta functions with:
                l(1) =   0
                l(2) =   0
                l(3) =   1
                l(4) =   1
                l(5) =   2
                l(6) =   2
     Q(r) pseudized with 0 coefficients

     PseudoPot. # 4 for Ge read from file:
     /lustre07/scratch/pragov/crystal_structure_design/utils/SSSP/ge_pbe_v1.4.uspp.F.UPF
     MD5 check sum: 9c9eaa91e581c3f09632fb3098b2c6b2
     Pseudo is Ultrasoft + core correction, Zval = 14.0
     Generated by new atomic code, or converted to UPF format
     Using radial grid of  873 points,  6 beta functions with:
                l(1) =   0
                l(2) =   0
                l(3) =   1
                l(4) =   1
                l(5) =   2
                l(6) =   2
     Q(r) pseudized with  8 coefficients,  rinner =    1.400   1.400   1.400
                                                       1.400   1.400

     atomic species   valence    mass     pseudopotential
        Nd            14.00   144.24200     Nd( 1.00)
        Mn            15.00    54.93804     Mn( 1.00)
        Fe            16.00    55.84500     Fe( 1.00)
        Ge            14.00    72.63000     Ge( 1.00)

      8 Sym. Ops. (no inversion) found

                                    s                        frac. trans.

      isym =  1     identity

 cryst.   s( 1) = (     1          0          0      )
                  (     0          1          0      )
                  (     0          0          1      )

 cart.    s( 1) = (  1.0000000  0.0000000  0.0000000 )
                  (  0.0000000  1.0000000  0.0000000 )
                  (  0.0000000  0.0000000  1.0000000 )

      isym =  2     180 deg rotation - cart. axis [0,0,1]

[...]

      isym =  4     180 deg rotation - cart. axis [1,-1,0]

[...]

      isym =  5     inv. 180 deg rotation - cart. axis [0,1,0]

[...]

      isym =  8     inv.  90 deg rotation - cart. axis [0,0,1]

 cryst.   s( 8) = (     0         -1          0      )
                  (     1          0          0      )
                  (     0          0         -1      )

 cart.    s( 8) = (  0.0000000  1.0000000  0.0000000 )
                  ( -1.0000000  0.0000000  0.0000000 )
                  (  0.0000000  0.0000000 -1.0000000 )

   Cartesian axes

     site n.     atom                  positions (alat units)
         1           Nd  tau(   1) = (   0.5000000   0.0000000   2.0249950  )
         2           Nd  tau(   2) = (   0.0000000   0.5000000   0.6657422  )
         3           Mn  tau(   3) = (   0.0000000   0.0000000   1.3453686  )
         4           Mn  tau(   4) = (   0.0000000   0.0000000   0.0000000  )
         5           Mn  tau(   5) = (   0.5000000   0.5000000   1.3453686  )
         6           Fe  tau(   6) = (   0.5000000   0.5000000   0.0000000  )
         7           Ge  tau(   7) = (   0.0000000   0.5000000   2.3622708  )
         8           Ge  tau(   8) = (   0.5000000   0.0000000   1.0048423  )
         9           Ge  tau(   9) = (   0.5000000   0.0000000   0.3284664  )
        10           Ge  tau(  10) = (   0.0000000   0.5000000   1.6858948  )

   Crystallographic axes

     site n.     atom                  positions (cryst. coord.)
         1           Nd  tau(   1) = (  0.5000000  0.0000000  0.7525800  )
         2           Nd  tau(   2) = (  0.0000000  0.5000000  0.2474200  )
         3           Mn  tau(   3) = (  0.0000000  0.0000000  0.5000000  )
         4           Mn  tau(   4) = (  0.0000000  0.0000000  0.0000000  )
         5           Mn  tau(   5) = (  0.5000000  0.5000000  0.5000000  )
         6           Fe  tau(   6) = (  0.5000000  0.5000000  0.0000000  )
         7           Ge  tau(   7) = (  0.0000000  0.5000000  0.8779270  )
         8           Ge  tau(   8) = (  0.5000000  0.0000000  0.3734450  )
         9           Ge  tau(   9) = (  0.5000000  0.0000000  0.1220730  )
        10           Ge  tau(  10) = (  0.0000000  0.5000000  0.6265550  )

     number of k points=     6  Gaussian smearing, width (Ry)=  0.0010
                       cart. coord. in units 2pi/alat
        k(    1) = (   0.0000000   0.0000000   0.0000000), wk =   0.0740741
        k(    2) = (   0.0000000   0.0000000   0.1238818), wk =   0.1481481
        k(    3) = (   0.0000000   0.3333333   0.0000000), wk =   0.2962963
        k(    4) = (   0.0000000   0.3333333   0.1238818), wk =   0.5925926
        k(    5) = (   0.3333333   0.3333333   0.0000000), wk =   0.2962963
        k(    6) = (   0.3333333   0.3333333   0.1238818), wk =   0.5925926

                       cryst. coord.
        k(    1) = (   0.0000000   0.0000000   0.0000000), wk =   0.0740741
        k(    2) = (   0.0000000   0.0000000   0.3333333), wk =   0.1481481
        k(    3) = (   0.0000000   0.3333333   0.0000000), wk =   0.2962963
        k(    4) = (   0.0000000   0.3333333   0.3333333), wk =   0.5925926
        k(    5) = (   0.3333333   0.3333333   0.0000000), wk =   0.2962963
        k(    6) = (   0.3333333   0.3333333   0.3333333), wk =   0.5925926

     Check: negative core charge=   -0.000050

     Initial potential from superposition of free atoms

     starting charge     143.4834, renormalised to     145.0000
     Starting wfcs are  152 randomized atomic wfcs
     Checking if some PAW data can be deallocated...

     Self-consistent Calculation

     iteration #  1     ecut=    30.00 Ry     beta= 0.70
     Davidson diagonalization with overlap

     ethr =  1.00E-02,  avg # of iterations =  2.0

     negative rho (up, down):  8.875E-04 0.000E+00

     total energy              =   -2826.87477341 Ry
     estimated scf accuracy    <      74.46585793 Ry

[...]

     negative rho (up, down):  3.356E-04 0.000E+00

[...]

     total energy              =   -2891.78352889 Ry
     estimated scf accuracy    <       0.00004082 Ry

     iteration # 59     ecut=    30.00 Ry     beta= 0.70
     Davidson diagonalization with overlap

     ethr =  5.58E-09,  avg # of iterations =  1.0

     End of self-consistent calculation

          k = 0.0000 0.0000 0.0000 (  3291 PWs)   bands (ev):

   -72.7117 -65.0007 -64.9799 -64.8525 -38.3490 -38.3490 -38.2983 -33.7919
   -33.7919 -33.7130 -33.7130 -33.7093 -33.6731 -33.6083 -33.6083 -33.5938
   -23.0478 -23.0472 -10.1299 -10.1218 -10.1013 -10.1013 -10.0905 -10.0905
   -10.0552 -10.0552 -10.0496 -10.0475 -10.0475 -10.0457 -10.0455 -10.0446
   -10.0323 -10.0291 -10.0265 -10.0187 -10.0161 -10.0134  -4.2957  -4.2604
    -4.2311  -4.2311  -4.2261  -4.2261   3.3481   4.3428   4.7991   6.5584
     8.8695  10.1970  11.4056  11.4056  11.5291  11.5291  11.8629  11.9432
    12.1196  12.1503  12.4893  12.5276  12.5276  12.7651  12.7651  13.2205
    13.4716  13.6965  13.7897  13.7897  13.8293  13.8643  13.8643  13.8753
    13.9744  13.9744  14.0636  14.0636  14.0901  14.0996  14.1509  14.1509
    14.1952  14.2099  14.2194  14.2847  14.4078  14.8736  14.8768  14.8768

     occupation numbers
     1.0000   1.0000   1.0000   1.0000   1.0000   1.0000   1.0000   1.0000
     1.0000   1.0000   1.0000   1.0000   1.0000   1.0000   1.0000   1.0000
     1.0000   1.0000   1.0000   1.0000   1.0000   1.0000   1.0000   1.0000
     1.0000   1.0000   1.0000   1.0000   1.0000   1.0000   1.0000   1.0000
     1.0000   1.0000   1.0000   1.0000   1.0000   1.0000   1.0000   1.0000
     1.0000   1.0000   1.0000   1.0000   1.0000   1.0000   1.0000   1.0000
     1.0000   1.0000   1.0000   1.0000   1.0000   1.0000   1.0000   1.0000
     1.0000   1.0000   1.0000   1.0000   1.0000   1.0000   1.0000   1.0000
     1.0000   1.0000   1.0000   1.0000   1.0000   0.8855   0.8855   0.5225
     0.0000   0.0000   0.0000   0.0000   0.0000   0.0000   0.0000   0.0000
     0.0000   0.0000   0.0000   0.0000   0.0000   0.0000   0.0000   0.0000

[...]

          k = 0.3333 0.3333 0.1239 (  3283 PWs)   bands (ev):

   -72.7104 -64.9936 -64.9866 -64.8524 -38.3398 -38.3341 -38.3095 -33.8024
   -33.7780 -33.7225 -33.6999 -33.6974 -33.6895 -33.6065 -33.6060 -33.5963
   -23.0247 -23.0247 -10.1240 -10.1227 -10.1039 -10.0995 -10.0966 -10.0925
   -10.0621 -10.0589 -10.0549 -10.0521 -10.0391 -10.0375 -10.0327 -10.0322
   -10.0312 -10.0304 -10.0275 -10.0266 -10.0131 -10.0106  -4.4534  -4.4498
    -4.4250  -4.4222  -4.1988  -4.1948   4.6684   4.8084   6.0328   6.3351
     9.6549  10.1947  10.2052  10.3297  11.0087  11.0723  11.7259  11.7908
    11.8822  12.1534  12.2691  12.3414  12.6426  12.6843  12.7886  12.8937
    12.9635  13.0167  13.4673  13.6892  13.7175  13.7586  13.7967  13.8559
    13.8924  13.9267  13.9830  13.9901  14.0037  14.0064  14.0576  14.0808
    14.1116  14.1176  14.1301  14.1542  14.2861  14.4158  14.4419  14.5965

     occupation numbers
     1.0000   1.0000   1.0000   1.0000   1.0000   1.0000   1.0000   1.0000
     1.0000   1.0000   1.0000   1.0000   1.0000   1.0000   1.0000   1.0000
     1.0000   1.0000   1.0000   1.0000   1.0000   1.0000   1.0000   1.0000
     1.0000   1.0000   1.0000   1.0000   1.0000   1.0000   1.0000   1.0000
     1.0000   1.0000   1.0000   1.0000   1.0000   1.0000   1.0000   1.0000
     1.0000   1.0000   1.0000   1.0000   1.0000   1.0000   1.0000   1.0000
     1.0000   1.0000   1.0000   1.0000   1.0000   1.0000   1.0000   1.0000
     1.0000   1.0000   1.0000   1.0000   1.0000   1.0000   1.0000   1.0000
     1.0000   1.0000   1.0000   1.0000   1.0000   1.0000   1.0000   0.9807
     0.0421   0.0000   0.0000   0.0000   0.0000   0.0000   0.0000   0.0000
     0.0000   0.0000   0.0000   0.0000   0.0000   0.0000   0.0000   0.0000

     the Fermi energy is    13.8758 ev

!    total energy              =   -2891.78352913 Ry
     estimated scf accuracy    <       0.00000074 Ry
     smearing contrib. (-TS)   =      -0.00038686 Ry
     internal energy E=F+TS    =   -2891.78314227 Ry

     The total energy is F=E-TS. E is the sum of the following terms:
     one-electron contribution =   -1032.18936669 Ry
     hartree contribution      =     632.46033040 Ry
     xc contribution           =    -375.17555516 Ry
     ewald contribution        =   -1180.97827149 Ry
     one-center paw contrib.   =    -935.90027933 Ry
      -> PAW hartree energy AE =     160.47444525 Ry
      -> PAW hartree energy PS =    -159.49405625 Ry
      -> PAW xc energy AE      =    -885.77400552 Ry
      -> PAW xc energy PS      =      24.96499069 Ry
      -> total E_H with PAW    =     633.44071940 Ry
      -> total E_XC with PAW   =   -1235.98456999 Ry

     convergence has been achieved in  59 iterations

     Writing all to output data dir energy_m/myprefix.save/

     General routines

     Parallel routines

     PAW routines

   This run was terminated on:  16:58:14  16Jul2023

   JOB DONE.