     Program PWSCF v.7.0 starts on 21May2023 at  4: 7:15

     Reading input from espresso_8052.pwi
Warning: card &CELL ignored
Warning: card / ignored

     Current dimensions of program PWSCF are:
     Max number of different atomic species (ntypx) = 10
     Max number of k-points (npk) =  40000
     Max angular momentum in pseudopotentials (lmaxx) =  4
     file Cd.pbe-dn-rrkjus_psl.0.3.1.UPF: wavefunction(s)  4D renormalized

     gamma-point specific algorithms are used
     Message from routine setup:
     using ibrav=0 with symmetry is DISCOURAGED, use correct ibrav instead

     Subspace diagonalization in iterative solution of the eigenvalue problem:
     a serial algorithm will be used

     Using Slab Decomposition

     bravais-lattice index     =            0
     lattice parameter (alat)  =      22.9400  a.u.
     unit-cell volume          =    1738.8862 (a.u.)^3
     number of atoms/cell      =            8
     number of atomic types    =            3
     number of electrons       =       104.00
     number of Kohn-Sham states=           62
     kinetic-energy cutoff     =      30.0000  Ry
     charge density cutoff     =     240.0000  Ry
     scf convergence threshold =      1.0E-06
     mixing beta               =       0.7000
     number of iterations used =            8  plain     mixing
     Exchange-correlation= SLA  PW   PBE  PBE
                           (   1   4   3   4   0   0   0)

     celldm(1)=  22.939960  celldm(2)=   0.000000  celldm(3)=   0.000000
     celldm(4)=   0.000000  celldm(5)=   0.000000  celldm(6)=   0.000000

     crystal axes: (cart. coord. in units of alat)
               a(1) = (   1.000000   0.000000   0.000000 )
               a(2) = (   0.850241   0.526394   0.000000 )
               a(3) = (  -0.925120  -0.263197   0.273642 )

     reciprocal axes: (cart. coord. in units 2 pi/alat)
               b(1) = (  1.000000 -1.615216  1.827208 )
               b(2) = (  0.000000  1.899717  1.827208 )
               b(3) = (  0.000000  0.000000  3.654416 )

     PseudoPot. # 1 for Sr read from file:
     /home/pragov/projects/rrg-bengioy-ad/pragov/crystal_structure_design/SSSP/Sr_pbe_v1.uspp.F.UPF
     MD5 check sum: 6b418c05fbe9db5448babca5e47b7a5b
     Pseudo is Ultrasoft + core correction, Zval = 10.0
     Generated by new atomic code, or converted to UPF format
     Using radial grid of  883 points,  6 beta functions with:
                l(1) =   0
                l(2) =   0
                l(3) =   1
                l(4) =   1
                l(5) =   2
                l(6) =   2
     Q(r) pseudized with  6 coefficients,  rinner =    1.400   1.400   1.400
                                                       1.400   1.400

     PseudoPot. # 2 for Cd read from file:
     /home/pragov/projects/rrg-bengioy-ad/pragov/crystal_structure_design/SSSP/Cd.pbe-dn-rrkjus_psl.0.3.1.UPF
     MD5 check sum: 558e9f355611b531a870a69ef6ace9e2
     Pseudo is Ultrasoft + core correction, Zval = 12.0
     Generated using "atomic" code by A. Dal Corso  v.5.0.99 svn rev. 10869
     Using radial grid of 1239 points,  6 beta functions with:
                l(1) =   0
                l(2) =   0
                l(3) =   1
                l(4) =   1
                l(5) =   2
                l(6) =   2
     Q(r) pseudized with 0 coefficients

     PseudoPot. # 3 for Bi read from file:
     /home/pragov/projects/rrg-bengioy-ad/pragov/crystal_structure_design/SSSP/Bi_pbe_v1.uspp.F.UPF
     MD5 check sum: cceb9f28ec65b6d7ff33140f5b0b1758
     Pseudo is Ultrasoft + core correction, Zval = 15.0
     Generated by new atomic code, or converted to UPF format
     Using radial grid of  899 points,  6 beta functions with:
                l(1) =   0
                l(2) =   0
                l(3) =   1
                l(4) =   1
                l(5) =   2
                l(6) =   2
     Q(r) pseudized with  6 coefficients,  rinner =    1.000   1.000   1.000
                                                       1.000   1.000

     atomic species   valence    mass     pseudopotential
        Sr            10.00    87.62000     Sr( 1.00)
        Cd            12.00   112.41400     Cd( 1.00)
        Bi            15.00   208.98040     Bi( 1.00)

      4 Sym. Ops., with inversion, found

                                    s                        frac. trans.

      isym =  1     identity

 cryst.   s( 1) = (     1          0          0      )
                  (     0          1          0      )
                  (     0          0          1      )

 cart.    s( 1) = (  1.0000000 -0.0000000  0.0000000 )
                  (  0.0000000  1.0000000  0.0000000 )
                  (  0.0000000  0.0000000  1.0000000 )

      isym =  2     180 deg rotation - cart. axis [0,0,1]

[...]

      isym =  3     inversion

[...]

      isym =  4     inv. 180 deg rotation - cart. axis [0,0,1]

 cryst.   s( 4) = (     1          0          0      )
                  (     0          1          0      )
                  (    -1         -1         -1      )

 cart.    s( 4) = (  1.0000000 -0.0000000  0.0000000 )
                  (  0.0000000  1.0000000  0.0000000 )
                  (  0.0000000  0.0000000 -1.0000000 )

   Cartesian axes

     site n.     atom                  positions (alat units)
         1           Sr  tau(   1) = (   0.2123429   0.0604116   0.0000000  )
         2           Sr  tau(   2) = (   1.6378977   0.4659826   0.0000000  )
         3           Cd  tau(   3) = (   0.5000000   0.0000000   0.1368208  )
         4           Cd  tau(   4) = (   0.4251203   0.2631971   0.1368208  )
         5           Bi  tau(   5) = (   1.2269963   0.3490810   0.0000000  )
         6           Bi  tau(   6) = (  -0.0374398   0.1315986   0.1368208  )
         7           Bi  tau(   7) = (   0.6232443   0.1773133   0.0000000  )
         8           Bi  tau(   8) = (   0.0374398  -0.1315986   0.1368208  )

   Crystallographic axes

     site n.     atom                  positions (cryst. coord.)
         1           Sr  tau(   1) = (  0.1147650  0.1147650  0.0000000  )
         2           Sr  tau(   2) = (  0.8852350  0.8852350  0.0000000  )
         3           Cd  tau(   3) = (  0.7500000  0.2500000  0.5000000  )
         4           Cd  tau(   4) = (  0.2500000  0.7500000  0.5000000  )
         5           Bi  tau(   5) = (  0.6631550  0.6631550  0.0000000  )
         6           Bi  tau(   6) = ( -0.0000000  0.5000000  0.5000000  )
         7           Bi  tau(   7) = (  0.3368450  0.3368450  0.0000000  )
         8           Bi  tau(   8) = (  0.5000000 -0.0000000  0.5000000  )

     number of k points=     1  Methfessel-Paxton smearing, width (Ry)=  0.0010
                       cart. coord. in units 2pi/alat
        k(    1) = (   0.0000000   0.0000000   0.0000000), wk =   2.0000000

                       cryst. coord.
        k(    1) = (   0.0000000   0.0000000   0.0000000), wk =   2.0000000

     Check: negative core charge=   -0.000004

     Initial potential from superposition of free atoms

     starting charge      99.9228, renormalised to     104.0000

     negative rho (up, down):  3.074E-01 0.000E+00
     Starting wfcs are   80 randomized atomic wfcs

     Self-consistent Calculation

     iteration #  1     ecut=    30.00 Ry     beta= 0.70
     Davidson diagonalization with overlap

     ethr =  1.00E-02,  avg # of iterations =  7.0

     negative rho (up, down):  2.880E-01 0.000E+00

     total energy              =   -1101.00679405 Ry
     estimated scf accuracy    <      31.78592377 Ry

[...]

     total energy              =   -1126.86969354 Ry
     estimated scf accuracy    <       0.00000361 Ry

     iteration # 14     ecut=    30.00 Ry     beta= 0.70
     Davidson diagonalization with overlap

     ethr =  3.48E-09,  avg # of iterations =  5.0

[...]

     End of self-consistent calculation

          k = 0.0000 0.0000 0.0000 (  2416 PWs)   bands (ev):

   -25.9622 -25.9606 -12.3215 -12.2615 -12.0941 -12.0506 -11.9768 -11.9724
   -11.9483 -11.8890 -11.8742 -11.8179 -11.6119 -11.6100 -11.5496 -11.4633
   -11.4239 -11.2644 -11.2562 -11.2373 -10.8117 -10.7265 -10.1635  -8.8952
    -8.1165  -8.0903  -8.0636  -8.0382  -2.6487  -2.5455  -0.7467  -0.5115
     1.0440   1.1577   1.3070   1.4949   1.5160   1.5367   1.6545   1.7196
     1.8385   1.9909   4.9776   5.1523   5.3544   6.0095   7.6820   8.4463
     8.5447   8.7659   9.2359   9.6076  10.1703  10.4222  10.6446  11.3508
    11.4480  11.8450  12.0676  12.3797  12.4921  12.7164

     occupation numbers
     1.0000   1.0000   1.0000   1.0000   1.0000   1.0000   1.0000   1.0000
     1.0000   1.0000   1.0000   1.0000   1.0000   1.0000   1.0000   1.0000
     1.0000   1.0000   1.0000   1.0000   1.0000   1.0000   1.0000   1.0000
     1.0000   1.0000   1.0000   1.0000   1.0000   1.0000   1.0000   1.0000
     1.0000   1.0000   1.0000   1.0000   1.0000   1.0000   1.0000   1.0000
     1.0000   1.0000   1.0000   1.0000   1.0000   1.0000   1.0000   1.0000
     1.0000   1.0000   1.0000   1.0000  -0.0000  -0.0000  -0.0000  -0.0000
    -0.0000  -0.0000  -0.0000  -0.0000  -0.0000  -0.0000

     the Fermi energy is     9.8095 ev

!    total energy              =   -1126.86969585 Ry
     estimated scf accuracy    <       0.00000080 Ry
     smearing contrib. (-TS)   =       0.00000000 Ry
     internal energy E=F+TS    =   -1126.86969585 Ry

     The total energy is F=E-TS. E is the sum of the following terms:
     one-electron contribution =    -345.06346164 Ry
     hartree contribution      =     242.24501049 Ry
     xc contribution           =    -382.13413549 Ry
     ewald contribution        =    -641.91710921 Ry

     convergence has been achieved in  14 iterations

     negative rho (up, down):  2.756E-01 0.000E+00

     Forces acting on atoms (cartesian axes, Ry/au):

     atom    1 type  1   force =     0.02685483    0.01153177    0.00000000
     atom    2 type  1   force =    -0.02685483   -0.01153177   -0.00000000
     atom    3 type  2   force =     0.00000000    0.00000000    0.00401926
     atom    4 type  2   force =     0.00000000    0.00000000   -0.00401926
     atom    5 type  3   force =     0.09853397   -0.01865555    0.00000000
     atom    6 type  3   force =     0.00000000    0.00000000    0.00000000
     atom    7 type  3   force =    -0.09853397    0.01865555   -0.00000000
     atom    8 type  3   force =     0.00000000    0.00000000    0.00000000
     The non-local contrib.  to forces
     atom    1 type  1   force =     0.15008826    0.03392477    0.00000000
     atom    2 type  1   force =    -0.15008826   -0.03392477   -0.00000000
     atom    3 type  2   force =     0.00000000    0.00000000    0.01594065
     atom    4 type  2   force =     0.00000000    0.00000000   -0.01594065
     atom    5 type  3   force =     0.39487875    0.12811107    0.00000000
     atom    6 type  3   force =     0.00000000    0.00000000    0.00000000
     atom    7 type  3   force =    -0.39487875   -0.12811107   -0.00000000
     atom    8 type  3   force =     0.00000000    0.00000000    0.00000000
     The ionic contribution  to forces
     atom    1 type  1   force =    -2.54325415   -0.72355691   -0.00000000
     atom    2 type  1   force =     2.54325415    0.72355691    0.00000000
     atom    3 type  2   force =    -0.00000000    0.00000000    0.00000000
     atom    4 type  2   force =    -0.00000000   -0.00000000   -0.00000000
     atom    5 type  3   force =   -12.64266653   -3.59684410   -0.00000000
     atom    6 type  3   force =     0.00000000   -0.00000000    0.00000000
     atom    7 type  3   force =    12.64266653    3.59684410    0.00000000
     atom    8 type  3   force =    -0.00000000    0.00000000   -0.00000000
     The local contribution  to forces
     atom    1 type  1   force =     2.43539279    0.70502894   -0.04471783
     atom    2 type  1   force =    -2.43506237   -0.70503487    0.04479641
     atom    3 type  2   force =    -0.01530059    0.03772822   -0.01186414
     atom    4 type  2   force =     0.01432555   -0.03777795    0.01154236
     atom    5 type  3   force =    12.35590472    3.45589137    0.02301968
     atom    6 type  3   force =     0.00061600    0.00012282    0.00003320
     atom    7 type  3   force =   -12.35686374   -3.45629122   -0.02307879
     atom    8 type  3   force =     0.00064949    0.00010993    0.00012854
     The core correction contribution to forces
     atom    1 type  1   force =    -0.01410702   -0.00361529   -0.00214350
     atom    2 type  1   force =     0.01411236    0.00361384    0.00214167
     atom    3 type  2   force =    -0.00053031    0.00078575   -0.00033808
     atom    4 type  2   force =     0.00051678   -0.00078106    0.00032281
     atom    5 type  3   force =    -0.00930860   -0.00574054    0.00249539
     atom    6 type  3   force =     0.00000054   -0.00000211    0.00000104
     atom    7 type  3   force =     0.00928164    0.00572853   -0.00249107
     atom    8 type  3   force =    -0.00000222   -0.00000128    0.00000325
     The Hubbard contrib.    to forces
     atom    1 type  1   force =     0.00000000    0.00000000    0.00000000
     atom    2 type  1   force =     0.00000000    0.00000000    0.00000000
     atom    3 type  2   force =     0.00000000    0.00000000    0.00000000
     atom    4 type  2   force =     0.00000000    0.00000000    0.00000000
     atom    5 type  3   force =     0.00000000    0.00000000    0.00000000
     atom    6 type  3   force =     0.00000000    0.00000000    0.00000000
     atom    7 type  3   force =     0.00000000    0.00000000    0.00000000
     atom    8 type  3   force =     0.00000000    0.00000000    0.00000000
     The SCF correction term to forces
     atom    1 type  1   force =    -0.00124750   -0.00026282   -0.00021633
     atom    2 type  1   force =     0.00094682    0.00024404    0.00010157
     atom    3 type  2   force =     0.00065412   -0.00045572    0.00034792
     atom    4 type  2   force =     0.00042245    0.00041489    0.00012331
     atom    5 type  3   force =    -0.00047175   -0.00014120    0.00037254
     atom    6 type  3   force =    -0.00051016   -0.00009327   -0.00002614
     atom    7 type  3   force =     0.00106297    0.00041735   -0.00013693
     atom    8 type  3   force =    -0.00061933   -0.00007943   -0.00014566

     Total force =     0.147833     Total SCF correction =     0.002479

     Computing stress (Cartesian axis) and pressure

     negative rho (up, down):  2.756E-01 0.000E+00
          total   stress  (Ry/bohr**3)                   (kbar)     P=       45.71
   0.00185650  -0.00068053   0.00000000          273.10     -100.11        0.00
  -0.00068053  -0.00076598  -0.00000000         -100.11     -112.68       -0.00
   0.00000000  -0.00000000  -0.00015842            0.00       -0.00      -23.30

     kinetic stress (kbar)  10369.26    -56.71      0.00
                              -56.71  10175.20      0.00
                                0.00      0.00  10274.30

     local   stress (kbar)   1385.03   1935.95     11.24
                             1935.95  -5201.61     -8.91
                               11.24     -8.91  -5805.57

     nonloc. stress (kbar)   9426.79    -26.46      0.00
                              -26.46   9377.14      0.00
                                0.00      0.00   9408.23

     hartree stress (kbar)   4796.31   -861.78    -11.31
                             -861.78   7719.97     -1.12
                              -11.31     -1.12   7977.00

     exc-cor stress (kbar)  17072.48      0.05     -0.16
                                0.05  17075.81     -0.00
                               -0.16     -0.00  17076.22

     corecor stress (kbar) -22222.06     -0.08     -3.33
                               -0.08 -22229.11     -3.15
                               -3.33     -3.15 -22233.81

     ewald   stress (kbar) -20554.70  -1091.07      0.00
                            -1091.07 -17030.08      0.00
                                0.00      0.00 -16719.67

     hubbard stress (kbar)      0.00      0.00      0.00
                                0.00      0.00      0.00
                                0.00      0.00      0.00

     DFT-D   stress (kbar)      0.00      0.00      0.00
                                0.00      0.00      0.00
                                0.00      0.00      0.00

     XDM     stress (kbar)      0.00      0.00      0.00
                                0.00      0.00      0.00
                                0.00      0.00      0.00

     dft-nl  stress (kbar)      0.00      0.00      0.00
                                0.00      0.00      0.00
                                0.00      0.00      0.00

     TS-vdW  stress (kbar)      0.00      0.00      0.00
                                0.00      0.00      0.00
                                0.00      0.00      0.00

[...]

                                0.00      0.00      0.00

     Writing all to output data dir new_calculations/myprefix.save/

     General routines

     Parallel routines

   This run was terminated on:   4: 8: 4  21May2023

   JOB DONE.