     Program PWSCF v.7.0 starts on 21May2023 at  1:41:10

     Reading input from espresso_6673.pwi
Warning: card &CELL ignored
Warning: card / ignored

     Current dimensions of program PWSCF are:
     Max number of different atomic species (ntypx) = 10
     Max number of k-points (npk) =  40000
     Max angular momentum in pseudopotentials (lmaxx) =  4

     gamma-point specific algorithms are used
     Message from routine setup:
     using ibrav=0 with symmetry is DISCOURAGED, use correct ibrav instead

     Subspace diagonalization in iterative solution of the eigenvalue problem:
     a serial algorithm will be used

     Using Slab Decomposition

     bravais-lattice index     =            0
     lattice parameter (alat)  =       9.0167  a.u.
     unit-cell volume          =     518.3547 (a.u.)^3
     number of atoms/cell      =            4
     number of atomic types    =            3
     number of electrons       =        75.00
     number of Kohn-Sham states=           46
     kinetic-energy cutoff     =      30.0000  Ry
     charge density cutoff     =     240.0000  Ry
     scf convergence threshold =      1.0E-06
     mixing beta               =       0.7000
     number of iterations used =            8  plain     mixing
     Exchange-correlation= PBE
                           (   1   4   3   4   0   0   0)

     celldm(1)=   9.016695  celldm(2)=   0.000000  celldm(3)=   0.000000
     celldm(4)=   0.000000  celldm(5)=   0.000000  celldm(6)=   0.000000

     crystal axes: (cart. coord. in units of alat)
               a(1) = (   1.000000   0.000000   0.000000 )
               a(2) = (   0.500000   0.866025   0.000000 )
               a(3) = (   0.500000   0.288675   0.816497 )

     reciprocal axes: (cart. coord. in units 2 pi/alat)
               b(1) = (  1.000000 -0.577350 -0.408248 )
               b(2) = (  0.000000  1.154701 -0.408248 )
               b(3) = (  0.000000  0.000000  1.224745 )

     PseudoPot. # 1 for Yb read from file:
     /home/pragov/projects/rrg-bengioy-ad/pragov/crystal_structure_design/SSSP/Yb.GGA-PBE-paw-v1.0.UPF
     MD5 check sum: 43b6465ad8021f06e3edb42ae292e187
     Pseudo is Projector augmented-wave + core cor, Zval = 24.0
     Generated using ATOMPAW code
     Shape of augmentation charge: BESSEL
     Using radial grid of 1117 points,  8 beta functions with:
                l(1) =   0
                l(2) =   0
                l(3) =   1
                l(4) =   1
                l(5) =   2
                l(6) =   2
                l(7) =   3
                l(8) =   3
     Q(r) pseudized with 0 coefficients

     PseudoPot. # 2 for Sb read from file:
     /home/pragov/projects/rrg-bengioy-ad/pragov/crystal_structure_design/SSSP/sb_pbe_v1.4.uspp.F.UPF
     MD5 check sum: 9bc50dfb53373b713f5709b9110fe27f
     Pseudo is Ultrasoft + core correction, Zval = 15.0
     Generated by new atomic code, or converted to UPF format
     Using radial grid of  891 points,  6 beta functions with:
                l(1) =   0
                l(2) =   0
                l(3) =   1
                l(4) =   1
                l(5) =   2
                l(6) =   2
     Q(r) pseudized with  8 coefficients,  rinner =    1.350   1.350   1.350
                                                       1.350   1.350

     PseudoPot. # 3 for Pd read from file:
     /home/pragov/projects/rrg-bengioy-ad/pragov/crystal_structure_design/SSSP/Pd_ONCV_PBE-1.0.oncvpsp.upf
     MD5 check sum: eb77f42b51d86fb18e25f68156a31cf1
     Pseudo is Norm-conserving, Zval = 18.0
     Generated using ONCVPSP code by D. R. Hamann
     Using radial grid of 1410 points,  6 beta functions with:
                l(1) =   0
                l(2) =   0
                l(3) =   1
                l(4) =   1
                l(5) =   2
                l(6) =   2

     atomic species   valence    mass     pseudopotential
        Yb            24.00   173.05400     Yb( 1.00)
        Sb            15.00   121.76000     Sb( 1.00)
        Pd            18.00   106.42000     Pd( 1.00)

     12 Sym. Ops., with inversion, found

                                    s                        frac. trans.

      isym =  1     identity

 cryst.   s( 1) = (     1          0          0      )
                  (     0          1          0      )
                  (     0          0          1      )

 cart.    s( 1) = (  1.0000000  0.0000000  0.0000000 )
                  (  0.0000000  1.0000000  0.0000000 )
                  (  0.0000000  0.0000000  1.0000000 )

      isym =  2     180 deg rotation - cart. axis [1,0,0]

[...]

      isym =  3     120 deg rotation - cryst. axis [0,0,1]

[...]

      isym =  6     180 deg rotation - cryst. axis [1,1,0]

[...]

      isym =  7     inversion

[...]

      isym =  8     inv. 180 deg rotation - cart. axis [1,0,0]

[...]

      isym =  9     inv. 120 deg rotation - cryst. axis [0,0,1]

 cryst.   s( 9) = (     1         -1          0      )
                  (     1          0          0      )
                  (     1          0         -1      )

 cart.    s( 9) = (  0.5000000  0.8660254  0.0000000 )
                  ( -0.8660254  0.5000000 -0.0000000 )
                  (  0.0000000  0.0000000 -1.0000000 )

[...]

 cryst.   s(10) = (     0          1          0      )
                  (    -1          1          0      )
                  (     0          1         -1      )

 cart.    s(10) = (  0.5000000 -0.8660254  0.0000000 )
                  (  0.8660254  0.5000000  0.0000000 )
                  (  0.0000000  0.0000000 -1.0000000 )

[...]

      isym = 12     inv. 180 deg rotation - cryst. axis [1,1,0]

 cryst.   s(12) = (     1         -1          0      )
                  (     0         -1          0      )
                  (     0         -1          1      )

 cart.    s(12) = (  0.5000000 -0.8660254  0.0000000 )
                  ( -0.8660254 -0.5000000 -0.0000000 )
                  (  0.0000000  0.0000000  1.0000000 )

   Cartesian axes

     site n.     atom                  positions (alat units)
         1           Yb  tau(   1) = (   0.0000000   0.0000000   0.0000000  )
         2           Sb  tau(   2) = (   1.0000000   0.5773503   0.4082483  )
         3           Pd  tau(   3) = (   0.5000000   0.2886751   0.2041241  )
         4           Pd  tau(   4) = (   1.5000000   0.8660254   0.6123724  )

   Crystallographic axes

     site n.     atom                  positions (cryst. coord.)
         1           Yb  tau(   1) = (  0.0000000  0.0000000  0.0000000  )
         2           Sb  tau(   2) = (  0.5000000  0.5000000  0.5000000  )
         3           Pd  tau(   3) = (  0.2500000  0.2500000  0.2500000  )
         4           Pd  tau(   4) = (  0.7500000  0.7500000  0.7500000  )

     number of k points=     1  Methfessel-Paxton smearing, width (Ry)=  0.0010
                       cart. coord. in units 2pi/alat
        k(    1) = (   0.0000000   0.0000000   0.0000000), wk =   2.0000000

                       cryst. coord.
        k(    1) = (   0.0000000   0.0000000   0.0000000), wk =   2.0000000

     Check: negative core charge=   -0.000004

     Initial potential from superposition of free atoms

     starting charge      73.9953, renormalised to      75.0000
     Starting wfcs are   61 randomized atomic wfcs
     Checking if some PAW data can be deallocated...

     Self-consistent Calculation

     iteration #  1     ecut=    30.00 Ry     beta= 0.70
     Davidson diagonalization with overlap

     ethr =  1.00E-02,  avg # of iterations =  4.0

     total energy              =   -1691.00833496 Ry
     estimated scf accuracy    <       7.69982607 Ry

[...]

     total energy              =   -1701.49155850 Ry
     estimated scf accuracy    <       0.00000308 Ry

     iteration # 45     ecut=    30.00 Ry     beta= 0.70
     Davidson diagonalization with overlap

     ethr =  1.41E-09,  avg # of iterations =  1.0

     End of self-consistent calculation

          k = 0.0000 0.0000 0.0000 (   730 PWs)   bands (ev):

   -68.4611 -68.4586 -33.8709 -33.8709 -33.8708 -33.8573 -33.8573 -33.8573
   -33.2263 -11.7735 -11.7735 -11.7628 -11.7628 -11.7627  -5.4275  -5.4275
    -5.4275   6.4820  12.7248  12.7248  12.7248  13.1925  13.1925  14.6547
    14.6547  14.6547  15.4767  15.4767  17.1608  17.1608  17.1608  17.2523
    17.3529  17.3530  17.3530  17.3574  18.2936  18.2936  18.2936  18.9161
    18.9161  18.9161  22.0570  22.0570  22.3643  26.1325

     occupation numbers
     1.0000   1.0000   1.0000   1.0000   1.0000   1.0000   1.0000   1.0000
     1.0000   1.0000   1.0000   1.0000   1.0000   1.0000   1.0000   1.0000
     1.0000   1.0000   1.0000   1.0000   1.0000   1.0000   1.0000   1.0000
     1.0000   1.0000   1.0000   1.0000   1.0000   1.0000   1.0000   1.0000
     1.0000   1.0000   1.0000   1.0000   0.5003   0.5001   0.4996  -0.0000
    -0.0000  -0.0000  -0.0000  -0.0000  -0.0000  -0.0000

     the Fermi energy is    18.2936 ev

!    total energy              =   -1701.49155856 Ry
     estimated scf accuracy    <       0.00000003 Ry
     smearing contrib. (-TS)   =      -0.00084628 Ry
     internal energy E=F+TS    =   -1701.49071227 Ry

     The total energy is F=E-TS. E is the sum of the following terms:
     one-electron contribution =    -566.66994913 Ry
     hartree contribution      =     296.77154630 Ry
     xc contribution           =    -131.86942059 Ry
     ewald contribution        =    -814.49477204 Ry
     one-center paw contrib.   =    -485.22811681 Ry
      -> PAW hartree energy AE =     451.92228711 Ry
      -> PAW hartree energy PS =    -389.72457026 Ry
      -> PAW xc energy AE      =    -584.66440142 Ry
      -> PAW xc energy PS      =      37.23856775 Ry
      -> total E_H with PAW    =     358.96926315 Ry
      -> total E_XC with PAW   =    -679.29525425 Ry

     convergence has been achieved in  45 iterations

     Forces acting on atoms (cartesian axes, Ry/au):

     atom    1 type  1   force =     0.00000000   -0.00000000    0.00000000
     atom    2 type  2   force =     0.00000000    0.00000000    0.00000000
     atom    3 type  3   force =     0.00000000    0.00000000    0.00001614
     atom    4 type  3   force =    -0.00000000   -0.00000000   -0.00001614
     The non-local contrib.  to forces
     atom    1 type  1   force =     0.00000000    0.00000000    0.00000000
     atom    2 type  2   force =     0.00000000   -0.00000000   -0.00000000
     atom    3 type  3   force =     0.00000000    0.00000000    0.00009941
     atom    4 type  3   force =     0.00000000    0.00000000   -0.00009941
     The ionic contribution  to forces
     atom    1 type  1   force =    -0.00000000   -0.00000000   -0.00000000
     atom    2 type  2   force =     0.00000000    0.00000000    0.00000000
     atom    3 type  3   force =     0.00000000   -0.00000000   -0.00000000
     atom    4 type  3   force =    -0.00000000    0.00000000    0.00000000
     The local contribution  to forces
     atom    1 type  1   force =     0.00000245    0.00001342   -0.00000823
     atom    2 type  2   force =     0.00000451   -0.00000084    0.00001342
     atom    3 type  3   force =    -0.00001196    0.00002150   -0.00004177
     atom    4 type  3   force =     0.00000603   -0.00001613    0.00006448
     The core correction contribution to forces
     atom    1 type  1   force =     0.00000000    0.00000000   -0.00000000
     atom    2 type  2   force =     0.00000012   -0.00000001    0.00000028
     atom    3 type  3   force =     0.00000000    0.00000000    0.00000000
     atom    4 type  3   force =     0.00000000    0.00000000    0.00000000
     The Hubbard contrib.    to forces
     atom    1 type  1   force =     0.00000000    0.00000000    0.00000000
     atom    2 type  2   force =     0.00000000    0.00000000    0.00000000
     atom    3 type  3   force =     0.00000000    0.00000000    0.00000000
     atom    4 type  3   force =     0.00000000    0.00000000    0.00000000
     The SCF correction term to forces
     atom    1 type  1   force =     0.00000205   -0.00000725    0.00001185
     atom    2 type  2   force =    -0.00000464    0.00000031   -0.00001227
     atom    3 type  3   force =     0.00000967   -0.00003611   -0.00003760
     atom    4 type  3   force =    -0.00000991    0.00002900    0.00002269

     Total force =     0.000023     Total SCF correction =     0.000068
     SCF correction compared to forces is large: reduce conv_thr to get better values

     Computing stress (Cartesian axis) and pressure

          total   stress  (Ry/bohr**3)                   (kbar)     P=     -490.58
  -0.00333494  -0.00000000   0.00000000         -490.59       -0.00        0.00
  -0.00000000  -0.00333494  -0.00000000           -0.00     -490.59       -0.00
   0.00000000  -0.00000000  -0.00333478            0.00       -0.00     -490.56

     kinetic stress (kbar)  42858.98     -0.00     -0.00
                               -0.00  42858.98     -0.00
                               -0.00     -0.00  42858.45

     local   stress (kbar)   4154.05      0.03      0.01
                                0.03   4154.37     -0.08
                                0.01     -0.08   4155.81

     nonloc. stress (kbar)  11744.04     -0.00      0.00
                               -0.00  11744.04     -0.00
                                0.00      0.00  11743.82

     hartree stress (kbar)  28074.18     -0.02     -0.00
                               -0.02  28074.02      0.04
                               -0.00      0.04  28073.28

     exc-cor stress (kbar)  -3745.36     -0.00     -0.00
                               -0.00  -3745.36      0.00
                               -0.00      0.00  -3745.37

     corecor stress (kbar)  -6527.44      0.00      0.00
                                0.00  -6527.44     -0.00
                                0.00     -0.00  -6527.44

     ewald   stress (kbar) -77049.11     -0.00      0.00
                               -0.00 -77049.11     -0.00
                                0.00     -0.00 -77049.11

     hubbard stress (kbar)      0.00      0.00      0.00
                                0.00      0.00      0.00
                                0.00      0.00      0.00

     DFT-D   stress (kbar)      0.00      0.00      0.00
                                0.00      0.00      0.00
                                0.00      0.00      0.00

     XDM     stress (kbar)      0.00      0.00      0.00
                                0.00      0.00      0.00
                                0.00      0.00      0.00

     dft-nl  stress (kbar)      0.00      0.00      0.00
                                0.00      0.00      0.00
                                0.00      0.00      0.00

     TS-vdW  stress (kbar)      0.00      0.00      0.00
                                0.00      0.00      0.00
                                0.00      0.00      0.00

[...]

                                0.00      0.00      0.00

     Writing all to output data dir new_calculations/myprefix.save/

     General routines

     Parallel routines

     PAW routines

   This run was terminated on:   1:41:37  21May2023

   JOB DONE.