     Program PWSCF v.7.0 starts on 21May2023 at  1: 9:14

     Reading input from espresso_11728.pwi
Warning: card &CELL ignored
Warning: card / ignored

     Current dimensions of program PWSCF are:
     Max number of different atomic species (ntypx) = 10
     Max number of k-points (npk) =  40000
     Max angular momentum in pseudopotentials (lmaxx) =  4
     file Pb.pbe-dn-kjpaw_psl.0.2.2.UPF: wavefunction(s)  6S renormalized

     gamma-point specific algorithms are used
     Message from routine setup:
     using ibrav=0 with symmetry is DISCOURAGED, use correct ibrav instead

     Subspace diagonalization in iterative solution of the eigenvalue problem:
     a serial algorithm will be used

     Using Slab Decomposition

     bravais-lattice index     =            0
     lattice parameter (alat)  =      15.5869  a.u.
     unit-cell volume          =    1657.6950 (a.u.)^3
     number of atoms/cell      =           10
     number of atomic types    =            3
     number of electrons       =       200.00
     number of Kohn-Sham states=          120
     kinetic-energy cutoff     =      30.0000  Ry
     charge density cutoff     =     240.0000  Ry
     scf convergence threshold =      1.0E-06
     mixing beta               =       0.7000
     number of iterations used =            8  plain     mixing
     Exchange-correlation= PBE
                           (   1   4   3   4   0   0   0)

     celldm(1)=  15.586879  celldm(2)=   0.000000  celldm(3)=   0.000000
     celldm(4)=   0.000000  celldm(5)=   0.000000  celldm(6)=   0.000000

     crystal axes: (cart. coord. in units of alat)
               a(1) = (   1.000000   0.000000   0.000000 )
               a(2) = (   0.000000   1.000000   0.000000 )
               a(3) = (   0.000000   0.000000   0.437751 )

     reciprocal axes: (cart. coord. in units 2 pi/alat)
               b(1) = (  1.000000  0.000000  0.000000 )
               b(2) = (  0.000000  1.000000  0.000000 )
               b(3) = (  0.000000  0.000000  2.284404 )

     PseudoPot. # 1 for Yb read from file:
     /home/pragov/projects/rrg-bengioy-ad/pragov/crystal_structure_design/SSSP/Yb.GGA-PBE-paw-v1.0.UPF
     MD5 check sum: 43b6465ad8021f06e3edb42ae292e187
     Pseudo is Projector augmented-wave + core cor, Zval = 24.0
     Generated using ATOMPAW code
     Shape of augmentation charge: BESSEL
     Using radial grid of 1117 points,  8 beta functions with:
                l(1) =   0
                l(2) =   0
                l(3) =   1
                l(4) =   1
                l(5) =   2
                l(6) =   2
                l(7) =   3
                l(8) =   3
     Q(r) pseudized with 0 coefficients

     PseudoPot. # 2 for Pb read from file:
     /home/pragov/projects/rrg-bengioy-ad/pragov/crystal_structure_design/SSSP/Pb.pbe-dn-kjpaw_psl.0.2.2.UPF
     MD5 check sum: 9d431e6316058b74ade52399a6cf67da
     Pseudo is Projector augmented-wave + core cor, Zval = 14.0
     Generated using "atomic" code by A. Dal Corso  v.5.0.99 svn rev. 10869
     Shape of augmentation charge: PSQ
     Using radial grid of 1281 points,  6 beta functions with:
                l(1) =   0
                l(2) =   0
                l(3) =   1
                l(4) =   1
                l(5) =   2
                l(6) =   2
     Q(r) pseudized with 0 coefficients

     PseudoPot. # 3 for Au read from file:
     /home/pragov/projects/rrg-bengioy-ad/pragov/crystal_structure_design/SSSP/Au_ONCV_PBE-1.0.oncvpsp.upf
     MD5 check sum: d14007822ba0e19f0206237467fc06c2
     Pseudo is Norm-conserving, Zval = 19.0
     Generated using ONCVPSP code by D. R. Hamann
     Using radial grid of 1278 points,  8 beta functions with:
                l(1) =   0
                l(2) =   0
                l(3) =   1
                l(4) =   1
                l(5) =   2
                l(6) =   2
                l(7) =   3
                l(8) =   3

     atomic species   valence    mass     pseudopotential
        Yb            24.00   173.05400     Yb( 1.00)
        Pb            14.00   207.20000     Pb( 1.00)
        Au            19.00   196.96657     Au( 1.00)

     16 Sym. Ops., with inversion, found ( 8 have fractional translation)

                                    s                        frac. trans.

      isym =  1     identity

 cryst.   s( 1) = (     1          0          0      )
                  (     0          1          0      )
                  (     0          0          1      )

 cart.    s( 1) = (  1.0000000  0.0000000  0.0000000 )
                  (  0.0000000  1.0000000  0.0000000 )
                  (  0.0000000  0.0000000  1.0000000 )

      isym =  2     180 deg rotation - cart. axis [0,0,1]

[...]

 cryst.   s( 3) = (    -1          0          0      )    f =(  0.5000000 )
                  (     0          1          0      )       (  0.5000000 )
                  (     0          0         -1      )       (  0.0000000 )

 cart.    s( 3) = ( -1.0000000  0.0000000  0.0000000 )    f =(  0.5000000 )
                  (  0.0000000  1.0000000  0.0000000 )       (  0.5000000 )
                  (  0.0000000  0.0000000 -1.0000000 )       (  0.0000000 )

[...]

 cryst.   s( 6) = (     0         -1          0      )    f =(  0.5000000 )
                  (    -1          0          0      )       (  0.5000000 )
                  (     0          0         -1      )       (  0.0000000 )

 cart.    s( 6) = (  0.0000000 -1.0000000  0.0000000 )    f =(  0.5000000 )
                  ( -1.0000000  0.0000000  0.0000000 )       (  0.5000000 )
                  (  0.0000000  0.0000000 -1.0000000 )       (  0.0000000 )

[...]

      isym =  8      90 deg rotation - cart. axis [0,0,1]

[...]

      isym =  9     inversion

 cryst.   s( 9) = (    -1          0          0      )
                  (     0         -1          0      )
                  (     0          0         -1      )

 cart.    s( 9) = ( -1.0000000  0.0000000  0.0000000 )
                  (  0.0000000 -1.0000000  0.0000000 )
                  (  0.0000000  0.0000000 -1.0000000 )

      isym = 10     inv. 180 deg rotation - cart. axis [0,0,1]

 cryst.   s(10) = (     1          0          0      )
                  (     0          1          0      )
                  (     0          0         -1      )

 cart.    s(10) = (  1.0000000  0.0000000  0.0000000 )
                  (  0.0000000  1.0000000  0.0000000 )
                  (  0.0000000  0.0000000 -1.0000000 )

[...]

 cryst.   s(11) = (     1          0          0      )    f =( -0.5000000 )
                  (     0         -1          0      )       (  0.5000000 )
                  (     0          0          1      )       (  0.0000000 )

 cart.    s(11) = (  1.0000000  0.0000000  0.0000000 )    f =( -0.5000000 )
                  (  0.0000000 -1.0000000  0.0000000 )       (  0.5000000 )
                  (  0.0000000  0.0000000  1.0000000 )       (  0.0000000 )

[...]

 cryst.   s(14) = (     0          1          0      )    f =( -0.5000000 )
                  (     1          0          0      )       (  0.5000000 )
                  (     0          0          1      )       (  0.0000000 )

 cart.    s(14) = (  0.0000000  1.0000000  0.0000000 )    f =( -0.5000000 )
                  (  1.0000000  0.0000000  0.0000000 )       (  0.5000000 )
                  (  0.0000000  0.0000000  1.0000000 )       (  0.0000000 )

[...]

      isym = 16     inv.  90 deg rotation - cart. axis [0,0,1]

 cryst.   s(16) = (     0         -1          0      )
                  (     1          0          0      )
                  (     0          0         -1      )

 cart.    s(16) = (  0.0000000  1.0000000  0.0000000 )
                  ( -1.0000000  0.0000000  0.0000000 )
                  (  0.0000000  0.0000000 -1.0000000 )

   Cartesian axes

     site n.     atom                  positions (alat units)
         1           Yb  tau(   1) = (   0.3272240   0.8272240   0.0000000  )
         2           Yb  tau(   2) = (   0.6727760   0.1727760   0.0000000  )
         3           Yb  tau(   3) = (   0.8272240   0.6727760   0.0000000  )
         4           Yb  tau(   4) = (   0.1727760   0.3272240   0.0000000  )
         5           Pb  tau(   5) = (   0.0000000   0.0000000   0.2188755  )
         6           Pb  tau(   6) = (   0.5000000   0.5000000   0.2188755  )
         7           Au  tau(   7) = (   0.3762740   0.1237260   0.2188755  )
         8           Au  tau(   8) = (   0.6237260   0.8762740   0.2188755  )
         9           Au  tau(   9) = (   0.8762740   0.3762740   0.2188755  )
        10           Au  tau(  10) = (   0.1237260   0.6237260   0.2188755  )

   Crystallographic axes

     site n.     atom                  positions (cryst. coord.)
         1           Yb  tau(   1) = (  0.3272240  0.8272240  0.0000000  )
         2           Yb  tau(   2) = (  0.6727760  0.1727760  0.0000000  )
         3           Yb  tau(   3) = (  0.8272240  0.6727760  0.0000000  )
         4           Yb  tau(   4) = (  0.1727760  0.3272240  0.0000000  )
         5           Pb  tau(   5) = (  0.0000000  0.0000000  0.5000000  )
         6           Pb  tau(   6) = (  0.5000000  0.5000000  0.5000000  )
         7           Au  tau(   7) = (  0.3762740  0.1237260  0.5000000  )
         8           Au  tau(   8) = (  0.6237260  0.8762740  0.5000000  )
         9           Au  tau(   9) = (  0.8762740  0.3762740  0.5000000  )
        10           Au  tau(  10) = (  0.1237260  0.6237260  0.5000000  )

     number of k points=     1  Methfessel-Paxton smearing, width (Ry)=  0.0010
                       cart. coord. in units 2pi/alat
        k(    1) = (   0.0000000   0.0000000   0.0000000), wk =   2.0000000

                       cryst. coord.
        k(    1) = (   0.0000000   0.0000000   0.0000000), wk =   2.0000000

     Initial potential from superposition of free atoms

     starting charge     199.9789, renormalised to     200.0000
     Starting wfcs are  186 randomized atomic wfcs
     Checking if some PAW data can be deallocated...

     Self-consistent Calculation

     iteration #  1     ecut=    30.00 Ry     beta= 0.70
     Davidson diagonalization with overlap

     ethr =  1.00E-02,  avg # of iterations =  3.0

     total energy              =   -6882.56160353 Ry
     estimated scf accuracy    <       2.06332323 Ry

[...]

     ethr =  9.37E-06,  avg # of iterations = 11.0
     Minimization algorithm failed to find Fermi energy: reverting to bisection
     Possible cause: smearing is larger than the electronic band-gap.

[...]

     total energy              =   -6884.67306176 Ry
     estimated scf accuracy    <       0.00000666 Ry

     iteration # 67     ecut=    30.00 Ry     beta= 0.70
     Davidson diagonalization with overlap

     ethr =  2.56E-09,  avg # of iterations =  1.0

     End of self-consistent calculation

          k = 0.0000 0.0000 0.0000 (  2298 PWs)   bands (ev):

   -91.3561 -91.3559 -91.3541 -91.3540 -42.4161 -42.4141 -42.4107 -42.4106
   -42.3989 -42.3968 -42.3463 -42.3462 -42.3053 -42.3052 -42.3005 -42.2981
   -35.8384 -35.8365 -35.8364 -35.8363  -8.3101  -8.2979  -8.2978  -8.2701
    -8.2458  -8.1880  -8.1652  -8.1651  -8.0250  -8.0239  -8.0232  -8.0231
    -3.0039  -3.0024  -2.7470  -2.7470  -2.7448  -2.7448  -2.5078  -2.4973
    -2.4795  -2.4772   4.8349   5.3189   9.0675   9.8391   9.8391   9.8775
    10.0208  10.1860  10.3037  10.3037  10.5210  10.7509  10.7510  10.7698
    10.8035  11.1180  11.1180  11.1253  11.1253  11.1266  11.2430  11.3824
    11.4167  11.4496  11.4497  11.6322  13.0443  13.0443  14.0929  15.5909
    15.5910  15.6674  15.7071  15.7111  15.7208  15.7208  15.7536  15.8153
    15.8384  15.8420  15.8635  15.8635  15.8684  15.8698  15.8717  15.8717
    15.8743  15.8744  15.8914  15.9198  15.9320  15.9761  15.9762  15.9801
    16.0209  16.0210  16.0456  16.4892  16.4989  16.4989  17.2335  17.4875
    17.4876  17.8000  17.8820  18.2075  18.2162  18.4795  18.9905  19.6070
    19.6071  19.6806  20.0343  20.4939  20.4940  20.5590  20.7688  20.8158

     occupation numbers
     1.0000   1.0000   1.0000   1.0000   1.0000   1.0000   1.0000   1.0000
     1.0000   1.0000   1.0000   1.0000   1.0000   1.0000   1.0000   1.0000
     1.0000   1.0000   1.0000   1.0000   1.0000   1.0000   1.0000   1.0000
     1.0000   1.0000   1.0000   1.0000   1.0000   1.0000   1.0000   1.0000
     1.0000   1.0000   1.0000   1.0000   1.0000   1.0000   1.0000   1.0000
     1.0000   1.0000   1.0000   1.0000   1.0000   1.0000   1.0000   1.0000
     1.0000   1.0000   1.0000   1.0000   1.0000   1.0000   1.0000   1.0000
     1.0000   1.0000   1.0000   1.0000   1.0000   1.0000   1.0000   1.0000
     1.0000   1.0000   1.0000   1.0000   1.0000   1.0000   1.0000   1.0000
     1.0000   1.0000   1.0000   1.0000   1.0000   1.0000   1.0000   1.0000
     1.0000   1.0000   1.0000   1.0000   1.0000   1.0000   1.0000   1.0000
     1.0000   1.0000   1.0000   1.0000   1.0000   1.0000   1.0000   1.0000
     1.0000   1.0000   1.0000   0.7017   0.1496   0.1487  -0.0000  -0.0000
    -0.0000  -0.0000  -0.0000  -0.0000  -0.0000  -0.0000  -0.0000  -0.0000
    -0.0000  -0.0000  -0.0000  -0.0000  -0.0000  -0.0000  -0.0000  -0.0000

     the Fermi energy is    16.4925 ev

!    total energy              =   -6884.67306185 Ry
     estimated scf accuracy    <       0.00000031 Ry
     smearing contrib. (-TS)   =      -0.00049013 Ry
     internal energy E=F+TS    =   -6884.67257172 Ry

     The total energy is F=E-TS. E is the sum of the following terms:
     one-electron contribution =   -2042.81245895 Ry
     hartree contribution      =     989.46726812 Ry
     xc contribution           =    -342.95161578 Ry
     ewald contribution        =   -2094.28916375 Ry
     one-center paw contrib.   =   -3394.08660134 Ry
      -> PAW hartree energy AE =    2002.56876121 Ry
      -> PAW hartree energy PS =   -1748.70649223 Ry
      -> PAW xc energy AE      =   -3884.47562368 Ry
      -> PAW xc energy PS      =     236.52675336 Ry
      -> total E_H with PAW    =    1243.32953710 Ry
      -> total E_XC with PAW   =   -3990.90048611 Ry

     convergence has been achieved in  67 iterations

     Forces acting on atoms (cartesian axes, Ry/au):

     atom    1 type  1   force =    -0.00136003   -0.00136003    0.00000000
     atom    2 type  1   force =     0.00136003    0.00136003   -0.00000000
     atom    3 type  1   force =    -0.00136003    0.00136003    0.00000000
     atom    4 type  1   force =     0.00136003   -0.00136003   -0.00000000
     atom    5 type  2   force =     0.00000000    0.00000000    0.00000000
     atom    6 type  2   force =     0.00000000    0.00000000   -0.00000000
     atom    7 type  3   force =    -0.01533263    0.01533263    0.00000000
     atom    8 type  3   force =     0.01533263   -0.01533263   -0.00000000
     atom    9 type  3   force =    -0.01533263   -0.01533263    0.00000000
     atom   10 type  3   force =     0.01533263    0.01533263   -0.00000000
     The non-local contrib.  to forces
     atom    1 type  1   force =     0.00909721    0.00909721   -0.00000000
     atom    2 type  1   force =    -0.00909721   -0.00909721    0.00000000
     atom    3 type  1   force =     0.00909721   -0.00909721   -0.00000000
     atom    4 type  1   force =    -0.00909721    0.00909721    0.00000000
     atom    5 type  2   force =     0.00000000    0.00000000   -0.00000000
     atom    6 type  2   force =     0.00000000    0.00000000    0.00000000
     atom    7 type  3   force =     0.06788750   -0.06788750    0.00000000
     atom    8 type  3   force =    -0.06788750    0.06788750    0.00000000
     atom    9 type  3   force =     0.06788750    0.06788750    0.00000000
     atom   10 type  3   force =    -0.06788750   -0.06788750   -0.00000000
     The ionic contribution  to forces
     atom    1 type  1   force =    -7.86290039   -7.86290039   -0.00000000
     atom    2 type  1   force =     7.86290039    7.86290039   -0.00000000
     atom    3 type  1   force =    -7.86290039    7.86290039   -0.00000000
     atom    4 type  1   force =     7.86290039   -7.86290039   -0.00000000
     atom    5 type  2   force =     0.00000000    0.00000000    0.00000000
     atom    6 type  2   force =    -0.00000000    0.00000000    0.00000000
     atom    7 type  3   force =    -8.53088504    8.53088504   -0.00000000
     atom    8 type  3   force =     8.53088504   -8.53088504   -0.00000000
     atom    9 type  3   force =    -8.53088504   -8.53088504   -0.00000000
     atom   10 type  3   force =     8.53088504    8.53088504   -0.00000000
     The local contribution  to forces
     atom    1 type  1   force =     7.85406941    7.85330226    0.00001141
     atom    2 type  1   force =    -7.85295966   -7.85344002   -0.00000284
     atom    3 type  1   force =     7.85189337   -7.85358310   -0.00000598
     atom    4 type  1   force =    -7.85194902    7.85259424    0.00000423
     atom    5 type  2   force =     0.00029626    0.00064314   -0.00000071
     atom    6 type  2   force =     0.00009381   -0.00062093    0.00000034
     atom    7 type  3   force =     8.44878614   -8.44697613   -0.00000040
     atom    8 type  3   force =    -8.44826576    8.44973717   -0.00000080
     atom    9 type  3   force =     8.44847415    8.44572127    0.00000152
     atom   10 type  3   force =    -8.44603931   -8.44956289    0.00000145
     The core correction contribution to forces
     atom    1 type  1   force =    -0.00000053   -0.00000054    0.00000000
     atom    2 type  1   force =     0.00000054    0.00000053   -0.00000000
     atom    3 type  1   force =    -0.00000054    0.00000053   -0.00000000
     atom    4 type  1   force =     0.00000054   -0.00000053    0.00000000
     atom    5 type  2   force =     0.00001495   -0.00000971   -0.00000007
     atom    6 type  2   force =     0.00001529    0.00000231    0.00000002
     atom    7 type  3   force =     0.00000000    0.00000000    0.00000000
     atom    8 type  3   force =     0.00000000    0.00000000    0.00000000
     atom    9 type  3   force =     0.00000000    0.00000000    0.00000000
     atom   10 type  3   force =     0.00000000    0.00000000    0.00000000
     The Hubbard contrib.    to forces
     atom    1 type  1   force =     0.00000000    0.00000000    0.00000000
     atom    2 type  1   force =     0.00000000    0.00000000    0.00000000
     atom    3 type  1   force =     0.00000000    0.00000000    0.00000000
     atom    4 type  1   force =     0.00000000    0.00000000    0.00000000
     atom    5 type  2   force =     0.00000000    0.00000000    0.00000000
     atom    6 type  2   force =     0.00000000    0.00000000    0.00000000
     atom    7 type  3   force =     0.00000000    0.00000000    0.00000000
     atom    8 type  3   force =     0.00000000    0.00000000    0.00000000
     atom    9 type  3   force =     0.00000000    0.00000000    0.00000000
     atom   10 type  3   force =     0.00000000    0.00000000    0.00000000
     The SCF correction term to forces
     atom    1 type  1   force =    -0.00153365   -0.00098965   -0.00001119
     atom    2 type  1   force =     0.00063437    0.00104573    0.00000517
     atom    3 type  1   force =     0.00078549    0.00115645    0.00000627
     atom    4 type  1   force =    -0.00046315   -0.00013042   -0.00000504
     atom    5 type  2   force =    -0.00020253   -0.00070635    0.00000130
     atom    6 type  2   force =    -0.00001858    0.00062493   -0.00000127
     atom    7 type  3   force =    -0.00109252   -0.00053493    0.00000018
     atom    8 type  3   force =     0.00064305   -0.00195866    0.00000097
     atom    9 type  3   force =    -0.00059108    0.00176010   -0.00000146
     atom   10 type  3   force =    -0.00139123    0.00164442   -0.00000089

     Total force =     0.043537     Total SCF correction =     0.004665
     SCF correction compared to forces is large: reduce conv_thr to get better values

     Computing stress (Cartesian axis) and pressure

          total   stress  (Ry/bohr**3)                   (kbar)     P=     -325.94
  -0.00142721   0.00000000   0.00000000         -209.95        0.00        0.00
   0.00000000  -0.00142721   0.00000000            0.00     -209.95        0.00
   0.00000000   0.00000000  -0.00379274            0.00        0.00     -557.93

     kinetic stress (kbar)  28391.30      0.00      0.00
                                0.00  28391.30      0.00
                                0.00      0.00  27863.87

     local   stress (kbar)   6742.81     -0.09     -0.00
                               -0.09   6742.82     -0.00
                               -0.00     -0.00  -7418.85

     nonloc. stress (kbar)  10709.20      0.00      0.00
                                0.00  10709.20      0.00
                                0.00      0.00  10629.30

     hartree stress (kbar)  26893.96      0.06      0.00
                                0.06  26893.96      0.00
                                0.00      0.00  34018.14

     exc-cor stress (kbar)  -3479.68      0.00      0.00
                                0.00  -3479.68      0.00
                                0.00      0.00  -3484.86

     corecor stress (kbar)  -5086.22     -0.00     -0.00
                               -0.00  -5086.22      0.00
                               -0.00      0.00  -5079.43

     ewald   stress (kbar) -64381.33     -0.00      0.00
                               -0.00 -64381.33      0.00
                                0.00      0.00 -57086.11

     hubbard stress (kbar)      0.00      0.00      0.00
                                0.00      0.00      0.00
                                0.00      0.00      0.00

     DFT-D   stress (kbar)      0.00      0.00      0.00
                                0.00      0.00      0.00
                                0.00      0.00      0.00

     XDM     stress (kbar)      0.00      0.00      0.00
                                0.00      0.00      0.00
                                0.00      0.00      0.00

     dft-nl  stress (kbar)      0.00      0.00      0.00
                                0.00      0.00      0.00
                                0.00      0.00      0.00

     TS-vdW  stress (kbar)      0.00      0.00      0.00
                                0.00      0.00      0.00
                                0.00      0.00      0.00

[...]

                                0.00      0.00      0.00

     Writing all to output data dir new_calculations/myprefix.save/

     General routines

     Parallel routines

     PAW routines

   This run was terminated on:   1:14: 3  21May2023

   JOB DONE.