     Program PWSCF v.7.0 starts on 20May2023 at 13:30: 0

     Reading input from espresso_8496.pwi
Warning: card &CELL ignored
Warning: card / ignored

     Current dimensions of program PWSCF are:
     Max number of different atomic species (ntypx) = 10
     Max number of k-points (npk) =  40000
     Max angular momentum in pseudopotentials (lmaxx) =  4
     file Ba.pbe-spn-kjpaw_psl.1.0.0.UPF: wavefunction(s)  5S 6S renormalized
     file Cd.pbe-dn-rrkjus_psl.0.3.1.UPF: wavefunction(s)  4D renormalized
     file O.pbe-n-kjpaw_psl.0.1.UPF: wavefunction(s)  2P renormalized

     gamma-point specific algorithms are used
     Message from routine setup:
     using ibrav=0 with symmetry is DISCOURAGED, use correct ibrav instead

     Subspace diagonalization in iterative solution of the eigenvalue problem:
     a serial algorithm will be used

     Using Slab Decomposition

     bravais-lattice index     =            0
     lattice parameter (alat)  =      11.2854  a.u.
     unit-cell volume          =    1016.3369 (a.u.)^3
     number of atoms/cell      =           10
     number of atomic types    =            4
     number of electrons       =        84.00
     number of Kohn-Sham states=           50
     kinetic-energy cutoff     =      30.0000  Ry
     charge density cutoff     =     240.0000  Ry
     scf convergence threshold =      1.0E-06
     mixing beta               =       0.7000
     number of iterations used =            8  plain     mixing
     Exchange-correlation= SLA  PW   PBX  PBC
                           (   1   4   3   4   0   0   0)

     celldm(1)=  11.285416  celldm(2)=   0.000000  celldm(3)=   0.000000
     celldm(4)=   0.000000  celldm(5)=   0.000000  celldm(6)=   0.000000

     crystal axes: (cart. coord. in units of alat)
               a(1) = (   1.000000   0.000000   0.000000 )
               a(2) = (   0.500000   0.866025   0.000000 )
               a(3) = (   0.500000   0.288675   0.816497 )

     reciprocal axes: (cart. coord. in units 2 pi/alat)
               b(1) = (  1.000000 -0.577350 -0.408248 )
               b(2) = (  0.000000  1.154701 -0.408248 )
               b(3) = (  0.000000  0.000000  1.224745 )

     PseudoPot. # 1 for Ba read from file:
     /home/pragov/projects/rrg-bengioy-ad/pragov/crystal_structure_design/SSSP/Ba.pbe-spn-kjpaw_psl.1.0.0.UPF
     MD5 check sum: c432291d3e53af55f19d5e8866385beb
     Pseudo is Projector augmented-wave + core cor, Zval = 10.0
     Generated using "atomic" code by A. Dal Corso  v.5.1
     Shape of augmentation charge: PSQ
     Using radial grid of 1251 points,  7 beta functions with:
                l(1) =   0
                l(2) =   0
                l(3) =   0
                l(4) =   1
                l(5) =   1
                l(6) =   2
                l(7) =   2
     Q(r) pseudized with 0 coefficients

     PseudoPot. # 2 for Cd read from file:
     /home/pragov/projects/rrg-bengioy-ad/pragov/crystal_structure_design/SSSP/Cd.pbe-dn-rrkjus_psl.0.3.1.UPF
     MD5 check sum: 558e9f355611b531a870a69ef6ace9e2
     Pseudo is Ultrasoft + core correction, Zval = 12.0
     Generated using "atomic" code by A. Dal Corso  v.5.0.99 svn rev. 10869
     Using radial grid of 1239 points,  6 beta functions with:
                l(1) =   0
                l(2) =   0
                l(3) =   1
                l(4) =   1
                l(5) =   2
                l(6) =   2
     Q(r) pseudized with 0 coefficients

     PseudoPot. # 3 for Os read from file:
     /home/pragov/projects/rrg-bengioy-ad/pragov/crystal_structure_design/SSSP/Os_pbe_v1.2.uspp.F.UPF
     MD5 check sum: a3fb40a04f0c37c25c34bbc47164c9a8
     Pseudo is Ultrasoft + core correction, Zval = 16.0
     Generated by new atomic code, or converted to UPF format
     Using radial grid of  983 points,  8 beta functions with:
                l(1) =   0
                l(2) =   0
                l(3) =   1
                l(4) =   1
                l(5) =   2
                l(6) =   2
                l(7) =   3
                l(8) =   3
     Q(r) pseudized with  8 coefficients,  rinner =    1.150   1.150   1.150
                                                       1.150   1.150   1.150
                                                       1.150

     PseudoPot. # 4 for O  read from file:
     /home/pragov/projects/rrg-bengioy-ad/pragov/crystal_structure_design/SSSP/O.pbe-n-kjpaw_psl.0.1.UPF
     MD5 check sum: 0234752ac141de4415c5fc33072bef88
     Pseudo is Projector augmented-wave + core cor, Zval =  6.0
     Generated using "atomic" code by A. Dal Corso  v.5.0.99 svn rev. 10869
     Shape of augmentation charge: BESSEL
     Using radial grid of 1095 points,  4 beta functions with:
                l(1) =   0
                l(2) =   0
                l(3) =   1
                l(4) =   1
     Q(r) pseudized with 0 coefficients

     atomic species   valence    mass     pseudopotential
        Ba            10.00   137.32700     Ba( 1.00)
        Cd            12.00   112.41400     Cd( 1.00)
        Os            16.00   190.23000     Os( 1.00)
        O              6.00    15.99900     O ( 1.00)

     12 Sym. Ops., with inversion, found

                                    s                        frac. trans.

      isym =  1     identity

 cryst.   s( 1) = (     1          0          0      )
                  (     0          1          0      )
                  (     0          0          1      )

 cart.    s( 1) = (  1.0000000  0.0000000  0.0000000 )
                  (  0.0000000  1.0000000 -0.0000000 )
                  (  0.0000000  0.0000000  1.0000000 )

      isym =  2     180 deg rotation - cart. axis [1,0,0]

[...]

      isym =  3     120 deg rotation - cryst. axis [0,0,1]

[...]

      isym =  6     180 deg rotation - cryst. axis [1,1,0]

[...]

      isym =  7     inversion

[...]

      isym =  8     inv. 180 deg rotation - cart. axis [1,0,0]

[...]

      isym =  9     inv. 120 deg rotation - cryst. axis [0,0,1]

 cryst.   s( 9) = (     1         -1          0      )
                  (     1          0          0      )
                  (     1          0         -1      )

 cart.    s( 9) = (  0.5000000  0.8660254 -0.0000000 )
                  ( -0.8660254  0.5000000 -0.0000000 )
                  (  0.0000000  0.0000000 -1.0000000 )

[...]

 cryst.   s(10) = (     0          1          0      )
                  (    -1          1          0      )
                  (     0          1         -1      )

 cart.    s(10) = (  0.5000000 -0.8660254  0.0000000 )
                  (  0.8660254  0.5000000 -0.0000000 )
                  (  0.0000000  0.0000000 -1.0000000 )

[...]

      isym = 12     inv. 180 deg rotation - cryst. axis [1,1,0]

 cryst.   s(12) = (     1         -1          0      )
                  (     0         -1          0      )
                  (     0         -1          1      )

 cart.    s(12) = (  0.5000000 -0.8660254  0.0000000 )
                  ( -0.8660254 -0.5000000  0.0000000 )
                  (  0.0000000  0.0000000  1.0000000 )

   Cartesian axes

     site n.     atom                  positions (alat units)
         1           Ba  tau(   1) = (   0.5000000   0.2886751   0.2041241  )
         2           Ba  tau(   2) = (   1.5000000   0.8660254   0.6123724  )
         3           Cd  tau(   3) = (   1.0000000   0.5773503   0.4082483  )
         4           Os  tau(   4) = (   0.0000000   0.0000000   0.0000000  )
         5           O   tau(   5) = (   1.0000000   0.2659691   0.1880686  )
         6           O   tau(   6) = (   1.0000000   0.8887314   0.6284280  )
         7           O   tau(   7) = (   0.7303360   0.7330409   0.1880686  )
         8           O   tau(   8) = (   1.2696640   0.4216597   0.6284280  )
         9           O   tau(   9) = (   0.7303360   0.4216597   0.6284280  )
        10           O   tau(  10) = (   1.2696640   0.7330409   0.1880686  )

   Crystallographic axes

     site n.     atom                  positions (cryst. coord.)
         1           Ba  tau(   1) = (  0.2500000  0.2500000  0.2500000  )
         2           Ba  tau(   2) = (  0.7500000  0.7500000  0.7500000  )
         3           Cd  tau(   3) = (  0.5000000  0.5000000  0.5000000  )
         4           Os  tau(   4) = (  0.0000000  0.0000000  0.0000000  )
         5           O   tau(   5) = (  0.7696640  0.2303360  0.2303360  )
         6           O   tau(   6) = (  0.2303360  0.7696640  0.7696640  )
         7           O   tau(   7) = (  0.2303360  0.7696640  0.2303360  )
         8           O   tau(   8) = (  0.7696640  0.2303360  0.7696640  )
         9           O   tau(   9) = (  0.2303360  0.2303360  0.7696640  )
        10           O   tau(  10) = (  0.7696640  0.7696640  0.2303360  )

     number of k points=     1  Methfessel-Paxton smearing, width (Ry)=  0.0010
                       cart. coord. in units 2pi/alat
        k(    1) = (   0.0000000   0.0000000   0.0000000), wk =   2.0000000

                       cryst. coord.
        k(    1) = (   0.0000000   0.0000000   0.0000000), wk =   2.0000000

     Check: negative core charge=   -0.000009

     Initial potential from superposition of free atoms

     starting charge      83.4611, renormalised to      84.0000

     negative rho (up, down):  1.267E-01 0.000E+00
     Starting wfcs are   56 randomized atomic wfcs
     Checking if some PAW data can be deallocated...

     Self-consistent Calculation

     iteration #  1     ecut=    30.00 Ry     beta= 0.70
     Davidson diagonalization with overlap

     ethr =  1.00E-02,  avg # of iterations =  5.0

     negative rho (up, down):  1.396E-01 0.000E+00

     total energy              =   -1441.24974620 Ry
     estimated scf accuracy    <       2.70409826 Ry

[...]

     total energy              =   -1442.70755561 Ry
     estimated scf accuracy    <       0.00006135 Ry

     iteration # 32     ecut=    30.00 Ry     beta= 0.70
     Davidson diagonalization with overlap

     ethr =  4.63E-09,  avg # of iterations =  2.0

[...]

     End of self-consistent calculation

          k = 0.0000 0.0000 0.0000 (  1371 PWs)   bands (ev):

   -76.6955 -35.9843 -35.9843 -35.9843 -16.6272 -16.5205  -7.4022  -6.6444
    -6.6444  -6.2589  -6.2589  -6.2589  -2.0775  -2.0775  -2.0775  -1.6861
    -1.6861  -1.6861   2.4763   2.4763   2.9543   2.9543   2.9543   4.0586
     6.1401   6.1401   6.1402   6.4472   6.4473   7.0299   7.0299   7.0299
     8.8993   8.8994   8.8994   9.3338   9.3338   9.3338   9.9049   9.9049
     9.9049  11.7807  11.7807  11.7807  13.6512  13.8909  13.8909  14.9826
    14.9826  14.9826

     occupation numbers
     1.0000   1.0000   1.0000   1.0000   1.0000   1.0000   1.0000   1.0000
     1.0000   1.0000   1.0000   1.0000   1.0000   1.0000   1.0000   1.0000
     1.0000   1.0000   1.0000   1.0000   1.0000   1.0000   1.0000   1.0000
     1.0000   1.0000   1.0000   1.0000   1.0000   1.0000   1.0000   1.0000
     1.0000   1.0000   1.0000   1.0000   1.0000   1.0000   1.0000   1.0000
     1.0000   0.3338   0.3335   0.3328  -0.0000  -0.0000  -0.0000  -0.0000
    -0.0000  -0.0000

     the Fermi energy is    11.7780 ev

!    total energy              =   -1442.70755594 Ry
     estimated scf accuracy    <       0.00000097 Ry
     smearing contrib. (-TS)   =      -0.00074672 Ry
     internal energy E=F+TS    =   -1442.70680922 Ry

     The total energy is F=E-TS. E is the sum of the following terms:
     one-electron contribution =    -193.56563000 Ry
     hartree contribution      =     155.58991189 Ry
     xc contribution           =    -165.80953491 Ry
     ewald contribution        =    -431.91678785 Ry
     one-center paw contrib.   =    -807.00476835 Ry
      -> PAW hartree energy AE =     237.68183257 Ry
      -> PAW hartree energy PS =    -236.77820796 Ry
      -> PAW xc energy AE      =    -891.84298572 Ry
      -> PAW xc energy PS      =      83.93459276 Ry
      -> total E_H with PAW    =     156.49353650 Ry
      -> total E_XC with PAW   =    -973.71792787 Ry

     convergence has been achieved in  32 iterations

     negative rho (up, down):  1.295E-01 0.000E+00

     Forces acting on atoms (cartesian axes, Ry/au):

     atom    1 type  1   force =     0.00000000   -0.00000000   -0.00002621
     atom    2 type  1   force =    -0.00000000   -0.00000000    0.00002621
     atom    3 type  2   force =     0.00000000    0.00000000    0.00000000
     atom    4 type  3   force =    -0.00000000   -0.00000000    0.00000000
     atom    5 type  4   force =     0.00000000   -0.02159018   -0.01524993
     atom    6 type  4   force =     0.00000000    0.02159018    0.01524993
     atom    7 type  4   force =    -0.01869765    0.01079509   -0.01524993
     atom    8 type  4   force =     0.01869765   -0.01079509    0.01524993
     atom    9 type  4   force =    -0.01869765   -0.01079509    0.01524993
     atom   10 type  4   force =     0.01869765    0.01079509   -0.01524993
     The non-local contrib.  to forces
     atom    1 type  1   force =     0.00000000    0.00000000   -0.00009033
     atom    2 type  1   force =     0.00000000    0.00000000    0.00009033
     atom    3 type  2   force =     0.00000000    0.00000000    0.00000000
     atom    4 type  3   force =     0.00000000   -0.00000000   -0.00000000
     atom    5 type  4   force =     0.00000000   -0.21557677   -0.15243122
     atom    6 type  4   force =     0.00000000    0.21557677    0.15243122
     atom    7 type  4   force =    -0.18669496    0.10778839   -0.15243122
     atom    8 type  4   force =     0.18669496   -0.10778839    0.15243122
     atom    9 type  4   force =    -0.18669496   -0.10778839    0.15243122
     atom   10 type  4   force =     0.18669496    0.10778839   -0.15243122
     The ionic contribution  to forces
     atom    1 type  1   force =     0.00000000    0.00000000    0.00000000
     atom    2 type  1   force =     0.00000000    0.00000000   -0.00000000
     atom    3 type  2   force =    -0.00000000   -0.00000000   -0.00000000
     atom    4 type  3   force =    -0.00000000   -0.00000000   -0.00000000
     atom    5 type  4   force =     0.00000000    6.47282608    4.57697922
     atom    6 type  4   force =     0.00000000   -6.47282608   -4.57697921
     atom    7 type  4   force =     5.60563182   -3.23641304    4.57697921
     atom    8 type  4   force =    -5.60563182    3.23641304   -4.57697921
     atom    9 type  4   force =     5.60563182    3.23641304   -4.57697921
     atom   10 type  4   force =    -5.60563182   -3.23641304    4.57697921
     The local contribution  to forces
     atom    1 type  1   force =     0.00098086    0.00037103    0.00027746
     atom    2 type  1   force =     0.00010923    0.00114096    0.00022929
     atom    3 type  2   force =    -0.00000540   -0.00001424    0.00000863
     atom    4 type  3   force =     0.00001127    0.00001491    0.00000009
     atom    5 type  4   force =     0.00002042   -6.27971607   -4.44046425
     atom    6 type  4   force =    -0.00001495    6.27971937    4.44047239
     atom    7 type  4   force =    -5.43838831    3.13986497   -4.44045398
     atom    8 type  4   force =     5.43838100   -3.13986212    4.44044924
     atom    9 type  4   force =    -5.43835649   -3.13982954    4.44044524
     atom   10 type  4   force =     5.43836992    3.13982897   -4.44044752
     The core correction contribution to forces
     atom    1 type  1   force =     0.00003740    0.00000667    0.00000967
     atom    2 type  1   force =     0.00000071    0.00002320    0.00000829
     atom    3 type  2   force =     0.00000006    0.00000015    0.00000008
     atom    4 type  3   force =     0.00000015    0.00000005    0.00000001
     atom    5 type  4   force =     0.00000001    0.00105339    0.00074489
     atom    6 type  4   force =     0.00000001   -0.00105334   -0.00074488
     atom    7 type  4   force =     0.00091240   -0.00052673    0.00074499
     atom    8 type  4   force =    -0.00091240    0.00052673   -0.00074503
     atom    9 type  4   force =     0.00091236    0.00052667   -0.00074496
     atom   10 type  4   force =    -0.00091231   -0.00052669    0.00074491
     The Hubbard contrib.    to forces
     atom    1 type  1   force =     0.00000000    0.00000000    0.00000000
     atom    2 type  1   force =     0.00000000    0.00000000    0.00000000
     atom    3 type  2   force =     0.00000000    0.00000000    0.00000000
     atom    4 type  3   force =     0.00000000    0.00000000    0.00000000
     atom    5 type  4   force =     0.00000000    0.00000000    0.00000000
     atom    6 type  4   force =     0.00000000    0.00000000    0.00000000
     atom    7 type  4   force =     0.00000000    0.00000000    0.00000000
     atom    8 type  4   force =     0.00000000    0.00000000    0.00000000
     atom    9 type  4   force =     0.00000000    0.00000000    0.00000000
     atom   10 type  4   force =     0.00000000    0.00000000    0.00000000
     The SCF correction term to forces
     atom    1 type  1   force =    -0.00009938   -0.00005813    0.00001452
     atom    2 type  1   force =    -0.00003305   -0.00015222   -0.00006416
     atom    3 type  2   force =     0.00000704    0.00001633   -0.00000813
     atom    4 type  3   force =    -0.00001464   -0.00002099    0.00000196
     atom    5 type  4   force =    -0.00002148   -0.00019296   -0.00009052
     atom    6 type  4   force =     0.00001764    0.00019380    0.00008399
     atom    7 type  4   force =    -0.00015154    0.00007991   -0.00008789
     atom    8 type  4   force =     0.00016009   -0.00008244    0.00008904
     atom    9 type  4   force =    -0.00017642   -0.00011417    0.00008624
     atom   10 type  4   force =     0.00016741    0.00011357   -0.00008687

     Total force =     0.064747     Total SCF correction =     0.000558

     Computing stress (Cartesian axis) and pressure

     negative rho (up, down):  1.295E-01 0.000E+00
          total   stress  (Ry/bohr**3)                   (kbar)     P=     -328.13
  -0.00223110   0.00000000  -0.00000000         -328.21        0.00       -0.00
   0.00000000  -0.00223110   0.00000000            0.00     -328.21        0.00
   0.00000000   0.00000000  -0.00222963            0.00        0.00     -327.99

     kinetic stress (kbar)  23348.27      0.00      0.00
                                0.00  23348.27     -0.00
                               -0.00     -0.00  23347.86

     local   stress (kbar)  -2158.28     -0.16      0.09
                               -0.16  -2157.93      0.24
                                0.09      0.24  -2157.55

     nonloc. stress (kbar)  -2781.11     -0.00     -0.00
                               -0.00  -2781.11      0.00
                               -0.00      0.00  -2780.89

     hartree stress (kbar)   7506.88      0.09     -0.08
                                0.09   7506.67     -0.15
                               -0.08     -0.15   7506.61

     exc-cor stress (kbar)   5136.60      0.00      0.00
                                0.00   5136.60     -0.00
                                0.00     -0.00   5136.59

     corecor stress (kbar) -10542.02     -0.00      0.00
                               -0.00 -10542.02      0.00
                                0.00      0.00 -10542.00

     ewald   stress (kbar) -20838.61      0.00     -0.00
                                0.00 -20838.61     -0.00
                               -0.00     -0.00 -20838.61

     hubbard stress (kbar)      0.00      0.00      0.00
                                0.00      0.00      0.00
                                0.00      0.00      0.00

     DFT-D   stress (kbar)      0.00      0.00      0.00
                                0.00      0.00      0.00
                                0.00      0.00      0.00

     XDM     stress (kbar)      0.00      0.00      0.00
                                0.00      0.00      0.00
                                0.00      0.00      0.00

     dft-nl  stress (kbar)      0.00      0.00      0.00
                                0.00      0.00      0.00
                                0.00      0.00      0.00

     TS-vdW  stress (kbar)      0.00      0.00      0.00
                                0.00      0.00      0.00
                                0.00      0.00      0.00

[...]

                                0.00      0.00      0.00

     Writing all to output data dir new_calculations/myprefix.save/

     General routines

     Parallel routines

     PAW routines

   This run was terminated on:  13:30:35  20May2023

   JOB DONE.