     Program PWSCF v.7.0 starts on 20May2023 at 16:28:48

     Reading input from espresso_20075.pwi
Warning: card &CELL ignored
Warning: card / ignored

     Current dimensions of program PWSCF are:
     Max number of different atomic species (ntypx) = 10
     Max number of k-points (npk) =  40000
     Max angular momentum in pseudopotentials (lmaxx) =  4

     gamma-point specific algorithms are used
     Message from routine setup:
     using ibrav=0 with symmetry is DISCOURAGED, use correct ibrav instead

     Subspace diagonalization in iterative solution of the eigenvalue problem:
     a serial algorithm will be used

     Using Slab Decomposition

     bravais-lattice index     =            0
     lattice parameter (alat)  =       9.1932  a.u.
     unit-cell volume          =     549.3962 (a.u.)^3
     number of atoms/cell      =            6
     number of atomic types    =            2
     number of electrons       =        92.00
     number of Kohn-Sham states=           55
     kinetic-energy cutoff     =      30.0000  Ry
     charge density cutoff     =     240.0000  Ry
     scf convergence threshold =      1.0E-06
     mixing beta               =       0.7000
     number of iterations used =            8  plain     mixing
     Exchange-correlation= SLA  PW   PBE  PBE
                           (   1   4   3   4   0   0   0)

     celldm(1)=   9.193204  celldm(2)=   0.000000  celldm(3)=   0.000000
     celldm(4)=   0.000000  celldm(5)=   0.000000  celldm(6)=   0.000000

     crystal axes: (cart. coord. in units of alat)
               a(1) = (   1.000000   0.000000   0.000000 )
               a(2) = (   0.500000   0.866025   0.000000 )
               a(3) = (   0.500000   0.288675   0.816497 )

     reciprocal axes: (cart. coord. in units 2 pi/alat)
               b(1) = (  1.000000 -0.577350 -0.408248 )
               b(2) = (  0.000000  1.154701 -0.408248 )
               b(3) = (  0.000000  0.000000  1.224745 )

     PseudoPot. # 1 for Hf read from file:
     /home/pragov/projects/rrg-bengioy-ad/pragov/crystal_structure_design/SSSP/Hf-sp.oncvpsp.upf
     MD5 check sum: 417ed15784afe83d2e06dacf143de3f8
     Pseudo is Norm-conserving + core correction, Zval = 12.0
     Generated using ONCVPSP code by D. R. Hamann
     Using radial grid of 1656 points,  8 beta functions with:
                l(1) =   0
                l(2) =   0
                l(3) =   1
                l(4) =   1
                l(5) =   2
                l(6) =   2
                l(7) =   3
                l(8) =   3

     PseudoPot. # 2 for Co read from file:
     /home/pragov/projects/rrg-bengioy-ad/pragov/crystal_structure_design/SSSP/Co_pbe_v1.2.uspp.F.UPF
     MD5 check sum: 5f91765df6ddd3222702df6e7b74a16d
     Pseudo is Ultrasoft + core correction, Zval = 17.0
     Generated by new atomic code, or converted to UPF format
     Using radial grid of  863 points,  6 beta functions with:
                l(1) =   0
                l(2) =   0
                l(3) =   1
                l(4) =   1
                l(5) =   2
                l(6) =   2
     Q(r) pseudized with  8 coefficients,  rinner =    1.200   1.200   1.200
                                                       1.200   1.200

     atomic species   valence    mass     pseudopotential
        Hf            12.00   178.49000     Hf( 1.00)
        Co            17.00    58.93319     Co( 1.00)

     12 Sym. Ops., with inversion, found ( 6 have fractional translation)

                                    s                        frac. trans.

      isym =  1     identity

 cryst.   s( 1) = (     1          0          0      )
                  (     0          1          0      )
                  (     0          0          1      )

 cart.    s( 1) = (  1.0000000  0.0000000  0.0000000 )
                  (  0.0000000  1.0000000 -0.0000000 )
                  (  0.0000000  0.0000000  1.0000000 )

      isym =  2     180 deg rotation - cart. axis [1,0,0]

 cryst.   s( 2) = (     1          0          0      )    f =( -0.2500000 )
                  (     1         -1          0      )       ( -0.2500000 )
                  (     1          0         -1      )       ( -0.2500000 )

 cart.    s( 2) = (  1.0000000  0.0000000  0.0000000 )    f =( -0.5000000 )
                  (  0.0000000 -1.0000000  0.0000000 )       ( -0.2886751 )
                  (  0.0000000  0.0000000 -1.0000000 )       ( -0.2041241 )

      isym =  3     120 deg rotation - cryst. axis [0,0,1]

[...]

      isym =  6     180 deg rotation - cryst. axis [1,1,0]

[...]

      isym =  7     inversion

[...]

      isym =  8     inv. 180 deg rotation - cart. axis [1,0,0]

 cryst.   s( 8) = (    -1          0          0      )
                  (    -1          1          0      )
                  (    -1          0          1      )

 cart.    s( 8) = ( -1.0000000  0.0000000  0.0000000 )
                  (  0.0000000  1.0000000 -0.0000000 )
                  (  0.0000000  0.0000000  1.0000000 )

      isym =  9     inv. 120 deg rotation - cryst. axis [0,0,1]

 cryst.   s( 9) = (     1         -1          0      )    f =( -0.2500000 )
                  (     1          0          0      )       ( -0.2500000 )
                  (     1          0         -1      )       ( -0.2500000 )

 cart.    s( 9) = (  0.5000000  0.8660254 -0.0000000 )    f =( -0.5000000 )
                  ( -0.8660254  0.5000000 -0.0000000 )       ( -0.2886751 )
                  (  0.0000000  0.0000000 -1.0000000 )       ( -0.2041241 )

[...]

 cryst.   s(10) = (     0          1          0      )    f =( -0.2500000 )
                  (    -1          1          0      )       ( -0.2500000 )
                  (     0          1         -1      )       ( -0.2500000 )

 cart.    s(10) = (  0.5000000 -0.8660254  0.0000000 )    f =( -0.5000000 )
                  (  0.8660254  0.5000000 -0.0000000 )       ( -0.2886751 )
                  (  0.0000000  0.0000000 -1.0000000 )       ( -0.2041241 )

[...]

 cryst.   s(11) = (     0          1          0      )
                  (     1          0          0      )
                  (     0          0          1      )

 cart.    s(11) = (  0.5000000  0.8660254  0.0000000 )
                  (  0.8660254 -0.5000000  0.0000000 )
                  (  0.0000000  0.0000000  1.0000000 )

      isym = 12     inv. 180 deg rotation - cryst. axis [1,1,0]

 cryst.   s(12) = (     1         -1          0      )
                  (     0         -1          0      )
                  (     0         -1          1      )

 cart.    s(12) = (  0.5000000 -0.8660254  0.0000000 )
                  ( -0.8660254 -0.5000000  0.0000000 )
                  (  0.0000000  0.0000000  1.0000000 )

   Cartesian axes

     site n.     atom                  positions (alat units)
         1           Hf  tau(   1) = (   1.5000000   0.8660254   0.6123724  )
         2           Hf  tau(   2) = (   1.0000000   0.5773503   0.4082483  )
         3           Co  tau(   3) = (   0.5000000   0.5773503   0.1020621  )
         4           Co  tau(   4) = (   0.5000000   0.2886751   0.5103104  )
         5           Co  tau(   5) = (   0.7500000   0.1443376   0.1020621  )
         6           Co  tau(   6) = (   0.2500000   0.1443376   0.1020621  )

   Crystallographic axes

     site n.     atom                  positions (cryst. coord.)
         1           Hf  tau(   1) = (  0.7500000  0.7500000  0.7500000  )
         2           Hf  tau(   2) = (  0.5000000  0.5000000  0.5000000  )
         3           Co  tau(   3) = (  0.1250000  0.6250000  0.1250000  )
         4           Co  tau(   4) = (  0.1250000  0.1250000  0.6250000  )
         5           Co  tau(   5) = (  0.6250000  0.1250000  0.1250000  )
         6           Co  tau(   6) = (  0.1250000  0.1250000  0.1250000  )

     number of k points=     1  Methfessel-Paxton smearing, width (Ry)=  0.0010
                       cart. coord. in units 2pi/alat
        k(    1) = (   0.0000000   0.0000000   0.0000000), wk =   2.0000000

                       cryst. coord.
        k(    1) = (   0.0000000   0.0000000   0.0000000), wk =   2.0000000

     Check: negative core charge=   -0.000021

     Initial potential from superposition of free atoms

     starting charge      87.9963, renormalised to      92.0000
     Starting wfcs are   72 randomized atomic wfcs

     Self-consistent Calculation

     iteration #  1     ecut=    30.00 Ry     beta= 0.70
     Davidson diagonalization with overlap

     ethr =  1.00E-02,  avg # of iterations =  3.0

     total energy              =   -1384.94518907 Ry
     estimated scf accuracy    <      47.55460950 Ry

[...]

     total energy              =   -1418.79288753 Ry
     estimated scf accuracy    <       0.00000105 Ry

     iteration # 54     ecut=    30.00 Ry     beta= 0.70
     Davidson diagonalization with overlap

     ethr =  1.14E-09,  avg # of iterations =  1.0

     End of self-consistent calculation

          k = 0.0000 0.0000 0.0000 (   736 PWs)   bands (ev):

   -77.5081 -77.4575 -77.4574 -77.4572 -42.6337 -42.5231 -41.4450 -41.1495
   -41.1494 -41.1492 -40.5199 -40.5199 -40.4974 -40.4973 -40.4973 -40.3994
   -40.3993 -40.3993 -11.6385 -11.6385 -11.6385 -11.2439 -11.2439 -11.2439
     9.2870  12.7778  13.6544  13.6545  13.6545  14.9466  14.9466  15.1069
    15.1070  15.1070  16.6094  16.6095  16.6096  16.7850  16.7850  17.0551
    17.0551  17.1364  17.1365  17.1365  17.5277  17.5277  17.5277  17.7928
    18.0412  18.0413  18.0414  19.7700  19.7700  19.7700  23.9950

     occupation numbers
     1.0000   1.0000   1.0000   1.0000   1.0000   1.0000   1.0000   1.0000
     1.0000   1.0000   1.0000   1.0000   1.0000   1.0000   1.0000   1.0000
     1.0000   1.0000   1.0000   1.0000   1.0000   1.0000   1.0000   1.0000
     1.0000   1.0000   1.0000   1.0000   1.0000   1.0000   1.0000   1.0000
     1.0000   1.0000   1.0000   1.0000   1.0000   1.0000   1.0000   1.0000
     1.0000   1.0000   1.0000   1.0000   0.6675   0.6665   0.6659  -0.0000
    -0.0000  -0.0000  -0.0000  -0.0000  -0.0000  -0.0000  -0.0000

     the Fermi energy is    17.5305 ev

!    total energy              =   -1418.79288750 Ry
     estimated scf accuracy    <       0.00000011 Ry
     smearing contrib. (-TS)   =      -0.00074672 Ry
     internal energy E=F+TS    =   -1418.79214078 Ry

     The total energy is F=E-TS. E is the sum of the following terms:
     one-electron contribution =    -786.31541841 Ry
     hartree contribution      =     447.14943598 Ry
     xc contribution           =    -187.90174972 Ry
     ewald contribution        =    -891.72440863 Ry

     convergence has been achieved in  54 iterations

     Forces acting on atoms (cartesian axes, Ry/au):

     atom    1 type  1   force =     0.00000000   -0.00000000   -0.00003565
     atom    2 type  1   force =     0.00000000    0.00000000    0.00003565
     atom    3 type  2   force =     0.00000000    0.00000000   -0.00000000
     atom    4 type  2   force =     0.00000000    0.00000000   -0.00000000
     atom    5 type  2   force =    -0.00000000    0.00000000   -0.00000000
     atom    6 type  2   force =     0.00000000    0.00000000   -0.00000000
     The non-local contrib.  to forces
     atom    1 type  1   force =     0.00000000   -0.00000000    0.00009500
     atom    2 type  1   force =     0.00000000    0.00000000   -0.00009500
     atom    3 type  2   force =     0.00000000   -0.00000000    0.00000000
     atom    4 type  2   force =    -0.00000000   -0.00000000    0.00000000
     atom    5 type  2   force =    -0.00000000    0.00000000   -0.00000000
     atom    6 type  2   force =     0.00000000    0.00000000   -0.00000000
     The ionic contribution  to forces
     atom    1 type  1   force =     0.00000000    0.00000000   -0.00000000
     atom    2 type  1   force =    -0.00000000   -0.00000000   -0.00000000
     atom    3 type  2   force =    -0.00000000    0.00000000    0.00000000
     atom    4 type  2   force =     0.00000000    0.00000000   -0.00000000
     atom    5 type  2   force =     0.00000000   -0.00000000    0.00000000
     atom    6 type  2   force =    -0.00000000   -0.00000000    0.00000000
     The local contribution  to forces
     atom    1 type  1   force =     0.00000318   -0.00005239    0.00007014
     atom    2 type  1   force =    -0.00000363    0.00005180   -0.00007038
     atom    3 type  2   force =    -0.00000001   -0.00001204    0.00000530
     atom    4 type  2   force =     0.00000064    0.00000149   -0.00001253
     atom    5 type  2   force =    -0.00001014    0.00000638    0.00000414
     atom    6 type  2   force =     0.00000973    0.00000637    0.00000359
     The core correction contribution to forces
     atom    1 type  1   force =    -0.00000524    0.00001235   -0.00002897
     atom    2 type  1   force =     0.00000522   -0.00001233    0.00002897
     atom    3 type  2   force =    -0.00000000   -0.00000001   -0.00000000
     atom    4 type  2   force =    -0.00000000   -0.00000000   -0.00000000
     atom    5 type  2   force =     0.00000000    0.00000000   -0.00000000
     atom    6 type  2   force =     0.00000000    0.00000000    0.00000001
     The Hubbard contrib.    to forces
     atom    1 type  1   force =     0.00000000    0.00000000    0.00000000
     atom    2 type  1   force =     0.00000000    0.00000000    0.00000000
     atom    3 type  2   force =     0.00000000    0.00000000    0.00000000
     atom    4 type  2   force =     0.00000000    0.00000000    0.00000000
     atom    5 type  2   force =     0.00000000    0.00000000    0.00000000
     atom    6 type  2   force =     0.00000000    0.00000000    0.00000000
     The SCF correction term to forces
     atom    1 type  1   force =    -0.00002318    0.00010193   -0.00017183
     atom    2 type  1   force =     0.00002359   -0.00010108    0.00017206
     atom    3 type  2   force =     0.00000003    0.00001334   -0.00000586
     atom    4 type  2   force =    -0.00000061   -0.00000186    0.00001343
     atom    5 type  2   force =     0.00001122   -0.00000663   -0.00000424
     atom    6 type  2   force =    -0.00001064   -0.00000697   -0.00000379

     Total force =     0.000050     Total SCF correction =     0.000286
     SCF correction compared to forces is large: reduce conv_thr to get better values

     Computing stress (Cartesian axis) and pressure

          total   stress  (Ry/bohr**3)                   (kbar)     P=     -641.92
  -0.00436348  -0.00000000  -0.00000000         -641.89       -0.00       -0.00
  -0.00000000  -0.00436348   0.00000000           -0.00     -641.89        0.00
   0.00000000  -0.00000000  -0.00436411            0.00       -0.00     -641.98

     kinetic stress (kbar)  41143.69      0.00      0.00
                                0.00  41143.69     -0.00
                                0.00     -0.00  41143.25

     local   stress (kbar)  -9103.49     -0.01      0.10
                               -0.01  -9103.77      0.38
                                0.10      0.38  -9102.89

     nonloc. stress (kbar)  21199.89     -0.00     -0.00
                                0.00  21199.89     -0.00
                               -0.00     -0.00  21199.76

     hartree stress (kbar)  39909.20     -0.07     -0.10
                               -0.07  39909.46     -0.23
                               -0.10     -0.23  39909.06

     exc-cor stress (kbar)  -3193.49      0.00     -0.00
                                0.00  -3193.50     -0.00
                               -0.00     -0.00  -3193.50

     corecor stress (kbar) -11008.97     -0.00      0.00
                               -0.00 -11008.97      0.01
                                0.00      0.01 -11008.96

     ewald   stress (kbar) -79588.70     -0.00      0.00
                               -0.00 -79588.70     -0.00
                                0.00     -0.00 -79588.70

     hubbard stress (kbar)      0.00      0.00      0.00
                                0.00      0.00      0.00
                                0.00      0.00      0.00

     DFT-D   stress (kbar)      0.00      0.00      0.00
                                0.00      0.00      0.00
                                0.00      0.00      0.00

     XDM     stress (kbar)      0.00      0.00      0.00
                                0.00      0.00      0.00
                                0.00      0.00      0.00

     dft-nl  stress (kbar)      0.00      0.00      0.00
                                0.00      0.00      0.00
                                0.00      0.00      0.00

     TS-vdW  stress (kbar)      0.00      0.00      0.00
                                0.00      0.00      0.00
                                0.00      0.00      0.00

[...]

                                0.00      0.00      0.00

     Writing all to output data dir new_calculations/myprefix.save/

     General routines

     Parallel routines

   This run was terminated on:  16:29:58  20May2023

   JOB DONE.