     Program PWSCF v.7.0 starts on 20May2023 at 20:44:26

     Reading input from espresso_5682.pwi
Warning: card &CELL ignored
Warning: card / ignored

     Current dimensions of program PWSCF are:
     Max number of different atomic species (ntypx) = 10
     Max number of k-points (npk) =  40000
     Max angular momentum in pseudopotentials (lmaxx) =  4

     gamma-point specific algorithms are used
     Message from routine setup:
     using ibrav=0 with symmetry is DISCOURAGED, use correct ibrav instead

     Subspace diagonalization in iterative solution of the eigenvalue problem:
     a serial algorithm will be used

     Using Slab Decomposition

     bravais-lattice index     =            0
     lattice parameter (alat)  =       6.7364  a.u.
     unit-cell volume          =     612.3690 (a.u.)^3
     number of atoms/cell      =            4
     number of atomic types    =            3
     number of electrons       =        85.00
     number of Kohn-Sham states=           52
     kinetic-energy cutoff     =      30.0000  Ry
     charge density cutoff     =     240.0000  Ry
     scf convergence threshold =      1.0E-06
     mixing beta               =       0.7000
     number of iterations used =            8  plain     mixing
     Exchange-correlation= PBE
                           (   1   4   3   4   0   0   0)

     celldm(1)=   6.736414  celldm(2)=   0.000000  celldm(3)=   0.000000
     celldm(4)=   0.000000  celldm(5)=   0.000000  celldm(6)=   0.000000

     crystal axes: (cart. coord. in units of alat)
               a(1) = (   1.000000   0.000000   0.000000 )
               a(2) = (   0.000000   1.000000   0.000000 )
               a(3) = (   0.000000   0.000000   2.003211 )

     reciprocal axes: (cart. coord. in units 2 pi/alat)
               b(1) = (  1.000000  0.000000  0.000000 )
               b(2) = (  0.000000  1.000000  0.000000 )
               b(3) = (  0.000000  0.000000  0.499198 )

     PseudoPot. # 1 for Yb read from file:
     /home/pragov/projects/rrg-bengioy-ad/pragov/crystal_structure_design/SSSP/Yb.GGA-PBE-paw-v1.0.UPF
     MD5 check sum: 43b6465ad8021f06e3edb42ae292e187
     Pseudo is Projector augmented-wave + core cor, Zval = 24.0
     Generated using ATOMPAW code
     Shape of augmentation charge: BESSEL
     Using radial grid of 1117 points,  8 beta functions with:
                l(1) =   0
                l(2) =   0
                l(3) =   1
                l(4) =   1
                l(5) =   2
                l(6) =   2
                l(7) =   3
                l(8) =   3
     Q(r) pseudized with 0 coefficients

     PseudoPot. # 2 for Ag read from file:
     /home/pragov/projects/rrg-bengioy-ad/pragov/crystal_structure_design/SSSP/Ag_ONCV_PBE-1.0.oncvpsp.upf
     MD5 check sum: 94f47bd0669c641108e45594df92fabc
     Pseudo is Norm-conserving, Zval = 19.0
     Generated using ONCVPSP code by D. R. Hamann
     Using radial grid of 1398 points,  6 beta functions with:
                l(1) =   0
                l(2) =   0
                l(3) =   1
                l(4) =   1
                l(5) =   2
                l(6) =   2

     PseudoPot. # 3 for Pd read from file:
     /home/pragov/projects/rrg-bengioy-ad/pragov/crystal_structure_design/SSSP/Pd_ONCV_PBE-1.0.oncvpsp.upf
     MD5 check sum: eb77f42b51d86fb18e25f68156a31cf1
     Pseudo is Norm-conserving, Zval = 18.0
     Generated using ONCVPSP code by D. R. Hamann
     Using radial grid of 1410 points,  6 beta functions with:
                l(1) =   0
                l(2) =   0
                l(3) =   1
                l(4) =   1
                l(5) =   2
                l(6) =   2

     atomic species   valence    mass     pseudopotential
        Yb            24.00   173.05400     Yb( 1.00)
        Ag            19.00   107.86820     Ag( 1.00)
        Pd            18.00   106.42000     Pd( 1.00)

     16 Sym. Ops., with inversion, found

                                    s                        frac. trans.

      isym =  1     identity

 cryst.   s( 1) = (     1          0          0      )
                  (     0          1          0      )
                  (     0          0          1      )

 cart.    s( 1) = (  1.0000000  0.0000000  0.0000000 )
                  (  0.0000000  1.0000000  0.0000000 )
                  (  0.0000000  0.0000000  1.0000000 )

      isym =  2     180 deg rotation - cart. axis [0,0,1]

[...]

      isym =  8      90 deg rotation - cart. axis [0,0,1]

[...]

      isym =  9     inversion

 cryst.   s( 9) = (    -1          0          0      )
                  (     0         -1          0      )
                  (     0          0         -1      )

 cart.    s( 9) = ( -1.0000000  0.0000000  0.0000000 )
                  (  0.0000000 -1.0000000  0.0000000 )
                  (  0.0000000  0.0000000 -1.0000000 )

      isym = 10     inv. 180 deg rotation - cart. axis [0,0,1]

 cryst.   s(10) = (     1          0          0      )
                  (     0          1          0      )
                  (     0          0         -1      )

 cart.    s(10) = (  1.0000000  0.0000000  0.0000000 )
                  (  0.0000000  1.0000000  0.0000000 )
                  (  0.0000000  0.0000000 -1.0000000 )

[...]

      isym = 16     inv.  90 deg rotation - cart. axis [0,0,1]

 cryst.   s(16) = (     0         -1          0      )
                  (     1          0          0      )
                  (     0          0         -1      )

 cart.    s(16) = (  0.0000000  1.0000000  0.0000000 )
                  ( -1.0000000  0.0000000  0.0000000 )
                  (  0.0000000  0.0000000 -1.0000000 )

   Cartesian axes

     site n.     atom                  positions (alat units)
         1           Yb  tau(   1) = (   0.5000000   0.5000000   0.5306968  )
         2           Yb  tau(   2) = (   0.5000000   0.5000000   1.4725147  )
         3           Ag  tau(   3) = (   0.0000000   0.0000000   0.0000000  )
         4           Pd  tau(   4) = (   0.0000000   0.0000000   1.0016057  )

   Crystallographic axes

     site n.     atom                  positions (cryst. coord.)
         1           Yb  tau(   1) = (  0.5000000  0.5000000  0.2649230  )
         2           Yb  tau(   2) = (  0.5000000  0.5000000  0.7350770  )
         3           Ag  tau(   3) = (  0.0000000  0.0000000  0.0000000  )
         4           Pd  tau(   4) = (  0.0000000  0.0000000  0.5000000  )

     number of k points=     1  Methfessel-Paxton smearing, width (Ry)=  0.0010
                       cart. coord. in units 2pi/alat
        k(    1) = (   0.0000000   0.0000000   0.0000000), wk =   2.0000000

                       cryst. coord.
        k(    1) = (   0.0000000   0.0000000   0.0000000), wk =   2.0000000

     Initial potential from superposition of free atoms

     starting charge      84.9913, renormalised to      85.0000
     Starting wfcs are   84 randomized atomic wfcs
     Checking if some PAW data can be deallocated...

     Self-consistent Calculation

     iteration #  1     ecut=    30.00 Ry     beta= 0.70
     Davidson diagonalization with overlap

     ethr =  1.00E-02,  avg # of iterations =  2.0

     Threshold (ethr) on eigenvalues was too large:
     Diagonalizing with lowered threshold

     Davidson diagonalization with overlap

[...]

     total energy              =   -2562.08352996 Ry
     estimated scf accuracy    <       0.80929572 Ry

[...]

     ethr =  2.23E-04,  avg # of iterations =  1.0
     Minimization algorithm failed to find Fermi energy: reverting to bisection
     Possible cause: smearing is larger than the electronic band-gap.

[...]

     ethr =  7.32E-06,  avg # of iterations =  3.0
     Minimization algorithm failed to find Fermi energy: reverting to bisection
     Possible cause: smearing is larger than the electronic band-gap.

[...]

     total energy              =   -2563.00529689 Ry
     estimated scf accuracy    <       0.00000144 Ry

     iteration # 43     ecut=    30.00 Ry     beta= 0.70
     Davidson diagonalization with overlap

     ethr =  1.69E-09,  avg # of iterations =  1.0

     End of self-consistent calculation

          k = 0.0000 0.0000 0.0000 (   850 PWs)   bands (ev):

   -77.5743 -69.2418 -40.6826 -40.6826 -40.4607 -36.5892 -36.5781 -34.6871
   -34.6871 -34.5432  -9.0218  -8.7125  -8.6102  -8.6102  -8.5869  -8.5868
     9.4466  10.5510  10.8322  11.3167  11.3614  11.3614  12.2830  12.3346
    12.9823  13.4920  13.5892  13.5892  14.2987  14.7035  14.7035  14.7134
    14.7394  14.7394  14.7428  14.7574  14.7734  14.7755  14.7755  14.8480
    14.8480  14.8498  14.8509  17.2453  17.8295  17.9551  18.5688  18.5688
    21.7090  21.7191  21.9566  21.9566

     occupation numbers
     1.0000   1.0000   1.0000   1.0000   1.0000   1.0000   1.0000   1.0000
     1.0000   1.0000   1.0000   1.0000   1.0000   1.0000   1.0000   1.0000
     1.0000   1.0000   1.0000   1.0000   1.0000   1.0000   1.0000   1.0000
     1.0000   1.0000   1.0000   1.0000   1.0000   1.0000   1.0000   1.0000
     1.0000   1.0000   1.0000   1.0000   1.0000   1.0000   1.0000   0.9221
     0.9219   0.8535   0.8025  -0.0000  -0.0000  -0.0000  -0.0000  -0.0000
    -0.0000  -0.0000  -0.0000  -0.0000

     the Fermi energy is    14.8562 ev

!    total energy              =   -2563.00529639 Ry
     estimated scf accuracy    <       0.00000026 Ry
     smearing contrib. (-TS)   =      -0.00040104 Ry
     internal energy E=F+TS    =   -2563.00489535 Ry

     The total energy is F=E-TS. E is the sum of the following terms:
     one-electron contribution =    -916.03372983 Ry
     hartree contribution      =     432.92250631 Ry
     xc contribution           =    -128.02653815 Ry
     ewald contribution        =    -982.85949233 Ry
     one-center paw contrib.   =    -969.00764135 Ry
      -> PAW hartree energy AE =     894.07631778 Ry
      -> PAW hartree energy PS =    -767.86817414 Ry
      -> PAW xc energy AE      =   -1169.31469487 Ry
      -> PAW xc energy PS      =      74.09890988 Ry
      -> total E_H with PAW    =     559.13064994 Ry
      -> total E_XC with PAW   =   -1223.24232314 Ry

     convergence has been achieved in  43 iterations

     Forces acting on atoms (cartesian axes, Ry/au):

     atom    1 type  1   force =     0.00000000    0.00000000    0.02231843
     atom    2 type  1   force =     0.00000000    0.00000000   -0.02231843
     atom    3 type  2   force =     0.00000000    0.00000000    0.00000000
     atom    4 type  3   force =     0.00000000    0.00000000    0.00000000
     The non-local contrib.  to forces
     atom    1 type  1   force =     0.00000000    0.00000000   -0.02918589
     atom    2 type  1   force =     0.00000000    0.00000000    0.02918589
     atom    3 type  2   force =     0.00000000    0.00000000    0.00000000
     atom    4 type  3   force =     0.00000000    0.00000000    0.00000000
     The ionic contribution  to forces
     atom    1 type  1   force =     0.00000000    0.00000000  -10.48616626
     atom    2 type  1   force =     0.00000000    0.00000000   10.48616626
     atom    3 type  2   force =    -0.00000000   -0.00000000   -0.00000000
     atom    4 type  3   force =    -0.00000000   -0.00000000    0.00000000
     The local contribution  to forces
     atom    1 type  1   force =    -0.00002719    0.00010615   10.53794414
     atom    2 type  1   force =     0.00002132   -0.00011017  -10.53820135
     atom    3 type  2   force =     0.00000021   -0.00000031    0.00112000
     atom    4 type  3   force =    -0.00000003    0.00000042   -0.00113385
     The core correction contribution to forces
     atom    1 type  1   force =    -0.00000000    0.00000000    0.00000016
     atom    2 type  1   force =     0.00000000   -0.00000000   -0.00000016
     atom    3 type  2   force =     0.00000000    0.00000000    0.00000000
     atom    4 type  3   force =     0.00000000    0.00000000    0.00000000
     The Hubbard contrib.    to forces
     atom    1 type  1   force =     0.00000000    0.00000000    0.00000000
     atom    2 type  1   force =     0.00000000    0.00000000    0.00000000
     atom    3 type  2   force =     0.00000000    0.00000000    0.00000000
     atom    4 type  3   force =     0.00000000    0.00000000    0.00000000
     The SCF correction term to forces
     atom    1 type  1   force =     0.00002396   -0.00008654   -0.00029086
     atom    2 type  1   force =    -0.00001771    0.00009019    0.00051376
     atom    3 type  2   force =    -0.00000041    0.00000006   -0.00112445
     atom    4 type  3   force =    -0.00000046   -0.00000032    0.00113470

     Total force =     0.031563     Total SCF correction =     0.001708

     Computing stress (Cartesian axis) and pressure

          total   stress  (Ry/bohr**3)                   (kbar)     P=     -632.65
  -0.00523726   0.00000000   0.00000000         -770.43        0.00        0.00
   0.00000000  -0.00523726   0.00000000            0.00     -770.43        0.00
   0.00000000   0.00000000  -0.00242756            0.00        0.00     -357.11

     kinetic stress (kbar)  34864.42      0.00      0.00
                                0.00  34864.42      0.00
                                0.00      0.00  35508.97

     local   stress (kbar)   4964.69      0.50     -0.12
                                0.50   4964.99      0.60
                               -0.12      0.60   6364.46

     nonloc. stress (kbar)  12664.14      0.00      0.00
                                0.00  12664.14      0.00
                                0.00      0.00  12569.73

     hartree stress (kbar)  34957.20     -0.23      0.05
                               -0.23  34957.08     -0.24
                                0.05     -0.24  34083.64

     exc-cor stress (kbar)  -9738.83     -0.00      0.00
                               -0.00  -9738.83     -0.00
                                0.00     -0.00  -9740.77

     corecor stress (kbar)     -0.67      0.00     -0.00
                                0.00     -0.67      0.00
                               -0.00      0.00     -0.67

     ewald   stress (kbar) -78481.46      0.00     -0.00
                                0.00 -78481.46     -0.00
                               -0.00     -0.00 -79142.48

     hubbard stress (kbar)      0.00      0.00      0.00
                                0.00      0.00      0.00
                                0.00      0.00      0.00

     DFT-D   stress (kbar)      0.00      0.00      0.00
                                0.00      0.00      0.00
                                0.00      0.00      0.00

     XDM     stress (kbar)      0.00      0.00      0.00
                                0.00      0.00      0.00
                                0.00      0.00      0.00

     dft-nl  stress (kbar)      0.00      0.00      0.00
                                0.00      0.00      0.00
                                0.00      0.00      0.00

     TS-vdW  stress (kbar)      0.00      0.00      0.00
                                0.00      0.00      0.00
                                0.00      0.00      0.00

[...]

                                0.00      0.00      0.00

     Writing all to output data dir new_calculations/myprefix.save/

     General routines

     Parallel routines

     PAW routines

   This run was terminated on:  20:45:51  20May2023

   JOB DONE.