     Program PWSCF v.7.0 starts on 21May2023 at 11:11:59

     Reading input from espresso_21854.pwi
Warning: card &CELL ignored
Warning: card / ignored

     Current dimensions of program PWSCF are:
     Max number of different atomic species (ntypx) = 10
     Max number of k-points (npk) =  40000
     Max angular momentum in pseudopotentials (lmaxx) =  4

     gamma-point specific algorithms are used
     Message from routine setup:
     using ibrav=0 with symmetry is DISCOURAGED, use correct ibrav instead

     Subspace diagonalization in iterative solution of the eigenvalue problem:
     a serial algorithm will be used

     Using Slab Decomposition

     bravais-lattice index     =            0
     lattice parameter (alat)  =      16.2335  a.u.
     unit-cell volume          =     943.3138 (a.u.)^3
     number of atoms/cell      =            8
     number of atomic types    =            3
     number of electrons       =       140.00
     number of Kohn-Sham states=           84
     kinetic-energy cutoff     =      30.0000  Ry
     charge density cutoff     =     240.0000  Ry
     scf convergence threshold =      1.0E-06
     mixing beta               =       0.7000
     number of iterations used =            8  plain     mixing
     Exchange-correlation=  SLA  PW   PBX  PBC
                           (   1   4   3   4   0   0   0)

     celldm(1)=  16.233494  celldm(2)=   0.000000  celldm(3)=   0.000000
     celldm(4)=   0.000000  celldm(5)=   0.000000  celldm(6)=   0.000000

     crystal axes: (cart. coord. in units of alat)
               a(1) = (   1.000000   0.000000   0.000000 )
               a(2) = (  -0.888009   0.459826   0.000000 )
               a(3) = (   0.000000   0.000000   0.479542 )

     reciprocal axes: (cart. coord. in units 2 pi/alat)
               b(1) = (  1.000000  1.931185  0.000000 )
               b(2) = (  0.000000  2.174736  0.000000 )
               b(3) = (  0.000000  0.000000  2.085323 )

     PseudoPot. # 1 for Lu read from file:
     /home/pragov/projects/rrg-bengioy-ad/pragov/crystal_structure_design/SSSP/Lu.GGA-PBE-paw-v1.0.UPF
     MD5 check sum: 9ceca61ee0c17e9380a83635bfffa61d
     Pseudo is Projector augmented-wave + core cor, Zval = 25.0
     Generated using ATOMPAW code
     Shape of augmentation charge: BESSEL
     Using radial grid of 1118 points,  8 beta functions with:
                l(1) =   0
                l(2) =   0
                l(3) =   1
                l(4) =   1
                l(5) =   2
                l(6) =   2
                l(7) =   3
                l(8) =   3
     Q(r) pseudized with 0 coefficients

     PseudoPot. # 2 for Co read from file:
     /home/pragov/projects/rrg-bengioy-ad/pragov/crystal_structure_design/SSSP/Co_pbe_v1.2.uspp.F.UPF
     MD5 check sum: 5f91765df6ddd3222702df6e7b74a16d
     Pseudo is Ultrasoft + core correction, Zval = 17.0
     Generated by new atomic code, or converted to UPF format
     Using radial grid of  863 points,  6 beta functions with:
                l(1) =   0
                l(2) =   0
                l(3) =   1
                l(4) =   1
                l(5) =   2
                l(6) =   2
     Q(r) pseudized with  8 coefficients,  rinner =    1.200   1.200   1.200
                                                       1.200   1.200

     PseudoPot. # 3 for Ge read from file:
     /home/pragov/projects/rrg-bengioy-ad/pragov/crystal_structure_design/SSSP/ge_pbe_v1.4.uspp.F.UPF
     MD5 check sum: 9c9eaa91e581c3f09632fb3098b2c6b2
     Pseudo is Ultrasoft + core correction, Zval = 14.0
     Generated by new atomic code, or converted to UPF format
     Using radial grid of  873 points,  6 beta functions with:
                l(1) =   0
                l(2) =   0
                l(3) =   1
                l(4) =   1
                l(5) =   2
                l(6) =   2
     Q(r) pseudized with  8 coefficients,  rinner =    1.400   1.400   1.400
                                                       1.400   1.400

     atomic species   valence    mass     pseudopotential
        Lu            25.00   174.96680     Lu( 1.00)
        Co            17.00    58.93319     Co( 1.00)
        Ge            14.00    72.63000     Ge( 1.00)

      4 Sym. Ops., with inversion, found ( 2 have fractional translation)

                                    s                        frac. trans.

      isym =  1     identity

 cryst.   s( 1) = (     1          0          0      )
                  (     0          1          0      )
                  (     0          0          1      )

 cart.    s( 1) = (  1.0000000  0.0000000  0.0000000 )
                  (  0.0000000  1.0000000  0.0000000 )
                  (  0.0000000  0.0000000  1.0000000 )

      isym =  2     180 deg rotation - cart. axis [0,0,1]

 cryst.   s( 2) = (    -1          0          0      )    f =( -0.0000000 )
                  (     0         -1          0      )       ( -0.0000000 )
                  (     0          0          1      )       ( -0.5000000 )

 cart.    s( 2) = ( -1.0000000 -0.0000000  0.0000000 )    f =( -0.0000000 )
                  (  0.0000000 -1.0000000  0.0000000 )       ( -0.0000000 )
                  (  0.0000000  0.0000000  1.0000000 )       ( -0.2397710 )

      isym =  3     inversion

 cryst.   s( 3) = (    -1          0          0      )
                  (     0         -1          0      )
                  (     0          0         -1      )

 cart.    s( 3) = ( -1.0000000 -0.0000000  0.0000000 )
                  (  0.0000000 -1.0000000  0.0000000 )
                  (  0.0000000  0.0000000 -1.0000000 )

      isym =  4     inv. 180 deg rotation - cart. axis [0,0,1]

 cryst.   s( 4) = (     1          0          0      )    f =(  0.0000000 )
                  (     0          1          0      )       (  0.0000000 )
                  (     0          0         -1      )       (  0.5000000 )

 cart.    s( 4) = (  1.0000000  0.0000000  0.0000000 )    f =(  0.0000000 )
                  (  0.0000000  1.0000000  0.0000000 )       (  0.0000000 )
                  (  0.0000000  0.0000000 -1.0000000 )       (  0.2397710 )

   Cartesian axes

     site n.     atom                  positions (alat units)
         1           Lu  tau(   1) = (  -0.6807019   0.4093361   0.1198855  )
         2           Lu  tau(   2) = (   0.7926928   0.0504898   0.3596566  )
         3           Co  tau(   3) = (  -0.2807480   0.3119270   0.1198855  )
         4           Co  tau(   4) = (   0.3927389   0.1478989   0.3596566  )
         5           Ge  tau(   5) = (   0.5253979   0.1155897   0.1198855  )
         6           Ge  tau(   6) = (  -0.4134070   0.3442362   0.3596566  )
         7           Ge  tau(   7) = (  -0.0270335   0.2501347   0.1198855  )
         8           Ge  tau(   8) = (   0.1390244   0.2096912   0.3596566  )

   Crystallographic axes

     site n.     atom                  positions (cryst. coord.)
         1           Lu  tau(   1) = (  0.1098020  0.8901980  0.2500000  )
         2           Lu  tau(   2) = (  0.8901980  0.1098020  0.7500000  )
         3           Co  tau(   3) = (  0.3216410  0.6783590  0.2500000  )
         4           Co  tau(   4) = (  0.6783590  0.3216410  0.7500000  )
         5           Ge  tau(   5) = (  0.7486230  0.2513770  0.2500000  )
         6           Ge  tau(   6) = (  0.2513770  0.7486230  0.7500000  )
         7           Ge  tau(   7) = (  0.4560230  0.5439770  0.2500000  )
         8           Ge  tau(   8) = (  0.5439770  0.4560230  0.7500000  )

     number of k points=     1  Methfessel-Paxton smearing, width (Ry)=  0.0010
                       cart. coord. in units 2pi/alat
        k(    1) = (   0.0000000   0.0000000   0.0000000), wk =   2.0000000

                       cryst. coord.
        k(    1) = (   0.0000000   0.0000000   0.0000000), wk =   2.0000000

     Check: negative core charge=   -0.000008

     Initial potential from superposition of free atoms

     starting charge     137.9889, renormalised to     140.0000
     Starting wfcs are  126 randomized atomic wfcs
     Checking if some PAW data can be deallocated...

     Self-consistent Calculation

     iteration #  1     ecut=    30.00 Ry     beta= 0.70
     Davidson diagonalization with overlap

     ethr =  1.00E-02,  avg # of iterations =  2.0

     total energy              =   -3572.70292686 Ry
     estimated scf accuracy    <      38.68256014 Ry

[...]

     total energy              =   -3611.39516777 Ry
     estimated scf accuracy    <       0.00000208 Ry

     iteration # 34     ecut=    30.00 Ry     beta= 0.70
     Davidson diagonalization with overlap

     ethr =  1.48E-09,  avg # of iterations =  1.0

     End of self-consistent calculation

          k = 0.0000 0.0000 0.0000 (  1313 PWs)   bands (ev):

   -79.7348 -79.7347 -43.2035 -43.2029 -43.1863 -43.1831 -42.7209 -42.7177
   -41.5701 -41.5695 -12.3253 -12.2959 -12.2131 -12.2083 -12.1341 -12.1314
    -9.6653  -9.6338  -9.6291  -9.6288  -9.6113  -9.5879  -9.5779  -9.5501
    -9.5456  -9.4575  -8.9754  -8.9271  -8.9173  -8.8958  -8.8671  -8.8344
    -8.8208  -8.8081  -8.8073  -8.7563   2.7234   4.5335   7.0746   8.3953
     9.7523   9.7974   9.8034   9.8234   9.8279   9.8326   9.8341   9.8342
     9.8360   9.8366   9.8441   9.8457   9.8649   9.8894  10.3455  10.6450
    10.7915  11.6091  12.3615  12.9104  13.0322  13.0325  13.3010  13.3385
    13.3821  14.0444  14.3179  14.4158  14.6824  15.3745  15.3789  15.4788
    16.6924  17.1250  17.3735  17.4995  17.5096  17.7413  17.8464  18.2682
    18.5594  19.8926  19.9231  19.9614

     occupation numbers
     1.0000   1.0000   1.0000   1.0000   1.0000   1.0000   1.0000   1.0000
     1.0000   1.0000   1.0000   1.0000   1.0000   1.0000   1.0000   1.0000
     1.0000   1.0000   1.0000   1.0000   1.0000   1.0000   1.0000   1.0000
     1.0000   1.0000   1.0000   1.0000   1.0000   1.0000   1.0000   1.0000
     1.0000   1.0000   1.0000   1.0000   1.0000   1.0000   1.0000   1.0000
     1.0000   1.0000   1.0000   1.0000   1.0000   1.0000   1.0000   1.0000
     1.0000   1.0000   1.0000   1.0000   1.0000   1.0000   1.0000   1.0000
     1.0000   1.0000   1.0000   1.0000   1.0000   1.0000   1.0000   1.0000
     1.0000   1.0000   1.0000   1.0000   1.0000   0.6360   0.3640  -0.0000
    -0.0000  -0.0000  -0.0000  -0.0000  -0.0000  -0.0000  -0.0000  -0.0000
    -0.0000  -0.0000  -0.0000  -0.0000

     the Fermi energy is    15.3767 ev

!    total energy              =   -3611.39516777 Ry
     estimated scf accuracy    <       0.00000003 Ry
     smearing contrib. (-TS)   =      -0.00052019 Ry
     internal energy E=F+TS    =   -3611.39464758 Ry

     The total energy is F=E-TS. E is the sum of the following terms:
     one-electron contribution =   -1674.95199572 Ry
     hartree contribution      =     870.23601783 Ry
     xc contribution           =    -381.84453628 Ry
     ewald contribution        =   -1443.17387931 Ry
     one-center paw contrib.   =    -981.66025409 Ry
      -> PAW hartree energy AE =     982.28541876 Ry
      -> PAW hartree energy PS =    -845.28913064 Ry
      -> PAW xc energy AE      =   -1198.66717879 Ry
      -> PAW xc energy PS      =      80.01063658 Ry
      -> total E_H with PAW    =    1007.23230595 Ry
      -> total E_XC with PAW   =   -1500.50107849 Ry

     convergence has been achieved in  34 iterations

     Forces acting on atoms (cartesian axes, Ry/au):

     atom    1 type  1   force =    -0.00725804    0.00176576    0.00000000
     atom    2 type  1   force =     0.00725804   -0.00176576    0.00000000
     atom    3 type  2   force =     0.03492562   -0.00850679   -0.00000000
     atom    4 type  2   force =    -0.03492562    0.00850679    0.00000000
     atom    5 type  3   force =     0.00964591   -0.00234834    0.00000000
     atom    6 type  3   force =    -0.00964591    0.00234834    0.00000000
     atom    7 type  3   force =     0.12168597   -0.02963689   -0.00000000
     atom    8 type  3   force =    -0.12168597    0.02963689    0.00000000
     The non-local contrib.  to forces
     atom    1 type  1   force =    -0.12704921    0.03094155    0.00000000
     atom    2 type  1   force =     0.12704921   -0.03094155    0.00000000
     atom    3 type  2   force =    -0.01937621    0.00471890    0.00000000
     atom    4 type  2   force =     0.01937621   -0.00471890    0.00000000
     atom    5 type  3   force =    -0.03082219    0.00750764    0.00000000
     atom    6 type  3   force =     0.03082219   -0.00750764    0.00000000
     atom    7 type  3   force =    -0.23918991    0.05825474    0.00000000
     atom    8 type  3   force =     0.23918991   -0.05825474    0.00000000
     The ionic contribution  to forces
     atom    1 type  1   force =   -38.33854624    9.33737890    0.00000000
     atom    2 type  1   force =    38.33854624   -9.33737890   -0.00000000
     atom    3 type  2   force =    18.78543051   -4.57520432    0.00000000
     atom    4 type  2   force =   -18.78543050    4.57520432   -0.00000000
     atom    5 type  3   force =    -0.06554360    0.01596319    0.00000000
     atom    6 type  3   force =     0.06554361   -0.01596319   -0.00000000
     atom    7 type  3   force =    16.42199191   -3.99958725   -0.00000000
     atom    8 type  3   force =   -16.42199191    3.99958725   -0.00000000
     The local contribution  to forces
     atom    1 type  1   force =    38.45901361   -9.36671587   -0.00000077
     atom    2 type  1   force =   -38.45874211    9.36665156    0.00000018
     atom    3 type  2   force =   -18.72915251    4.56149866   -0.00000014
     atom    4 type  2   force =    18.72889449   -4.56143643    0.00000034
     atom    5 type  3   force =     0.10474296   -0.02551140   -0.00000023
     atom    6 type  3   force =    -0.10525077    0.02563511    0.00000023
     atom    7 type  3   force =   -16.06557826    3.91278274   -0.00000003
     atom    8 type  3   force =    16.06592363   -3.91286680    0.00000014
     The core correction contribution to forces
     atom    1 type  1   force =     0.00000207   -0.00000050   -0.00000000
     atom    2 type  1   force =    -0.00000207    0.00000050    0.00000000
     atom    3 type  2   force =    -0.00227583    0.00055428   -0.00000000
     atom    4 type  2   force =     0.00227579   -0.00055427   -0.00000000
     atom    5 type  3   force =     0.00094494   -0.00023015   -0.00000000
     atom    6 type  3   force =    -0.00094555    0.00023031    0.00000000
     atom    7 type  3   force =     0.00436224   -0.00106243    0.00000000
     atom    8 type  3   force =    -0.00436190    0.00106234    0.00000000
     The Hubbard contrib.    to forces
     atom    1 type  1   force =     0.00000000    0.00000000    0.00000000
     atom    2 type  1   force =     0.00000000    0.00000000    0.00000000
     atom    3 type  2   force =     0.00000000    0.00000000    0.00000000
     atom    4 type  2   force =     0.00000000    0.00000000    0.00000000
     atom    5 type  3   force =     0.00000000    0.00000000    0.00000000
     atom    6 type  3   force =     0.00000000    0.00000000    0.00000000
     atom    7 type  3   force =     0.00000000    0.00000000    0.00000000
     atom    8 type  3   force =     0.00000000    0.00000000    0.00000000
     The SCF correction term to forces
     atom    1 type  1   force =    -0.00070074    0.00016733    0.00000099
     atom    2 type  1   force =     0.00038429   -0.00009172   -0.00000022
     atom    3 type  2   force =     0.00029042   -0.00007204    0.00000021
     atom    4 type  2   force =    -0.00005083    0.00001433   -0.00000048
     atom    5 type  3   force =     0.00034297   -0.00008215    0.00000028
     atom    6 type  3   force =     0.00020378   -0.00005081   -0.00000028
     atom    7 type  3   force =     0.00010899   -0.00002710    0.00000005
     atom    8 type  3   force =    -0.00043669    0.00010643   -0.00000018

     Total force =     0.185107     Total SCF correction =     0.001073

     Computing stress (Cartesian axis) and pressure

          total   stress  (Ry/bohr**3)                   (kbar)     P=     -121.51
  -0.00126079  -0.00000193   0.00000000         -185.47       -0.28        0.00
  -0.00000193  -0.00126823   0.00000000           -0.28     -186.56        0.00
   0.00000000   0.00000000   0.00005103            0.00        0.00        7.51

     kinetic stress (kbar)  21060.86    -40.82      0.00
                              -40.82  20903.19      0.00
                                0.00      0.00  21021.29

     local   stress (kbar)  17169.58  -3479.29     -0.00
                            -3479.29   3731.27      0.00
                               -0.00      0.00  -2180.94

     nonloc. stress (kbar)  16166.60    -11.70      0.00
                              -11.70  16121.39      0.00
                                0.00      0.00  16079.02

     hartree stress (kbar)  39507.76   1906.30      0.00
                             1906.30  46870.60     -0.00
                                0.00     -0.00  49330.61

     exc-cor stress (kbar)   6183.17     -2.16      0.00
                               -2.16   6174.82     -0.00
                                0.00     -0.00   6176.30

     corecor stress (kbar) -19875.33      0.24      0.00
                                0.24 -19874.40      0.00
                                0.00      0.00 -19874.54

     ewald   stress (kbar) -80398.10   1627.15     -0.00
                             1627.15 -74113.44     -0.00
                               -0.00     -0.00 -70544.23

     hubbard stress (kbar)      0.00      0.00      0.00
                                0.00      0.00      0.00
                                0.00      0.00      0.00

     DFT-D   stress (kbar)      0.00      0.00      0.00
                                0.00      0.00      0.00
                                0.00      0.00      0.00

     XDM     stress (kbar)      0.00      0.00      0.00
                                0.00      0.00      0.00
                                0.00      0.00      0.00

     dft-nl  stress (kbar)      0.00      0.00      0.00
                                0.00      0.00      0.00
                                0.00      0.00      0.00

     TS-vdW  stress (kbar)      0.00      0.00      0.00
                                0.00      0.00      0.00
                                0.00      0.00      0.00

[...]

                                0.00      0.00      0.00

     Writing all to output data dir new_calculations/myprefix.save/

     General routines

     Parallel routines

     PAW routines

   This run was terminated on:  11:13:12  21May2023

   JOB DONE.