     Program PWSCF v.7.0 starts on 20May2023 at 23:15:25

     Reading input from espresso_23202.pwi
Warning: card &CELL ignored
Warning: card / ignored

     Current dimensions of program PWSCF are:
     Max number of different atomic species (ntypx) = 10
     Max number of k-points (npk) =  40000
     Max angular momentum in pseudopotentials (lmaxx) =  4
     file In.pbe-dn-rrkjus_psl.0.2.2.UPF: wavefunction(s)  5S renormalized

     gamma-point specific algorithms are used
     Message from routine setup:
     using ibrav=0 with symmetry is DISCOURAGED, use correct ibrav instead

     Subspace diagonalization in iterative solution of the eigenvalue problem:
     a serial algorithm will be used

     Using Slab Decomposition

     bravais-lattice index     =            0
     lattice parameter (alat)  =      11.4488  a.u.
     unit-cell volume          =    1744.4361 (a.u.)^3
     number of atoms/cell      =           10
     number of atomic types    =            3
     number of electrons       =       130.00
     number of Kohn-Sham states=           78
     kinetic-energy cutoff     =      30.0000  Ry
     charge density cutoff     =     240.0000  Ry
     scf convergence threshold =      1.0E-06
     mixing beta               =       0.7000
     number of iterations used =            8  plain     mixing
     Exchange-correlation=  SLA  PW   PBX  PBC
                           (   1   4   3   4   0   0   0)

     celldm(1)=  11.448802  celldm(2)=   0.000000  celldm(3)=   0.000000
     celldm(4)=   0.000000  celldm(5)=   0.000000  celldm(6)=   0.000000

     crystal axes: (cart. coord. in units of alat)
               a(1) = (   1.000000   0.000000   0.000000 )
               a(2) = (   0.499995   0.866029   0.000000 )
               a(3) = (   0.274299   0.158368   1.342279 )

     reciprocal axes: (cart. coord. in units 2 pi/alat)
               b(1) = (  1.000000 -0.577342 -0.136236 )
               b(2) = (  0.000000  1.154696 -0.136236 )
               b(3) = (  0.000000  0.000000  0.745002 )

     PseudoPot. # 1 for Sr read from file:
     /home/pragov/projects/rrg-bengioy-ad/pragov/crystal_structure_design/SSSP/Sr_pbe_v1.uspp.F.UPF
     MD5 check sum: 6b418c05fbe9db5448babca5e47b7a5b
     Pseudo is Ultrasoft + core correction, Zval = 10.0
     Generated by new atomic code, or converted to UPF format
     Using radial grid of  883 points,  6 beta functions with:
                l(1) =   0
                l(2) =   0
                l(3) =   1
                l(4) =   1
                l(5) =   2
                l(6) =   2
     Q(r) pseudized with  6 coefficients,  rinner =    1.400   1.400   1.400
                                                       1.400   1.400

     PseudoPot. # 2 for In read from file:
     /home/pragov/projects/rrg-bengioy-ad/pragov/crystal_structure_design/SSSP/In.pbe-dn-rrkjus_psl.0.2.2.UPF
     MD5 check sum: 25e7c42c3b55b68f4bf926be2e7201a4
     Pseudo is Ultrasoft + core correction, Zval = 13.0
     Generated using "atomic" code by A. Dal Corso  v.5.0.99 svn rev. 10869
     Using radial grid of 1241 points,  6 beta functions with:
                l(1) =   0
                l(2) =   0
                l(3) =   1
                l(4) =   1
                l(5) =   2
                l(6) =   2
     Q(r) pseudized with 0 coefficients

     PseudoPot. # 3 for Pt read from file:
     /home/pragov/projects/rrg-bengioy-ad/pragov/crystal_structure_design/SSSP/pt_pbe_v1.4.uspp.F.UPF
     MD5 check sum: f09d6de1a584b5a045c4fc126da2d0c4
     Pseudo is Ultrasoft + core correction, Zval = 16.0
     Generated by new atomic code, or converted to UPF format
     Using radial grid of  985 points,  6 beta functions with:
                l(1) =   0
                l(2) =   0
                l(3) =   1
                l(4) =   1
                l(5) =   2
                l(6) =   2
     Q(r) pseudized with  8 coefficients,  rinner =    1.300   1.300   1.300
                                                       1.300   1.300

     atomic species   valence    mass     pseudopotential
        Sr            10.00    87.62000     Sr( 1.00)
        In            13.00   114.81800     In( 1.00)
        Pt            16.00   195.08400     Pt( 1.00)

      2 Sym. Ops., with inversion, found

                                    s                        frac. trans.

      isym =  1     identity

 cryst.   s( 1) = (     1          0          0      )
                  (     0          1          0      )
                  (     0          0          1      )

 cart.    s( 1) = (  1.0000000  0.0000000 -0.0000000 )
                  (  0.0000000  1.0000000 -0.0000000 )
                  (  0.0000000  0.0000000  1.0000000 )

      isym =  2     inversion

 cryst.   s( 2) = (    -1          0          0      )
                  (     0         -1          0      )
                  (     0          0         -1      )

 cart.    s( 2) = ( -1.0000000 -0.0000000  0.0000000 )
                  (  0.0000000 -1.0000000  0.0000000 )
                  (  0.0000000  0.0000000 -1.0000000 )

   Cartesian axes

     site n.     atom                  positions (alat units)
         1           Sr  tau(   1) = (   0.9976843   0.7399561   0.4737049  )
         2           Sr  tau(   2) = (   0.4974842   0.4511633   0.1974344  )
         3           Sr  tau(   3) = (   0.7766091   0.2844401   0.8685738  )
         4           Sr  tau(   4) = (   1.2768092   0.5732328   1.1448443  )
         5           In  tau(   5) = (   1.0022185   0.1545234   0.3355697  )
         6           In  tau(   6) = (   0.7720749   0.8698727   1.0067090  )
         7           Pt  tau(   7) = (   1.0511106   1.0234125   1.3389619  )
         8           Pt  tau(   8) = (   0.4995888   0.7049889   0.6744561  )
         9           Pt  tau(   9) = (   0.7231828   0.0009837   0.0033168  )
        10           Pt  tau(  10) = (   1.2747046   0.3194073   0.6678226  )

   Crystallographic axes

     site n.     atom                  positions (cryst. coord.)
         1           Sr  tau(   1) = (  0.5059410  0.7898890  0.3529110  )
         2           Sr  tau(   2) = (  0.2101110  0.4940590  0.1470890  )
         3           Sr  tau(   3) = (  0.4940590  0.2101110  0.6470890  )
         4           Sr  tau(   4) = (  0.7898890  0.5059410  0.8529110  )
         5           In  tau(   5) = (  0.8672890  0.1327110  0.2500000  )
         6           In  tau(   6) = (  0.1327110  0.8672890  0.7500000  )
         7           Pt  tau(   7) = (  0.2778370  0.9993160  0.9975290  )
         8           Pt  tau(   8) = (  0.0006840  0.7221630  0.5024710  )
         9           Pt  tau(   9) = (  0.7221630  0.0006840  0.0024710  )
        10           Pt  tau(  10) = (  0.9993160  0.2778370  0.4975290  )

     number of k points=     1  Methfessel-Paxton smearing, width (Ry)=  0.0010
                       cart. coord. in units 2pi/alat
        k(    1) = (   0.0000000   0.0000000   0.0000000), wk =   2.0000000

                       cryst. coord.
        k(    1) = (   0.0000000   0.0000000   0.0000000), wk =   2.0000000

     Check: negative core charge=   -0.000002

     Initial potential from superposition of free atoms

     starting charge     127.8579, renormalised to     130.0000

     negative rho (up, down):  1.005E+00 0.000E+00
     Starting wfcs are  118 randomized atomic wfcs

     Self-consistent Calculation

     iteration #  1     ecut=    30.00 Ry     beta= 0.70
     Davidson diagonalization with overlap

     ethr =  1.00E-02,  avg # of iterations =  2.0

     negative rho (up, down):  9.324E-01 0.000E+00

     total energy              =   -1410.76205674 Ry
     estimated scf accuracy    <       4.34774053 Ry

[...]

     total energy              =   -1413.06163836 Ry
     estimated scf accuracy    <       0.00000963 Ry

     iteration # 19     ecut=    30.00 Ry     beta= 0.70
     Davidson diagonalization with overlap

     ethr =  7.25E-09,  avg # of iterations =  2.0

[...]

     End of self-consistent calculation

          k = 0.0000 0.0000 0.0000 (  2416 PWs)   bands (ev):

   -40.9426 -40.9425 -40.7707 -40.7706 -40.5416 -40.5414 -40.5253 -40.5252
   -40.4778 -40.4774 -40.4616 -40.4614 -23.6897 -23.6675 -23.6608 -23.6443
    -5.9528  -5.9149  -5.8096  -5.8006  -5.7980  -5.7919  -5.7573  -5.6565
    -5.6496  -5.6335  -5.6041  -5.6001  -2.1744  -2.1638  -2.1329  -2.1273
    -2.1255  -2.1136  -2.0618  -2.0588  -2.0454  -2.0386   4.1976   5.8823
     6.1386   7.4092   7.7167   7.8083   7.9184   8.2694   8.3986   8.4325
     8.6323   8.8517   8.8607   8.9401   8.9512   9.2126   9.2458   9.3153
     9.3536   9.7004   9.8669   9.9043   9.9391  10.7965  11.5260  11.8141
    11.8446  11.8483  11.9577  12.0132  12.3907  12.7102  13.0604  13.2092
    13.4431  13.7720  13.7915  14.0262  16.3386  16.4335

     occupation numbers
     1.0000   1.0000   1.0000   1.0000   1.0000   1.0000   1.0000   1.0000
     1.0000   1.0000   1.0000   1.0000   1.0000   1.0000   1.0000   1.0000
     1.0000   1.0000   1.0000   1.0000   1.0000   1.0000   1.0000   1.0000
     1.0000   1.0000   1.0000   1.0000   1.0000   1.0000   1.0000   1.0000
     1.0000   1.0000   1.0000   1.0000   1.0000   1.0000   1.0000   1.0000
     1.0000   1.0000   1.0000   1.0000   1.0000   1.0000   1.0000   1.0000
     1.0000   1.0000   1.0000   1.0000   1.0000   1.0000   1.0000   1.0000
     1.0000   1.0000   1.0000   1.0000   1.0000   1.0000   1.0000   1.0020
     0.6129   0.3852  -0.0000  -0.0000  -0.0000  -0.0000  -0.0000  -0.0000
    -0.0000  -0.0000  -0.0000  -0.0000  -0.0000  -0.0000

     the Fermi energy is    11.8464 ev

!    total energy              =   -1413.06163903 Ry
     estimated scf accuracy    <       0.00000039 Ry
     smearing contrib. (-TS)   =      -0.00052323 Ry
     internal energy E=F+TS    =   -1413.06111580 Ry

     The total energy is F=E-TS. E is the sum of the following terms:
     one-electron contribution =    -472.29751659 Ry
     hartree contribution      =     311.28133643 Ry
     xc contribution           =    -396.19621144 Ry
     ewald contribution        =    -855.84872420 Ry

     convergence has been achieved in  19 iterations

     negative rho (up, down):  9.624E-01 0.000E+00

     Forces acting on atoms (cartesian axes, Ry/au):

     atom    1 type  1   force =     0.00659519   -0.01333611   -0.00338825
     atom    2 type  1   force =     0.00825194   -0.01236823    0.00336483
     atom    3 type  1   force =    -0.00659519    0.01333611    0.00338825
     atom    4 type  1   force =    -0.00825194    0.01236823   -0.00336483
     atom    5 type  2   force =     0.00217355   -0.00376187    0.00005626
     atom    6 type  2   force =    -0.00217355    0.00376187   -0.00005626
     atom    7 type  3   force =     0.00909813   -0.00972518    0.00514527
     atom    8 type  3   force =     0.00389751   -0.01269517   -0.00515091
     atom    9 type  3   force =    -0.00909813    0.00972518   -0.00514527
     atom   10 type  3   force =    -0.00389751    0.01269517    0.00515091
     The non-local contrib.  to forces
     atom    1 type  1   force =    -0.02162516    0.02334330   -0.02724296
     atom    2 type  1   force =    -0.00939755    0.03039995    0.02721351
     atom    3 type  1   force =     0.02162516   -0.02334330    0.02724296
     atom    4 type  1   force =     0.00939755   -0.03039995   -0.02721351
     atom    5 type  2   force =    -0.02041411    0.03538612    0.00010227
     atom    6 type  2   force =     0.02041411   -0.03538612   -0.00010227
     atom    7 type  3   force =    -0.20350485   -0.01259302   -0.04731556
     atom    8 type  3   force =     0.11266972    0.16995985    0.04731580
     atom    9 type  3   force =     0.20350485    0.01259302    0.04731556
     atom   10 type  3   force =    -0.11266972   -0.16995985   -0.04731580
     The ionic contribution  to forces
     atom    1 type  1   force =     0.41872588   -2.32370735    0.79518882
     atom    2 type  1   force =     1.80303618   -1.52446966   -0.79518882
     atom    3 type  1   force =    -0.41872588    2.32370735   -0.79518882
     atom    4 type  1   force =    -1.80303618    1.52446966    0.79518882
     atom    5 type  2   force =    -4.72807190    8.18920167    0.00000000
     atom    6 type  2   force =     4.72807190   -8.18920167   -0.00000000
     atom    7 type  3   force =     1.94405332   -0.82142475   -0.66029906
     atom    8 type  3   force =    -0.26063888   -2.09431356    0.66029906
     atom    9 type  3   force =    -1.94405332    0.82142475    0.66029906
     atom   10 type  3   force =     0.26063888    2.09431356   -0.66029906
     The local contribution  to forces
     atom    1 type  1   force =    -0.39220973    2.28864584   -0.77303214
     atom    2 type  1   force =    -1.78614019    1.48390271    0.77276867
     atom    3 type  1   force =     0.39175311   -2.28863895    0.77381057
     atom    4 type  1   force =     1.78597244   -1.48380168   -0.77376597
     atom    5 type  2   force =     4.74527177   -8.21890500   -0.00005521
     atom    6 type  2   force =    -4.74477172    8.21832990    0.00039942
     atom    7 type  3   force =    -1.74180162    0.82951834    0.70903609
     atom    8 type  3   force =     0.15251365    1.92281907   -0.70888675
     atom    9 type  3   force =     1.74099588   -0.82974058   -0.71152124
     atom   10 type  3   force =    -0.15156519   -1.92283504    0.71181035
     The core correction contribution to forces
     atom    1 type  1   force =     0.00145945   -0.00178199    0.00213910
     atom    2 type  1   force =     0.00079832   -0.00214673   -0.00213851
     atom    3 type  1   force =    -0.00146513    0.00176682   -0.00214313
     atom    4 type  1   force =    -0.00081113    0.00215826    0.00214063
     atom    5 type  2   force =     0.00542199   -0.00939688    0.00000026
     atom    6 type  2   force =    -0.00541877    0.00938312    0.00000708
     atom    7 type  3   force =     0.00948183   -0.00564535    0.00218030
     atom    8 type  3   force =     0.00016161   -0.01102724   -0.00214575
     atom    9 type  3   force =    -0.00945525    0.00562746   -0.00220096
     atom   10 type  3   force =    -0.00012684    0.01099920    0.00223944
     The Hubbard contrib.    to forces
     atom    1 type  1   force =     0.00000000    0.00000000    0.00000000
     atom    2 type  1   force =     0.00000000    0.00000000    0.00000000
     atom    3 type  1   force =     0.00000000    0.00000000    0.00000000
     atom    4 type  1   force =     0.00000000    0.00000000    0.00000000
     atom    5 type  2   force =     0.00000000    0.00000000    0.00000000
     atom    6 type  2   force =     0.00000000    0.00000000    0.00000000
     atom    7 type  3   force =     0.00000000    0.00000000    0.00000000
     atom    8 type  3   force =     0.00000000    0.00000000    0.00000000
     atom    9 type  3   force =     0.00000000    0.00000000    0.00000000
     atom   10 type  3   force =     0.00000000    0.00000000    0.00000000
     The SCF correction term to forces
     atom    1 type  1   force =     0.00019538    0.00005382   -0.00045759
     atom    2 type  1   force =    -0.00014410    0.00002821    0.00070532
     atom    3 type  1   force =     0.00016819   -0.00026608   -0.00034986
     atom    4 type  1   force =     0.00012609    0.00002464    0.00028054
     atom    5 type  2   force =    -0.00006875   -0.00006327    0.00005325
     atom    6 type  2   force =    -0.00050362    0.00062115   -0.00031618
     atom    7 type  3   force =     0.00086066    0.00045363    0.00152535
     atom    8 type  3   force =    -0.00079283   -0.00013538   -0.00163326
     atom    9 type  3   force =    -0.00009910   -0.00014545    0.00094416
     atom   10 type  3   force =    -0.00015887    0.00017519   -0.00118399

     Total force =     0.042209     Total SCF correction =     0.003287

     Computing stress (Cartesian axis) and pressure

     negative rho (up, down):  9.624E-01 0.000E+00
          total   stress  (Ry/bohr**3)                   (kbar)     P=       10.62
   0.00026045   0.00008916   0.00004568           38.31       13.12        6.72
   0.00008916   0.00015763   0.00002640           13.12       23.19        3.88
   0.00004568   0.00002640  -0.00020149            6.72        3.88      -29.64

     kinetic stress (kbar)  20664.37    -52.14    -30.80
                              -52.14  20724.56    -17.78
                              -30.80    -17.78  20750.56

     local   stress (kbar)  -5348.99  -5570.18  -2713.75
                            -5570.18   1082.88  -1566.79
                            -2713.75  -1566.79  -7546.32

     nonloc. stress (kbar)   4730.24    -51.89     15.65
                              -51.89   4790.14      9.03
                               15.65      9.03   4853.93

     hartree stress (kbar)   9370.94   2473.52   1161.30
                             2473.52   6514.78    670.48
                             1161.30    670.48  10364.06

     exc-cor stress (kbar)  15057.36     -0.29      0.92
                               -0.29  15057.69      0.53
                                0.92      0.53  15061.68

     corecor stress (kbar) -21307.23     -0.41      0.71
                               -0.41 -21306.75      0.41
                                0.71      0.41 -21309.90

     ewald   stress (kbar) -23128.37   3214.52   1572.69
                             3214.52 -26840.12    908.00
                             1572.69    908.00 -22203.66

     hubbard stress (kbar)      0.00      0.00      0.00
                                0.00      0.00      0.00
                                0.00      0.00      0.00

     DFT-D   stress (kbar)      0.00      0.00      0.00
                                0.00      0.00      0.00
                                0.00      0.00      0.00

     XDM     stress (kbar)      0.00      0.00      0.00
                                0.00      0.00      0.00
                                0.00      0.00      0.00

     dft-nl  stress (kbar)      0.00      0.00      0.00
                                0.00      0.00      0.00
                                0.00      0.00      0.00

     TS-vdW  stress (kbar)      0.00      0.00      0.00
                                0.00      0.00      0.00
                                0.00      0.00      0.00

[...]

                                0.00      0.00      0.00

     Writing all to output data dir new_calculations/myprefix.save/

     General routines

     Parallel routines

   This run was terminated on:  23:16:13  20May2023

   JOB DONE.