     Program PWSCF v.7.0 starts on 20May2023 at  7:35:48

     Reading input from espresso_13189.pwi
Warning: card &CELL ignored
Warning: card / ignored

     Current dimensions of program PWSCF are:
     Max number of different atomic species (ntypx) = 10
     Max number of k-points (npk) =  40000
     Max angular momentum in pseudopotentials (lmaxx) =  4
     file Mg.pbe-n-kjpaw_psl.0.3.0.UPF: wavefunction(s)  3S renormalized
     file O.pbe-n-kjpaw_psl.0.1.UPF: wavefunction(s)  2P renormalized

     gamma-point specific algorithms are used
     Message from routine setup:
     using ibrav=0 with symmetry is DISCOURAGED, use correct ibrav instead

     Subspace diagonalization in iterative solution of the eigenvalue problem:
     a serial algorithm will be used

     Using Slab Decomposition

     bravais-lattice index     =            0
     lattice parameter (alat)  =      15.0387  a.u.
     unit-cell volume          =     650.4507 (a.u.)^3
     number of atoms/cell      =           10
     number of atomic types    =            3
     number of electrons       =        57.00
     number of Kohn-Sham states=           35
     kinetic-energy cutoff     =      30.0000  Ry
     charge density cutoff     =     240.0000  Ry
     scf convergence threshold =      1.0E-06
     mixing beta               =       0.7000
     number of iterations used =            8  plain     mixing
     Exchange-correlation= SLA  PW   PBX  PBC
                           (   1   4   3   4   0   0   0)

     celldm(1)=  15.038667  celldm(2)=   0.000000  celldm(3)=   0.000000
     celldm(4)=   0.000000  celldm(5)=   0.000000  celldm(6)=   0.000000

     crystal axes: (cart. coord. in units of alat)
               a(1) = (   1.000000   0.000000   0.000000 )
               a(2) = (   0.785527   0.618828   0.000000 )
               a(3) = (  -0.857296  -0.411748   0.309041 )

     reciprocal axes: (cart. coord. in units 2 pi/alat)
               b(1) = (  1.000000 -1.269378  1.082807 )
               b(2) = (  0.000000  1.615958  2.153007 )
               b(3) = (  0.000000  0.000000  3.235814 )

     PseudoPot. # 1 for Mg read from file:
     /home/pragov/projects/rrg-bengioy-ad/pragov/crystal_structure_design/SSSP/Mg.pbe-n-kjpaw_psl.0.3.0.UPF
     MD5 check sum: 24ecedc7f3e3cbe212e682f4413594e4
     Pseudo is Projector augmented-wave + core cor, Zval =  2.0
     Generated using "atomic" code by A. Dal Corso  v.5.0.99 svn rev. 10869
     Shape of augmentation charge: PSQ
     Using radial grid of 1129 points,  4 beta functions with:
                l(1) =   0
                l(2) =   0
                l(3) =   1
                l(4) =   1
     Q(r) pseudized with 0 coefficients

     PseudoPot. # 2 for Cu read from file:
     /home/pragov/projects/rrg-bengioy-ad/pragov/crystal_structure_design/SSSP/Cu_pbe_v1.2.uspp.F.UPF
     MD5 check sum: 6e991ff952a84172a2a52a1c1e996048
     Pseudo is Ultrasoft + core correction, Zval = 19.0
     Generated by new atomic code, or converted to UPF format
     Using radial grid of  867 points,  6 beta functions with:
                l(1) =   0
                l(2) =   0
                l(3) =   1
                l(4) =   1
                l(5) =   2
                l(6) =   2
     Q(r) pseudized with  8 coefficients,  rinner =    1.150   1.150   1.150
                                                       1.150   1.150

     PseudoPot. # 3 for O  read from file:
     /home/pragov/projects/rrg-bengioy-ad/pragov/crystal_structure_design/SSSP/O.pbe-n-kjpaw_psl.0.1.UPF
     MD5 check sum: 0234752ac141de4415c5fc33072bef88
     Pseudo is Projector augmented-wave + core cor, Zval =  6.0
     Generated using "atomic" code by A. Dal Corso  v.5.0.99 svn rev. 10869
     Shape of augmentation charge: BESSEL
     Using radial grid of 1095 points,  4 beta functions with:
                l(1) =   0
                l(2) =   0
                l(3) =   1
                l(4) =   1
     Q(r) pseudized with 0 coefficients

     atomic species   valence    mass     pseudopotential
        Mg             2.00    24.30500     Mg( 1.00)
        Cu            19.00    63.54600     Cu( 1.00)
        O              6.00    15.99900     O ( 1.00)

      2 Sym. Ops., with inversion, found

                                    s                        frac. trans.

      isym =  1     identity

 cryst.   s( 1) = (     1          0          0      )
                  (     0          1          0      )
                  (     0          0          1      )

 cart.    s( 1) = (  1.0000000 -0.0000000 -0.0000000 )
                  (  0.0000000  1.0000000 -0.0000000 )
                  (  0.0000000  0.0000000  1.0000000 )

      isym =  2     inversion

 cryst.   s( 2) = (    -1          0          0      )
                  (     0         -1          0      )
                  (     0          0         -1      )

 cart.    s( 2) = ( -1.0000000  0.0000000  0.0000000 )
                  (  0.0000000 -1.0000000  0.0000000 )
                  (  0.0000000  0.0000000 -1.0000000 )

   Cartesian axes

     site n.     atom                  positions (alat units)
         1           Mg  tau(   1) = (   1.0696554   0.3707213   0.0000000  )
         2           Mg  tau(   2) = (   0.3575392   0.1239160   0.0000000  )
         3           Mg  tau(   3) = (   1.4279874   0.4949120   0.0000000  )
         4           Mg  tau(   4) = (   0.7158712   0.2481067   0.0000000  )
         5           Cu  tau(   5) = (   0.0000000   0.0000000   0.0000000  )
         6           O   tau(   6) = (   0.7817808   0.0403463   0.1545206  )
         7           O   tau(   7) = (   0.4282358  -0.0821853   0.1545206  )
         8           O   tau(   8) = (   0.4999945   0.2892649   0.1545206  )
         9           O   tau(   9) = (   0.0713519  -0.2058742   0.1545206  )
        10           O   tau(  10) = (   0.1464496   0.1667333   0.1545206  )

   Crystallographic axes

     site n.     atom                  positions (cryst. coord.)
         1           Mg  tau(   1) = (  0.5990700  0.5990700  0.0000000  )
         2           Mg  tau(   2) = (  0.2002430  0.2002430  0.0000000  )
         3           Mg  tau(   3) = (  0.7997570  0.7997570  0.0000000  )
         4           Mg  tau(   4) = (  0.4009300  0.4009300  0.0000000  )
         5           Cu  tau(   5) = (  0.0000000  0.0000000  0.0000000  )
         6           O   tau(   6) = (  0.8978820  0.3978820  0.5000000  )
         7           O   tau(   7) = (  0.6998760  0.1998760  0.5000000  )
         8           O   tau(   8) = (  0.3001240  0.8001240  0.5000000  )
         9           O   tau(   9) = (  0.5000000  0.0000000  0.5000000  )
        10           O   tau(  10) = (  0.1021180  0.6021180  0.5000000  )

     number of k points=     1  Methfessel-Paxton smearing, width (Ry)=  0.0010
                       cart. coord. in units 2pi/alat
        k(    1) = (   0.0000000   0.0000000   0.0000000), wk =   2.0000000

                       cryst. coord.
        k(    1) = (   0.0000000   0.0000000   0.0000000), wk =   2.0000000

     Check: negative core charge=   -0.000004

     Initial potential from superposition of free atoms

     starting charge      55.9963, renormalised to      57.0000
     Starting wfcs are   49 randomized atomic wfcs
     Checking if some PAW data can be deallocated...

     Self-consistent Calculation

     iteration #  1     ecut=    30.00 Ry     beta= 0.70
     Davidson diagonalization with overlap

     ethr =  1.00E-02,  avg # of iterations =  2.0

     total energy              =    -745.00856698 Ry
     estimated scf accuracy    <       2.57378484 Ry

[...]

     total energy              =    -746.53095675 Ry
     estimated scf accuracy    <       0.00001356 Ry

     iteration # 14     ecut=    30.00 Ry     beta= 0.70
     Davidson diagonalization with overlap

     ethr =  2.38E-08,  avg # of iterations =  2.0

     End of self-consistent calculation

          k = 0.0000 0.0000 0.0000 (   890 PWs)   bands (ev):

  -103.8729 -61.6289 -61.4990 -60.6040 -10.6982 -10.0498  -9.6121  -9.1031
    -8.7488   2.7815   2.8506   3.0737   3.6348   4.1484   4.1991   4.3634
     4.8237   5.3624   5.5967   5.8236   5.8366   6.5493   6.6002   6.7692
     6.7746   6.9064   7.0297   7.2914   7.7526  10.6154  14.3684  14.6896
    16.3463  16.7010  17.4076

     occupation numbers
     1.0000   1.0000   1.0000   1.0000   1.0000   1.0000   1.0000   1.0000
     1.0000   1.0000   1.0000   1.0000   1.0000   1.0000   1.0000   1.0000
     1.0000   1.0000   1.0000   1.0000   1.0000   1.0000   1.0000   1.0000
     1.0000   1.0000   1.0000   1.0000   0.5000  -0.0000  -0.0000  -0.0000
    -0.0000  -0.0000  -0.0000

     the Fermi energy is     7.7526 ev

!    total energy              =    -746.53095931 Ry
     estimated scf accuracy    <       0.00000056 Ry
     smearing contrib. (-TS)   =      -0.00028209 Ry
     internal energy E=F+TS    =    -746.53067721 Ry

     The total energy is F=E-TS. E is the sum of the following terms:
     one-electron contribution =    -514.45522909 Ry
     hartree contribution      =     292.25719098 Ry
     xc contribution           =     -83.62016523 Ry
     ewald contribution        =    -268.04310477 Ry
     one-center paw contrib.   =    -172.66936911 Ry
      -> PAW hartree energy AE =     158.15967452 Ry
      -> PAW hartree energy PS =    -157.56673853 Ry
      -> PAW xc energy AE      =    -217.52845516 Ry
      -> PAW xc energy PS      =      44.26615006 Ry
      -> total E_H with PAW    =     292.85012697 Ry
      -> total E_XC with PAW   =    -256.88247033 Ry

     convergence has been achieved in  14 iterations

     Forces acting on atoms (cartesian axes, Ry/au):

     atom    1 type  1   force =    -0.03113386   -0.01079045    0.00000032
     atom    2 type  1   force =     0.00702842    0.00243677   -0.00000084
     atom    3 type  1   force =    -0.00702842   -0.00243677    0.00000084
     atom    4 type  1   force =     0.03113386    0.01079045   -0.00000032
     atom    5 type  2   force =     0.00000000    0.00000000    0.00000000
     atom    6 type  3   force =     0.00222852    0.00078127   -0.00000195
     atom    7 type  3   force =     0.00348321    0.00120505    0.00000251
     atom    8 type  3   force =    -0.00348321   -0.00120505   -0.00000251
     atom    9 type  3   force =     0.00000000    0.00000000    0.00000000
     atom   10 type  3   force =    -0.00222852   -0.00078127    0.00000195
     The non-local contrib.  to forces
     atom    1 type  1   force =    -0.00347611   -0.00120467   -0.00000008
     atom    2 type  1   force =    -0.00873022   -0.00302682   -0.00000016
     atom    3 type  1   force =     0.00873022    0.00302682    0.00000016
     atom    4 type  1   force =     0.00347611    0.00120467    0.00000008
     atom    5 type  2   force =     0.00000000    0.00000000    0.00000000
     atom    6 type  3   force =     0.10354884    0.03589868    0.00000492
     atom    7 type  3   force =     0.02688181    0.00931792    0.00000328
     atom    8 type  3   force =    -0.02688181   -0.00931792   -0.00000328
     atom    9 type  3   force =     0.00000000    0.00000000    0.00000000
     atom   10 type  3   force =    -0.10354884   -0.03589868   -0.00000492
     The ionic contribution  to forces
     atom    1 type  1   force =     3.37609185    1.17008624    0.00000000
     atom    2 type  1   force =     2.03857543    0.70652967   -0.00000000
     atom    3 type  1   force =    -2.03857543   -0.70652967    0.00000000
     atom    4 type  1   force =    -3.37609185   -1.17008624    0.00000000
     atom    5 type  2   force =     0.00000000    0.00000000   -0.00000000
     atom    6 type  3   force =   -17.00454712   -5.89343761    0.00000000
     atom    7 type  3   force =     4.58853652    1.59029544   -0.00000000
     atom    8 type  3   force =    -4.58853652   -1.59029544   -0.00000000
     atom    9 type  3   force =    -0.00000000   -0.00000000    0.00000000
     atom   10 type  3   force =    17.00454713    5.89343761   -0.00000000
     The local contribution  to forces
     atom    1 type  1   force =    -3.40368577   -1.17965011    0.00000078
     atom    2 type  1   force =    -2.02373549   -0.70138240   -0.00000207
     atom    3 type  1   force =     2.02383248    0.70141648    0.00000220
     atom    4 type  1   force =     3.40365269    1.17964124   -0.00000238
     atom    5 type  2   force =    -0.00073089   -0.00024069    0.00000160
     atom    6 type  3   force =    16.90451819    5.85872837    0.00000208
     atom    7 type  3   force =    -4.61157363   -1.59831165    0.00000374
     atom    8 type  3   force =     4.61142233    1.59829186   -0.00003924
     atom    9 type  3   force =    -0.00008897   -0.00003873    0.00000252
     atom   10 type  3   force =   -16.90465148   -5.85876386    0.00000234
     The core correction contribution to forces
     atom    1 type  1   force =     0.00006130    0.00002128   -0.00000001
     atom    2 type  1   force =     0.00103631    0.00035944   -0.00000009
     atom    3 type  1   force =    -0.00103714   -0.00035953   -0.00000003
     atom    4 type  1   force =    -0.00005994   -0.00002067   -0.00000007
     atom    5 type  2   force =     0.00000030    0.00000010   -0.00000012
     atom    6 type  3   force =    -0.00198952   -0.00068964   -0.00000007
     atom    7 type  3   force =    -0.00029305   -0.00010149   -0.00000020
     atom    8 type  3   force =     0.00028926    0.00010062   -0.00000017
     atom    9 type  3   force =     0.00000186    0.00000056    0.00000007
     atom   10 type  3   force =     0.00198870    0.00068972   -0.00000005
     The Hubbard contrib.    to forces
     atom    1 type  1   force =     0.00000000    0.00000000    0.00000000
     atom    2 type  1   force =     0.00000000    0.00000000    0.00000000
     atom    3 type  1   force =     0.00000000    0.00000000    0.00000000
     atom    4 type  1   force =     0.00000000    0.00000000    0.00000000
     atom    5 type  2   force =     0.00000000    0.00000000    0.00000000
     atom    6 type  3   force =     0.00000000    0.00000000    0.00000000
     atom    7 type  3   force =     0.00000000    0.00000000    0.00000000
     atom    8 type  3   force =     0.00000000    0.00000000    0.00000000
     atom    9 type  3   force =     0.00000000    0.00000000    0.00000000
     atom   10 type  3   force =     0.00000000    0.00000000    0.00000000
     The SCF correction term to forces
     atom    1 type  1   force =    -0.00011757   -0.00003982   -0.00000083
     atom    2 type  1   force =    -0.00011960   -0.00004325    0.00000137
     atom    3 type  1   force =     0.00001947    0.00000900   -0.00000161
     atom    4 type  1   force =     0.00016440    0.00005484    0.00000159
     atom    5 type  2   force =     0.00104767    0.00039913   -0.00000996
     atom    6 type  3   force =     0.00066944    0.00027415   -0.00000563
     atom    7 type  3   force =    -0.00015368   -0.00001516   -0.00001369
     atom    8 type  3   force =     0.00013830   -0.00000416    0.00003081
     atom    9 type  3   force =     0.00021729    0.00007501    0.00000372
     atom   10 type  3   force =    -0.00059271   -0.00025337    0.00000783

     Total force =     0.048172     Total SCF correction =     0.001535

     Computing stress (Cartesian axis) and pressure

          total   stress  (Ry/bohr**3)                   (kbar)     P=     -471.33
  -0.00338170  -0.00014358   0.00011497         -497.47      -21.12       16.91
  -0.00014358  -0.00301710  -0.00033164          -21.12     -443.83      -48.79
   0.00011497  -0.00033164  -0.00321340           16.91      -48.79     -472.71

     kinetic stress (kbar)  19637.00   -206.33    -37.30
                             -206.33  20160.81    107.58
                              -37.30    107.58  20312.14

     local   stress (kbar)   3046.92  13828.89   2314.42
                            13828.89 -32061.20  -6677.77
                             2314.42  -6677.77 -41807.75

     nonloc. stress (kbar)   6917.06   -111.37     44.45
                             -111.37   7199.81   -128.25
                               44.45   -128.25   7143.26

     hartree stress (kbar)   9056.35  -6757.36  -1062.87
                            -6757.36  26211.62   3066.69
                            -1062.87   3066.69  30828.54

     exc-cor stress (kbar)  -4588.79     -1.32      2.22
                               -1.32  -4585.43     -6.42
                                2.22     -6.42  -4589.74

     corecor stress (kbar)  -1211.87      6.05      2.76
                                6.05  -1227.23     -7.95
                                2.76     -7.95  -1235.23

     ewald   stress (kbar) -33354.14  -6779.67  -1246.76
                            -6779.67 -16142.21   3597.34
                            -1246.76   3597.34 -11123.93

     hubbard stress (kbar)      0.00      0.00      0.00
                                0.00      0.00      0.00
                                0.00      0.00      0.00

     DFT-D   stress (kbar)      0.00      0.00      0.00
                                0.00      0.00      0.00
                                0.00      0.00      0.00

     XDM     stress (kbar)      0.00      0.00      0.00
                                0.00      0.00      0.00
                                0.00      0.00      0.00

     dft-nl  stress (kbar)      0.00      0.00      0.00
                                0.00      0.00      0.00
                                0.00      0.00      0.00

     TS-vdW  stress (kbar)      0.00      0.00      0.00
                                0.00      0.00      0.00
                                0.00      0.00      0.00

[...]

                                0.00      0.00      0.00

     Writing all to output data dir new_calculations/myprefix.save/

     General routines

     Parallel routines

     PAW routines

   This run was terminated on:   7:36: 2  20May2023

   JOB DONE.