     Program PWSCF v.7.0 starts on 20May2023 at 23:54:38

     Reading input from espresso_12613.pwi
Warning: card &CELL ignored
Warning: card / ignored

     Current dimensions of program PWSCF are:
     Max number of different atomic species (ntypx) = 10
     Max number of k-points (npk) =  40000
     Max angular momentum in pseudopotentials (lmaxx) =  4
     file Fe.pbe-spn-kjpaw_psl.0.2.1.UPF: wavefunction(s)  3D renormalized

     gamma-point specific algorithms are used
     Message from routine setup:
     using ibrav=0 with symmetry is DISCOURAGED, use correct ibrav instead

     Subspace diagonalization in iterative solution of the eigenvalue problem:
     a serial algorithm will be used

     Using Slab Decomposition

     bravais-lattice index     =            0
     lattice parameter (alat)  =      11.6699  a.u.
     unit-cell volume          =    1087.8993 (a.u.)^3
     number of atoms/cell      =           12
     number of atomic types    =            3
     number of electrons       =       132.00
     number of Kohn-Sham states=           79
     kinetic-energy cutoff     =      30.0000  Ry
     charge density cutoff     =     240.0000  Ry
     scf convergence threshold =      1.0E-06
     mixing beta               =       0.7000
     number of iterations used =            8  plain     mixing
     Exchange-correlation= PBE
                           (   1   4   3   4   0   0   0)

     celldm(1)=  11.669856  celldm(2)=   0.000000  celldm(3)=   0.000000
     celldm(4)=   0.000000  celldm(5)=   0.000000  celldm(6)=   0.000000

     crystal axes: (cart. coord. in units of alat)
               a(1) = (   1.000000   0.000000   0.000000 )
               a(2) = (   0.000000   0.605351   0.000000 )
               a(3) = (   0.000000   0.000000   1.130797 )

     reciprocal axes: (cart. coord. in units 2 pi/alat)
               b(1) = (  1.000000  0.000000  0.000000 )
               b(2) = (  0.000000  1.651934  0.000000 )
               b(3) = (  0.000000  0.000000  0.884332 )

     PseudoPot. # 1 for Ta read from file:
     /home/pragov/projects/rrg-bengioy-ad/pragov/crystal_structure_design/SSSP/Ta_pbe_v1.uspp.F.UPF
     MD5 check sum: f8bbe9446314a3b8ea5d9f3e3836c939
     Pseudo is Ultrasoft + core correction, Zval = 13.0
     Generated by new atomic code, or converted to UPF format
     Using radial grid of  921 points,  7 beta functions with:
                l(1) =   0
                l(2) =   0
                l(3) =   1
                l(4) =   1
                l(5) =   2
                l(6) =   2
                l(7) =   3
     Q(r) pseudized with  6 coefficients,  rinner =    1.300   1.300   1.300
                                                       1.300   1.300   1.300
                                                       1.300

     PseudoPot. # 2 for Fe read from file:
     /home/pragov/projects/rrg-bengioy-ad/pragov/crystal_structure_design/SSSP/Fe.pbe-spn-kjpaw_psl.0.2.1.UPF
     MD5 check sum: e86618425769142926afa95317d90200
     Pseudo is Projector augmented-wave + core cor, Zval = 16.0
     Generated using "atomic" code by A. Dal Corso  v.5.0.99 svn rev. 10869
     Shape of augmentation charge: PSQ
     Using radial grid of 1191 points,  6 beta functions with:
                l(1) =   0
                l(2) =   0
                l(3) =   1
                l(4) =   1
                l(5) =   2
                l(6) =   2
     Q(r) pseudized with 0 coefficients

     PseudoPot. # 3 for Si read from file:
     /home/pragov/projects/rrg-bengioy-ad/pragov/crystal_structure_design/SSSP/Si.pbe-n-rrkjus_psl.1.0.0.UPF
     MD5 check sum: 0b0bb1205258b0d07b9f9672cf965d36
     Pseudo is Ultrasoft + core correction, Zval =  4.0
     Generated using "atomic" code by A. Dal Corso  v.5.1
     Using radial grid of 1141 points,  6 beta functions with:
                l(1) =   0
                l(2) =   0
                l(3) =   1
                l(4) =   1
                l(5) =   2
                l(6) =   2
     Q(r) pseudized with 0 coefficients

     atomic species   valence    mass     pseudopotential
        Ta            13.00   180.94788     Ta( 1.00)
        Fe            16.00    55.84500     Fe( 1.00)
        Si             4.00    28.08500     Si( 1.00)

      8 Sym. Ops., with inversion, found ( 6 have fractional translation)

                                    s                        frac. trans.

      isym =  1     identity

 cryst.   s( 1) = (     1          0          0      )
                  (     0          1          0      )
                  (     0          0          1      )

 cart.    s( 1) = (  1.0000000  0.0000000  0.0000000 )
                  (  0.0000000  1.0000000  0.0000000 )
                  (  0.0000000  0.0000000  1.0000000 )

      isym =  2     180 deg rotation - cart. axis [0,0,1]

 cryst.   s( 2) = (    -1          0          0      )    f =(  0.5000000 )
                  (     0         -1          0      )       (  0.0000000 )
                  (     0          0          1      )       (  0.5000000 )

 cart.    s( 2) = ( -1.0000000  0.0000000  0.0000000 )    f =(  0.5000000 )
                  (  0.0000000 -1.0000000  0.0000000 )       (  0.0000000 )
                  (  0.0000000  0.0000000  1.0000000 )       (  0.5653987 )

[...]

      isym =  4     180 deg rotation - cart. axis [1,0,0]

[...]

      isym =  5     inversion

 cryst.   s( 5) = (    -1          0          0      )
                  (     0         -1          0      )
                  (     0          0         -1      )

 cart.    s( 5) = ( -1.0000000  0.0000000  0.0000000 )
                  (  0.0000000 -1.0000000  0.0000000 )
                  (  0.0000000  0.0000000 -1.0000000 )

      isym =  6     inv. 180 deg rotation - cart. axis [0,0,1]

[...]

      isym =  8     inv. 180 deg rotation - cart. axis [1,0,0]

 cryst.   s( 8) = (    -1          0          0      )    f =(  0.5000000 )
                  (     0          1          0      )       ( -0.5000000 )
                  (     0          0          1      )       (  0.5000000 )

 cart.    s( 8) = ( -1.0000000  0.0000000  0.0000000 )    f =(  0.5000000 )
                  (  0.0000000  1.0000000  0.0000000 )       ( -0.3026756 )
                  (  0.0000000  0.0000000  1.0000000 )       (  0.5653987 )

   Cartesian axes

     site n.     atom                  positions (alat units)
         1           Ta  tau(   1) = (   0.0158450   0.1513378   0.3537281  )
         2           Ta  tau(   2) = (   0.5158450   0.1513378   0.2116706  )
         3           Ta  tau(   3) = (   0.9841550   0.4540134   0.7770693  )
         4           Ta  tau(   4) = (   0.4841550   0.4540134   0.9191268  )
         5           Fe  tau(   5) = (   0.1487950   0.1513378   1.0577773  )
         6           Fe  tau(   6) = (   0.6487950   0.1513378   0.6384188  )
         7           Fe  tau(   7) = (   0.8512050   0.4540134   0.0730201  )
         8           Fe  tau(   8) = (   0.3512050   0.4540134   0.4923786  )
         9           Si  tau(   9) = (   0.2778890   0.1513378   0.6956632  )
        10           Si  tau(  10) = (   0.7778890   0.1513378   1.0005329  )
        11           Si  tau(  11) = (   0.7221110   0.4540134   0.4351342  )
        12           Si  tau(  12) = (   0.2221110   0.4540134   0.1302645  )

   Crystallographic axes

     site n.     atom                  positions (cryst. coord.)
         1           Ta  tau(   1) = (  0.0158450  0.2500000  0.3128130  )
         2           Ta  tau(   2) = (  0.5158450  0.2500000  0.1871870  )
         3           Ta  tau(   3) = (  0.9841550  0.7500000  0.6871870  )
         4           Ta  tau(   4) = (  0.4841550  0.7500000  0.8128130  )
         5           Fe  tau(   5) = (  0.1487950  0.2500000  0.9354260  )
         6           Fe  tau(   6) = (  0.6487950  0.2500000  0.5645740  )
         7           Fe  tau(   7) = (  0.8512050  0.7500000  0.0645740  )
         8           Fe  tau(   8) = (  0.3512050  0.7500000  0.4354260  )
         9           Si  tau(   9) = (  0.2778890  0.2500000  0.6151970  )
        10           Si  tau(  10) = (  0.7778890  0.2500000  0.8848030  )
        11           Si  tau(  11) = (  0.7221110  0.7500000  0.3848030  )
        12           Si  tau(  12) = (  0.2221110  0.7500000  0.1151970  )

     number of k points=     1  Methfessel-Paxton smearing, width (Ry)=  0.0010
                       cart. coord. in units 2pi/alat
        k(    1) = (   0.0000000   0.0000000   0.0000000), wk =   2.0000000

                       cryst. coord.
        k(    1) = (   0.0000000   0.0000000   0.0000000), wk =   2.0000000

     Check: negative core charge=   -0.000108

     Initial potential from superposition of free atoms

     starting charge     131.9916, renormalised to     132.0000

     negative rho (up, down):  3.750E-01 0.000E+00
     Starting wfcs are  120 randomized atomic wfcs
     Checking if some PAW data can be deallocated...

     Self-consistent Calculation

     iteration #  1     ecut=    30.00 Ry     beta= 0.70
     Davidson diagonalization with overlap

     ethr =  1.00E-02,  avg # of iterations =  2.0

     negative rho (up, down):  3.761E-01 0.000E+00

     total energy              =   -1927.36642120 Ry
     estimated scf accuracy    <       2.72624143 Ry

[...]

     total energy              =   -1929.22447196 Ry
     estimated scf accuracy    <       0.00000160 Ry

     iteration # 20     ecut=    30.00 Ry     beta= 0.70
     Davidson diagonalization with overlap

     ethr =  1.21E-09,  avg # of iterations =  1.0

[...]

     End of self-consistent calculation

          k = 0.0000 0.0000 0.0000 (  1502 PWs)   bands (ev):

   -69.4600 -69.4594 -69.4517 -69.4462 -50.3313 -50.3212 -50.3205 -50.3096
   -35.3844 -35.3478 -35.3473 -35.3327 -35.1981 -35.1969 -35.1959 -35.1900
   -34.6654 -34.6475 -34.6290 -34.6267 -17.0867 -17.0504 -16.8465 -16.8409
   -16.8279 -16.8230 -16.7934 -16.7835 -16.7528 -16.7224 -16.6684 -16.6588
     6.0757   8.4699   8.8941   9.2472  11.2110  11.3899  12.6873  12.9200
    13.1888  13.4535  13.6432  13.7558  13.8785  13.9106  14.7098  14.8130
    15.0028  15.1608  15.2361  15.3558  15.4158  15.6539  15.8596  16.1859
    16.2925  16.3481  16.3909  16.6394  16.7230  16.7240  17.1908  17.2593
    17.3122  17.3501  17.6681  17.9002  18.0983  18.3168  18.6895  18.8795
    18.9931  19.2098  19.4877  20.1220  20.2771  20.3018  20.3793

     occupation numbers
     1.0000   1.0000   1.0000   1.0000   1.0000   1.0000   1.0000   1.0000
     1.0000   1.0000   1.0000   1.0000   1.0000   1.0000   1.0000   1.0000
     1.0000   1.0000   1.0000   1.0000   1.0000   1.0000   1.0000   1.0000
     1.0000   1.0000   1.0000   1.0000   1.0000   1.0000   1.0000   1.0000
     1.0000   1.0000   1.0000   1.0000   1.0000   1.0000   1.0000   1.0000
     1.0000   1.0000   1.0000   1.0000   1.0000   1.0000   1.0000   1.0000
     1.0000   1.0000   1.0000   1.0000   1.0000   1.0000   1.0000   1.0000
     1.0000   1.0000   1.0000   1.0000   1.0000   1.0000   1.0000   1.0000
     1.0000   1.0000  -0.0000  -0.0000  -0.0000  -0.0000  -0.0000  -0.0000
    -0.0000  -0.0000  -0.0000  -0.0000  -0.0000  -0.0000  -0.0000

     the Fermi energy is    17.5234 ev

!    total energy              =   -1929.22447143 Ry
     estimated scf accuracy    <       0.00000070 Ry
     smearing contrib. (-TS)   =       0.00000000 Ry
     internal energy E=F+TS    =   -1929.22447143 Ry

     The total energy is F=E-TS. E is the sum of the following terms:
     one-electron contribution =    -661.94303295 Ry
     hartree contribution      =     408.09536177 Ry
     xc contribution           =    -333.43930148 Ry
     ewald contribution        =   -1037.64154366 Ry
     one-center paw contrib.   =    -304.29595509 Ry
      -> PAW hartree energy AE =     864.91780763 Ry
      -> PAW hartree energy PS =    -861.78444278 Ry
      -> PAW xc energy AE      =    -445.64792135 Ry
      -> PAW xc energy PS      =     138.21860140 Ry
      -> total E_H with PAW    =     411.22872661 Ry
      -> total E_XC with PAW   =    -640.86862142 Ry

     convergence has been achieved in  20 iterations

     negative rho (up, down):  3.804E-01 0.000E+00

     Forces acting on atoms (cartesian axes, Ry/au):

     atom    1 type  1   force =    -0.02741744    0.00000000   -0.02297148
     atom    2 type  1   force =    -0.02741744    0.00000000    0.02297148
     atom    3 type  1   force =     0.02741744    0.00000000    0.02297148
     atom    4 type  1   force =     0.02741744    0.00000000   -0.02297148
     atom    5 type  2   force =     0.01282872    0.00000000   -0.00150010
     atom    6 type  2   force =     0.01282872    0.00000000    0.00150010
     atom    7 type  2   force =    -0.01282872    0.00000000    0.00150010
     atom    8 type  2   force =    -0.01282872    0.00000000   -0.00150010
     atom    9 type  3   force =     0.00397565   -0.00000000    0.04658658
     atom   10 type  3   force =     0.00397565   -0.00000000   -0.04658658
     atom   11 type  3   force =    -0.00397565    0.00000000   -0.04658658
     atom   12 type  3   force =    -0.00397565    0.00000000    0.04658658
     The non-local contrib.  to forces
     atom    1 type  1   force =    -0.04916907   -0.00000000    0.00213758
     atom    2 type  1   force =    -0.04916907   -0.00000000   -0.00213758
     atom    3 type  1   force =     0.04916907    0.00000000   -0.00213758
     atom    4 type  1   force =     0.04916907    0.00000000    0.00213758
     atom    5 type  2   force =     0.03714559    0.00000000    0.23595109
     atom    6 type  2   force =     0.03714559    0.00000000   -0.23595109
     atom    7 type  2   force =    -0.03714559    0.00000000   -0.23595109
     atom    8 type  2   force =    -0.03714559    0.00000000    0.23595109
     atom    9 type  3   force =    -0.03207388    0.00000000   -0.00682782
     atom   10 type  3   force =    -0.03207388    0.00000000    0.00682782
     atom   11 type  3   force =     0.03207388    0.00000000    0.00682782
     atom   12 type  3   force =     0.03207388    0.00000000   -0.00682782
     The ionic contribution  to forces
     atom    1 type  1   force =     0.18720803    0.00000000    6.80044478
     atom    2 type  1   force =     0.18720803    0.00000000   -6.80044478
     atom    3 type  1   force =    -0.18720803   -0.00000000   -6.80044478
     atom    4 type  1   force =    -0.18720803   -0.00000000    6.80044478
     atom    5 type  2   force =     7.69058843    0.00000000   -3.21226505
     atom    6 type  2   force =     7.69058843    0.00000000    3.21226505
     atom    7 type  2   force =    -7.69058843   -0.00000000    3.21226505
     atom    8 type  2   force =    -7.69058843   -0.00000000   -3.21226505
     atom    9 type  3   force =    -2.79082505   -0.00000000    0.86244958
     atom   10 type  3   force =    -2.79082505    0.00000000   -0.86244958
     atom   11 type  3   force =     2.79082505   -0.00000000   -0.86244958
     atom   12 type  3   force =     2.79082505   -0.00000000    0.86244958
     The local contribution  to forces
     atom    1 type  1   force =    -0.15522226    0.00000017   -6.84424940
     atom    2 type  1   force =    -0.15520718   -0.00000108    6.84461285
     atom    3 type  1   force =     0.15480813    0.00000106    6.84478352
     atom    4 type  1   force =     0.15502714   -0.00000002   -6.84518728
     atom    5 type  2   force =    -7.70875638    0.00000111    2.98190741
     atom    6 type  2   force =    -7.70924658    0.00000183   -2.98199670
     atom    7 type  2   force =     7.70926068    0.00000030   -2.98366629
     atom    8 type  2   force =     7.70993188    0.00000021    2.98382384
     atom    9 type  3   force =     2.82250793    0.00000079   -0.80963158
     atom   10 type  3   force =     2.82226155   -0.00000023    0.80949927
     atom   11 type  3   force =    -2.82244205   -0.00000015    0.81032770
     atom   12 type  3   force =    -2.82221751   -0.00000062   -0.81018639
     The core correction contribution to forces
     atom    1 type  1   force =    -0.01039317    0.00000011    0.01911656
     atom    2 type  1   force =    -0.01039242   -0.00000008   -0.01911834
     atom    3 type  1   force =     0.01038936   -0.00000003   -0.01911542
     atom    4 type  1   force =     0.01039012    0.00000015    0.01911917
     atom    5 type  2   force =    -0.00565816    0.00000012   -0.00801164
     atom    6 type  2   force =    -0.00565953   -0.00000001    0.00801296
     atom    7 type  2   force =     0.00565318   -0.00000001    0.00800841
     atom    8 type  2   force =     0.00565327   -0.00000007   -0.00801079
     atom    9 type  3   force =     0.00452428   -0.00000003    0.00087420
     atom   10 type  3   force =     0.00452357   -0.00000002   -0.00087262
     atom   11 type  3   force =    -0.00452588    0.00000002   -0.00087520
     atom   12 type  3   force =    -0.00452403   -0.00000005    0.00087384
     The Hubbard contrib.    to forces
     atom    1 type  1   force =     0.00000000    0.00000000    0.00000000
     atom    2 type  1   force =     0.00000000    0.00000000    0.00000000
     atom    3 type  1   force =     0.00000000    0.00000000    0.00000000
     atom    4 type  1   force =     0.00000000    0.00000000    0.00000000
     atom    5 type  2   force =     0.00000000    0.00000000    0.00000000
     atom    6 type  2   force =     0.00000000    0.00000000    0.00000000
     atom    7 type  2   force =     0.00000000    0.00000000    0.00000000
     atom    8 type  2   force =     0.00000000    0.00000000    0.00000000
     atom    9 type  3   force =     0.00000000    0.00000000    0.00000000
     atom   10 type  3   force =     0.00000000    0.00000000    0.00000000
     atom   11 type  3   force =     0.00000000    0.00000000    0.00000000
     atom   12 type  3   force =     0.00000000    0.00000000    0.00000000
     The SCF correction term to forces
     atom    1 type  1   force =     0.00017517   -0.00000050   -0.00042420
     atom    2 type  1   force =     0.00013484    0.00000104    0.00007907
     atom    3 type  1   force =     0.00026507   -0.00000138   -0.00013778
     atom    4 type  1   force =     0.00004077    0.00000076    0.00051369
     atom    5 type  2   force =    -0.00050733   -0.00000238    0.00093437
     atom    6 type  2   force =     0.00002396   -0.00000193   -0.00085580
     atom    7 type  2   force =     0.00001770   -0.00000075    0.00086354
     atom    8 type  2   force =    -0.00069954    0.00000101   -0.00102163
     atom    9 type  3   force =    -0.00014515   -0.00000020   -0.00025337
     atom   10 type  3   force =     0.00007508    0.00000017    0.00039209
     atom   11 type  3   force =     0.00007358    0.00000004   -0.00039790
     atom   12 type  3   force =    -0.00011519    0.00000017    0.00025595

     Total force =     0.120538     Total SCF correction =     0.002285

     Computing stress (Cartesian axis) and pressure

     negative rho (up, down):  3.804E-01 0.000E+00
          total   stress  (Ry/bohr**3)                   (kbar)     P=     -338.77
  -0.00248988   0.00000000   0.00000000         -366.27        0.00        0.00
   0.00000000  -0.00207529   0.00000000            0.00     -305.29        0.00
   0.00000000   0.00000000  -0.00234348            0.00        0.00     -344.74

     kinetic stress (kbar)  33705.79      0.00      0.00
                                0.00  33425.41      0.00
                                0.00      0.00  33808.46

     local   stress (kbar)  28456.03     -0.00     -0.03
                               -0.00  24234.41     -0.00
                               -0.03     -0.00  26514.44

     nonloc. stress (kbar) -21830.00      0.00      0.00
                                0.00 -21836.50      0.00
                                0.00      0.00 -22018.00

     hartree stress (kbar)  17662.58     -0.00      0.04
                               -0.00  19479.88      0.00
                                0.04      0.00  18039.94

     exc-cor stress (kbar)  12164.36      0.00     -0.00
                                0.00  12161.94      0.00
                               -0.00      0.00  12166.06

     corecor stress (kbar) -22289.10     -0.00      0.00
                               -0.00 -22270.93     -0.00
                                0.00     -0.00 -22281.82

     ewald   stress (kbar) -48235.93      0.00      0.00
                                0.00 -45499.50      0.00
                                0.00      0.00 -46573.83

     hubbard stress (kbar)      0.00      0.00      0.00
                                0.00      0.00      0.00
                                0.00      0.00      0.00

     DFT-D   stress (kbar)      0.00      0.00      0.00
                                0.00      0.00      0.00
                                0.00      0.00      0.00

     XDM     stress (kbar)      0.00      0.00      0.00
                                0.00      0.00      0.00
                                0.00      0.00      0.00

     dft-nl  stress (kbar)      0.00      0.00      0.00
                                0.00      0.00      0.00
                                0.00      0.00      0.00

     TS-vdW  stress (kbar)      0.00      0.00      0.00
                                0.00      0.00      0.00
                                0.00      0.00      0.00

[...]

                                0.00      0.00      0.00

     Writing all to output data dir new_calculations/myprefix.save/

     General routines

     Parallel routines

     PAW routines

   This run was terminated on:  23:55:37  20May2023

   JOB DONE.