     Program PWSCF v.7.0 starts on 20May2023 at 17: 6:50

     Reading input from espresso_4532.pwi
Warning: card &CELL ignored
Warning: card / ignored

     Current dimensions of program PWSCF are:
     Max number of different atomic species (ntypx) = 10
     Max number of k-points (npk) =  40000
     Max angular momentum in pseudopotentials (lmaxx) =  4

     gamma-point specific algorithms are used
     Message from routine setup:
     using ibrav=0 with symmetry is DISCOURAGED, use correct ibrav instead

     Subspace diagonalization in iterative solution of the eigenvalue problem:
     a serial algorithm will be used

     Using Slab Decomposition

     bravais-lattice index     =            0
     lattice parameter (alat)  =      11.5716  a.u.
     unit-cell volume          =    1649.0544 (a.u.)^3
     number of atoms/cell      =           18
     number of atomic types    =            3
     number of electrons       =       232.00
     number of Kohn-Sham states=          139
     kinetic-energy cutoff     =      30.0000  Ry
     charge density cutoff     =     240.0000  Ry
     scf convergence threshold =      1.0E-06
     mixing beta               =       0.7000
     number of iterations used =            8  plain     mixing
     Exchange-correlation= PBE
                           (   1   4   3   4   0   0   0)

     celldm(1)=  11.571563  celldm(2)=   0.000000  celldm(3)=   0.000000
     celldm(4)=   0.000000  celldm(5)=   0.000000  celldm(6)=   0.000000

     crystal axes: (cart. coord. in units of alat)
               a(1) = (   1.000000   0.000000   0.000000 )
               a(2) = (  -0.824036   0.566537   0.000000 )
               a(3) = (   0.000000   0.000000   1.878584 )

     reciprocal axes: (cart. coord. in units 2 pi/alat)
               b(1) = (  1.000000  1.454514  0.000000 )
               b(2) = (  0.000000  1.765110  0.000000 )
               b(3) = (  0.000000  0.000000  0.532316 )

     PseudoPot. # 1 for La read from file:
     /home/pragov/projects/rrg-bengioy-ad/pragov/crystal_structure_design/SSSP/La.GGA-PBE-paw-v1.0.UPF
     MD5 check sum: 436541e95c1ad8901025bd0b0ed42ae2
     Pseudo is Projector augmented-wave + core cor, Zval = 11.0
     Generated using ATOMPAW code
     Shape of augmentation charge: BESSEL
     Using radial grid of 1101 points,  8 beta functions with:
                l(1) =   0
                l(2) =   0
                l(3) =   1
                l(4) =   1
                l(5) =   2
                l(6) =   2
                l(7) =   3
                l(8) =   3
     Q(r) pseudized with 0 coefficients

     PseudoPot. # 2 for Ni read from file:
     /home/pragov/projects/rrg-bengioy-ad/pragov/crystal_structure_design/SSSP/ni_pbe_v1.4.uspp.F.UPF
     MD5 check sum: 1ee80287db30b12d2bc1f57a5b5d6409
     Pseudo is Ultrasoft + core correction, Zval = 18.0
     Generated by new atomic code, or converted to UPF format
     Using radial grid of  865 points,  6 beta functions with:
                l(1) =   0
                l(2) =   0
                l(3) =   1
                l(4) =   1
                l(5) =   2
                l(6) =   2
     Q(r) pseudized with 10 coefficients,  rinner =    0.980   0.980   0.980
                                                       0.980   0.980

     PseudoPot. # 3 for P  read from file:
     /home/pragov/projects/rrg-bengioy-ad/pragov/crystal_structure_design/SSSP/P.pbe-n-rrkjus_psl.1.0.0.UPF
     MD5 check sum: 8b930f418f0a4573dca56cd030ffe088
     Pseudo is Ultrasoft + core correction, Zval =  5.0
     Generated using "atomic" code by A. Dal Corso  v.5.1
     Using radial grid of 1147 points,  6 beta functions with:
                l(1) =   0
                l(2) =   0
                l(3) =   1
                l(4) =   1
                l(5) =   2
                l(6) =   2
     Q(r) pseudized with 0 coefficients

     atomic species   valence    mass     pseudopotential
        La            11.00   138.90547     La( 1.00)
        Ni            18.00    58.69340     Ni( 1.00)
        P              5.00    30.97376     P ( 1.00)

      4 Sym. Ops., with inversion, found ( 2 have fractional translation)

                                    s                        frac. trans.

      isym =  1     identity

 cryst.   s( 1) = (     1          0          0      )
                  (     0          1          0      )
                  (     0          0          1      )

 cart.    s( 1) = (  1.0000000  0.0000000  0.0000000 )
                  (  0.0000000  1.0000000  0.0000000 )
                  (  0.0000000  0.0000000  1.0000000 )

      isym =  2     180 deg rotation - cart. axis [0,0,1]

 cryst.   s( 2) = (    -1          0          0      )    f =(  0.0000000 )
                  (     0         -1          0      )       ( -0.0000000 )
                  (     0          0          1      )       ( -0.5000000 )

 cart.    s( 2) = ( -1.0000000 -0.0000000  0.0000000 )    f =(  0.0000000 )
                  (  0.0000000 -1.0000000  0.0000000 )       ( -0.0000000 )
                  (  0.0000000  0.0000000  1.0000000 )       ( -0.9392920 )

      isym =  3     inversion

 cryst.   s( 3) = (    -1          0          0      )
                  (     0         -1          0      )
                  (     0          0         -1      )

 cart.    s( 3) = ( -1.0000000 -0.0000000  0.0000000 )
                  (  0.0000000 -1.0000000  0.0000000 )
                  (  0.0000000  0.0000000 -1.0000000 )

      isym =  4     inv. 180 deg rotation - cart. axis [0,0,1]

 cryst.   s( 4) = (     1          0          0      )    f =(  0.0000000 )
                  (     0          1          0      )       (  0.0000000 )
                  (     0          0         -1      )       (  0.5000000 )

 cart.    s( 4) = (  1.0000000  0.0000000  0.0000000 )    f =(  0.0000000 )
                  (  0.0000000  1.0000000  0.0000000 )       (  0.0000000 )
                  (  0.0000000  0.0000000 -1.0000000 )       (  0.9392920 )

   Cartesian axes

     site n.     atom                  positions (alat units)
         1           La  tau(   1) = (  -0.2073059   0.3749835   0.4696460  )
         2           La  tau(   2) = (   0.3832696   0.1915535   1.4089380  )
         3           Ni  tau(   3) = (  -0.7304778   0.5374782   0.2731254  )
         4           Ni  tau(   4) = (  -0.7304778   0.5374782   0.6661665  )
         5           Ni  tau(   5) = (   0.4505656   0.1706517   0.8105526  )
         6           Ni  tau(   6) = (  -0.2746019   0.3958853   1.0680314  )
         7           Ni  tau(   7) = (  -0.2746019   0.3958853   1.7498446  )
         8           Ni  tau(   8) = (   0.4505656   0.1706517   0.1287394  )
         9           Ni  tau(   9) = (   0.0879819   0.2832685   0.9392920  )
        10           Ni  tau(  10) = (   0.0879819   0.2832685   0.0000000  )
        11           Ni  tau(  11) = (   0.9064415   0.0290588   1.2124174  )
        12           Ni  tau(  12) = (   0.9064415   0.0290588   1.6054585  )
        13           P   tau(  13) = (   0.3009837   0.2171112   0.4696460  )
        14           P   tau(  14) = (  -0.1250200   0.3494259   1.4089380  )
        15           P   tau(  15) = (  -0.6091155   0.4997837   1.0123689  )
        16           P   tau(  16) = (   0.7850793   0.0667534   0.8662151  )
        17           P   tau(  17) = (   0.7850793   0.0667534   0.0730769  )
        18           P   tau(  18) = (  -0.6091155   0.4997837   1.8055071  )

   Crystallographic axes

     site n.     atom                  positions (cryst. coord.)
         1           La  tau(   1) = (  0.3381130  0.6618870  0.2500000  )
         2           La  tau(   2) = (  0.6618870  0.3381130  0.7500000  )
         3           Ni  tau(   3) = (  0.0512920  0.9487080  0.1453890  )
         4           Ni  tau(   4) = (  0.0512920  0.9487080  0.3546110  )
         5           Ni  tau(   5) = (  0.6987810  0.3012190  0.4314700  )
         6           Ni  tau(   6) = (  0.3012190  0.6987810  0.5685300  )
         7           Ni  tau(   7) = (  0.3012190  0.6987810  0.9314700  )
         8           Ni  tau(   8) = (  0.6987810  0.3012190  0.0685300  )
         9           Ni  tau(   9) = (  0.5000000  0.5000000  0.5000000  )
        10           Ni  tau(  10) = (  0.5000000  0.5000000  0.0000000  )
        11           Ni  tau(  11) = (  0.9487080  0.0512920  0.6453890  )
        12           Ni  tau(  12) = (  0.9487080  0.0512920  0.8546110  )
        13           P   tau(  13) = (  0.6167750  0.3832250  0.2500000  )
        14           P   tau(  14) = (  0.3832250  0.6167750  0.7500000  )
        15           P   tau(  15) = (  0.1178270  0.8821730  0.5389000  )
        16           P   tau(  16) = (  0.8821730  0.1178270  0.4611000  )
        17           P   tau(  17) = (  0.8821730  0.1178270  0.0389000  )
        18           P   tau(  18) = (  0.1178270  0.8821730  0.9611000  )

     number of k points=     1  Methfessel-Paxton smearing, width (Ry)=  0.0010
                       cart. coord. in units 2pi/alat
        k(    1) = (   0.0000000   0.0000000   0.0000000), wk =   2.0000000

                       cryst. coord.
        k(    1) = (   0.0000000   0.0000000   0.0000000), wk =   2.0000000

     Check: negative core charge=   -0.000007

     Initial potential from superposition of free atoms

     starting charge     211.9820, renormalised to     232.0000
     Starting wfcs are  218 randomized atomic wfcs
     Checking if some PAW data can be deallocated...

     Self-consistent Calculation

     iteration #  1     ecut=    30.00 Ry     beta= 0.70
     Davidson diagonalization with overlap

     ethr =  1.00E-02,  avg # of iterations =  8.0

     total energy              =   -3915.02492536 Ry
     estimated scf accuracy    <     686.92511585 Ry

[...]

     negative rho (up, down):  5.896E-03 0.000E+00

[...]

     negative rho (up, down):  2.055E-03 0.000E+00

[...]

     total energy              =   -4432.18194554 Ry
     estimated scf accuracy    <       0.00000551 Ry

     iteration # 72     ecut=    30.00 Ry     beta= 0.70
     Davidson diagonalization with overlap

     ethr =  1.03E-09,  avg # of iterations =  1.0

     End of self-consistent calculation

          k = 0.0000 0.0000 0.0000 (  2268 PWs)   bands (ev):

   -88.1821 -88.1805 -88.1762 -88.1737 -88.0224 -88.0204 -88.0168 -88.0161
   -87.9455 -87.9452 -48.7351 -48.7292 -48.6387 -48.6319 -48.6110 -48.6098
   -48.5507 -48.5496 -48.5283 -48.5252 -48.5167 -48.5127 -48.4230 -48.4215
   -48.4137 -48.4006 -48.3967 -48.3940 -48.3860 -48.3791 -48.3235 -48.3208
   -48.3198 -48.3104 -48.2836 -48.2834 -48.2724 -48.2681 -47.7900 -47.7843
   -16.5666 -16.5660  -0.8552  -0.7301  -0.5179  -0.5151   0.1374   0.1379
     1.8746   2.5499   3.4907   3.9692   4.3931   4.6824   8.0208   8.1244
     8.9482   9.7079   9.7684  10.4540  10.8336  10.8505  10.9253  11.0306
    11.0986  11.1178  11.1756  11.1863  11.2692  11.5873  11.6602  11.6659
    12.2752  12.3274  12.4199  12.4206  12.4946  12.5317  12.6098  12.9929
    13.1162  13.1303  13.1422  13.1765  13.1807  13.2400  13.3042  13.3097
    13.3237  13.4730  13.6362  13.6883  13.7934  13.7945  13.8646  13.8659
    13.9698  14.0282  14.0576  14.0729  14.1240  14.1750  14.2158  14.2990
    14.3961  14.5290  14.5466  14.6091  14.6516  14.7172  15.0092  15.2249
    15.3215  15.4243  15.8209  16.1597  16.1735  16.2468  16.2780  17.0529
    17.2121  17.3019  17.3683  17.3741  18.0029  18.0512  18.2263  18.2303
    18.3217  18.3446  18.4396  18.4595  18.4893  18.4970  18.5009  18.6566
    18.6583  18.6672  18.8076

     occupation numbers
     1.0000   1.0000   1.0000   1.0000   1.0000   1.0000   1.0000   1.0000
     1.0000   1.0000   1.0000   1.0000   1.0000   1.0000   1.0000   1.0000
     1.0000   1.0000   1.0000   1.0000   1.0000   1.0000   1.0000   1.0000
     1.0000   1.0000   1.0000   1.0000   1.0000   1.0000   1.0000   1.0000
     1.0000   1.0000   1.0000   1.0000   1.0000   1.0000   1.0000   1.0000
     1.0000   1.0000   1.0000   1.0000   1.0000   1.0000   1.0000   1.0000
     1.0000   1.0000   1.0000   1.0000   1.0000   1.0000   1.0000   1.0000
     1.0000   1.0000   1.0000   1.0000   1.0000   1.0000   1.0000   1.0000
     1.0000   1.0000   1.0000   1.0000   1.0000   1.0000   1.0000   1.0000
     1.0000   1.0000   1.0000   1.0000   1.0000   1.0000   1.0000   1.0000
     1.0000   1.0000   1.0000   1.0000   1.0000   1.0000   1.0000   1.0000
     1.0000   1.0000   1.0000   1.0000   1.0000   1.0000   1.0000   1.0000
     1.0000   1.0000   1.0000   1.0000   1.0000   1.0000   1.0000   1.0000
     1.0000   1.0000   1.0000   1.0000   1.0000   1.0000   1.0000   1.0000
     1.0000   1.0000   1.0000   0.8741   0.1259  -0.0000  -0.0000  -0.0000
    -0.0000  -0.0000  -0.0000  -0.0000  -0.0000  -0.0000  -0.0000  -0.0000
    -0.0000  -0.0000  -0.0000  -0.0000  -0.0000  -0.0000  -0.0000  -0.0000
    -0.0000  -0.0000  -0.0000

     the Fermi energy is    16.1666 ev

!    total energy              =   -4432.18194513 Ry
     estimated scf accuracy    <       0.00000076 Ry
     smearing contrib. (-TS)   =      -0.00021173 Ry
     internal energy E=F+TS    =   -4432.18173340 Ry

     The total energy is F=E-TS. E is the sum of the following terms:
     one-electron contribution =   -2773.85468085 Ry
     hartree contribution      =    1525.32382907 Ry
     xc contribution           =    -400.80579896 Ry
     ewald contribution        =   -1986.63314085 Ry
     one-center paw contrib.   =    -796.21194181 Ry
      -> PAW hartree energy AE =      71.53274704 Ry
      -> PAW hartree energy PS =     -71.60996119 Ry
      -> PAW xc energy AE      =    -810.95387764 Ry
      -> PAW xc energy PS      =      14.81914997 Ry
      -> total E_H with PAW    =    1525.24661493 Ry
      -> total E_XC with PAW   =   -1196.94052663 Ry

     convergence has been achieved in  72 iterations

     Forces acting on atoms (cartesian axes, Ry/au):

     atom    1 type  1   force =    -0.01506559    0.00467889    0.00000000
     atom    2 type  1   force =     0.01506559   -0.00467889    0.00000000
     atom    3 type  2   force =    -0.00247111    0.00076603    0.00219838
     atom    4 type  2   force =    -0.00247111    0.00076603   -0.00219838
     atom    5 type  2   force =     0.00538459   -0.00167063   -0.01175791
     atom    6 type  2   force =    -0.00538459    0.00167063    0.01175791
     atom    7 type  2   force =    -0.00538459    0.00167063   -0.01175791
     atom    8 type  2   force =     0.00538459   -0.00167063    0.01175791
     atom    9 type  2   force =     0.00000000    0.00000000    0.00000000
     atom   10 type  2   force =    -0.00000000    0.00000000    0.00000000
     atom   11 type  2   force =     0.00247111   -0.00076603    0.00219838
     atom   12 type  2   force =     0.00247111   -0.00076603   -0.00219838
     atom   13 type  3   force =     0.04302939   -0.01336532    0.00000000
     atom   14 type  3   force =    -0.04302939    0.01336532    0.00000000
     atom   15 type  3   force =    -0.03382315    0.01050420    0.01183453
     atom   16 type  3   force =     0.03382315   -0.01050420   -0.01183453
     atom   17 type  3   force =     0.03382315   -0.01050420    0.01183453
     atom   18 type  3   force =    -0.03382315    0.01050420   -0.01183453
     The non-local contrib.  to forces
     atom    1 type  1   force =     0.00130434   -0.00040478    0.00000000
     atom    2 type  1   force =    -0.00130434    0.00040478    0.00000000
     atom    3 type  2   force =     0.25753085   -0.07998818    0.18476790
     atom    4 type  2   force =     0.25753085   -0.07998818   -0.18476790
     atom    5 type  2   force =     0.04497209   -0.01396739    0.39016171
     atom    6 type  2   force =    -0.04497209    0.01396739   -0.39016171
     atom    7 type  2   force =    -0.04497209    0.01396739    0.39016171
     atom    8 type  2   force =     0.04497209   -0.01396739   -0.39016171
     atom    9 type  2   force =     0.00000000    0.00000000    0.00000000
     atom   10 type  2   force =     0.00000000   -0.00000000    0.00000000
     atom   11 type  2   force =    -0.25753085    0.07998818    0.18476790
     atom   12 type  2   force =    -0.25753085    0.07998818   -0.18476790
     atom   13 type  3   force =    -0.08178617    0.02540236    0.00000000
     atom   14 type  3   force =     0.08178617   -0.02540236    0.00000000
     atom   15 type  3   force =    -0.05511893    0.01711824   -0.12266004
     atom   16 type  3   force =     0.05511893   -0.01711824    0.12266004
     atom   17 type  3   force =     0.05511893   -0.01711824   -0.12266004
     atom   18 type  3   force =    -0.05511893    0.01711824    0.12266004
     The ionic contribution  to forces
     atom    1 type  1   force =    -1.52654220    0.47413680   -0.00000000
     atom    2 type  1   force =     1.52654220   -0.47413680   -0.00000000
     atom    3 type  2   force =    -7.90702683    2.45588519   19.01087665
     atom    4 type  2   force =    -7.90702683    2.45588519  -19.01087665
     atom    5 type  2   force =    20.85759783   -6.47827138  -14.03707657
     atom    6 type  2   force =   -20.85759784    6.47827138   14.03707657
     atom    7 type  2   force =   -20.85759784    6.47827138  -14.03707657
     atom    8 type  2   force =    20.85759783   -6.47827138   14.03707658
     atom    9 type  2   force =     0.00000000   -0.00000000   -0.00000000
     atom   10 type  2   force =     0.00000000   -0.00000000    0.00000000
     atom   11 type  2   force =     7.90702684   -2.45588519   19.01087665
     atom   12 type  2   force =     7.90702684   -2.45588519  -19.01087665
     atom   13 type  3   force =     4.18551202   -1.30000027   -0.00000000
     atom   14 type  3   force =    -4.18551202    1.30000027   -0.00000000
     atom   15 type  3   force =     4.11092175   -1.27683288    9.73883273
     atom   16 type  3   force =    -4.11092175    1.27683288   -9.73883273
     atom   17 type  3   force =    -4.11092175    1.27683288    9.73883273
     atom   18 type  3   force =     4.11092175   -1.27683288   -9.73883273
     The local contribution  to forces
     atom    1 type  1   force =     1.51027854   -0.46908370   -0.00018215
     atom    2 type  1   force =    -1.51032354    0.46910312    0.00005849
     atom    3 type  2   force =     7.64858400   -2.37561128  -19.18881552
     atom    4 type  2   force =     7.64895619   -2.37573237   19.18840012
     atom    5 type  2   force =   -20.89302411    6.48927770   13.63674224
     atom    6 type  2   force =    20.89322345   -6.48933297  -13.63946790
     atom    7 type  2   force =    20.89368549   -6.48947444   13.63959419
     atom    8 type  2   force =   -20.89303592    6.48927642  -13.63681052
     atom    9 type  2   force =     0.00016937   -0.00004978   -0.00123303
     atom   10 type  2   force =    -0.00034563    0.00010437    0.00132641
     atom   11 type  2   force =    -7.64876936    2.37566896  -19.18975738
     atom   12 type  2   force =    -7.64885019    2.37569345   19.19034028
     atom   13 type  3   force =    -4.06493238    1.26254839   -0.00002341
     atom   14 type  3   force =     4.06508870   -1.26259596    0.00009460
     atom   15 type  3   force =    -4.09219471    1.27101583   -9.60963296
     atom   16 type  3   force =     4.09206900   -1.27097795    9.60883853
     atom   17 type  3   force =     4.09222319   -1.27102604   -9.60888298
     atom   18 type  3   force =    -4.09230159    1.27105097    9.60965455
     The core correction contribution to forces
     atom    1 type  1   force =    -0.00001804    0.00000560   -0.00000005
     atom    2 type  1   force =     0.00001807   -0.00000561   -0.00000001
     atom    3 type  2   force =    -0.00219668    0.00068227   -0.00349982
     atom    4 type  2   force =    -0.00219742    0.00068250    0.00349993
     atom    5 type  2   force =    -0.00342749    0.00106459   -0.00336473
     atom    6 type  2   force =     0.00343086   -0.00106559    0.00336386
     atom    7 type  2   force =     0.00342870   -0.00106493   -0.00336344
     atom    8 type  2   force =    -0.00342811    0.00106477    0.00336376
     atom    9 type  2   force =    -0.00000118    0.00000034    0.00000030
     atom   10 type  2   force =    -0.00000076    0.00000019   -0.00000049
     atom   11 type  2   force =     0.00219723   -0.00068247   -0.00349989
     atom   12 type  2   force =     0.00219705   -0.00068237    0.00350007
     atom   13 type  3   force =     0.00437909   -0.00136016   -0.00000074
     atom   14 type  3   force =    -0.00438003    0.00136043    0.00000007
     atom   15 type  3   force =     0.00270971   -0.00084157    0.00516067
     atom   16 type  3   force =    -0.00271065    0.00084187   -0.00515951
     atom   17 type  3   force =    -0.00271163    0.00084222    0.00516038
     atom   18 type  3   force =     0.00271079   -0.00084190   -0.00515933
     The Hubbard contrib.    to forces
     atom    1 type  1   force =     0.00000000    0.00000000    0.00000000
     atom    2 type  1   force =     0.00000000    0.00000000    0.00000000
     atom    3 type  2   force =     0.00000000    0.00000000    0.00000000
     atom    4 type  2   force =     0.00000000    0.00000000    0.00000000
     atom    5 type  2   force =     0.00000000    0.00000000    0.00000000
     atom    6 type  2   force =     0.00000000    0.00000000    0.00000000
     atom    7 type  2   force =     0.00000000    0.00000000    0.00000000
     atom    8 type  2   force =     0.00000000    0.00000000    0.00000000
     atom    9 type  2   force =     0.00000000    0.00000000    0.00000000
     atom   10 type  2   force =     0.00000000    0.00000000    0.00000000
     atom   11 type  2   force =     0.00000000    0.00000000    0.00000000
     atom   12 type  2   force =     0.00000000    0.00000000    0.00000000
     atom   13 type  3   force =     0.00000000    0.00000000    0.00000000
     atom   14 type  3   force =     0.00000000    0.00000000    0.00000000
     atom   15 type  3   force =     0.00000000    0.00000000    0.00000000
     atom   16 type  3   force =     0.00000000    0.00000000    0.00000000
     atom   17 type  3   force =     0.00000000    0.00000000    0.00000000
     atom   18 type  3   force =     0.00000000    0.00000000    0.00000000
     The SCF correction term to forces
     atom    1 type  1   force =    -0.00006478    0.00001910    0.00013569
     atom    2 type  1   force =     0.00015665   -0.00005024   -0.00005801
     atom    3 type  2   force =     0.00061913   -0.00019721   -0.00110104
     atom    4 type  2   force =     0.00028088   -0.00008345    0.00144483
     atom    5 type  2   force =    -0.00071667    0.00021823    0.00164482
     atom    6 type  2   force =     0.00055019   -0.00017819    0.00085109
     atom    7 type  2   force =     0.00007365   -0.00003149   -0.00096779
     atom    8 type  2   force =    -0.00071669    0.00022322   -0.00164284
     atom    9 type  2   force =    -0.00016967    0.00005073    0.00113404
     atom   10 type  2   force =     0.00033719   -0.00010188   -0.00123929
     atom   11 type  2   force =    -0.00045738    0.00014629   -0.00023350
     atom   12 type  2   force =    -0.00037075    0.00012052   -0.00030767
     atom   13 type  3   force =    -0.00015243    0.00004741    0.00000588
     atom   14 type  3   force =    -0.00002146    0.00000601   -0.00009340
     atom   15 type  3   force =    -0.00016659    0.00005207    0.00014332
     atom   16 type  3   force =     0.00027180   -0.00008396    0.00066132
     atom   17 type  3   force =     0.00008941   -0.00002726   -0.00060075
     atom   18 type  3   force =    -0.00003035    0.00000884   -0.00013522

     Total force =     0.104220     Total SCF correction =     0.004110

     Computing stress (Cartesian axis) and pressure

          total   stress  (Ry/bohr**3)                   (kbar)     P=     -940.19
  -0.00661926   0.00013317   0.00000000         -973.73       19.59        0.00
   0.00013317  -0.00623186   0.00000000           19.59     -916.74        0.00
   0.00000000   0.00000000  -0.00632281            0.00        0.00     -930.12

     kinetic stress (kbar)  32683.16    -58.24      0.00
                              -58.24  32513.73      0.00
                                0.00      0.00  32568.98

     local   stress (kbar) -16573.30  -9989.72     -0.14
                            -9989.72 -45633.66      0.05
                               -0.14      0.05  -8228.80

     nonloc. stress (kbar)  14945.80    -49.43      0.00
                              -49.43  14801.99      0.00
                                0.00      0.00  14896.36

     hartree stress (kbar)  41826.08   4976.16      0.13
                             4976.16  56301.87     -0.04
                                0.13     -0.04  37939.65

     exc-cor stress (kbar)  -9053.38     -2.60      0.00
                               -2.60  -9060.94     -0.00
                                0.00     -0.00  -9056.10

     corecor stress (kbar)  -2157.27     -1.06      0.00
                               -1.06  -2160.36     -0.00
                                0.00     -0.00  -2155.35

     ewald   stress (kbar) -62644.81   5144.48     -0.00
                             5144.48 -47679.36      0.00
                               -0.00      0.00 -66894.86

     hubbard stress (kbar)      0.00      0.00      0.00
                                0.00      0.00      0.00
                                0.00      0.00      0.00

     DFT-D   stress (kbar)      0.00      0.00      0.00
                                0.00      0.00      0.00
                                0.00      0.00      0.00

     XDM     stress (kbar)      0.00      0.00      0.00
                                0.00      0.00      0.00
                                0.00      0.00      0.00

     dft-nl  stress (kbar)      0.00      0.00      0.00
                                0.00      0.00      0.00
                                0.00      0.00      0.00

     TS-vdW  stress (kbar)      0.00      0.00      0.00
                                0.00      0.00      0.00
                                0.00      0.00      0.00

[...]

                                0.00      0.00      0.00

     Writing all to output data dir new_calculations/myprefix.save/

     General routines

     Parallel routines

     PAW routines

   This run was terminated on:  17:10:17  20May2023

   JOB DONE.