     Program PWSCF v.7.0 starts on 21May2023 at  9: 3:28

     Reading input from espresso_21770.pwi
Warning: card &CELL ignored
Warning: card / ignored

     Current dimensions of program PWSCF are:
     Max number of different atomic species (ntypx) = 10
     Max number of k-points (npk) =  40000
     Max angular momentum in pseudopotentials (lmaxx) =  4

     gamma-point specific algorithms are used

     Subspace diagonalization in iterative solution of the eigenvalue problem:
     a serial algorithm will be used

     Using Slab Decomposition

     bravais-lattice index     =            0
     lattice parameter (alat)  =      14.3061  a.u.
     unit-cell volume          =    1702.6514 (a.u.)^3
     number of atoms/cell      =           16
     number of atomic types    =            2
     number of electrons       =       236.00
     number of Kohn-Sham states=          142
     kinetic-energy cutoff     =      30.0000  Ry
     charge density cutoff     =     240.0000  Ry
     scf convergence threshold =      1.0E-06
     mixing beta               =       0.7000
     number of iterations used =            8  plain     mixing
     Exchange-correlation= PBE
                           (   1   4   3   4   0   0   0)

     celldm(1)=  14.306112  celldm(2)=   0.000000  celldm(3)=   0.000000
     celldm(4)=   0.000000  celldm(5)=   0.000000  celldm(6)=   0.000000

     crystal axes: (cart. coord. in units of alat)
               a(1) = (   1.000000   0.000000   0.000000 )
               a(2) = (  -0.788587   0.614923   0.000000 )
               a(3) = (  -0.105706  -0.307462   0.945671 )

     reciprocal axes: (cart. coord. in units 2 pi/alat)
               b(1) = (  1.000000  1.282416  0.528725 )
               b(2) = (  0.000000  1.626219  0.528725 )
               b(3) = (  0.000000  0.000000  1.057450 )

     PseudoPot. # 1 for As read from file:
     /home/pragov/projects/rrg-bengioy-ad/pragov/crystal_structure_design/SSSP/As.pbe-n-rrkjus_psl.0.2.UPF
     MD5 check sum: 767315de957beeeb34f87d97bf945c8f
     Pseudo is Ultrasoft + core correction, Zval =  5.0
     Generated using "atomic" code by A. Dal Corso  v.5.0.99 svn rev. 10869
     Using radial grid of 1209 points,  4 beta functions with:
                l(1) =   0
                l(2) =   0
                l(3) =   1
                l(4) =   1
     Q(r) pseudized with 0 coefficients

     PseudoPot. # 2 for Pd read from file:
     /home/pragov/projects/rrg-bengioy-ad/pragov/crystal_structure_design/SSSP/Pd_ONCV_PBE-1.0.oncvpsp.upf
     MD5 check sum: eb77f42b51d86fb18e25f68156a31cf1
     Pseudo is Norm-conserving, Zval = 18.0
     Generated using ONCVPSP code by D. R. Hamann
     Using radial grid of 1410 points,  6 beta functions with:
                l(1) =   0
                l(2) =   0
                l(3) =   1
                l(4) =   1
                l(5) =   2
                l(6) =   2

     atomic species   valence    mass     pseudopotential
        As             5.00    74.92159     As( 1.00)
        Pd            18.00   106.42000     Pd( 1.00)

     No symmetry found

                                    s                        frac. trans.

      isym =  1     identity

 cryst.   s( 1) = (     1          0          0      )
                  (     0          1          0      )
                  (     0          0          1      )

 cart.    s( 1) = (  1.0000000  0.0000000 -0.0000000 )
                  (  0.0000000  1.0000000  0.0000000 )
                  (  0.0000000  0.0000000  1.0000000 )

   Cartesian axes

     site n.     atom                  positions (alat units)
         1           As  tau(   1) = (  -0.2186533   0.0634017   0.6381690  )
         2           As  tau(   2) = (   0.3171208   0.2230043   0.3075019  )
         3           As  tau(   3) = (   0.2944150  -0.0894492   0.7182844  )
         4           As  tau(   4) = (  -0.1814696   0.4179663   0.2273866  )
         5           Pd  tau(   5) = (  -0.0269226  -0.1712681   0.7666564  )
         6           Pd  tau(   6) = (   0.0216214   0.1558458   0.1790146  )
         7           Pd  tau(   7) = (   0.3304996   0.4107010   0.0302236  )
         8           Pd  tau(   8) = (  -0.1137836   0.2196438   0.9154473  )
         9           Pd  tau(   9) = (   0.2944453  -0.1151899   0.3726133  )
        10           Pd  tau(  10) = (  -0.1973222   0.3976856   0.5730577  )
        11           Pd  tau(  11) = (   0.6519221   0.1336289   0.3158995  )
        12           Pd  tau(  12) = (  -0.5376323   0.1987985   0.6297715  )
        13           Pd  tau(  13) = (   0.1171363   0.4766506   0.3724402  )
        14           Pd  tau(  14) = (   0.0950248   0.1404488   0.5732307  )
        15           Pd  tau(  15) = (  -0.4054331  -0.0337288   0.9014712  )
        16           Pd  tau(  16) = (   0.4046849   0.0315526   0.0441997  )

   Crystallographic axes

     site n.     atom                  positions (cryst. coord.)
         1           As  tau(   1) = (  0.2000700  0.4405210  0.6748320  )
         2           As  tau(   2) = (  0.7656890  0.5252380  0.3251680  )
         3           As  tau(   3) = (  0.5594790  0.2343110  0.7595500  )
         4           As  tau(   4) = (  0.4747620  0.7999300  0.2404500  )
         5           Pd  tau(   5) = (  0.1587910  0.1268310  0.8107010  )
         6           Pd  tau(   6) = (  0.3161300  0.3480890  0.1892990  )
         7           Pd  tau(   7) = (  0.8731690  0.6838700  0.0319600  )
         8           Pd  tau(   8) = (  0.6519110  0.8412090  0.9680400  )
         9           Pd  tau(   9) = (  0.3437340  0.0096860  0.3940200  )
        10           Pd  tau(  10) = (  0.6156660  0.9497140  0.6059800  )
        11           Pd  tau(  11) = (  0.9903140  0.3843340  0.3340480  )
        12           Pd  tau(  12) = (  0.0502860  0.6562660  0.6659520  )
        13           Pd  tau(  13) = (  0.9253190  0.9720570  0.3938370  )
        14           Pd  tau(  14) = (  0.5782200  0.5314820  0.6061630  )
        15           Pd  tau(  15) = (  0.0279430  0.4217800  0.9532610  )
        16           Pd  tau(  16) = (  0.4685180  0.0746810  0.0467390  )

     number of k points=     1  Methfessel-Paxton smearing, width (Ry)=  0.0010
                       cart. coord. in units 2pi/alat
        k(    1) = (   0.0000000   0.0000000   0.0000000), wk =   2.0000000

                       cryst. coord.
        k(    1) = (   0.0000000   0.0000000   0.0000000), wk =   2.0000000

     Initial potential from superposition of free atoms

     starting charge     235.9948, renormalised to     236.0000
     Starting wfcs are  136 randomized atomic wfcs +    6 random wfcs

     Self-consistent Calculation

     iteration #  1     ecut=    30.00 Ry     beta= 0.70
     Davidson diagonalization with overlap

     ethr =  1.00E-02,  avg # of iterations =  7.0

     Threshold (ethr) on eigenvalues was too large:
     Diagonalizing with lowered threshold

     Davidson diagonalization with overlap

[...]

     total energy              =   -3110.21254579 Ry
     estimated scf accuracy    <       1.13950058 Ry

[...]

     total energy              =   -3110.79791325 Ry
     estimated scf accuracy    <       0.00000513 Ry

     iteration # 17     ecut=    30.00 Ry     beta= 0.70
     Davidson diagonalization with overlap

     ethr =  2.18E-09,  avg # of iterations =  1.0

     End of self-consistent calculation

          k = 0.0000 0.0000 0.0000 (  2363 PWs)   bands (ev):

   -68.7028 -68.6484 -68.6192 -68.5679 -68.4910 -68.4160 -68.3819 -68.3694
   -68.2263 -68.2157 -68.2105 -68.1713 -34.8810 -34.8325 -34.5766 -34.4722
   -34.4439 -34.3660 -34.3143 -34.2929 -34.2861 -34.2564 -34.2101 -34.2039
   -34.1387 -34.1115 -34.0759 -34.0400 -34.0206 -33.9976 -33.9649 -33.9433
   -33.9276 -33.9104 -33.8879 -33.8671 -33.8599 -33.8023 -33.7891 -33.7791
   -33.7466 -33.7340 -33.7203 -33.6866 -33.6506 -33.6142 -33.5376 -33.4794
     4.2483   5.1109   5.1181   5.2994  10.5706  10.7925  11.2487  11.2719
    11.6730  11.7673  11.8001  11.9389  11.9842  12.0279  12.2059  12.3975
    12.6405  12.8414  12.9904  13.0845  13.0931  13.1571  13.1829  13.1955
    13.2078  13.3547  13.3681  13.3798  13.4148  13.4443  13.7089  13.8838
    13.8986  13.9789  13.9981  14.0198  14.1263  14.2031  14.2204  14.2324
    14.2617  14.5377  14.5973  14.6056  14.6590  14.6920  14.8250  14.8962
    15.0030  15.0277  15.0646  15.3521  15.3730  15.3878  15.4546  15.5423
    15.5519  15.5794  15.8192  15.8420  15.8679  15.9107  16.0049  16.1412
    16.2025  16.2054  16.3488  17.0945  17.1004  17.4205  17.5290  17.6463
    17.6686  18.0910  18.1099  18.1656  18.5968  20.0446  20.6462  20.6826
    21.2513  21.4305  22.4546  22.4683  22.8292  22.9987  23.7217  23.7721
    23.8956  24.1985  24.6604  24.7077  24.9864  25.0070

     occupation numbers
     1.0000   1.0000   1.0000   1.0000   1.0000   1.0000   1.0000   1.0000
     1.0000   1.0000   1.0000   1.0000   1.0000   1.0000   1.0000   1.0000
     1.0000   1.0000   1.0000   1.0000   1.0000   1.0000   1.0000   1.0000
     1.0000   1.0000   1.0000   1.0000   1.0000   1.0000   1.0000   1.0000
     1.0000   1.0000   1.0000   1.0000   1.0000   1.0000   1.0000   1.0000
     1.0000   1.0000   1.0000   1.0000   1.0000   1.0000   1.0000   1.0000
     1.0000   1.0000   1.0000   1.0000   1.0000   1.0000   1.0000   1.0000
     1.0000   1.0000   1.0000   1.0000   1.0000   1.0000   1.0000   1.0000
     1.0000   1.0000   1.0000   1.0000   1.0000   1.0000   1.0000   1.0000
     1.0000   1.0000   1.0000   1.0000   1.0000   1.0000   1.0000   1.0000
     1.0000   1.0000   1.0000   1.0000   1.0000   1.0000   1.0000   1.0000
     1.0000   1.0000   1.0000   1.0000   1.0000   1.0000   1.0000   1.0000
     1.0000   1.0000   1.0000   1.0000   1.0000   1.0000   1.0000   1.0000
     1.0000   1.0000   1.0000   1.0000   1.0000   1.0000   1.0000   1.0000
     1.0000   1.0000   1.0000   1.0000   1.0000   1.0000  -0.0000  -0.0000
    -0.0000  -0.0000  -0.0000  -0.0000  -0.0000  -0.0000  -0.0000  -0.0000
    -0.0000  -0.0000  -0.0000  -0.0000  -0.0000  -0.0000  -0.0000  -0.0000
    -0.0000  -0.0000  -0.0000  -0.0000  -0.0000  -0.0000

     the Fermi energy is    17.4747 ev

!    total energy              =   -3110.79791335 Ry
     estimated scf accuracy    <       0.00000068 Ry
     smearing contrib. (-TS)   =       0.00000000 Ry
     internal energy E=F+TS    =   -3110.79791335 Ry

     The total energy is F=E-TS. E is the sum of the following terms:
     one-electron contribution =   -1199.55875137 Ry
     hartree contribution      =     722.73768734 Ry
     xc contribution           =    -334.57373515 Ry
     ewald contribution        =   -2299.40311417 Ry

     convergence has been achieved in  17 iterations

     Forces acting on atoms (cartesian axes, Ry/au):

     atom    1 type  1   force =    -0.01678479    0.00028648    0.00446017
     atom    2 type  1   force =     0.00507505   -0.00258222   -0.00545388
     atom    3 type  1   force =    -0.00902439   -0.00090254   -0.00886162
     atom    4 type  1   force =     0.00280818   -0.01941760    0.00246546
     atom    5 type  2   force =     0.00513895   -0.00055808   -0.02751685
     atom    6 type  2   force =     0.01150234    0.03900917   -0.00636354
     atom    7 type  2   force =     0.01911114   -0.01197384    0.04114805
     atom    8 type  2   force =    -0.01289254   -0.00651120   -0.04107868
     atom    9 type  2   force =    -0.03765676   -0.01312597    0.02554415
     atom   10 type  2   force =     0.00357792   -0.02432272   -0.00595683
     atom   11 type  2   force =    -0.02167041    0.03447904    0.03910326
     atom   12 type  2   force =     0.02498132   -0.00240364   -0.04132032
     atom   13 type  2   force =     0.00783033   -0.01884429   -0.00884853
     atom   14 type  2   force =     0.01931547    0.03390537    0.02035787
     atom   15 type  2   force =     0.01832509   -0.03625883   -0.06723981
     atom   16 type  2   force =    -0.01963691    0.02922086    0.07956110
     The non-local contrib.  to forces
     atom    1 type  1   force =    -0.10930165   -0.03888822   -0.08978542
     atom    2 type  1   force =     0.05640954   -0.10160020    0.09668132
     atom    3 type  1   force =     0.10905461    0.03365778   -0.08487286
     atom    4 type  1   force =    -0.06660151    0.05941543    0.07939160
     atom    5 type  2   force =    -0.05288309    0.10175424   -0.00067700
     atom    6 type  2   force =     0.09626926    0.00352988   -0.02361640
     atom    7 type  2   force =     0.04486659   -0.07508635   -0.03931059
     atom    8 type  2   force =    -0.07471660    0.00404734    0.07612708
     atom    9 type  2   force =    -0.03526167    0.00893694    0.06639591
     atom   10 type  2   force =     0.02466976   -0.04760879   -0.04830955
     atom   11 type  2   force =    -0.04795210    0.02086240   -0.02356520
     atom   12 type  2   force =     0.04578276    0.00471861    0.02206951
     atom   13 type  2   force =     0.03935489   -0.05839358    0.05292230
     atom   14 type  2   force =    -0.06005582   -0.03672227   -0.05803011
     atom   15 type  2   force =    -0.08610688    0.08198393   -0.00387924
     atom   16 type  2   force =     0.10476815    0.02238689    0.01633221
     The ionic contribution  to forces
     atom    1 type  1   force =    -1.13587785    0.43690385   -1.03376837
     atom    2 type  1   force =     1.16441911   -0.35393444    1.03379003
     atom    3 type  1   force =     0.96335679   -0.37757254   -1.21625615
     atom    4 type  1   force =    -0.99182264    0.29456242    1.21623930
     atom    5 type  2   force =     1.81074287    3.62887475   -3.40954187
     atom    6 type  2   force =     0.80326012    3.97532187    3.40951939
     atom    7 type  2   force =     1.91724196   -4.91061526    0.53246788
     atom    8 type  2   force =    -4.53169891   -2.69338273   -0.53245923
     atom    9 type  2   force =     2.31627035   -0.44693772    1.71865003
     atom   10 type  2   force =    -2.10132257    1.07185887   -1.71856642
     atom   11 type  2   force =    -1.73241529    0.24625385    2.33550355
     atom   12 type  2   force =     1.51769681   -0.87120749   -2.33560222
     atom   13 type  2   force =    -0.74274861   -1.70217150    2.01478027
     atom   14 type  2   force =    -0.46109583   -1.79894722   -2.01478141
     atom   15 type  2   force =    -1.30341640    2.40547483   -0.14862424
     atom   16 type  2   force =     2.50741011    1.09551846    0.14864947
     The local contribution  to forces
     atom    1 type  1   force =     1.20850888   -0.40229368    1.11105483
     atom    2 type  1   force =    -1.20193048    0.43550247   -1.11407771
     atom    3 type  1   force =    -1.05920622    0.34631913    1.27656440
     atom    4 type  1   force =     1.04664256   -0.36075417   -1.27392141
     atom    5 type  2   force =    -1.75250898   -3.73200827    3.38539716
     atom    6 type  2   force =    -0.88821545   -3.94080880   -3.39200809
     atom    7 type  2   force =    -1.94271684    4.97374525   -0.45200154
     atom    8 type  2   force =     4.59400627    2.68241095    0.41639266
     atom    9 type  2   force =    -2.31868142    0.42475307   -1.75735557
     atom   10 type  2   force =     2.08062394   -1.04890314    1.76486840
     atom   11 type  2   force =     1.75950388   -0.23366605   -2.27136411
     atom   12 type  2   force =    -1.53866620    0.86339736    2.27676164
     atom   13 type  2   force =     0.71106958    1.74172819   -2.07470235
     atom   14 type  2   force =     0.54063978    1.86901042    2.09736966
     atom   15 type  2   force =     1.40797658   -2.52422919    0.08610150
     atom   16 type  2   force =    -2.63233036   -1.08956842   -0.08544166
     The core correction contribution to forces
     atom    1 type  1   force =     0.02005857    0.00397295    0.01933448
     atom    2 type  1   force =    -0.01385453    0.01690744   -0.02009719
     atom    3 type  1   force =    -0.02211070   -0.00377738    0.01803676
     atom    4 type  1   force =     0.01479744   -0.01317731   -0.01770164
     atom    5 type  2   force =     0.00000000    0.00000000    0.00000000
     atom    6 type  2   force =     0.00000000    0.00000000    0.00000000
     atom    7 type  2   force =     0.00000000    0.00000000    0.00000000
     atom    8 type  2   force =     0.00000000    0.00000000    0.00000000
     atom    9 type  2   force =     0.00000000    0.00000000    0.00000000
     atom   10 type  2   force =     0.00000000    0.00000000    0.00000000
     atom   11 type  2   force =     0.00000000    0.00000000    0.00000000
     atom   12 type  2   force =     0.00000000    0.00000000    0.00000000
     atom   13 type  2   force =     0.00000000    0.00000000    0.00000000
     atom   14 type  2   force =     0.00000000    0.00000000    0.00000000
     atom   15 type  2   force =     0.00000000    0.00000000    0.00000000
     atom   16 type  2   force =     0.00000000    0.00000000    0.00000000
     The Hubbard contrib.    to forces
     atom    1 type  1   force =     0.00000000    0.00000000    0.00000000
     atom    2 type  1   force =     0.00000000    0.00000000    0.00000000
     atom    3 type  1   force =     0.00000000    0.00000000    0.00000000
     atom    4 type  1   force =     0.00000000    0.00000000    0.00000000
     atom    5 type  2   force =     0.00000000    0.00000000    0.00000000
     atom    6 type  2   force =     0.00000000    0.00000000    0.00000000
     atom    7 type  2   force =     0.00000000    0.00000000    0.00000000
     atom    8 type  2   force =     0.00000000    0.00000000    0.00000000
     atom    9 type  2   force =     0.00000000    0.00000000    0.00000000
     atom   10 type  2   force =     0.00000000    0.00000000    0.00000000
     atom   11 type  2   force =     0.00000000    0.00000000    0.00000000
     atom   12 type  2   force =     0.00000000    0.00000000    0.00000000
     atom   13 type  2   force =     0.00000000    0.00000000    0.00000000
     atom   14 type  2   force =     0.00000000    0.00000000    0.00000000
     atom   15 type  2   force =     0.00000000    0.00000000    0.00000000
     atom   16 type  2   force =     0.00000000    0.00000000    0.00000000
     The SCF correction term to forces
     atom    1 type  1   force =    -0.00004674    0.00006218   -0.00041578
     atom    2 type  1   force =     0.00015740    0.00001311    0.00020924
     atom    3 type  1   force =     0.00000712   -0.00005893   -0.00037419
     atom    4 type  1   force =    -0.00008168    0.00000663    0.00041717
     atom    5 type  2   force =    -0.00008586    0.00029181   -0.00073557
     atom    6 type  2   force =     0.00031440    0.00043682    0.00170113
     atom    7 type  2   force =    -0.00015458   -0.00054688    0.00195187
     atom    8 type  2   force =    -0.00035731   -0.00011616    0.00082037
     atom    9 type  2   force =     0.00014197   -0.00040765   -0.00018664
     atom   10 type  2   force =    -0.00026722   -0.00019905   -0.00198968
     atom   11 type  2   force =    -0.00068091    0.00049944    0.00048859
     atom   12 type  2   force =     0.00029394    0.00015848   -0.00258968
     atom   13 type  2   force =     0.00028046   -0.00053681    0.00011082
     atom   14 type  2   force =    -0.00004667    0.00003504   -0.00224070
     atom   15 type  2   force =    -0.00000222   -0.00001779    0.00112174
     atom   16 type  2   force =     0.00064119    0.00035453    0.00198064

     Total force =     0.179087     Total SCF correction =     0.005702

     Computing stress (Cartesian axis) and pressure

          total   stress  (Ry/bohr**3)                   (kbar)     P=    -1105.60
  -0.00710724  -0.00049347   0.00005625        -1045.51      -72.59        8.27
  -0.00049347  -0.00803582   0.00032531          -72.59    -1182.11       47.86
   0.00005625   0.00032531  -0.00740405            8.27       47.86    -1089.17

     kinetic stress (kbar)  59976.10   -281.13     -0.26
                             -281.13  59360.86     46.50
                               -0.26     46.50  60012.35

     local   stress (kbar) -16081.94    -84.22      3.37
                              -84.22 -16286.72     46.47
                                3.37     46.47 -16093.72

     nonloc. stress (kbar)   9304.62     57.78      7.53
                               57.78   9364.80    -50.16
                                7.53    -50.16   9322.50

     hartree stress (kbar)  20785.30     32.59     -2.29
                               32.59  20887.98      4.25
                               -2.29      4.25  20769.56

     exc-cor stress (kbar)  -6564.36     -1.21     -0.07
                               -1.21  -6566.26      0.69
                               -0.07      0.69  -6564.48

     corecor stress (kbar)  -2093.52      0.07     -0.01
                                0.07  -2093.08      0.10
                               -0.01      0.10  -2093.74

     ewald   stress (kbar) -66371.70    203.52      0.00
                              203.52 -65849.69      0.00
                                0.00      0.00 -66441.63

     hubbard stress (kbar)      0.00      0.00      0.00
                                0.00      0.00      0.00
                                0.00      0.00      0.00

     DFT-D   stress (kbar)      0.00      0.00      0.00
                                0.00      0.00      0.00
                                0.00      0.00      0.00

     XDM     stress (kbar)      0.00      0.00      0.00
                                0.00      0.00      0.00
                                0.00      0.00      0.00

     dft-nl  stress (kbar)      0.00      0.00      0.00
                                0.00      0.00      0.00
                                0.00      0.00      0.00

     TS-vdW  stress (kbar)      0.00      0.00      0.00
                                0.00      0.00      0.00
                                0.00      0.00      0.00

[...]

                                0.00      0.00      0.00

     Writing all to output data dir new_calculations/myprefix.save/

     General routines

     Parallel routines

   This run was terminated on:   9: 4: 1  21May2023

   JOB DONE.