     Program PWSCF v.7.1 starts on 16Jul2023 at 17:14:31

     Reading input from espresso_15999.pwi
Warning: card &CELL ignored
Warning: card / ignored

     Current dimensions of program PWSCF are:
     Max number of different atomic species (ntypx) = 10
     Max number of k-points (npk) =  40000
     Max angular momentum in pseudopotentials (lmaxx) =  4
     file Yb.paw.z_24.atompaw.wentzcovitch.v1.2.upf: wavefunction(s)  6S 0P 5D 0D 4F 0F renormalized
     file Nd.paw.z_14.atompaw.wentzcovitch.v1.2.upf: wavefunction(s)  6S 0P 5D 0D 0F renormalized
     Message from routine setup:
     using ibrav=0 with symmetry is DISCOURAGED, use correct ibrav instead

     K-points division:     npool     =       2
     R & G space division:  proc/nbgrp/npool/nimage =       4
     Subspace diagonalization in iterative solution of the eigenvalue problem:
     a serial algorithm will be used

     Using Slab Decomposition

     bravais-lattice index     =            0
     lattice parameter (alat)  =      14.0051  a.u.
     unit-cell volume          =    1917.6775 (a.u.)^3
     number of atoms/cell      =            8
     number of atomic types    =            2
     number of electrons       =       132.00
     number of Kohn-Sham states=           79
     kinetic-energy cutoff     =      30.0000  Ry
     charge density cutoff     =     240.0000  Ry
     scf convergence threshold =      1.0E-06
     mixing beta               =       0.7000
     number of iterations used =            8  plain     mixing
     Exchange-correlation= SLA PW PBX PBC
                           (   1   4   3   4   0   0   0)

     celldm(1)=  14.005074  celldm(2)=   0.000000  celldm(3)=   0.000000
     celldm(4)=   0.000000  celldm(5)=   0.000000  celldm(6)=   0.000000

     crystal axes: (cart. coord. in units of alat)
               a(1) = (   1.000000   0.000000   0.000000 )
               a(2) = (  -0.500000   0.866025   0.000000 )
               a(3) = (   0.000000   0.000000   0.806100 )

     reciprocal axes: (cart. coord. in units 2 pi/alat)
               b(1) = (  1.000000  0.577350  0.000000 )
               b(2) = (  0.000000  1.154701  0.000000 )
               b(3) = (  0.000000  0.000000  1.240541 )

     PseudoPot. # 1 for Yb read from file:
     /lustre07/scratch/pragov/crystal_structure_design/utils/SSSP/Yb.paw.z_24.atompaw.wentzcovitch.v1.2.upf
     MD5 check sum: 2246be0c1287a90a9096a0c3416daab6
     Pseudo is Projector augmented-wave + core cor, Zval = 24.0
     Generated using ATOMPAW code
     Shape of augmentation charge: BESSEL
     Using radial grid of 1117 points,  8 beta functions with:
                l(1) =   0
                l(2) =   0
                l(3) =   1
                l(4) =   1
                l(5) =   2
                l(6) =   2
                l(7) =   3
                l(8) =   3
     Q(r) pseudized with 0 coefficients

     PseudoPot. # 2 for Nd read from file:
     /lustre07/scratch/pragov/crystal_structure_design/utils/SSSP/Nd.paw.z_14.atompaw.wentzcovitch.v1.2.upf
     MD5 check sum: 8a77231a7dfbac907351543c5ef6bfc9
     Pseudo is Projector augmented-wave + core cor, Zval = 14.0
     Generated using ATOMPAW code
     Shape of augmentation charge: BESSEL
     Using radial grid of 1105 points,  8 beta functions with:
                l(1) =   0
                l(2) =   0
                l(3) =   1
                l(4) =   1
                l(5) =   2
                l(6) =   2
                l(7) =   3
                l(8) =   3
     Q(r) pseudized with 0 coefficients

     atomic species   valence    mass     pseudopotential
        Yb            24.00   173.05400     Yb( 1.00)
        Nd            14.00   144.24200     Nd( 1.00)

     24 Sym. Ops., with inversion, found (12 have fractional translation)

                                    s                        frac. trans.

      isym =  1     identity

 cryst.   s( 1) = (     1          0          0      )
                  (     0          1          0      )
                  (     0          0          1      )

 cart.    s( 1) = (  1.0000000  0.0000000  0.0000000 )
                  (  0.0000000  1.0000000  0.0000000 )
                  (  0.0000000  0.0000000  1.0000000 )

      isym =  2     180 deg rotation - cart. axis [0,0,1]

 cryst.   s( 2) = (    -1          0          0      )    f =(  0.0000000 )
                  (     0         -1          0      )       (  0.0000000 )
                  (     0          0          1      )       (  0.5000000 )

 cart.    s( 2) = ( -1.0000000  0.0000000  0.0000000 )    f =(  0.0000000 )
                  (  0.0000000 -1.0000000  0.0000000 )       (  0.0000000 )
                  (  0.0000000  0.0000000  1.0000000 )       (  0.4030498 )

[...]

      isym =  4     180 deg rotation - cart. axis [1,0,0]

[...]

      isym =  5      60 deg rotation - cryst. axis [0,0,1]

[...]

 cryst.   s( 8) = (    -1         -1          0      )
                  (     1          0          0      )
                  (     0          0          1      )

 cart.    s( 8) = ( -0.5000000  0.8660254  0.0000000 )
                  ( -0.8660254 -0.5000000  0.0000000 )
                  (  0.0000000  0.0000000  1.0000000 )

[...]

 cryst.   s( 9) = (     0         -1          0      )    f =(  0.0000000 )
                  (    -1          0          0      )       (  0.0000000 )
                  (     0          0         -1      )       (  0.5000000 )

 cart.    s( 9) = (  0.5000000 -0.8660254  0.0000000 )    f =(  0.0000000 )
                  ( -0.8660254 -0.5000000  0.0000000 )       (  0.0000000 )
                  (  0.0000000  0.0000000 -1.0000000 )       (  0.4030498 )

[...]

 cryst.   s(10) = (     1          1          0      )    f =(  0.0000000 )
                  (     0         -1          0      )       ( -0.0000010 )
                  (     0          0         -1      )       (  0.5000000 )

 cart.    s(10) = (  0.5000000  0.8660254  0.0000000 )    f =(  0.0000005 )
                  (  0.8660254 -0.5000000  0.0000000 )       ( -0.0000009 )
                  (  0.0000000  0.0000000 -1.0000000 )       (  0.4030498 )

[...]

 cryst.   s(11) = (    -1         -1          0      )
                  (     0          1          0      )
                  (     0          0         -1      )

 cart.    s(11) = ( -0.5000000 -0.8660254  0.0000000 )
                  ( -0.8660254  0.5000000  0.0000000 )
                  (  0.0000000  0.0000000 -1.0000000 )

      isym = 12     180 deg rotation - cryst. axis [1,1,0]

[...]

      isym = 13     inversion

[...]

      isym = 14     inv. 180 deg rotation - cart. axis [0,0,1]

[...]

      isym = 16     inv. 180 deg rotation - cart. axis [1,0,0]

[...]

      isym = 17     inv.  60 deg rotation - cryst. axis [0,0,1]

[...]

 cryst.   s(22) = (    -1         -1          0      )    f =(  0.0000000 )
                  (     0          1          0      )       ( -0.0000010 )
                  (     0          0          1      )       (  0.5000000 )

 cart.    s(22) = ( -0.5000000 -0.8660254  0.0000000 )    f =(  0.0000005 )
                  ( -0.8660254  0.5000000  0.0000000 )       ( -0.0000009 )
                  (  0.0000000  0.0000000  1.0000000 )       (  0.4030498 )

[...]

      isym = 24     inv. 180 deg rotation - cryst. axis [1,1,0]

 cryst.   s(24) = (     0         -1          0      )
                  (    -1          0          0      )
                  (     0          0          1      )

 cart.    s(24) = (  0.5000000 -0.8660254  0.0000000 )
                  ( -0.8660254 -0.5000000  0.0000000 )
                  (  0.0000000  0.0000000  1.0000000 )

   Cartesian axes

     site n.     atom                  positions (alat units)
         1           Yb  tau(   1) = (  -0.0000005   0.5773506   0.6045747  )
         2           Yb  tau(   2) = (   0.5000005   0.2886748   0.2015249  )
         3           Nd  tau(   3) = (   0.0000000   0.2847232   0.2015249  )
         4           Nd  tau(   4) = (   0.2534225   0.7236638   0.2015249  )
         5           Nd  tau(   5) = (  -0.2534225   0.7236638   0.2015249  )
         6           Nd  tau(   6) = (   0.5000000   0.5813022   0.6045747  )
         7           Nd  tau(   7) = (   0.2465775   0.1423616   0.6045747  )
         8           Nd  tau(   8) = (   0.7534225   0.1423616   0.6045747  )

   Crystallographic axes

     site n.     atom                  positions (cryst. coord.)
         1           Yb  tau(   1) = (  0.3333330  0.6666670  0.7500000  )
         2           Yb  tau(   2) = (  0.6666670  0.3333330  0.2500000  )
         3           Nd  tau(   3) = (  0.1643850  0.3287700  0.2500000  )
         4           Nd  tau(   4) = (  0.6712300  0.8356150  0.2500000  )
         5           Nd  tau(   5) = (  0.1643850  0.8356150  0.2500000  )
         6           Nd  tau(   6) = (  0.8356150  0.6712300  0.7500000  )
         7           Nd  tau(   7) = (  0.3287700  0.1643850  0.7500000  )
         8           Nd  tau(   8) = (  0.8356150  0.1643850  0.7500000  )

     number of k points=     6  Gaussian smearing, width (Ry)=  0.0010
                       cart. coord. in units 2pi/alat
        k(    1) = (   0.0000000   0.0000000   0.0000000), wk =   0.0740741
        k(    2) = (   0.0000000   0.0000000   0.4135138), wk =   0.1481481
        k(    3) = (   0.0000000   0.3849002   0.0000000), wk =   0.4444444
        k(    4) = (   0.0000000   0.3849002   0.4135138), wk =   0.8888889
        k(    5) = (   0.3333333   0.5773503   0.0000000), wk =   0.1481481
        k(    6) = (   0.3333333   0.5773503   0.4135138), wk =   0.2962963

                       cryst. coord.
        k(    1) = (   0.0000000   0.0000000   0.0000000), wk =   0.0740741
        k(    2) = (   0.0000000   0.0000000   0.3333333), wk =   0.1481481
        k(    3) = (   0.0000000   0.3333333   0.0000000), wk =   0.4444444
        k(    4) = (   0.0000000   0.3333333   0.3333333), wk =   0.8888889
        k(    5) = (   0.3333333   0.3333333   0.0000000), wk =   0.1481481
        k(    6) = (   0.3333333   0.3333333   0.3333333), wk =   0.2962963

     Initial potential from superposition of free atoms

     starting charge     131.9549, renormalised to     132.0000
     Starting wfcs are  256 randomized atomic wfcs
     Checking if some PAW data can be deallocated...

     Self-consistent Calculation

     iteration #  1     ecut=    30.00 Ry     beta= 0.70
     Davidson diagonalization with overlap

     ethr =  1.00E-02,  avg # of iterations =  1.0

     total energy              =   -5241.42463912 Ry
     estimated scf accuracy    <       3.92862643 Ry

[...]

     c_bands:  4 eigenvalues not converged
     ethr =  2.98E-03,  avg # of iterations = 18.0

[...]

     c_bands:  3 eigenvalues not converged
     c_bands:  1 eigenvalues not converged
     ethr =  7.78E-10,  avg # of iterations = 18.0

[...]

     total energy              =   -5245.64467939 Ry
     estimated scf accuracy    <       0.00000118 Ry

     iteration #131     ecut=    30.00 Ry     beta= 0.70
     Davidson diagonalization with overlap

     ethr =  7.78E-10,  avg # of iterations =  1.8

     End of self-consistent calculation

          k = 0.0000 0.0000 0.0000 (  5299 PWs)   bands (ev):

   -40.6544 -40.6543 -26.0299 -25.9503 -25.9502 -25.9415 -25.9070 -25.9069
   -12.9167 -12.9115 -12.8900 -12.8900 -12.8847 -12.8847  -7.7229  -7.6379
    -7.5398  -7.4097  -7.4097  -7.3699  -7.3698  -7.3653  -7.3652  -7.1558
    -7.0131  -7.0130  -6.9287  -6.9286  -6.9126  -6.9125  -6.9051  -6.8970
     7.1471   9.1644   9.8806  10.0029  10.1179  10.1783  10.1784  10.2243
    10.2244  10.6028  10.6031  10.7512  10.7548  10.7761  10.7763  10.7763
    10.7867  10.7867  10.7992  10.7992  10.8091  10.8093  10.8106  10.8371
    10.8372  11.0271  11.0391  11.0531  11.0531  11.0855  11.0958  11.1512
    11.1512  11.1799  11.1800  11.1824  11.2293  11.2576  11.2581  11.2587
    11.2587  11.2814  11.2815  11.2839  11.2842  11.2871  11.2952

     occupation numbers
     1.0000   1.0000   1.0000   1.0000   1.0000   1.0000   1.0000   1.0000
     1.0000   1.0000   1.0000   1.0000   1.0000   1.0000   1.0000   1.0000
     1.0000   1.0000   1.0000   1.0000   1.0000   1.0000   1.0000   1.0000
     1.0000   1.0000   1.0000   1.0000   1.0000   1.0000   1.0000   1.0000
     1.0000   1.0000   1.0000   1.0000   1.0000   1.0000   1.0000   1.0000
     1.0000   1.0000   1.0000   1.0000   1.0000   1.0000   1.0000   1.0000
     1.0000   1.0000   1.0000   1.0000   1.0000   1.0000   1.0000   1.0000
     1.0000   1.0000   1.0000   1.0000   1.0000   1.0000   1.0000   0.5728
     0.5711   0.0025   0.0025   0.0011   0.0000   0.0000   0.0000   0.0000
     0.0000   0.0000   0.0000   0.0000   0.0000   0.0000   0.0000

[...]

          k = 0.3333 0.5774 0.4135 (  5328 PWs)   bands (ev):

   -40.6543 -40.6543 -25.9841 -25.9572 -25.9571 -25.9399 -25.9244 -25.9243
   -12.9132 -12.9131 -12.8860 -12.8853 -12.8853 -12.8845  -7.5228  -7.5195
    -7.5195  -7.4819  -7.4376  -7.4376  -7.2511  -7.2158  -7.2157  -7.2018
    -7.1059  -7.1059  -7.0566  -7.0028  -7.0002  -7.0002  -6.9423  -6.9422
     9.0931   9.0932   9.6162  10.1689  10.1691  10.4582  10.6247  10.6874
    10.6875  10.7175  10.7175  10.7287  10.7334  10.7334  10.7403  10.7569
    10.7689  10.7689  10.8017  10.8017  10.8200  10.8567  10.9045  10.9045
    10.9117  10.9655  10.9655  11.0349  11.0349  11.0429  11.0430  11.0610
    11.0942  11.1461  11.1462  11.1749  11.2003  11.2003  11.2254  11.2273
    11.2730  11.2730  11.2780  11.2781  11.2874  11.2895  11.3049

     occupation numbers
     1.0000   1.0000   1.0000   1.0000   1.0000   1.0000   1.0000   1.0000
     1.0000   1.0000   1.0000   1.0000   1.0000   1.0000   1.0000   1.0000
     1.0000   1.0000   1.0000   1.0000   1.0000   1.0000   1.0000   1.0000
     1.0000   1.0000   1.0000   1.0000   1.0000   1.0000   1.0000   1.0000
     1.0000   1.0000   1.0000   1.0000   1.0000   1.0000   1.0000   1.0000
     1.0000   1.0000   1.0000   1.0000   1.0000   1.0000   1.0000   1.0000
     1.0000   1.0000   1.0000   1.0000   1.0000   1.0000   1.0000   1.0000
     1.0000   1.0000   1.0000   1.0000   1.0000   1.0000   1.0000   1.0000
     1.0000   0.7613   0.7606   0.0113   0.0000   0.0000   0.0000   0.0000
     0.0000   0.0000   0.0000   0.0000   0.0000   0.0000   0.0000

     the Fermi energy is    11.1530 ev

!    total energy              =   -5245.64467866 Ry
     total all-electron energy =     -5245.644679 Ry
     estimated scf accuracy    <       0.00000062 Ry
     smearing contrib. (-TS)   =      -0.00084084 Ry
     internal energy E=F+TS    =   -5245.64383781 Ry

     The total energy is F=E-TS. E is the sum of the following terms:
     one-electron contribution =   -1017.17569419 Ry
     hartree contribution      =     530.25950403 Ry
     xc contribution           =    -159.16981867 Ry
     ewald contribution        =   -1047.31004375 Ry
     one-center paw contrib.   =   -3552.24778524 Ry
      -> PAW hartree energy AE =     448.30457141 Ry
      -> PAW hartree energy PS =    -387.20448761 Ry
      -> PAW xc energy AE      =    -584.73158013 Ry
      -> PAW xc energy PS      =      37.29496502 Ry
      -> total E_H with PAW    =     591.35958782 Ry
      -> total E_XC with PAW   =    -706.60643378 Ry

     convergence has been achieved in 131 iterations

     Writing all to output data dir energy_m/myprefix.save/

     General routines

     Parallel routines

     PAW routines

   This run was terminated on:  17:17:50  16Jul2023

   JOB DONE.