     Program PWSCF v.7.0 starts on 21May2023 at  0:55:46

     Reading input from espresso_12654.pwi
Warning: card &CELL ignored
Warning: card / ignored

     Current dimensions of program PWSCF are:
     Max number of different atomic species (ntypx) = 10
     Max number of k-points (npk) =  40000
     Max angular momentum in pseudopotentials (lmaxx) =  4

     gamma-point specific algorithms are used
     Message from routine setup:
     using ibrav=0 with symmetry is DISCOURAGED, use correct ibrav instead

     Subspace diagonalization in iterative solution of the eigenvalue problem:
     a serial algorithm will be used

     Using Slab Decomposition

     bravais-lattice index     =            0
     lattice parameter (alat)  =       6.4570  a.u.
     unit-cell volume          =     739.7357 (a.u.)^3
     number of atoms/cell      =            8
     number of atomic types    =            3
     number of electrons       =        88.00
     number of Kohn-Sham states=           53
     kinetic-energy cutoff     =      30.0000  Ry
     charge density cutoff     =     240.0000  Ry
     scf convergence threshold =      1.0E-06
     mixing beta               =       0.7000
     number of iterations used =            8  plain     mixing
     Exchange-correlation= PBE
                           (   1   4   3   4   0   0   0)

     celldm(1)=   6.456950  celldm(2)=   0.000000  celldm(3)=   0.000000
     celldm(4)=   0.000000  celldm(5)=   0.000000  celldm(6)=   0.000000

     crystal axes: (cart. coord. in units of alat)
               a(1) = (   1.000000   0.000000   0.000000 )
               a(2) = (   0.000000   1.588822   0.000000 )
               a(3) = (   0.000000   0.000000   1.729494 )

     reciprocal axes: (cart. coord. in units 2 pi/alat)
               b(1) = (  1.000000  0.000000  0.000000 )
               b(2) = (  0.000000  0.629397  0.000000 )
               b(3) = (  0.000000  0.000000  0.578204 )

     PseudoPot. # 1 for Si read from file:
     /home/pragov/projects/rrg-bengioy-ad/pragov/crystal_structure_design/SSSP/Si.pbe-n-rrkjus_psl.1.0.0.UPF
     MD5 check sum: 0b0bb1205258b0d07b9f9672cf965d36
     Pseudo is Ultrasoft + core correction, Zval =  4.0
     Generated using "atomic" code by A. Dal Corso  v.5.1
     Using radial grid of 1141 points,  6 beta functions with:
                l(1) =   0
                l(2) =   0
                l(3) =   1
                l(4) =   1
                l(5) =   2
                l(6) =   2
     Q(r) pseudized with 0 coefficients

     PseudoPot. # 2 for Ni read from file:
     /home/pragov/projects/rrg-bengioy-ad/pragov/crystal_structure_design/SSSP/ni_pbe_v1.4.uspp.F.UPF
     MD5 check sum: 1ee80287db30b12d2bc1f57a5b5d6409
     Pseudo is Ultrasoft + core correction, Zval = 18.0
     Generated by new atomic code, or converted to UPF format
     Using radial grid of  865 points,  6 beta functions with:
                l(1) =   0
                l(2) =   0
                l(3) =   1
                l(4) =   1
                l(5) =   2
                l(6) =   2
     Q(r) pseudized with 10 coefficients,  rinner =    0.980   0.980   0.980
                                                       0.980   0.980

     PseudoPot. # 3 for Pd read from file:
     /home/pragov/projects/rrg-bengioy-ad/pragov/crystal_structure_design/SSSP/Pd_ONCV_PBE-1.0.oncvpsp.upf
     MD5 check sum: eb77f42b51d86fb18e25f68156a31cf1
     Pseudo is Norm-conserving, Zval = 18.0
     Generated using ONCVPSP code by D. R. Hamann
     Using radial grid of 1410 points,  6 beta functions with:
                l(1) =   0
                l(2) =   0
                l(3) =   1
                l(4) =   1
                l(5) =   2
                l(6) =   2

     atomic species   valence    mass     pseudopotential
        Si             4.00    28.08500     Si( 1.00)
        Ni            18.00    58.69340     Ni( 1.00)
        Pd            18.00   106.42000     Pd( 1.00)

      4 Sym. Ops. (no inversion) found ( 2 have fractional translation)

                                    s                        frac. trans.

      isym =  1     identity

 cryst.   s( 1) = (     1          0          0      )
                  (     0          1          0      )
                  (     0          0          1      )

 cart.    s( 1) = (  1.0000000  0.0000000  0.0000000 )
                  (  0.0000000  1.0000000  0.0000000 )
                  (  0.0000000  0.0000000  1.0000000 )

      isym =  2     180 deg rotation - cart. axis [0,1,0]

 cryst.   s( 2) = (    -1          0          0      )    f =( -0.0000000 )
                  (     0          1          0      )       (  0.5000000 )
                  (     0          0         -1      )       (  0.0000000 )

 cart.    s( 2) = ( -1.0000000  0.0000000  0.0000000 )    f =( -0.0000000 )
                  (  0.0000000  1.0000000  0.0000000 )       (  0.7944110 )
                  (  0.0000000  0.0000000 -1.0000000 )       (  0.0000000 )

      isym =  3     inv. 180 deg rotation - cart. axis [0,0,1]

 cryst.   s( 3) = (     1          0          0      )    f =(  0.0000000 )
                  (     0          1          0      )       (  0.5000000 )
                  (     0          0         -1      )       (  0.0000000 )

 cart.    s( 3) = (  1.0000000  0.0000000  0.0000000 )    f =(  0.0000000 )
                  (  0.0000000  1.0000000  0.0000000 )       (  0.7944110 )
                  (  0.0000000  0.0000000 -1.0000000 )       (  0.0000000 )

      isym =  4     inv. 180 deg rotation - cart. axis [1,0,0]

 cryst.   s( 4) = (    -1          0          0      )
                  (     0          1          0      )
                  (     0          0          1      )

 cart.    s( 4) = ( -1.0000000  0.0000000  0.0000000 )
                  (  0.0000000  1.0000000  0.0000000 )
                  (  0.0000000  0.0000000  1.0000000 )

   Cartesian axes

     site n.     atom                  positions (alat units)
         1           Si  tau(   1) = (   0.5000000   0.5146385   1.1983022  )
         2           Si  tau(   2) = (   0.5000000   1.3090496   0.5311915  )
         3           Si  tau(   3) = (   0.0000000   1.0784829   1.4676294  )
         4           Si  tau(   4) = (   0.0000000   0.2840719   0.2618644  )
         5           Ni  tau(   5) = (   0.5000000   0.7831812   0.0937299  )
         6           Ni  tau(   6) = (   0.5000000   1.5775923   1.6357638  )
         7           Pd  tau(   7) = (   0.0000000   0.8013415   0.7468922  )
         8           Pd  tau(   8) = (   0.0000000   0.0069304   0.9826015  )

   Crystallographic axes

     site n.     atom                  positions (cryst. coord.)
         1           Si  tau(   1) = (  0.5000000  0.3239120  0.6928630  )
         2           Si  tau(   2) = (  0.5000000  0.8239120  0.3071370  )
         3           Si  tau(   3) = (  0.0000000  0.6787940  0.8485890  )
         4           Si  tau(   4) = (  0.0000000  0.1787940  0.1514110  )
         5           Ni  tau(   5) = (  0.5000000  0.4929320  0.0541950  )
         6           Ni  tau(   6) = (  0.5000000  0.9929320  0.9458050  )
         7           Pd  tau(   7) = (  0.0000000  0.5043620  0.4318560  )
         8           Pd  tau(   8) = (  0.0000000  0.0043620  0.5681440  )

     number of k points=     1  Methfessel-Paxton smearing, width (Ry)=  0.0010
                       cart. coord. in units 2pi/alat
        k(    1) = (   0.0000000   0.0000000   0.0000000), wk =   2.0000000

                       cryst. coord.
        k(    1) = (   0.0000000   0.0000000   0.0000000), wk =   2.0000000

     Check: negative core charge=   -0.000003

     Initial potential from superposition of free atoms

     starting charge      83.9971, renormalised to      88.0000
     Starting wfcs are   62 randomized atomic wfcs

     Self-consistent Calculation

     iteration #  1     ecut=    30.00 Ry     beta= 0.70
     Davidson diagonalization with overlap

     ethr =  1.00E-02,  avg # of iterations =  3.0

     total energy              =   -1201.84461460 Ry
     estimated scf accuracy    <      51.15927787 Ry

[...]

     total energy              =   -1238.37127459 Ry
     estimated scf accuracy    <       0.00000157 Ry

     iteration # 15     ecut=    30.00 Ry     beta= 0.70
     Davidson diagonalization with overlap

     ethr =  1.78E-09,  avg # of iterations =  2.0

     End of self-consistent calculation

          k = 0.0000 0.0000 0.0000 (  1041 PWs)   bands (ev):

   -88.8587 -88.8549 -71.5046 -71.4924 -49.2869 -49.2825 -49.2817 -49.2782
   -49.0378 -49.0364 -37.0895 -36.9559 -36.9116 -36.8957 -36.8503 -36.8433
     2.4026   5.0854   6.5415   7.0963   8.3612   8.7116   9.6940   9.8666
     9.8748  10.5615  10.6653  10.6697  10.9373  11.1783  11.5140  11.7342
    11.8533  11.8794  11.8948  12.4242  12.6646  12.6936  12.8989  13.1174
    13.1974  13.8627  14.0901  14.1546  15.6378  16.1230  18.0039  18.8815
    18.9373  19.1747  19.3723  20.7011  20.7921

     occupation numbers
     1.0000   1.0000   1.0000   1.0000   1.0000   1.0000   1.0000   1.0000
     1.0000   1.0000   1.0000   1.0000   1.0000   1.0000   1.0000   1.0000
     1.0000   1.0000   1.0000   1.0000   1.0000   1.0000   1.0000   1.0000
     1.0000   1.0000   1.0000   1.0000   1.0000   1.0000   1.0000   1.0000
     1.0000   1.0000   1.0000   1.0000   1.0000   1.0000   1.0000   1.0000
     1.0000   1.0000   1.0000   1.0000  -0.0000  -0.0000  -0.0000  -0.0000
    -0.0000  -0.0000  -0.0000  -0.0000  -0.0000

     the Fermi energy is    14.9168 ev

!    total energy              =   -1238.37127478 Ry
     estimated scf accuracy    <       0.00000019 Ry
     smearing contrib. (-TS)   =       0.00000000 Ry
     internal energy E=F+TS    =   -1238.37127478 Ry

     The total energy is F=E-TS. E is the sum of the following terms:
     one-electron contribution =    -787.74942129 Ry
     hartree contribution      =     438.17543472 Ry
     xc contribution           =    -145.58942290 Ry
     ewald contribution        =    -743.20786531 Ry

     convergence has been achieved in  15 iterations

     Forces acting on atoms (cartesian axes, Ry/au):

     atom    1 type  1   force =     0.00000000   -0.03443409   -0.00645557
     atom    2 type  1   force =     0.00000000   -0.03443409    0.00645557
     atom    3 type  1   force =     0.00000000    0.03195083    0.00526140
     atom    4 type  1   force =     0.00000000    0.03195083   -0.00526140
     atom    5 type  2   force =     0.00000000    0.00661867   -0.03440822
     atom    6 type  2   force =     0.00000000    0.00661867    0.03440822
     atom    7 type  3   force =     0.00000000   -0.00413541    0.04242390
     atom    8 type  3   force =     0.00000000   -0.00413541   -0.04242390
     The non-local contrib.  to forces
     atom    1 type  1   force =    -0.00000000    0.04575891    0.04087087
     atom    2 type  1   force =     0.00000000    0.04575891   -0.04087087
     atom    3 type  1   force =     0.00000000   -0.02892050   -0.09561740
     atom    4 type  1   force =     0.00000000   -0.02892050    0.09561740
     atom    5 type  2   force =     0.00000000   -0.02702678   -0.24179190
     atom    6 type  2   force =     0.00000000   -0.02702678    0.24179190
     atom    7 type  3   force =     0.00000000    0.03607858    0.17015669
     atom    8 type  3   force =     0.00000000    0.03607858   -0.17015669
     The ionic contribution  to forces
     atom    1 type  1   force =    -0.00000000    2.36474306   -1.52103730
     atom    2 type  1   force =     0.00000000    2.36474306    1.52103730
     atom    3 type  1   force =     0.00000000   -1.85403017   -1.68281223
     atom    4 type  1   force =     0.00000000   -1.85403017    1.68281223
     atom    5 type  2   force =    -0.00000000   -0.91094506   -4.66226440
     atom    6 type  2   force =    -0.00000000   -0.91094506    4.66226440
     atom    7 type  3   force =     0.00000000    0.40023217    7.82462430
     atom    8 type  3   force =     0.00000000    0.40023217   -7.82462430
     The local contribution  to forces
     atom    1 type  1   force =     0.00000708   -2.44021532    1.47702656
     atom    2 type  1   force =     0.00001368   -2.43995848   -1.47704103
     atom    3 type  1   force =    -0.00001026    1.91238639    1.77227958
     atom    4 type  1   force =    -0.00000640    1.91219660   -1.77210729
     atom    5 type  2   force =     0.00003757    0.94405158    4.86945082
     atom    6 type  2   force =     0.00004443    0.94480561   -4.86799300
     atom    7 type  3   force =    -0.00004267   -0.44087957   -7.95381532
     atom    8 type  3   force =    -0.00004292   -0.44104972    7.95191764
     The core correction contribution to forces
     atom    1 type  1   force =     0.00000015   -0.00480509   -0.00342564
     atom    2 type  1   force =     0.00000090   -0.00480640    0.00342859
     atom    3 type  1   force =    -0.00000049    0.00274665    0.01141502
     atom    4 type  1   force =    -0.00000033    0.00274491   -0.01141204
     atom    5 type  2   force =    -0.00000017   -0.00006973    0.00139343
     atom    6 type  2   force =    -0.00000003   -0.00006981   -0.00139410
     atom    7 type  3   force =     0.00000000    0.00000000    0.00000000
     atom    8 type  3   force =     0.00000000    0.00000000    0.00000000
     The Hubbard contrib.    to forces
     atom    1 type  1   force =     0.00000000    0.00000000    0.00000000
     atom    2 type  1   force =     0.00000000    0.00000000    0.00000000
     atom    3 type  1   force =     0.00000000    0.00000000    0.00000000
     atom    4 type  1   force =     0.00000000    0.00000000    0.00000000
     atom    5 type  2   force =     0.00000000    0.00000000    0.00000000
     atom    6 type  2   force =     0.00000000    0.00000000    0.00000000
     atom    7 type  3   force =     0.00000000    0.00000000    0.00000000
     atom    8 type  3   force =     0.00000000    0.00000000    0.00000000
     The SCF correction term to forces
     atom    1 type  1   force =    -0.00000486    0.00015510    0.00011562
     atom    2 type  1   force =    -0.00000667   -0.00012794   -0.00009273
     atom    3 type  1   force =     0.00000578   -0.00016502    0.00001427
     atom    4 type  1   force =     0.00000338    0.00000746   -0.00015385
     atom    5 type  2   force =    -0.00005343    0.00079415   -0.00127626
     atom    6 type  2   force =    -0.00005312   -0.00021677   -0.00034108
     atom    7 type  3   force =     0.00004785    0.00054903    0.00149969
     atom    8 type  3   force =     0.00004984    0.00060194    0.00048090

     Total force =     0.103156     Total SCF correction =     0.002386

     Computing stress (Cartesian axis) and pressure

          total   stress  (Ry/bohr**3)                   (kbar)     P=     -902.22
  -0.00680997   0.00000000   0.00000000        -1001.78        0.00        0.00
   0.00000000  -0.00624820   0.00000000            0.00     -919.14        0.00
   0.00000000   0.00000000  -0.00534135            0.00        0.00     -785.74

     kinetic stress (kbar)  36488.22      0.00      0.00
                                0.00  36493.33      0.00
                                0.00      0.00  36995.87

     local   stress (kbar) -15384.96     -0.00      0.01
                               -0.00 -24803.75     -0.09
                                0.01     -0.09 -16851.46

     nonloc. stress (kbar)  10040.20      0.00      0.00
                                0.00  10017.53      0.00
                                0.00      0.00   9953.19

     hartree stress (kbar)  28041.61      0.00     -0.00
                                0.00  31404.24      0.09
                               -0.00      0.09  27690.45

     exc-cor stress (kbar)  -4745.27     -0.00     -0.00
                               -0.00  -4743.47      0.00
                               -0.00      0.00  -4739.20

     corecor stress (kbar)  -3593.21     -0.00      0.00
                               -0.00  -3587.04     -0.00
                                0.00     -0.00  -3587.39

     ewald   stress (kbar) -51848.37     -0.00      0.00
                               -0.00 -45699.97      0.00
                                0.00      0.00 -50247.20

     hubbard stress (kbar)      0.00      0.00      0.00
                                0.00      0.00      0.00
                                0.00      0.00      0.00

     DFT-D   stress (kbar)      0.00      0.00      0.00
                                0.00      0.00      0.00
                                0.00      0.00      0.00

     XDM     stress (kbar)      0.00      0.00      0.00
                                0.00      0.00      0.00
                                0.00      0.00      0.00

     dft-nl  stress (kbar)      0.00      0.00      0.00
                                0.00      0.00      0.00
                                0.00      0.00      0.00

     TS-vdW  stress (kbar)      0.00      0.00      0.00
                                0.00      0.00      0.00
                                0.00      0.00      0.00

[...]

                                0.00      0.00      0.00

     Writing all to output data dir new_calculations/myprefix.save/

     General routines

     Parallel routines

   This run was terminated on:   0:56:24  21May2023

   JOB DONE.