     Program PWSCF v.7.0 starts on 20May2023 at 18:58: 4

     Reading input from espresso_730.pwi
Warning: card &CELL ignored
Warning: card / ignored

     Current dimensions of program PWSCF are:
     Max number of different atomic species (ntypx) = 10
     Max number of k-points (npk) =  40000
     Max angular momentum in pseudopotentials (lmaxx) =  4
     file O.pbe-n-kjpaw_psl.0.1.UPF: wavefunction(s)  2P renormalized

     gamma-point specific algorithms are used

     Subspace diagonalization in iterative solution of the eigenvalue problem:
     a serial algorithm will be used

     Using Slab Decomposition

     bravais-lattice index     =            0
     lattice parameter (alat)  =       5.6075  a.u.
     unit-cell volume          =     799.8168 (a.u.)^3
     number of atoms/cell      =           12
     number of atomic types    =            4
     number of electrons       =        87.00
     number of Kohn-Sham states=           53
     kinetic-energy cutoff     =      30.0000  Ry
     charge density cutoff     =     240.0000  Ry
     scf convergence threshold =      1.0E-06
     mixing beta               =       0.7000
     number of iterations used =            8  plain     mixing
     Exchange-correlation= SLA  PW   PBX  PBC
                           (   1   4   3   4   0   0   0)

     celldm(1)=   5.607515  celldm(2)=   0.000000  celldm(3)=   0.000000
     celldm(4)=   0.000000  celldm(5)=   0.000000  celldm(6)=   0.000000

     crystal axes: (cart. coord. in units of alat)
               a(1) = (   1.000000   0.000000   0.000000 )
               a(2) = (  -0.000075   2.004633   0.000000 )
               a(3) = (   0.499984  -0.483479   2.262790 )

     reciprocal axes: (cart. coord. in units 2 pi/alat)
               b(1) = (  1.000000  0.000038 -0.220951 )
               b(2) = (  0.000000  0.498844  0.106586 )
               b(3) = (  0.000000  0.000000  0.441932 )

     PseudoPot. # 1 for Li read from file:
     /home/pragov/projects/rrg-bengioy-ad/pragov/crystal_structure_design/SSSP/li_pbe_v1.4.uspp.F.UPF
     MD5 check sum: e912e257baa3777c20ea3d68f190483c
     Pseudo is Ultrasoft, Zval =  3.0
     Generated by new atomic code, or converted to UPF format
     Using radial grid of  751 points,  5 beta functions with:
                l(1) =   0
                l(2) =   0
                l(3) =   0
                l(4) =   1
                l(5) =   1
     Q(r) pseudized with 10 coefficients,  rinner =    1.150   1.150   1.150

     PseudoPot. # 2 for Ti read from file:
     /home/pragov/projects/rrg-bengioy-ad/pragov/crystal_structure_design/SSSP/ti_pbe_v1.4.uspp.F.UPF
     MD5 check sum: 88a00a6731bd790ddea75d31a80cb452
     Pseudo is Ultrasoft + core correction, Zval = 12.0
     Generated by new atomic code, or converted to UPF format
     Using radial grid of  851 points,  6 beta functions with:
                l(1) =   0
                l(2) =   0
                l(3) =   1
                l(4) =   1
                l(5) =   2
                l(6) =   2
     Q(r) pseudized with  6 coefficients,  rinner =    1.000   1.000   1.000
                                                       1.000   1.000

     PseudoPot. # 3 for Mn read from file:
     /home/pragov/projects/rrg-bengioy-ad/pragov/crystal_structure_design/SSSP/mn_pbe_v1.5.uspp.F.UPF
     MD5 check sum: 82ef2b46521d7a7d9e736dc3972e4928
     Pseudo is Ultrasoft + core correction, Zval = 15.0
     Generated by new atomic code, or converted to UPF format
     Using radial grid of  859 points,  6 beta functions with:
                l(1) =   0
                l(2) =   0
                l(3) =   1
                l(4) =   1
                l(5) =   2
                l(6) =   2
     Q(r) pseudized with  8 coefficients,  rinner =    0.950   0.950   0.950
                                                       0.950   0.950

     PseudoPot. # 4 for O  read from file:
     /home/pragov/projects/rrg-bengioy-ad/pragov/crystal_structure_design/SSSP/O.pbe-n-kjpaw_psl.0.1.UPF
     MD5 check sum: 0234752ac141de4415c5fc33072bef88
     Pseudo is Projector augmented-wave + core cor, Zval =  6.0
     Generated using "atomic" code by A. Dal Corso  v.5.0.99 svn rev. 10869
     Shape of augmentation charge: BESSEL
     Using radial grid of 1095 points,  4 beta functions with:
                l(1) =   0
                l(2) =   0
                l(3) =   1
                l(4) =   1
     Q(r) pseudized with 0 coefficients

     atomic species   valence    mass     pseudopotential
        Li             3.00     6.94000     Li( 1.00)
        Ti            12.00    47.86700     Ti( 1.00)
        Mn            15.00    54.93804     Mn( 1.00)
        O              6.00    15.99900     O ( 1.00)

     No symmetry found

                                    s                        frac. trans.

      isym =  1     identity

 cryst.   s( 1) = (     1          0          0      )
                  (     0          1          0      )
                  (     0          0          1      )

 cart.    s( 1) = (  1.0000000  0.0000000  0.0000000 )
                  (  0.0000000  1.0000000  0.0000000 )
                  (  0.0000000  0.0000000  1.0000000 )

   Cartesian axes

     site n.     atom                  positions (alat units)
         1           Li  tau(   1) = (   0.4999315   1.5093685   0.7546970  )
         2           Li  tau(   2) = (   0.9999836   1.0115221   0.0292896  )
         3           Li  tau(   3) = (   0.9999572   0.0023179   1.4792015  )
         4           Ti  tau(   4) = (   0.4999726   0.5068248   0.7554324  )
         5           Mn  tau(   5) = (   0.9999281   1.0284759   1.5187732  )
         6           Mn  tau(   6) = (   0.4999236   1.5074874   2.2522000  )
         7           O   tau(   7) = (   0.4999360   0.4737941   0.0775006  )
         8           O   tau(   8) = (   0.4999918   0.5387815   1.4299089  )
         9           O   tau(   9) = (   0.4998382   1.4982179   1.5001482  )
        10           O   tau(  10) = (   0.5000337   1.5220218   0.0088837  )
        11           O   tau(  11) = (   0.9999425   0.9564301   0.7353818  )
        12           O   tau(  12) = (   0.9999923   0.0574676   0.7725391  )

   Crystallographic axes

     site n.     atom                  positions (cryst. coord.)
         1           Li  tau(   1) = (  0.3332370  0.8333800  0.3335250  )
         2           Li  tau(   2) = (  0.9935500  0.5077140  0.0129440  )
         3           Li  tau(   3) = (  0.6731260  0.1588180  0.6537070  )
         4           Ti  tau(   4) = (  0.3330780  0.3333450  0.3338500  )
         5           Mn  tau(   5) = (  0.6643920  0.6749290  0.6711950  )
         6           Mn  tau(   6) = (  0.0023540  0.9920540  0.9953200  )
         7           O   tau(   7) = (  0.4828300  0.2446100  0.0342500  )
         8           O   tau(   8) = (  0.1840720  0.4211760  0.6319230  )
         9           O   tau(   9) = (  0.1684350  0.9072720  0.6629640  )
        10           O   tau(  10) = (  0.4981280  0.7601990  0.0039260  )
        11           O   tau(  11) = (  0.8374950  0.5554910  0.3249890  )
        12           O   tau(  12) = (  0.8293010  0.1110090  0.3414100  )

     number of k points=     1  Methfessel-Paxton smearing, width (Ry)=  0.0010
                       cart. coord. in units 2pi/alat
        k(    1) = (   0.0000000   0.0000000   0.0000000), wk =   2.0000000

                       cryst. coord.
        k(    1) = (   0.0000000   0.0000000   0.0000000), wk =   2.0000000

     Check: negative core charge=   -0.000025

     Initial potential from superposition of free atoms

     starting charge      83.6475, renormalised to      87.0000

     negative rho (up, down):  1.597E-03 0.000E+00
     Starting wfcs are   75 randomized atomic wfcs
     Checking if some PAW data can be deallocated...

     Self-consistent Calculation

     iteration #  1     ecut=    30.00 Ry     beta= 0.70
     Davidson diagonalization with overlap

     ethr =  1.00E-02,  avg # of iterations =  3.0

     total energy              =    -789.98461229 Ry
     estimated scf accuracy    <      56.59067923 Ry

[...]

     negative rho (up, down):  1.016E-04 0.000E+00

[...]

     total energy              =    -835.03779923 Ry
     estimated scf accuracy    <       0.00000621 Ry

     iteration # 26     ecut=    30.00 Ry     beta= 0.70
     Davidson diagonalization with overlap

     ethr =  7.14E-09,  avg # of iterations =  2.0

[...]

     End of self-consistent calculation

          k = 0.0000 0.0000 0.0000 (  1109 PWs)   bands (ev):

   -69.7457 -69.7379 -48.6659 -38.9148 -38.8781 -38.3447 -38.3320 -38.1744
   -38.1666 -36.7382 -36.2600 -36.2549 -25.0869 -24.9226 -24.6891 -10.0842
    -9.3474  -9.1650  -9.0073  -8.9299  -8.7622   2.8456   3.0479   3.5679
     3.7362   3.8692   4.3560   4.7282   5.0411   5.2240   5.3068   5.3952
     5.9678   6.0832   6.2434   6.5857   6.8531   6.9497   6.9738   9.0735
     9.1190   9.2065   9.4923   9.6119   9.8882  10.1330  10.3173  10.3722
    10.7653  11.3365  11.8074  11.9346  12.6926

     occupation numbers
     1.0000   1.0000   1.0000   1.0000   1.0000   1.0000   1.0000   1.0000
     1.0000   1.0000   1.0000   1.0000   1.0000   1.0000   1.0000   1.0000
     1.0000   1.0000   1.0000   1.0000   1.0000   1.0000   1.0000   1.0000
     1.0000   1.0000   1.0000   1.0000   1.0000   1.0000   1.0000   1.0000
     1.0000   1.0000   1.0000   1.0000   1.0000   1.0000   1.0000   1.0000
     1.0000   1.0000   1.0000   0.5000  -0.0000  -0.0000  -0.0000  -0.0000
    -0.0000  -0.0000  -0.0000  -0.0000  -0.0000

     the Fermi energy is     9.6119 ev

!    total energy              =    -835.03779994 Ry
     estimated scf accuracy    <       0.00000056 Ry
     smearing contrib. (-TS)   =      -0.00028209 Ry
     internal energy E=F+TS    =    -835.03751784 Ry

     The total energy is F=E-TS. E is the sum of the following terms:
     one-electron contribution =    -426.72821084 Ry
     hartree contribution      =     250.31096683 Ry
     xc contribution           =    -125.97703457 Ry
     ewald contribution        =    -475.56806879 Ry
     one-center paw contrib.   =     -57.07517048 Ry
      -> PAW hartree energy AE =     177.14312490 Ry
      -> PAW hartree energy PS =    -176.48034225 Ry
      -> PAW xc energy AE      =    -102.88747265 Ry
      -> PAW xc energy PS      =      45.14951952 Ry
      -> total E_H with PAW    =     250.97374949 Ry
      -> total E_XC with PAW   =    -183.71498771 Ry

     convergence has been achieved in  26 iterations

     negative rho (up, down):  1.409E-03 0.000E+00

     Forces acting on atoms (cartesian axes, Ry/au):

     atom    1 type  1   force =     0.00000417   -0.00000823   -0.00016863
     atom    2 type  1   force =     0.00002497   -0.00279508   -0.00715894
     atom    3 type  1   force =    -0.00001504    0.00284071    0.00733848
     atom    4 type  2   force =     0.00000702   -0.00027610   -0.00035341
     atom    5 type  3   force =    -0.00004803    0.00964535    0.00698389
     atom    6 type  3   force =     0.00004521   -0.00858404   -0.00716897
     atom    7 type  4   force =     0.00005002   -0.09472807   -0.01338370
     atom    8 type  4   force =    -0.00002663    0.09409670    0.01290257
     atom    9 type  4   force =     0.00006469   -0.08457689    0.05424268
     atom   10 type  4   force =    -0.00008481    0.08392443   -0.05446473
     atom   11 type  4   force =    -0.00000060   -0.10815836    0.04016168
     atom   12 type  4   force =    -0.00002096    0.10861958   -0.03893091
     The non-local contrib.  to forces
     atom    1 type  1   force =    -0.00000276    0.00002177   -0.00005473
     atom    2 type  1   force =     0.00003499   -0.00422272   -0.03365258
     atom    3 type  1   force =    -0.00002970    0.00456661    0.03289135
     atom    4 type  2   force =    -0.00000871   -0.00023635   -0.00037290
     atom    5 type  3   force =    -0.00006317    0.05651101   -0.02072473
     atom    6 type  3   force =     0.00005557   -0.05479466    0.02072987
     atom    7 type  4   force =    -0.00004160   -0.34396260    0.21169577
     atom    8 type  4   force =     0.00000307    0.34805660   -0.21790307
     atom    9 type  4   force =     0.00004634   -0.44641570    0.44814546
     atom   10 type  4   force =    -0.00007208    0.43902099   -0.44939370
     atom   11 type  4   force =    -0.00002699   -0.01045890    0.28683191
     atom   12 type  4   force =    -0.00002548    0.01169447   -0.27957201
     The ionic contribution  to forces
     atom    1 type  1   force =    -0.00001760   -0.00717629   -0.01426314
     atom    2 type  1   force =     0.00005919   -0.48149065   -0.83241091
     atom    3 type  1   force =    -0.00006332    0.49792792    0.83557183
     atom    4 type  2   force =    -0.00017471    0.00407861   -0.09349432
     atom    5 type  3   force =    -0.00136293   -2.85266092   -1.27388708
     atom    6 type  3   force =     0.00113901    2.80272447    1.30973678
     atom    7 type  4   force =     0.00181338   10.74601396   -6.66392695
     atom    8 type  4   force =    -0.00148699  -10.63253653    6.80614501
     atom    9 type  4   force =     0.00238371   11.56038621   -6.55730716
     atom   10 type  4   force =    -0.00253043  -11.63238519    6.55319509
     atom   11 type  4   force =     0.00075365    9.91781273   -5.52418921
     atom   12 type  4   force =    -0.00051296   -9.92269432    5.45483006
     The local contribution  to forces
     atom    1 type  1   force =     0.00002168    0.00727113    0.01411929
     atom    2 type  1   force =    -0.00007456    0.48309473    0.85892262
     atom    3 type  1   force =     0.00007315   -0.49985824   -0.86118045
     atom    4 type  2   force =     0.00018477   -0.00479679    0.09340820
     atom    5 type  3   force =     0.00139706    2.80992675    1.30357353
     atom    6 type  3   force =    -0.00112870   -2.76009067   -1.33895909
     atom    7 type  4   force =    -0.00175398  -10.50073956    6.43990655
     atom    8 type  4   force =     0.00141907   10.38253296   -6.57631443
     atom    9 type  4   force =    -0.00231470  -11.20356956    6.16910895
     atom   10 type  4   force =     0.00254742   11.28225609   -6.16391866
     atom   11 type  4   force =    -0.00070613  -10.01313975    5.28101795
     atom   12 type  4   force =     0.00050362   10.01716117   -5.21778874
     The core correction contribution to forces
     atom    1 type  1   force =     0.00000000    0.00000000    0.00000000
     atom    2 type  1   force =     0.00000000    0.00000000    0.00000000
     atom    3 type  1   force =     0.00000000    0.00000000    0.00000000
     atom    4 type  2   force =     0.00000037    0.00002686   -0.00020217
     atom    5 type  3   force =     0.00000211   -0.00283724   -0.00137456
     atom    6 type  3   force =    -0.00000348    0.00262980    0.00137095
     atom    7 type  4   force =     0.00000228    0.00356816   -0.00092694
     atom    8 type  4   force =    -0.00000156   -0.00364220    0.00094318
     atom    9 type  4   force =    -0.00000806    0.00480135   -0.00552931
     atom   10 type  4   force =     0.00000895   -0.00468923    0.00554734
     atom   11 type  4   force =    -0.00001172   -0.00226008   -0.00349786
     atom   12 type  4   force =     0.00001181    0.00224711    0.00341946
     The Hubbard contrib.    to forces
     atom    1 type  1   force =     0.00000000    0.00000000    0.00000000
     atom    2 type  1   force =     0.00000000    0.00000000    0.00000000
     atom    3 type  1   force =     0.00000000    0.00000000    0.00000000
     atom    4 type  2   force =     0.00000000    0.00000000    0.00000000
     atom    5 type  3   force =     0.00000000    0.00000000    0.00000000
     atom    6 type  3   force =     0.00000000    0.00000000    0.00000000
     atom    7 type  4   force =     0.00000000    0.00000000    0.00000000
     atom    8 type  4   force =     0.00000000    0.00000000    0.00000000
     atom    9 type  4   force =     0.00000000    0.00000000    0.00000000
     atom   10 type  4   force =     0.00000000    0.00000000    0.00000000
     atom   11 type  4   force =     0.00000000    0.00000000    0.00000000
     atom   12 type  4   force =     0.00000000    0.00000000    0.00000000
     The SCF correction term to forces
     atom    1 type  1   force =     0.00000033   -0.00012351    0.00003149
     atom    2 type  1   force =     0.00000283   -0.00017510   -0.00001653
     atom    3 type  1   force =     0.00000231    0.00020575    0.00005728
     atom    4 type  2   force =     0.00000278    0.00065291    0.00030932
     atom    5 type  3   force =    -0.00002361   -0.00129292   -0.00060174
     atom    6 type  3   force =    -0.00001971    0.00094836   -0.00004595
     atom    7 type  4   force =     0.00002743    0.00039331   -0.00013059
     atom    8 type  4   force =     0.00003727   -0.00031280    0.00003341
     atom    9 type  4   force =    -0.00004511    0.00022215   -0.00017373
     atom   10 type  4   force =    -0.00004118   -0.00027689    0.00010673
     atom   11 type  4   force =    -0.00001192   -0.00011103    0.00000043
     atom   12 type  4   force =    -0.00000048    0.00021250    0.00018186

     Total force =     0.255522     Total SCF correction =     0.002021

     Computing stress (Cartesian axis) and pressure

     negative rho (up, down):  1.409E-03 0.000E+00
          total   stress  (Ry/bohr**3)                   (kbar)     P=     -548.55
  -0.00289642   0.00000119   0.00000010         -426.08        0.18        0.01
   0.00000119  -0.00426257  -0.00023402            0.18     -627.05      -34.43
   0.00000010  -0.00023402  -0.00402799            0.01      -34.43     -592.54

     kinetic stress (kbar)  27704.01     -0.00     -0.11
                               -0.00  27477.18   -204.03
                               -0.11   -204.03  26640.29

     local   stress (kbar) -37771.43     -6.66     -1.13
                               -6.66   1175.27 -24329.97
                               -1.13 -24329.97  -9503.07

     nonloc. stress (kbar)   8559.85     -0.07     -0.02
                               -0.07   8650.90      3.90
                               -0.02      3.90   8435.97

     hartree stress (kbar)  25028.57      2.37      0.44
                                2.37   7680.68  10932.94
                                0.44  10932.94  13328.82

     exc-cor stress (kbar)  -4728.05      0.01      0.00
                                0.01  -4729.28      1.39
                                0.00      1.39  -4744.19

     corecor stress (kbar)  -2461.81      0.00      0.00
                                0.00  -2466.47      0.78
                                0.00      0.78  -2454.77

     ewald   stress (kbar) -16757.21      4.54      0.83
                                4.54 -38415.33  13560.57
                                0.83  13560.57 -32295.59

     hubbard stress (kbar)      0.00      0.00      0.00
                                0.00      0.00      0.00
                                0.00      0.00      0.00

     DFT-D   stress (kbar)      0.00      0.00      0.00
                                0.00      0.00      0.00
                                0.00      0.00      0.00

     XDM     stress (kbar)      0.00      0.00      0.00
                                0.00      0.00      0.00
                                0.00      0.00      0.00

     dft-nl  stress (kbar)      0.00      0.00      0.00
                                0.00      0.00      0.00
                                0.00      0.00      0.00

     TS-vdW  stress (kbar)      0.00      0.00      0.00
                                0.00      0.00      0.00
                                0.00      0.00      0.00

[...]

                                0.00      0.00      0.00

     Writing all to output data dir new_calculations/myprefix.save/

     General routines

     Parallel routines

     PAW routines

   This run was terminated on:  18:58:45  20May2023

   JOB DONE.