     Program PWSCF v.7.1 starts on 16Jul2023 at 17: 8:18

     Reading input from espresso_15827.pwi
Warning: card &CELL ignored
Warning: card / ignored

     Current dimensions of program PWSCF are:
     Max number of different atomic species (ntypx) = 10
     Max number of k-points (npk) =  40000
     Max angular momentum in pseudopotentials (lmaxx) =  4
     file La.paw.z_11.atompaw.wentzcovitch.v1.2.upf: wavefunction(s)  6S 0P 5D 0D 4F 0F renormalized
     Message from routine setup:
     using ibrav=0 with symmetry is DISCOURAGED, use correct ibrav instead

     K-points division:     npool     =       2
     R & G space division:  proc/nbgrp/npool/nimage =       4
     Subspace diagonalization in iterative solution of the eigenvalue problem:
     a serial algorithm will be used

     Using Slab Decomposition

     bravais-lattice index     =            0
     lattice parameter (alat)  =      20.4292  a.u.
     unit-cell volume          =    1142.3318 (a.u.)^3
     number of atoms/cell      =            7
     number of atomic types    =            3
     number of electrons       =        62.00
     number of Kohn-Sham states=           37
     kinetic-energy cutoff     =      30.0000  Ry
     charge density cutoff     =     240.0000  Ry
     scf convergence threshold =      1.0E-06
     mixing beta               =       0.7000
     number of iterations used =            8  plain     mixing
     Exchange-correlation= PBE
                           (   1   4   3   4   0   0   0)

     celldm(1)=  20.429178  celldm(2)=   0.000000  celldm(3)=   0.000000
     celldm(4)=   0.000000  celldm(5)=   0.000000  celldm(6)=   0.000000

     crystal axes: (cart. coord. in units of alat)
               a(1) = (   1.000000   0.000000   0.000000 )
               a(2) = (   0.861111   0.508417   0.000000 )
               a(3) = (  -0.930555  -0.254209   0.263523 )

     reciprocal axes: (cart. coord. in units 2 pi/alat)
               b(1) = (  1.000000 -1.693708  1.897364 )
               b(2) = (  0.000000  1.966888  1.897364 )
               b(3) = (  0.000000  0.000000  3.794729 )

     PseudoPot. # 1 for La read from file:
     /lustre07/scratch/pragov/crystal_structure_design/utils/SSSP/La.paw.z_11.atompaw.wentzcovitch.v1.2.upf
     MD5 check sum: 754494e15ae71f30e5b5f678af019e01
     Pseudo is Projector augmented-wave + core cor, Zval = 11.0
     Generated using ATOMPAW code
     Shape of augmentation charge: BESSEL
     Using radial grid of 1101 points,  8 beta functions with:
                l(1) =   0
                l(2) =   0
                l(3) =   1
                l(4) =   1
                l(5) =   2
                l(6) =   2
                l(7) =   3
                l(8) =   3
     Q(r) pseudized with 0 coefficients

     PseudoPot. # 2 for Zn read from file:
     /lustre07/scratch/pragov/crystal_structure_design/utils/SSSP/Zn_pbe_v1.uspp.F.UPF
     MD5 check sum: df62231357ef9e81f77b2b3087fa5675
     Pseudo is Ultrasoft, Zval = 20.0
     Generated by new atomic code, or converted to UPF format
     Using radial grid of  943 points,  6 beta functions with:
                l(1) =   0
                l(2) =   0
                l(3) =   1
                l(4) =   1
                l(5) =   2
                l(6) =   2
     Q(r) pseudized with  8 coefficients,  rinner =    1.100   1.100   1.100
                                                       1.100   1.100

     PseudoPot. # 3 for As read from file:
     /lustre07/scratch/pragov/crystal_structure_design/utils/SSSP/As.pbe-n-rrkjus_psl.0.2.UPF
     MD5 check sum: 767315de957beeeb34f87d97bf945c8f
     Pseudo is Ultrasoft + core correction, Zval =  5.0
     Generated using "atomic" code by A. Dal Corso  v.5.0.99 svn rev. 10869
     Using radial grid of 1209 points,  4 beta functions with:
                l(1) =   0
                l(2) =   0
                l(3) =   1
                l(4) =   1
     Q(r) pseudized with 0 coefficients

     atomic species   valence    mass     pseudopotential
        La            11.00   138.90547     La( 1.00)
        Zn            20.00    65.38000     Zn( 1.00)
        As             5.00    74.92159     As( 1.00)

      2 Sym. Ops. (no inversion) found

                                    s                        frac. trans.

      isym =  1     identity

 cryst.   s( 1) = (     1          0          0      )
                  (     0          1          0      )
                  (     0          0          1      )

 cart.    s( 1) = (  1.0000000 -0.0000000  0.0000000 )
                  (  0.0000000  1.0000000 -0.0000000 )
                  (  0.0000000  0.0000000  1.0000000 )

      isym =  2     180 deg rotation - cart. axis [0,0,1]

 cryst.   s( 2) = (    -1          0          0      )
                  (     0         -1          0      )
                  (     1          1          1      )

 cart.    s( 2) = ( -1.0000000  0.0000000 -0.0000000 )
                  (  0.0000000 -1.0000000 -0.0000000 )
                  (  0.0000000  0.0000000  1.0000000 )

   Cartesian axes

     site n.     atom                  positions (alat units)
         1           La  tau(   1) = (   1.6363109   0.4470066   0.0000000  )
         2           La  tau(   2) = (   0.2247999   0.0614107   0.0000000  )
         3           Zn  tau(   3) = (   0.4305554   0.2542087   0.1317617  )
         4           As  tau(   4) = (   0.8948932   0.3810563   0.1317617  )
         5           As  tau(   5) = (  -0.0337824   0.1273611   0.1317617  )
         6           As  tau(   6) = (   1.2581611   0.3437039   0.0000000  )
         7           As  tau(   7) = (   0.6029496   0.1647135   0.0000000  )

   Crystallographic axes

     site n.     atom                  positions (cryst. coord.)
         1           La  tau(   1) = (  0.8792120  0.8792120  0.0000000  )
         2           La  tau(   2) = (  0.1207880  0.1207880  0.0000000  )
         3           Zn  tau(   3) = (  0.2500000  0.7500000  0.5000000  )
         4           As  tau(   4) = (  0.4994950  0.9994950  0.5000000  )
         5           As  tau(   5) = (  0.0005050  0.5005050  0.5000000  )
         6           As  tau(   6) = (  0.6760270  0.6760270  0.0000000  )
         7           As  tau(   7) = (  0.3239730  0.3239730  0.0000000  )

     number of k points=    10  Gaussian smearing, width (Ry)=  0.0010
                       cart. coord. in units 2pi/alat
        k(    1) = (   0.0000000   0.0000000   0.0000000), wk =   0.0740741
        k(    2) = (   0.0000000   0.0000000   1.2649096), wk =   0.1481481
        k(    3) = (   0.0000000   0.6556293   0.6324548), wk =   0.2962963
        k(    4) = (   0.0000000   0.6556293   1.8973644), wk =   0.1481481
        k(    5) = (   0.3333333  -0.5645695   0.6324548), wk =   0.2962963
        k(    6) = (   0.3333333  -0.5645695   1.8973644), wk =   0.1481481
        k(    7) = (   0.3333333   0.0910598   1.2649096), wk =   0.2962963
        k(    8) = (   0.3333333   0.0910598   0.0000000), wk =   0.1481481
        k(    9) = (   0.3333333  -1.2201988   0.0000000), wk =   0.1481481
        k(   10) = (   0.3333333  -1.2201988   1.2649096), wk =   0.2962963

                       cryst. coord.
        k(    1) = (   0.0000000   0.0000000   0.0000000), wk =   0.0740741
        k(    2) = (   0.0000000   0.0000000   0.3333333), wk =   0.1481481
        k(    3) = (   0.0000000   0.3333333   0.0000000), wk =   0.2962963
        k(    4) = (   0.0000000   0.3333333   0.3333333), wk =   0.1481481
        k(    5) = (   0.3333333  -0.0000000   0.0000000), wk =   0.2962963
        k(    6) = (   0.3333333  -0.0000000   0.3333333), wk =   0.1481481
        k(    7) = (   0.3333333   0.3333333   0.0000000), wk =   0.2962963
        k(    8) = (   0.3333333   0.3333333  -0.3333333), wk =   0.1481481
        k(    9) = (   0.3333333  -0.3333333   0.0000000), wk =   0.1481481
        k(   10) = (   0.3333333  -0.3333333   0.3333333), wk =   0.2962963

     Initial potential from superposition of free atoms

     starting charge      61.9819, renormalised to      62.0000

     negative rho (up, down):  1.326E-04 0.000E+00
     Starting wfcs are   93 randomized atomic wfcs
     Checking if some PAW data can be deallocated...

     Self-consistent Calculation

     iteration #  1     ecut=    30.00 Ry     beta= 0.70
     Davidson diagonalization with overlap

     ethr =  1.00E-02,  avg # of iterations =  1.5

     Threshold (ethr) on eigenvalues was too large:
     Diagonalizing with lowered threshold

     Davidson diagonalization with overlap

[...]

     negative rho (up, down):  6.975E-05 0.000E+00

     total energy              =   -1451.01221563 Ry
     estimated scf accuracy    <       0.38475899 Ry

[...]

     c_bands:  1 eigenvalues not converged
     c_bands:  1 eigenvalues not converged
     ethr =  3.62E-05,  avg # of iterations = 15.3

[...]

     c_bands:  3 eigenvalues not converged
     c_bands:  2 eigenvalues not converged
     ethr =  6.81E-06,  avg # of iterations = 18.0

[...]

     total energy              =   -1451.22824410 Ry
     estimated scf accuracy    <       0.00000104 Ry

     iteration # 15     ecut=    30.00 Ry     beta= 0.70
     Davidson diagonalization with overlap

     ethr =  1.68E-09,  avg # of iterations =  3.6

     negative rho (up, down):  2.191E-04 0.000E+00

     End of self-consistent calculation

          k = 0.0000 0.0000 0.0000 (  3167 PWs)   bands (ev):

  -116.7274 -70.8308 -70.8127 -70.8127 -22.9629 -22.9608  -7.1363  -6.9017
    -6.5681  -6.5681  -6.4708  -6.4708  -3.2683  -1.1173  -0.5742   1.6634
     2.3141   2.3141   2.3687   2.4626   2.5315   5.3758   5.8456   5.9563
     5.9563   8.1849   8.1849   8.2029   8.6020   9.4638   9.4638   9.6246
    10.4950  11.0032  11.7668  11.7677  11.7898

     occupation numbers
     1.0000   1.0000   1.0000   1.0000   1.0000   1.0000   1.0000   1.0000
     1.0000   1.0000   1.0000   1.0000   1.0000   1.0000   1.0000   1.0000
     1.0000   1.0000   1.0000   1.0000   1.0000   1.0000   1.0000   1.0000
     1.0000   1.0000   1.0000   1.0000   1.0000   1.0000   1.0000   0.0000
     0.0000   0.0000   0.0000   0.0000   0.0000

[...]

          k = 0.3333-1.2202 1.2649 (  3172 PWs)   bands (ev):

  -116.7276 -70.8393 -70.8140 -70.8047 -22.9387 -22.9369  -7.0408  -6.9715
    -6.9194  -6.8325  -6.5236  -6.4238  -2.4462  -0.6446  -0.4144  -0.0859
     2.3098   2.3333   2.4673   2.5053   2.6065   5.2244   6.0156   6.7354
     6.8958   7.2778   7.6221   7.9651   8.3991   8.6741   8.8895   9.8609
     9.9983  11.1242  11.2187  11.4968  11.6126

     occupation numbers
     1.0000   1.0000   1.0000   1.0000   1.0000   1.0000   1.0000   1.0000
     1.0000   1.0000   1.0000   1.0000   1.0000   1.0000   1.0000   1.0000
     1.0000   1.0000   1.0000   1.0000   1.0000   1.0000   1.0000   1.0000
     1.0000   1.0000   1.0000   1.0000   1.0000   1.0000   1.0000   0.0000
     0.0000   0.0000   0.0000   0.0000   0.0000

     the Fermi energy is     9.5166 ev

!    total energy              =   -1451.22824418 Ry
     estimated scf accuracy    <       0.00000006 Ry
     smearing contrib. (-TS)   =      -0.00000000 Ry
     internal energy E=F+TS    =   -1451.22824418 Ry

     The total energy is F=E-TS. E is the sum of the following terms:
     one-electron contribution =    -565.73161635 Ry
     hartree contribution      =     309.74850371 Ry
     xc contribution           =    -105.46991014 Ry
     ewald contribution        =    -302.54640360 Ry
     one-center paw contrib.   =    -787.22881781 Ry
      -> PAW hartree energy AE =      34.75499499 Ry
      -> PAW hartree energy PS =     -34.74552110 Ry
      -> PAW xc energy AE      =    -405.36939075 Ry
      -> PAW xc energy PS      =      11.74550796 Ry
      -> total E_H with PAW    =     309.75797760 Ry
      -> total E_XC with PAW   =    -499.09379294 Ry

     convergence has been achieved in  15 iterations

     Writing all to output data dir energy_m/myprefix.save/

     General routines

     Parallel routines

     PAW routines

   This run was terminated on:  17: 8:43  16Jul2023

   JOB DONE.