     Program PWSCF v.7.0 starts on 21May2023 at 11:50:23

     Reading input from espresso_23623.pwi
Warning: card &CELL ignored
Warning: card / ignored

     Current dimensions of program PWSCF are:
     Max number of different atomic species (ntypx) = 10
     Max number of k-points (npk) =  40000
     Max angular momentum in pseudopotentials (lmaxx) =  4
     file Al.pbe-n-kjpaw_psl.1.0.0.UPF: wavefunction(s)  3S 3P renormalized

     gamma-point specific algorithms are used
     Message from routine setup:
     using ibrav=0 with symmetry is DISCOURAGED, use correct ibrav instead

     Subspace diagonalization in iterative solution of the eigenvalue problem:
     a serial algorithm will be used

     Using Slab Decomposition

     bravais-lattice index     =            0
     lattice parameter (alat)  =       8.0353  a.u.
     unit-cell volume          =     725.1117 (a.u.)^3
     number of atoms/cell      =            5
     number of atomic types    =            3
     number of electrons       =        27.00
     number of Kohn-Sham states=           18
     kinetic-energy cutoff     =      30.0000  Ry
     charge density cutoff     =     240.0000  Ry
     scf convergence threshold =      1.0E-06
     mixing beta               =       0.7000
     number of iterations used =            8  plain     mixing
     Exchange-correlation= PBE
                           (   1   4   3   4   0   0   0)

     celldm(1)=   8.035314  celldm(2)=   0.000000  celldm(3)=   0.000000
     celldm(4)=   0.000000  celldm(5)=   0.000000  celldm(6)=   0.000000

     crystal axes: (cart. coord. in units of alat)
               a(1) = (   1.000000   0.000000   0.000000 )
               a(2) = (  -0.500000   0.866025   0.000000 )
               a(3) = (   0.000000   0.000000   1.613860 )

     reciprocal axes: (cart. coord. in units 2 pi/alat)
               b(1) = (  1.000000  0.577351  0.000000 )
               b(2) = (  0.000000  1.154701  0.000000 )
               b(3) = (  0.000000  0.000000  0.619632 )

     PseudoPot. # 1 for Pr read from file:
     /home/pragov/projects/rrg-bengioy-ad/pragov/crystal_structure_design/SSSP/Pr.GGA-PBE-paw-v1.0.UPF
     MD5 check sum: b5e1e58e76df433569641143f671cc27
     Pseudo is Projector augmented-wave + core cor, Zval = 13.0
     Generated using ATOMPAW code
     Shape of augmentation charge: BESSEL
     Using radial grid of 1103 points,  8 beta functions with:
                l(1) =   0
                l(2) =   0
                l(3) =   1
                l(4) =   1
                l(5) =   2
                l(6) =   2
                l(7) =   3
                l(8) =   3
     Q(r) pseudized with 0 coefficients

     PseudoPot. # 2 for Al read from file:
     /home/pragov/projects/rrg-bengioy-ad/pragov/crystal_structure_design/SSSP/Al.pbe-n-kjpaw_psl.1.0.0.UPF
     MD5 check sum: cfc449ca30b5f3223ec38ddd88ac046d
     Pseudo is Projector augmented-wave + core cor, Zval =  3.0
     Generated using "atomic" code by A. Dal Corso  v.5.1
     Shape of augmentation charge: PSQ
     Using radial grid of 1135 points,  6 beta functions with:
                l(1) =   0
                l(2) =   0
                l(3) =   1
                l(4) =   1
                l(5) =   2
                l(6) =   2
     Q(r) pseudized with 0 coefficients

     PseudoPot. # 3 for Si read from file:
     /home/pragov/projects/rrg-bengioy-ad/pragov/crystal_structure_design/SSSP/Si.pbe-n-rrkjus_psl.1.0.0.UPF
     MD5 check sum: 0b0bb1205258b0d07b9f9672cf965d36
     Pseudo is Ultrasoft + core correction, Zval =  4.0
     Generated using "atomic" code by A. Dal Corso  v.5.1
     Using radial grid of 1141 points,  6 beta functions with:
                l(1) =   0
                l(2) =   0
                l(3) =   1
                l(4) =   1
                l(5) =   2
                l(6) =   2
     Q(r) pseudized with 0 coefficients

     atomic species   valence    mass     pseudopotential
        Pr            13.00   140.90766     Pr( 1.00)
        Al             3.00    26.98154     Al( 1.00)
        Si             4.00    28.08500     Si( 1.00)

     12 Sym. Ops., with inversion, found

                                    s                        frac. trans.

      isym =  1     identity

 cryst.   s( 1) = (     1          0          0      )
                  (     0          1          0      )
                  (     0          0          1      )

 cart.    s( 1) = (  1.0000000  0.0000000  0.0000000 )
                  (  0.0000000  1.0000000  0.0000000 )
                  (  0.0000000  0.0000000  1.0000000 )

      isym =  2     180 deg rotation - cart. axis [1,0,0]

[...]

      isym =  3     120 deg rotation - cryst. axis [0,0,1]

[...]

      isym =  6     180 deg rotation - cryst. axis [1,1,0]

[...]

      isym =  7     inversion

[...]

      isym =  8     inv. 180 deg rotation - cart. axis [1,0,0]

[...]

      isym =  9     inv. 120 deg rotation - cryst. axis [0,0,1]

 cryst.   s( 9) = (     0         -1          0      )
                  (     1          1          0      )
                  (     0          0         -1      )

 cart.    s( 9) = (  0.5000002  0.8660255  0.0000000 )
                  ( -0.8660253  0.4999998  0.0000000 )
                  (  0.0000000  0.0000000 -1.0000000 )

[...]

 cryst.   s(10) = (     1          1          0      )
                  (    -1          0          0      )
                  (     0          0         -1      )

 cart.    s(10) = (  0.4999998 -0.8660255  0.0000000 )
                  (  0.8660253  0.5000002  0.0000000 )
                  (  0.0000000  0.0000000 -1.0000000 )

[...]

      isym = 12     inv. 180 deg rotation - cryst. axis [1,1,0]

 cryst.   s(12) = (     0         -1          0      )
                  (    -1          0          0      )
                  (     0          0          1      )

 cart.    s(12) = (  0.5000002 -0.8660253  0.0000000 )
                  ( -0.8660253 -0.5000002  0.0000000 )
                  (  0.0000000  0.0000000  1.0000000 )

   Cartesian axes

     site n.     atom                  positions (alat units)
         1           Pr  tau(   1) = (   0.0000000   0.0000000   0.0000000  )
         2           Al  tau(   2) = (   0.5000004   0.2886748   0.5809557  )
         3           Al  tau(   3) = (  -0.0000006   0.5773505   1.0329043  )
         4           Si  tau(   4) = (   0.5000004   0.2886748   1.1766137  )
         5           Si  tau(   5) = (  -0.0000006   0.5773505   0.4372463  )

   Crystallographic axes

     site n.     atom                  positions (cryst. coord.)
         1           Pr  tau(   1) = (  0.0000000  0.0000000  0.0000000  )
         2           Al  tau(   2) = (  0.6666670  0.3333330  0.3599790  )
         3           Al  tau(   3) = (  0.3333330  0.6666670  0.6400210  )
         4           Si  tau(   4) = (  0.6666670  0.3333330  0.7290680  )
         5           Si  tau(   5) = (  0.3333330  0.6666670  0.2709320  )

     number of k points=     1  Methfessel-Paxton smearing, width (Ry)=  0.0010
                       cart. coord. in units 2pi/alat
        k(    1) = (   0.0000000   0.0000000   0.0000000), wk =   2.0000000

                       cryst. coord.
        k(    1) = (   0.0000000   0.0000000   0.0000000), wk =   2.0000000

     Initial potential from superposition of free atoms

     starting charge      26.9869, renormalised to      27.0000
     Starting wfcs are   48 randomized atomic wfcs
     Checking if some PAW data can be deallocated...

     Self-consistent Calculation

     iteration #  1     ecut=    30.00 Ry     beta= 0.70
     Davidson diagonalization with overlap

     ethr =  1.00E-02,  avg # of iterations =  2.0

     total energy              =    -607.93753259 Ry
     estimated scf accuracy    <       1.59877617 Ry

[...]

     ethr =  1.40E-03,  avg # of iterations =  1.0
     Minimization algorithm failed to find Fermi energy: reverting to bisection
     Possible cause: smearing is larger than the electronic band-gap.

[...]

     total energy              =    -609.31470380 Ry
     estimated scf accuracy    <       0.00000351 Ry

     iteration # 53     ecut=    30.00 Ry     beta= 0.70
     Davidson diagonalization with overlap

     ethr =  1.30E-08,  avg # of iterations =  2.0

     End of self-consistent calculation

          k = 0.0000 0.0000 0.0000 (   993 PWs)   bands (ev):

   -26.7907  -9.1788  -8.7478  -8.7474  -1.8088   0.8524   3.9161   6.6798
     6.6799   8.2057   8.2407   8.2410   8.7856   9.2817   9.2880   9.3482
     9.3483   9.6222

     occupation numbers
     1.0000   1.0000   1.0000   1.0000   1.0000   1.0000   1.0000   1.0000
     1.0000   1.0000   1.0000   1.0000   1.0000   0.4084   0.0916  -0.0000
    -0.0000  -0.0000

     the Fermi energy is     9.2802 ev

!    total energy              =    -609.31470335 Ry
     estimated scf accuracy    <       0.00000065 Ry
     smearing contrib. (-TS)   =      -0.00034092 Ry
     internal energy E=F+TS    =    -609.31436243 Ry

     The total energy is F=E-TS. E is the sum of the following terms:
     one-electron contribution =     -21.17056401 Ry
     hartree contribution      =      27.27761983 Ry
     xc contribution           =     -29.62641542 Ry
     ewald contribution        =     -96.84974897 Ry
     one-center paw contrib.   =    -488.94525387 Ry
      -> PAW hartree energy AE =      66.82786289 Ry
      -> PAW hartree energy PS =     -66.86186172 Ry
      -> PAW xc energy AE      =    -503.50742223 Ry
      -> PAW xc energy PS      =      14.59616718 Ry
      -> total E_H with PAW    =      27.24362100 Ry
      -> total E_XC with PAW   =    -518.53767046 Ry

     convergence has been achieved in  53 iterations

     Forces acting on atoms (cartesian axes, Ry/au):

     atom    1 type  1   force =     0.00000000    0.00000000    0.00000000
     atom    2 type  2   force =     0.00000000   -0.00000000    0.00021478
     atom    3 type  2   force =    -0.00000000    0.00000000   -0.00021478
     atom    4 type  3   force =     0.00000000   -0.00000000    0.02604525
     atom    5 type  3   force =     0.00000000    0.00000000   -0.02604525
     The non-local contrib.  to forces
     atom    1 type  1   force =     0.00000000    0.00000000    0.00000000
     atom    2 type  2   force =    -0.00000000   -0.00000000   -0.05828376
     atom    3 type  2   force =     0.00000000    0.00000000    0.05828376
     atom    4 type  3   force =     0.00000000    0.00000000    0.11170844
     atom    5 type  3   force =     0.00000000   -0.00000000   -0.11170844
     The ionic contribution  to forces
     atom    1 type  1   force =     0.00000000   -0.00000000    0.00000000
     atom    2 type  2   force =    -0.00000512    0.00000296    1.17309862
     atom    3 type  2   force =     0.00000512   -0.00000296   -1.17309862
     atom    4 type  3   force =    -0.00000572    0.00000330   -2.23297218
     atom    5 type  3   force =     0.00000572   -0.00000330    2.23297218
     The local contribution  to forces
     atom    1 type  1   force =     0.00006635    0.00032235    0.00300618
     atom    2 type  2   force =     0.00005393   -0.00001900   -1.12099960
     atom    3 type  2   force =    -0.00001456   -0.00003880    1.12043484
     atom    4 type  3   force =    -0.00012551   -0.00002337    2.16070790
     atom    5 type  3   force =     0.00002301    0.00007800   -2.16042138
     The core correction contribution to forces
     atom    1 type  1   force =    -0.00000000    0.00000007    0.00000046
     atom    2 type  2   force =    -0.00000441   -0.00000125    0.00596539
     atom    3 type  2   force =     0.00000418   -0.00000234   -0.00598879
     atom    4 type  3   force =    -0.00000428    0.00000110   -0.01296054
     atom    5 type  3   force =    -0.00000293    0.00000065    0.01297351
     The Hubbard contrib.    to forces
     atom    1 type  1   force =     0.00000000    0.00000000    0.00000000
     atom    2 type  2   force =     0.00000000    0.00000000    0.00000000
     atom    3 type  2   force =     0.00000000    0.00000000    0.00000000
     atom    4 type  3   force =     0.00000000    0.00000000    0.00000000
     atom    5 type  3   force =     0.00000000    0.00000000    0.00000000
     The SCF correction term to forces
     atom    1 type  1   force =    -0.00013561   -0.00017261   -0.00173182
     atom    2 type  2   force =    -0.00002230   -0.00000043    0.00027856
     atom    3 type  2   force =     0.00000537    0.00000150   -0.00000154
     atom    4 type  3   force =     0.00006837    0.00001912   -0.00029809
     atom    5 type  3   force =    -0.00005653   -0.00003149    0.00027914

     Total force =     0.036835     Total SCF correction =     0.001817

     Computing stress (Cartesian axis) and pressure

          total   stress  (Ry/bohr**3)                   (kbar)     P=      130.18
   0.00191489   0.00000000   0.00000000          281.69        0.00        0.00
   0.00000000   0.00191489   0.00000000            0.00      281.69        0.00
   0.00000000   0.00000000  -0.00117504            0.00        0.00     -172.85

     kinetic stress (kbar)   4330.16      0.00      0.00
                                0.00   4330.16      0.00
                               -0.00     -0.00   3837.62

     local   stress (kbar)  -3013.73     -0.12      0.34
                               -0.12  -3013.72      0.10
                                0.34      0.10   2016.35

     nonloc. stress (kbar)   3344.25      0.00      0.00
                                0.00   3344.25      0.00
                                0.00      0.00   3470.31

     hartree stress (kbar)   2683.19      0.06     -0.14
                                0.06   2683.16     -0.04
                               -0.14     -0.04    167.52

     exc-cor stress (kbar)    495.40      0.00     -0.00
                                0.00    495.40     -0.00
                               -0.00     -0.00    497.84

     corecor stress (kbar)  -1876.16      0.00      0.00
                                0.00  -1876.17      0.00
                                0.00      0.00  -1877.20

     ewald   stress (kbar)  -5681.41      0.00     -0.00
                                0.00  -5681.41      0.00
                               -0.00      0.00  -8285.31

     hubbard stress (kbar)      0.00      0.00      0.00
                                0.00      0.00      0.00
                                0.00      0.00      0.00

     DFT-D   stress (kbar)      0.00      0.00      0.00
                                0.00      0.00      0.00
                                0.00      0.00      0.00

     XDM     stress (kbar)      0.00      0.00      0.00
                                0.00      0.00      0.00
                                0.00      0.00      0.00

     dft-nl  stress (kbar)      0.00      0.00      0.00
                                0.00      0.00      0.00
                                0.00      0.00      0.00

     TS-vdW  stress (kbar)      0.00      0.00      0.00
                                0.00      0.00      0.00
                                0.00      0.00      0.00

[...]

                                0.00      0.00      0.00

     Writing all to output data dir new_calculations/myprefix.save/

     General routines

     Parallel routines

     PAW routines

   This run was terminated on:  11:51:18  21May2023

   JOB DONE.