     Program PWSCF v.7.0 starts on 20May2023 at 14:18:40

     Reading input from espresso_8532.pwi
Warning: card &CELL ignored
Warning: card / ignored

     Current dimensions of program PWSCF are:
     Max number of different atomic species (ntypx) = 10
     Max number of k-points (npk) =  40000
     Max angular momentum in pseudopotentials (lmaxx) =  4
     file Al.pbe-n-kjpaw_psl.1.0.0.UPF: wavefunction(s)  3S 3P renormalized
     file In.pbe-dn-rrkjus_psl.0.2.2.UPF: wavefunction(s)  5S renormalized

     gamma-point specific algorithms are used
     Message from routine setup:
     using ibrav=0 with symmetry is DISCOURAGED, use correct ibrav instead

     Subspace diagonalization in iterative solution of the eigenvalue problem:
     a serial algorithm will be used

     Using Slab Decomposition

     bravais-lattice index     =            0
     lattice parameter (alat)  =       9.4777  a.u.
     unit-cell volume          =    1180.1737 (a.u.)^3
     number of atoms/cell      =            6
     number of atomic types    =            3
     number of electrons       =        62.00
     number of Kohn-Sham states=           37
     kinetic-energy cutoff     =      30.0000  Ry
     charge density cutoff     =     240.0000  Ry
     scf convergence threshold =      1.0E-06
     mixing beta               =       0.7000
     number of iterations used =            8  plain     mixing
     Exchange-correlation= PBE
                           (   1   4   3   4   0   0   0)

     celldm(1)=   9.477733  celldm(2)=   0.000000  celldm(3)=   0.000000
     celldm(4)=   0.000000  celldm(5)=   0.000000  celldm(6)=   0.000000

     crystal axes: (cart. coord. in units of alat)
               a(1) = (   1.000000   0.000000   0.000000 )
               a(2) = (  -0.500000   0.866025   0.000000 )
               a(3) = (   0.000000   0.000000   1.600670 )

     reciprocal axes: (cart. coord. in units 2 pi/alat)
               b(1) = (  1.000000  0.577350  0.000000 )
               b(2) = (  0.000000  1.154701  0.000000 )
               b(3) = (  0.000000  0.000000  0.624738 )

     PseudoPot. # 1 for Sr read from file:
     /home/pragov/projects/rrg-bengioy-ad/pragov/crystal_structure_design/SSSP/Sr_pbe_v1.uspp.F.UPF
     MD5 check sum: 6b418c05fbe9db5448babca5e47b7a5b
     Pseudo is Ultrasoft + core correction, Zval = 10.0
     Generated by new atomic code, or converted to UPF format
     Using radial grid of  883 points,  6 beta functions with:
                l(1) =   0
                l(2) =   0
                l(3) =   1
                l(4) =   1
                l(5) =   2
                l(6) =   2
     Q(r) pseudized with  6 coefficients,  rinner =    1.400   1.400   1.400
                                                       1.400   1.400

     PseudoPot. # 2 for Al read from file:
     /home/pragov/projects/rrg-bengioy-ad/pragov/crystal_structure_design/SSSP/Al.pbe-n-kjpaw_psl.1.0.0.UPF
     MD5 check sum: cfc449ca30b5f3223ec38ddd88ac046d
     Pseudo is Projector augmented-wave + core cor, Zval =  3.0
     Generated using "atomic" code by A. Dal Corso  v.5.1
     Shape of augmentation charge: PSQ
     Using radial grid of 1135 points,  6 beta functions with:
                l(1) =   0
                l(2) =   0
                l(3) =   1
                l(4) =   1
                l(5) =   2
                l(6) =   2
     Q(r) pseudized with 0 coefficients

     PseudoPot. # 3 for In read from file:
     /home/pragov/projects/rrg-bengioy-ad/pragov/crystal_structure_design/SSSP/In.pbe-dn-rrkjus_psl.0.2.2.UPF
     MD5 check sum: 25e7c42c3b55b68f4bf926be2e7201a4
     Pseudo is Ultrasoft + core correction, Zval = 13.0
     Generated using "atomic" code by A. Dal Corso  v.5.0.99 svn rev. 10869
     Using radial grid of 1241 points,  6 beta functions with:
                l(1) =   0
                l(2) =   0
                l(3) =   1
                l(4) =   1
                l(5) =   2
                l(6) =   2
     Q(r) pseudized with 0 coefficients

     atomic species   valence    mass     pseudopotential
        Sr            10.00    87.62000     Sr( 1.00)
        Al             3.00    26.98154     Al( 1.00)
        In            13.00   114.81800     In( 1.00)

      6 Sym. Ops. (no inversion) found

                                    s                        frac. trans.

      isym =  1     identity

 cryst.   s( 1) = (     1          0          0      )
                  (     0          1          0      )
                  (     0          0          1      )

 cart.    s( 1) = (  1.0000000 -0.0000000  0.0000000 )
                  (  0.0000000  1.0000000  0.0000000 )
                  (  0.0000000  0.0000000  1.0000000 )

      isym =  2     120 deg rotation - cryst. axis [0,0,1]

[...]

      isym =  3     120 deg rotation - cryst. axis [0,0,-1]

[...]

      isym =  4     inv. 180 deg rotation - cart. axis [1,0,0]

[...]

      isym =  5     inv. 180 deg rotation - cryst. axis [0,1,0]

[...]

      isym =  6     inv. 180 deg rotation - cryst. axis [1,1,0]

 cryst.   s( 6) = (     0         -1          0      )
                  (    -1          0          0      )
                  (     0          0          1      )

 cart.    s( 6) = (  0.5000000 -0.8660254  0.0000000 )
                  ( -0.8660254 -0.5000000  0.0000000 )
                  (  0.0000000  0.0000000  1.0000000 )

   Cartesian axes

     site n.     atom                  positions (alat units)
         1           Sr  tau(   1) = (   0.0000000   0.0000000   1.1924803  )
         2           Sr  tau(   2) = (   0.0000000   0.0000000   0.4033514  )
         3           Al  tau(   3) = (  -0.0000005   0.5773505   0.8766648  )
         4           In  tau(   4) = (   0.5000005   0.2886748   0.7391240  )
         5           In  tau(   5) = (   0.5000005   0.2886748   0.0735844  )
         6           In  tau(   6) = (  -0.0000005   0.5773505   1.5168066  )

   Crystallographic axes

     site n.     atom                  positions (cryst. coord.)
         1           Sr  tau(   1) = (  0.0000000  0.0000000  0.7449880  )
         2           Sr  tau(   2) = (  0.0000000  0.0000000  0.2519890  )
         3           Al  tau(   3) = (  0.3333330  0.6666670  0.5476860  )
         4           In  tau(   4) = (  0.6666670  0.3333330  0.4617590  )
         5           In  tau(   5) = (  0.6666670  0.3333330  0.0459710  )
         6           In  tau(   6) = (  0.3333330  0.6666670  0.9476070  )

     number of k points=     1  Methfessel-Paxton smearing, width (Ry)=  0.0010
                       cart. coord. in units 2pi/alat
        k(    1) = (   0.0000000   0.0000000   0.0000000), wk =   2.0000000

                       cryst. coord.
        k(    1) = (   0.0000000   0.0000000   0.0000000), wk =   2.0000000

     Check: negative core charge=   -0.000002

     Initial potential from superposition of free atoms

     starting charge      61.9192, renormalised to      62.0000

     negative rho (up, down):  1.284E-01 0.000E+00
     Starting wfcs are   57 randomized atomic wfcs
     Checking if some PAW data can be deallocated...

     Self-consistent Calculation

     iteration #  1     ecut=    30.00 Ry     beta= 0.70
     Davidson diagonalization with overlap

     ethr =  1.00E-02,  avg # of iterations =  2.0

     Threshold (ethr) on eigenvalues was too large:
     Diagonalizing with lowered threshold

     Davidson diagonalization with overlap

[...]

     negative rho (up, down):  1.291E-01 0.000E+00

     total energy              =    -613.38527294 Ry
     estimated scf accuracy    <       0.29613494 Ry

[...]

     total energy              =    -613.54920168 Ry
     estimated scf accuracy    <       0.00001366 Ry

     iteration # 24     ecut=    30.00 Ry     beta= 0.70
     Davidson diagonalization with overlap

     ethr =  1.16E-08,  avg # of iterations =  1.0

[...]

     End of self-consistent calculation

          k = 0.0000 0.0000 0.0000 (  1643 PWs)   bands (ev):

   -27.0099 -26.9321  -9.2301  -9.0772  -9.0771  -8.9914  -8.9914  -8.9734
    -6.0540  -6.0540  -5.9501  -5.9500  -5.7970  -5.6970  -5.6969  -5.6756
    -5.6755  -5.6600  -5.6423  -5.6423  -5.5477  -5.5476  -5.4938   0.4240
     2.0603   4.4950   7.4000   7.4000   8.3279   8.8578   9.0635   9.0785
     9.0786   9.3573   9.3574  10.1706  10.1706

     occupation numbers
     1.0000   1.0000   1.0000   1.0000   1.0000   1.0000   1.0000   1.0000
     1.0000   1.0000   1.0000   1.0000   1.0000   1.0000   1.0000   1.0000
     1.0000   1.0000   1.0000   1.0000   1.0000   1.0000   1.0000   1.0000
     1.0000   1.0000   1.0000   1.0000   1.0000   1.0000   0.8607   0.0707
     0.0686  -0.0000  -0.0000  -0.0000  -0.0000

     the Fermi energy is     9.0700 ev

!    total energy              =    -613.54920163 Ry
     estimated scf accuracy    <       0.00000062 Ry
     smearing contrib. (-TS)   =      -0.00020407 Ry
     internal energy E=F+TS    =    -613.54899756 Ry

     The total energy is F=E-TS. E is the sum of the following terms:
     one-electron contribution =    -217.40965348 Ry
     hartree contribution      =     149.64473651 Ry
     xc contribution           =    -182.16054705 Ry
     ewald contribution        =    -328.91411322 Ry
     one-center paw contrib.   =     -34.70942032 Ry
      -> PAW hartree energy AE =       1.40747757 Ry
      -> PAW hartree energy PS =      -1.40158132 Ry
      -> PAW xc energy AE      =     -36.62181821 Ry
      -> PAW xc energy PS      =       1.90650164 Ry
      -> total E_H with PAW    =     149.65063277 Ry
      -> total E_XC with PAW   =    -216.87586363 Ry

     convergence has been achieved in  24 iterations

     negative rho (up, down):  1.306E-01 0.000E+00

     Forces acting on atoms (cartesian axes, Ry/au):

     atom    1 type  1   force =     0.00000000    0.00000000   -0.00519527
     atom    2 type  1   force =     0.00000000    0.00000000    0.00409491
     atom    3 type  2   force =     0.00000000    0.00000000    0.03657923
     atom    4 type  3   force =     0.00000000    0.00000000   -0.02320655
     atom    5 type  3   force =     0.00000000    0.00000000    0.04636092
     atom    6 type  3   force =     0.00000000    0.00000000   -0.05863324
     The non-local contrib.  to forces
     atom    1 type  1   force =     0.00000000    0.00000000    0.00773121
     atom    2 type  1   force =     0.00000000    0.00000000   -0.00263568
     atom    3 type  2   force =     0.00000000    0.00000000    0.00464149
     atom    4 type  3   force =     0.00000000    0.00000000    0.06497571
     atom    5 type  3   force =     0.00000000   -0.00000000   -0.10251165
     atom    6 type  3   force =     0.00000000    0.00000000    0.08926742
     The ionic contribution  to forces
     atom    1 type  1   force =    -0.00000221    0.00000128   -5.43970659
     atom    2 type  1   force =     0.00000923   -0.00000533    4.76522172
     atom    3 type  2   force =     0.00001121   -0.00000647   -0.35358707
     atom    4 type  3   force =    -0.00001969    0.00001137    4.40079788
     atom    5 type  3   force =    -0.00004468    0.00002580    0.34964386
     atom    6 type  3   force =     0.00004615   -0.00002664   -3.72236979
     The local contribution  to forces
     atom    1 type  1   force =     0.00003424   -0.00015665    5.42693442
     atom    2 type  1   force =     0.00031536   -0.00015671   -4.75825769
     atom    3 type  2   force =    -0.00038028    0.00030681    0.38600327
     atom    4 type  3   force =     0.00005467    0.00327097   -4.48368733
     atom    5 type  3   force =    -0.00000479    0.00324483   -0.20749685
     atom    6 type  3   force =    -0.00151920    0.00046635    3.58349326
     The core correction contribution to forces
     atom    1 type  1   force =    -0.00000321    0.00000187   -0.00051828
     atom    2 type  1   force =    -0.00000019    0.00000218    0.00016298
     atom    3 type  2   force =    -0.00002046    0.00004682   -0.00057138
     atom    4 type  3   force =     0.00001017    0.00008096   -0.00654726
     atom    5 type  3   force =     0.00000698    0.00008942    0.00799187
     atom    6 type  3   force =    -0.00004985   -0.00000404   -0.00943577
     The Hubbard contrib.    to forces
     atom    1 type  1   force =     0.00000000    0.00000000    0.00000000
     atom    2 type  1   force =     0.00000000    0.00000000    0.00000000
     atom    3 type  2   force =     0.00000000    0.00000000    0.00000000
     atom    4 type  3   force =     0.00000000    0.00000000    0.00000000
     atom    5 type  3   force =     0.00000000    0.00000000    0.00000000
     atom    6 type  3   force =     0.00000000    0.00000000    0.00000000
     The SCF correction term to forces
     atom    1 type  1   force =    -0.00004062    0.00015850    0.00036942
     atom    2 type  1   force =    -0.00025902    0.00021288   -0.00039097
     atom    3 type  2   force =     0.00008492    0.00002570    0.00009836
     atom    4 type  3   force =    -0.00012786   -0.00223929    0.00125991
     atom    5 type  3   force =     0.00001112   -0.00239664   -0.00126086
     atom    6 type  3   force =     0.00113060    0.00011889    0.00041709

     Total force =     0.086646     Total SCF correction =     0.003983

     Computing stress (Cartesian axis) and pressure

     negative rho (up, down):  1.306E-01 0.000E+00
          total   stress  (Ry/bohr**3)                   (kbar)     P=      138.80
   0.00158143   0.00000000   0.00000000          232.64        0.00        0.00
   0.00000000   0.00158143  -0.00000000            0.00      232.64       -0.00
   0.00000000   0.00000000  -0.00033230            0.00        0.00      -48.88

     kinetic stress (kbar)  10700.12      0.00      0.00
                                0.00  10700.12      0.00
                                0.00      0.00  10627.54

     local   stress (kbar)  -6275.54     -0.53      0.02
                               -0.53  -6274.75      0.19
                                0.02      0.19    215.44

     nonloc. stress (kbar)   4960.99      0.00      0.00
                                0.00   4960.99     -0.00
                                0.00     -0.00   4987.55

     hartree stress (kbar)   7127.54      0.30     -0.01
                                0.30   7127.15     -0.13
                               -0.01     -0.13   4398.08

     exc-cor stress (kbar)   9612.14      0.01     -0.00
                                0.01   9612.13     -0.00
                               -0.00     -0.00   9613.23

     corecor stress (kbar) -13558.41     -0.01     -0.00
                               -0.01 -13558.40      0.00
                               -0.00      0.00 -13561.37

     ewald   stress (kbar) -12334.40      0.01     -0.00
                                0.01 -12334.39      0.00
                               -0.00      0.00 -16329.36

     hubbard stress (kbar)      0.00      0.00      0.00
                                0.00      0.00      0.00
                                0.00      0.00      0.00

     DFT-D   stress (kbar)      0.00      0.00      0.00
                                0.00      0.00      0.00
                                0.00      0.00      0.00

     XDM     stress (kbar)      0.00      0.00      0.00
                                0.00      0.00      0.00
                                0.00      0.00      0.00

     dft-nl  stress (kbar)      0.00      0.00      0.00
                                0.00      0.00      0.00
                                0.00      0.00      0.00

     TS-vdW  stress (kbar)      0.00      0.00      0.00
                                0.00      0.00      0.00
                                0.00      0.00      0.00

[...]

                                0.00      0.00      0.00

     Writing all to output data dir new_calculations/myprefix.save/

     General routines

     Parallel routines

     PAW routines

   This run was terminated on:  14:18:59  20May2023

   JOB DONE.