     Program PWSCF v.7.0 starts on 21May2023 at  2:29:14

     Reading input from espresso_26339.pwi
Warning: card &CELL ignored
Warning: card / ignored

     Current dimensions of program PWSCF are:
     Max number of different atomic species (ntypx) = 10
     Max number of k-points (npk) =  40000
     Max angular momentum in pseudopotentials (lmaxx) =  4

     gamma-point specific algorithms are used
     Message from routine setup:
     using ibrav=0 with symmetry is DISCOURAGED, use correct ibrav instead

     Subspace diagonalization in iterative solution of the eigenvalue problem:
     a serial algorithm will be used

     Using Slab Decomposition

     bravais-lattice index     =            0
     lattice parameter (alat)  =       7.8069  a.u.
     unit-cell volume          =    1091.9532 (a.u.)^3
     number of atoms/cell      =            8
     number of atomic types    =            2
     number of electrons       =       116.00
     number of Kohn-Sham states=           70
     kinetic-energy cutoff     =      30.0000  Ry
     charge density cutoff     =     240.0000  Ry
     scf convergence threshold =      1.0E-06
     mixing beta               =       0.7000
     number of iterations used =            8  plain     mixing
     Exchange-correlation=  SLA  PW   PBX  PBC
                           (   1   4   3   4   0   0   0)

     celldm(1)=   7.806922  celldm(2)=   0.000000  celldm(3)=   0.000000
     celldm(4)=   0.000000  celldm(5)=   0.000000  celldm(6)=   0.000000

     crystal axes: (cart. coord. in units of alat)
               a(1) = (   1.000000   0.000000   0.000000 )
               a(2) = (   0.000000   1.326823   0.000000 )
               a(3) = (   0.000000   0.000000   1.729623 )

     reciprocal axes: (cart. coord. in units 2 pi/alat)
               b(1) = (  1.000000  0.000000  0.000000 )
               b(2) = (  0.000000  0.753680  0.000000 )
               b(3) = (  0.000000  0.000000  0.578161 )

     PseudoPot. # 1 for Y  read from file:
     /home/pragov/projects/rrg-bengioy-ad/pragov/crystal_structure_design/SSSP/Y_pbe_v1.uspp.F.UPF
     MD5 check sum: 2cf71db95cafeb975fc457bd7f14888e
     Pseudo is Ultrasoft + core correction, Zval = 11.0
     Generated by new atomic code, or converted to UPF format
     Using radial grid of  885 points,  6 beta functions with:
                l(1) =   0
                l(2) =   0
                l(3) =   1
                l(4) =   1
                l(5) =   2
                l(6) =   2
     Q(r) pseudized with  6 coefficients,  rinner =    1.200   1.200   1.200
                                                       1.200   1.200

     PseudoPot. # 2 for Ni read from file:
     /home/pragov/projects/rrg-bengioy-ad/pragov/crystal_structure_design/SSSP/ni_pbe_v1.4.uspp.F.UPF
     MD5 check sum: 1ee80287db30b12d2bc1f57a5b5d6409
     Pseudo is Ultrasoft + core correction, Zval = 18.0
     Generated by new atomic code, or converted to UPF format
     Using radial grid of  865 points,  6 beta functions with:
                l(1) =   0
                l(2) =   0
                l(3) =   1
                l(4) =   1
                l(5) =   2
                l(6) =   2
     Q(r) pseudized with 10 coefficients,  rinner =    0.980   0.980   0.980
                                                       0.980   0.980

     atomic species   valence    mass     pseudopotential
        Y             11.00    88.90584     Y ( 1.00)
        Ni            18.00    58.69340     Ni( 1.00)

      8 Sym. Ops., with inversion, found ( 6 have fractional translation)

                                    s                        frac. trans.

      isym =  1     identity

 cryst.   s( 1) = (     1          0          0      )
                  (     0          1          0      )
                  (     0          0          1      )

 cart.    s( 1) = (  1.0000000  0.0000000  0.0000000 )
                  (  0.0000000  1.0000000  0.0000000 )
                  (  0.0000000  0.0000000  1.0000000 )

      isym =  2     180 deg rotation - cart. axis [0,0,1]

 cryst.   s( 2) = (    -1          0          0      )    f =( -0.5000000 )
                  (     0         -1          0      )       (  0.5000000 )
                  (     0          0          1      )       ( -0.5000000 )

 cart.    s( 2) = ( -1.0000000  0.0000000  0.0000000 )    f =( -0.5000000 )
                  (  0.0000000 -1.0000000  0.0000000 )       (  0.6634115 )
                  (  0.0000000  0.0000000  1.0000000 )       ( -0.8648117 )

[...]

      isym =  4     180 deg rotation - cart. axis [1,0,0]

[...]

      isym =  5     inversion

 cryst.   s( 5) = (    -1          0          0      )
                  (     0         -1          0      )
                  (     0          0         -1      )

 cart.    s( 5) = ( -1.0000000  0.0000000  0.0000000 )
                  (  0.0000000 -1.0000000  0.0000000 )
                  (  0.0000000  0.0000000 -1.0000000 )

      isym =  6     inv. 180 deg rotation - cart. axis [0,0,1]

[...]

      isym =  8     inv. 180 deg rotation - cart. axis [1,0,0]

 cryst.   s( 8) = (    -1          0          0      )    f =( -0.5000000 )
                  (     0          1          0      )       (  0.0000000 )
                  (     0          0          1      )       (  0.0000000 )

 cart.    s( 8) = ( -1.0000000  0.0000000  0.0000000 )    f =( -0.5000000 )
                  (  0.0000000  1.0000000  0.0000000 )       (  0.0000000 )
                  (  0.0000000  0.0000000  1.0000000 )       (  0.0000000 )

   Cartesian axes

     site n.     atom                  positions (alat units)
         1           Y   tau(   1) = (   0.7500000   1.1516240   1.4187046  )
         2           Y   tau(   2) = (   0.2500000   0.4882125   1.1757305  )
         3           Y   tau(   3) = (   0.2500000   0.1751990   0.3109188  )
         4           Y   tau(   4) = (   0.7500000   0.8386105   0.5538929  )
         5           Ni  tau(   5) = (   0.7500000   0.5002972   1.6672220  )
         6           Ni  tau(   6) = (   0.2500000   1.1637087   0.9272131  )
         7           Ni  tau(   7) = (   0.2500000   0.8265258   0.0624014  )
         8           Ni  tau(   8) = (   0.7500000   0.1631143   0.8024103  )

   Crystallographic axes

     site n.     atom                  positions (cryst. coord.)
         1           Y   tau(   1) = (  0.7500000  0.8679560  0.8202390  )
         2           Y   tau(   2) = (  0.2500000  0.3679560  0.6797610  )
         3           Y   tau(   3) = (  0.2500000  0.1320440  0.1797610  )
         4           Y   tau(   4) = (  0.7500000  0.6320440  0.3202390  )
         5           Ni  tau(   5) = (  0.7500000  0.3770640  0.9639220  )
         6           Ni  tau(   6) = (  0.2500000  0.8770640  0.5360780  )
         7           Ni  tau(   7) = (  0.2500000  0.6229360  0.0360780  )
         8           Ni  tau(   8) = (  0.7500000  0.1229360  0.4639220  )

     number of k points=     1  Methfessel-Paxton smearing, width (Ry)=  0.0010
                       cart. coord. in units 2pi/alat
        k(    1) = (   0.0000000   0.0000000   0.0000000), wk =   2.0000000

                       cryst. coord.
        k(    1) = (   0.0000000   0.0000000   0.0000000), wk =   2.0000000

     Check: negative core charge=   -0.000009

     Initial potential from superposition of free atoms

     starting charge     107.9821, renormalised to     116.0000

     negative rho (up, down):  1.829E-01 0.000E+00
     Starting wfcs are  104 randomized atomic wfcs

     Self-consistent Calculation

     iteration #  1     ecut=    30.00 Ry     beta= 0.70
     Davidson diagonalization with overlap

     ethr =  1.00E-02,  avg # of iterations =  4.0

     negative rho (up, down):  1.410E-01 0.000E+00

     total energy              =   -1576.22332606 Ry
     estimated scf accuracy    <     198.19719173 Ry

[...]

     total energy              =   -1722.89858752 Ry
     estimated scf accuracy    <       0.00000506 Ry

     iteration # 29     ecut=    30.00 Ry     beta= 0.70
     Davidson diagonalization with overlap

     ethr =  4.36E-09,  avg # of iterations =  2.0

[...]

     End of self-consistent calculation

          k = 0.0000 0.0000 0.0000 (  1507 PWs)   bands (ev):

   -90.6394 -90.6372 -90.6316 -90.6266 -51.2742 -51.2679 -51.2037 -51.1943
   -50.9204 -50.9096 -50.9006 -50.8993 -50.7555 -50.7502 -50.7447 -50.7349
   -29.7102 -29.6769 -29.6527 -29.6426  -9.9815  -9.8574  -9.8481  -9.8007
    -9.7798  -9.7681  -9.6789  -9.6358  -9.5879  -9.5270  -9.5124  -9.4956
     6.3497   8.6022   9.5493   9.7928  10.0470  10.0995  10.1097  10.1835
    10.2895  10.3360  10.5310  10.6218  10.8286  10.8777  11.0375  11.1183
    11.1788  11.2481  11.2762  11.3325  11.4463  11.5026  11.5647  11.6761
    12.1386  12.3764  12.6069  12.6438  13.5608  14.1299  14.2536  14.6622
    14.7683  15.0896  15.2491  15.3598  15.6864  15.9100

     occupation numbers
     1.0000   1.0000   1.0000   1.0000   1.0000   1.0000   1.0000   1.0000
     1.0000   1.0000   1.0000   1.0000   1.0000   1.0000   1.0000   1.0000
     1.0000   1.0000   1.0000   1.0000   1.0000   1.0000   1.0000   1.0000
     1.0000   1.0000   1.0000   1.0000   1.0000   1.0000   1.0000   1.0000
     1.0000   1.0000   1.0000   1.0000   1.0000   1.0000   1.0000   1.0000
     1.0000   1.0000   1.0000   1.0000   1.0000   1.0000   1.0000   1.0000
     1.0000   1.0000   1.0000   1.0000   1.0000   1.0000   1.0000   1.0000
     1.0000   1.0000  -0.0000  -0.0000  -0.0000  -0.0000  -0.0000  -0.0000
    -0.0000  -0.0000  -0.0000  -0.0000  -0.0000  -0.0000

     the Fermi energy is    12.4992 ev

!    total energy              =   -1722.89858814 Ry
     estimated scf accuracy    <       0.00000061 Ry
     smearing contrib. (-TS)   =       0.00000000 Ry
     internal energy E=F+TS    =   -1722.89858814 Ry

     The total energy is F=E-TS. E is the sum of the following terms:
     one-electron contribution =   -1214.31447974 Ry
     hartree contribution      =     655.95839804 Ry
     xc contribution           =    -229.97681758 Ry
     ewald contribution        =    -934.56568886 Ry

     convergence has been achieved in  29 iterations

     negative rho (up, down):  1.707E-01 0.000E+00

     Forces acting on atoms (cartesian axes, Ry/au):

     atom    1 type  1   force =    -0.00000000    0.03161415   -0.00665632
     atom    2 type  1   force =     0.00000000    0.03161415    0.00665632
     atom    3 type  1   force =    -0.00000000   -0.03161415    0.00665632
     atom    4 type  1   force =     0.00000000   -0.03161415   -0.00665632
     atom    5 type  2   force =     0.00000000    0.00746146   -0.00341123
     atom    6 type  2   force =     0.00000000    0.00746146    0.00341123
     atom    7 type  2   force =     0.00000000   -0.00746146    0.00341123
     atom    8 type  2   force =     0.00000000   -0.00746146   -0.00341123
     The non-local contrib.  to forces
     atom    1 type  1   force =     0.00000000    0.04361910    0.03545950
     atom    2 type  1   force =     0.00000000    0.04361910   -0.03545950
     atom    3 type  1   force =    -0.00000000   -0.04361910   -0.03545950
     atom    4 type  1   force =     0.00000000   -0.04361910    0.03545950
     atom    5 type  2   force =     0.00000000    0.22149454    0.00983930
     atom    6 type  2   force =     0.00000000    0.22149454   -0.00983930
     atom    7 type  2   force =     0.00000000   -0.22149454   -0.00983930
     atom    8 type  2   force =     0.00000000   -0.22149454    0.00983930
     The ionic contribution  to forces
     atom    1 type  1   force =     0.00000000    2.79626261    3.17821835
     atom    2 type  1   force =    -0.00000000    2.79626261   -3.17821835
     atom    3 type  1   force =    -0.00000000   -2.79626261   -3.17821835
     atom    4 type  1   force =     0.00000000   -2.79626261    3.17821835
     atom    5 type  2   force =     0.00000000  -14.51638393   -5.07453029
     atom    6 type  2   force =    -0.00000000  -14.51638393    5.07453029
     atom    7 type  2   force =    -0.00000000   14.51638393    5.07453029
     atom    8 type  2   force =     0.00000000   14.51638393   -5.07453029
     The local contribution  to forces
     atom    1 type  1   force =    -0.00000144   -2.80540809   -3.21863184
     atom    2 type  1   force =     0.00000061   -2.80495572    3.21828605
     atom    3 type  1   force =    -0.00000307    2.80472750    3.21714919
     atom    4 type  1   force =     0.00000130    2.80567283   -3.21684103
     atom    5 type  2   force =     0.00000117   14.30122537    5.05866137
     atom    6 type  2   force =     0.00000167   14.30080088   -5.05845657
     atom    7 type  2   force =    -0.00000035  -14.30012949   -5.06374065
     atom    8 type  2   force =     0.00000210  -14.30197756    5.06380477
     The core correction contribution to forces
     atom    1 type  1   force =    -0.00000003   -0.00299893   -0.00254094
     atom    2 type  1   force =     0.00000001   -0.00298838    0.00253832
     atom    3 type  1   force =    -0.00000007    0.00299428    0.00252984
     atom    4 type  1   force =     0.00000003    0.00300216   -0.00252469
     atom    5 type  2   force =     0.00000001    0.00089154   -0.00005448
     atom    6 type  2   force =    -0.00000001    0.00089330    0.00005136
     atom    7 type  2   force =     0.00000000   -0.00089804    0.00005931
     atom    8 type  2   force =    -0.00000001   -0.00089089   -0.00005814
     The Hubbard contrib.    to forces
     atom    1 type  1   force =     0.00000000    0.00000000    0.00000000
     atom    2 type  1   force =     0.00000000    0.00000000    0.00000000
     atom    3 type  1   force =     0.00000000    0.00000000    0.00000000
     atom    4 type  1   force =     0.00000000    0.00000000    0.00000000
     atom    5 type  2   force =     0.00000000    0.00000000    0.00000000
     atom    6 type  2   force =     0.00000000    0.00000000    0.00000000
     atom    7 type  2   force =     0.00000000    0.00000000    0.00000000
     atom    8 type  2   force =     0.00000000    0.00000000    0.00000000
     The SCF correction term to forces
     atom    1 type  1   force =     0.00000102    0.00013479    0.00074438
     atom    2 type  1   force =    -0.00000026   -0.00025420   -0.00036042
     atom    3 type  1   force =     0.00000241    0.00054701    0.00053933
     atom    4 type  1   force =    -0.00000066   -0.00034407   -0.00086022
     atom    5 type  2   force =    -0.00000192    0.00016310    0.00265192
     atom    6 type  2   force =    -0.00000267    0.00065465   -0.00293470
     atom    7 type  2   force =     0.00000082   -0.00152879    0.00242264
     atom    8 type  2   force =    -0.00000219    0.00065020   -0.00248498

     Total force =     0.066665     Total SCF correction =     0.005755

     Computing stress (Cartesian axis) and pressure

     negative rho (up, down):  1.707E-01 0.000E+00
          total   stress  (Ry/bohr**3)                   (kbar)     P=     -644.27
  -0.00543796   0.00000000   0.00000000         -799.95        0.00        0.00
   0.00000000  -0.00387279   0.00000000            0.00     -569.71        0.00
   0.00000000   0.00000000  -0.00382822            0.00        0.00     -563.15

     kinetic stress (kbar)  24832.78      0.00      0.00
                                0.00  25174.41      0.00
                                0.00      0.00  25232.71

     local   stress (kbar) -38317.22     -0.00      0.00
                               -0.00 -11327.25      0.05
                                0.00      0.05  -7922.84

     nonloc. stress (kbar)  14291.22      0.00      0.00
                                0.00  14709.43      0.00
                                0.00      0.00  14757.31

     hartree stress (kbar)  38444.34     -0.00     -0.00
                               -0.00  25614.19     -0.07
                               -0.00     -0.07  24310.47

     exc-cor stress (kbar)  -1022.12      0.00      0.00
                                0.00  -1020.00      0.00
                                0.00      0.00  -1021.15

     corecor stress (kbar)  -7579.75     -0.00      0.00
                               -0.00  -7592.76     -0.00
                                0.00     -0.00  -7594.33

     ewald   stress (kbar) -31449.20     -0.00     -0.00
                               -0.00 -46127.73      0.00
                               -0.00      0.00 -48325.33

     hubbard stress (kbar)      0.00      0.00      0.00
                                0.00      0.00      0.00
                                0.00      0.00      0.00

     DFT-D   stress (kbar)      0.00      0.00      0.00
                                0.00      0.00      0.00
                                0.00      0.00      0.00

     XDM     stress (kbar)      0.00      0.00      0.00
                                0.00      0.00      0.00
                                0.00      0.00      0.00

     dft-nl  stress (kbar)      0.00      0.00      0.00
                                0.00      0.00      0.00
                                0.00      0.00      0.00

     TS-vdW  stress (kbar)      0.00      0.00      0.00
                                0.00      0.00      0.00
                                0.00      0.00      0.00

[...]

                                0.00      0.00      0.00

     Writing all to output data dir new_calculations/myprefix.save/

     General routines

     Parallel routines

   This run was terminated on:   2:29:37  21May2023

   JOB DONE.