     Program PWSCF v.7.0 starts on 21May2023 at 15: 1:36

     Reading input from espresso_24802.pwi
Warning: card &CELL ignored
Warning: card / ignored

     Current dimensions of program PWSCF are:
     Max number of different atomic species (ntypx) = 10
     Max number of k-points (npk) =  40000
     Max angular momentum in pseudopotentials (lmaxx) =  4

     gamma-point specific algorithms are used
     Message from routine setup:
     using ibrav=0 with symmetry is DISCOURAGED, use correct ibrav instead

     Subspace diagonalization in iterative solution of the eigenvalue problem:
     a serial algorithm will be used

     Using Slab Decomposition

     bravais-lattice index     =            0
     lattice parameter (alat)  =      10.5175  a.u.
     unit-cell volume          =     521.5551 (a.u.)^3
     number of atoms/cell      =            5
     number of atomic types    =            3
     number of electrons       =        60.00
     number of Kohn-Sham states=           36
     kinetic-energy cutoff     =      30.0000  Ry
     charge density cutoff     =     240.0000  Ry
     scf convergence threshold =      1.0E-06
     mixing beta               =       0.7000
     number of iterations used =            8  plain     mixing
     Exchange-correlation=  SLA  PW   PBX  PBC
                           (   1   4   3   4   0   0   0)

     celldm(1)=  10.517521  celldm(2)=   0.000000  celldm(3)=   0.000000
     celldm(4)=   0.000000  celldm(5)=   0.000000  celldm(6)=   0.000000

     crystal axes: (cart. coord. in units of alat)
               a(1) = (   1.000000   0.000000   0.000000 )
               a(2) = (   0.478631   0.878016   0.000000 )
               a(3) = (  -0.739316  -0.439008   0.510573 )

     reciprocal axes: (cart. coord. in units 2 pi/alat)
               b(1) = (  1.000000 -0.545128  0.979292 )
               b(2) = (  0.000000  1.138931  0.979292 )
               b(3) = (  0.000000  0.000000  1.958585 )

     PseudoPot. # 1 for Sm read from file:
     /home/pragov/projects/rrg-bengioy-ad/pragov/crystal_structure_design/SSSP/Sm.GGA-PBE-paw-v1.0.UPF
     MD5 check sum: 886f70968969f895acf876f5617e0641
     Pseudo is Projector augmented-wave + core cor, Zval = 16.0
     Generated using ATOMPAW code
     Shape of augmentation charge: BESSEL
     Using radial grid of 1107 points,  8 beta functions with:
                l(1) =   0
                l(2) =   0
                l(3) =   1
                l(4) =   1
                l(5) =   2
                l(6) =   2
                l(7) =   3
                l(8) =   3
     Q(r) pseudized with 0 coefficients

     PseudoPot. # 2 for Si read from file:
     /home/pragov/projects/rrg-bengioy-ad/pragov/crystal_structure_design/SSSP/Si.pbe-n-rrkjus_psl.1.0.0.UPF
     MD5 check sum: 0b0bb1205258b0d07b9f9672cf965d36
     Pseudo is Ultrasoft + core correction, Zval =  4.0
     Generated using "atomic" code by A. Dal Corso  v.5.1
     Using radial grid of 1141 points,  6 beta functions with:
                l(1) =   0
                l(2) =   0
                l(3) =   1
                l(4) =   1
                l(5) =   2
                l(6) =   2
     Q(r) pseudized with 0 coefficients

     PseudoPot. # 3 for Ni read from file:
     /home/pragov/projects/rrg-bengioy-ad/pragov/crystal_structure_design/SSSP/ni_pbe_v1.4.uspp.F.UPF
     MD5 check sum: 1ee80287db30b12d2bc1f57a5b5d6409
     Pseudo is Ultrasoft + core correction, Zval = 18.0
     Generated by new atomic code, or converted to UPF format
     Using radial grid of  865 points,  6 beta functions with:
                l(1) =   0
                l(2) =   0
                l(3) =   1
                l(4) =   1
                l(5) =   2
                l(6) =   2
     Q(r) pseudized with 10 coefficients,  rinner =    0.980   0.980   0.980
                                                       0.980   0.980

     atomic species   valence    mass     pseudopotential
        Sm            16.00   150.36000     Sm( 1.00)
        Si             4.00    28.08500     Si( 1.00)
        Ni            18.00    58.69340     Ni( 1.00)

      4 Sym. Ops., with inversion, found

                                    s                        frac. trans.

      isym =  1     identity

 cryst.   s( 1) = (     1          0          0      )
                  (     0          1          0      )
                  (     0          0          1      )

 cart.    s( 1) = (  1.0000000  0.0000000 -0.0000000 )
                  (  0.0000000  1.0000000 -0.0000000 )
                  (  0.0000000  0.0000000  1.0000000 )

      isym =  2     180 deg rotation - cart. axis [0,0,1]

[...]

      isym =  3     inversion

[...]

      isym =  4     inv. 180 deg rotation - cart. axis [0,0,1]

 cryst.   s( 4) = (     1          0          0      )
                  (     0          1          0      )
                  (    -1         -1         -1      )

 cart.    s( 4) = (  1.0000000  0.0000000  0.0000000 )
                  (  0.0000000  1.0000000  0.0000000 )
                  (  0.0000000  0.0000000 -1.0000000 )

   Cartesian axes

     site n.     atom                  positions (alat units)
         1           Sm  tau(   1) = (   0.0000000   0.0000000   0.0000000  )
         2           Si  tau(   2) = (   0.9297691   0.5521001   0.0000000  )
         3           Si  tau(   3) = (   0.5488619   0.3259161   0.0000000  )
         4           Ni  tau(   4) = (   0.2393155   0.4390081   0.2552864  )
         5           Ni  tau(   5) = (   0.5000000   0.0000000   0.2552864  )

   Crystallographic axes

     site n.     atom                  positions (cryst. coord.)
         1           Sm  tau(   1) = (  0.0000000  0.0000000  0.0000000  )
         2           Si  tau(   2) = (  0.6288040  0.6288040  0.0000000  )
         3           Si  tau(   3) = (  0.3711960  0.3711960  0.0000000  )
         4           Ni  tau(   4) = (  0.2500000  0.7500000  0.5000000  )
         5           Ni  tau(   5) = (  0.7500000  0.2500000  0.5000000  )

     number of k points=     1  Methfessel-Paxton smearing, width (Ry)=  0.0010
                       cart. coord. in units 2pi/alat
        k(    1) = (   0.0000000   0.0000000   0.0000000), wk =   2.0000000

                       cryst. coord.
        k(    1) = (   0.0000000   0.0000000   0.0000000), wk =   2.0000000

     Check: negative core charge=   -0.000004

     Initial potential from superposition of free atoms

     starting charge      55.9933, renormalised to      60.0000
     Starting wfcs are   66 randomized atomic wfcs
     Checking if some PAW data can be deallocated...

     Self-consistent Calculation

     iteration #  1     ecut=    30.00 Ry     beta= 0.70
     Davidson diagonalization with overlap

     ethr =  1.00E-02,  avg # of iterations =  5.0

     total energy              =   -1250.17765257 Ry
     estimated scf accuracy    <      84.98022109 Ry

[...]

     total energy              =   -1313.07541858 Ry
     estimated scf accuracy    <       0.00000205 Ry

     iteration # 96     ecut=    30.00 Ry     beta= 0.70
     Davidson diagonalization with overlap

     ethr =  3.42E-09,  avg # of iterations =  1.0

     End of self-consistent calculation

          k = 0.0000 0.0000 0.0000 (   730 PWs)   bands (ev):

   -89.5448 -89.5423 -50.0252 -50.0215 -49.8143 -49.8077 -49.8005 -49.7934
   -25.5475  -5.1664  -5.1646  -5.1187   3.1107   7.4871   8.3060  10.7767
    10.7805  11.1576  11.7167  11.7191  11.8519  12.1262  12.4604  12.6262
    12.7355  12.7385  13.2976  13.3004  13.3822  13.3876  13.3934  13.5578
    13.5591  13.5846  13.9729  16.0294

     occupation numbers
     1.0000   1.0000   1.0000   1.0000   1.0000   1.0000   1.0000   1.0000
     1.0000   1.0000   1.0000   1.0000   1.0000   1.0000   1.0000   1.0000
     1.0000   1.0000   1.0000   1.0000   1.0000   1.0000   1.0000   1.0000
     1.0000   1.0000   1.0000   1.0000   0.9403   0.7053   0.3543  -0.0000
    -0.0000  -0.0000  -0.0000  -0.0000

     the Fermi energy is    13.3910 ev

!    total energy              =   -1313.07541823 Ry
     estimated scf accuracy    <       0.00000043 Ry
     smearing contrib. (-TS)   =      -0.00051800 Ry
     internal energy E=F+TS    =   -1313.07490023 Ry

     The total energy is F=E-TS. E is the sum of the following terms:
     one-electron contribution =    -599.39891887 Ry
     hartree contribution      =     338.55012825 Ry
     xc contribution           =    -101.64874085 Ry
     ewald contribution        =    -500.84936677 Ry
     one-center paw contrib.   =    -449.72800199 Ry
      -> PAW hartree energy AE =     128.78002781 Ry
      -> PAW hartree energy PS =    -125.91918529 Ry
      -> PAW xc energy AE      =    -469.51671154 Ry
      -> PAW xc energy PS      =      16.92786703 Ry
      -> total E_H with PAW    =     341.41097077 Ry
      -> total E_XC with PAW   =    -554.23758536 Ry

     convergence has been achieved in  96 iterations

     Forces acting on atoms (cartesian axes, Ry/au):

     atom    1 type  1   force =     0.00000000    0.00000000    0.00000000
     atom    2 type  2   force =     0.07592647    0.04525168    0.00000000
     atom    3 type  2   force =    -0.07592647   -0.04525168   -0.00000000
     atom    4 type  3   force =     0.00000000    0.00000000    0.00018305
     atom    5 type  3   force =     0.00000000    0.00000000   -0.00018305
     The non-local contrib.  to forces
     atom    1 type  1   force =     0.00000000    0.00000000    0.00000000
     atom    2 type  2   force =     0.03281403    0.01955519    0.00000000
     atom    3 type  2   force =    -0.03281403   -0.01955519   -0.00000000
     atom    4 type  3   force =     0.00000000    0.00000000   -0.00029185
     atom    5 type  3   force =     0.00000000    0.00000000    0.00029185
     The ionic contribution  to forces
     atom    1 type  1   force =     0.00000000    0.00000000    0.00000000
     atom    2 type  2   force =    -6.35028791   -3.77082267   -0.00000000
     atom    3 type  2   force =     6.35028791    3.77082267    0.00000000
     atom    4 type  3   force =    -0.00000000   -0.00000000    0.00000000
     atom    5 type  3   force =    -0.00000000    0.00000000   -0.00000000
     The local contribution  to forces
     atom    1 type  1   force =    -0.00020538   -0.00032307    0.00008249
     atom    2 type  2   force =     6.39679746    3.79853931   -0.00000435
     atom    3 type  2   force =    -6.39679878   -3.79852380   -0.00000471
     atom    4 type  3   force =    -0.00006219   -0.00030429    0.00054478
     atom    5 type  3   force =     0.00024285    0.00040699   -0.00053390
     The core correction contribution to forces
     atom    1 type  1   force =    -0.00000001   -0.00000001    0.00000000
     atom    2 type  2   force =    -0.00314737   -0.00185070    0.00000893
     atom    3 type  2   force =     0.00314745    0.00185095   -0.00000909
     atom    4 type  3   force =     0.00000024   -0.00000028    0.00000034
     atom    5 type  3   force =     0.00000173    0.00000121   -0.00000019
     The Hubbard contrib.    to forces
     atom    1 type  1   force =     0.00000000    0.00000000    0.00000000
     atom    2 type  2   force =     0.00000000    0.00000000    0.00000000
     atom    3 type  2   force =     0.00000000    0.00000000    0.00000000
     atom    4 type  3   force =     0.00000000    0.00000000    0.00000000
     atom    5 type  3   force =     0.00000000    0.00000000    0.00000000
     The SCF correction term to forces
     atom    1 type  1   force =     0.00012288    0.00022304   -0.00006173
     atom    2 type  2   force =    -0.00025022   -0.00016678    0.00000508
     atom    3 type  2   force =     0.00025049    0.00015636    0.00000032
     atom    4 type  3   force =    -0.00006053   -0.00001086   -0.00006940
     atom    5 type  3   force =    -0.00008636   -0.00008304    0.00006003

     Total force =     0.125001     Total SCF correction =     0.000522

     Computing stress (Cartesian axis) and pressure

          total   stress  (Ry/bohr**3)                   (kbar)     P=     -577.82
  -0.00401983  -0.00005011  -0.00000000         -591.34       -7.37       -0.00
  -0.00005011  -0.00395021  -0.00000000           -7.37     -581.10       -0.00
  -0.00000000  -0.00000000  -0.00381370           -0.00       -0.00     -561.01

     kinetic stress (kbar)  22861.19     83.35      0.00
                               83.35  22769.42      0.00
                                0.00      0.00  22725.32

     local   stress (kbar)   3396.01  16733.85      0.15
                            16733.85 -14848.52     -0.48
                                0.15     -0.48 -24805.17

     nonloc. stress (kbar)  12330.61   -129.16      0.00
                             -129.16  12474.92      0.00
                                0.00      0.00  12574.78

     hartree stress (kbar)  24451.33  -7975.69     -0.11
                            -7975.69  33146.88      0.18
                               -0.11      0.18  37890.15

     exc-cor stress (kbar)  -5416.12      0.52     -0.01
                                0.52  -5416.70     -0.00
                               -0.01     -0.00  -5416.99

     corecor stress (kbar)  -3056.85      5.35     -0.01
                                5.35  -3062.71     -0.01
                               -0.01     -0.01  -3066.01

     ewald   stress (kbar) -55157.51  -8725.59      0.00
                            -8725.59 -45644.39      0.00
                                0.00      0.00 -40463.10

     hubbard stress (kbar)      0.00      0.00      0.00
                                0.00      0.00      0.00
                                0.00      0.00      0.00

     DFT-D   stress (kbar)      0.00      0.00      0.00
                                0.00      0.00      0.00
                                0.00      0.00      0.00

     XDM     stress (kbar)      0.00      0.00      0.00
                                0.00      0.00      0.00
                                0.00      0.00      0.00

     dft-nl  stress (kbar)      0.00      0.00      0.00
                                0.00      0.00      0.00
                                0.00      0.00      0.00

     TS-vdW  stress (kbar)      0.00      0.00      0.00
                                0.00      0.00      0.00
                                0.00      0.00      0.00

[...]

                                0.00      0.00      0.00

     Writing all to output data dir new_calculations/myprefix.save/

     General routines

     Parallel routines

     PAW routines

   This run was terminated on:  15: 2:51  21May2023

   JOB DONE.