     Program PWSCF v.7.0 starts on 20May2023 at 22: 6:23

     Reading input from espresso_21268.pwi
Warning: card &CELL ignored
Warning: card / ignored

     Current dimensions of program PWSCF are:
     Max number of different atomic species (ntypx) = 10
     Max number of k-points (npk) =  40000
     Max angular momentum in pseudopotentials (lmaxx) =  4
     file Ga.pbe-dn-kjpaw_psl.1.0.0.UPF: wavefunction(s)  4S renormalized

     gamma-point specific algorithms are used
     Message from routine setup:
     using ibrav=0 with symmetry is DISCOURAGED, use correct ibrav instead

     Subspace diagonalization in iterative solution of the eigenvalue problem:
     a serial algorithm will be used

     Using Slab Decomposition

     bravais-lattice index     =            0
     lattice parameter (alat)  =      15.4098  a.u.
     unit-cell volume          =    1727.5867 (a.u.)^3
     number of atoms/cell      =           14
     number of atomic types    =            3
     number of electrons       =       188.00
     number of Kohn-Sham states=          113
     kinetic-energy cutoff     =      30.0000  Ry
     charge density cutoff     =     240.0000  Ry
     scf convergence threshold =      1.0E-06
     mixing beta               =       0.7000
     number of iterations used =            8  plain     mixing
     Exchange-correlation= SLA  PW   PBE  PBE
                           (   1   4   3   4   0   0   0)

     celldm(1)=  15.409849  celldm(2)=   0.000000  celldm(3)=   0.000000
     celldm(4)=   0.000000  celldm(5)=   0.000000  celldm(6)=   0.000000

     crystal axes: (cart. coord. in units of alat)
               a(1) = (   1.000000   0.000000   0.000000 )
               a(2) = (   0.113103   0.993583   0.000000 )
               a(3) = (  -0.245865  -0.844851   0.475161 )

     reciprocal axes: (cart. coord. in units 2 pi/alat)
               b(1) = (  1.000000 -0.113833  0.315037 )
               b(2) = (  0.000000  1.006458  1.789515 )
               b(3) = (  0.000000  0.000000  2.104551 )

     PseudoPot. # 1 for Y  read from file:
     /home/pragov/projects/rrg-bengioy-ad/pragov/crystal_structure_design/SSSP/Y_pbe_v1.uspp.F.UPF
     MD5 check sum: 2cf71db95cafeb975fc457bd7f14888e
     Pseudo is Ultrasoft + core correction, Zval = 11.0
     Generated by new atomic code, or converted to UPF format
     Using radial grid of  885 points,  6 beta functions with:
                l(1) =   0
                l(2) =   0
                l(3) =   1
                l(4) =   1
                l(5) =   2
                l(6) =   2
     Q(r) pseudized with  6 coefficients,  rinner =    1.200   1.200   1.200
                                                       1.200   1.200

     PseudoPot. # 2 for Ga read from file:
     /home/pragov/projects/rrg-bengioy-ad/pragov/crystal_structure_design/SSSP/Ga.pbe-dn-kjpaw_psl.1.0.0.UPF
     MD5 check sum: a27b4342b1af7e5f338de752e9ed7044
     Pseudo is Projector augmented-wave + core cor, Zval = 13.0
     Generated using "atomic" code by A. Dal Corso  v.5.1
     Shape of augmentation charge: PSQ
     Using radial grid of 1205 points,  6 beta functions with:
                l(1) =   0
                l(2) =   0
                l(3) =   1
                l(4) =   1
                l(5) =   2
                l(6) =   2
     Q(r) pseudized with 0 coefficients

     PseudoPot. # 3 for Cu read from file:
     /home/pragov/projects/rrg-bengioy-ad/pragov/crystal_structure_design/SSSP/Cu_pbe_v1.2.uspp.F.UPF
     MD5 check sum: 6e991ff952a84172a2a52a1c1e996048
     Pseudo is Ultrasoft + core correction, Zval = 19.0
     Generated by new atomic code, or converted to UPF format
     Using radial grid of  867 points,  6 beta functions with:
                l(1) =   0
                l(2) =   0
                l(3) =   1
                l(4) =   1
                l(5) =   2
                l(6) =   2
     Q(r) pseudized with  8 coefficients,  rinner =    1.150   1.150   1.150
                                                       1.150   1.150

     atomic species   valence    mass     pseudopotential
        Y             11.00    88.90584     Y ( 1.00)
        Ga            13.00    69.72300     Ga( 1.00)
        Cu            19.00    63.54600     Cu( 1.00)

      2 Sym. Ops., with inversion, found

                                    s                        frac. trans.

      isym =  1     identity

 cryst.   s( 1) = (     1          0          0      )
                  (     0          1          0      )
                  (     0          0          1      )

 cart.    s( 1) = (  1.0000000  0.0000000  0.0000000 )
                  (  0.0000000  1.0000000 -0.0000000 )
                  (  0.0000000  0.0000000  1.0000000 )

      isym =  2     inversion

 cryst.   s( 2) = (    -1          0          0      )
                  (     0         -1          0      )
                  (     0          0         -1      )

 cart.    s( 2) = ( -1.0000000 -0.0000000 -0.0000000 )
                  (  0.0000000 -1.0000000  0.0000000 )
                  (  0.0000000  0.0000000 -1.0000000 )

   Cartesian axes

     site n.     atom                  positions (alat units)
         1           Y   tau(   1) = (   0.3519965   0.3142008   0.0000000  )
         2           Y   tau(   2) = (   0.7611063   0.6793824   0.0000000  )
         3           Y   tau(   3) = (   0.0000000   0.0000000   0.0000000  )
         4           Ga  tau(   4) = (   0.6600995   0.0255006   0.1764533  )
         5           Ga  tau(   5) = (   0.2071380   0.1232320   0.2987074  )
         6           Ga  tau(   6) = (   0.8541318  -0.1918710   0.2987074  )
         7           Ga  tau(   7) = (   0.0131057   0.3406036   0.1764533  )
         8           Ga  tau(   8) = (   0.3576468  -0.1037354   0.1323992  )
         9           Ga  tau(   9) = (   0.5095908   0.2524680   0.3427614  )
        10           Ga  tau(  10) = (   0.6915158  -0.4777660   0.3427614  )
        11           Ga  tau(  11) = (   0.1757217   0.6264986   0.1323992  )
        12           Ga  tau(  12) = (   0.4901702   0.5711580   0.2375803  )
        13           Cu  tau(  13) = (   0.7163465   0.3177745   0.1006827  )
        14           Cu  tau(  14) = (   0.1508910  -0.1690419   0.3744779  )

   Crystallographic axes

     site n.     atom                  positions (cryst. coord.)
         1           Y   tau(   1) = (  0.3162300  0.3162300  0.0000000  )
         2           Y   tau(   2) = (  0.6837700  0.6837700  0.0000000  )
         3           Y   tau(   3) = (  0.0000000  0.0000000  0.0000000  )
         4           Ga  tau(   4) = (  0.7127860  0.3414310  0.3713550  )
         5           Ga  tau(   5) = (  0.2872140  0.6585690  0.6286450  )
         6           Ga  tau(   6) = (  0.9700770  0.3414310  0.6286450  )
         7           Ga  tau(   7) = (  0.0299230  0.6585690  0.3713550  )
         8           Ga  tau(   8) = (  0.4111660  0.1325250  0.2786410  )
         9           Ga  tau(   9) = (  0.5888340  0.8674750  0.7213590  )
        10           Ga  tau(  10) = (  0.8538840  0.1325250  0.7213590  )
        11           Ga  tau(  11) = (  0.1461160  0.8674750  0.2786410  )
        12           Ga  tau(  12) = (  0.5000000  1.0000000  0.5000000  )
        13           Cu  tau(  13) = (  0.7118920  0.5000000  0.2118920  )
        14           Cu  tau(  14) = (  0.2881080  0.5000000  0.7881080  )

     number of k points=     1  Methfessel-Paxton smearing, width (Ry)=  0.0010
                       cart. coord. in units 2pi/alat
        k(    1) = (   0.0000000   0.0000000   0.0000000), wk =   2.0000000

                       cryst. coord.
        k(    1) = (   0.0000000   0.0000000   0.0000000), wk =   2.0000000

     Check: negative core charge=   -0.000004

     Initial potential from superposition of free atoms

     starting charge     185.9600, renormalised to     188.0000

     negative rho (up, down):  1.295E-01 0.000E+00
     Starting wfcs are  146 randomized atomic wfcs
     Checking if some PAW data can be deallocated...

     Self-consistent Calculation

     iteration #  1     ecut=    30.00 Ry     beta= 0.70
     Davidson diagonalization with overlap

     ethr =  1.00E-02,  avg # of iterations =  2.0

     negative rho (up, down):  1.206E-01 0.000E+00

     total energy              =   -3566.04729683 Ry
     estimated scf accuracy    <       5.88911826 Ry

[...]

     c_bands:  1 eigenvalues not converged
     ethr =  1.47E-05,  avg # of iterations = 20.0

[...]

     total energy              =   -3569.79045413 Ry
     estimated scf accuracy    <       0.00000170 Ry

     iteration # 23     ecut=    30.00 Ry     beta= 0.70
     Davidson diagonalization with overlap

     ethr =  9.03E-10,  avg # of iterations =  1.0

[...]

     End of self-consistent calculation

          k = 0.0000 0.0000 0.0000 (  2394 PWs)   bands (ev):

  -101.7698-101.7569 -59.1554 -59.0491 -58.9770 -58.9434 -58.9051 -58.4832
   -29.9964 -29.8411 -29.5520 -10.9173 -10.5491 -10.4723 -10.1550  -9.9967
    -9.9679  -9.9482  -9.8118  -9.7291  -3.7944  -3.7573  -3.7474  -3.7173
    -3.7041  -3.6963  -3.6857  -3.6532  -3.6387  -3.6375  -3.5945  -3.5765
    -3.5597  -3.5427  -3.5375  -3.5313  -3.5035  -3.4765  -3.4517  -3.4293
    -3.4266  -3.4213  -3.4207  -3.3238  -3.2684  -3.2286  -3.2063  -3.2039
    -3.1862  -3.1666  -3.1657  -3.1519  -3.1506  -3.1420  -3.1242  -3.1234
    -3.1015  -3.0947  -3.0683  -3.0206  -3.0050  -2.9603  -2.9315  -2.8810
    -2.8768   1.3208   3.1051   3.3115   4.2849   4.4331   5.7283   6.8810
     7.1125   7.2175   8.0067   8.0628   8.2081   8.2209   8.2641   8.2981
     8.4384   8.5114   8.7450   8.8226   9.9381  10.3860  10.8069  10.8827
    11.1762  11.3936  11.4231  11.9123  12.4319  12.5296  12.5362  13.5536
    13.5709  13.6064  13.7471  14.2692  14.3197  14.4086  14.4121  14.4275
    14.6797  14.7450  14.7608  15.1732  15.3402  15.4376  15.9922  16.0469
    16.3313

     occupation numbers
     1.0000   1.0000   1.0000   1.0000   1.0000   1.0000   1.0000   1.0000
     1.0000   1.0000   1.0000   1.0000   1.0000   1.0000   1.0000   1.0000
     1.0000   1.0000   1.0000   1.0000   1.0000   1.0000   1.0000   1.0000
     1.0000   1.0000   1.0000   1.0000   1.0000   1.0000   1.0000   1.0000
     1.0000   1.0000   1.0000   1.0000   1.0000   1.0000   1.0000   1.0000
     1.0000   1.0000   1.0000   1.0000   1.0000   1.0000   1.0000   1.0000
     1.0000   1.0000   1.0000   1.0000   1.0000   1.0000   1.0000   1.0000
     1.0000   1.0000   1.0000   1.0000   1.0000   1.0000   1.0000   1.0000
     1.0000   1.0000   1.0000   1.0000   1.0000   1.0000   1.0000   1.0000
     1.0000   1.0000   1.0000   1.0000   1.0000   1.0000   1.0000   1.0000
     1.0000   1.0000   1.0000   1.0000   1.0000   1.0000   1.0000   1.0000
     1.0000   1.0000   1.0000   1.0000   1.0000   0.6998   0.3002  -0.0000
    -0.0000  -0.0000  -0.0000  -0.0000  -0.0000  -0.0000  -0.0000  -0.0000
    -0.0000  -0.0000  -0.0000  -0.0000  -0.0000  -0.0000  -0.0000  -0.0000
    -0.0000

     the Fermi energy is    12.5329 ev

!    total energy              =   -3569.79045412 Ry
     estimated scf accuracy    <       0.00000013 Ry
     smearing contrib. (-TS)   =      -0.00046830 Ry
     internal energy E=F+TS    =   -3569.78998582 Ry

     The total energy is F=E-TS. E is the sum of the following terms:
     one-electron contribution =   -1624.66405513 Ry
     hartree contribution      =     971.93015578 Ry
     xc contribution           =    -486.27888104 Ry
     ewald contribution        =   -1433.09374429 Ry
     one-center paw contrib.   =    -997.68346115 Ry
      -> PAW hartree energy AE =    1277.19434860 Ry
      -> PAW hartree energy PS =   -1256.48554796 Ry
      -> PAW xc energy AE      =   -1357.31757416 Ry
      -> PAW xc energy PS      =     338.92531237 Ry
      -> total E_H with PAW    =     992.63895642 Ry
      -> total E_XC with PAW   =   -1504.67114283 Ry

     convergence has been achieved in  23 iterations

     negative rho (up, down):  1.163E-01 0.000E+00

     Forces acting on atoms (cartesian axes, Ry/au):

     atom    1 type  1   force =     0.00266944    0.00481957    0.01695349
     atom    2 type  1   force =    -0.00266944   -0.00481957   -0.01695349
     atom    3 type  1   force =     0.00000000    0.00000000    0.00000000
     atom    4 type  2   force =    -0.01064299   -0.04666618    0.01232905
     atom    5 type  2   force =     0.01064299    0.04666618   -0.01232905
     atom    6 type  2   force =    -0.03286797    0.00613441    0.00086616
     atom    7 type  2   force =     0.03286797   -0.00613441   -0.00086616
     atom    8 type  2   force =     0.03054723    0.00865600    0.02439408
     atom    9 type  2   force =    -0.03054723   -0.00865600   -0.02439408
     atom   10 type  2   force =     0.00199415    0.04550872    0.00224244
     atom   11 type  2   force =    -0.00199415   -0.04550872   -0.00224244
     atom   12 type  2   force =     0.00000000    0.00000000    0.00000000
     atom   13 type  3   force =    -0.01218613    0.02078571    0.00139596
     atom   14 type  3   force =     0.01218613   -0.02078571   -0.00139596
     The non-local contrib.  to forces
     atom    1 type  1   force =    -0.05314375   -0.05374723    0.01187654
     atom    2 type  1   force =     0.05314375    0.05374723   -0.01187654
     atom    3 type  1   force =     0.00000000    0.00000000    0.00000000
     atom    4 type  2   force =    -0.06761421    0.25491337   -0.08594071
     atom    5 type  2   force =     0.06761421   -0.25491337    0.08594071
     atom    6 type  2   force =     0.24247810   -0.06209296    0.11402534
     atom    7 type  2   force =    -0.24247810    0.06209296   -0.11402534
     atom    8 type  2   force =    -0.25847084   -0.05707160   -0.03764073
     atom    9 type  2   force =     0.25847084    0.05707160    0.03764073
     atom   10 type  2   force =    -0.10358206   -0.22410805    0.04868462
     atom   11 type  2   force =     0.10358206    0.22410805   -0.04868462
     atom   12 type  2   force =     0.00000000    0.00000000    0.00000000
     atom   13 type  3   force =     0.15734136   -0.19389547    0.08349542
     atom   14 type  3   force =    -0.15734136    0.19389547   -0.08349542
     The ionic contribution  to forces
     atom    1 type  1   force =    -6.20465474   -5.53842217    0.00000580
     atom    2 type  1   force =     6.20465474    5.53842217   -0.00000580
     atom    3 type  1   force =     0.00000000    0.00000000   -0.00000000
     atom    4 type  2   force =     1.93959845  -11.64687698    4.18759251
     atom    5 type  2   force =    -1.93959845   11.64687698   -4.18759251
     atom    6 type  2   force =   -11.35295223    3.24445115   -4.18761634
     atom    7 type  2   force =    11.35295223   -3.24445115    4.18761634
     atom    8 type  2   force =     7.22405809    8.35632694   -0.59721862
     atom    9 type  2   force =    -7.22405809   -8.35632694    0.59721862
     atom   10 type  2   force =     9.11975166    6.23264666    0.59722566
     atom   11 type  2   force =    -9.11975166   -6.23264666   -0.59722566
     atom   12 type  2   force =    -0.00000000   -0.00000000   -0.00000000
     atom   13 type  3   force =    -0.97484552    1.09193784   -0.61418131
     atom   14 type  3   force =     0.97484552   -1.09193784    0.61418131
     The local contribution  to forces
     atom    1 type  1   force =     6.25538263    5.59359856    0.00753553
     atom    2 type  1   force =    -6.25516709   -5.59340430   -0.00754484
     atom    3 type  1   force =    -0.00038684   -0.00001022   -0.00010495
     atom    4 type  2   force =    -1.88369849   11.34880923   -4.09086057
     atom    5 type  2   force =     1.88387107  -11.34877743    4.09090368
     atom    6 type  2   force =    11.08067732   -3.17767381    4.07621520
     atom    7 type  2   force =   -11.08123037    3.17772826   -4.07638912
     atom    8 type  2   force =    -6.93946237   -8.29209526    0.66018700
     atom    9 type  2   force =     6.94014565    8.29176999   -0.65989715
     atom   10 type  2   force =    -9.01776104   -5.96530237   -0.64390586
     atom   11 type  2   force =     9.01748167    5.96534860    0.64382847
     atom   12 type  2   force =     0.00023096    0.00003491    0.00005818
     atom   13 type  3   force =     0.80435187   -0.87645304    0.53150707
     atom   14 type  3   force =    -0.80422354    0.87605273   -0.53134844
     The core correction contribution to forces
     atom    1 type  1   force =     0.00535970    0.00354204   -0.00243955
     atom    2 type  1   force =    -0.00535773   -0.00353917    0.00243895
     atom    3 type  1   force =    -0.00000252   -0.00000095   -0.00000066
     atom    4 type  2   force =     0.00043349   -0.00381999    0.00145209
     atom    5 type  2   force =    -0.00043368    0.00382136   -0.00145236
     atom    6 type  2   force =    -0.00380719    0.00089214   -0.00179612
     atom    7 type  2   force =     0.00380679   -0.00089330    0.00179634
     atom    8 type  2   force =     0.00520485    0.00160911   -0.00075453
     atom    9 type  2   force =    -0.00520307   -0.00161130    0.00075556
     atom   10 type  2   force =     0.00338617    0.00262266    0.00008215
     atom   11 type  2   force =    -0.00338669   -0.00262216   -0.00008201
     atom   12 type  2   force =     0.00000082    0.00000044    0.00000018
     atom   13 type  3   force =    -0.00022802    0.00028278   -0.00009507
     atom   14 type  3   force =     0.00022806   -0.00028289    0.00009506
     The Hubbard contrib.    to forces
     atom    1 type  1   force =     0.00000000    0.00000000    0.00000000
     atom    2 type  1   force =     0.00000000    0.00000000    0.00000000
     atom    3 type  1   force =     0.00000000    0.00000000    0.00000000
     atom    4 type  2   force =     0.00000000    0.00000000    0.00000000
     atom    5 type  2   force =     0.00000000    0.00000000    0.00000000
     atom    6 type  2   force =     0.00000000    0.00000000    0.00000000
     atom    7 type  2   force =     0.00000000    0.00000000    0.00000000
     atom    8 type  2   force =     0.00000000    0.00000000    0.00000000
     atom    9 type  2   force =     0.00000000    0.00000000    0.00000000
     atom   10 type  2   force =     0.00000000    0.00000000    0.00000000
     atom   11 type  2   force =     0.00000000    0.00000000    0.00000000
     atom   12 type  2   force =     0.00000000    0.00000000    0.00000000
     atom   13 type  3   force =     0.00000000    0.00000000    0.00000000
     atom   14 type  3   force =     0.00000000    0.00000000    0.00000000
     The SCF correction term to forces
     atom    1 type  1   force =    -0.00026136   -0.00013870   -0.00002851
     atom    2 type  1   force =     0.00006995   -0.00003256    0.00003105
     atom    3 type  1   force =     0.00035815    0.00000987    0.00009564
     atom    4 type  2   force =     0.00063264    0.00030995    0.00008068
     atom    5 type  2   force =    -0.00081528   -0.00033959   -0.00013361
     atom    6 type  2   force =     0.00074844    0.00054132    0.00004664
     atom    7 type  2   force =    -0.00017016   -0.00062774    0.00014416
     atom    8 type  2   force =    -0.00080280   -0.00010739   -0.00019121
     atom    9 type  2   force =     0.00007716    0.00044644   -0.00012402
     atom   10 type  2   force =     0.00020265   -0.00035812    0.00015840
     atom   11 type  2   force =     0.00008372    0.00029552   -0.00007606
     atom   12 type  2   force =    -0.00025633   -0.00003425   -0.00006835
     atom   13 type  3   force =     0.00116928   -0.00104524    0.00065331
     atom   14 type  3   force =    -0.00134746    0.00152797   -0.00084500

     Total force =     0.127633     Total SCF correction =     0.003444

     Computing stress (Cartesian axis) and pressure

     negative rho (up, down):  1.163E-01 0.000E+00
          total   stress  (Ry/bohr**3)                   (kbar)     P=     -121.08
  -0.00073014   0.00024571   0.00031487         -107.41       36.15       46.32
   0.00024571  -0.00080481   0.00014065           36.15     -118.39       20.69
   0.00031487   0.00014065  -0.00093440           46.32       20.69     -137.46

     kinetic stress (kbar)  16028.80     88.87      1.79
                               88.87  16016.60     33.21
                                1.79     33.21  16015.18

     local   stress (kbar)  -1022.44  -3062.77   3691.63
                            -3062.77   -319.98  -4125.91
                             3691.63  -4125.91  -8445.04

     nonloc. stress (kbar)   9561.33    -15.89     67.92
                              -15.89   9559.10    -36.60
                               67.92    -36.60   9444.03

     hartree stress (kbar)  26536.02   1483.40  -1762.88
                             1483.40  26189.74   1964.46
                            -1762.88   1964.46  30034.68

     exc-cor stress (kbar)   5014.21      0.96     -0.66
                                0.96   5013.96      0.42
                               -0.66      0.42   5014.06

     corecor stress (kbar) -14324.46      0.73     -1.31
                                0.73 -14326.03      0.32
                               -1.31      0.32 -14324.23

     ewald   stress (kbar) -41900.89   1540.84  -1950.17
                             1540.84 -42251.78   2184.79
                            -1950.17   2184.79 -37876.15

     hubbard stress (kbar)      0.00      0.00      0.00
                                0.00      0.00      0.00
                                0.00      0.00      0.00

     DFT-D   stress (kbar)      0.00      0.00      0.00
                                0.00      0.00      0.00
                                0.00      0.00      0.00

     XDM     stress (kbar)      0.00      0.00      0.00
                                0.00      0.00      0.00
                                0.00      0.00      0.00

     dft-nl  stress (kbar)      0.00      0.00      0.00
                                0.00      0.00      0.00
                                0.00      0.00      0.00

     TS-vdW  stress (kbar)      0.00      0.00      0.00
                                0.00      0.00      0.00
                                0.00      0.00      0.00

[...]

                                0.00      0.00      0.00

     Writing all to output data dir new_calculations/myprefix.save/

     General routines

     Parallel routines

     PAW routines

   This run was terminated on:  22: 7:55  20May2023

   JOB DONE.