     Program PWSCF v.7.0 starts on 20May2023 at 13:57:13

     Reading input from espresso_13445.pwi
Warning: card &CELL ignored
Warning: card / ignored

     Current dimensions of program PWSCF are:
     Max number of different atomic species (ntypx) = 10
     Max number of k-points (npk) =  40000
     Max angular momentum in pseudopotentials (lmaxx) =  4

     gamma-point specific algorithms are used
     Message from routine setup:
     using ibrav=0 with symmetry is DISCOURAGED, use correct ibrav instead

     Subspace diagonalization in iterative solution of the eigenvalue problem:
     a serial algorithm will be used

     Using Slab Decomposition

     bravais-lattice index     =            0
     lattice parameter (alat)  =      13.6366  a.u.
     unit-cell volume          =    2976.6159 (a.u.)^3
     number of atoms/cell      =           19
     number of atomic types    =            4
     number of electrons       =       176.00
     number of Kohn-Sham states=          106
     kinetic-energy cutoff     =      30.0000  Ry
     charge density cutoff     =     240.0000  Ry
     scf convergence threshold =      1.0E-06
     mixing beta               =       0.7000
     number of iterations used =            8  plain     mixing
     Exchange-correlation= SLA  PW   PBE  PBE
                           (   1   4   3   4   0   0   0)

     celldm(1)=  13.636592  celldm(2)=   0.000000  celldm(3)=   0.000000
     celldm(4)=   0.000000  celldm(5)=   0.000000  celldm(6)=   0.000000

     crystal axes: (cart. coord. in units of alat)
               a(1) = (   1.000000   0.000000   0.000000 )
               a(2) = (   0.886343   0.463030   0.000000 )
               a(3) = (   0.903573   0.221795   2.535106 )

     reciprocal axes: (cart. coord. in units 2 pi/alat)
               b(1) = (  1.000000 -1.914223 -0.188950 )
               b(2) = (  0.000000  2.159687 -0.188950 )
               b(3) = (  0.000000  0.000000  0.394461 )

     PseudoPot. # 1 for Ta read from file:
     /home/pragov/projects/rrg-bengioy-ad/pragov/crystal_structure_design/SSSP/Ta_pbe_v1.uspp.F.UPF
     MD5 check sum: f8bbe9446314a3b8ea5d9f3e3836c939
     Pseudo is Ultrasoft + core correction, Zval = 13.0
     Generated by new atomic code, or converted to UPF format
     Using radial grid of  921 points,  7 beta functions with:
                l(1) =   0
                l(2) =   0
                l(3) =   1
                l(4) =   1
                l(5) =   2
                l(6) =   2
                l(7) =   3
     Q(r) pseudized with  6 coefficients,  rinner =    1.300   1.300   1.300
                                                       1.300   1.300   1.300
                                                       1.300

     PseudoPot. # 2 for Co read from file:
     /home/pragov/projects/rrg-bengioy-ad/pragov/crystal_structure_design/SSSP/Co_pbe_v1.2.uspp.F.UPF
     MD5 check sum: 5f91765df6ddd3222702df6e7b74a16d
     Pseudo is Ultrasoft + core correction, Zval = 17.0
     Generated by new atomic code, or converted to UPF format
     Using radial grid of  863 points,  6 beta functions with:
                l(1) =   0
                l(2) =   0
                l(3) =   1
                l(4) =   1
                l(5) =   2
                l(6) =   2
     Q(r) pseudized with  8 coefficients,  rinner =    1.200   1.200   1.200
                                                       1.200   1.200

     PseudoPot. # 3 for Pd read from file:
     /home/pragov/projects/rrg-bengioy-ad/pragov/crystal_structure_design/SSSP/Pd_ONCV_PBE-1.0.oncvpsp.upf
     MD5 check sum: eb77f42b51d86fb18e25f68156a31cf1
     Pseudo is Norm-conserving, Zval = 18.0
     Generated using ONCVPSP code by D. R. Hamann
     Using radial grid of 1410 points,  6 beta functions with:
                l(1) =   0
                l(2) =   0
                l(3) =   1
                l(4) =   1
                l(5) =   2
                l(6) =   2

     PseudoPot. # 4 for Se read from file:
     /home/pragov/projects/rrg-bengioy-ad/pragov/crystal_structure_design/SSSP/Se_pbe_v1.uspp.F.UPF
     MD5 check sum: 1b3568f3a8ae88f9a2a0ad0698632c85
     Pseudo is Ultrasoft + core correction, Zval =  6.0
     Generated by new atomic code, or converted to UPF format
     Using radial grid of  877 points,  6 beta functions with:
                l(1) =   0
                l(2) =   0
                l(3) =   1
                l(4) =   1
                l(5) =   2
                l(6) =   2
     Q(r) pseudized with  8 coefficients,  rinner =    1.300   1.300   1.300
                                                       1.300   1.300

     atomic species   valence    mass     pseudopotential
        Ta            13.00   180.94788     Ta( 1.00)
        Co            17.00    58.93319     Co( 1.00)
        Pd            18.00   106.42000     Pd( 1.00)
        Se             6.00    78.97100     Se( 1.00)

      2 Sym. Ops., with inversion, found

                                    s                        frac. trans.

      isym =  1     identity

 cryst.   s( 1) = (     1          0          0      )
                  (     0          1          0      )
                  (     0          0          1      )

 cart.    s( 1) = (  1.0000000  0.0000000 -0.0000000 )
                  (  0.0000000  1.0000000  0.0000000 )
                  (  0.0000000  0.0000000  1.0000000 )

      isym =  2     inversion

 cryst.   s( 2) = (    -1          0          0      )
                  (     0         -1          0      )
                  (     0          0         -1      )

 cart.    s( 2) = ( -1.0000000 -0.0000000  0.0000000 )
                  (  0.0000000 -1.0000000 -0.0000000 )
                  (  0.0000000  0.0000000 -1.0000000 )

   Cartesian axes

     site n.     atom                  positions (alat units)
         1           Ta  tau(   1) = (   1.9445576   0.4773197   2.1526194  )
         2           Ta  tau(   2) = (   0.8453585   0.2075054   0.3824867  )
         3           Ta  tau(   3) = (   1.9443157   0.4772603   1.5057009  )
         4           Ta  tau(   4) = (   0.8456003   0.2075648   1.0294052  )
         5           Co  tau(   5) = (   1.0794860   0.2649754   1.8145656  )
         6           Co  tau(   6) = (   1.7104300   0.4198497   0.7205405  )
         7           Pd  tau(   7) = (   0.0000000   0.0000000   0.0000000  )
         8           Se  tau(   8) = (   2.6336991   0.6464794   2.2323713  )
         9           Se  tau(   9) = (   0.1562169   0.0383457   0.3027348  )
        10           Se  tau(  10) = (   1.5359340   0.3770171   0.9994985  )
        11           Se  tau(  11) = (   1.2539820   0.3078079   1.5356076  )
        12           Se  tau(  12) = (   0.7562184   0.1856247   1.3952286  )
        13           Se  tau(  13) = (   2.0336976   0.4992004   1.1398775  )
        14           Se  tau(  14) = (   2.2121815   0.5430118   1.9365067  )
        15           Se  tau(  15) = (   0.5777345   0.1418133   0.5985994  )
        16           Se  tau(  16) = (   1.1855386   0.2910075   2.3485020  )
        17           Se  tau(  17) = (   1.6043775   0.3938176   0.1866041  )
        18           Se  tau(  18) = (   1.7928185   0.4400731   1.8224320  )
        19           Se  tau(  19) = (   0.9970975   0.2447520   0.7126741  )

   Crystallographic axes

     site n.     atom                  positions (cryst. coord.)
         1           Ta  tau(   1) = (  0.6241240  0.6241240  0.8491240  )
         2           Ta  tau(   2) = (  0.3758760  0.3758760  0.1508760  )
         3           Ta  tau(   3) = (  0.7462310  0.7462310  0.5939400  )
         4           Ta  tau(   4) = (  0.2537690  0.2537690  0.4060600  )
         5           Co  tau(   5) = (  0.2294020  0.2294020  0.7157750  )
         6           Co  tau(   6) = (  0.7705980  0.7705980  0.2842250  )
         7           Pd  tau(   7) = (  0.0000000  0.0000000  0.0000000  )
         8           Se  tau(   8) = (  0.9743870  0.9743870  0.8805830  )
         9           Se  tau(   9) = (  0.0256130  0.0256130  0.1194170  )
        10           Se  tau(  10) = (  0.6253840  0.6253840  0.3942630  )
        11           Se  tau(  11) = (  0.3746160  0.3746160  0.6057370  )
        12           Se  tau(  12) = (  0.1372630  0.1372630  0.5503630  )
        13           Se  tau(  13) = (  0.8627370  0.8627370  0.4496370  )
        14           Se  tau(  14) = (  0.8068330  0.8068330  0.7638760  )
        15           Se  tau(  15) = (  0.1931670  0.1931670  0.2361240  )
        16           Se  tau(  16) = (  0.1847360  0.1847360  0.9263920  )
        17           Se  tau(  17) = (  0.8152640  0.8152640  0.0736080  )
        18           Se  tau(  18) = (  0.6060720  0.6060720  0.7188780  )
        19           Se  tau(  19) = (  0.3939280  0.3939280  0.2811220  )

     number of k points=     1  Methfessel-Paxton smearing, width (Ry)=  0.0010
                       cart. coord. in units 2pi/alat
        k(    1) = (   0.0000000   0.0000000   0.0000000), wk =   2.0000000

                       cryst. coord.
        k(    1) = (   0.0000000   0.0000000   0.0000000), wk =   2.0000000

     Check: negative core charge=   -0.000003

     Initial potential from superposition of free atoms

     starting charge     173.9943, renormalised to     176.0000

     negative rho (up, down):  3.806E-01 0.000E+00
     Starting wfcs are  136 randomized atomic wfcs

     Self-consistent Calculation

     iteration #  1     ecut=    30.00 Ry     beta= 0.70
     Davidson diagonalization with overlap

     ethr =  1.00E-02,  avg # of iterations =  3.0

     negative rho (up, down):  3.748E-01 0.000E+00

     total energy              =   -1770.80364878 Ry
     estimated scf accuracy    <     192.83952345 Ry

[...]

     total energy              =   -1940.04325756 Ry
     estimated scf accuracy    <       0.00000240 Ry

     iteration # 49     ecut=    30.00 Ry     beta= 0.70
     Davidson diagonalization with overlap

     ethr =  1.36E-09,  avg # of iterations =  1.0

[...]

     End of self-consistent calculation

          k = 0.0000 0.0000 0.0000 (  4142 PWs)   bands (ev):

   -86.5449 -86.5447 -76.9543 -59.8501 -59.8495 -59.4169 -59.4168 -50.1091
   -50.1086 -49.7435 -49.7424 -49.6007 -49.6006 -42.6238 -42.5618 -41.8495
   -26.6559 -26.6392 -26.3376 -26.3340 -26.1966 -26.1963 -26.0458 -26.0425
   -25.9231 -25.9230 -25.5893 -25.5892  -6.3956  -6.2558  -5.6502  -5.3039
    -5.2255  -5.0330  -4.9723  -4.6514  -4.5606  -4.4987  -4.1913  -4.1815
     2.1815   2.3855   2.4633   2.6573   3.0370   3.3049   3.3306   3.3794
     3.8342   3.9522   4.2392   4.2971   4.4246   4.8174   4.9020   4.9220
     5.4091   5.4428   5.6174   5.6309   5.6632   5.8160   5.9409   5.9477
     6.0869   6.0965   6.1659   6.2763   6.3715   6.5253   6.6629   6.7933
     6.8523   6.8537   6.8925   7.0860   7.1787   7.2900   7.3095   7.3382
     7.4453   7.5147   7.5669   7.7283   7.9878   8.1013   8.2891   8.3400
     8.3596   8.4944   8.9252   9.4298   9.7715   9.8142   9.8223   9.9261
    10.0099  10.4808  10.5978  10.8534  10.9198  11.5433  11.6275  11.6640
    11.9016  11.9200

     occupation numbers
     1.0000   1.0000   1.0000   1.0000   1.0000   1.0000   1.0000   1.0000
     1.0000   1.0000   1.0000   1.0000   1.0000   1.0000   1.0000   1.0000
     1.0000   1.0000   1.0000   1.0000   1.0000   1.0000   1.0000   1.0000
     1.0000   1.0000   1.0000   1.0000   1.0000   1.0000   1.0000   1.0000
     1.0000   1.0000   1.0000   1.0000   1.0000   1.0000   1.0000   1.0000
     1.0000   1.0000   1.0000   1.0000   1.0000   1.0000   1.0000   1.0000
     1.0000   1.0000   1.0000   1.0000   1.0000   1.0000   1.0000   1.0000
     1.0000   1.0000   1.0000   1.0000   1.0000   1.0000   1.0000   1.0000
     1.0000   1.0000   1.0000   1.0000   1.0000   1.0000   1.0000   1.0000
     1.0000   1.0000   1.0000   1.0000   1.0000   1.0000   1.0000   1.0000
     1.0000   1.0000   1.0000   1.0000   1.0000   1.0000   1.0000   0.9669
     0.0331  -0.0000  -0.0000  -0.0000  -0.0000  -0.0000  -0.0000  -0.0000
    -0.0000  -0.0000  -0.0000  -0.0000  -0.0000  -0.0000  -0.0000  -0.0000
    -0.0000  -0.0000

     the Fermi energy is     8.3498 ev

!    total energy              =   -1940.04325754 Ry
     estimated scf accuracy    <       0.00000010 Ry
     smearing contrib. (-TS)   =       0.00001297 Ry
     internal energy E=F+TS    =   -1940.04327051 Ry

     The total energy is F=E-TS. E is the sum of the following terms:
     one-electron contribution =   -1335.24107481 Ry
     hartree contribution      =     728.66001980 Ry
     xc contribution           =    -616.03189498 Ry
     ewald contribution        =    -717.43032053 Ry

     convergence has been achieved in  49 iterations

     negative rho (up, down):  3.777E-01 0.000E+00

     Forces acting on atoms (cartesian axes, Ry/au):

     atom    1 type  1   force =     0.01037405    0.00254641    0.01845084
     atom    2 type  1   force =    -0.01037405   -0.00254641   -0.01845084
     atom    3 type  1   force =     0.02575951    0.00632248   -0.06594634
     atom    4 type  1   force =    -0.02575951   -0.00632248    0.06594634
     atom    5 type  2   force =     0.02683297    0.00658631   -0.01490361
     atom    6 type  2   force =    -0.02683297   -0.00658631    0.01490361
     atom    7 type  3   force =     0.00000000    0.00000000    0.00000000
     atom    8 type  4   force =     0.04877304    0.01197147    0.00307563
     atom    9 type  4   force =    -0.04877304   -0.01197147   -0.00307563
     atom   10 type  4   force =     0.04186402    0.01027556   -0.02569015
     atom   11 type  4   force =    -0.04186402   -0.01027556    0.02569015
     atom   12 type  4   force =    -0.00198396   -0.00048570   -0.02342432
     atom   13 type  4   force =     0.00198396    0.00048570    0.02342432
     atom   14 type  4   force =    -0.01279147   -0.00314008    0.03477258
     atom   15 type  4   force =     0.01279147    0.00314008   -0.03477258
     atom   16 type  4   force =    -0.05094489   -0.01250570   -0.00239963
     atom   17 type  4   force =     0.05094489    0.01250570    0.00239963
     atom   18 type  4   force =    -0.01111884   -0.00272982    0.00072694
     atom   19 type  4   force =     0.01111884    0.00272982   -0.00072694
     The non-local contrib.  to forces
     atom    1 type  1   force =    -0.02736021   -0.00671610   -0.01986404
     atom    2 type  1   force =     0.02736021    0.00671610    0.01986404
     atom    3 type  1   force =    -0.02550335   -0.00626067   -0.03932832
     atom    4 type  1   force =     0.02550335    0.00626067    0.03932832
     atom    5 type  2   force =    -0.11379423   -0.02792397    0.16593102
     atom    6 type  2   force =     0.11379423    0.02792397   -0.16593102
     atom    7 type  3   force =     0.00000000    0.00000000    0.00000000
     atom    8 type  4   force =     0.21808066    0.05353135    0.13478041
     atom    9 type  4   force =    -0.21808066   -0.05353135   -0.13478041
     atom   10 type  4   force =     0.18865219    0.04630803   -0.07794335
     atom   11 type  4   force =    -0.18865219   -0.04630803    0.07794335
     atom   12 type  4   force =     0.18676065    0.04584214   -0.00518875
     atom   13 type  4   force =    -0.18676065   -0.04584214    0.00518875
     atom   14 type  4   force =    -0.21546747   -0.05288923   -0.02251780
     atom   15 type  4   force =     0.21546747    0.05288923    0.02251780
     atom   16 type  4   force =    -0.26700894   -0.06554104   -0.00295058
     atom   17 type  4   force =     0.26700894    0.06554104    0.00295058
     atom   18 type  4   force =     0.22613705    0.05550866    0.04988241
     atom   19 type  4   force =    -0.22613705   -0.05550866   -0.04988241
     The ionic contribution  to forces
     atom    1 type  1   force =    -0.50234666   -0.12330823    6.26041524
     atom    2 type  1   force =     0.50234666    0.12330823   -6.26041524
     atom    3 type  1   force =    -2.60235193   -0.63878479  -16.60038583
     atom    4 type  1   force =     2.60235193    0.63878479   16.60038583
     atom    5 type  2   force =     8.21220755    2.01580470   -1.41614682
     atom    6 type  2   force =    -8.21220755   -2.01580470    1.41614682
     atom    7 type  3   force =    -0.00000000   -0.00000000    0.00000000
     atom    8 type  4   force =   -13.94996487   -3.42421992   -3.62707301
     atom    9 type  4   force =    13.94996487    3.42421992    3.62707301
     atom   10 type  4   force =   -14.38785309   -3.53170590    8.84869145
     atom   11 type  4   force =    14.38785309    3.53170590   -8.84869145
     atom   12 type  4   force =   -10.51154678   -2.58021065    0.60416565
     atom   13 type  4   force =    10.51154678    2.58021065   -0.60416565
     atom   14 type  4   force =    17.46222118    4.28635385    3.31995178
     atom   15 type  4   force =   -17.46222118   -4.28635385   -3.31995178
     atom   16 type  4   force =    14.27625334    3.50431213    3.60895513
     atom   17 type  4   force =   -14.27625334   -3.50431213   -3.60895513
     atom   18 type  4   force =   -17.69727495   -4.34405119   -0.67951579
     atom   19 type  4   force =    17.69727496    4.34405119    0.67951579
     The local contribution  to forces
     atom    1 type  1   force =     0.53567917    0.13149017   -6.20524689
     atom    2 type  1   force =    -0.53575730   -0.13150954    6.20592287
     atom    3 type  1   force =     2.66078838    0.65312916   16.57559345
     atom    4 type  1   force =    -2.66085759   -0.65314516  -16.57647732
     atom    5 type  2   force =    -8.07307579   -1.98165608    1.24002330
     atom    6 type  2   force =     8.07300265    1.98167502   -1.23972245
     atom    7 type  3   force =     0.00003243    0.00000818    0.00049072
     atom    8 type  4   force =    13.80362522    3.38829854    3.51308220
     atom    9 type  4   force =   -13.80363738   -3.38830064   -3.51283035
     atom   10 type  4   force =    14.25996643    3.50031315   -8.80569439
     atom   11 type  4   force =   -14.25970546   -3.50024931    8.80534127
     atom   12 type  4   force =    10.34216514    2.53863325   -0.62222194
     atom   13 type  4   force =   -10.34233024   -2.53867732    0.62161347
     atom   14 type  4   force =   -17.28163973   -4.24202766   -3.26637692
     atom   15 type  4   force =    17.28177163    4.24206100    3.26653624
     atom   16 type  4   force =   -14.08974478   -3.45853206   -3.60585458
     atom   17 type  4   force =    14.08975345    3.45853281    3.60618399
     atom   18 type  4   force =    17.48403173    4.29170687    0.63763342
     atom   19 type  4   force =   -17.48420694   -4.29175063   -0.63752415
     The core correction contribution to forces
     atom    1 type  1   force =     0.00428650    0.00105218   -0.01638498
     atom    2 type  1   force =    -0.00428796   -0.00105257    0.01638646
     atom    3 type  1   force =    -0.00729176   -0.00178998   -0.00224492
     atom    4 type  1   force =     0.00729354    0.00179040    0.00224476
     atom    5 type  2   force =     0.00153836    0.00037765   -0.00446541
     atom    6 type  2   force =    -0.00153958   -0.00037696    0.00446525
     atom    7 type  3   force =     0.00000000    0.00000000    0.00000000
     atom    8 type  4   force =    -0.02299983   -0.00564575   -0.01751734
     atom    9 type  4   force =     0.02299992    0.00564603    0.01751716
     atom   10 type  4   force =    -0.01877438   -0.00460865    0.00903700
     atom   11 type  4   force =     0.01877311    0.00460848   -0.00903778
     atom   12 type  4   force =    -0.01942711   -0.00476888   -0.00046567
     atom   13 type  4   force =     0.01942872    0.00476773    0.00046641
     atom   14 type  4   force =     0.02221744    0.00545357    0.00383395
     atom   15 type  4   force =    -0.02221713   -0.00545341   -0.00383527
     atom   16 type  4   force =     0.02954661    0.00725203   -0.00231920
     atom   17 type  4   force =    -0.02954597   -0.00725266    0.00232053
     atom   18 type  4   force =    -0.02413682   -0.00592516   -0.00718706
     atom   19 type  4   force =     0.02413737    0.00592483    0.00718586
     The Hubbard contrib.    to forces
     atom    1 type  1   force =     0.00000000    0.00000000    0.00000000
     atom    2 type  1   force =     0.00000000    0.00000000    0.00000000
     atom    3 type  1   force =     0.00000000    0.00000000    0.00000000
     atom    4 type  1   force =     0.00000000    0.00000000    0.00000000
     atom    5 type  2   force =     0.00000000    0.00000000    0.00000000
     atom    6 type  2   force =     0.00000000    0.00000000    0.00000000
     atom    7 type  3   force =     0.00000000    0.00000000    0.00000000
     atom    8 type  4   force =     0.00000000    0.00000000    0.00000000
     atom    9 type  4   force =     0.00000000    0.00000000    0.00000000
     atom   10 type  4   force =     0.00000000    0.00000000    0.00000000
     atom   11 type  4   force =     0.00000000    0.00000000    0.00000000
     atom   12 type  4   force =     0.00000000    0.00000000    0.00000000
     atom   13 type  4   force =     0.00000000    0.00000000    0.00000000
     atom   14 type  4   force =     0.00000000    0.00000000    0.00000000
     atom   15 type  4   force =     0.00000000    0.00000000    0.00000000
     atom   16 type  4   force =     0.00000000    0.00000000    0.00000000
     atom   17 type  4   force =     0.00000000    0.00000000    0.00000000
     atom   18 type  4   force =     0.00000000    0.00000000    0.00000000
     atom   19 type  4   force =     0.00000000    0.00000000    0.00000000
     The SCF correction term to forces
     atom    1 type  1   force =     0.00011966    0.00002942   -0.00047636
     atom    2 type  1   force =    -0.00003127   -0.00000759   -0.00021683
     atom    3 type  1   force =     0.00011626    0.00002827    0.00042555
     atom    4 type  1   force =    -0.00005266   -0.00001367    0.00047100
     atom    5 type  2   force =    -0.00004132   -0.00000827   -0.00022204
     atom    6 type  2   force =     0.00011889    0.00000408   -0.00003133
     atom    7 type  3   force =    -0.00004141   -0.00001043   -0.00048589
     atom    8 type  4   force =     0.00003083    0.00000755   -0.00019971
     atom    9 type  4   force =    -0.00002083   -0.00000513   -0.00005811
     atom   10 type  4   force =    -0.00011988   -0.00002919    0.00022141
     atom   11 type  4   force =    -0.00012531   -0.00003072    0.00013703
     atom   12 type  4   force =     0.00006128    0.00001506    0.00028342
     atom   13 type  4   force =     0.00009648    0.00002341    0.00031838
     atom   14 type  4   force =    -0.00012004   -0.00002949   -0.00012255
     atom   15 type  4   force =    -0.00000647   -0.00000177   -0.00004370
     atom   16 type  4   force =     0.00001225    0.00000286   -0.00022825
     atom   17 type  4   force =    -0.00001484   -0.00000372   -0.00009819
     atom   18 type  4   force =     0.00012329    0.00003006   -0.00008507
     atom   19 type  4   force =     0.00004965    0.00001215   -0.00002106

     Total force =     0.180925     Total SCF correction =     0.001215

     Computing stress (Cartesian axis) and pressure

     negative rho (up, down):  3.777E-01 0.000E+00
          total   stress  (Ry/bohr**3)                   (kbar)     P=      -40.28
  -0.00046002  -0.00020092   0.00001106          -67.67      -29.56        1.63
  -0.00020092   0.00030919   0.00000271          -29.56       45.48        0.40
   0.00001106   0.00000271  -0.00067068            1.63        0.40      -98.66

     kinetic stress (kbar)  13558.84    -39.19     39.95
                              -39.19  13708.87      9.81
                               39.95      9.81  13278.60

     local   stress (kbar)  25745.97  14876.15   2922.99
                            14876.15 -31206.57    717.49
                             2922.99    717.49 -28374.64

     nonloc. stress (kbar)   1715.55     18.03     -1.47
                               18.03   1646.53     -0.36
                               -1.47     -0.36   1721.16

     hartree stress (kbar)  -5115.28  -6913.99  -1363.06
                            -6913.99  21354.57   -334.58
                            -1363.06   -334.58  19771.26

     exc-cor stress (kbar)  16670.09      1.33      1.00
                                1.33  16665.00      0.25
                                1.00      0.25  16665.79

     corecor stress (kbar) -20833.10     -1.54     -3.37
                               -1.54 -20827.20     -0.83
                               -3.37     -0.83 -20810.72

     ewald   stress (kbar) -31809.74  -7970.34  -1594.41
                            -7970.34  -1295.72   -391.37
                            -1594.41   -391.37  -2350.12

     hubbard stress (kbar)      0.00      0.00      0.00
                                0.00      0.00      0.00
                                0.00      0.00      0.00

     DFT-D   stress (kbar)      0.00      0.00      0.00
                                0.00      0.00      0.00
                                0.00      0.00      0.00

     XDM     stress (kbar)      0.00      0.00      0.00
                                0.00      0.00      0.00
                                0.00      0.00      0.00

     dft-nl  stress (kbar)      0.00      0.00      0.00
                                0.00      0.00      0.00
                                0.00      0.00      0.00

     TS-vdW  stress (kbar)      0.00      0.00      0.00
                                0.00      0.00      0.00
                                0.00      0.00      0.00

[...]

                                0.00      0.00      0.00

     Writing all to output data dir new_calculations/myprefix.save/

     General routines

     Parallel routines

   This run was terminated on:  13:59:16  20May2023

   JOB DONE.