     Program PWSCF v.7.0 starts on 21May2023 at  6: 3:16

     Reading input from espresso_19795.pwi
Warning: card &CELL ignored
Warning: card / ignored

     Current dimensions of program PWSCF are:
     Max number of different atomic species (ntypx) = 10
     Max number of k-points (npk) =  40000
     Max angular momentum in pseudopotentials (lmaxx) =  4
     file In.pbe-dn-rrkjus_psl.0.2.2.UPF: wavefunction(s)  5S renormalized

     gamma-point specific algorithms are used
     Message from routine setup:
     using ibrav=0 with symmetry is DISCOURAGED, use correct ibrav instead

     Subspace diagonalization in iterative solution of the eigenvalue problem:
     a serial algorithm will be used

     Using Slab Decomposition

     bravais-lattice index     =            0
     lattice parameter (alat)  =      14.4625  a.u.
     unit-cell volume          =    1469.7526 (a.u.)^3
     number of atoms/cell      =            9
     number of atomic types    =            3
     number of electrons       =       144.00
     number of Kohn-Sham states=           86
     kinetic-energy cutoff     =      30.0000  Ry
     charge density cutoff     =     240.0000  Ry
     scf convergence threshold =      1.0E-06
     mixing beta               =       0.7000
     number of iterations used =            8  plain     mixing
     Exchange-correlation= PBE
                           (   1   4   3   4   0   0   0)

     celldm(1)=  14.462494  celldm(2)=   0.000000  celldm(3)=   0.000000
     celldm(4)=   0.000000  celldm(5)=   0.000000  celldm(6)=   0.000000

     crystal axes: (cart. coord. in units of alat)
               a(1) = (   1.000000   0.000000   0.000000 )
               a(2) = (  -0.500000   0.866025   0.000000 )
               a(3) = (   0.000000   0.000000   0.561027 )

     reciprocal axes: (cart. coord. in units 2 pi/alat)
               b(1) = (  1.000000  0.577350  0.000000 )
               b(2) = (  0.000000  1.154701  0.000000 )
               b(3) = (  0.000000  0.000000  1.782444 )

     PseudoPot. # 1 for Eu read from file:
     /home/pragov/projects/rrg-bengioy-ad/pragov/crystal_structure_design/SSSP/Eu.GGA-PBE-paw-v1.0.UPF
     MD5 check sum: acec5fd9176fb57ec8e299eae1ecaf48
     Pseudo is Projector augmented-wave + core cor, Zval = 17.0
     Generated using ATOMPAW code
     Shape of augmentation charge: BESSEL
     Using radial grid of 1109 points,  8 beta functions with:
                l(1) =   0
                l(2) =   0
                l(3) =   1
                l(4) =   1
                l(5) =   2
                l(6) =   2
                l(7) =   3
                l(8) =   3
     Q(r) pseudized with 0 coefficients

     PseudoPot. # 2 for In read from file:
     /home/pragov/projects/rrg-bengioy-ad/pragov/crystal_structure_design/SSSP/In.pbe-dn-rrkjus_psl.0.2.2.UPF
     MD5 check sum: 25e7c42c3b55b68f4bf926be2e7201a4
     Pseudo is Ultrasoft + core correction, Zval = 13.0
     Generated using "atomic" code by A. Dal Corso  v.5.0.99 svn rev. 10869
     Using radial grid of 1241 points,  6 beta functions with:
                l(1) =   0
                l(2) =   0
                l(3) =   1
                l(4) =   1
                l(5) =   2
                l(6) =   2
     Q(r) pseudized with 0 coefficients

     PseudoPot. # 3 for Pd read from file:
     /home/pragov/projects/rrg-bengioy-ad/pragov/crystal_structure_design/SSSP/Pd_ONCV_PBE-1.0.oncvpsp.upf
     MD5 check sum: eb77f42b51d86fb18e25f68156a31cf1
     Pseudo is Norm-conserving, Zval = 18.0
     Generated using ONCVPSP code by D. R. Hamann
     Using radial grid of 1410 points,  6 beta functions with:
                l(1) =   0
                l(2) =   0
                l(3) =   1
                l(4) =   1
                l(5) =   2
                l(6) =   2

     atomic species   valence    mass     pseudopotential
        Eu            17.00   151.96400     Eu( 1.00)
        In            13.00   114.81800     In( 1.00)
        Pd            18.00   106.42000     Pd( 1.00)

     12 Sym. Ops. (no inversion) found

                                    s                        frac. trans.

      isym =  1     identity

 cryst.   s( 1) = (     1          0          0      )
                  (     0          1          0      )
                  (     0          0          1      )

 cart.    s( 1) = (  1.0000000  0.0000000  0.0000000 )
                  (  0.0000000  1.0000000  0.0000000 )
                  (  0.0000000  0.0000000  1.0000000 )

      isym =  2     180 deg rotation - cart. axis [1,0,0]

[...]

      isym =  3     120 deg rotation - cryst. axis [0,0,1]

[...]

      isym =  6     180 deg rotation - cryst. axis [1,1,0]

[...]

      isym =  7     inv. 180 deg rotation - cart. axis [0,0,1]

[...]

      isym =  8     inv. 180 deg rotation - cart. axis [0,1,0]

[...]

      isym =  9     inv.  60 deg rotation - cryst. axis [0,0,1]

 cryst.   s( 9) = (    -1         -1          0      )
                  (     1          0          0      )
                  (     0          0         -1      )

 cart.    s( 9) = ( -0.5000000  0.8660254  0.0000000 )
                  ( -0.8660254 -0.5000000  0.0000000 )
                  (  0.0000000  0.0000000 -1.0000000 )

[...]

 cryst.   s(10) = (     0          1          0      )
                  (    -1         -1          0      )
                  (     0          0         -1      )

 cart.    s(10) = ( -0.5000000 -0.8660254  0.0000000 )
                  (  0.8660254 -0.5000000  0.0000000 )
                  (  0.0000000  0.0000000 -1.0000000 )

[...]

      isym = 12     inv. 180 deg rotation - cryst. axis [2,1,0]

 cryst.   s(12) = (    -1         -1          0      )
                  (     0          1          0      )
                  (     0          0          1      )

 cart.    s(12) = ( -0.5000000 -0.8660255  0.0000000 )
                  ( -0.8660254  0.5000000  0.0000000 )
                  (  0.0000000  0.0000000  1.0000000 )

   Cartesian axes

     site n.     atom                  positions (alat units)
         1           Eu  tau(   1) = (   0.4108950   0.0000000   0.2805137  )
         2           Eu  tau(   2) = (   0.7945525   0.3558455   0.2805137  )
         3           Eu  tau(   3) = (   0.2945525   0.5101799   0.2805137  )
         4           In  tau(   4) = (   0.7522480   0.0000000   0.0000000  )
         5           In  tau(   5) = (  -0.3761240   0.6514659   0.0000000  )
         6           In  tau(   6) = (   0.1238760   0.2145595   0.0000000  )
         7           Pd  tau(   7) = (  -0.0000005   0.5773505   0.0000000  )
         8           Pd  tau(   8) = (   0.5000005   0.2886748   0.0000000  )
         9           Pd  tau(   9) = (   0.0000000   0.0000000   0.2805137  )

   Crystallographic axes

     site n.     atom                  positions (cryst. coord.)
         1           Eu  tau(   1) = (  0.4108950  0.0000000  0.5000000  )
         2           Eu  tau(   2) = (  1.0000000  0.4108950  0.5000000  )
         3           Eu  tau(   3) = (  0.5891050  0.5891050  0.5000000  )
         4           In  tau(   4) = (  0.7522480  0.0000000  0.0000000  )
         5           In  tau(   5) = (  0.0000000  0.7522480  0.0000000  )
         6           In  tau(   6) = (  0.2477520  0.2477520  0.0000000  )
         7           Pd  tau(   7) = (  0.3333330  0.6666670  0.0000000  )
         8           Pd  tau(   8) = (  0.6666670  0.3333330  0.0000000  )
         9           Pd  tau(   9) = (  0.0000000  0.0000000  0.5000000  )

     number of k points=     1  Methfessel-Paxton smearing, width (Ry)=  0.0010
                       cart. coord. in units 2pi/alat
        k(    1) = (   0.0000000   0.0000000   0.0000000), wk =   2.0000000

                       cryst. coord.
        k(    1) = (   0.0000000   0.0000000   0.0000000), wk =   2.0000000

     Initial potential from superposition of free atoms

     starting charge     143.9736, renormalised to     144.0000
     Starting wfcs are  153 randomized atomic wfcs
     Checking if some PAW data can be deallocated...

     Self-consistent Calculation

     iteration #  1     ecut=    30.00 Ry     beta= 0.70
     Davidson diagonalization with overlap

     ethr =  1.00E-02,  avg # of iterations =  2.0

     total energy              =   -3116.09907422 Ry
     estimated scf accuracy    <       3.82075456 Ry

[...]

     ethr =  5.09E-04,  avg # of iterations =  1.0
     Minimization algorithm failed to find Fermi energy: reverting to bisection
     Possible cause: smearing is larger than the electronic band-gap.

[...]

     total energy              =   -3120.26863383 Ry
     estimated scf accuracy    <       0.00000487 Ry

     iteration # 60     ecut=    30.00 Ry     beta= 0.70
     Davidson diagonalization with overlap

     ethr =  1.41E-09,  avg # of iterations =  2.0

     End of self-consistent calculation

          k = 0.0000 0.0000 0.0000 (  2036 PWs)   bands (ev):

   -72.4960 -72.2433 -72.2429 -38.0877 -37.7940 -37.7940 -37.7776 -37.7755
   -37.5403 -37.5403 -37.5376 -37.5376 -27.2571 -27.2436 -27.2436  -6.4076
    -6.3844  -6.3843  -6.2880  -6.1601  -6.1600  -6.0919  -6.0707  -6.0706
    -1.1649  -1.1214  -1.0890  -1.0890  -1.0599  -1.0599  -1.0188  -1.0036
    -1.0036  -0.9836  -0.9836  -0.9827  -0.9057  -0.9057  -0.8453   5.3220
     7.9888   7.9888   8.8938   9.7293   9.8288   9.8288  10.0303  10.0303
    10.1885  10.2992  10.2992  10.4095  10.4095  10.4756  10.5729  10.5729
    11.1892  11.1892  11.4129  11.4129  11.5341  13.6964  13.8567  13.9035
    13.9035  13.9901  13.9901  14.0222  14.0444  14.0619  14.1158  14.1159
    14.1369  14.1370  14.2572  14.2572  14.2673  14.3027  14.3027  14.3345
    14.3345  14.3596  14.7799  14.8393  14.8607  14.8640

     occupation numbers
     1.0000   1.0000   1.0000   1.0000   1.0000   1.0000   1.0000   1.0000
     1.0000   1.0000   1.0000   1.0000   1.0000   1.0000   1.0000   1.0000
     1.0000   1.0000   1.0000   1.0000   1.0000   1.0000   1.0000   1.0000
     1.0000   1.0000   1.0000   1.0000   1.0000   1.0000   1.0000   1.0000
     1.0000   1.0000   1.0000   1.0000   1.0000   1.0000   1.0000   1.0000
     1.0000   1.0000   1.0000   1.0000   1.0000   1.0000   1.0000   1.0000
     1.0000   1.0000   1.0000   1.0000   1.0000   1.0000   1.0000   1.0000
     1.0000   1.0000   1.0000   1.0000   1.0000   1.0000   1.0000   1.0000
     1.0000   1.0000   1.0000   1.0000   1.0000   1.0000   0.9837   0.9832
     0.0168   0.0164  -0.0000  -0.0000  -0.0000  -0.0000  -0.0000  -0.0000
    -0.0000  -0.0000  -0.0000  -0.0000  -0.0000  -0.0000

     the Fermi energy is    14.1264 ev

!    total energy              =   -3120.26863534 Ry
     estimated scf accuracy    <       0.00000051 Ry
     smearing contrib. (-TS)   =       0.00012493 Ry
     internal energy E=F+TS    =   -3120.26876028 Ry

     The total energy is F=E-TS. E is the sum of the following terms:
     one-electron contribution =    -704.05935175 Ry
     hartree contribution      =     450.70579146 Ry
     xc contribution           =    -277.88225239 Ry
     ewald contribution        =   -1217.75740817 Ry
     one-center paw contrib.   =   -1371.27553943 Ry
      -> PAW hartree energy AE =     473.55773933 Ry
      -> PAW hartree energy PS =    -452.21054523 Ry
      -> PAW xc energy AE      =   -1450.17662093 Ry
      -> PAW xc energy PS      =      57.55388740 Ry
      -> total E_H with PAW    =     472.05298557 Ry
      -> total E_XC with PAW   =   -1670.50498592 Ry

     convergence has been achieved in  60 iterations

     Forces acting on atoms (cartesian axes, Ry/au):

     atom    1 type  1   force =     0.01515126    0.00000000    0.00000000
     atom    2 type  1   force =    -0.00757563    0.01312138    0.00000000
     atom    3 type  1   force =    -0.00757563   -0.01312138    0.00000000
     atom    4 type  2   force =    -0.02017011   -0.00000000   -0.00000000
     atom    5 type  2   force =     0.01008506   -0.01746783    0.00000000
     atom    6 type  2   force =     0.01008506    0.01746783   -0.00000000
     atom    7 type  3   force =     0.00000000    0.00000000    0.00000000
     atom    8 type  3   force =     0.00000000   -0.00000000   -0.00000000
     atom    9 type  3   force =     0.00000000    0.00000000    0.00000000
     The non-local contrib.  to forces
     atom    1 type  1   force =     0.21887301    0.00000001    0.00000000
     atom    2 type  1   force =    -0.10943650    0.18954958   -0.00000000
     atom    3 type  1   force =    -0.10943650   -0.18954959    0.00000000
     atom    4 type  2   force =     0.01807501    0.00000000    0.00000000
     atom    5 type  2   force =    -0.00903750    0.01565342    0.00000000
     atom    6 type  2   force =    -0.00903750   -0.01565342    0.00000000
     atom    7 type  3   force =    -0.00000000    0.00000000    0.00000000
     atom    8 type  3   force =     0.00000000    0.00000000    0.00000000
     atom    9 type  3   force =    -0.00000000    0.00000000    0.00000000
     The ionic contribution  to forces
     atom    1 type  1   force =     1.43650715    0.00004063    0.00000000
     atom    2 type  1   force =    -0.71821845    1.24407197    0.00000000
     atom    3 type  1   force =    -0.71828959   -1.24411413    0.00000000
     atom    4 type  2   force =    -2.57218233   -0.00006731   -0.00000000
     atom    5 type  2   force =     1.28603296   -2.22760884   -0.00000000
     atom    6 type  2   force =     1.28615025    2.22767768    0.00000000
     atom    7 type  3   force =     0.00013469   -0.00007796    0.00000000
     atom    8 type  3   force =    -0.00013486    0.00007766    0.00000000
     atom    9 type  3   force =     0.00000018    0.00000030   -0.00000000
     The local contribution  to forces
     atom    1 type  1   force =    -1.64028160    0.00042945    0.00014529
     atom    2 type  1   force =     0.82002730   -1.42119110    0.00008090
     atom    3 type  1   force =     0.82048754    1.42082577   -0.00014571
     atom    4 type  2   force =     2.53397979   -0.00006987   -0.00000487
     atom    5 type  2   force =    -1.26708131    2.19503438    0.00000535
     atom    6 type  2   force =    -1.26671684   -2.19501477   -0.00000131
     atom    7 type  3   force =     0.00005325    0.00077568    0.00023073
     atom    8 type  3   force =    -0.00043171   -0.00066072   -0.00024063
     atom    9 type  3   force =     0.00023234   -0.00020079    0.00000604
     The core correction contribution to forces
     atom    1 type  1   force =    -0.00000320    0.00000001    0.00000000
     atom    2 type  1   force =     0.00000160   -0.00000279    0.00000000
     atom    3 type  1   force =     0.00000161    0.00000278   -0.00000000
     atom    4 type  2   force =    -0.00051392    0.00000017   -0.00000048
     atom    5 type  2   force =     0.00025694   -0.00044400    0.00000032
     atom    6 type  2   force =     0.00025785    0.00044473    0.00000034
     atom    7 type  3   force =     0.00000000    0.00000000    0.00000000
     atom    8 type  3   force =     0.00000000    0.00000000    0.00000000
     atom    9 type  3   force =     0.00000000    0.00000000    0.00000000
     The Hubbard contrib.    to forces
     atom    1 type  1   force =     0.00000000    0.00000000    0.00000000
     atom    2 type  1   force =     0.00000000    0.00000000    0.00000000
     atom    3 type  1   force =     0.00000000    0.00000000    0.00000000
     atom    4 type  2   force =     0.00000000    0.00000000    0.00000000
     atom    5 type  2   force =     0.00000000    0.00000000    0.00000000
     atom    6 type  2   force =     0.00000000    0.00000000    0.00000000
     atom    7 type  3   force =     0.00000000    0.00000000    0.00000000
     atom    8 type  3   force =     0.00000000    0.00000000    0.00000000
     atom    9 type  3   force =     0.00000000    0.00000000    0.00000000
     The SCF correction term to forces
     atom    1 type  1   force =     0.00012676   -0.00042230   -0.00010416
     atom    2 type  1   force =     0.00008336    0.00064548   -0.00006460
     atom    3 type  1   force =    -0.00031528   -0.00028516    0.00010769
     atom    4 type  2   force =     0.00047211    0.00012667    0.00000175
     atom    5 type  2   force =    -0.00007977   -0.00009713   -0.00000006
     atom    6 type  2   force =    -0.00057158    0.00001821    0.00000441
     atom    7 type  3   force =    -0.00019610   -0.00070874   -0.00023376
     atom    8 type  3   force =     0.00056440    0.00059320    0.00024120
     atom    9 type  3   force =    -0.00021760    0.00019603   -0.00000676

     Total force =     0.043694     Total SCF correction =     0.001678

     Computing stress (Cartesian axis) and pressure

          total   stress  (Ry/bohr**3)                   (kbar)     P=     -391.31
  -0.00235531  -0.00000000  -0.00000000         -346.48       -0.00       -0.00
  -0.00000000  -0.00235531   0.00000000           -0.00     -346.48        0.00
   0.00000000   0.00000000  -0.00326957            0.00        0.00     -480.97

     kinetic stress (kbar)  26393.60      0.00      0.00
                                0.00  26393.60      0.00
                               -0.00     -0.00  25988.26

     local   stress (kbar)  -2984.19     -0.08     -0.16
                               -0.08  -2984.81     -0.14
                               -0.16     -0.14  -2992.29

     nonloc. stress (kbar)   8457.50      0.00      0.00
                                0.00   8457.51      0.00
                               -0.00      0.00   8496.39

     hartree stress (kbar)  15021.75      0.03      0.06
                                0.03  15021.97      0.05
                                0.06      0.05  15066.68

     exc-cor stress (kbar)   2243.73      0.00      0.00
                                0.00   2243.73      0.00
                                0.00      0.00   2242.89

     corecor stress (kbar)  -8786.56      0.00     -0.00
                                0.00  -8786.56      0.00
                               -0.00      0.00  -8783.83

     ewald   stress (kbar) -40692.12     -0.00     -0.00
                               -0.00 -40692.12     -0.00
                               -0.00     -0.00 -40499.07

     hubbard stress (kbar)      0.00      0.00      0.00
                                0.00      0.00      0.00
                                0.00      0.00      0.00

     DFT-D   stress (kbar)      0.00      0.00      0.00
                                0.00      0.00      0.00
                                0.00      0.00      0.00

     XDM     stress (kbar)      0.00      0.00      0.00
                                0.00      0.00      0.00
                                0.00      0.00      0.00

     dft-nl  stress (kbar)      0.00      0.00      0.00
                                0.00      0.00      0.00
                                0.00      0.00      0.00

     TS-vdW  stress (kbar)      0.00      0.00      0.00
                                0.00      0.00      0.00
                                0.00      0.00      0.00

[...]

                                0.00      0.00      0.00

     Writing all to output data dir new_calculations/myprefix.save/

     General routines

     Parallel routines

     PAW routines

   This run was terminated on:   6: 6:33  21May2023

   JOB DONE.