     Program PWSCF v.7.0 starts on 20May2023 at  0:24:29

     Reading input from espresso_2020.pwi
Warning: card &CELL ignored
Warning: card / ignored

     Current dimensions of program PWSCF are:
     Max number of different atomic species (ntypx) = 10
     Max number of k-points (npk) =  40000
     Max angular momentum in pseudopotentials (lmaxx) =  4
     file O.pbe-n-kjpaw_psl.0.1.UPF: wavefunction(s)  2P renormalized

     gamma-point specific algorithms are used
     Message from routine setup:
     using ibrav=0 with symmetry is DISCOURAGED, use correct ibrav instead

     Subspace diagonalization in iterative solution of the eigenvalue problem:
     a serial algorithm will be used

     Using Slab Decomposition

     bravais-lattice index     =            0
     lattice parameter (alat)  =      12.0545  a.u.
     unit-cell volume          =    1189.9030 (a.u.)^3
     number of atoms/cell      =           15
     number of atomic types    =            3
     number of electrons       =       127.00
     number of Kohn-Sham states=           77
     kinetic-energy cutoff     =      30.0000  Ry
     charge density cutoff     =     240.0000  Ry
     scf convergence threshold =      1.0E-06
     mixing beta               =       0.7000
     number of iterations used =            8  plain     mixing
     Exchange-correlation= SLA  PW   PBX  PBC
                           (   1   4   3   4   0   0   0)

     celldm(1)=  12.054453  celldm(2)=   0.000000  celldm(3)=   0.000000
     celldm(4)=   0.000000  celldm(5)=   0.000000  celldm(6)=   0.000000

     crystal axes: (cart. coord. in units of alat)
               a(1) = (   1.000000   0.000000   0.000000 )
               a(2) = (  -0.668459   0.743749   0.000000 )
               a(3) = (  -0.165770  -0.371874   0.913362 )

     reciprocal axes: (cart. coord. in units 2 pi/alat)
               b(1) = (  1.000000  0.898770  0.547428 )
               b(2) = (  0.000000  1.344540  0.547428 )
               b(3) = (  0.000000  0.000000  1.094856 )

     PseudoPot. # 1 for Tb read from file:
     /home/pragov/projects/rrg-bengioy-ad/pragov/crystal_structure_design/SSSP/Tb.GGA-PBE-paw-v1.0.UPF
     MD5 check sum: f7bf3d58e9b293961564f5b9598c921e
     Pseudo is Projector augmented-wave + core cor, Zval = 19.0
     Generated using ATOMPAW code
     Shape of augmentation charge: BESSEL
     Using radial grid of 1111 points,  8 beta functions with:
                l(1) =   0
                l(2) =   0
                l(3) =   1
                l(4) =   1
                l(5) =   2
                l(6) =   2
                l(7) =   3
                l(8) =   3
     Q(r) pseudized with 0 coefficients

     PseudoPot. # 2 for Zr read from file:
     /home/pragov/projects/rrg-bengioy-ad/pragov/crystal_structure_design/SSSP/Zr_pbe_v1.uspp.F.UPF
     MD5 check sum: 5db81b1e868ab7776c4564c113de050b
     Pseudo is Ultrasoft + core correction, Zval = 12.0
     Generated by new atomic code, or converted to UPF format
     Using radial grid of  887 points,  6 beta functions with:
                l(1) =   0
                l(2) =   0
                l(3) =   1
                l(4) =   1
                l(5) =   2
                l(6) =   2
     Q(r) pseudized with  6 coefficients,  rinner =    1.200   1.200   1.200
                                                       1.200   1.200

     PseudoPot. # 3 for O  read from file:
     /home/pragov/projects/rrg-bengioy-ad/pragov/crystal_structure_design/SSSP/O.pbe-n-kjpaw_psl.0.1.UPF
     MD5 check sum: 0234752ac141de4415c5fc33072bef88
     Pseudo is Projector augmented-wave + core cor, Zval =  6.0
     Generated using "atomic" code by A. Dal Corso  v.5.0.99 svn rev. 10869
     Shape of augmentation charge: BESSEL
     Using radial grid of 1095 points,  4 beta functions with:
                l(1) =   0
                l(2) =   0
                l(3) =   1
                l(4) =   1
     Q(r) pseudized with 0 coefficients

     atomic species   valence    mass     pseudopotential
        Tb            19.00   158.92535     Tb( 1.00)
        Zr            12.00    91.22400     Zr( 1.00)
        O              6.00    15.99900     O ( 1.00)

      2 Sym. Ops., with inversion, found

                                    s                        frac. trans.

      isym =  1     identity

 cryst.   s( 1) = (     1          0          0      )
                  (     0          1          0      )
                  (     0          0          1      )

 cart.    s( 1) = (  1.0000000 -0.0000000  0.0000000 )
                  (  0.0000000  1.0000000  0.0000000 )
                  (  0.0000000  0.0000000  1.0000000 )

      isym =  2     inversion

 cryst.   s( 2) = (    -1          0          0      )
                  (     0         -1          0      )
                  (     0          0         -1      )

 cart.    s( 2) = ( -1.0000000  0.0000000 -0.0000000 )
                  (  0.0000000 -1.0000000 -0.0000000 )
                  (  0.0000000  0.0000000 -1.0000000 )

   Cartesian axes

     site n.     atom                  positions (alat units)
         1           Tb  tau(   1) = (   0.1657703   0.3718744   0.0000000  )
         2           Zr  tau(   2) = (   0.3306517   0.2983752   0.5459793  )
         3           Zr  tau(   3) = (  -0.1648813   0.0734991   0.3673824  )
         4           Zr  tau(   4) = (   0.4986766  -0.2222950   0.7328404  )
         5           Zr  tau(   5) = (  -0.3329063   0.5941693   0.1805214  )
         6           O   tau(   6) = (  -0.1743091  -0.1524982   0.6308443  )
         7           O   tau(   7) = (  -0.0030975   0.2315803   0.6308443  )
         8           O   tau(   8) = (  -0.3342297   0.3718744   0.4566809  )
         9           O   tau(   9) = (   0.1688679   0.1402941   0.2825174  )
        10           O   tau(  10) = (   0.5000000   0.0000000   0.4566809  )
        11           O   tau(  11) = (   0.1724361  -0.3070663   0.8162440  )
        12           O   tau(  12) = (   0.3436460   0.0770129   0.8162440  )
        13           O   tau(  13) = (   0.3400794   0.5243726   0.2825174  )
        14           O   tau(  14) = (  -0.1778757   0.2948614   0.0971178  )
        15           O   tau(  15) = (  -0.0066658   0.6789407   0.0971178  )

   Crystallographic axes

     site n.     atom                  positions (cryst. coord.)
         1           Tb  tau(   1) = (  0.5000000  0.5000000  0.0000000  )
         2           Zr  tau(   2) = (  0.8977070  0.7000620  0.5977690  )
         3           Zr  tau(   3) = (  0.1022930  0.2999380  0.4022310  )
         4           Zr  tau(   4) = (  0.7000620  0.1022930  0.8023550  )
         5           Zr  tau(   5) = (  0.2999380  0.8977070  0.1976450  )
         6           O   tau(   6) = (  0.0339720  0.1403020  0.6906840  )
         7           O   tau(   7) = (  0.5503820  0.6567110  0.6906840  )
         8           O   tau(   8) = (  0.2500000  0.7500000  0.5000000  )
         9           O   tau(   9) = (  0.4496180  0.3432890  0.3093160  )
        10           O   tau(  10) = (  0.7500000  0.2500000  0.5000000  )
        11           O   tau(  11) = (  0.3432890  0.0339720  0.8936700  )
        12           O   tau(  12) = (  0.8596980  0.5503820  0.8936700  )
        13           O   tau(  13) = (  0.9660280  0.8596980  0.3093160  )
        14           O   tau(  14) = (  0.1403020  0.4496180  0.1063300  )
        15           O   tau(  15) = (  0.6567110  0.9660280  0.1063300  )

     number of k points=     1  Methfessel-Paxton smearing, width (Ry)=  0.0010
                       cart. coord. in units 2pi/alat
        k(    1) = (   0.0000000   0.0000000   0.0000000), wk =   2.0000000

                       cryst. coord.
        k(    1) = (   0.0000000   0.0000000   0.0000000), wk =   2.0000000

     Check: negative core charge=   -0.000015

     Initial potential from superposition of free atoms

     starting charge     126.9870, renormalised to     127.0000

     negative rho (up, down):  2.410E-01 0.000E+00
     Starting wfcs are  124 randomized atomic wfcs
     Checking if some PAW data can be deallocated...

     Self-consistent Calculation

     iteration #  1     ecut=    30.00 Ry     beta= 0.70
     Davidson diagonalization with overlap

     ethr =  1.00E-02,  avg # of iterations =  2.0

     negative rho (up, down):  2.514E-01 0.000E+00

     total energy              =   -1538.99684568 Ry
     estimated scf accuracy    <       6.00183625 Ry

[...]

     total energy              =   -1543.00225114 Ry
     estimated scf accuracy    <       0.00000659 Ry

     iteration # 72     ecut=    30.00 Ry     beta= 0.70
     Davidson diagonalization with overlap

     ethr =  8.44E-10,  avg # of iterations =  1.0

[...]

     End of self-consistent calculation

          k = 0.0000 0.0000 0.0000 (  1647 PWs)   bands (ev):

   -36.7563 -36.7223 -36.7216 -36.7208 -30.6786 -15.0558 -14.9893 -14.9262
   -14.9245 -14.8450 -14.8442 -14.8189 -14.7391 -14.7195 -14.6461 -14.6363
   -14.6227  -8.1936  -8.1868  -8.1538  -6.4254  -5.0314  -5.0158  -5.0103
    -4.8505  -4.7096  -4.5310  -4.5295  -4.4671  -4.1771   6.7343   6.8198
     6.8359   7.0698   7.0717   7.1243   7.2552   7.5350   7.5354   7.6540
     7.6949   8.7707   8.7979   8.8007   8.8820   9.3581   9.7481   9.7492
     9.7511  10.2156  10.5396  10.6605  10.7130  10.7134  10.8725  10.9465
    10.9485  11.0442  11.0467  11.1336  11.8483  11.9168  12.0306  12.0843
    12.0867  12.1502  12.8519  15.0059  15.0487  15.6832  15.6840  15.7479
    15.7724  15.8739  15.8752  17.1720  17.4136

     occupation numbers
     1.0000   1.0000   1.0000   1.0000   1.0000   1.0000   1.0000   1.0000
     1.0000   1.0000   1.0000   1.0000   1.0000   1.0000   1.0000   1.0000
     1.0000   1.0000   1.0000   1.0000   1.0000   1.0000   1.0000   1.0000
     1.0000   1.0000   1.0000   1.0000   1.0000   1.0000   1.0000   1.0000
     1.0000   1.0000   1.0000   1.0000   1.0000   1.0000   1.0000   1.0000
     1.0000   1.0000   1.0000   1.0000   1.0000   1.0000   1.0000   1.0000
     1.0000   1.0000   1.0000   1.0000   1.0000   1.0000   1.0000   1.0000
     1.0000   1.0000   1.0000   1.0000   1.0000   1.0000   1.0000   0.3124
     0.1876  -0.0000  -0.0000  -0.0000  -0.0000  -0.0000  -0.0000  -0.0000
    -0.0000  -0.0000  -0.0000  -0.0000  -0.0000

     the Fermi energy is    12.0812 ev

!    total energy              =   -1543.00225122 Ry
     estimated scf accuracy    <       0.00000014 Ry
     smearing contrib. (-TS)   =      -0.00040174 Ry
     internal energy E=F+TS    =   -1543.00184948 Ry

     The total energy is F=E-TS. E is the sum of the following terms:
     one-electron contribution =    -233.78848657 Ry
     hartree contribution      =     199.57164763 Ry
     xc contribution           =    -171.04242181 Ry
     ewald contribution        =    -768.85391997 Ry
     one-center paw contrib.   =    -568.88866876 Ry
      -> PAW hartree energy AE =     515.79156892 Ry
      -> PAW hartree energy PS =    -501.69579159 Ry
      -> PAW xc energy AE      =    -682.88415928 Ry
      -> PAW xc energy PS      =      99.89971320 Ry
      -> total E_H with PAW    =     213.66742495 Ry
      -> total E_XC with PAW   =    -754.02686789 Ry

     convergence has been achieved in  72 iterations

     negative rho (up, down):  2.592E-01 0.000E+00

     Forces acting on atoms (cartesian axes, Ry/au):

     atom    1 type  1   force =     0.00000000    0.00000000    0.00000000
     atom    2 type  2   force =     0.02597760   -0.01119674   -0.00855555
     atom    3 type  2   force =    -0.02597760    0.01119674    0.00855555
     atom    4 type  2   force =    -0.00939807    0.00360484   -0.03005312
     atom    5 type  2   force =     0.00939807   -0.00360484    0.03005312
     atom    6 type  3   force =     0.01380108    0.00616555    0.01690574
     atom    7 type  3   force =     0.00422818   -0.01404253    0.01898999
     atom    8 type  3   force =    -0.00047091    0.00120321   -0.00075216
     atom    9 type  3   force =    -0.00422818    0.01404253   -0.01898999
     atom   10 type  3   force =     0.00047091   -0.00120321    0.00075216
     atom   11 type  3   force =    -0.01134795    0.01615014    0.01040585
     atom   12 type  3   force =    -0.01985599   -0.00463083    0.00985615
     atom   13 type  3   force =    -0.01380108   -0.00616555   -0.01690574
     atom   14 type  3   force =     0.01985599    0.00463083   -0.00985615
     atom   15 type  3   force =     0.01134795   -0.01615014   -0.01040585
     The non-local contrib.  to forces
     atom    1 type  1   force =     0.00000000    0.00000000    0.00000000
     atom    2 type  2   force =     0.01055693   -0.00423266   -0.00085205
     atom    3 type  2   force =    -0.01055693    0.00423266    0.00085205
     atom    4 type  2   force =    -0.00188370    0.00084764   -0.01128289
     atom    5 type  2   force =     0.00188370   -0.00084764    0.01128289
     atom    6 type  3   force =    -0.00307530   -0.00038235   -0.03410047
     atom    7 type  3   force =    -0.00077307    0.00326719   -0.03158680
     atom    8 type  3   force =    -0.00066071    0.00065857   -0.00065527
     atom    9 type  3   force =     0.00077307   -0.00326719    0.03158680
     atom   10 type  3   force =     0.00066071   -0.00065857    0.00065527
     atom   11 type  3   force =     0.03137755   -0.01722681   -0.00041401
     atom   12 type  3   force =     0.03252721   -0.01306762    0.00037616
     atom   13 type  3   force =     0.00307530    0.00038235    0.03410047
     atom   14 type  3   force =    -0.03252721    0.01306762   -0.00037616
     atom   15 type  3   force =    -0.03137755    0.01722681    0.00041401
     The ionic contribution  to forces
     atom    1 type  1   force =    -0.00000000    0.00000000   -0.00000000
     atom    2 type  2   force =     1.08835179   -0.48511969   -0.35235999
     atom    3 type  2   force =    -1.08835179    0.48511969    0.35235999
     atom    4 type  2   force =    -0.32177134    0.14344535   -1.19159008
     atom    5 type  2   force =     0.32177134   -0.14344535    1.19159008
     atom    6 type  3   force =    -1.11597139   -0.71751037   -1.51392317
     atom    7 type  3   force =    -0.21237053    1.30966203   -1.51392071
     atom    8 type  3   force =     0.00000616   -0.00000193   -0.00000033
     atom    9 type  3   force =     0.21237053   -1.30966203    1.51392071
     atom   10 type  3   force =    -0.00000616    0.00000193    0.00000033
     atom   11 type  3   force =     0.93088517   -1.62994395   -0.72715684
     atom   12 type  3   force =     1.83458128    0.39717581   -0.72715023
     atom   13 type  3   force =     1.11597139    0.71751037    1.51392317
     atom   14 type  3   force =    -1.83458128   -0.39717581    0.72715023
     atom   15 type  3   force =    -0.93088517    1.62994394    0.72715683
     The local contribution  to forces
     atom    1 type  1   force =    -0.00000599    0.00000250   -0.00000061
     atom    2 type  2   force =    -1.07237099    0.47803283    0.34439721
     atom    3 type  2   force =     1.07236744   -0.47803180   -0.34439704
     atom    4 type  2   force =     0.31424419   -0.14071041    1.17212331
     atom    5 type  2   force =    -0.31423696    0.14070772   -1.17212272
     atom    6 type  3   force =     1.13293949    0.72411196    1.56467048
     atom    7 type  3   force =     0.21743402   -1.32704720    1.56433372
     atom    8 type  3   force =     0.00017795    0.00056246   -0.00009882
     atom    9 type  3   force =    -0.21743520    1.32704808   -1.56433319
     atom   10 type  3   force =    -0.00017492   -0.00056406    0.00009858
     atom   11 type  3   force =    -0.97347806    1.66329003    0.73795014
     atom   12 type  3   force =    -1.88690931   -0.38879225    0.73663336
     atom   13 type  3   force =    -1.13294029   -0.72411102   -1.56467084
     atom   14 type  3   force =     1.88691115    0.38879167   -0.73663525
     atom   15 type  3   force =     0.97347869   -1.66329041   -0.73795113
     The core correction contribution to forces
     atom    1 type  1   force =    -0.00000000    0.00000000    0.00000000
     atom    2 type  2   force =    -0.00076836    0.00026401    0.00018771
     atom    3 type  2   force =     0.00076833   -0.00026402   -0.00018779
     atom    4 type  2   force =     0.00014415   -0.00002644    0.00065977
     atom    5 type  2   force =    -0.00014406    0.00002641   -0.00065974
     atom    6 type  3   force =    -0.00004692   -0.00007791    0.00018845
     atom    7 type  3   force =    -0.00001409    0.00004033    0.00013560
     atom    8 type  3   force =    -0.00000297   -0.00000411   -0.00000028
     atom    9 type  3   force =     0.00001410   -0.00004032   -0.00013560
     atom   10 type  3   force =     0.00000298    0.00000411    0.00000028
     atom   11 type  3   force =    -0.00017825    0.00005803    0.00000679
     atom   12 type  3   force =    -0.00012236    0.00007135   -0.00001070
     atom   13 type  3   force =     0.00004693    0.00007793   -0.00018846
     atom   14 type  3   force =     0.00012236   -0.00007134    0.00001068
     atom   15 type  3   force =     0.00017824   -0.00005802   -0.00000680
     The Hubbard contrib.    to forces
     atom    1 type  1   force =     0.00000000    0.00000000    0.00000000
     atom    2 type  2   force =     0.00000000    0.00000000    0.00000000
     atom    3 type  2   force =     0.00000000    0.00000000    0.00000000
     atom    4 type  2   force =     0.00000000    0.00000000    0.00000000
     atom    5 type  2   force =     0.00000000    0.00000000    0.00000000
     atom    6 type  3   force =     0.00000000    0.00000000    0.00000000
     atom    7 type  3   force =     0.00000000    0.00000000    0.00000000
     atom    8 type  3   force =     0.00000000    0.00000000    0.00000000
     atom    9 type  3   force =     0.00000000    0.00000000    0.00000000
     atom   10 type  3   force =     0.00000000    0.00000000    0.00000000
     atom   11 type  3   force =     0.00000000    0.00000000    0.00000000
     atom   12 type  3   force =     0.00000000    0.00000000    0.00000000
     atom   13 type  3   force =     0.00000000    0.00000000    0.00000000
     atom   14 type  3   force =     0.00000000    0.00000000    0.00000000
     atom   15 type  3   force =     0.00000000    0.00000000    0.00000000
     The SCF correction term to forces
     atom    1 type  1   force =     0.00000538   -0.00000245    0.00000223
     atom    2 type  2   force =     0.00020822   -0.00014136    0.00007074
     atom    3 type  2   force =    -0.00020465    0.00014009   -0.00007249
     atom    4 type  2   force =    -0.00013109    0.00004858    0.00003704
     atom    5 type  2   force =     0.00012432   -0.00004611   -0.00003714
     atom    6 type  3   force =    -0.00004444    0.00002444    0.00006999
     atom    7 type  3   force =    -0.00004807    0.00003504    0.00002806
     atom    8 type  3   force =     0.00000869   -0.00001184    0.00000249
     atom    9 type  3   force =     0.00004940   -0.00003608   -0.00002882
     atom   10 type  3   force =    -0.00001167    0.00001331   -0.00000235
     atom   11 type  3   force =     0.00004565   -0.00002720    0.00001967
     atom   12 type  3   force =     0.00006765   -0.00001813    0.00000711
     atom   13 type  3   force =     0.00004593   -0.00002494   -0.00007054
     atom   14 type  3   force =    -0.00006858    0.00001870   -0.00000610
     atom   15 type  3   force =    -0.00004625    0.00002750   -0.00001884

     Total force =     0.089228     Total SCF correction =     0.000465

     Computing stress (Cartesian axis) and pressure

     negative rho (up, down):  2.592E-01 0.000E+00
          total   stress  (Ry/bohr**3)                   (kbar)     P=     -443.76
  -0.00315202   0.00020569   0.00001527         -463.68       30.26        2.25
   0.00020569  -0.00270428  -0.00003499           30.26     -397.81       -5.15
   0.00001527  -0.00003499  -0.00319363            2.25       -5.15     -469.80

     kinetic stress (kbar)  25209.79     28.31      6.09
                               28.31  25265.34     -3.76
                                6.09     -3.76  25193.35

     local   stress (kbar)  -7792.38    -43.47     -1.42
                              -43.47  -7860.89      0.38
                               -1.42      0.38  -7767.30

     nonloc. stress (kbar)  11921.24     28.43     -2.94
                               28.43  11970.03     -1.28
                               -2.94     -1.28  11913.87

     hartree stress (kbar)   8219.85     10.02      0.51
                               10.02   8237.30     -0.41
                                0.51     -0.41   8215.45

     exc-cor stress (kbar)  -2692.57     -0.84      0.03
                               -0.84  -2694.02     -0.02
                                0.03     -0.02  -2692.19

     corecor stress (kbar)  -3642.02     -0.55     -0.00
                               -0.55  -3642.82     -0.01
                               -0.00     -0.01  -3641.63

     ewald   stress (kbar) -31687.60      8.36     -0.02
                                8.36 -31672.77     -0.05
                               -0.02     -0.05 -31691.35

     hubbard stress (kbar)      0.00      0.00      0.00
                                0.00      0.00      0.00
                                0.00      0.00      0.00

     DFT-D   stress (kbar)      0.00      0.00      0.00
                                0.00      0.00      0.00
                                0.00      0.00      0.00

     XDM     stress (kbar)      0.00      0.00      0.00
                                0.00      0.00      0.00
                                0.00      0.00      0.00

     dft-nl  stress (kbar)      0.00      0.00      0.00
                                0.00      0.00      0.00
                                0.00      0.00      0.00

     TS-vdW  stress (kbar)      0.00      0.00      0.00
                                0.00      0.00      0.00
                                0.00      0.00      0.00

[...]

                                0.00      0.00      0.00

     Writing all to output data dir new_calculations/myprefix.save/

     General routines

     Parallel routines

     PAW routines

   This run was terminated on:   0:26:34  20May2023

   JOB DONE.