     Program PWSCF v.7.0 starts on 20May2023 at 15:53: 9

     Reading input from espresso_22043.pwi
Warning: card &CELL ignored
Warning: card / ignored

     Current dimensions of program PWSCF are:
     Max number of different atomic species (ntypx) = 10
     Max number of k-points (npk) =  40000
     Max angular momentum in pseudopotentials (lmaxx) =  4

     gamma-point specific algorithms are used
     Message from routine setup:
     using ibrav=0 with symmetry is DISCOURAGED, use correct ibrav instead

     Subspace diagonalization in iterative solution of the eigenvalue problem:
     a serial algorithm will be used

     Using Slab Decomposition

     bravais-lattice index     =            0
     lattice parameter (alat)  =      16.9707  a.u.
     unit-cell volume          =    2289.4757 (a.u.)^3
     number of atoms/cell      =           14
     number of atomic types    =            3
     number of electrons       =       224.00
     number of Kohn-Sham states=          134
     kinetic-energy cutoff     =      30.0000  Ry
     charge density cutoff     =     240.0000  Ry
     scf convergence threshold =      1.0E-06
     mixing beta               =       0.7000
     number of iterations used =            8  plain     mixing
     Exchange-correlation= PBE
                           (   1   4   3   4   0   0   0)

     celldm(1)=  16.970735  celldm(2)=   0.000000  celldm(3)=   0.000000
     celldm(4)=   0.000000  celldm(5)=   0.000000  celldm(6)=   0.000000

     crystal axes: (cart. coord. in units of alat)
               a(1) = (   1.000000   0.000000   0.000000 )
               a(2) = (   0.858600   0.512647   0.000000 )
               a(3) = (   0.591675   0.163198   0.913726 )

     reciprocal axes: (cart. coord. in units 2 pi/alat)
               b(1) = (  1.000000 -1.674836 -0.348403 )
               b(2) = (  0.000000  1.950661 -0.348403 )
               b(3) = (  0.000000  0.000000  1.094420 )

     PseudoPot. # 1 for Sr read from file:
     /home/pragov/projects/rrg-bengioy-ad/pragov/crystal_structure_design/SSSP/Sr_pbe_v1.uspp.F.UPF
     MD5 check sum: 6b418c05fbe9db5448babca5e47b7a5b
     Pseudo is Ultrasoft + core correction, Zval = 10.0
     Generated by new atomic code, or converted to UPF format
     Using radial grid of  883 points,  6 beta functions with:
                l(1) =   0
                l(2) =   0
                l(3) =   1
                l(4) =   1
                l(5) =   2
                l(6) =   2
     Q(r) pseudized with  6 coefficients,  rinner =    1.400   1.400   1.400
                                                       1.400   1.400

     PseudoPot. # 2 for Sn read from file:
     /home/pragov/projects/rrg-bengioy-ad/pragov/crystal_structure_design/SSSP/Sn_pbe_v1.uspp.F.UPF
     MD5 check sum: 4cf58ce39ec5d5d420df3dd08604eb00
     Pseudo is Ultrasoft + core correction, Zval = 14.0
     Generated by new atomic code, or converted to UPF format
     Using radial grid of  891 points,  6 beta functions with:
                l(1) =   0
                l(2) =   0
                l(3) =   1
                l(4) =   1
                l(5) =   2
                l(6) =   2
     Q(r) pseudized with  6 coefficients,  rinner =    1.200   1.200   1.200
                                                       1.200   1.200

     PseudoPot. # 3 for Au read from file:
     /home/pragov/projects/rrg-bengioy-ad/pragov/crystal_structure_design/SSSP/Au_ONCV_PBE-1.0.oncvpsp.upf
     MD5 check sum: d14007822ba0e19f0206237467fc06c2
     Pseudo is Norm-conserving, Zval = 19.0
     Generated using ONCVPSP code by D. R. Hamann
     Using radial grid of 1278 points,  8 beta functions with:
                l(1) =   0
                l(2) =   0
                l(3) =   1
                l(4) =   1
                l(5) =   2
                l(6) =   2
                l(7) =   3
                l(8) =   3

     atomic species   valence    mass     pseudopotential
        Sr            10.00    87.62000     Sr( 1.00)
        Sn            14.00   118.71000     Sn( 1.00)
        Au            19.00   196.96657     Au( 1.00)

      2 Sym. Ops., with inversion, found

                                    s                        frac. trans.

      isym =  1     identity

 cryst.   s( 1) = (     1          0          0      )
                  (     0          1          0      )
                  (     0          0          1      )

 cart.    s( 1) = (  1.0000000  0.0000000  0.0000000 )
                  (  0.0000000  1.0000000  0.0000000 )
                  (  0.0000000  0.0000000  1.0000000 )

      isym =  2     inversion

 cryst.   s( 2) = (    -1          0          0      )
                  (     0         -1          0      )
                  (     0          0         -1      )

 cart.    s( 2) = ( -1.0000000 -0.0000000 -0.0000000 )
                  (  0.0000000 -1.0000000 -0.0000000 )
                  (  0.0000000  0.0000000 -1.0000000 )

   Cartesian axes

     site n.     atom                  positions (alat units)
         1           Sr  tau(   1) = (   1.4596862   0.4026168   0.2504970  )
         2           Sr  tau(   2) = (   0.9905883   0.2732283   0.6632287  )
         3           Sr  tau(   3) = (   0.0000000   0.0000000   0.0000000  )
         4           Sn  tau(   4) = (   0.2958374   0.0815991   0.4568628  )
         5           Sn  tau(   5) = (   0.7997199   0.2205821   0.2903391  )
         6           Sn  tau(   6) = (   1.6505546   0.4552630   0.6233866  )
         7           Au  tau(   7) = (   2.1267466   0.5866083   0.7790288  )
         8           Au  tau(   8) = (   0.3235278   0.0892368   0.1346969  )
         9           Au  tau(   9) = (   0.5963028   0.1644748   0.5277241  )
        10           Au  tau(  10) = (   1.8539716   0.5113703   0.3860016  )
        11           Au  tau(  11) = (   1.1018919   0.3039285   0.2766752  )
        12           Au  tau(  12) = (   1.3483825   0.3719166   0.6370504  )
        13           Au  tau(  13) = (   1.7994857   0.4963418   0.8866821  )
        14           Au  tau(  14) = (   0.6507887   0.1795033   0.0270435  )

   Crystallographic axes

     site n.     atom                  positions (cryst. coord.)
         1           Sr  tau(   1) = (  0.6980950  0.6980950  0.2741490  )
         2           Sr  tau(   2) = (  0.3019050  0.3019050  0.7258510  )
         3           Sr  tau(   3) = (  0.0000000  0.0000000  0.0000000  )
         4           Sn  tau(   4) = ( -0.0000000  0.0000000  0.5000000  )
         5           Sn  tau(   5) = (  0.3291260  0.3291260  0.3177530  )
         6           Sn  tau(   6) = (  0.6708740  0.6708740  0.6822470  )
         7           Au  tau(   7) = (  0.8728580  0.8728580  0.8525850  )
         8           Au  tau(   8) = (  0.1271420  0.1271420  0.1474150  )
         9           Au  tau(   9) = (  0.1369740  0.1369740  0.5775520  )
        10           Au  tau(  10) = (  0.8630260  0.8630260  0.4224480  )
        11           Au  tau(  11) = (  0.4964670  0.4964670  0.3027990  )
        12           Au  tau(  12) = (  0.5035330  0.5035330  0.6972010  )
        13           Au  tau(  13) = (  0.6592720  0.6592720  0.9704030  )
        14           Au  tau(  14) = (  0.3407280  0.3407280  0.0295970  )

     number of k points=     1  Methfessel-Paxton smearing, width (Ry)=  0.0010
                       cart. coord. in units 2pi/alat
        k(    1) = (   0.0000000   0.0000000   0.0000000), wk =   2.0000000

                       cryst. coord.
        k(    1) = (   0.0000000   0.0000000   0.0000000), wk =   2.0000000

     Check: negative core charge=   -0.000003

     Initial potential from superposition of free atoms

     starting charge     220.8982, renormalised to     224.0000

     negative rho (up, down):  1.952E-01 0.000E+00
     Starting wfcs are  146 randomized atomic wfcs

     Self-consistent Calculation

     iteration #  1     ecut=    30.00 Ry     beta= 0.70
     Davidson diagonalization with overlap

     ethr =  1.00E-02,  avg # of iterations =  4.0

     negative rho (up, down):  1.944E-01 0.000E+00

     total energy              =   -2890.82279964 Ry
     estimated scf accuracy    <       8.39715668 Ry

[...]

     total energy              =   -2896.58592968 Ry
     estimated scf accuracy    <       0.00000233 Ry

     iteration # 16     ecut=    30.00 Ry     beta= 0.70
     Davidson diagonalization with overlap

     ethr =  9.55E-10,  avg # of iterations =  2.0

[...]

     End of self-consistent calculation

          k = 0.0000 0.0000 0.0000 (  3179 PWs)   bands (ev):

   -93.4135 -93.4133 -93.2821 -93.2820 -93.2378 -93.2377 -93.2130 -93.2130
   -44.5270 -44.5257 -44.4328 -44.4323 -44.3644 -44.3632 -44.3357 -44.3345
   -44.3184 -44.3178 -44.3057 -44.3036 -44.2848 -44.2834 -44.2726 -44.2718
   -44.2674 -44.2664 -44.2272 -44.2264 -44.1168 -44.1162 -44.0753 -44.0746
   -22.4700 -21.8454 -21.8449  -8.1945  -8.1722  -8.1551  -8.1382  -8.1151
    -8.0080  -8.0021  -7.9846  -7.9758  -7.9527  -7.9495  -7.8782  -7.8704
    -7.8684  -7.8476  -4.5580  -4.4979  -4.4262  -3.9569  -3.9530  -3.9172
    -3.8974  -3.8819  -3.8811   3.9029   5.1592   5.2162   6.6143   6.9664
     7.6217   7.8903   7.9559   7.9802   7.9993   8.0617   8.1251   8.2164
     8.2310   8.3031   8.3318   8.4130   8.4241   8.4261   8.5190   8.6542
     8.7690   8.8544   8.9575   9.0420   9.0666   9.2061   9.2372   9.2494
     9.2855   9.3947   9.4568   9.4746   9.5110   9.5279   9.5537   9.5785
     9.6917   9.7120   9.7910   9.9509  10.0934  10.1127  10.2529  10.3928
    10.3931  10.5749  11.9993  12.1167  12.8868  13.0879  13.9690  14.0809
    14.3596  14.4222  14.7662  14.8204  15.0145  15.0231  15.5228  15.5242
    15.7265  16.2899  16.3694  16.6934  17.0206  17.1680  17.2359  17.4230
    17.4683  17.9562  18.2493  18.2895  18.4128  18.7025

     occupation numbers
     1.0000   1.0000   1.0000   1.0000   1.0000   1.0000   1.0000   1.0000
     1.0000   1.0000   1.0000   1.0000   1.0000   1.0000   1.0000   1.0000
     1.0000   1.0000   1.0000   1.0000   1.0000   1.0000   1.0000   1.0000
     1.0000   1.0000   1.0000   1.0000   1.0000   1.0000   1.0000   1.0000
     1.0000   1.0000   1.0000   1.0000   1.0000   1.0000   1.0000   1.0000
     1.0000   1.0000   1.0000   1.0000   1.0000   1.0000   1.0000   1.0000
     1.0000   1.0000   1.0000   1.0000   1.0000   1.0000   1.0000   1.0000
     1.0000   1.0000   1.0000   1.0000   1.0000   1.0000   1.0000   1.0000
     1.0000   1.0000   1.0000   1.0000   1.0000   1.0000   1.0000   1.0000
     1.0000   1.0000   1.0000   1.0000   1.0000   1.0000   1.0000   1.0000
     1.0000   1.0000   1.0000   1.0000   1.0000   1.0000   1.0000   1.0000
     1.0000   1.0000   1.0000   1.0000   1.0000   1.0000   1.0000   1.0000
     1.0000   1.0000   1.0000   1.0000   1.0000   1.0000   1.0000   1.0000
     1.0000   1.0000   1.0000   1.0000   1.0000   1.0000   1.0000   1.0000
    -0.0000  -0.0000  -0.0000  -0.0000  -0.0000  -0.0000  -0.0000  -0.0000
    -0.0000  -0.0000  -0.0000  -0.0000  -0.0000  -0.0000  -0.0000  -0.0000
    -0.0000  -0.0000  -0.0000  -0.0000  -0.0000  -0.0000

     the Fermi energy is    14.2289 ev

!    total energy              =   -2896.58592993 Ry
     estimated scf accuracy    <       0.00000011 Ry
     smearing contrib. (-TS)   =       0.00000000 Ry
     internal energy E=F+TS    =   -2896.58592993 Ry

     The total energy is F=E-TS. E is the sum of the following terms:
     one-electron contribution =   -1399.39113406 Ry
     hartree contribution      =     776.59694583 Ry
     xc contribution           =    -400.04852641 Ry
     ewald contribution        =   -1873.74321529 Ry

     convergence has been achieved in  16 iterations

     negative rho (up, down):  1.994E-01 0.000E+00

     Forces acting on atoms (cartesian axes, Ry/au):

     atom    1 type  1   force =     0.01025610    0.00282857    0.02026735
     atom    2 type  1   force =    -0.01025610   -0.00282857   -0.02026735
     atom    3 type  1   force =     0.00000000    0.00000000    0.00000000
     atom    4 type  2   force =     0.00000000    0.00000000    0.00000000
     atom    5 type  2   force =    -0.02725000   -0.00751618    0.05061185
     atom    6 type  2   force =     0.02725000    0.00751618   -0.05061185
     atom    7 type  3   force =    -0.00402100   -0.00110831    0.01117752
     atom    8 type  3   force =     0.00402100    0.00110831   -0.01117752
     atom    9 type  3   force =     0.02313360    0.00638289   -0.00730132
     atom   10 type  3   force =    -0.02313360   -0.00638289    0.00730132
     atom   11 type  3   force =    -0.01591779   -0.00439008   -0.00156977
     atom   12 type  3   force =     0.01591779    0.00439008    0.00156977
     atom   13 type  3   force =     0.01871576    0.00516226    0.01879541
     atom   14 type  3   force =    -0.01871576   -0.00516226   -0.01879541
     The non-local contrib.  to forces
     atom    1 type  1   force =     0.03534843    0.00974970    0.06221857
     atom    2 type  1   force =    -0.03534843   -0.00974970   -0.06221857
     atom    3 type  1   force =     0.00000000    0.00000000    0.00000000
     atom    4 type  2   force =     0.00000000    0.00000000    0.00000000
     atom    5 type  2   force =     0.35409779    0.09766845   -0.00511959
     atom    6 type  2   force =    -0.35409779   -0.09766845    0.00511959
     atom    7 type  3   force =    -0.03531453   -0.00973981    0.08517805
     atom    8 type  3   force =     0.03531453    0.00973981   -0.08517805
     atom    9 type  3   force =    -0.17604532   -0.04855572    0.04238417
     atom   10 type  3   force =     0.17604532    0.04855572   -0.04238417
     atom   11 type  3   force =     0.05492748    0.01515055    0.02288079
     atom   12 type  3   force =    -0.05492748   -0.01515055   -0.02288079
     atom   13 type  3   force =    -0.04266999   -0.01176939    0.08064402
     atom   14 type  3   force =     0.04266999    0.01176939   -0.08064402
     The ionic contribution  to forces
     atom    1 type  1   force =     5.95702944    1.64309310    2.16963323
     atom    2 type  1   force =    -5.95702944   -1.64309310   -2.16963323
     atom    3 type  1   force =    -0.00000000   -0.00000000    0.00000000
     atom    4 type  2   force =     0.00000000   -0.00000000   -0.00000000
     atom    5 type  2   force =    -5.41711239   -1.49417089   -4.80084109
     atom    6 type  2   force =     5.41711239    1.49417089    4.80084109
     atom    7 type  3   force =    -3.82872151   -1.05605419    3.87561647
     atom    8 type  3   force =     3.82872151    1.05605419   -3.87561647
     atom    9 type  3   force =     8.76286124    2.41700952   -1.85691427
     atom   10 type  3   force =    -8.76286124   -2.41700952    1.85691427
     atom   11 type  3   force =    -4.22955725   -1.16661440    1.73281998
     atom   12 type  3   force =     4.22955725    1.16661440   -1.73281998
     atom   13 type  3   force =    -7.38562826   -2.03713528  -14.31469650
     atom   14 type  3   force =     7.38562826    2.03713528   14.31469650
     The local contribution  to forces
     atom    1 type  1   force =    -5.97972918   -1.64935273   -2.20764032
     atom    2 type  1   force =     5.97966255    1.64933702    2.20765595
     atom    3 type  1   force =     0.00004488    0.00001486   -0.00004193
     atom    4 type  2   force =    -0.00000577   -0.00000398    0.00000359
     atom    5 type  2   force =     5.04628762    1.39188827    4.85785562
     atom    6 type  2   force =    -5.04621674   -1.39186989   -4.85776280
     atom    7 type  3   force =     3.86068621    1.06487207   -3.94901420
     atom    8 type  3   force =    -3.86070553   -1.06487532    3.94878180
     atom    9 type  3   force =    -8.56320217   -2.36193012    1.80814225
     atom   10 type  3   force =     8.56325127    2.36195406   -1.80780959
     atom   11 type  3   force =     4.15741446    1.14672072   -1.75815746
     atom   12 type  3   force =    -4.15728216   -1.14667334    1.75811748
     atom   13 type  3   force =     7.44640181    2.05389545   14.25313241
     atom   14 type  3   force =    -7.44649471   -2.05392860  -14.25337821
     The core correction contribution to forces
     atom    1 type  1   force =    -0.00220492   -0.00060813   -0.00403191
     atom    2 type  1   force =     0.00220595    0.00060843    0.00403155
     atom    3 type  1   force =    -0.00000055   -0.00000004    0.00000070
     atom    4 type  2   force =     0.00000084    0.00000019   -0.00000053
     atom    5 type  2   force =    -0.00997551   -0.00275147   -0.00128057
     atom    6 type  2   force =     0.00997426    0.00275115    0.00127961
     atom    7 type  3   force =     0.00000000    0.00000000    0.00000000
     atom    8 type  3   force =     0.00000000    0.00000000    0.00000000
     atom    9 type  3   force =     0.00000000    0.00000000    0.00000000
     atom   10 type  3   force =     0.00000000    0.00000000    0.00000000
     atom   11 type  3   force =     0.00000000    0.00000000    0.00000000
     atom   12 type  3   force =     0.00000000    0.00000000    0.00000000
     atom   13 type  3   force =     0.00000000    0.00000000    0.00000000
     atom   14 type  3   force =     0.00000000    0.00000000    0.00000000
     The Hubbard contrib.    to forces
     atom    1 type  1   force =     0.00000000    0.00000000    0.00000000
     atom    2 type  1   force =     0.00000000    0.00000000    0.00000000
     atom    3 type  1   force =     0.00000000    0.00000000    0.00000000
     atom    4 type  2   force =     0.00000000    0.00000000    0.00000000
     atom    5 type  2   force =     0.00000000    0.00000000    0.00000000
     atom    6 type  2   force =     0.00000000    0.00000000    0.00000000
     atom    7 type  3   force =     0.00000000    0.00000000    0.00000000
     atom    8 type  3   force =     0.00000000    0.00000000    0.00000000
     atom    9 type  3   force =     0.00000000    0.00000000    0.00000000
     atom   10 type  3   force =     0.00000000    0.00000000    0.00000000
     atom   11 type  3   force =     0.00000000    0.00000000    0.00000000
     atom   12 type  3   force =     0.00000000    0.00000000    0.00000000
     atom   13 type  3   force =     0.00000000    0.00000000    0.00000000
     atom   14 type  3   force =     0.00000000    0.00000000    0.00000000
     The SCF correction term to forces
     atom    1 type  1   force =    -0.00018381   -0.00005185    0.00008519
     atom    2 type  1   force =     0.00025712    0.00007030   -0.00010566
     atom    3 type  1   force =    -0.00005300   -0.00001626    0.00004848
     atom    4 type  2   force =     0.00000316    0.00000426   -0.00000977
     atom    5 type  2   force =    -0.00054110   -0.00014852   -0.00000080
     atom    6 type  2   force =     0.00048428    0.00013449   -0.00008762
     atom    7 type  3   force =    -0.00066763   -0.00018515   -0.00059401
     atom    8 type  3   force =     0.00069403    0.00019086    0.00084398
     atom    9 type  3   force =    -0.00047751   -0.00013986   -0.00091711
     atom   10 type  3   force =     0.00043368    0.00011780    0.00057717
     atom   11 type  3   force =     0.00129819    0.00035309    0.00089291
     atom   12 type  3   force =    -0.00142916   -0.00040039   -0.00084094
     atom   13 type  3   force =     0.00061564    0.00017162   -0.00027560
     atom   14 type  3   force =    -0.00051587   -0.00013820    0.00053922

     Total force =     0.106409     Total SCF correction =     0.003312

     Computing stress (Cartesian axis) and pressure

     negative rho (up, down):  1.994E-01 0.000E+00
          total   stress  (Ry/bohr**3)                   (kbar)     P=     -396.12
  -0.00233892   0.00014331   0.00008498         -344.07       21.08       12.50
   0.00014331  -0.00281897   0.00002344           21.08     -414.68        3.45
   0.00008498   0.00002344  -0.00292043           12.50        3.45     -429.61

     kinetic stress (kbar)  34075.40    105.73    -58.48
                              105.73  33721.24    -16.13
                              -58.48    -16.13  33906.44

     local   stress (kbar)  -7442.45   3985.33   8547.49
                             3985.33 -20792.00   2357.60
                             8547.49   2357.60  -6172.74

     nonloc. stress (kbar)   7184.98     -9.71    -12.02
                               -9.71   7217.52     -3.31
                              -12.02     -3.31   7173.85

     hartree stress (kbar)  14839.55  -1789.67  -4075.91
                            -1789.67  20834.35  -1124.23
                            -4075.91  -1124.23  14224.58

     exc-cor stress (kbar)    956.24      0.03      0.10
                                0.03    956.13      0.03
                                0.10      0.03    954.55

     corecor stress (kbar)  -7477.97     -0.10      0.23
                               -0.10  -7477.65      0.06
                                0.23      0.06  -7477.25

     ewald   stress (kbar) -42479.82  -2270.53  -4388.91
                            -2270.53 -34874.28  -1210.57
                            -4388.91  -1210.57 -43039.03

     hubbard stress (kbar)      0.00      0.00      0.00
                                0.00      0.00      0.00
                                0.00      0.00      0.00

     DFT-D   stress (kbar)      0.00      0.00      0.00
                                0.00      0.00      0.00
                                0.00      0.00      0.00

     XDM     stress (kbar)      0.00      0.00      0.00
                                0.00      0.00      0.00
                                0.00      0.00      0.00

     dft-nl  stress (kbar)      0.00      0.00      0.00
                                0.00      0.00      0.00
                                0.00      0.00      0.00

     TS-vdW  stress (kbar)      0.00      0.00      0.00
                                0.00      0.00      0.00
                                0.00      0.00      0.00

[...]

                                0.00      0.00      0.00

     Writing all to output data dir new_calculations/myprefix.save/

     General routines

     Parallel routines

   This run was terminated on:  15:55:37  20May2023

   JOB DONE.