     Program PWSCF v.7.0 starts on 20May2023 at 23:10:43

     Reading input from espresso_6598.pwi
Warning: card &CELL ignored
Warning: card / ignored

     Current dimensions of program PWSCF are:
     Max number of different atomic species (ntypx) = 10
     Max number of k-points (npk) =  40000
     Max angular momentum in pseudopotentials (lmaxx) =  4
     file O.pbe-n-kjpaw_psl.0.1.UPF: wavefunction(s)  2P renormalized

     gamma-point specific algorithms are used
     Message from routine setup:
     using ibrav=0 with symmetry is DISCOURAGED, use correct ibrav instead

     Subspace diagonalization in iterative solution of the eigenvalue problem:
     a serial algorithm will be used

     Using Slab Decomposition

     bravais-lattice index     =            0
     lattice parameter (alat)  =       5.5257  a.u.
     unit-cell volume          =    1094.9900 (a.u.)^3
     number of atoms/cell      =           14
     number of atomic types    =            3
     number of electrons       =       126.00
     number of Kohn-Sham states=           76
     kinetic-energy cutoff     =      30.0000  Ry
     charge density cutoff     =     240.0000  Ry
     scf convergence threshold =      1.0E-06
     mixing beta               =       0.7000
     number of iterations used =            8  plain     mixing
     Exchange-correlation= SLA  PW   PBX  PBC
                           (   1   4   3   4   0   0   0)

     celldm(1)=   5.525722  celldm(2)=   0.000000  celldm(3)=   0.000000
     celldm(4)=   0.000000  celldm(5)=   0.000000  celldm(6)=   0.000000

     crystal axes: (cart. coord. in units of alat)
               a(1) = (   1.000000   0.000000   0.000000 )
               a(2) = (   0.000000   2.025128   0.000000 )
               a(3) = (   0.000000   0.000000   3.204724 )

     reciprocal axes: (cart. coord. in units 2 pi/alat)
               b(1) = (  1.000000  0.000000  0.000000 )
               b(2) = (  0.000000  0.493796  0.000000 )
               b(3) = (  0.000000  0.000000  0.312039 )

     PseudoPot. # 1 for Na read from file:
     /home/pragov/projects/rrg-bengioy-ad/pragov/crystal_structure_design/SSSP/na_pbe_v1.5.uspp.F.UPF
     MD5 check sum: 44600605ef58000f06b90626533354dc
     Pseudo is Ultrasoft, Zval =  9.0
     Generated by new atomic code, or converted to UPF format
     Using radial grid of  819 points,  5 beta functions with:
                l(1) =   0
                l(2) =   0
                l(3) =   1
                l(4) =   1
                l(5) =   2
     Q(r) pseudized with  8 coefficients,  rinner =    1.250   1.250   1.250
                                                       1.250   1.250

     PseudoPot. # 2 for Mn read from file:
     /home/pragov/projects/rrg-bengioy-ad/pragov/crystal_structure_design/SSSP/mn_pbe_v1.5.uspp.F.UPF
     MD5 check sum: 82ef2b46521d7a7d9e736dc3972e4928
     Pseudo is Ultrasoft + core correction, Zval = 15.0
     Generated by new atomic code, or converted to UPF format
     Using radial grid of  859 points,  6 beta functions with:
                l(1) =   0
                l(2) =   0
                l(3) =   1
                l(4) =   1
                l(5) =   2
                l(6) =   2
     Q(r) pseudized with  8 coefficients,  rinner =    0.950   0.950   0.950
                                                       0.950   0.950

     PseudoPot. # 3 for O  read from file:
     /home/pragov/projects/rrg-bengioy-ad/pragov/crystal_structure_design/SSSP/O.pbe-n-kjpaw_psl.0.1.UPF
     MD5 check sum: 0234752ac141de4415c5fc33072bef88
     Pseudo is Projector augmented-wave + core cor, Zval =  6.0
     Generated using "atomic" code by A. Dal Corso  v.5.0.99 svn rev. 10869
     Shape of augmentation charge: BESSEL
     Using radial grid of 1095 points,  4 beta functions with:
                l(1) =   0
                l(2) =   0
                l(3) =   1
                l(4) =   1
     Q(r) pseudized with 0 coefficients

     atomic species   valence    mass     pseudopotential
        Na             9.00    22.98977     Na( 1.00)
        Mn            15.00    54.93804     Mn( 1.00)
        O              6.00    15.99900     O ( 1.00)

      4 Sym. Ops. (no inversion) found ( 2 have fractional translation)

                                    s                        frac. trans.

      isym =  1     identity

 cryst.   s( 1) = (     1          0          0      )
                  (     0          1          0      )
                  (     0          0          1      )

 cart.    s( 1) = (  1.0000000  0.0000000  0.0000000 )
                  (  0.0000000  1.0000000  0.0000000 )
                  (  0.0000000  0.0000000  1.0000000 )

      isym =  2     180 deg rotation - cart. axis [0,0,1]

 cryst.   s( 2) = (    -1          0          0      )    f =(  0.0000000 )
                  (     0         -1          0      )       ( -0.0000000 )
                  (     0          0          1      )       (  0.5000000 )

 cart.    s( 2) = ( -1.0000000  0.0000000  0.0000000 )    f =(  0.0000000 )
                  (  0.0000000 -1.0000000  0.0000000 )       ( -0.0000000 )
                  (  0.0000000  0.0000000  1.0000000 )       (  1.6023619 )

      isym =  3     inv. 180 deg rotation - cart. axis [0,1,0]

 cryst.   s( 3) = (     1          0          0      )    f =(  0.0000000 )
                  (     0         -1          0      )       ( -0.0000000 )
                  (     0          0          1      )       (  0.5000000 )

 cart.    s( 3) = (  1.0000000  0.0000000  0.0000000 )    f =(  0.0000000 )
                  (  0.0000000 -1.0000000  0.0000000 )       ( -0.0000000 )
                  (  0.0000000  0.0000000  1.0000000 )       (  1.6023619 )

      isym =  4     inv. 180 deg rotation - cart. axis [1,0,0]

 cryst.   s( 4) = (    -1          0          0      )
                  (     0          1          0      )
                  (     0          0          1      )

 cart.    s( 4) = ( -1.0000000  0.0000000  0.0000000 )
                  (  0.0000000  1.0000000  0.0000000 )
                  (  0.0000000  0.0000000  1.0000000 )

   Cartesian axes

     site n.     atom                  positions (alat units)
         1           Na  tau(   1) = (   0.5000000   0.7423067   3.0437313  )
         2           Na  tau(   2) = (   0.5000000   1.2828215   1.4413694  )
         3           Mn  tau(   3) = (   0.0000000   1.5853473   0.4047694  )
         4           Mn  tau(   4) = (   0.5000000   1.7977752   2.7325911  )
         5           Mn  tau(   5) = (   0.5000000   0.2273530   1.1302292  )
         6           Mn  tau(   6) = (   0.0000000   0.4397809   2.0071313  )
         7           O   tau(   7) = (   0.5000000   1.1817372   0.5303017  )
         8           O   tau(   8) = (   0.0000000   0.2053601   2.6254219  )
         9           O   tau(   9) = (   0.0000000   1.8197680   1.0230600  )
        10           O   tau(  10) = (   0.5000000   0.8433910   2.1326636  )
        11           O   tau(  11) = (   0.5000000   2.0128559   0.2650948  )
        12           O   tau(  12) = (   0.0000000   1.4022008   2.9461763  )
        13           O   tau(  13) = (   0.5000000   0.0122723   1.8674567  )
        14           O   tau(  14) = (   0.0000000   0.6229274   1.3438144  )

   Crystallographic axes

     site n.     atom                  positions (cryst. coord.)
         1           Na  tau(   1) = (  0.5000000  0.3665480  0.9497640  )
         2           Na  tau(   2) = (  0.5000000  0.6334520  0.4497640  )
         3           Mn  tau(   3) = (  0.0000000  0.7828380  0.1263040  )
         4           Mn  tau(   4) = (  0.5000000  0.8877340  0.8526760  )
         5           Mn  tau(   5) = (  0.5000000  0.1122660  0.3526760  )
         6           Mn  tau(   6) = (  0.0000000  0.2171620  0.6263040  )
         7           O   tau(   7) = (  0.5000000  0.5835370  0.1654750  )
         8           O   tau(   8) = (  0.0000000  0.1014060  0.8192350  )
         9           O   tau(   9) = (  0.0000000  0.8985940  0.3192350  )
        10           O   tau(  10) = (  0.5000000  0.4164630  0.6654750  )
        11           O   tau(  11) = (  0.5000000  0.9939400  0.0827200  )
        12           O   tau(  12) = (  0.0000000  0.6924010  0.9193230  )
        13           O   tau(  13) = (  0.5000000  0.0060600  0.5827200  )
        14           O   tau(  14) = (  0.0000000  0.3075990  0.4193230  )

     number of k points=     1  Methfessel-Paxton smearing, width (Ry)=  0.0010
                       cart. coord. in units 2pi/alat
        k(    1) = (   0.0000000   0.0000000   0.0000000), wk =   2.0000000

                       cryst. coord.
        k(    1) = (   0.0000000   0.0000000   0.0000000), wk =   2.0000000

     Check: negative core charge=   -0.000029

     Initial potential from superposition of free atoms

     starting charge     123.9871, renormalised to     126.0000
     Starting wfcs are   94 randomized atomic wfcs
     Checking if some PAW data can be deallocated...

     Self-consistent Calculation

     iteration #  1     ecut=    30.00 Ry     beta= 0.70
     Davidson diagonalization with overlap

     ethr =  1.00E-02,  avg # of iterations =  2.0

     total energy              =   -1361.66912486 Ry
     estimated scf accuracy    <       9.52841980 Ry

[...]

     total energy              =   -1368.05488754 Ry
     estimated scf accuracy    <       0.00000447 Ry

     iteration # 67     ecut=    30.00 Ry     beta= 0.70
     Davidson diagonalization with overlap

     ethr =  1.47E-09,  avg # of iterations =  1.0

     End of self-consistent calculation

          k = 0.0000 0.0000 0.0000 (  1521 PWs)   bands (ev):

   -71.6712 -71.6710 -71.3330 -71.3327 -42.9311 -42.9302 -40.7105 -40.7053
   -40.2287 -40.2286 -40.1610 -40.1603 -40.1445 -40.1433 -40.1164 -40.1153
   -39.9002 -39.8961 -14.8829 -14.8770 -14.8305 -14.8256 -14.8087 -14.8056
   -11.3186 -10.9168 -10.6041 -10.1579  -9.8269  -9.8266  -9.2252  -9.2081
     1.7641   1.7934   2.5455   2.6715   2.7428   2.9711   3.2428   3.3097
     3.3447   3.4515   3.7824   3.7856   3.9896   4.5267   4.8222   4.9635
     5.2011   5.2658   5.9867   6.0766   6.3360   6.4029   6.5259   6.5639
     7.5717   7.7642   7.8295   7.9541   8.0017   8.0913   8.1704   8.1902
     8.1929   8.4138   8.4582   8.6501   8.8304   9.4037  10.1906  10.7920
    10.8998  11.0637  11.5136  11.5207

     occupation numbers
     1.0000   1.0000   1.0000   1.0000   1.0000   1.0000   1.0000   1.0000
     1.0000   1.0000   1.0000   1.0000   1.0000   1.0000   1.0000   1.0000
     1.0000   1.0000   1.0000   1.0000   1.0000   1.0000   1.0000   1.0000
     1.0000   1.0000   1.0000   1.0000   1.0000   1.0000   1.0000   1.0000
     1.0000   1.0000   1.0000   1.0000   1.0000   1.0000   1.0000   1.0000
     1.0000   1.0000   1.0000   1.0000   1.0000   1.0000   1.0000   1.0000
     1.0000   1.0000   1.0000   1.0000   1.0000   1.0000   1.0000   1.0000
     1.0000   1.0000   1.0000   1.0000   1.0000   1.0000   0.9755   0.0372
    -0.0127  -0.0000  -0.0000  -0.0000  -0.0000  -0.0000  -0.0000  -0.0000
    -0.0000  -0.0000  -0.0000  -0.0000

     the Fermi energy is     8.1805 ev

!    total energy              =   -1368.05488728 Ry
     estimated scf accuracy    <       0.00000039 Ry
     smearing contrib. (-TS)   =       0.00010010 Ry
     internal energy E=F+TS    =   -1368.05498738 Ry

     The total energy is F=E-TS. E is the sum of the following terms:
     one-electron contribution =    -842.73519928 Ry
     hartree contribution      =     475.16557374 Ry
     xc contribution           =    -193.57843451 Ry
     ewald contribution        =    -730.74250834 Ry
     one-center paw contrib.   =     -76.16441899 Ry
      -> PAW hartree energy AE =     231.63271909 Ry
      -> PAW hartree energy PS =    -230.79069468 Ry
      -> PAW xc energy AE      =    -136.52157470 Ry
      -> PAW xc energy PS      =      59.51513130 Ry
      -> total E_H with PAW    =     476.00759815 Ry
      -> total E_XC with PAW   =    -270.58487791 Ry

     convergence has been achieved in  67 iterations

     Forces acting on atoms (cartesian axes, Ry/au):

     atom    1 type  1   force =     0.00000000   -0.00157411    0.00204489
     atom    2 type  1   force =     0.00000000    0.00157411    0.00204489
     atom    3 type  2   force =     0.00000000   -0.03041002    0.04348071
     atom    4 type  2   force =     0.00000000    0.03312588    0.06306604
     atom    5 type  2   force =     0.00000000   -0.03312588    0.06306604
     atom    6 type  2   force =     0.00000000    0.03041002    0.04348071
     atom    7 type  3   force =     0.00000000    0.09831579   -0.02647261
     atom    8 type  3   force =     0.00000000   -0.09559402    0.00108293
     atom    9 type  3   force =     0.00000000    0.09559402    0.00108293
     atom   10 type  3   force =     0.00000000   -0.09831579   -0.02647261
     atom   11 type  3   force =     0.00000000   -0.07783719   -0.04618592
     atom   12 type  3   force =    -0.00000000    0.11489405   -0.03701604
     atom   13 type  3   force =     0.00000000    0.07783719   -0.04618592
     atom   14 type  3   force =     0.00000000   -0.11489405   -0.03701604
     The non-local contrib.  to forces
     atom    1 type  1   force =     0.00000000   -0.05263544   -0.00232262
     atom    2 type  1   force =     0.00000000    0.05263544   -0.00232262
     atom    3 type  2   force =     0.00000000   -0.13454260   -0.02089457
     atom    4 type  2   force =     0.00000000   -0.03554310   -0.07909732
     atom    5 type  2   force =     0.00000000    0.03554310   -0.07909732
     atom    6 type  2   force =     0.00000000    0.13454260   -0.02089457
     atom    7 type  3   force =     0.00000000    0.53997571   -0.27759439
     atom    8 type  3   force =     0.00000000   -0.27334289   -0.26534435
     atom    9 type  3   force =     0.00000000    0.27334289   -0.26534435
     atom   10 type  3   force =     0.00000000   -0.53997571   -0.27759439
     atom   11 type  3   force =     0.00000000   -0.51061013   -0.14668013
     atom   12 type  3   force =     0.00000000    0.52744017    0.15611131
     atom   13 type  3   force =     0.00000000    0.51061013   -0.14668013
     atom   14 type  3   force =     0.00000000   -0.52744017    0.15611131
     The ionic contribution  to forces
     atom    1 type  1   force =     0.00000000    0.24860249    4.11791017
     atom    2 type  1   force =    -0.00000000   -0.24860249    4.11791017
     atom    3 type  2   force =     0.00000000   -8.94043004    4.41485186
     atom    4 type  2   force =    -0.00000000   -9.27942988  -13.28716830
     atom    5 type  2   force =    -0.00000000    9.27942988  -13.28716830
     atom    6 type  2   force =    -0.00000000    8.94043004    4.41485186
     atom    7 type  3   force =     0.00000000  -16.70767755    5.17612070
     atom    8 type  3   force =     0.00000000    7.61456884    5.41740342
     atom    9 type  3   force =    -0.00000000   -7.61456884    5.41740342
     atom   10 type  3   force =     0.00000000   16.70767755    5.17612070
     atom   11 type  3   force =    -0.00000000   15.71236588    0.31996648
     atom   12 type  3   force =    -0.00000000  -13.74897631   -6.15908433
     atom   13 type  3   force =     0.00000000  -15.71236588    0.31996648
     atom   14 type  3   force =    -0.00000000   13.74897631   -6.15908433
     The local contribution  to forces
     atom    1 type  1   force =    -0.00000002   -0.19731736   -4.11285731
     atom    2 type  1   force =     0.00000020    0.19760421   -4.11427564
     atom    3 type  2   force =     0.00000950    9.03674087   -4.34875788
     atom    4 type  2   force =    -0.00000429    9.34811442   13.43275752
     atom    5 type  2   force =    -0.00000328   -9.34858189   13.43115413
     atom    6 type  2   force =     0.00000914   -9.03708079   -4.35035382
     atom    7 type  3   force =     0.00000264   16.27089748   -4.92753253
     atom    8 type  3   force =    -0.00000046   -7.43873796   -5.15309810
     atom    9 type  3   force =    -0.00000590    7.43892421   -5.15377190
     atom   10 type  3   force =     0.00000230  -16.27055736   -4.92775894
     atom   11 type  3   force =     0.00000445  -15.28425792   -0.22085242
     atom   12 type  3   force =    -0.00000170   13.34087684    5.96822186
     atom   13 type  3   force =    -0.00000082   15.28382521   -0.22203386
     atom   14 type  3   force =    -0.00000251  -13.34117956    5.96693047
     The core correction contribution to forces
     atom    1 type  1   force =     0.00000000    0.00000000    0.00000000
     atom    2 type  1   force =     0.00000000    0.00000000    0.00000000
     atom    3 type  2   force =     0.00000025    0.00749379   -0.00094169
     atom    4 type  2   force =    -0.00000018   -0.00026990   -0.00240480
     atom    5 type  2   force =    -0.00000021    0.00026693   -0.00240066
     atom    6 type  2   force =     0.00000021   -0.00749381   -0.00094084
     atom    7 type  3   force =     0.00000005   -0.00454483    0.00258924
     atom    8 type  3   force =    -0.00000002    0.00225737    0.00233408
     atom    9 type  3   force =    -0.00000005   -0.00225752    0.00233380
     atom   10 type  3   force =     0.00000003    0.00454451    0.00258899
     atom   11 type  3   force =     0.00000009    0.00429971    0.00202356
     atom   12 type  3   force =    -0.00000003   -0.00475986   -0.00142860
     atom   13 type  3   force =     0.00000005   -0.00429995    0.00202273
     atom   14 type  3   force =    -0.00000006    0.00476031   -0.00142902
     The Hubbard contrib.    to forces
     atom    1 type  1   force =     0.00000000    0.00000000    0.00000000
     atom    2 type  1   force =     0.00000000    0.00000000    0.00000000
     atom    3 type  2   force =     0.00000000    0.00000000    0.00000000
     atom    4 type  2   force =     0.00000000    0.00000000    0.00000000
     atom    5 type  2   force =     0.00000000    0.00000000    0.00000000
     atom    6 type  2   force =     0.00000000    0.00000000    0.00000000
     atom    7 type  3   force =     0.00000000    0.00000000    0.00000000
     atom    8 type  3   force =     0.00000000    0.00000000    0.00000000
     atom    9 type  3   force =     0.00000000    0.00000000    0.00000000
     atom   10 type  3   force =     0.00000000    0.00000000    0.00000000
     atom   11 type  3   force =     0.00000000    0.00000000    0.00000000
     atom   12 type  3   force =     0.00000000    0.00000000    0.00000000
     atom   13 type  3   force =     0.00000000    0.00000000    0.00000000
     atom   14 type  3   force =     0.00000000    0.00000000    0.00000000
     The SCF correction term to forces
     atom    1 type  1   force =    -0.00000013   -0.00023009   -0.00068335
     atom    2 type  1   force =    -0.00000000   -0.00006934    0.00072402
     atom    3 type  2   force =    -0.00000612    0.00034649   -0.00075537
     atom    4 type  2   force =     0.00000142    0.00022075   -0.00102243
     atom    5 type  2   force =    -0.00000042    0.00018250    0.00057260
     atom    6 type  2   force =    -0.00000551    0.00003052    0.00078948
     atom    7 type  3   force =    -0.00000061   -0.00035966   -0.00004585
     atom    8 type  3   force =    -0.00000072   -0.00033995   -0.00020422
     atom    9 type  3   force =     0.00000378    0.00015269    0.00044710
     atom   10 type  3   force =    -0.00000117   -0.00002943    0.00015428
     atom   11 type  3   force =    -0.00000049    0.00035392   -0.00061473
     atom   12 type  3   force =     0.00000036    0.00032636   -0.00083110
     atom   13 type  3   force =     0.00000231    0.00005635    0.00050323
     atom   14 type  3   force =    -0.00000089    0.00000221    0.00044339

     Total force =     0.316750     Total SCF correction =     0.002472

     Computing stress (Cartesian axis) and pressure

          total   stress  (Ry/bohr**3)                   (kbar)     P=     -580.23
  -0.00329229   0.00000000   0.00000000         -484.31        0.00        0.00
   0.00000000  -0.00475261   0.00000000            0.00     -699.13        0.00
   0.00000000   0.00000000  -0.00378803            0.00        0.00     -557.24

     kinetic stress (kbar)  30654.73      0.00      0.00
                                0.00  30580.89      0.00
                                0.00      0.00  30059.87

     local   stress (kbar) -42974.36      0.02      0.05
                                0.02  18773.67     -0.24
                                0.05     -0.24  -9342.65

     nonloc. stress (kbar)   -316.28      0.00      0.00
                                0.00   -207.82      0.00
                                0.00      0.00   -250.23

     hartree stress (kbar)  34971.49     -0.01     -0.01
                               -0.01   7636.74      0.25
                               -0.01      0.25  21227.30

     exc-cor stress (kbar)  -5731.01     -0.00     -0.00
                               -0.00  -5743.33     -0.00
                               -0.00     -0.00  -5756.15

     corecor stress (kbar)  -2383.10      0.00      0.00
                                0.00  -2387.05      0.00
                                0.00      0.00  -2382.70

     ewald   stress (kbar) -14705.78      0.00      0.00
                                0.00 -49352.24     -0.00
                                0.00     -0.00 -34112.68

     hubbard stress (kbar)      0.00      0.00      0.00
                                0.00      0.00      0.00
                                0.00      0.00      0.00

     DFT-D   stress (kbar)      0.00      0.00      0.00
                                0.00      0.00      0.00
                                0.00      0.00      0.00

     XDM     stress (kbar)      0.00      0.00      0.00
                                0.00      0.00      0.00
                                0.00      0.00      0.00

     dft-nl  stress (kbar)      0.00      0.00      0.00
                                0.00      0.00      0.00
                                0.00      0.00      0.00

     TS-vdW  stress (kbar)      0.00      0.00      0.00
                                0.00      0.00      0.00
                                0.00      0.00      0.00

[...]

                                0.00      0.00      0.00

     Writing all to output data dir new_calculations/myprefix.save/

     General routines

     Parallel routines

     PAW routines

   This run was terminated on:  23:11:29  20May2023

   JOB DONE.