     Program PWSCF v.7.1 starts on 16Jul2023 at 17: 3:38

     Reading input from espresso_15725.pwi
Warning: card &CELL ignored
Warning: card / ignored

     Current dimensions of program PWSCF are:
     Max number of different atomic species (ntypx) = 10
     Max number of k-points (npk) =  40000
     Max angular momentum in pseudopotentials (lmaxx) =  4
     Message from routine setup:
     using ibrav=0 with symmetry is DISCOURAGED, use correct ibrav instead

     K-points division:     npool     =       2
     R & G space division:  proc/nbgrp/npool/nimage =       4
     Subspace diagonalization in iterative solution of the eigenvalue problem:
     a serial algorithm will be used

     Using Slab Decomposition

     bravais-lattice index     =            0
     lattice parameter (alat)  =       9.8538  a.u.
     unit-cell volume          =    1348.2870 (a.u.)^3
     number of atoms/cell      =           12
     number of atomic types    =            3
     number of electrons       =       168.00
     number of Kohn-Sham states=          101
     kinetic-energy cutoff     =      30.0000  Ry
     charge density cutoff     =     240.0000  Ry
     scf convergence threshold =      1.0E-06
     mixing beta               =       0.7000
     number of iterations used =            8  plain     mixing
     Exchange-correlation=  SLA  PW   PBX  PBC
                           (   1   4   3   4   0   0   0)

     celldm(1)=   9.853766  celldm(2)=   0.000000  celldm(3)=   0.000000
     celldm(4)=   0.000000  celldm(5)=   0.000000  celldm(6)=   0.000000

     crystal axes: (cart. coord. in units of alat)
               a(1) = (   1.000000   0.000000   0.000000 )
               a(2) = (   0.493005   0.873661   0.000000 )
               a(3) = (   0.000000   0.000000   1.612993 )

     reciprocal axes: (cart. coord. in units 2 pi/alat)
               b(1) = (  1.000000 -0.564298  0.000000 )
               b(2) = (  0.000000  1.144608  0.000000 )
               b(3) = (  0.000000  0.000000  0.619965 )

     PseudoPot. # 1 for Zr read from file:
     /lustre07/scratch/pragov/crystal_structure_design/utils/SSSP/Zr_pbe_v1.uspp.F.UPF
     MD5 check sum: 5db81b1e868ab7776c4564c113de050b
     Pseudo is Ultrasoft + core correction, Zval = 12.0
     Generated by new atomic code, or converted to UPF format
     Using radial grid of  887 points,  6 beta functions with:
                l(1) =   0
                l(2) =   0
                l(3) =   1
                l(4) =   1
                l(5) =   2
                l(6) =   2
     Q(r) pseudized with  6 coefficients,  rinner =    1.200   1.200   1.200
                                                       1.200   1.200

     PseudoPot. # 2 for Ti read from file:
     /lustre07/scratch/pragov/crystal_structure_design/utils/SSSP/ti_pbe_v1.4.uspp.F.UPF
     MD5 check sum: 88a00a6731bd790ddea75d31a80cb452
     Pseudo is Ultrasoft + core correction, Zval = 12.0
     Generated by new atomic code, or converted to UPF format
     Using radial grid of  851 points,  6 beta functions with:
                l(1) =   0
                l(2) =   0
                l(3) =   1
                l(4) =   1
                l(5) =   2
                l(6) =   2
     Q(r) pseudized with  6 coefficients,  rinner =    1.000   1.000   1.000
                                                       1.000   1.000

     PseudoPot. # 3 for Ni read from file:
     /lustre07/scratch/pragov/crystal_structure_design/utils/SSSP/ni_pbe_v1.4.uspp.F.UPF
     MD5 check sum: 1ee80287db30b12d2bc1f57a5b5d6409
     Pseudo is Ultrasoft + core correction, Zval = 18.0
     Generated by new atomic code, or converted to UPF format
     Using radial grid of  865 points,  6 beta functions with:
                l(1) =   0
                l(2) =   0
                l(3) =   1
                l(4) =   1
                l(5) =   2
                l(6) =   2
     Q(r) pseudized with 10 coefficients,  rinner =    0.980   0.980   0.980
                                                       0.980   0.980

     atomic species   valence    mass     pseudopotential
        Zr            12.00    91.22400     Zr( 1.00)
        Ti            12.00    47.86700     Ti( 1.00)
        Ni            18.00    58.69340     Ni( 1.00)

      2 Sym. Ops. (no inversion) found ( 1 have fractional translation)

                                    s                        frac. trans.

      isym =  1     identity

 cryst.   s( 1) = (     1          0          0      )
                  (     0          1          0      )
                  (     0          0          1      )

 cart.    s( 1) = (  1.0000000  0.0000000  0.0000000 )
                  (  0.0000000  1.0000000  0.0000000 )
                  (  0.0000000  0.0000000  1.0000000 )

      isym =  2     inv. 180 deg rotation - cart. axis [0,0,1]

 cryst.   s( 2) = (     1          0          0      )    f =(  0.0000000 )
                  (     0          1          0      )       (  0.0000000 )
                  (     0          0         -1      )       (  0.5000000 )

 cart.    s( 2) = (  1.0000000  0.0000000  0.0000000 )    f =(  0.0000000 )
                  (  0.0000000  1.0000000  0.0000000 )       (  0.0000000 )
                  (  0.0000000  0.0000000 -1.0000000 )       (  0.8064967 )

   Cartesian axes

     site n.     atom                  positions (alat units)
         1           Zr  tau(   1) = (   0.4804823   0.2807458   0.9185626  )
         2           Zr  tau(   2) = (   0.9777978   0.5725268   0.7387639  )
         3           Zr  tau(   3) = (   0.9777978   0.5725268   0.0677328  )
         4           Zr  tau(   4) = (   0.4804823   0.2807458   1.5009275  )
         5           Ti  tau(   5) = (   1.2850584   0.7518886   1.2097451  )
         6           Ti  tau(   6) = (   0.4834800   0.5781304   0.4032484  )
         7           Ti  tau(   7) = (   0.7393815   0.1363916   0.4032484  )
         8           Ti  tau(   8) = (   0.2514123   0.1484080   0.4032484  )
         9           Ni  tau(   9) = (   0.0011556   0.0007985   0.8084791  )
        10           Ni  tau(  10) = (   0.0011556   0.0007985   1.6110110  )
        11           Ni  tau(  11) = (   1.0162618   0.3104773   1.2097451  )
        12           Ni  tau(  12) = (   0.7705621   0.7348670   1.2097451  )

   Crystallographic axes

     site n.     atom                  positions (cryst. coord.)
         1           Zr  tau(   1) = (  0.3220580  0.3213440  0.5694770  )
         2           Zr  tau(   2) = (  0.6547220  0.6553190  0.4580080  )
         3           Zr  tau(   3) = (  0.6547220  0.6553190  0.0419920  )
         4           Zr  tau(   4) = (  0.3220580  0.3213440  0.9305230  )
         5           Ti  tau(   5) = (  0.8607690  0.8606180  0.7500000  )
         6           Ti  tau(   6) = (  0.1572420  0.6617330  0.2500000  )
         7           Ti  tau(   7) = (  0.6624160  0.1561150  0.2500000  )
         8           Ti  tau(   8) = (  0.1676660  0.1698690  0.2500000  )
         9           Ni  tau(   9) = (  0.0007050  0.0009140  0.5012290  )
        10           Ni  tau(  10) = (  0.0007050  0.0009140  0.9987710  )
        11           Ni  tau(  11) = (  0.8410600  0.3553750  0.7500000  )
        12           Ni  tau(  12) = (  0.3558780  0.8411350  0.7500000  )

     number of k points=    10  Gaussian smearing, width (Ry)=  0.0010
                       cart. coord. in units 2pi/alat
        k(    1) = (   0.0000000   0.0000000   0.0000000), wk =   0.0740741
        k(    2) = (   0.0000000   0.0000000   0.2066551), wk =   0.1481481
        k(    3) = (   0.0000000   0.3815362   0.0000000), wk =   0.1481481
        k(    4) = (   0.0000000   0.3815362   0.2066551), wk =   0.2962963
        k(    5) = (   0.3333333  -0.1880994   0.0000000), wk =   0.1481481
        k(    6) = (   0.3333333  -0.1880994   0.2066551), wk =   0.2962963
        k(    7) = (   0.3333333   0.1934368   0.0000000), wk =   0.1481481
        k(    8) = (   0.3333333   0.1934368   0.2066551), wk =   0.2962963
        k(    9) = (   0.3333333  -0.5696356   0.0000000), wk =   0.1481481
        k(   10) = (   0.3333333  -0.5696356   0.2066551), wk =   0.2962963

                       cryst. coord.
        k(    1) = (   0.0000000   0.0000000   0.0000000), wk =   0.0740741
        k(    2) = (   0.0000000   0.0000000   0.3333333), wk =   0.1481481
        k(    3) = (   0.0000000   0.3333333   0.0000000), wk =   0.1481481
        k(    4) = (   0.0000000   0.3333333   0.3333333), wk =   0.2962963
        k(    5) = (   0.3333333   0.0000000   0.0000000), wk =   0.1481481
        k(    6) = (   0.3333333   0.0000000   0.3333333), wk =   0.2962963
        k(    7) = (   0.3333333   0.3333333   0.0000000), wk =   0.1481481
        k(    8) = (   0.3333333   0.3333333   0.3333333), wk =   0.2962963
        k(    9) = (   0.3333333  -0.3333333   0.0000000), wk =   0.1481481
        k(   10) = (   0.3333333  -0.3333333   0.3333333), wk =   0.2962963

     Check: negative core charge=   -0.000009

     Initial potential from superposition of free atoms

     starting charge     155.9912, renormalised to     168.0000

     negative rho (up, down):  2.707E-01 0.000E+00
     Starting wfcs are  144 randomized atomic wfcs

     Self-consistent Calculation

     iteration #  1     ecut=    30.00 Ry     beta= 0.70
     Davidson diagonalization with overlap

     ethr =  1.00E-02,  avg # of iterations =  3.8

     negative rho (up, down):  2.402E-01 0.000E+00

     total energy              =   -2072.88434305 Ry
     estimated scf accuracy    <     231.76736546 Ry

[...]

     c_bands:  1 eigenvalues not converged
     ethr =  3.56E-07,  avg # of iterations =  6.6

[...]

     total energy              =   -2246.30223573 Ry
     estimated scf accuracy    <       0.00000738 Ry

     iteration # 33     ecut=    30.00 Ry     beta= 0.70
     Davidson diagonalization with overlap

     ethr =  1.10E-09,  avg # of iterations =  2.2

     negative rho (up, down):  2.562E-01 0.000E+00

     End of self-consistent calculation

          k = 0.0000 0.0000 0.0000 (  3733 PWs)   bands (ev):

   -88.6974 -88.6974 -88.6104 -88.6011 -49.0921 -49.0912 -49.0088 -48.9796
   -48.9678 -48.9618 -48.9578 -48.9526 -48.9081 -48.8723 -48.8620 -48.8588
   -41.7448 -41.3310 -41.1531 -41.0877 -33.5562 -33.5278 -33.4693 -33.4463
   -18.2224 -18.0375 -18.0307 -18.0223 -17.7865 -17.7699 -17.6288 -17.4760
   -17.4177 -17.1933 -17.0416 -16.9804 -11.7967 -11.7472 -11.7314 -11.7219
   -11.7098 -11.5725 -11.4560 -11.4072 -11.4052 -11.3820 -11.3809 -11.3727
     8.2897  10.5289  10.6290  11.6108  11.6167  11.8367  11.8687  12.0839
    12.4032  12.4471  12.4706  12.4801  12.5682  12.7210  12.7260  12.7788
    12.9013  12.9403  13.1492  13.1528  13.1618  13.1964  13.3730  13.6556
    13.8400  13.9298  14.0311  14.0962  14.1429  14.2359  14.2783  14.5089
    14.5409  14.5756  14.7289  14.9006  14.9968  15.3782  15.4571  15.4929
    15.4989  15.7508  15.9046  16.0818  16.2153  16.2163  16.6794  16.6846
    17.4467  17.6707  17.8065  17.8347  17.8610

     occupation numbers
     1.0000   1.0000   1.0000   1.0000   1.0000   1.0000   1.0000   1.0000
     1.0000   1.0000   1.0000   1.0000   1.0000   1.0000   1.0000   1.0000
     1.0000   1.0000   1.0000   1.0000   1.0000   1.0000   1.0000   1.0000
     1.0000   1.0000   1.0000   1.0000   1.0000   1.0000   1.0000   1.0000
     1.0000   1.0000   1.0000   1.0000   1.0000   1.0000   1.0000   1.0000
     1.0000   1.0000   1.0000   1.0000   1.0000   1.0000   1.0000   1.0000
     1.0000   1.0000   1.0000   1.0000   1.0000   1.0000   1.0000   1.0000
     1.0000   1.0000   1.0000   1.0000   1.0000   1.0000   1.0000   1.0000
     1.0000   1.0000   1.0000   1.0000   1.0000   1.0000   1.0000   1.0000
     1.0000   1.0000   1.0000   1.0000   1.0000   1.0000   1.0000   1.0000
     1.0000   1.0000   1.0000   1.0000   0.6797   0.0000   0.0000   0.0000
     0.0000   0.0000   0.0000   0.0000   0.0000   0.0000   0.0000   0.0000
     0.0000   0.0000   0.0000   0.0000   0.0000

[...]

          k = 0.3333-0.5696 0.2067 (  3721 PWs)   bands (ev):

   -88.6969 -88.6962 -88.6084 -88.6019 -49.0926 -49.0915 -48.9964 -48.9835
   -48.9634 -48.9594 -48.9541 -48.9496 -48.8951 -48.8720 -48.8665 -48.8648
   -41.7440 -41.2531 -41.2162 -41.1045 -33.5293 -33.4970 -33.4893 -33.4847
   -18.0416 -18.0299 -18.0239 -17.8116 -17.7442 -17.6445 -17.5632 -17.5310
   -17.4332 -17.3844 -17.3054 -17.1477 -11.8181 -11.7915 -11.7662 -11.6614
   -11.6253 -11.6034 -11.5253 -11.4625 -11.4039 -11.3561 -11.3401 -11.3326
    10.2205  10.8923  10.9791  11.4681  11.8268  11.8504  11.9901  12.0425
    12.1751  12.3654  12.5273  12.5583  12.6849  12.6861  12.7104  12.8120
    12.8580  12.8867  12.9570  13.1051  13.1478  13.2714  13.3590  13.3961
    13.4753  13.5284  13.6531  13.8802  14.0147  14.0640  14.2782  14.5117
    14.5305  14.7335  14.8847  15.0038  15.0899  15.2314  15.3970  15.6144
    15.6339  15.7808  15.9542  16.0040  16.2963  16.4668  16.5800  16.8013
    16.9394  17.0850  17.2547  17.3189  17.4556

     occupation numbers
     1.0000   1.0000   1.0000   1.0000   1.0000   1.0000   1.0000   1.0000
     1.0000   1.0000   1.0000   1.0000   1.0000   1.0000   1.0000   1.0000
     1.0000   1.0000   1.0000   1.0000   1.0000   1.0000   1.0000   1.0000
     1.0000   1.0000   1.0000   1.0000   1.0000   1.0000   1.0000   1.0000
     1.0000   1.0000   1.0000   1.0000   1.0000   1.0000   1.0000   1.0000
     1.0000   1.0000   1.0000   1.0000   1.0000   1.0000   1.0000   1.0000
     1.0000   1.0000   1.0000   1.0000   1.0000   1.0000   1.0000   1.0000
     1.0000   1.0000   1.0000   1.0000   1.0000   1.0000   1.0000   1.0000
     1.0000   1.0000   1.0000   1.0000   1.0000   1.0000   1.0000   1.0000
     1.0000   1.0000   1.0000   1.0000   1.0000   1.0000   1.0000   1.0000
     1.0000   1.0000   1.0000   0.3963   0.0000   0.0000   0.0000   0.0000
     0.0000   0.0000   0.0000   0.0000   0.0000   0.0000   0.0000   0.0000
     0.0000   0.0000   0.0000   0.0000   0.0000

     the Fermi energy is    15.0013 ev

!    total energy              =   -2246.30223609 Ry
     estimated scf accuracy    <       0.00000006 Ry
     smearing contrib. (-TS)   =      -0.00027190 Ry
     internal energy E=F+TS    =   -2246.30196419 Ry

     The total energy is F=E-TS. E is the sum of the following terms:
     one-electron contribution =   -1313.28956828 Ry
     hartree contribution      =     734.72335459 Ry
     xc contribution           =    -285.36148112 Ry
     ewald contribution        =   -1382.37426938 Ry

     convergence has been achieved in  33 iterations

     Writing all to output data dir energy_m/myprefix.save/

     General routines

     Parallel routines

   This run was terminated on:  17: 4:25  16Jul2023

   JOB DONE.