     Program PWSCF v.7.0 starts on 20May2023 at 17: 9:23

     Reading input from espresso_668.pwi
Warning: card &CELL ignored
Warning: card / ignored

     Current dimensions of program PWSCF are:
     Max number of different atomic species (ntypx) = 10
     Max number of k-points (npk) =  40000
     Max angular momentum in pseudopotentials (lmaxx) =  4
     file Al.pbe-n-kjpaw_psl.1.0.0.UPF: wavefunction(s)  3S 3P renormalized

     gamma-point specific algorithms are used
     Message from routine setup:
     using ibrav=0 with symmetry is DISCOURAGED, use correct ibrav instead

     Subspace diagonalization in iterative solution of the eigenvalue problem:
     a serial algorithm will be used

     Using Slab Decomposition

     bravais-lattice index     =            0
     lattice parameter (alat)  =       7.9660  a.u.
     unit-cell volume          =     675.7889 (a.u.)^3
     number of atoms/cell      =            5
     number of atomic types    =            3
     number of electrons       =        35.00
     number of Kohn-Sham states=           22
     kinetic-energy cutoff     =      30.0000  Ry
     charge density cutoff     =     240.0000  Ry
     scf convergence threshold =      1.0E-06
     mixing beta               =       0.7000
     number of iterations used =            8  plain     mixing
     Exchange-correlation= PBE
                           (   1   4   3   4   0   0   0)

     celldm(1)=   7.966010  celldm(2)=   0.000000  celldm(3)=   0.000000
     celldm(4)=   0.000000  celldm(5)=   0.000000  celldm(6)=   0.000000

     crystal axes: (cart. coord. in units of alat)
               a(1) = (   1.000000   0.000000   0.000000 )
               a(2) = (  -0.500000   0.866026   0.000000 )
               a(3) = (   0.000000   0.000000   1.543682 )

     reciprocal axes: (cart. coord. in units 2 pi/alat)
               b(1) = (  1.000000  0.577350  0.000000 )
               b(2) = (  0.000000  1.154700  0.000000 )
               b(3) = (  0.000000  0.000000  0.647802 )

     PseudoPot. # 1 for Ho read from file:
     /home/pragov/projects/rrg-bengioy-ad/pragov/crystal_structure_design/SSSP/Ho.GGA-PBE-paw-v1.0.UPF
     MD5 check sum: 3d93cae5f38e6cc822e0e70538981326
     Pseudo is Projector augmented-wave + core cor, Zval = 21.0
     Generated using ATOMPAW code
     Shape of augmentation charge: BESSEL
     Using radial grid of 1114 points,  8 beta functions with:
                l(1) =   0
                l(2) =   0
                l(3) =   1
                l(4) =   1
                l(5) =   2
                l(6) =   2
                l(7) =   3
                l(8) =   3
     Q(r) pseudized with 0 coefficients

     PseudoPot. # 2 for Al read from file:
     /home/pragov/projects/rrg-bengioy-ad/pragov/crystal_structure_design/SSSP/Al.pbe-n-kjpaw_psl.1.0.0.UPF
     MD5 check sum: cfc449ca30b5f3223ec38ddd88ac046d
     Pseudo is Projector augmented-wave + core cor, Zval =  3.0
     Generated using "atomic" code by A. Dal Corso  v.5.1
     Shape of augmentation charge: PSQ
     Using radial grid of 1135 points,  6 beta functions with:
                l(1) =   0
                l(2) =   0
                l(3) =   1
                l(4) =   1
                l(5) =   2
                l(6) =   2
     Q(r) pseudized with 0 coefficients

     PseudoPot. # 3 for Si read from file:
     /home/pragov/projects/rrg-bengioy-ad/pragov/crystal_structure_design/SSSP/Si.pbe-n-rrkjus_psl.1.0.0.UPF
     MD5 check sum: 0b0bb1205258b0d07b9f9672cf965d36
     Pseudo is Ultrasoft + core correction, Zval =  4.0
     Generated using "atomic" code by A. Dal Corso  v.5.1
     Using radial grid of 1141 points,  6 beta functions with:
                l(1) =   0
                l(2) =   0
                l(3) =   1
                l(4) =   1
                l(5) =   2
                l(6) =   2
     Q(r) pseudized with 0 coefficients

     atomic species   valence    mass     pseudopotential
        Ho            21.00   164.93033     Ho( 1.00)
        Al             3.00    26.98154     Al( 1.00)
        Si             4.00    28.08500     Si( 1.00)

     12 Sym. Ops., with inversion, found

                                    s                        frac. trans.

      isym =  1     identity

 cryst.   s( 1) = (     1          0          0      )
                  (     0          1          0      )
                  (     0          0          1      )

 cart.    s( 1) = (  1.0000000  0.0000000  0.0000000 )
                  (  0.0000000  1.0000000  0.0000000 )
                  (  0.0000000  0.0000000  1.0000000 )

      isym =  2     180 deg rotation - cart. axis [1,0,0]

[...]

      isym =  3     120 deg rotation - cryst. axis [0,0,1]

[...]

      isym =  6     180 deg rotation - cryst. axis [1,1,0]

[...]

      isym =  7     inversion

[...]

      isym =  8     inv. 180 deg rotation - cart. axis [1,0,0]

[...]

      isym =  9     inv. 120 deg rotation - cryst. axis [0,0,1]

 cryst.   s( 9) = (     0         -1          0      )
                  (     1          1          0      )
                  (     0          0         -1      )

 cart.    s( 9) = (  0.4999998  0.8660253  0.0000000 )
                  ( -0.8660255  0.5000002  0.0000000 )
                  (  0.0000000  0.0000000 -1.0000000 )

[...]

 cryst.   s(10) = (     1          1          0      )
                  (    -1          0          0      )
                  (     0          0         -1      )

 cart.    s(10) = (  0.5000002 -0.8660253  0.0000000 )
                  (  0.8660255  0.4999998  0.0000000 )
                  (  0.0000000  0.0000000 -1.0000000 )

[...]

      isym = 12     inv. 180 deg rotation - cryst. axis [1,1,0]

 cryst.   s(12) = (     0         -1          0      )
                  (    -1          0          0      )
                  (     0          0          1      )

 cart.    s(12) = (  0.4999998 -0.8660255  0.0000000 )
                  ( -0.8660255 -0.4999998  0.0000000 )
                  (  0.0000000  0.0000000  1.0000000 )

   Cartesian axes

     site n.     atom                  positions (alat units)
         1           Ho  tau(   1) = (   0.0000000   0.0000000   0.0000000  )
         2           Al  tau(   2) = (   0.5000006   0.2886749   0.5480719  )
         3           Al  tau(   3) = (  -0.0000003   0.5773507   0.9956099  )
         4           Si  tau(   4) = (   0.5000006   0.2886749   1.1446925  )
         5           Si  tau(   5) = (  -0.0000003   0.5773507   0.3989893  )

   Crystallographic axes

     site n.     atom                  positions (cryst. coord.)
         1           Ho  tau(   1) = (  0.0000000  0.0000000  0.0000000  )
         2           Al  tau(   2) = (  0.6666670  0.3333330  0.3550420  )
         3           Al  tau(   3) = (  0.3333330  0.6666670  0.6449580  )
         4           Si  tau(   4) = (  0.6666670  0.3333330  0.7415340  )
         5           Si  tau(   5) = (  0.3333330  0.6666670  0.2584660  )

     number of k points=     1  Methfessel-Paxton smearing, width (Ry)=  0.0010
                       cart. coord. in units 2pi/alat
        k(    1) = (   0.0000000   0.0000000   0.0000000), wk =   2.0000000

                       cryst. coord.
        k(    1) = (   0.0000000   0.0000000   0.0000000), wk =   2.0000000

     Initial potential from superposition of free atoms

     starting charge      34.9900, renormalised to      35.0000
     Starting wfcs are   48 randomized atomic wfcs
     Checking if some PAW data can be deallocated...

     Self-consistent Calculation

     iteration #  1     ecut=    30.00 Ry     beta= 0.70
     Davidson diagonalization with overlap

     ethr =  1.00E-02,  avg # of iterations =  2.0

     total energy              =    -920.91241706 Ry
     estimated scf accuracy    <       8.05699633 Ry

[...]

     total energy              =    -930.38718365 Ry
     estimated scf accuracy    <       0.00001052 Ry

     iteration # 67     ecut=    30.00 Ry     beta= 0.70
     Davidson diagonalization with overlap

     ethr =  3.00E-08,  avg # of iterations =  1.0

     End of self-consistent calculation

          k = 0.0000 0.0000 0.0000 (   932 PWs)   bands (ev):

   -36.9591 -12.7248 -12.2335 -12.2333  -1.3392   1.3849   4.0213   7.3468
     7.3468   9.0037   9.0037   9.0471   9.5420   9.8729   9.8730  10.1431
    10.2954  10.3041  10.3041  10.5657  10.5658  10.7152

     occupation numbers
     1.0000   1.0000   1.0000   1.0000   1.0000   1.0000   1.0000   1.0000
     1.0000   1.0000   1.0000   1.0000   1.0000   1.0000   1.0000   1.0000
     0.8339   0.3342   0.3319  -0.0000  -0.0000  -0.0000

     the Fermi energy is    10.3014 ev

!    total energy              =    -930.38718265 Ry
     estimated scf accuracy    <       0.00000099 Ry
     smearing contrib. (-TS)   =      -0.00064129 Ry
     internal energy E=F+TS    =    -930.38654136 Ry

     The total energy is F=E-TS. E is the sum of the following terms:
     one-electron contribution =    -290.49797128 Ry
     hartree contribution      =     156.45703738 Ry
     xc contribution           =     -48.15332501 Ry
     ewald contribution        =    -194.76523721 Ry
     one-center paw contrib.   =    -553.42704524 Ry
      -> PAW hartree energy AE =     304.02739800 Ry
      -> PAW hartree energy PS =    -277.62656807 Ry
      -> PAW xc energy AE      =    -613.16690533 Ry
      -> PAW xc energy PS      =      33.33903015 Ry
      -> total E_H with PAW    =     182.85786732 Ry
      -> total E_XC with PAW   =    -627.98120019 Ry

     convergence has been achieved in  67 iterations

     Forces acting on atoms (cartesian axes, Ry/au):

     atom    1 type  1   force =     0.00000000    0.00000000    0.00000000
     atom    2 type  2   force =     0.00000000   -0.00000000   -0.00514488
     atom    3 type  2   force =     0.00000000   -0.00000000    0.00514488
     atom    4 type  3   force =    -0.00000000   -0.00000000   -0.02706951
     atom    5 type  3   force =     0.00000000   -0.00000000    0.02706951
     The non-local contrib.  to forces
     atom    1 type  1   force =     0.00000000    0.00000000    0.00000000
     atom    2 type  2   force =     0.00000000    0.00000000   -0.06349912
     atom    3 type  2   force =     0.00000000    0.00000000    0.06349912
     atom    4 type  3   force =    -0.00000000   -0.00000000    0.15726175
     atom    5 type  3   force =     0.00000000    0.00000000   -0.15726175
     The ionic contribution  to forces
     atom    1 type  1   force =    -0.00000000    0.00000000   -0.00000000
     atom    2 type  2   force =    -0.00000542    0.00000313    2.66261733
     atom    3 type  2   force =     0.00000542   -0.00000313   -2.66261733
     atom    4 type  3   force =    -0.00000887    0.00000512   -5.02714672
     atom    5 type  3   force =     0.00000887   -0.00000512    5.02714672
     The local contribution  to forces
     atom    1 type  1   force =     0.00199740    0.00005232    0.00290456
     atom    2 type  2   force =     0.00000753   -0.00014778   -2.61045978
     atom    3 type  2   force =    -0.00001855    0.00015517    2.61028705
     atom    4 type  3   force =     0.00001209   -0.00008216    4.86016195
     atom    5 type  3   force =    -0.00005118    0.00007560   -4.86022892
     The core correction contribution to forces
     atom    1 type  1   force =     0.00000003    0.00000000    0.00000004
     atom    2 type  2   force =    -0.00000026   -0.00000503    0.00634419
     atom    3 type  2   force =     0.00000095    0.00000611   -0.00634638
     atom    4 type  3   force =     0.00000230   -0.00000145   -0.01785041
     atom    5 type  3   force =    -0.00000272    0.00000130    0.01784796
     The Hubbard contrib.    to forces
     atom    1 type  1   force =     0.00000000    0.00000000    0.00000000
     atom    2 type  2   force =     0.00000000    0.00000000    0.00000000
     atom    3 type  2   force =     0.00000000    0.00000000    0.00000000
     atom    4 type  3   force =     0.00000000    0.00000000    0.00000000
     atom    5 type  3   force =     0.00000000    0.00000000    0.00000000
     The SCF correction term to forces
     atom    1 type  1   force =    -0.00189215   -0.00011576   -0.00254427
     atom    2 type  2   force =     0.00000466    0.00003875   -0.00016740
     atom    3 type  2   force =     0.00000472   -0.00004031    0.00030250
     atom    4 type  3   force =     0.00001566    0.00002499    0.00048985
     atom    5 type  3   force =     0.00001212   -0.00002176   -0.00044856

     Total force =     0.038967     Total SCF correction =     0.003261

     Computing stress (Cartesian axis) and pressure

          total   stress  (Ry/bohr**3)                   (kbar)     P=      161.96
   0.00251791  -0.00000000   0.00000000          370.40       -0.00        0.00
  -0.00000000   0.00251791   0.00000000           -0.00      370.40        0.00
   0.00000000  -0.00000000  -0.00173277            0.00       -0.00     -254.90

     kinetic stress (kbar)   5204.88     -0.00      0.00
                               -0.00   5204.88      0.00
                                0.00      0.00   4494.13

     local   stress (kbar) -13219.34     -0.26     -0.01
                               -0.26 -13219.45     -0.94
                               -0.01     -0.94  11560.26

     nonloc. stress (kbar)   5738.95     -0.00      0.00
                               -0.00   5738.94     -0.00
                                0.00     -0.00   5636.04

     hartree stress (kbar)  15372.92      0.09      0.00
                                0.09  15372.77      0.39
                                0.00      0.39   3311.73

     exc-cor stress (kbar)   -760.14      0.00      0.00
                                0.00   -760.14      0.00
                                0.00      0.00   -761.24

     corecor stress (kbar)  -2011.66     -0.00      0.00
                               -0.00  -2011.68     -0.00
                                0.00     -0.00  -2009.66

     ewald   stress (kbar)  -9955.07     -0.01      0.00
                               -0.01  -9955.08     -0.00
                                0.00     -0.00 -22486.16

     hubbard stress (kbar)      0.00      0.00      0.00
                                0.00      0.00      0.00
                                0.00      0.00      0.00

     DFT-D   stress (kbar)      0.00      0.00      0.00
                                0.00      0.00      0.00
                                0.00      0.00      0.00

     XDM     stress (kbar)      0.00      0.00      0.00
                                0.00      0.00      0.00
                                0.00      0.00      0.00

     dft-nl  stress (kbar)      0.00      0.00      0.00
                                0.00      0.00      0.00
                                0.00      0.00      0.00

     TS-vdW  stress (kbar)      0.00      0.00      0.00
                                0.00      0.00      0.00
                                0.00      0.00      0.00

[...]

                                0.00      0.00      0.00

     Writing all to output data dir new_calculations/myprefix.save/

     General routines

     Parallel routines

     PAW routines

   This run was terminated on:  17:10:23  20May2023

   JOB DONE.