     Program PWSCF v.7.0 starts on 20May2023 at  7:42:32

     Reading input from espresso_8264.pwi
Warning: card &CELL ignored
Warning: card / ignored

     Current dimensions of program PWSCF are:
     Max number of different atomic species (ntypx) = 10
     Max number of k-points (npk) =  40000
     Max angular momentum in pseudopotentials (lmaxx) =  4
     file O.pbe-n-kjpaw_psl.0.1.UPF: wavefunction(s)  2P renormalized

     gamma-point specific algorithms are used
     Message from routine setup:
     using ibrav=0 with symmetry is DISCOURAGED, use correct ibrav instead

     Subspace diagonalization in iterative solution of the eigenvalue problem:
     a serial algorithm will be used

     Using Slab Decomposition

     bravais-lattice index     =            0
     lattice parameter (alat)  =      14.3408  a.u.
     unit-cell volume          =     768.4625 (a.u.)^3
     number of atoms/cell      =            5
     number of atomic types    =            3
     number of electrons       =        55.00
     number of Kohn-Sham states=           34
     kinetic-energy cutoff     =      30.0000  Ry
     charge density cutoff     =     240.0000  Ry
     scf convergence threshold =      1.0E-06
     mixing beta               =       0.7000
     number of iterations used =            8  plain     mixing
     Exchange-correlation= SLA  PW   PBX  PBC
                           (   1   4   3   4   0   0   0)

     celldm(1)=  14.340791  celldm(2)=   0.000000  celldm(3)=   0.000000
     celldm(4)=   0.000000  celldm(5)=   0.000000  celldm(6)=   0.000000

     crystal axes: (cart. coord. in units of alat)
               a(1) = (   1.000000   0.000000   0.000000 )
               a(2) = (   0.718948   0.695064   0.000000 )
               a(3) = (  -0.859474  -0.347532   0.374868 )

     reciprocal axes: (cart. coord. in units 2 pi/alat)
               b(1) = (  1.000000 -1.034362  1.333802 )
               b(2) = (  0.000000  1.438716  1.333802 )
               b(3) = (  0.000000  0.000000  2.667605 )

     PseudoPot. # 1 for Nd read from file:
     /home/pragov/projects/rrg-bengioy-ad/pragov/crystal_structure_design/SSSP/Nd.GGA-PBE-paw-v1.0.UPF
     MD5 check sum: 1d1e94942b6eb1cde76049b71bb7dcb0
     Pseudo is Projector augmented-wave + core cor, Zval = 14.0
     Generated using ATOMPAW code
     Shape of augmentation charge: BESSEL
     Using radial grid of 1105 points,  8 beta functions with:
                l(1) =   0
                l(2) =   0
                l(3) =   1
                l(4) =   1
                l(5) =   2
                l(6) =   2
                l(7) =   3
                l(8) =   3
     Q(r) pseudized with 0 coefficients

     PseudoPot. # 2 for Bi read from file:
     /home/pragov/projects/rrg-bengioy-ad/pragov/crystal_structure_design/SSSP/Bi_pbe_v1.uspp.F.UPF
     MD5 check sum: cceb9f28ec65b6d7ff33140f5b0b1758
     Pseudo is Ultrasoft + core correction, Zval = 15.0
     Generated by new atomic code, or converted to UPF format
     Using radial grid of  899 points,  6 beta functions with:
                l(1) =   0
                l(2) =   0
                l(3) =   1
                l(4) =   1
                l(5) =   2
                l(6) =   2
     Q(r) pseudized with  6 coefficients,  rinner =    1.000   1.000   1.000
                                                       1.000   1.000

     PseudoPot. # 3 for O  read from file:
     /home/pragov/projects/rrg-bengioy-ad/pragov/crystal_structure_design/SSSP/O.pbe-n-kjpaw_psl.0.1.UPF
     MD5 check sum: 0234752ac141de4415c5fc33072bef88
     Pseudo is Projector augmented-wave + core cor, Zval =  6.0
     Generated using "atomic" code by A. Dal Corso  v.5.0.99 svn rev. 10869
     Shape of augmentation charge: BESSEL
     Using radial grid of 1095 points,  4 beta functions with:
                l(1) =   0
                l(2) =   0
                l(3) =   1
                l(4) =   1
     Q(r) pseudized with 0 coefficients

     atomic species   valence    mass     pseudopotential
        Nd            14.00   144.24200     Nd( 1.00)
        Bi            15.00   208.98040     Bi( 1.00)
        O              6.00    15.99900     O ( 1.00)

      4 Sym. Ops., with inversion, found

                                    s                        frac. trans.

      isym =  1     identity

 cryst.   s( 1) = (     1          0          0      )
                  (     0          1          0      )
                  (     0          0          1      )

 cart.    s( 1) = (  1.0000000 -0.0000000 -0.0000000 )
                  (  0.0000000  1.0000000 -0.0000000 )
                  (  0.0000000  0.0000000  1.0000000 )

      isym =  2     180 deg rotation - cart. axis [0,0,1]

[...]

      isym =  3     inversion

[...]

      isym =  4     inv. 180 deg rotation - cart. axis [0,0,1]

 cryst.   s( 4) = (     1          0          0      )
                  (     0          1          0      )
                  (    -1         -1         -1      )

 cart.    s( 4) = (  1.0000000 -0.0000000  0.0000000 )
                  (  0.0000000  1.0000000  0.0000000 )
                  (  0.0000000  0.0000000 -1.0000000 )

   Cartesian axes

     site n.     atom                  positions (alat units)
         1           Nd  tau(   1) = (   1.1444668   0.4627702   0.0000000  )
         2           Nd  tau(   2) = (   0.5744809   0.2322939   0.0000000  )
         3           Bi  tau(   3) = (   0.0000000   0.0000000   0.0000000  )
         4           O   tau(   4) = (   0.5000000  -0.0000000   0.1874341  )
         5           O   tau(   5) = (   0.3594739   0.3475320   0.1874341  )

   Crystallographic axes

     site n.     atom                  positions (cryst. coord.)
         1           Nd  tau(   1) = (  0.6657950  0.6657950  0.0000000  )
         2           Nd  tau(   2) = (  0.3342050  0.3342050  0.0000000  )
         3           Bi  tau(   3) = (  0.0000000  0.0000000  0.0000000  )
         4           O   tau(   4) = (  0.7500000  0.2500000  0.5000000  )
         5           O   tau(   5) = (  0.2500000  0.7500000  0.5000000  )

     number of k points=     1  Methfessel-Paxton smearing, width (Ry)=  0.0010
                       cart. coord. in units 2pi/alat
        k(    1) = (   0.0000000   0.0000000   0.0000000), wk =   2.0000000

                       cryst. coord.
        k(    1) = (   0.0000000   0.0000000   0.0000000), wk =   2.0000000

     Check: negative core charge=   -0.000007

     Initial potential from superposition of free atoms

     starting charge      53.9876, renormalised to      55.0000

     negative rho (up, down):  4.220E-02 0.000E+00
     Starting wfcs are   81 randomized atomic wfcs
     Checking if some PAW data can be deallocated...

     Self-consistent Calculation

     iteration #  1     ecut=    30.00 Ry     beta= 0.70
     Davidson diagonalization with overlap

     ethr =  1.00E-02,  avg # of iterations =  5.0

     negative rho (up, down):  4.946E-02 0.000E+00

     total energy              =   -1341.90427809 Ry
     estimated scf accuracy    <       2.95712790 Ry

[...]

     total energy              =   -1344.28093698 Ry
     estimated scf accuracy    <       0.00000479 Ry

     iteration # 60     ecut=    30.00 Ry     beta= 0.70
     Davidson diagonalization with overlap

     ethr =  2.35E-09,  avg # of iterations =  1.0

[...]

     End of self-consistent calculation

          k = 0.0000 0.0000 0.0000 (  1086 PWs)   bands (ev):

   -25.3514 -25.2083 -10.7600  -9.7323  -9.6550  -9.6094  -9.0771  -8.6932
    -8.4964  -8.3544  -8.2063  -7.4790  -6.9367  -6.6346  -5.2776   1.2068
     5.2067   5.6704   5.7250   6.0040   7.1953   7.2667   9.9463  10.9855
    11.5570  11.6053  11.6262  11.6341  11.6894  11.7960  11.9074  11.9514
    11.9995  12.0488

     occupation numbers
     1.0000   1.0000   1.0000   1.0000   1.0000   1.0000   1.0000   1.0000
     1.0000   1.0000   1.0000   1.0000   1.0000   1.0000   1.0000   1.0000
     1.0000   1.0000   1.0000   1.0000   1.0000   1.0000   1.0000   1.0000
     1.0000   1.0042   0.9409   0.5549  -0.0000  -0.0000  -0.0000  -0.0000
    -0.0000  -0.0000

     the Fermi energy is    11.6350 ev

!    total energy              =   -1344.28093701 Ry
     estimated scf accuracy    <       0.00000005 Ry
     smearing contrib. (-TS)   =      -0.00028705 Ry
     internal energy E=F+TS    =   -1344.28064996 Ry

     The total energy is F=E-TS. E is the sum of the following terms:
     one-electron contribution =    -142.46271318 Ry
     hartree contribution      =     113.94801384 Ry
     xc contribution           =    -107.66534638 Ry
     ewald contribution        =    -329.33506291 Ry
     one-center paw contrib.   =    -878.76554132 Ry
      -> PAW hartree energy AE =     210.27399744 Ry
      -> PAW hartree energy PS =    -209.30426397 Ry
      -> PAW xc energy AE      =    -918.49223567 Ry
      -> PAW xc energy PS      =      38.75696089 Ry
      -> total E_H with PAW    =     114.91774730 Ry
      -> total E_XC with PAW   =    -987.40062117 Ry

     convergence has been achieved in  60 iterations

     negative rho (up, down):  4.743E-02 0.000E+00

     Forces acting on atoms (cartesian axes, Ry/au):

     atom    1 type  1   force =     0.10245835   -0.00119631    0.00000000
     atom    2 type  1   force =    -0.10245835    0.00119631   -0.00000000
     atom    3 type  2   force =     0.00000000    0.00000000    0.00000000
     atom    4 type  3   force =     0.00000000    0.00000000    0.03207287
     atom    5 type  3   force =     0.00000000    0.00000000   -0.03207287
     The non-local contrib.  to forces
     atom    1 type  1   force =     0.64688853    0.10788521    0.00000000
     atom    2 type  1   force =    -0.64688853   -0.10788521   -0.00000000
     atom    3 type  2   force =     0.00000000    0.00000000    0.00000000
     atom    4 type  3   force =     0.00000000    0.00000000    0.05909635
     atom    5 type  3   force =     0.00000000    0.00000000   -0.05909635
     The ionic contribution  to forces
     atom    1 type  1   force =   -14.95759438   -6.04816883   -0.00000000
     atom    2 type  1   force =    14.95759438    6.04816883    0.00000000
     atom    3 type  2   force =    -0.00000000    0.00000000   -0.00000000
     atom    4 type  3   force =    -0.00000000    0.00000000    0.00000000
     atom    5 type  3   force =     0.00000000   -0.00000000   -0.00000000
     The local contribution  to forces
     atom    1 type  1   force =    14.41365812    5.93918756   -0.05989592
     atom    2 type  1   force =   -14.41330480   -5.93931567    0.05982198
     atom    3 type  2   force =    -0.00016360   -0.00005178    0.00000180
     atom    4 type  3   force =     0.01103134   -0.00856941   -0.02637832
     atom    5 type  3   force =    -0.01084399    0.00863881    0.02636326
     The core correction contribution to forces
     atom    1 type  1   force =    -0.00005320   -0.00000812   -0.00001354
     atom    2 type  1   force =     0.00005323    0.00000810    0.00001354
     atom    3 type  2   force =    -0.00000054    0.00000329   -0.00000246
     atom    4 type  3   force =     0.00015979   -0.00004487   -0.00064103
     atom    5 type  3   force =    -0.00015999    0.00004474    0.00064095
     The Hubbard contrib.    to forces
     atom    1 type  1   force =     0.00000000    0.00000000    0.00000000
     atom    2 type  1   force =     0.00000000    0.00000000    0.00000000
     atom    3 type  2   force =     0.00000000    0.00000000    0.00000000
     atom    4 type  3   force =     0.00000000    0.00000000    0.00000000
     atom    5 type  3   force =     0.00000000    0.00000000    0.00000000
     The SCF correction term to forces
     atom    1 type  1   force =    -0.00045856   -0.00013868    0.00004716
     atom    2 type  1   force =     0.00006954    0.00017372    0.00000239
     atom    3 type  2   force =     0.00018985    0.00010552   -0.00005396
     atom    4 type  3   force =    -0.00008209   -0.00007270   -0.00000946
     atom    5 type  3   force =    -0.00012182   -0.00000292    0.00001393

     Total force =     0.151841     Total SCF correction =     0.000587

     Computing stress (Cartesian axis) and pressure

     negative rho (up, down):  4.743E-02 0.000E+00
          total   stress  (Ry/bohr**3)                   (kbar)     P=      -25.76
   0.00102701   0.00032933   0.00000000          151.08       48.45        0.00
   0.00032933  -0.00203857  -0.00000000           48.45     -299.88       -0.00
   0.00000000  -0.00000000   0.00048621            0.00       -0.00       71.52

     kinetic stress (kbar)  11820.09     27.88      0.00
                               27.88  11553.93      0.00
                                0.00      0.00  11998.12

     local   stress (kbar)   5021.63   5970.43     24.62
                             5970.43  -7500.38   -156.05
                               24.62   -156.05 -10260.27

     nonloc. stress (kbar)  10655.08     50.64      0.00
                               50.64  10540.48      0.00
                                0.00      0.00  10690.03

     hartree stress (kbar)   3198.22  -2644.53    -22.90
                            -2644.53   8709.53     57.09
                              -22.90     57.09   9905.06

     exc-cor stress (kbar)   4866.10     -1.15     -1.13
                               -1.15   4869.19      0.26
                               -1.13      0.26   4871.92

     corecor stress (kbar)  -9314.12      1.53      6.33
                                1.53  -9320.08     -9.95
                                6.33     -9.95  -9337.94

     ewald   stress (kbar) -26095.93  -3356.36      0.00
                            -3356.36 -19152.56      0.00
                                0.00      0.00 -17795.40

     hubbard stress (kbar)      0.00      0.00      0.00
                                0.00      0.00      0.00
                                0.00      0.00      0.00

     DFT-D   stress (kbar)      0.00      0.00      0.00
                                0.00      0.00      0.00
                                0.00      0.00      0.00

     XDM     stress (kbar)      0.00      0.00      0.00
                                0.00      0.00      0.00
                                0.00      0.00      0.00

     dft-nl  stress (kbar)      0.00      0.00      0.00
                                0.00      0.00      0.00
                                0.00      0.00      0.00

     TS-vdW  stress (kbar)      0.00      0.00      0.00
                                0.00      0.00      0.00
                                0.00      0.00      0.00

[...]

                                0.00      0.00      0.00

     Writing all to output data dir new_calculations/myprefix.save/

     General routines

     Parallel routines

     PAW routines

   This run was terminated on:   7:43:49  20May2023

   JOB DONE.