     Program PWSCF v.7.0 starts on 21May2023 at  5:30:45

     Reading input from espresso_9059.pwi
Warning: card &CELL ignored
Warning: card / ignored

     Current dimensions of program PWSCF are:
     Max number of different atomic species (ntypx) = 10
     Max number of k-points (npk) =  40000
     Max angular momentum in pseudopotentials (lmaxx) =  4

     gamma-point specific algorithms are used
     Message from routine setup:
     using ibrav=0 with symmetry is DISCOURAGED, use correct ibrav instead

     Subspace diagonalization in iterative solution of the eigenvalue problem:
     a serial algorithm will be used

     Using Slab Decomposition

     bravais-lattice index     =            0
     lattice parameter (alat)  =       8.8385  a.u.
     unit-cell volume          =     690.4574 (a.u.)^3
     number of atoms/cell      =            8
     number of atomic types    =            2
     number of electrons       =       116.00
     number of Kohn-Sham states=           70
     kinetic-energy cutoff     =      30.0000  Ry
     charge density cutoff     =     240.0000  Ry
     scf convergence threshold =      1.0E-06
     mixing beta               =       0.7000
     number of iterations used =            8  plain     mixing
     Exchange-correlation=  SLA  PW   PBX  PBC
                           (   1   4   3   4   0   0   0)

     celldm(1)=   8.838508  celldm(2)=   0.000000  celldm(3)=   0.000000
     celldm(4)=   0.000000  celldm(5)=   0.000000  celldm(6)=   0.000000

     crystal axes: (cart. coord. in units of alat)
               a(1) = (   1.000000   0.000000   0.000000 )
               a(2) = (   0.000000   1.000000   0.000000 )
               a(3) = (   0.000000   0.000000   1.000000 )

     reciprocal axes: (cart. coord. in units 2 pi/alat)
               b(1) = (  1.000000  0.000000  0.000000 )
               b(2) = (  0.000000  1.000000  0.000000 )
               b(3) = (  0.000000  0.000000  1.000000 )

     PseudoPot. # 1 for Cr read from file:
     /home/pragov/projects/rrg-bengioy-ad/pragov/crystal_structure_design/SSSP/cr_pbe_v1.5.uspp.F.UPF
     MD5 check sum: 0d52af634a40206e4dee301ad30da4bf
     Pseudo is Ultrasoft + core correction, Zval = 14.0
     Generated by new atomic code, or converted to UPF format
     Using radial grid of  857 points,  6 beta functions with:
                l(1) =   0
                l(2) =   0
                l(3) =   1
                l(4) =   1
                l(5) =   2
                l(6) =   2
     Q(r) pseudized with  8 coefficients,  rinner =    0.950   0.950   0.950
                                                       0.950   0.950

     PseudoPot. # 2 for Pt read from file:
     /home/pragov/projects/rrg-bengioy-ad/pragov/crystal_structure_design/SSSP/pt_pbe_v1.4.uspp.F.UPF
     MD5 check sum: f09d6de1a584b5a045c4fc126da2d0c4
     Pseudo is Ultrasoft + core correction, Zval = 16.0
     Generated by new atomic code, or converted to UPF format
     Using radial grid of  985 points,  6 beta functions with:
                l(1) =   0
                l(2) =   0
                l(3) =   1
                l(4) =   1
                l(5) =   2
                l(6) =   2
     Q(r) pseudized with  8 coefficients,  rinner =    1.300   1.300   1.300
                                                       1.300   1.300

     atomic species   valence    mass     pseudopotential
        Cr            14.00    51.99610     Cr( 1.00)
        Pt            16.00   195.08400     Pt( 1.00)

     48 Sym. Ops., with inversion, found (24 have fractional translation)

                                    s                        frac. trans.

      isym =  1     identity

 cryst.   s( 1) = (     1          0          0      )
                  (     0          1          0      )
                  (     0          0          1      )

 cart.    s( 1) = (  1.0000000  0.0000000  0.0000000 )
                  (  0.0000000  1.0000000  0.0000000 )
                  (  0.0000000  0.0000000  1.0000000 )

      isym =  2     180 deg rotation - cart. axis [0,0,1]

[...]

 cryst.   s( 4) = (     1          0          0      )
                  (     0         -1          0      )
                  (     0          0         -1      )

 cart.    s( 4) = (  1.0000000  0.0000000  0.0000000 )
                  (  0.0000000 -1.0000000  0.0000000 )
                  (  0.0000000  0.0000000 -1.0000000 )

[...]

 cryst.   s( 5) = (     0          1          0      )    f =( -0.5000000 )
                  (     1          0          0      )       ( -0.5000000 )
                  (     0          0         -1      )       (  0.5000000 )

 cart.    s( 5) = (  0.0000000  1.0000000  0.0000000 )    f =( -0.5000000 )
                  (  1.0000000  0.0000000  0.0000000 )       ( -0.5000000 )
                  (  0.0000000  0.0000000 -1.0000000 )       (  0.5000000 )

[...]

 cryst.   s( 9) = (     0          0          1      )    f =( -0.5000000 )
                  (     0         -1          0      )       (  0.5000000 )
                  (     1          0          0      )       (  0.5000000 )

 cart.    s( 9) = (  0.0000000  0.0000000  1.0000000 )    f =( -0.5000000 )
                  (  0.0000000 -1.0000000  0.0000000 )       (  0.5000000 )
                  (  1.0000000  0.0000000  0.0000000 )       (  0.5000000 )

[...]

 cryst.   s(10) = (     0          0         -1      )    f =(  0.5000000 )
                  (     0         -1          0      )       (  0.5000000 )
                  (    -1          0          0      )       (  0.5000000 )

 cart.    s(10) = (  0.0000000  0.0000000 -1.0000000 )    f =(  0.5000000 )
                  (  0.0000000 -1.0000000  0.0000000 )       (  0.5000000 )
                  ( -1.0000000  0.0000000  0.0000000 )       (  0.5000000 )

[...]

 cryst.   s(17) = (     0          0          1      )
                  (     1          0          0      )
                  (     0          1          0      )

 cart.    s(17) = (  0.0000000  1.0000000  0.0000000 )
                  (  0.0000000  0.0000000  1.0000000 )
                  (  1.0000000  0.0000000  0.0000000 )

[...]

      isym = 24     120 deg rotation - cart. axis [-1,-1,1]

[...]

      isym = 25     inversion

[...]

      isym = 26     inv. 180 deg rotation - cart. axis [0,0,1]

[...]

 cryst.   s(40) = (    -1          0          0      )    f =(  0.5000000 )
                  (     0          0         -1      )       ( -0.5000000 )
                  (     0          1          0      )       (  0.5000000 )

 cart.    s(40) = ( -1.0000000  0.0000000  0.0000000 )    f =(  0.5000000 )
                  (  0.0000000  0.0000000  1.0000000 )       ( -0.5000000 )
                  (  0.0000000 -1.0000000  0.0000000 )       (  0.5000000 )

[...]

      isym = 48     inv. 120 deg rotation - cart. axis [-1,-1,1]

 cryst.   s(48) = (     0         -1          0      )
                  (     0          0          1      )
                  (     1          0          0      )

 cart.    s(48) = (  0.0000000  0.0000000  1.0000000 )
                  ( -1.0000000  0.0000000  0.0000000 )
                  (  0.0000000  1.0000000  0.0000000 )

   Cartesian axes

     site n.     atom                  positions (alat units)
         1           Cr  tau(   1) = (   0.2500000   0.0000000   0.5000000  )
         2           Cr  tau(   2) = (   0.7500000   0.0000000   0.5000000  )
         3           Cr  tau(   3) = (   0.0000000   0.5000000   0.2500000  )
         4           Cr  tau(   4) = (   0.0000000   0.5000000   0.7500000  )
         5           Cr  tau(   5) = (   0.5000000   0.7500000   0.0000000  )
         6           Cr  tau(   6) = (   0.5000000   0.2500000   0.0000000  )
         7           Pt  tau(   7) = (   0.0000000   0.0000000   0.0000000  )
         8           Pt  tau(   8) = (   0.5000000   0.5000000   0.5000000  )

   Crystallographic axes

     site n.     atom                  positions (cryst. coord.)
         1           Cr  tau(   1) = (  0.2500000  0.0000000  0.5000000  )
         2           Cr  tau(   2) = (  0.7500000  0.0000000  0.5000000  )
         3           Cr  tau(   3) = (  0.0000000  0.5000000  0.2500000  )
         4           Cr  tau(   4) = (  0.0000000  0.5000000  0.7500000  )
         5           Cr  tau(   5) = (  0.5000000  0.7500000  0.0000000  )
         6           Cr  tau(   6) = (  0.5000000  0.2500000  0.0000000  )
         7           Pt  tau(   7) = (  0.0000000  0.0000000  0.0000000  )
         8           Pt  tau(   8) = (  0.5000000  0.5000000  0.5000000  )

     number of k points=     1  Methfessel-Paxton smearing, width (Ry)=  0.0010
                       cart. coord. in units 2pi/alat
        k(    1) = (   0.0000000   0.0000000   0.0000000), wk =   2.0000000

                       cryst. coord.
        k(    1) = (   0.0000000   0.0000000   0.0000000), wk =   2.0000000

     Check: negative core charge=   -0.000014

     Initial potential from superposition of free atoms

     starting charge     108.9999, renormalised to     116.0000

     negative rho (up, down):  3.890E-01 0.000E+00
     Starting wfcs are   84 randomized atomic wfcs

     Self-consistent Calculation

     iteration #  1     ecut=    30.00 Ry     beta= 0.70
     Davidson diagonalization with overlap

     ethr =  1.00E-02,  avg # of iterations =  3.0

     negative rho (up, down):  3.245E-01 0.000E+00

     total energy              =   -1467.54422449 Ry
     estimated scf accuracy    <      15.04264886 Ry

[...]

     total energy              =   -1474.64164626 Ry
     estimated scf accuracy    <       0.00001485 Ry

     iteration # 44     ecut=    30.00 Ry     beta= 0.70
     Davidson diagonalization with overlap

     ethr =  5.30E-09,  avg # of iterations =  1.0

[...]

     End of self-consistent calculation

          k = 0.0000 0.0000 0.0000 (   968 PWs)   bands (ev):

   -52.4098 -52.3672 -52.3671 -52.2275 -52.2275 -52.2274 -32.9939 -32.9939
   -32.9938 -32.9902 -32.9902 -32.9901 -24.0288 -24.0286 -23.9529 -23.8054
   -23.8054 -23.8053 -23.6323 -23.6322 -23.6322 -23.6225 -23.6225 -23.6225
   -23.5809 -23.5808 -23.5808 -23.0345 -23.0345 -23.0344  11.1734  14.4447
    14.4448  15.0305  15.2531  15.2531  15.2531  15.7289  15.7290  16.6280
    16.6280  16.6280  16.6788  16.6789  16.6789  17.1059  17.4599  17.4600
    17.4600  17.7532  17.9719  17.9720  18.0743  18.0743  18.0743  19.6239
    19.6240  19.7119  19.7119  19.7119  20.0944  20.0944  20.0944  20.6518
    20.6519  21.2228  21.2229  21.2229  21.4542  21.4542

     occupation numbers
     1.0000   1.0000   1.0000   1.0000   1.0000   1.0000   1.0000   1.0000
     1.0000   1.0000   1.0000   1.0000   1.0000   1.0000   1.0000   1.0000
     1.0000   1.0000   1.0000   1.0000   1.0000   1.0000   1.0000   1.0000
     1.0000   1.0000   1.0000   1.0000   1.0000   1.0000   1.0000   1.0000
     1.0000   1.0000   1.0000   1.0000   1.0000   1.0000   1.0000   1.0000
     1.0000   1.0000   1.0000   1.0000   1.0000   1.0000   1.0000   1.0000
     1.0000   1.0000   1.0000   1.0000   1.0000   1.0000   1.0000   1.0000
     1.0000   0.3352   0.3332   0.3316  -0.0000  -0.0000  -0.0000  -0.0000
    -0.0000  -0.0000  -0.0000  -0.0000  -0.0000  -0.0000

     the Fermi energy is    19.7092 ev

!    total energy              =   -1474.64164610 Ry
     estimated scf accuracy    <       0.00000078 Ry
     smearing contrib. (-TS)   =      -0.00074671 Ry
     internal energy E=F+TS    =   -1474.64089939 Ry

     The total energy is F=E-TS. E is the sum of the following terms:
     one-electron contribution =    -403.08723796 Ry
     hartree contribution      =     275.42301413 Ry
     xc contribution           =    -248.19140931 Ry
     ewald contribution        =   -1098.78526624 Ry

     convergence has been achieved in  44 iterations

     negative rho (up, down):  3.449E-01 0.000E+00

     Forces acting on atoms (cartesian axes, Ry/au):

     atom    1 type  1   force =     0.00000000    0.00000000    0.00000000
     atom    2 type  1   force =    -0.00000000    0.00000000    0.00000000
     atom    3 type  1   force =     0.00000000    0.00000000    0.00000000
     atom    4 type  1   force =     0.00000000    0.00000000    0.00000000
     atom    5 type  1   force =    -0.00000000    0.00000000    0.00000000
     atom    6 type  1   force =     0.00000000    0.00000000    0.00000000
     atom    7 type  2   force =     0.00000000    0.00000000    0.00000000
     atom    8 type  2   force =     0.00000000    0.00000000    0.00000000
     The non-local contrib.  to forces
     atom    1 type  1   force =     0.00000000    0.00000000    0.00000000
     atom    2 type  1   force =     0.00000000    0.00000000    0.00000000
     atom    3 type  1   force =     0.00000000    0.00000000    0.00000000
     atom    4 type  1   force =     0.00000000    0.00000000    0.00000000
     atom    5 type  1   force =     0.00000000    0.00000000    0.00000000
     atom    6 type  1   force =     0.00000000    0.00000000    0.00000000
     atom    7 type  2   force =     0.00000000    0.00000000    0.00000000
     atom    8 type  2   force =     0.00000000    0.00000000    0.00000000
     The ionic contribution  to forces
     atom    1 type  1   force =    -0.00000000   -0.00000000    0.00000000
     atom    2 type  1   force =     0.00000000    0.00000000    0.00000000
     atom    3 type  1   force =    -0.00000000    0.00000000   -0.00000000
     atom    4 type  1   force =    -0.00000000    0.00000000    0.00000000
     atom    5 type  1   force =     0.00000000    0.00000000   -0.00000000
     atom    6 type  1   force =     0.00000000   -0.00000000   -0.00000000
     atom    7 type  2   force =    -0.00000000   -0.00000000   -0.00000000
     atom    8 type  2   force =     0.00000000    0.00000000    0.00000000
     The local contribution  to forces
     atom    1 type  1   force =    -0.00037698    0.00018077    0.00043143
     atom    2 type  1   force =     0.00035621    0.00001194    0.00028074
     atom    3 type  1   force =     0.00012452   -0.00010366    0.00001226
     atom    4 type  1   force =     0.00027161   -0.00008629   -0.00000479
     atom    5 type  1   force =    -0.00010126    0.00069110   -0.00036521
     atom    6 type  1   force =    -0.00026849   -0.00069031   -0.00033421
     atom    7 type  2   force =     0.00028316    0.00011841   -0.00056260
     atom    8 type  2   force =    -0.00028887   -0.00011021    0.00054656
     The core correction contribution to forces
     atom    1 type  1   force =    -0.00000002   -0.00000036    0.00000059
     atom    2 type  1   force =    -0.00000013    0.00000083    0.00000128
     atom    3 type  1   force =     0.00000103   -0.00000048   -0.00000113
     atom    4 type  1   force =     0.00000006   -0.00000109    0.00000060
     atom    5 type  1   force =    -0.00000042   -0.00000054   -0.00000068
     atom    6 type  1   force =     0.00000005    0.00000088   -0.00000084
     atom    7 type  2   force =    -0.00000105    0.00000379   -0.00000232
     atom    8 type  2   force =    -0.00000181    0.00000020    0.00000102
     The Hubbard contrib.    to forces
     atom    1 type  1   force =     0.00000000    0.00000000    0.00000000
     atom    2 type  1   force =     0.00000000    0.00000000    0.00000000
     atom    3 type  1   force =     0.00000000    0.00000000    0.00000000
     atom    4 type  1   force =     0.00000000    0.00000000    0.00000000
     atom    5 type  1   force =     0.00000000    0.00000000    0.00000000
     atom    6 type  1   force =     0.00000000    0.00000000    0.00000000
     atom    7 type  2   force =     0.00000000    0.00000000    0.00000000
     atom    8 type  2   force =     0.00000000    0.00000000    0.00000000
     The SCF correction term to forces
     atom    1 type  1   force =     0.00038230   -0.00016091   -0.00037887
     atom    2 type  1   force =    -0.00036987   -0.00002149   -0.00023946
     atom    3 type  1   force =    -0.00010663    0.00008833    0.00001774
     atom    4 type  1   force =    -0.00024105    0.00007499   -0.00003621
     atom    5 type  1   force =     0.00010415   -0.00069779    0.00032477
     atom    6 type  1   force =     0.00023575    0.00069160    0.00030105
     atom    7 type  2   force =    -0.00026959   -0.00012547    0.00053095
     atom    8 type  2   force =     0.00027221    0.00012663   -0.00052336

     Total force =     0.000000     Total SCF correction =     0.001599

     Computing stress (Cartesian axis) and pressure

     negative rho (up, down):  3.449E-01 0.000E+00
          total   stress  (Ry/bohr**3)                   (kbar)     P=     -285.09
  -0.00193798   0.00000000   0.00000000         -285.09        0.00        0.00
   0.00000000  -0.00193798   0.00000000            0.00     -285.09        0.00
   0.00000000   0.00000000  -0.00193798            0.00        0.00     -285.09

     kinetic stress (kbar)  49425.94      0.00      0.00
                                0.00  49425.94      0.00
                                0.00      0.00  49425.94

     local   stress (kbar)  12175.43     -1.91      1.96
                               -1.91  12173.38     -0.31
                                1.96     -0.31  12173.71

     nonloc. stress (kbar)  10103.08      0.00      0.00
                                0.00  10103.08      0.00
                                0.00      0.00  10103.08

     hartree stress (kbar)  19559.73      0.53     -0.54
                                0.53  19560.25      0.09
                               -0.54      0.09  19560.15

     exc-cor stress (kbar)   6187.77      0.01     -0.01
                                0.01   6187.78      0.00
                               -0.01      0.00   6187.78

     corecor stress (kbar) -19702.35     -0.03      0.03
                               -0.03 -19702.38     -0.01
                                0.03     -0.01 -19702.38

     ewald   stress (kbar) -78033.73      0.00      0.00
                                0.00 -78033.73      0.00
                                0.00      0.00 -78033.73

     hubbard stress (kbar)      0.00      0.00      0.00
                                0.00      0.00      0.00
                                0.00      0.00      0.00

     DFT-D   stress (kbar)      0.00      0.00      0.00
                                0.00      0.00      0.00
                                0.00      0.00      0.00

     XDM     stress (kbar)      0.00      0.00      0.00
                                0.00      0.00      0.00
                                0.00      0.00      0.00

     dft-nl  stress (kbar)      0.00      0.00      0.00
                                0.00      0.00      0.00
                                0.00      0.00      0.00

     TS-vdW  stress (kbar)      0.00      0.00      0.00
                                0.00      0.00      0.00
                                0.00      0.00      0.00

[...]

                                0.00      0.00      0.00

     Writing all to output data dir new_calculations/myprefix.save/

     General routines

     Parallel routines

   This run was terminated on:   5:30:57  21May2023

   JOB DONE.