     Program PWSCF v.7.0 starts on 20May2023 at  6:13: 5

     Reading input from espresso_19094.pwi
Warning: card &CELL ignored
Warning: card / ignored

     Current dimensions of program PWSCF are:
     Max number of different atomic species (ntypx) = 10
     Max number of k-points (npk) =  40000
     Max angular momentum in pseudopotentials (lmaxx) =  4

     gamma-point specific algorithms are used
     Message from routine setup:
     using ibrav=0 with symmetry is DISCOURAGED, use correct ibrav instead

     Subspace diagonalization in iterative solution of the eigenvalue problem:
     a serial algorithm will be used

     Using Slab Decomposition

     bravais-lattice index     =            0
     lattice parameter (alat)  =      15.3664  a.u.
     unit-cell volume          =    3275.0699 (a.u.)^3
     number of atoms/cell      =           18
     number of atomic types    =            2
     number of electrons       =       252.00
     number of Kohn-Sham states=          151
     kinetic-energy cutoff     =      30.0000  Ry
     charge density cutoff     =     240.0000  Ry
     scf convergence threshold =      1.0E-06
     mixing beta               =       0.7000
     number of iterations used =            8  plain     mixing
     Exchange-correlation= PBE
                           (   1   4   3   4   0   0   0)

     celldm(1)=  15.366357  celldm(2)=   0.000000  celldm(3)=   0.000000
     celldm(4)=   0.000000  celldm(5)=   0.000000  celldm(6)=   0.000000

     crystal axes: (cart. coord. in units of alat)
               a(1) = (   1.000000   0.000000   0.000000 )
               a(2) = (   0.000000   0.959879   0.000000 )
               a(3) = (   0.000000   0.328293   0.940354 )

     reciprocal axes: (cart. coord. in units 2 pi/alat)
               b(1) = (  1.000000  0.000000  0.000000 )
               b(2) = (  0.000000  1.041799 -0.363709 )
               b(3) = (  0.000000  0.000000  1.063429 )

     PseudoPot. # 1 for Ca read from file:
     /home/pragov/projects/rrg-bengioy-ad/pragov/crystal_structure_design/SSSP/Ca_pbe_v1.uspp.F.UPF
     MD5 check sum: 403a4c14b9e4d4dfdc3024c9a3812218
     Pseudo is Ultrasoft + core correction, Zval = 10.0
     Generated by new atomic code, or converted to UPF format
     Using radial grid of  845 points,  6 beta functions with:
                l(1) =   0
                l(2) =   0
                l(3) =   1
                l(4) =   1
                l(5) =   2
                l(6) =   2
     Q(r) pseudized with  8 coefficients,  rinner =    1.500   1.500   1.500
                                                       1.500   1.500

     PseudoPot. # 2 for Au read from file:
     /home/pragov/projects/rrg-bengioy-ad/pragov/crystal_structure_design/SSSP/Au_ONCV_PBE-1.0.oncvpsp.upf
     MD5 check sum: d14007822ba0e19f0206237467fc06c2
     Pseudo is Norm-conserving, Zval = 19.0
     Generated using ONCVPSP code by D. R. Hamann
     Using radial grid of 1278 points,  8 beta functions with:
                l(1) =   0
                l(2) =   0
                l(3) =   1
                l(4) =   1
                l(5) =   2
                l(6) =   2
                l(7) =   3
                l(8) =   3

     atomic species   valence    mass     pseudopotential
        Ca            10.00    40.07800     Ca( 1.00)
        Au            19.00   196.96657     Au( 1.00)

      4 Sym. Ops., with inversion, found ( 2 have fractional translation)

                                    s                        frac. trans.

      isym =  1     identity

 cryst.   s( 1) = (     1          0          0      )
                  (     0          1          0      )
                  (     0          0          1      )

 cart.    s( 1) = (  1.0000000  0.0000000  0.0000000 )
                  (  0.0000000  1.0000000 -0.0000000 )
                  (  0.0000000  0.0000000  1.0000000 )

      isym =  2     180 deg rotation - cart. axis [1,0,0]

 cryst.   s( 2) = (     1          0          0      )    f =( -0.5000000 )
                  (     0         -1          0      )       ( -0.5000000 )
                  (     0          0         -1      )       (  0.0000000 )

 cart.    s( 2) = (  1.0000000  0.0000000  0.0000000 )    f =( -0.5000000 )
                  (  0.0000000 -1.0000000  0.0000000 )       ( -0.4799393 )
                  (  0.0000000  0.0000000 -1.0000000 )       (  0.0000000 )

      isym =  3     inversion

 cryst.   s( 3) = (    -1          0          0      )
                  (     0         -1          0      )
                  (     0          0         -1      )

 cart.    s( 3) = ( -1.0000000  0.0000000  0.0000000 )
                  (  0.0000000 -1.0000000  0.0000000 )
                  (  0.0000000  0.0000000 -1.0000000 )

      isym =  4     inv. 180 deg rotation - cart. axis [1,0,0]

 cryst.   s( 4) = (    -1          0          0      )    f =(  0.5000000 )
                  (     0          1          0      )       (  0.5000000 )
                  (     0          0          1      )       (  0.0000000 )

 cart.    s( 4) = ( -1.0000000  0.0000000  0.0000000 )    f =(  0.5000000 )
                  (  0.0000000  1.0000000 -0.0000000 )       (  0.4799393 )
                  (  0.0000000  0.0000000  1.0000000 )       (  0.0000000 )

   Cartesian axes

     site n.     atom                  positions (alat units)
         1           Ca  tau(   1) = (   0.3211860   0.1672271   0.2894289  )
         2           Ca  tau(   2) = (   0.1788140   0.6471664   0.2894289  )
         3           Ca  tau(   3) = (   0.8211860   0.6410056   0.6509255  )
         4           Ca  tau(   4) = (   0.3303470   0.4865964   0.6998098  )
         5           Ca  tau(   5) = (   0.0000000   0.0000000   0.0000000  )
         6           Ca  tau(   6) = (   0.6788140   1.1209449   0.6509255  )
         7           Ca  tau(   7) = (   0.8303470   0.3216364   0.2405445  )
         8           Ca  tau(   8) = (   0.1696530   0.9665356   0.6998098  )
         9           Ca  tau(   9) = (   0.6696530   0.8015756   0.2405445  )
        10           Ca  tau(  10) = (   0.5000000   0.4799393   0.0000000  )
        11           Au  tau(  11) = (   0.8680310   0.9289294   0.9287560  )
        12           Au  tau(  12) = (   0.9671060   0.9582668   0.3925688  )
        13           Au  tau(  13) = (   0.1319690   0.3592426   0.0115983  )
        14           Au  tau(  14) = (   0.5328940   0.4783276   0.3925688  )
        15           Au  tau(  15) = (   0.3680310   0.8391819   0.0115983  )
        16           Au  tau(  16) = (   0.4671060   0.8098444   0.5477856  )
        17           Au  tau(  17) = (   0.0328940   0.3299052   0.5477856  )
        18           Au  tau(  18) = (   0.6319690   0.4489901   0.9287560  )

   Crystallographic axes

     site n.     atom                  positions (cryst. coord.)
         1           Ca  tau(   1) = (  0.3211860  0.0689490  0.3077870  )
         2           Ca  tau(   2) = (  0.1788140  0.5689490  0.3077870  )
         3           Ca  tau(   3) = (  0.8211860  0.4310510  0.6922130  )
         4           Ca  tau(   4) = (  0.3303470  0.2524080  0.7441980  )
         5           Ca  tau(   5) = (  0.0000000  0.0000000  0.0000000  )
         6           Ca  tau(   6) = (  0.6788140  0.9310510  0.6922130  )
         7           Ca  tau(   7) = (  0.8303470  0.2475920  0.2558020  )
         8           Ca  tau(   8) = (  0.1696530  0.7524080  0.7441980  )
         9           Ca  tau(   9) = (  0.6696530  0.7475920  0.2558020  )
        10           Ca  tau(  10) = (  0.5000000  0.5000000  0.0000000  )
        11           Au  tau(  11) = (  0.8680310  0.6299600  0.9876660  )
        12           Au  tau(  12) = (  0.9671060  0.8555400  0.4174690  )
        13           Au  tau(  13) = (  0.1319690  0.3700400  0.0123340  )
        14           Au  tau(  14) = (  0.5328940  0.3555400  0.4174690  )
        15           Au  tau(  15) = (  0.3680310  0.8700400  0.0123340  )
        16           Au  tau(  16) = (  0.4671060  0.6444600  0.5825310  )
        17           Au  tau(  17) = (  0.0328940  0.1444600  0.5825310  )
        18           Au  tau(  18) = (  0.6319690  0.1299600  0.9876660  )

     number of k points=     1  Methfessel-Paxton smearing, width (Ry)=  0.0010
                       cart. coord. in units 2pi/alat
        k(    1) = (   0.0000000   0.0000000   0.0000000), wk =   2.0000000

                       cryst. coord.
        k(    1) = (   0.0000000   0.0000000   0.0000000), wk =   2.0000000

     Initial potential from superposition of free atoms

     starting charge     251.9447, renormalised to     252.0000
     Starting wfcs are  180 randomized atomic wfcs

     Self-consistent Calculation

     iteration #  1     ecut=    30.00 Ry     beta= 0.70
     Davidson diagonalization with overlap

     ethr =  1.00E-02,  avg # of iterations =  6.0

     Threshold (ethr) on eigenvalues was too large:
     Diagonalizing with lowered threshold

     Davidson diagonalization with overlap

[...]

     total energy              =   -2946.47120538 Ry
     estimated scf accuracy    <       0.25604651 Ry

[...]

     total energy              =   -2946.54650731 Ry
     estimated scf accuracy    <       0.00000273 Ry

     iteration # 12     ecut=    30.00 Ry     beta= 0.70
     Davidson diagonalization with overlap

     ethr =  1.08E-09,  avg # of iterations =  3.0

     End of self-consistent calculation

          k = 0.0000 0.0000 0.0000 (  4544 PWs)   bands (ev):

   -96.4361 -96.4344 -96.4343 -96.4325 -96.3630 -96.3623 -96.3618 -96.3613
   -47.4661 -47.4644 -47.4624 -47.4606 -47.4512 -47.4488 -47.4446 -47.4427
   -47.4330 -47.4297 -47.3971 -47.3964 -47.3961 -47.3958 -47.3950 -47.3937
   -47.3685 -47.3670 -47.3473 -47.3462 -47.3429 -47.3421 -47.3385 -47.3380
   -31.3823 -31.3810 -31.3794 -31.3784 -30.8705 -30.8647 -30.8452 -30.8432
   -30.8428 -30.8403 -12.3988 -12.3983 -12.3973 -12.3956 -12.3928 -12.3895
   -12.3745 -12.3735 -12.3598 -12.3540 -12.3448 -12.3421 -12.0026 -11.9549
   -11.9517 -11.9425 -11.9389 -11.9117 -11.9096 -11.9091 -11.9044 -11.9032
   -11.8773 -11.8722 -11.8559 -11.8524 -11.8135 -11.8128 -11.8004 -11.7971
     3.8345   4.9423   5.0571   5.0803   5.3662   5.4510   5.4513   5.4858
     5.5111   5.5606   5.6003   5.6038   5.6151   5.6229   5.6460   5.6830
     5.7425   5.7900   5.7944   5.8060   5.8830   5.9068   5.9197   5.9496
     5.9560   5.9783   5.9848   6.0305   6.0397   6.1215   6.1716   6.1909
     6.1982   6.2276   6.2521   6.2565   6.2972   6.3112   6.3464   6.3868
     6.3951   6.4393   6.4826   6.5091   7.1774   7.2595   7.2979   7.8272
     9.0053   9.0410   9.3854   9.5397   9.9495  10.2048  10.3030  10.3511
    10.5182  10.5453  10.5915  11.0634  11.2289  11.3517  11.5285  11.7308
    11.8545  12.0725  12.0956  12.1480  12.4706  12.5825  12.6790  12.6804
    12.9278  13.1029  13.1606  13.1737  13.2849  13.2949  13.4851

     occupation numbers
     1.0000   1.0000   1.0000   1.0000   1.0000   1.0000   1.0000   1.0000
     1.0000   1.0000   1.0000   1.0000   1.0000   1.0000   1.0000   1.0000
     1.0000   1.0000   1.0000   1.0000   1.0000   1.0000   1.0000   1.0000
     1.0000   1.0000   1.0000   1.0000   1.0000   1.0000   1.0000   1.0000
     1.0000   1.0000   1.0000   1.0000   1.0000   1.0000   1.0000   1.0000
     1.0000   1.0000   1.0000   1.0000   1.0000   1.0000   1.0000   1.0000
     1.0000   1.0000   1.0000   1.0000   1.0000   1.0000   1.0000   1.0000
     1.0000   1.0000   1.0000   1.0000   1.0000   1.0000   1.0000   1.0000
     1.0000   1.0000   1.0000   1.0000   1.0000   1.0000   1.0000   1.0000
     1.0000   1.0000   1.0000   1.0000   1.0000   1.0000   1.0000   1.0000
     1.0000   1.0000   1.0000   1.0000   1.0000   1.0000   1.0000   1.0000
     1.0000   1.0000   1.0000   1.0000   1.0000   1.0000   1.0000   1.0000
     1.0000   1.0000   1.0000   1.0000   1.0000   1.0000   1.0000   1.0000
     1.0000   1.0000   1.0000   1.0000   1.0000   1.0000   1.0000   1.0000
     1.0000   1.0000   1.0000   1.0000   1.0000   1.0000   1.0000   1.0000
     1.0000   1.0000   1.0000   1.0000   1.0000   1.0000  -0.0000  -0.0000
    -0.0000  -0.0000  -0.0000  -0.0000  -0.0000  -0.0000  -0.0000  -0.0000
    -0.0000  -0.0000  -0.0000  -0.0000  -0.0000  -0.0000  -0.0000  -0.0000
    -0.0000  -0.0000  -0.0000  -0.0000  -0.0000  -0.0000  -0.0000

     the Fermi energy is    10.2539 ev

!    total energy              =   -2946.54650736 Ry
     estimated scf accuracy    <       0.00000067 Ry
     smearing contrib. (-TS)   =       0.00000003 Ry
     internal energy E=F+TS    =   -2946.54650739 Ry

     The total energy is F=E-TS. E is the sum of the following terms:
     one-electron contribution =   -1607.51512483 Ry
     hartree contribution      =     839.55701055 Ry
     xc contribution           =    -321.06651258 Ry
     ewald contribution        =   -1857.52188052 Ry

     convergence has been achieved in  12 iterations

     Forces acting on atoms (cartesian axes, Ry/au):

     atom    1 type  1   force =    -0.00014929    0.00489526   -0.00070936
     atom    2 type  1   force =     0.00014929    0.00489526   -0.00070936
     atom    3 type  1   force =    -0.00014929   -0.00489526    0.00070936
     atom    4 type  1   force =    -0.00175797    0.00013966    0.00018536
     atom    5 type  1   force =    -0.00000000    0.00000000   -0.00000000
     atom    6 type  1   force =     0.00014929   -0.00489526    0.00070936
     atom    7 type  1   force =    -0.00175797   -0.00013966   -0.00018536
     atom    8 type  1   force =     0.00175797    0.00013966    0.00018536
     atom    9 type  1   force =     0.00175797   -0.00013966   -0.00018536
     atom   10 type  1   force =    -0.00000000    0.00000000    0.00000000
     atom   11 type  2   force =    -0.00972584    0.02793919   -0.00302418
     atom   12 type  2   force =    -0.00427778   -0.02707359    0.00757776
     atom   13 type  2   force =     0.00972584   -0.02793919    0.00302418
     atom   14 type  2   force =     0.00427778   -0.02707359    0.00757776
     atom   15 type  2   force =    -0.00972584   -0.02793919    0.00302418
     atom   16 type  2   force =    -0.00427778    0.02707359   -0.00757776
     atom   17 type  2   force =     0.00427778    0.02707359   -0.00757776
     atom   18 type  2   force =     0.00972584    0.02793919   -0.00302418
     The non-local contrib.  to forces
     atom    1 type  1   force =     0.00579153   -0.03471281   -0.03074728
     atom    2 type  1   force =    -0.00579153   -0.03471281   -0.03074728
     atom    3 type  1   force =     0.00579153    0.03471281    0.03074728
     atom    4 type  1   force =     0.01797904   -0.02218917   -0.01075811
     atom    5 type  1   force =     0.00000000    0.00000000   -0.00000000
     atom    6 type  1   force =    -0.00579153    0.03471281    0.03074728
     atom    7 type  1   force =     0.01797904    0.02218917    0.01075811
     atom    8 type  1   force =    -0.01797904   -0.02218917   -0.01075811
     atom    9 type  1   force =    -0.01797904    0.02218917    0.01075811
     atom   10 type  1   force =     0.00000000    0.00000000    0.00000000
     atom   11 type  2   force =     0.04058443   -0.13610263    0.01157999
     atom   12 type  2   force =     0.01569195    0.11899971   -0.02896944
     atom   13 type  2   force =    -0.04058443    0.13610263   -0.01157999
     atom   14 type  2   force =    -0.01569195    0.11899971   -0.02896944
     atom   15 type  2   force =     0.04058443    0.13610263   -0.01157999
     atom   16 type  2   force =     0.01569195   -0.11899971    0.02896944
     atom   17 type  2   force =    -0.01569195   -0.11899971    0.02896944
     atom   18 type  2   force =    -0.04058443   -0.13610263    0.01157999
     The ionic contribution  to forces
     atom    1 type  1   force =     2.63081459   -0.42271015    3.76992253
     atom    2 type  1   force =    -2.63081459   -0.42271015    3.76992253
     atom    3 type  1   force =     2.63081459    0.42271015   -3.76992253
     atom    4 type  1   force =    -1.96525516   -0.49166668   -2.67099960
     atom    5 type  1   force =    -0.00000000   -0.00000000    0.00000000
     atom    6 type  1   force =    -2.63081459    0.42271015   -3.76992253
     atom    7 type  1   force =    -1.96525516    0.49166668    2.67099960
     atom    8 type  1   force =     1.96525516   -0.49166668   -2.67099960
     atom    9 type  1   force =     1.96525516    0.49166668    2.67099960
     atom   10 type  1   force =     0.00000000   -0.00000000    0.00000000
     atom   11 type  2   force =    -4.70988211    4.30803835   -0.41062016
     atom   12 type  2   force =    -1.24154098   -9.14154907    0.02044819
     atom   13 type  2   force =     4.70988211   -4.30803835    0.41062016
     atom   14 type  2   force =     1.24154098   -9.14154907    0.02044819
     atom   15 type  2   force =    -4.70988211   -4.30803835    0.41062016
     atom   16 type  2   force =    -1.24154098    9.14154907   -0.02044819
     atom   17 type  2   force =     1.24154098    9.14154907   -0.02044819
     atom   18 type  2   force =     4.70988211    4.30803835   -0.41062016
     The local contribution  to forces
     atom    1 type  1   force =    -2.63665013    0.46126713   -3.74168365
     atom    2 type  1   force =     2.63632161    0.46146821   -3.74154211
     atom    3 type  1   force =    -2.63642810   -0.46238757    3.74161771
     atom    4 type  1   force =     1.94610034    0.51258199    2.68212715
     atom    5 type  1   force =    -0.00023037   -0.00022080   -0.00085097
     atom    6 type  1   force =     2.63670941   -0.46032131    3.74212109
     atom    7 type  1   force =     1.94631557   -0.51349040   -2.68168849
     atom    8 type  1   force =    -1.94642125    0.51422249    2.68225079
     atom    9 type  1   force =    -1.94605190   -0.51324523   -2.68270351
     atom   10 type  1   force =    -0.00002125    0.00012390    0.00020813
     atom   11 type  2   force =     4.65915255   -4.14130683    0.39589788
     atom   12 type  2   force =     1.22175942    8.99511358    0.01545755
     atom   13 type  2   force =    -4.65905558    4.14210944   -0.39662651
     atom   14 type  2   force =    -1.22153406    8.99533297    0.01682164
     atom   15 type  2   force =     4.65885976    4.14430182   -0.39668540
     atom   16 type  2   force =     1.22166144   -8.99580494   -0.01609117
     atom   17 type  2   force =    -1.22183283   -8.99460003   -0.01386782
     atom   18 type  2   force =    -4.65834916   -4.14498317    0.39465557
     The core correction contribution to forces
     atom    1 type  1   force =    -0.00027267    0.00100978    0.00162176
     atom    2 type  1   force =     0.00026770    0.00101166    0.00162304
     atom    3 type  1   force =    -0.00027002   -0.00101366   -0.00162295
     atom    4 type  1   force =    -0.00077303    0.00072924    0.00003643
     atom    5 type  1   force =    -0.00000386   -0.00000202   -0.00000653
     atom    6 type  1   force =     0.00027061   -0.00100689   -0.00162075
     atom    7 type  1   force =    -0.00077158   -0.00073105   -0.00003421
     atom    8 type  1   force =     0.00077216    0.00073584    0.00004002
     atom    9 type  1   force =     0.00077459   -0.00073352   -0.00004251
     atom   10 type  1   force =    -0.00000178    0.00000099    0.00000332
     atom   11 type  2   force =     0.00000000    0.00000000    0.00000000
     atom   12 type  2   force =     0.00000000    0.00000000    0.00000000
     atom   13 type  2   force =     0.00000000    0.00000000    0.00000000
     atom   14 type  2   force =     0.00000000    0.00000000    0.00000000
     atom   15 type  2   force =     0.00000000    0.00000000    0.00000000
     atom   16 type  2   force =     0.00000000    0.00000000    0.00000000
     atom   17 type  2   force =     0.00000000    0.00000000    0.00000000
     atom   18 type  2   force =     0.00000000    0.00000000    0.00000000
     The Hubbard contrib.    to forces
     atom    1 type  1   force =     0.00000000    0.00000000    0.00000000
     atom    2 type  1   force =     0.00000000    0.00000000    0.00000000
     atom    3 type  1   force =     0.00000000    0.00000000    0.00000000
     atom    4 type  1   force =     0.00000000    0.00000000    0.00000000
     atom    5 type  1   force =     0.00000000    0.00000000    0.00000000
     atom    6 type  1   force =     0.00000000    0.00000000    0.00000000
     atom    7 type  1   force =     0.00000000    0.00000000    0.00000000
     atom    8 type  1   force =     0.00000000    0.00000000    0.00000000
     atom    9 type  1   force =     0.00000000    0.00000000    0.00000000
     atom   10 type  1   force =     0.00000000    0.00000000    0.00000000
     atom   11 type  2   force =     0.00000000    0.00000000    0.00000000
     atom   12 type  2   force =     0.00000000    0.00000000    0.00000000
     atom   13 type  2   force =     0.00000000    0.00000000    0.00000000
     atom   14 type  2   force =     0.00000000    0.00000000    0.00000000
     atom   15 type  2   force =     0.00000000    0.00000000    0.00000000
     atom   16 type  2   force =     0.00000000    0.00000000    0.00000000
     atom   17 type  2   force =     0.00000000    0.00000000    0.00000000
     atom   18 type  2   force =     0.00000000    0.00000000    0.00000000
     The SCF correction term to forces
     atom    1 type  1   force =     0.00013797    0.00003491    0.00018128
     atom    2 type  1   force =     0.00013098   -0.00014791    0.00003515
     atom    3 type  1   force =    -0.00006717    0.00105852   -0.00010563
     atom    4 type  1   force =     0.00019679    0.00066388   -0.00025068
     atom    5 type  1   force =     0.00017862    0.00021046    0.00077695
     atom    6 type  1   force =    -0.00022878   -0.00095821   -0.00061556
     atom    7 type  1   force =    -0.00000694    0.00025552   -0.00017866
     atom    8 type  1   force =     0.00013919   -0.00093778   -0.00032136
     atom    9 type  1   force =    -0.00022425   -0.00004174    0.00075747
     atom   10 type  1   force =    -0.00000989   -0.00013270   -0.00015779
     atom   11 type  2   force =     0.00048185   -0.00274740    0.00014923
     atom   12 type  2   force =    -0.00017450    0.00037245    0.00064600
     atom   13 type  2   force =    -0.00055673    0.00190136    0.00061986
     atom   14 type  2   force =    -0.00002614    0.00015021   -0.00077378
     atom   15 type  2   force =     0.00067051   -0.00031877    0.00068974
     atom   16 type  2   force =    -0.00008666    0.00035503   -0.00002790
     atom   17 type  2   force =     0.00026773   -0.00088393   -0.00225771
     atom   18 type  2   force =    -0.00116122    0.00104511    0.00135895

     Total force =     0.082962     Total SCF correction =     0.005503

     Computing stress (Cartesian axis) and pressure

          total   stress  (Ry/bohr**3)                   (kbar)     P=     -282.55
  -0.00198118   0.00000000   0.00000000         -291.44        0.00        0.00
   0.00000000  -0.00183734   0.00002829            0.00     -270.28        4.16
   0.00000000   0.00002829  -0.00194359            0.00        4.16     -285.91

     kinetic stress (kbar)  26105.20      0.00      0.00
                                0.00  26138.90     15.02
                                0.00     15.02  26109.76

     local   stress (kbar) -11228.64     -0.05     -0.06
                               -0.05 -13273.02   -749.83
                               -0.06   -749.83  -8473.15

     nonloc. stress (kbar)   4336.18      0.00      0.00
                                0.00   4345.10     -0.10
                                0.00     -0.10   4330.64

     hartree stress (kbar)  12673.19      0.02      0.05
                                0.02  13564.01    323.35
                                0.05    323.35  11472.87

     exc-cor stress (kbar)  -3741.35      0.00      0.00
                                0.00  -3741.25      0.31
                                0.00      0.31  -3742.20

     corecor stress (kbar)   -763.38     -0.00      0.00
                               -0.00   -763.59      0.01
                                0.00      0.01   -763.28

     ewald   stress (kbar) -27672.64     -0.00      0.00
                               -0.00 -26540.42    415.40
                                0.00    415.40 -29220.55

     hubbard stress (kbar)      0.00      0.00      0.00
                                0.00      0.00      0.00
                                0.00      0.00      0.00

     DFT-D   stress (kbar)      0.00      0.00      0.00
                                0.00      0.00      0.00
                                0.00      0.00      0.00

     XDM     stress (kbar)      0.00      0.00      0.00
                                0.00      0.00      0.00
                                0.00      0.00      0.00

     dft-nl  stress (kbar)      0.00      0.00      0.00
                                0.00      0.00      0.00
                                0.00      0.00      0.00

     TS-vdW  stress (kbar)      0.00      0.00      0.00
                                0.00      0.00      0.00
                                0.00      0.00      0.00

[...]

                                0.00      0.00      0.00

     Writing all to output data dir new_calculations/myprefix.save/

     General routines

     Parallel routines

   This run was terminated on:   6:15:43  20May2023

   JOB DONE.