     Program PWSCF v.7.0 starts on 20May2023 at 12:14:18

     Reading input from espresso_11339.pwi
Warning: card &CELL ignored
Warning: card / ignored

     Current dimensions of program PWSCF are:
     Max number of different atomic species (ntypx) = 10
     Max number of k-points (npk) =  40000
     Max angular momentum in pseudopotentials (lmaxx) =  4

     gamma-point specific algorithms are used
     Message from routine setup:
     using ibrav=0 with symmetry is DISCOURAGED, use correct ibrav instead

     Subspace diagonalization in iterative solution of the eigenvalue problem:
     a serial algorithm will be used

     Using Slab Decomposition

     bravais-lattice index     =            0
     lattice parameter (alat)  =      11.7434  a.u.
     unit-cell volume          =     860.3769 (a.u.)^3
     number of atoms/cell      =           10
     number of atomic types    =            2
     number of electrons       =        90.00
     number of Kohn-Sham states=           54
     kinetic-energy cutoff     =      30.0000  Ry
     charge density cutoff     =     240.0000  Ry
     scf convergence threshold =      1.0E-06
     mixing beta               =       0.7000
     number of iterations used =            8  plain     mixing
     Exchange-correlation=  SLA  PW   PBX  PBC
                           (   1   4   3   4   0   0   0)

     celldm(1)=  11.743410  celldm(2)=   0.000000  celldm(3)=   0.000000
     celldm(4)=   0.000000  celldm(5)=   0.000000  celldm(6)=   0.000000

     crystal axes: (cart. coord. in units of alat)
               a(1) = (   1.000000   0.000000   0.000000 )
               a(2) = (   0.000000   1.000000   0.000000 )
               a(3) = (   0.000000   0.000000   0.531259 )

     reciprocal axes: (cart. coord. in units 2 pi/alat)
               b(1) = (  1.000000  0.000000  0.000000 )
               b(2) = (  0.000000  1.000000  0.000000 )
               b(3) = (  0.000000  0.000000  1.882322 )

     PseudoPot. # 1 for Ta read from file:
     /home/pragov/projects/rrg-bengioy-ad/pragov/crystal_structure_design/SSSP/Ta_pbe_v1.uspp.F.UPF
     MD5 check sum: f8bbe9446314a3b8ea5d9f3e3836c939
     Pseudo is Ultrasoft + core correction, Zval = 13.0
     Generated by new atomic code, or converted to UPF format
     Using radial grid of  921 points,  7 beta functions with:
                l(1) =   0
                l(2) =   0
                l(3) =   1
                l(4) =   1
                l(5) =   2
                l(6) =   2
                l(7) =   3
     Q(r) pseudized with  6 coefficients,  rinner =    1.300   1.300   1.300
                                                       1.300   1.300   1.300
                                                       1.300

     PseudoPot. # 2 for B  read from file:
     /home/pragov/projects/rrg-bengioy-ad/pragov/crystal_structure_design/SSSP/b_pbe_v1.4.uspp.F.UPF
     MD5 check sum: cc6de2960df11db49a60e589f9ebb39b
     Pseudo is Ultrasoft + core correction, Zval =  3.0
     Generated by new atomic code, or converted to UPF format
     Using radial grid of  781 points,  4 beta functions with:
                l(1) =   0
                l(2) =   0
                l(3) =   1
                l(4) =   1
     Q(r) pseudized with  8 coefficients,  rinner =    1.100   1.100   1.100

     atomic species   valence    mass     pseudopotential
        Ta            13.00   180.94788     Ta( 1.00)
        B              3.00    10.81000     B ( 1.00)

     16 Sym. Ops., with inversion, found ( 8 have fractional translation)

                                    s                        frac. trans.

      isym =  1     identity

 cryst.   s( 1) = (     1          0          0      )
                  (     0          1          0      )
                  (     0          0          1      )

 cart.    s( 1) = (  1.0000000  0.0000000  0.0000000 )
                  (  0.0000000  1.0000000  0.0000000 )
                  (  0.0000000  0.0000000  1.0000000 )

      isym =  2     180 deg rotation - cart. axis [0,0,1]

[...]

 cryst.   s( 3) = (    -1          0          0      )    f =(  0.5000000 )
                  (     0          1          0      )       ( -0.5000000 )
                  (     0          0         -1      )       (  0.0000000 )

 cart.    s( 3) = ( -1.0000000  0.0000000  0.0000000 )    f =(  0.5000000 )
                  (  0.0000000  1.0000000  0.0000000 )       ( -0.5000000 )
                  (  0.0000000  0.0000000 -1.0000000 )       (  0.0000000 )

[...]

 cryst.   s( 6) = (     0         -1          0      )    f =(  0.5000000 )
                  (    -1          0          0      )       (  0.5000000 )
                  (     0          0         -1      )       (  0.0000000 )

 cart.    s( 6) = (  0.0000000 -1.0000000  0.0000000 )    f =(  0.5000000 )
                  ( -1.0000000  0.0000000  0.0000000 )       (  0.5000000 )
                  (  0.0000000  0.0000000 -1.0000000 )       (  0.0000000 )

[...]

      isym =  8      90 deg rotation - cart. axis [0,0,1]

[...]

      isym =  9     inversion

 cryst.   s( 9) = (    -1          0          0      )
                  (     0         -1          0      )
                  (     0          0         -1      )

 cart.    s( 9) = ( -1.0000000  0.0000000  0.0000000 )
                  (  0.0000000 -1.0000000  0.0000000 )
                  (  0.0000000  0.0000000 -1.0000000 )

      isym = 10     inv. 180 deg rotation - cart. axis [0,0,1]

 cryst.   s(10) = (     1          0          0      )
                  (     0          1          0      )
                  (     0          0         -1      )

 cart.    s(10) = (  1.0000000  0.0000000  0.0000000 )
                  (  0.0000000  1.0000000  0.0000000 )
                  (  0.0000000  0.0000000 -1.0000000 )

[...]

 cryst.   s(11) = (     1          0          0      )    f =( -0.5000000 )
                  (     0         -1          0      )       (  0.5000000 )
                  (     0          0          1      )       (  0.0000000 )

 cart.    s(11) = (  1.0000000  0.0000000  0.0000000 )    f =( -0.5000000 )
                  (  0.0000000 -1.0000000  0.0000000 )       (  0.5000000 )
                  (  0.0000000  0.0000000  1.0000000 )       (  0.0000000 )

[...]

 cryst.   s(14) = (     0          1          0      )    f =( -0.5000000 )
                  (     1          0          0      )       ( -0.5000000 )
                  (     0          0          1      )       (  0.0000000 )

 cart.    s(14) = (  0.0000000  1.0000000  0.0000000 )    f =( -0.5000000 )
                  (  1.0000000  0.0000000  0.0000000 )       ( -0.5000000 )
                  (  0.0000000  0.0000000  1.0000000 )       (  0.0000000 )

[...]

      isym = 16     inv.  90 deg rotation - cart. axis [0,0,1]

 cryst.   s(16) = (     0         -1          0      )
                  (     1          0          0      )
                  (     0          0         -1      )

 cart.    s(16) = (  0.0000000  1.0000000  0.0000000 )
                  ( -1.0000000  0.0000000  0.0000000 )
                  (  0.0000000  0.0000000 -1.0000000 )

   Cartesian axes

     site n.     atom                  positions (alat units)
         1           Ta  tau(   1) = (   0.0000000   0.0000000   0.0000000  )
         2           Ta  tau(   2) = (   0.5000000   0.5000000   0.0000000  )
         3           Ta  tau(   3) = (   0.3230490   0.8230490   0.2656294  )
         4           Ta  tau(   4) = (   0.8230490   0.6769510   0.2656294  )
         5           Ta  tau(   5) = (   0.1769510   0.3230490   0.2656294  )
         6           Ta  tau(   6) = (   0.6769510   0.1769510   0.2656294  )
         7           B   tau(   7) = (   0.1083320   0.6083320   0.0000000  )
         8           B   tau(   8) = (   0.6083320   0.8916680   0.0000000  )
         9           B   tau(   9) = (   0.3916680   0.1083320   0.0000000  )
        10           B   tau(  10) = (   0.8916680   0.3916680   0.0000000  )

   Crystallographic axes

     site n.     atom                  positions (cryst. coord.)
         1           Ta  tau(   1) = (  0.0000000  0.0000000  0.0000000  )
         2           Ta  tau(   2) = (  0.5000000  0.5000000  0.0000000  )
         3           Ta  tau(   3) = (  0.3230490  0.8230490  0.5000000  )
         4           Ta  tau(   4) = (  0.8230490  0.6769510  0.5000000  )
         5           Ta  tau(   5) = (  0.1769510  0.3230490  0.5000000  )
         6           Ta  tau(   6) = (  0.6769510  0.1769510  0.5000000  )
         7           B   tau(   7) = (  0.1083320  0.6083320  0.0000000  )
         8           B   tau(   8) = (  0.6083320  0.8916680  0.0000000  )
         9           B   tau(   9) = (  0.3916680  0.1083320  0.0000000  )
        10           B   tau(  10) = (  0.8916680  0.3916680  0.0000000  )

     number of k points=     1  Methfessel-Paxton smearing, width (Ry)=  0.0010
                       cart. coord. in units 2pi/alat
        k(    1) = (   0.0000000   0.0000000   0.0000000), wk =   2.0000000

                       cryst. coord.
        k(    1) = (   0.0000000   0.0000000   0.0000000), wk =   2.0000000

     Initial potential from superposition of free atoms

     starting charge      89.9922, renormalised to      90.0000

     negative rho (up, down):  5.593E-01 0.000E+00
     Starting wfcs are   94 randomized atomic wfcs

     Self-consistent Calculation

     iteration #  1     ecut=    30.00 Ry     beta= 0.70
     Davidson diagonalization with overlap

     ethr =  1.00E-02,  avg # of iterations =  2.0

     negative rho (up, down):  5.588E-01 0.000E+00

     total energy              =    -876.57081468 Ry
     estimated scf accuracy    <       1.14115941 Ry

[...]

     total energy              =    -877.07884543 Ry
     estimated scf accuracy    <       0.00000199 Ry

     iteration # 38     ecut=    30.00 Ry     beta= 0.70
     Davidson diagonalization with overlap

     ethr =  2.22E-09,  avg # of iterations =  1.0

[...]

     End of self-consistent calculation

          k = 0.0000 0.0000 0.0000 (  1204 PWs)   bands (ev):

   -49.2575 -49.2273 -49.2272 -49.2250 -48.6139 -48.6017 -16.2452 -16.2452
   -16.0376 -15.9452 -15.7946 -15.7877 -15.6901 -15.6317 -15.6317 -15.5345
   -15.5345 -15.5261 -15.2362 -15.1409 -15.1409 -15.0142 -14.8794 -14.8794
     7.3459   9.8340  11.4946  11.4946  12.9873  13.1246  14.0746  14.8052
    14.9733  14.9734  15.1714  15.4121  16.1002  16.1002  16.4903  16.8935
    17.1003  17.1003  17.8177  18.2235  19.0576  19.0808  19.2459  19.2459
    20.8037  20.8037  20.8956  21.0069  21.2019  21.7202

     occupation numbers
     1.0000   1.0000   1.0000   1.0000   1.0000   1.0000   1.0000   1.0000
     1.0000   1.0000   1.0000   1.0000   1.0000   1.0000   1.0000   1.0000
     1.0000   1.0000   1.0000   1.0000   1.0000   1.0000   1.0000   1.0000
     1.0000   1.0000   1.0000   1.0000   1.0000   1.0000   1.0000   1.0000
     1.0000   1.0000   1.0000   1.0000   1.0000   1.0000   1.0000   1.0000
     1.0000   1.0000   1.0000   1.0000   1.0024  -0.0024  -0.0000  -0.0000
    -0.0000  -0.0000  -0.0000  -0.0000  -0.0000  -0.0000

     the Fermi energy is    19.0692 ev

!    total energy              =    -877.07884492 Ry
     estimated scf accuracy    <       0.00000066 Ry
     smearing contrib. (-TS)   =       0.00012396 Ry
     internal energy E=F+TS    =    -877.07896888 Ry

     The total energy is F=E-TS. E is the sum of the following terms:
     one-electron contribution =     -79.73719179 Ry
     hartree contribution      =      88.66653866 Ry
     xc contribution           =    -265.85952421 Ry
     ewald contribution        =    -620.14879155 Ry

     convergence has been achieved in  38 iterations

     negative rho (up, down):  5.646E-01 0.000E+00

     Forces acting on atoms (cartesian axes, Ry/au):

     atom    1 type  1   force =     0.00000000    0.00000000    0.00000000
     atom    2 type  1   force =     0.00000000    0.00000000    0.00000000
     atom    3 type  1   force =     0.10681196    0.10681196    0.00000000
     atom    4 type  1   force =     0.10681196   -0.10681196   -0.00000000
     atom    5 type  1   force =    -0.10681196    0.10681196   -0.00000000
     atom    6 type  1   force =    -0.10681196   -0.10681196    0.00000000
     atom    7 type  2   force =    -0.10127506   -0.10127506   -0.00000000
     atom    8 type  2   force =    -0.10127506    0.10127506    0.00000000
     atom    9 type  2   force =     0.10127506   -0.10127506    0.00000000
     atom   10 type  2   force =     0.10127506    0.10127506   -0.00000000
     The non-local contrib.  to forces
     atom    1 type  1   force =     0.00000000    0.00000000    0.00000000
     atom    2 type  1   force =     0.00000000    0.00000000   -0.00000000
     atom    3 type  1   force =    -0.03295642   -0.03295642   -0.00000000
     atom    4 type  1   force =    -0.03295642    0.03295642    0.00000000
     atom    5 type  1   force =     0.03295642   -0.03295642    0.00000000
     atom    6 type  1   force =     0.03295642    0.03295642    0.00000000
     atom    7 type  2   force =    -0.03667462   -0.03667462    0.00000000
     atom    8 type  2   force =    -0.03667462    0.03667462   -0.00000000
     atom    9 type  2   force =     0.03667462   -0.03667462    0.00000000
     atom   10 type  2   force =     0.03667462    0.03667462   -0.00000000
     The ionic contribution  to forces
     atom    1 type  1   force =     0.00000000    0.00000000   -0.00000000
     atom    2 type  1   force =     0.00000000    0.00000000   -0.00000000
     atom    3 type  1   force =     0.89540847    0.89540847    0.00000000
     atom    4 type  1   force =     0.89540847   -0.89540847    0.00000000
     atom    5 type  1   force =    -0.89540847    0.89540847    0.00000000
     atom    6 type  1   force =    -0.89540847   -0.89540847    0.00000000
     atom    7 type  2   force =    -0.18491328   -0.18491328   -0.00000000
     atom    8 type  2   force =    -0.18491328    0.18491328   -0.00000000
     atom    9 type  2   force =     0.18491328   -0.18491328   -0.00000000
     atom   10 type  2   force =     0.18491328    0.18491328   -0.00000000
     The local contribution  to forces
     atom    1 type  1   force =    -0.00005539   -0.00005821   -0.00000029
     atom    2 type  1   force =     0.00011998    0.00004082   -0.00000024
     atom    3 type  1   force =    -0.75290083   -0.75309382    0.00000592
     atom    4 type  1   force =    -0.75320524    0.75299054   -0.00000657
     atom    5 type  1   force =     0.75313461   -0.75300190   -0.00000702
     atom    6 type  1   force =     0.75295646    0.75309525    0.00000812
     atom    7 type  2   force =     0.12070381    0.12071125    0.00000055
     atom    8 type  2   force =     0.12070274   -0.12072785   -0.00000065
     atom    9 type  2   force =    -0.12067790    0.12071163   -0.00000028
     atom   10 type  2   force =    -0.12075777   -0.12067863    0.00000024
     The core correction contribution to forces
     atom    1 type  1   force =    -0.00000024   -0.00000063   -0.00000003
     atom    2 type  1   force =     0.00000201    0.00000072    0.00000001
     atom    3 type  1   force =    -0.00241511   -0.00241796   -0.00000063
     atom    4 type  1   force =    -0.00241919    0.00241642    0.00000063
     atom    5 type  1   force =     0.00241786   -0.00241703    0.00000053
     atom    6 type  1   force =     0.00241446    0.00241740   -0.00000022
     atom    7 type  2   force =    -0.00047211   -0.00047201    0.00000000
     atom    8 type  2   force =    -0.00047199    0.00047203   -0.00000001
     atom    9 type  2   force =     0.00047196   -0.00047190    0.00000000
     atom   10 type  2   force =     0.00047178    0.00047203   -0.00000000
     The Hubbard contrib.    to forces
     atom    1 type  1   force =     0.00000000    0.00000000    0.00000000
     atom    2 type  1   force =     0.00000000    0.00000000    0.00000000
     atom    3 type  1   force =     0.00000000    0.00000000    0.00000000
     atom    4 type  1   force =     0.00000000    0.00000000    0.00000000
     atom    5 type  1   force =     0.00000000    0.00000000    0.00000000
     atom    6 type  1   force =     0.00000000    0.00000000    0.00000000
     atom    7 type  2   force =     0.00000000    0.00000000    0.00000000
     atom    8 type  2   force =     0.00000000    0.00000000    0.00000000
     atom    9 type  2   force =     0.00000000    0.00000000    0.00000000
     atom   10 type  2   force =     0.00000000    0.00000000    0.00000000
     The SCF correction term to forces
     atom    1 type  1   force =     0.00005201    0.00006415    0.00000035
     atom    2 type  1   force =    -0.00012491   -0.00004800    0.00000026
     atom    3 type  1   force =    -0.00032799   -0.00013666   -0.00000259
     atom    4 type  1   force =    -0.00001282    0.00021574    0.00000274
     atom    5 type  1   force =     0.00008466   -0.00020934    0.00000520
     atom    6 type  1   force =     0.00027801    0.00014144   -0.00000592
     atom    7 type  2   force =     0.00007853    0.00007270   -0.00000022
     atom    8 type  2   force =     0.00008069   -0.00005668    0.00000027
     atom    9 type  2   force =    -0.00010531    0.00007610   -0.00000003
     atom   10 type  2   force =    -0.00003737   -0.00009953    0.00000003

     Total force =     0.416321     Total SCF correction =     0.000629

     Computing stress (Cartesian axis) and pressure

     negative rho (up, down):  5.646E-01 0.000E+00
          total   stress  (Ry/bohr**3)                   (kbar)     P=      -55.56
  -0.00096497   0.00000000   0.00000000         -141.95        0.00        0.00
   0.00000000  -0.00096497   0.00000000            0.00     -141.95        0.00
   0.00000000   0.00000000   0.00079684            0.00        0.00      117.22

     kinetic stress (kbar)  29293.03      0.00      0.00
                                0.00  29293.03      0.00
                                0.00      0.00  29899.36

     local   stress (kbar)  28244.34     -0.01      0.00
                               -0.01  28244.34      0.00
                                0.00      0.00  26332.46

     nonloc. stress (kbar) -18458.42      0.00      0.00
                                0.00 -18458.42      0.00
                                0.00      0.00 -18429.43

     hartree stress (kbar)   4774.16      0.00     -0.00
                                0.00   4774.16     -0.00
                               -0.00     -0.00   5611.66

     exc-cor stress (kbar)  21738.34      0.00     -0.00
                                0.00  21738.34     -0.00
                               -0.00     -0.00  21743.34

     corecor stress (kbar) -30169.79     -0.00      0.00
                               -0.00 -30169.79      0.00
                                0.00      0.00 -30135.90

     ewald   stress (kbar) -35563.60     -0.00      0.00
                               -0.00 -35563.60     -0.00
                                0.00     -0.00 -34904.27

     hubbard stress (kbar)      0.00      0.00      0.00
                                0.00      0.00      0.00
                                0.00      0.00      0.00

     DFT-D   stress (kbar)      0.00      0.00      0.00
                                0.00      0.00      0.00
                                0.00      0.00      0.00

     XDM     stress (kbar)      0.00      0.00      0.00
                                0.00      0.00      0.00
                                0.00      0.00      0.00

     dft-nl  stress (kbar)      0.00      0.00      0.00
                                0.00      0.00      0.00
                                0.00      0.00      0.00

     TS-vdW  stress (kbar)      0.00      0.00      0.00
                                0.00      0.00      0.00
                                0.00      0.00      0.00

[...]

                                0.00      0.00      0.00

     Writing all to output data dir new_calculations/myprefix.save/

     General routines

     Parallel routines

   This run was terminated on:  12:14:47  20May2023

   JOB DONE.