     Program PWSCF v.7.0 starts on 21May2023 at  4:43: 6

     Reading input from espresso_14059.pwi
Warning: card &CELL ignored
Warning: card / ignored

     Current dimensions of program PWSCF are:
     Max number of different atomic species (ntypx) = 10
     Max number of k-points (npk) =  40000
     Max angular momentum in pseudopotentials (lmaxx) =  4
     file Nb.pbe-spn-kjpaw_psl.0.3.0.UPF: wavefunction(s)  4S 4P renormalized

     gamma-point specific algorithms are used
     Message from routine setup:
     using ibrav=0 with symmetry is DISCOURAGED, use correct ibrav instead

     Subspace diagonalization in iterative solution of the eigenvalue problem:
     a serial algorithm will be used

     Using Slab Decomposition

     bravais-lattice index     =            0
     lattice parameter (alat)  =       6.1169  a.u.
     unit-cell volume          =    1601.5947 (a.u.)^3
     number of atoms/cell      =           12
     number of atomic types    =            3
     number of electrons       =       103.00
     number of Kohn-Sham states=           62
     kinetic-energy cutoff     =      30.0000  Ry
     charge density cutoff     =     240.0000  Ry
     scf convergence threshold =      1.0E-06
     mixing beta               =       0.7000
     number of iterations used =            8  plain     mixing
     Exchange-correlation=  SLA  PW   PBX  PBC
                           (   1   4   3   4   0   0   0)

     celldm(1)=   6.116892  celldm(2)=   0.000000  celldm(3)=   0.000000
     celldm(4)=   0.000000  celldm(5)=   0.000000  celldm(6)=   0.000000

     crystal axes: (cart. coord. in units of alat)
               a(1) = (   1.000000   0.000000   0.000000 )
               a(2) = (   0.000000   1.732916   0.000000 )
               a(3) = (   0.000000   0.000000   4.038151 )

     reciprocal axes: (cart. coord. in units 2 pi/alat)
               b(1) = (  1.000000  0.000000  0.000000 )
               b(2) = (  0.000000  0.577062  0.000000 )
               b(3) = (  0.000000  0.000000  0.247638 )

     PseudoPot. # 1 for Nb read from file:
     /home/pragov/projects/rrg-bengioy-ad/pragov/crystal_structure_design/SSSP/Nb.pbe-spn-kjpaw_psl.0.3.0.UPF
     MD5 check sum: 411d72ad547312f8017e2943ceca08cc
     Pseudo is Projector augmented-wave + core cor, Zval = 13.0
     Generated using "atomic" code by A. Dal Corso  v.5.0.99 svn rev. 10869
     Shape of augmentation charge: PSQ
     Using radial grid of 1227 points,  6 beta functions with:
                l(1) =   0
                l(2) =   0
                l(3) =   1
                l(4) =   1
                l(5) =   2
                l(6) =   2
     Q(r) pseudized with 0 coefficients

     PseudoPot. # 2 for W  read from file:
     /home/pragov/projects/rrg-bengioy-ad/pragov/crystal_structure_design/SSSP/W_pbe_v1.2.uspp.F.UPF
     MD5 check sum: 9c083fa34c2a2ea0f02f1f893e16e1c8
     Pseudo is Ultrasoft + core correction, Zval = 14.0
     Generated by new atomic code, or converted to UPF format
     Using radial grid of  923 points,  8 beta functions with:
                l(1) =   0
                l(2) =   0
                l(3) =   0
                l(4) =   1
                l(5) =   1
                l(6) =   2
                l(7) =   2
                l(8) =   3
     Q(r) pseudized with  6 coefficients,  rinner =    1.350   1.350   1.350
                                                       1.350   1.350   1.350
                                                       1.350

     PseudoPot. # 3 for S  read from file:
     /home/pragov/projects/rrg-bengioy-ad/pragov/crystal_structure_design/SSSP/s_pbe_v1.4.uspp.F.UPF
     MD5 check sum: 88d86576ff6df21479756cfb9bdac1df
     Pseudo is Ultrasoft + core correction, Zval =  6.0
     Generated by new atomic code, or converted to UPF format
     Using radial grid of  907 points,  6 beta functions with:
                l(1) =   0
                l(2) =   0
                l(3) =   1
                l(4) =   1
                l(5) =   2
                l(6) =   2
     Q(r) pseudized with  8 coefficients,  rinner =    1.300   1.300   1.300
                                                       1.300   1.300

     atomic species   valence    mass     pseudopotential
        Nb            13.00    92.90637     Nb( 1.00)
        W             14.00   183.84000     W ( 1.00)
        S              6.00    32.06000     S ( 1.00)

      4 Sym. Ops. (no inversion) found

                                    s                        frac. trans.

      isym =  1     identity

 cryst.   s( 1) = (     1          0          0      )
                  (     0          1          0      )
                  (     0          0          1      )

 cart.    s( 1) = (  1.0000000  0.0000000  0.0000000 )
                  (  0.0000000  1.0000000  0.0000000 )
                  (  0.0000000  0.0000000  1.0000000 )

      isym =  2     180 deg rotation - cart. axis [0,1,0]

[...]

      isym =  3     inv. 180 deg rotation - cart. axis [0,0,1]

[...]

      isym =  4     inv. 180 deg rotation - cart. axis [1,0,0]

 cryst.   s( 4) = (    -1          0          0      )
                  (     0          1          0      )
                  (     0          0          1      )

 cart.    s( 4) = ( -1.0000000  0.0000000  0.0000000 )
                  (  0.0000000  1.0000000  0.0000000 )
                  (  0.0000000  0.0000000  1.0000000 )

   Cartesian axes

     site n.     atom                  positions (alat units)
         1           Nb  tau(   1) = (   0.5000000   1.4348823   2.0190755  )
         2           W   tau(   2) = (   0.0000000   0.5866580   2.0190755  )
         3           W   tau(   3) = (   0.0000000   1.1550406   0.0000000  )
         4           W   tau(   4) = (   0.5000000   0.2886934   0.0000000  )
         5           S   tau(   5) = (   0.5000000   1.4439299   3.5572113  )
         6           S   tau(   6) = (   0.0000000   0.5776156   3.5572356  )
         7           S   tau(   7) = (   0.0000000   1.1459965   2.5131716  )
         8           S   tau(   8) = (   0.5000000   0.2985711   2.4987837  )
         9           S   tau(   9) = (   0.0000000   1.1459965   1.5249795  )
        10           S   tau(  10) = (   0.5000000   0.2985711   1.5393674  )
        11           S   tau(  11) = (   0.5000000   1.4439299   0.4809398  )
        12           S   tau(  12) = (   0.0000000   0.5776156   0.4809155  )

   Crystallographic axes

     site n.     atom                  positions (cryst. coord.)
         1           Nb  tau(   1) = (  0.5000000  0.8280160  0.5000000  )
         2           W   tau(   2) = (  0.0000000  0.3385380  0.5000000  )
         3           W   tau(   3) = (  0.0000000  0.6665300  0.0000000  )
         4           W   tau(   4) = (  0.5000000  0.1665940  0.0000000  )
         5           S   tau(   5) = (  0.5000000  0.8332370  0.8809010  )
         6           S   tau(   6) = (  0.0000000  0.3333200  0.8809070  )
         7           S   tau(   7) = (  0.0000000  0.6613110  0.6223570  )
         8           S   tau(   8) = (  0.5000000  0.1722940  0.6187940  )
         9           S   tau(   9) = (  0.0000000  0.6613110  0.3776430  )
        10           S   tau(  10) = (  0.5000000  0.1722940  0.3812060  )
        11           S   tau(  11) = (  0.5000000  0.8332370  0.1190990  )
        12           S   tau(  12) = (  0.0000000  0.3333200  0.1190930  )

     number of k points=     1  Methfessel-Paxton smearing, width (Ry)=  0.0010
                       cart. coord. in units 2pi/alat
        k(    1) = (   0.0000000   0.0000000   0.0000000), wk =   2.0000000

                       cryst. coord.
        k(    1) = (   0.0000000   0.0000000   0.0000000), wk =   2.0000000

     Check: negative core charge=   -0.000005

     Initial potential from superposition of free atoms

     starting charge     102.6966, renormalised to     103.0000

     negative rho (up, down):  1.922E-01 0.000E+00
     Starting wfcs are   81 randomized atomic wfcs
     Checking if some PAW data can be deallocated...

     Self-consistent Calculation

     iteration #  1     ecut=    30.00 Ry     beta= 0.70
     Davidson diagonalization with overlap

     ethr =  1.00E-02,  avg # of iterations =  2.0

     Threshold (ethr) on eigenvalues was too large:
     Diagonalizing with lowered threshold

     Davidson diagonalization with overlap

[...]

     negative rho (up, down):  1.913E-01 0.000E+00

     total energy              =   -1003.99026650 Ry
     estimated scf accuracy    <       0.83257766 Ry

[...]

     total energy              =   -1004.29481202 Ry
     estimated scf accuracy    <       0.00000588 Ry

     iteration # 17     ecut=    30.00 Ry     beta= 0.70
     Davidson diagonalization with overlap

     ethr =  5.71E-09,  avg # of iterations =  2.0

[...]

     End of self-consistent calculation

          k = 0.0000 0.0000 0.0000 (  2240 PWs)   bands (ev):

   -64.5565 -64.5428 -63.6934 -44.3175 -29.2827 -29.0006 -28.6928 -28.6384
   -28.6014 -28.5327 -28.2252 -27.9128 -27.6634 -20.7094 -20.5273 -20.0912
    -5.7051  -4.4501  -4.1510  -3.7331  -3.4621  -3.0834  -2.5180  -2.3993
     2.5744   2.7699   3.8169   3.8237   4.2161   4.7408   4.8797   5.6171
     5.8806   6.0719   6.1560   6.6496   6.7460   6.9920   7.2018   7.3597
     7.3786   7.4099   7.5299   7.7643   8.2180   8.3938   8.5252   8.5637
     8.5983   9.2095   9.4680  10.4860  11.6861  11.8000  11.8551  11.8657
    11.8757  12.1895  12.7664  12.8196  12.8797  12.9128

     occupation numbers
     1.0000   1.0000   1.0000   1.0000   1.0000   1.0000   1.0000   1.0000
     1.0000   1.0000   1.0000   1.0000   1.0000   1.0000   1.0000   1.0000
     1.0000   1.0000   1.0000   1.0000   1.0000   1.0000   1.0000   1.0000
     1.0000   1.0000   1.0000   1.0000   1.0000   1.0000   1.0000   1.0000
     1.0000   1.0000   1.0000   1.0000   1.0000   1.0000   1.0000   1.0000
     1.0000   1.0000   1.0000   1.0000   1.0000   1.0000   1.0000   1.0000
     1.0000   1.0000   1.0000   0.5000  -0.0000  -0.0000  -0.0000  -0.0000
    -0.0000  -0.0000  -0.0000  -0.0000  -0.0000  -0.0000

     the Fermi energy is    10.4860 ev

!    total energy              =   -1004.29481241 Ry
     estimated scf accuracy    <       0.00000058 Ry
     smearing contrib. (-TS)   =      -0.00028209 Ry
     internal energy E=F+TS    =   -1004.29453031 Ry

     The total energy is F=E-TS. E is the sum of the following terms:
     one-electron contribution =    -378.72300303 Ry
     hartree contribution      =     229.82025403 Ry
     xc contribution           =    -220.60205417 Ry
     ewald contribution        =    -426.30510694 Ry
     one-center paw contrib.   =    -208.48462021 Ry
      -> PAW hartree energy AE =      69.37830312 Ry
      -> PAW hartree energy PS =     -69.00881833 Ry
      -> PAW xc energy AE      =    -235.95145603 Ry
      -> PAW xc energy PS      =      27.09735103 Ry
      -> total E_H with PAW    =     230.18973882 Ry
      -> total E_XC with PAW   =    -429.45615916 Ry

     convergence has been achieved in  17 iterations

     negative rho (up, down):  1.910E-01 0.000E+00

     Forces acting on atoms (cartesian axes, Ry/au):

     atom    1 type  1   force =     0.00000000    0.01526371    0.00000000
     atom    2 type  2   force =     0.00000000   -0.00304112    0.00000000
     atom    3 type  2   force =     0.00000000   -0.01112879    0.00000000
     atom    4 type  2   force =     0.00000000   -0.01029846    0.00000000
     atom    5 type  3   force =     0.00000000    0.00538787    0.02726462
     atom    6 type  3   force =     0.00000000    0.00575104    0.02759128
     atom    7 type  3   force =     0.00000000   -0.00929060   -0.07003733
     atom    8 type  3   force =     0.00000000    0.00275402   -0.04349392
     atom    9 type  3   force =     0.00000000   -0.00929060    0.07003733
     atom   10 type  3   force =     0.00000000    0.00275402    0.04349392
     atom   11 type  3   force =     0.00000000    0.00538787   -0.02726462
     atom   12 type  3   force =    -0.00000000    0.00575104   -0.02759128
     The non-local contrib.  to forces
     atom    1 type  1   force =     0.00000000   -0.09263064    0.00000000
     atom    2 type  2   force =     0.00000000   -0.00336536    0.00000000
     atom    3 type  2   force =     0.00000000   -0.02947427    0.00000000
     atom    4 type  2   force =     0.00000000   -0.03089556    0.00000000
     atom    5 type  3   force =    -0.00000000    0.00847961    0.16304964
     atom    6 type  3   force =    -0.00000000    0.00878954    0.16526538
     atom    7 type  3   force =     0.00000000   -0.04773268   -0.03206432
     atom    8 type  3   force =     0.00000000    0.02126905   -0.08927834
     atom    9 type  3   force =     0.00000000   -0.04773268    0.03206432
     atom   10 type  3   force =    -0.00000000    0.02126905    0.08927834
     atom   11 type  3   force =     0.00000000    0.00847961   -0.16304964
     atom   12 type  3   force =     0.00000000    0.00878954   -0.16526538
     The ionic contribution  to forces
     atom    1 type  1   force =    -0.00000000    1.16459841    0.00000000
     atom    2 type  2   force =     0.00000000   -1.10986650    0.00000000
     atom    3 type  2   force =     0.00000000    0.03456307   -0.00000000
     atom    4 type  2   force =    -0.00000000   -0.04261122   -0.00000000
     atom    5 type  3   force =    -0.00000000    0.03885721  -15.47592467
     atom    6 type  3   force =     0.00000000   -0.03481713  -15.43768511
     atom    7 type  3   force =     0.00000000    0.79662563   14.12737566
     atom    8 type  3   force =     0.00000000   -0.82400759   14.15387607
     atom    9 type  3   force =     0.00000000    0.79662563  -14.12737566
     atom   10 type  3   force =    -0.00000000   -0.82400759  -14.15387607
     atom   11 type  3   force =    -0.00000000    0.03885721   15.47592467
     atom   12 type  3   force =     0.00000000   -0.03481713   15.43768511
     The local contribution  to forces
     atom    1 type  1   force =    -0.00001020   -1.06473893    0.00126198
     atom    2 type  2   force =     0.00000194    1.09994373    0.00133459
     atom    3 type  2   force =    -0.00000213   -0.00187821   -0.00064286
     atom    4 type  2   force =    -0.00000066    0.07822036   -0.00055496
     atom    5 type  3   force =     0.00000121   -0.04142376   15.34671975
     atom    6 type  3   force =     0.00001701    0.03243210   15.30667186
     atom    7 type  3   force =    -0.00001908   -0.76038594  -14.16499001
     atom    8 type  3   force =    -0.00003017    0.80612395  -14.11079224
     atom    9 type  3   force =    -0.00000827   -0.76028202   14.16554939
     atom   10 type  3   force =     0.00000335    0.80607071   14.11137523
     atom   11 type  3   force =     0.00001051   -0.04136422  -15.34700865
     atom   12 type  3   force =    -0.00000392    0.03236365  -15.30706904
     The core correction contribution to forces
     atom    1 type  1   force =    -0.00000008    0.00898579   -0.00000224
     atom    2 type  2   force =     0.00000033    0.00953877   -0.00000062
     atom    3 type  2   force =    -0.00000034   -0.01445070   -0.00000333
     atom    4 type  2   force =    -0.00000000   -0.01480262   -0.00000072
     atom    5 type  3   force =     0.00000015   -0.00052673   -0.00728407
     atom    6 type  3   force =     0.00000070   -0.00054004   -0.00740988
     atom    7 type  3   force =    -0.00000020    0.00249683    0.00013084
     atom    8 type  3   force =    -0.00000082   -0.00093095    0.00320393
     atom    9 type  3   force =    -0.00000032    0.00249942   -0.00012742
     atom   10 type  3   force =    -0.00000010   -0.00093131   -0.00320149
     atom   11 type  3   force =     0.00000041   -0.00052521    0.00729079
     atom   12 type  3   force =    -0.00000038   -0.00054168    0.00741316
     The Hubbard contrib.    to forces
     atom    1 type  1   force =     0.00000000    0.00000000    0.00000000
     atom    2 type  2   force =     0.00000000    0.00000000    0.00000000
     atom    3 type  2   force =     0.00000000    0.00000000    0.00000000
     atom    4 type  2   force =     0.00000000    0.00000000    0.00000000
     atom    5 type  3   force =     0.00000000    0.00000000    0.00000000
     atom    6 type  3   force =     0.00000000    0.00000000    0.00000000
     atom    7 type  3   force =     0.00000000    0.00000000    0.00000000
     atom    8 type  3   force =     0.00000000    0.00000000    0.00000000
     atom    9 type  3   force =     0.00000000    0.00000000    0.00000000
     atom   10 type  3   force =     0.00000000    0.00000000    0.00000000
     atom   11 type  3   force =     0.00000000    0.00000000    0.00000000
     atom   12 type  3   force =     0.00000000    0.00000000    0.00000000
     The SCF correction term to forces
     atom    1 type  1   force =     0.00000906   -0.00092408   -0.00135116
     atom    2 type  2   force =    -0.00000220    0.00073508   -0.00140760
     atom    3 type  2   force =     0.00000264    0.00013815    0.00065280
     atom    4 type  2   force =     0.00000030   -0.00018258    0.00054313
     atom    5 type  3   force =    -0.00000029    0.00001691    0.00076303
     atom    6 type  3   force =    -0.00000862   -0.00007630    0.00078031
     atom    7 type  3   force =     0.00000723   -0.00029343   -0.00046861
     atom    8 type  3   force =     0.00001507    0.00033573   -0.00048383
     atom    9 type  3   force =     0.00000455   -0.00034829   -0.00005239
     atom   10 type  3   force =    -0.00000252    0.00037067   -0.00006258
     atom   11 type  3   force =    -0.00000602   -0.00002123   -0.00036271
     atom   12 type  3   force =     0.00000091   -0.00002680   -0.00032385

     Total force =     0.131861     Total SCF correction =     0.002886

     Computing stress (Cartesian axis) and pressure

     negative rho (up, down):  1.910E-01 0.000E+00
          total   stress  (Ry/bohr**3)                   (kbar)     P=       34.25
   0.00120106   0.00000000   0.00000000          176.68        0.00        0.00
   0.00000000  -0.00011516   0.00000000            0.00      -16.94        0.00
   0.00000000   0.00000000  -0.00038739            0.00        0.00      -56.99

     kinetic stress (kbar)  15466.06      0.00      0.00
                                0.00  14630.13      0.00
                                0.00      0.00  15335.40

     local   stress (kbar) -24393.55      0.00     -0.00
                                0.00 -23403.63      0.01
                               -0.00      0.01  32212.87

     nonloc. stress (kbar)    203.12      0.00      0.00
                                0.00    227.20      0.00
                                0.00      0.00    172.21

     hartree stress (kbar)  15602.03     -0.00      0.00
                               -0.00  15303.38     -0.00
                                0.00     -0.00  -9796.63

     exc-cor stress (kbar)   7366.55     -0.00      0.00
                               -0.00   7360.97     -0.00
                                0.00     -0.00   7371.24

     corecor stress (kbar) -11469.30      0.00     -0.00
                                0.00 -11454.00     -0.00
                               -0.00     -0.00 -11475.56

     ewald   stress (kbar)  -2598.24     -0.00     -0.00
                               -0.00  -2681.00     -0.00
                               -0.00     -0.00 -33876.52

     hubbard stress (kbar)      0.00      0.00      0.00
                                0.00      0.00      0.00
                                0.00      0.00      0.00

     DFT-D   stress (kbar)      0.00      0.00      0.00
                                0.00      0.00      0.00
                                0.00      0.00      0.00

     XDM     stress (kbar)      0.00      0.00      0.00
                                0.00      0.00      0.00
                                0.00      0.00      0.00

     dft-nl  stress (kbar)      0.00      0.00      0.00
                                0.00      0.00      0.00
                                0.00      0.00      0.00

     TS-vdW  stress (kbar)      0.00      0.00      0.00
                                0.00      0.00      0.00
                                0.00      0.00      0.00

[...]

                                0.00      0.00      0.00

     Writing all to output data dir new_calculations/myprefix.save/

     General routines

     Parallel routines

     PAW routines

   This run was terminated on:   4:43:31  21May2023

   JOB DONE.