     Program PWSCF v.7.0 starts on 21May2023 at  3:36:20

     Reading input from espresso_11796.pwi
Warning: card &CELL ignored
Warning: card / ignored

     Current dimensions of program PWSCF are:
     Max number of different atomic species (ntypx) = 10
     Max number of k-points (npk) =  40000
     Max angular momentum in pseudopotentials (lmaxx) =  4

     gamma-point specific algorithms are used
     Message from routine setup:
     using ibrav=0 with symmetry is DISCOURAGED, use correct ibrav instead

     Subspace diagonalization in iterative solution of the eigenvalue problem:
     a serial algorithm will be used

     Using Slab Decomposition

     bravais-lattice index     =            0
     lattice parameter (alat)  =      11.7442  a.u.
     unit-cell volume          =    2263.6070 (a.u.)^3
     number of atoms/cell      =           10
     number of atomic types    =            3
     number of electrons       =        82.00
     number of Kohn-Sham states=           49
     kinetic-energy cutoff     =      30.0000  Ry
     charge density cutoff     =     240.0000  Ry
     scf convergence threshold =      1.0E-06
     mixing beta               =       0.7000
     number of iterations used =            8  plain     mixing
     Exchange-correlation=  SLA  PW   PBX  PBC
                           (   1   4   3   4   0   0   0)

     celldm(1)=  11.744240  celldm(2)=   0.000000  celldm(3)=   0.000000
     celldm(4)=   0.000000  celldm(5)=   0.000000  celldm(6)=   0.000000

     crystal axes: (cart. coord. in units of alat)
               a(1) = (   1.000000   0.000000   0.000000 )
               a(2) = (   0.000000   1.270275   0.000000 )
               a(3) = (   0.000000  -0.635138   1.100091 )

     reciprocal axes: (cart. coord. in units 2 pi/alat)
               b(1) = (  1.000000  0.000000  0.000000 )
               b(2) = (  0.000000  0.787231  0.454508 )
               b(3) = (  0.000000  0.000000  0.909016 )

     PseudoPot. # 1 for Rb read from file:
     /home/pragov/projects/rrg-bengioy-ad/pragov/crystal_structure_design/SSSP/Rb_ONCV_PBE-1.0.oncvpsp.upf
     MD5 check sum: 55a5172d6bfbce6759a58e35d43f6aa9
     Pseudo is Norm-conserving, Zval =  9.0
     Generated using ONCVPSP code by D. R. Hamann
     Using radial grid of 2308 points,  6 beta functions with:
                l(1) =   0
                l(2) =   0
                l(3) =   1
                l(4) =   1
                l(5) =   2
                l(6) =   2

     PseudoPot. # 2 for Sc read from file:
     /home/pragov/projects/rrg-bengioy-ad/pragov/crystal_structure_design/SSSP/Sc_ONCV_PBE-1.0.oncvpsp.upf
     MD5 check sum: e21af8023abb52e52cb7cd3133e4a229
     Pseudo is Norm-conserving, Zval = 11.0
     Generated using ONCVPSP code by D. R. Hamann
     Using radial grid of 1662 points,  6 beta functions with:
                l(1) =   0
                l(2) =   0
                l(3) =   1
                l(4) =   1
                l(5) =   2
                l(6) =   2

     PseudoPot. # 3 for Br read from file:
     /home/pragov/projects/rrg-bengioy-ad/pragov/crystal_structure_design/SSSP/br_pbe_v1.4.uspp.F.UPF
     MD5 check sum: d3ffb7b29f6225aa16fe06858fb2a80b
     Pseudo is Ultrasoft + core correction, Zval =  7.0
     Generated by new atomic code, or converted to UPF format
     Using radial grid of  879 points,  6 beta functions with:
                l(1) =   0
                l(2) =   0
                l(3) =   1
                l(4) =   1
                l(5) =   2
                l(6) =   2
     Q(r) pseudized with  8 coefficients,  rinner =    1.100   1.100   1.100
                                                       1.100   1.100

     atomic species   valence    mass     pseudopotential
        Rb             9.00    85.46780     Rb( 1.00)
        Sc            11.00    44.95591     Sc( 1.00)
        Br             7.00    79.90400     Br( 1.00)

      8 Sym. Ops., with inversion, found ( 4 have fractional translation)

                                    s                        frac. trans.

      isym =  1     identity

 cryst.   s( 1) = (     1          0          0      )
                  (     0          1          0      )
                  (     0          0          1      )

 cart.    s( 1) = (  1.0000000  0.0000000  0.0000000 )
                  (  0.0000000  1.0000000  0.0000000 )
                  (  0.0000000  0.0000000  1.0000000 )

      isym =  2     180 deg rotation - cart. axis [0,0,1]

 cryst.   s( 2) = (    -1          0          0      )    f =(  0.5000000 )
                  (     0         -1          0      )       ( -0.0000010 )
                  (     0          1          1      )       (  0.0000000 )

 cart.    s( 2) = ( -1.0000000  0.0000000  0.0000000 )    f =(  0.5000000 )
                  (  0.0000000 -1.0000000 -0.0000001 )       ( -0.0000013 )
                  (  0.0000000  0.0000000  1.0000000 )       (  0.0000000 )

[...]

      isym =  4     180 deg rotation - cart. axis [1,0,0]

[...]

      isym =  5     inversion

[...]

      isym =  6     inv. 180 deg rotation - cart. axis [0,0,1]

[...]

 cryst.   s( 7) = (     1          0          0      )
                  (     0         -1          0      )
                  (     0          1          1      )

 cart.    s( 7) = (  1.0000000  0.0000000  0.0000000 )
                  (  0.0000000 -1.0000000 -0.0000001 )
                  (  0.0000000  0.0000000  1.0000000 )

      isym =  8     inv. 180 deg rotation - cart. axis [1,0,0]

 cryst.   s( 8) = (    -1          0          0      )    f =(  0.5000000 )
                  (     0          1          0      )       (  0.0000000 )
                  (     0          0          1      )       (  0.0000000 )

 cart.    s( 8) = ( -1.0000000  0.0000000  0.0000000 )    f =(  0.5000000 )
                  (  0.0000000  1.0000000  0.0000000 )       (  0.0000000 )
                  (  0.0000000  0.0000000  1.0000000 )       (  0.0000000 )

   Cartesian axes

     site n.     atom                  positions (alat units)
         1           Rb  tau(   1) = (   0.2500000   0.6351382   0.3666965  )
         2           Rb  tau(   2) = (   0.7500000  -0.0000007   0.7333941  )
         3           Sc  tau(   3) = (   0.0000000   0.0000000   0.0000000  )
         4           Sc  tau(   4) = (   0.5000000   0.0000000   0.0000000  )
         5           Br  tau(   5) = (   0.7500000   0.9528525   0.1832641  )
         6           Br  tau(   6) = (   0.2500000  -0.3177150   0.9168265  )
         7           Br  tau(   7) = (   0.7500000   0.3174215   0.1832641  )
         8           Br  tau(   8) = (   0.2500000   0.3177161   0.9168265  )
         9           Br  tau(   9) = (   0.7500000   0.6351370   0.7335635  )
        10           Br  tau(  10) = (   0.2500000   0.0000006   0.3665271  )

   Crystallographic axes

     site n.     atom                  positions (cryst. coord.)
         1           Rb  tau(   1) = (  0.2500000  0.6666670  0.3333330  )
         2           Rb  tau(   2) = (  0.7500000  0.3333330  0.6666670  )
         3           Sc  tau(   3) = (  0.0000000  0.0000000  0.0000000  )
         4           Sc  tau(   4) = (  0.5000000  0.0000000  0.0000000  )
         5           Br  tau(   5) = (  0.7500000  0.8334100  0.1665900  )
         6           Br  tau(   6) = (  0.2500000  0.1665900  0.8334100  )
         7           Br  tau(   7) = (  0.7500000  0.3331790  0.1665900  )
         8           Br  tau(   8) = (  0.2500000  0.6668210  0.8334100  )
         9           Br  tau(   9) = (  0.7500000  0.8334100  0.6668210  )
        10           Br  tau(  10) = (  0.2500000  0.1665900  0.3331790  )

     number of k points=     1  Methfessel-Paxton smearing, width (Ry)=  0.0010
                       cart. coord. in units 2pi/alat
        k(    1) = (   0.0000000   0.0000000   0.0000000), wk =   2.0000000

                       cryst. coord.
        k(    1) = (   0.0000000   0.0000000   0.0000000), wk =   2.0000000

     Check: negative core charge=   -0.000001

     Initial potential from superposition of free atoms

     starting charge      81.9451, renormalised to      82.0000
     Starting wfcs are   54 randomized atomic wfcs

     Self-consistent Calculation

     iteration #  1     ecut=    30.00 Ry     beta= 0.70
     Davidson diagonalization with overlap

     ethr =  1.00E-02,  avg # of iterations =  2.0

     Threshold (ethr) on eigenvalues was too large:
     Diagonalizing with lowered threshold

     Davidson diagonalization with overlap

[...]

     total energy              =    -563.75777456 Ry
     estimated scf accuracy    <       0.30608987 Ry

[...]

     total energy              =    -563.84911364 Ry
     estimated scf accuracy    <       0.00000179 Ry

     iteration #  8     ecut=    30.00 Ry     beta= 0.70
     Davidson diagonalization with overlap

     ethr =  2.19E-09,  avg # of iterations =  4.0

     End of self-consistent calculation

          k = 0.0000 0.0000 0.0000 (  3134 PWs)   bands (ev):

   -44.5417 -44.5063 -23.3402 -23.3402 -23.2905 -23.2905 -22.9647 -22.7644
   -22.7632 -22.6109 -10.6790 -10.2921 -10.2920 -10.2268 -10.2142 -10.2142
    -6.8469  -6.8469  -6.8402  -6.8259  -6.8259  -6.8206  -0.3339   0.0837
     0.5639   0.7360   0.7360   1.0464   1.0465   1.1872   1.1872   1.5727
     1.5728   1.6217   1.6217   1.8826   2.2855   2.2856   2.3784   2.6514
     5.6872   6.6339   6.6339   6.8659   7.5707   7.5707   8.0981   8.0981
     8.4659

     occupation numbers
     1.0000   1.0000   1.0000   1.0000   1.0000   1.0000   1.0000   1.0000
     1.0000   1.0000   1.0000   1.0000   1.0000   1.0000   1.0000   1.0000
     1.0000   1.0000   1.0000   1.0000   1.0000   1.0000   1.0000   1.0000
     1.0000   1.0000   1.0000   1.0000   1.0000   1.0000   1.0000   1.0000
     1.0000   1.0000   1.0000   1.0000   1.0000   1.0000   1.0000   1.0000
     1.0000  -0.0000  -0.0000  -0.0000  -0.0000  -0.0000  -0.0000  -0.0000
    -0.0000

     the Fermi energy is     6.1045 ev

!    total energy              =    -563.84911399 Ry
     estimated scf accuracy    <       0.00000007 Ry
     smearing contrib. (-TS)   =       0.00000000 Ry
     internal energy E=F+TS    =    -563.84911399 Ry

     The total energy is F=E-TS. E is the sum of the following terms:
     one-electron contribution =    -207.69692818 Ry
     hartree contribution      =     127.17758386 Ry
     xc contribution           =    -196.06743447 Ry
     ewald contribution        =    -287.26233520 Ry

     convergence has been achieved in   8 iterations

     Forces acting on atoms (cartesian axes, Ry/au):

     atom    1 type  1   force =     0.00000000    0.00000000   -0.00000543
     atom    2 type  1   force =     0.00000000    0.00000000    0.00000543
     atom    3 type  2   force =     0.00000000    0.00000000   -0.00000000
     atom    4 type  2   force =     0.00000000   -0.00000000    0.00000000
     atom    5 type  3   force =     0.00000000    0.00734421   -0.00424205
     atom    6 type  3   force =     0.00000000   -0.00734421    0.00424205
     atom    7 type  3   force =     0.00000000   -0.00734421   -0.00424206
     atom    8 type  3   force =     0.00000000    0.00734421    0.00424206
     atom    9 type  3   force =     0.00000000    0.00000000    0.00847939
     atom   10 type  3   force =     0.00000000    0.00000000   -0.00847939
     The non-local contrib.  to forces
     atom    1 type  1   force =     0.00000000    0.00000000    0.00000070
     atom    2 type  1   force =     0.00000000    0.00000000   -0.00000070
     atom    3 type  2   force =     0.00000000    0.00000000    0.00000000
     atom    4 type  2   force =     0.00000000    0.00000000    0.00000000
     atom    5 type  3   force =     0.00000000   -0.00553686    0.00319983
     atom    6 type  3   force =     0.00000000    0.00553686   -0.00319983
     atom    7 type  3   force =     0.00000000    0.00553686    0.00319983
     atom    8 type  3   force =     0.00000000   -0.00553686   -0.00319983
     atom    9 type  3   force =     0.00000000    0.00000000   -0.00639248
     atom   10 type  3   force =     0.00000000    0.00000000    0.00639248
     The ionic contribution  to forces
     atom    1 type  1   force =    -0.00000000   -0.00001079    0.00000623
     atom    2 type  1   force =     0.00000000    0.00001079   -0.00000623
     atom    3 type  2   force =    -0.00000000   -0.00000000   -0.00000000
     atom    4 type  2   force =     0.00000000   -0.00000000   -0.00000000
     atom    5 type  3   force =     0.00000000   -6.49324735    3.74887779
     atom    6 type  3   force =     0.00000000    6.49324735   -3.74887779
     atom    7 type  3   force =     0.00000000    6.49327700    3.74890964
     atom    8 type  3   force =     0.00000000   -6.49327700   -3.74890964
     atom    9 type  3   force =    -0.00000000   -0.00001194   -7.49779766
     atom   10 type  3   force =    -0.00000000    0.00001194    7.49779766
     The local contribution  to forces
     atom    1 type  1   force =    -0.00018218    0.00002670   -0.00000517
     atom    2 type  1   force =     0.00017664   -0.00003769   -0.00000053
     atom    3 type  2   force =    -0.00006241    0.00005501    0.00005057
     atom    4 type  2   force =     0.00005637    0.00005349    0.00000203
     atom    5 type  3   force =     0.00020826    6.51956141   -3.76404850
     atom    6 type  3   force =    -0.00019374   -6.51957484    3.76407862
     atom    7 type  3   force =     0.00020696   -6.51959905   -3.76411402
     atom    8 type  3   force =    -0.00020124    6.51959774    3.76411600
     atom    9 type  3   force =     0.00019676    0.00003781    7.52817367
     atom   10 type  3   force =    -0.00020832   -0.00001695   -7.52820087
     The core correction contribution to forces
     atom    1 type  1   force =     0.00000000    0.00000000    0.00000000
     atom    2 type  1   force =     0.00000000    0.00000000    0.00000000
     atom    3 type  2   force =     0.00000000    0.00000000    0.00000000
     atom    4 type  2   force =     0.00000000    0.00000000    0.00000000
     atom    5 type  3   force =     0.00000710   -0.01342969    0.00775538
     atom    6 type  3   force =    -0.00000708    0.01342886   -0.00775367
     atom    7 type  3   force =     0.00000694    0.01343079    0.00775382
     atom    8 type  3   force =    -0.00000580   -0.01342913   -0.00775390
     atom    9 type  3   force =     0.00000665    0.00000142   -0.01550803
     atom   10 type  3   force =    -0.00000685   -0.00000058    0.01550599
     The Hubbard contrib.    to forces
     atom    1 type  1   force =     0.00000000    0.00000000    0.00000000
     atom    2 type  1   force =     0.00000000    0.00000000    0.00000000
     atom    3 type  2   force =     0.00000000    0.00000000    0.00000000
     atom    4 type  2   force =     0.00000000    0.00000000    0.00000000
     atom    5 type  3   force =     0.00000000    0.00000000    0.00000000
     atom    6 type  3   force =     0.00000000    0.00000000    0.00000000
     atom    7 type  3   force =     0.00000000    0.00000000    0.00000000
     atom    8 type  3   force =     0.00000000    0.00000000    0.00000000
     atom    9 type  3   force =     0.00000000    0.00000000    0.00000000
     atom   10 type  3   force =     0.00000000    0.00000000    0.00000000
     The SCF correction term to forces
     atom    1 type  1   force =     0.00025733   -0.00002040   -0.00001226
     atom    2 type  1   force =    -0.00025242    0.00002677    0.00000782
     atom    3 type  2   force =     0.00008700   -0.00007129   -0.00006385
     atom    4 type  2   force =    -0.00007617   -0.00006893   -0.00000173
     atom    5 type  3   force =    -0.00026543   -0.00000234   -0.00003713
     atom    6 type  3   force =     0.00025212    0.00002299   -0.00000893
     atom    7 type  3   force =    -0.00026340    0.00000325    0.00001360
     atom    8 type  3   force =     0.00025172   -0.00001303   -0.00001256
     atom    9 type  3   force =    -0.00025094   -0.00003960    0.00001197
     atom   10 type  3   force =     0.00026531    0.00001078    0.00003344

     Total force =     0.020773     Total SCF correction =     0.000751

     Computing stress (Cartesian axis) and pressure

          total   stress  (Ry/bohr**3)                   (kbar)     P=       -8.14
  -0.00030465   0.00000000   0.00000000          -44.82        0.00        0.00
   0.00000000   0.00006931   0.00000000            0.00       10.20        0.00
   0.00000000   0.00000000   0.00006930            0.00        0.00       10.19

     kinetic stress (kbar)   6437.83      0.00      0.00
                                0.00   6250.65      0.00
                                0.00      0.00   6250.65

     local   stress (kbar)  -4004.11     -0.00     -0.00
                               -0.00   3917.31      0.00
                               -0.00      0.00   3917.29

     nonloc. stress (kbar)  -2412.08      0.00      0.00
                                0.00  -2299.18     -0.00
                                0.00     -0.00  -2299.18

     hartree stress (kbar)   5076.62      0.00      0.00
                                0.00   1594.13     -0.00
                                0.00     -0.00   1594.14

     exc-cor stress (kbar)   6222.66      0.00     -0.00
                                0.00   6217.93      0.00
                               -0.00      0.00   6217.93

     corecor stress (kbar)  -8011.93      0.00      0.00
                                0.00  -8013.37     -0.00
                                0.00     -0.00  -8013.37

     ewald   stress (kbar)  -3353.79      0.00      0.00
                                0.00  -7657.27      0.01
                                0.00      0.01  -7657.26

     hubbard stress (kbar)      0.00      0.00      0.00
                                0.00      0.00      0.00
                                0.00      0.00      0.00

     DFT-D   stress (kbar)      0.00      0.00      0.00
                                0.00      0.00      0.00
                                0.00      0.00      0.00

     XDM     stress (kbar)      0.00      0.00      0.00
                                0.00      0.00      0.00
                                0.00      0.00      0.00

     dft-nl  stress (kbar)      0.00      0.00      0.00
                                0.00      0.00      0.00
                                0.00      0.00      0.00

     TS-vdW  stress (kbar)      0.00      0.00      0.00
                                0.00      0.00      0.00
                                0.00      0.00      0.00

[...]

                                0.00      0.00      0.00

     Writing all to output data dir new_calculations/myprefix.save/

     General routines

     Parallel routines

   This run was terminated on:   3:36:36  21May2023

   JOB DONE.