     Program PWSCF v.7.0 starts on 21May2023 at 17:32:27

     Reading input from espresso_20751.pwi
Warning: card &CELL ignored
Warning: card / ignored

     Current dimensions of program PWSCF are:
     Max number of different atomic species (ntypx) = 10
     Max number of k-points (npk) =  40000
     Max angular momentum in pseudopotentials (lmaxx) =  4
     file Nb.pbe-spn-kjpaw_psl.0.3.0.UPF: wavefunction(s)  4S 4P renormalized

     gamma-point specific algorithms are used
     Message from routine setup:
     using ibrav=0 with symmetry is DISCOURAGED, use correct ibrav instead

     Subspace diagonalization in iterative solution of the eigenvalue problem:
     a serial algorithm will be used

     Using Slab Decomposition

     bravais-lattice index     =            0
     lattice parameter (alat)  =      11.6489  a.u.
     unit-cell volume          =    1279.9012 (a.u.)^3
     number of atoms/cell      =           12
     number of atomic types    =            3
     number of electrons       =       150.00
     number of Kohn-Sham states=           90
     kinetic-energy cutoff     =      30.0000  Ry
     charge density cutoff     =     240.0000  Ry
     scf convergence threshold =      1.0E-06
     mixing beta               =       0.7000
     number of iterations used =            8  plain     mixing
     Exchange-correlation= PBE
                           (   1   4   3   4   0   0   0)

     celldm(1)=  11.648931  celldm(2)=   0.000000  celldm(3)=   0.000000
     celldm(4)=   0.000000  celldm(5)=   0.000000  celldm(6)=   0.000000

     crystal axes: (cart. coord. in units of alat)
               a(1) = (   1.000000   0.000000   0.000000 )
               a(2) = (   0.000000   1.000000   0.000000 )
               a(3) = (   0.000000   0.000000   0.809689 )

     reciprocal axes: (cart. coord. in units 2 pi/alat)
               b(1) = (  1.000000  0.000000  0.000000 )
               b(2) = (  0.000000  1.000000  0.000000 )
               b(3) = (  0.000000  0.000000  1.235042 )

     PseudoPot. # 1 for Nb read from file:
     /home/pragov/projects/rrg-bengioy-ad/pragov/crystal_structure_design/SSSP/Nb.pbe-spn-kjpaw_psl.0.3.0.UPF
     MD5 check sum: 411d72ad547312f8017e2943ceca08cc
     Pseudo is Projector augmented-wave + core cor, Zval = 13.0
     Generated using "atomic" code by A. Dal Corso  v.5.0.99 svn rev. 10869
     Shape of augmentation charge: PSQ
     Using radial grid of 1227 points,  6 beta functions with:
                l(1) =   0
                l(2) =   0
                l(3) =   1
                l(4) =   1
                l(5) =   2
                l(6) =   2
     Q(r) pseudized with 0 coefficients

     PseudoPot. # 2 for Ni read from file:
     /home/pragov/projects/rrg-bengioy-ad/pragov/crystal_structure_design/SSSP/ni_pbe_v1.4.uspp.F.UPF
     MD5 check sum: 1ee80287db30b12d2bc1f57a5b5d6409
     Pseudo is Ultrasoft + core correction, Zval = 18.0
     Generated by new atomic code, or converted to UPF format
     Using radial grid of  865 points,  6 beta functions with:
                l(1) =   0
                l(2) =   0
                l(3) =   1
                l(4) =   1
                l(5) =   2
                l(6) =   2
     Q(r) pseudized with 10 coefficients,  rinner =    0.980   0.980   0.980
                                                       0.980   0.980

     PseudoPot. # 3 for P  read from file:
     /home/pragov/projects/rrg-bengioy-ad/pragov/crystal_structure_design/SSSP/P.pbe-n-rrkjus_psl.1.0.0.UPF
     MD5 check sum: 8b930f418f0a4573dca56cd030ffe088
     Pseudo is Ultrasoft + core correction, Zval =  5.0
     Generated using "atomic" code by A. Dal Corso  v.5.1
     Using radial grid of 1147 points,  6 beta functions with:
                l(1) =   0
                l(2) =   0
                l(3) =   1
                l(4) =   1
                l(5) =   2
                l(6) =   2
     Q(r) pseudized with 0 coefficients

     atomic species   valence    mass     pseudopotential
        Nb            13.00    92.90637     Nb( 1.00)
        Ni            18.00    58.69340     Ni( 1.00)
        P              5.00    30.97376     P ( 1.00)

     16 Sym. Ops., with inversion, found ( 8 have fractional translation)

                                    s                        frac. trans.

      isym =  1     identity

 cryst.   s( 1) = (     1          0          0      )
                  (     0          1          0      )
                  (     0          0          1      )

 cart.    s( 1) = (  1.0000000  0.0000000  0.0000000 )
                  (  0.0000000  1.0000000  0.0000000 )
                  (  0.0000000  0.0000000  1.0000000 )

      isym =  2     180 deg rotation - cart. axis [0,0,1]

[...]

 cryst.   s( 3) = (    -1          0          0      )    f =(  0.0000000 )
                  (     0          1          0      )       (  0.0000000 )
                  (     0          0         -1      )       (  0.5000000 )

 cart.    s( 3) = ( -1.0000000  0.0000000  0.0000000 )    f =(  0.0000000 )
                  (  0.0000000  1.0000000  0.0000000 )       (  0.0000000 )
                  (  0.0000000  0.0000000 -1.0000000 )       (  0.4048445 )

[...]

 cryst.   s( 6) = (     0         -1          0      )    f =(  0.0000000 )
                  (    -1          0          0      )       (  0.0000000 )
                  (     0          0         -1      )       (  0.5000000 )

 cart.    s( 6) = (  0.0000000 -1.0000000  0.0000000 )    f =(  0.0000000 )
                  ( -1.0000000  0.0000000  0.0000000 )       (  0.0000000 )
                  (  0.0000000  0.0000000 -1.0000000 )       (  0.4048445 )

[...]

      isym =  8      90 deg rotation - cart. axis [0,0,1]

[...]

      isym =  9     inversion

 cryst.   s( 9) = (    -1          0          0      )
                  (     0         -1          0      )
                  (     0          0         -1      )

 cart.    s( 9) = ( -1.0000000  0.0000000  0.0000000 )
                  (  0.0000000 -1.0000000  0.0000000 )
                  (  0.0000000  0.0000000 -1.0000000 )

      isym = 10     inv. 180 deg rotation - cart. axis [0,0,1]

 cryst.   s(10) = (     1          0          0      )
                  (     0          1          0      )
                  (     0          0         -1      )

 cart.    s(10) = (  1.0000000  0.0000000  0.0000000 )
                  (  0.0000000  1.0000000  0.0000000 )
                  (  0.0000000  0.0000000 -1.0000000 )

[...]

 cryst.   s(11) = (     1          0          0      )    f =(  0.0000000 )
                  (     0         -1          0      )       (  0.0000000 )
                  (     0          0          1      )       (  0.5000000 )

 cart.    s(11) = (  1.0000000  0.0000000  0.0000000 )    f =(  0.0000000 )
                  (  0.0000000 -1.0000000  0.0000000 )       (  0.0000000 )
                  (  0.0000000  0.0000000  1.0000000 )       (  0.4048445 )

[...]

 cryst.   s(14) = (     0          1          0      )    f =(  0.0000000 )
                  (     1          0          0      )       (  0.0000000 )
                  (     0          0          1      )       (  0.5000000 )

 cart.    s(14) = (  0.0000000  1.0000000  0.0000000 )    f =(  0.0000000 )
                  (  1.0000000  0.0000000  0.0000000 )       (  0.0000000 )
                  (  0.0000000  0.0000000  1.0000000 )       (  0.4048445 )

[...]

      isym = 16     inv.  90 deg rotation - cart. axis [0,0,1]

 cryst.   s(16) = (     0         -1          0      )
                  (     1          0          0      )
                  (     0          0         -1      )

 cart.    s(16) = (  0.0000000  1.0000000  0.0000000 )
                  ( -1.0000000  0.0000000  0.0000000 )
                  (  0.0000000  0.0000000 -1.0000000 )

   Cartesian axes

     site n.     atom                  positions (alat units)
         1           Nb  tau(   1) = (   0.6604280   0.1642680   0.4048445  )
         2           Nb  tau(   2) = (   0.3395720   0.8357320   0.4048445  )
         3           Nb  tau(   3) = (   0.8357320   0.6604280   0.4048445  )
         4           Nb  tau(   4) = (   0.1642680   0.3395720   0.4048445  )
         5           Nb  tau(   5) = (   0.3395720   0.1642680   0.0000000  )
         6           Nb  tau(   6) = (   0.6604280   0.8357320   0.0000000  )
         7           Nb  tau(   7) = (   0.1642680   0.6604280   0.0000000  )
         8           Nb  tau(   8) = (   0.8357320   0.3395720   0.0000000  )
         9           Ni  tau(   9) = (   0.0000000   0.0000000   0.2024222  )
        10           Ni  tau(  10) = (   0.0000000   0.0000000   0.6072667  )
        11           P   tau(  11) = (   0.5000000   0.5000000   0.2024222  )
        12           P   tau(  12) = (   0.5000000   0.5000000   0.6072667  )

   Crystallographic axes

     site n.     atom                  positions (cryst. coord.)
         1           Nb  tau(   1) = (  0.6604280  0.1642680  0.5000000  )
         2           Nb  tau(   2) = (  0.3395720  0.8357320  0.5000000  )
         3           Nb  tau(   3) = (  0.8357320  0.6604280  0.5000000  )
         4           Nb  tau(   4) = (  0.1642680  0.3395720  0.5000000  )
         5           Nb  tau(   5) = (  0.3395720  0.1642680  0.0000000  )
         6           Nb  tau(   6) = (  0.6604280  0.8357320  0.0000000  )
         7           Nb  tau(   7) = (  0.1642680  0.6604280  0.0000000  )
         8           Nb  tau(   8) = (  0.8357320  0.3395720  0.0000000  )
         9           Ni  tau(   9) = (  0.0000000  0.0000000  0.2500000  )
        10           Ni  tau(  10) = (  0.0000000  0.0000000  0.7500000  )
        11           P   tau(  11) = (  0.5000000  0.5000000  0.2500000  )
        12           P   tau(  12) = (  0.5000000  0.5000000  0.7500000  )

     number of k points=     1  Methfessel-Paxton smearing, width (Ry)=  0.0010
                       cart. coord. in units 2pi/alat
        k(    1) = (   0.0000000   0.0000000   0.0000000), wk =   2.0000000

                       cryst. coord.
        k(    1) = (   0.0000000   0.0000000   0.0000000), wk =   2.0000000

     Check: negative core charge=   -0.000021

     Initial potential from superposition of free atoms

     starting charge     145.9827, renormalised to     150.0000
     Starting wfcs are  114 randomized atomic wfcs
     Checking if some PAW data can be deallocated...

     Self-consistent Calculation

     iteration #  1     ecut=    30.00 Ry     beta= 0.70
     Davidson diagonalization with overlap

     ethr =  1.00E-02,  avg # of iterations =  2.0

     total energy              =   -3375.01264718 Ry
     estimated scf accuracy    <      23.06664876 Ry

[...]

     total energy              =   -3388.72178564 Ry
     estimated scf accuracy    <       0.00000281 Ry

     iteration # 18     ecut=    30.00 Ry     beta= 0.70
     Davidson diagonalization with overlap

     ethr =  1.87E-09,  avg # of iterations =  2.0

     End of self-consistent calculation

          k = 0.0000 0.0000 0.0000 (  1767 PWs)   bands (ev):

   -86.6137 -86.6077 -47.0288 -46.9054 -46.8682 -46.8682 -46.8675 -46.8675
   -37.0852 -36.9855 -36.9787 -36.9786 -36.9597 -36.9482 -36.8966 -36.8964
   -13.5866 -13.4119 -13.3914 -13.3896 -13.3135 -13.3134 -13.2355 -13.2239
   -13.2238 -13.1545 -13.1212 -13.1054 -13.1053 -13.0053 -12.9609 -12.9478
   -12.8909 -12.8143 -12.8141 -12.7841 -12.7840 -12.6775 -12.6504 -12.6503
     4.1651   8.0506  10.0539  11.7954  11.7955  11.8015  13.6073  13.6073
    13.6521  14.1592  14.1593  14.2197  14.3192  14.6762  14.8495  14.8768
    14.9346  15.1953  15.1954  15.5596  15.7970  15.7970  15.8103  15.9470
    15.9470  16.2829  16.3623  16.5114  16.8214  16.8215  17.1303  17.2715
    17.2769  17.2770  17.3852  17.8495  18.1619  18.4168  18.5864  18.6186
    18.7476  18.8845  18.8845  19.2728  19.2729  19.9387  20.2200  20.3519
    20.3520  21.0536

     occupation numbers
     1.0000   1.0000   1.0000   1.0000   1.0000   1.0000   1.0000   1.0000
     1.0000   1.0000   1.0000   1.0000   1.0000   1.0000   1.0000   1.0000
     1.0000   1.0000   1.0000   1.0000   1.0000   1.0000   1.0000   1.0000
     1.0000   1.0000   1.0000   1.0000   1.0000   1.0000   1.0000   1.0000
     1.0000   1.0000   1.0000   1.0000   1.0000   1.0000   1.0000   1.0000
     1.0000   1.0000   1.0000   1.0000   1.0000   1.0000   1.0000   1.0000
     1.0000   1.0000   1.0000   1.0000   1.0000   1.0000   1.0000   1.0000
     1.0000   1.0000   1.0000   1.0000   1.0000   1.0000   1.0000   1.0000
     1.0000   1.0000   1.0000   1.0000   1.0000   1.0000   1.0000   1.0000
     1.0000   1.0000   1.0000  -0.0000  -0.0000  -0.0000  -0.0000  -0.0000
    -0.0000  -0.0000  -0.0000  -0.0000  -0.0000  -0.0000  -0.0000  -0.0000
    -0.0000  -0.0000

     the Fermi energy is    17.6057 ev

!    total energy              =   -3388.72178519 Ry
     estimated scf accuracy    <       0.00000096 Ry
     smearing contrib. (-TS)   =       0.00000000 Ry
     internal energy E=F+TS    =   -3388.72178519 Ry

     The total energy is F=E-TS. E is the sum of the following terms:
     one-electron contribution =    -711.57903340 Ry
     hartree contribution      =     450.04339171 Ry
     xc contribution           =    -311.30800325 Ry
     ewald contribution        =   -1147.98914678 Ry
     one-center paw contrib.   =   -1667.88899347 Ry
      -> PAW hartree energy AE =     547.69770297 Ry
      -> PAW hartree energy PS =    -544.74294402 Ry
      -> PAW xc energy AE      =   -1886.88788186 Ry
      -> PAW xc energy PS      =     216.04412944 Ry
      -> total E_H with PAW    =     452.99815066 Ry
      -> total E_XC with PAW   =   -1982.15175567 Ry

     convergence has been achieved in  18 iterations

     Forces acting on atoms (cartesian axes, Ry/au):

     atom    1 type  1   force =    -0.05062460   -0.02636486    0.00000000
     atom    2 type  1   force =     0.05062460    0.02636486    0.00000000
     atom    3 type  1   force =     0.02636486   -0.05062460    0.00000000
     atom    4 type  1   force =    -0.02636486    0.05062460   -0.00000000
     atom    5 type  1   force =     0.05062460   -0.02636486   -0.00000000
     atom    6 type  1   force =    -0.05062460    0.02636486   -0.00000000
     atom    7 type  1   force =    -0.02636486   -0.05062460    0.00000000
     atom    8 type  1   force =     0.02636486    0.05062460    0.00000000
     atom    9 type  2   force =     0.00000000    0.00000000    0.00000000
     atom   10 type  2   force =     0.00000000    0.00000000    0.00000000
     atom   11 type  3   force =     0.00000000    0.00000000    0.00000000
     atom   12 type  3   force =     0.00000000    0.00000000    0.00000000
     The non-local contrib.  to forces
     atom    1 type  1   force =     0.14080868    0.07216256    0.00000000
     atom    2 type  1   force =    -0.14080868   -0.07216256    0.00000000
     atom    3 type  1   force =    -0.07216256    0.14080868   -0.00000000
     atom    4 type  1   force =     0.07216256   -0.14080868   -0.00000000
     atom    5 type  1   force =    -0.14080868    0.07216256    0.00000000
     atom    6 type  1   force =     0.14080868   -0.07216256   -0.00000000
     atom    7 type  1   force =     0.07216256    0.14080868   -0.00000000
     atom    8 type  1   force =    -0.07216256   -0.14080868    0.00000000
     atom    9 type  2   force =     0.00000000    0.00000000    0.00000000
     atom   10 type  2   force =     0.00000000    0.00000000    0.00000000
     atom   11 type  3   force =     0.00000000    0.00000000    0.00000000
     atom   12 type  3   force =     0.00000000    0.00000000    0.00000000
     The ionic contribution  to forces
     atom    1 type  1   force =   -14.63087544    9.24215205    0.00000000
     atom    2 type  1   force =    14.63087544   -9.24215205    0.00000000
     atom    3 type  1   force =    -9.24215205  -14.63087544    0.00000000
     atom    4 type  1   force =     9.24215205   14.63087544    0.00000000
     atom    5 type  1   force =    14.63087544    9.24215205   -0.00000000
     atom    6 type  1   force =   -14.63087544   -9.24215205    0.00000000
     atom    7 type  1   force =     9.24215205  -14.63087544    0.00000000
     atom    8 type  1   force =    -9.24215205   14.63087544    0.00000000
     atom    9 type  2   force =     0.00000000    0.00000000   -0.00000000
     atom   10 type  2   force =     0.00000000    0.00000000    0.00000000
     atom   11 type  3   force =    -0.00000000   -0.00000000    0.00000000
     atom   12 type  3   force =    -0.00000000   -0.00000000   -0.00000000
     The local contribution  to forces
     atom    1 type  1   force =    14.45179791   -9.33521619    0.00034204
     atom    2 type  1   force =   -14.45129004    9.33649982    0.00031673
     atom    3 type  1   force =     9.33523662   14.45144798    0.00036026
     atom    4 type  1   force =    -9.33573976  -14.45232564    0.00033450
     atom    5 type  1   force =   -14.45130039   -9.33530904   -0.00031618
     atom    6 type  1   force =    14.45197844    9.33616162   -0.00035639
     atom    7 type  1   force =    -9.33614166   14.45142840   -0.00032161
     atom    8 type  1   force =     9.33506996  -14.45220567   -0.00035275
     atom    9 type  2   force =    -0.00095479    0.00161150   -0.00017707
     atom   10 type  2   force =    -0.00099400    0.00164973    0.00016821
     atom   11 type  3   force =     0.00031527   -0.00045301   -0.00005394
     atom   12 type  3   force =     0.00032358   -0.00045201    0.00004814
     The core correction contribution to forces
     atom    1 type  1   force =    -0.01312172   -0.00405854    0.00000302
     atom    2 type  1   force =     0.01311224    0.00406589    0.00000233
     atom    3 type  1   force =     0.00406091   -0.01311054    0.00000398
     atom    4 type  1   force =    -0.00405717    0.01311704    0.00000358
     atom    5 type  1   force =     0.01311481   -0.00405934   -0.00000272
     atom    6 type  1   force =    -0.01310864    0.00405801   -0.00000355
     atom    7 type  1   force =    -0.00406765   -0.01310744   -0.00000324
     atom    8 type  1   force =     0.00405357    0.01311733   -0.00000321
     atom    9 type  2   force =    -0.00000098    0.00000244   -0.00000002
     atom   10 type  2   force =    -0.00000078    0.00000231   -0.00000015
     atom   11 type  3   force =    -0.00000009   -0.00000029    0.00000043
     atom   12 type  3   force =     0.00000002   -0.00000035   -0.00000070
     The Hubbard contrib.    to forces
     atom    1 type  1   force =     0.00000000    0.00000000    0.00000000
     atom    2 type  1   force =     0.00000000    0.00000000    0.00000000
     atom    3 type  1   force =     0.00000000    0.00000000    0.00000000
     atom    4 type  1   force =     0.00000000    0.00000000    0.00000000
     atom    5 type  1   force =     0.00000000    0.00000000    0.00000000
     atom    6 type  1   force =     0.00000000    0.00000000    0.00000000
     atom    7 type  1   force =     0.00000000    0.00000000    0.00000000
     atom    8 type  1   force =     0.00000000    0.00000000    0.00000000
     atom    9 type  2   force =     0.00000000    0.00000000    0.00000000
     atom   10 type  2   force =     0.00000000    0.00000000    0.00000000
     atom   11 type  3   force =     0.00000000    0.00000000    0.00000000
     atom   12 type  3   force =     0.00000000    0.00000000    0.00000000
     The SCF correction term to forces
     atom    1 type  1   force =     0.00067792   -0.00139335   -0.00030004
     atom    2 type  1   force =    -0.00126694    0.00019267   -0.00028096
     atom    3 type  1   force =     0.00137741    0.00117712   -0.00030935
     atom    4 type  1   force =    -0.00083311   -0.00018277   -0.00028277
     atom    5 type  1   force =    -0.00123792   -0.00131844    0.00027743
     atom    6 type  1   force =     0.00061287    0.00043028    0.00030913
     atom    7 type  1   force =    -0.00057504    0.00121009    0.00027694
     atom    8 type  1   force =     0.00145970   -0.00030700    0.00030594
     atom    9 type  2   force =     0.00085560   -0.00151300    0.00018403
     atom   10 type  2   force =     0.00088871   -0.00154670   -0.00017073
     atom   11 type  3   force =    -0.00030540    0.00043570    0.00005413
     atom   12 type  3   force =    -0.00031087    0.00043377   -0.00005281

     Total force =     0.161442     Total SCF correction =     0.004841

     Computing stress (Cartesian axis) and pressure

          total   stress  (Ry/bohr**3)                   (kbar)     P=     -302.38
  -0.00145488   0.00000000   0.00000000         -214.02        0.00        0.00
   0.00000000  -0.00145488   0.00000000            0.00     -214.02        0.00
   0.00000000   0.00000000  -0.00325677            0.00        0.00     -479.09

     kinetic stress (kbar)  34820.06      0.00      0.00
                                0.00  34820.06      0.00
                                0.00      0.00  34309.94

     local   stress (kbar)  -5232.49      0.02     -0.00
                                0.02  -5232.19     -0.00
                               -0.00     -0.00 -29840.82

     nonloc. stress (kbar)  13650.29      0.00      0.00
                                0.00  13650.29      0.00
                                0.00      0.00  13538.20

     hartree stress (kbar)  13114.87     -0.03      0.00
                               -0.03  13114.55      0.00
                                0.00      0.00  25496.18

     exc-cor stress (kbar)   6239.82      0.00     -0.00
                                0.00   6239.82      0.00
                               -0.00      0.00   6235.42

     corecor stress (kbar) -14633.16     -0.00     -0.00
                               -0.00 -14633.16      0.00
                               -0.00      0.00 -14621.04

     ewald   stress (kbar) -48173.41      0.00      0.00
                                0.00 -48173.41      0.00
                                0.00      0.00 -35596.98

     hubbard stress (kbar)      0.00      0.00      0.00
                                0.00      0.00      0.00
                                0.00      0.00      0.00

     DFT-D   stress (kbar)      0.00      0.00      0.00
                                0.00      0.00      0.00
                                0.00      0.00      0.00

     XDM     stress (kbar)      0.00      0.00      0.00
                                0.00      0.00      0.00
                                0.00      0.00      0.00

     dft-nl  stress (kbar)      0.00      0.00      0.00
                                0.00      0.00      0.00
                                0.00      0.00      0.00

     TS-vdW  stress (kbar)      0.00      0.00      0.00
                                0.00      0.00      0.00
                                0.00      0.00      0.00

[...]

                                0.00      0.00      0.00

     Writing all to output data dir new_calculations/myprefix.save/

     General routines

     Parallel routines

     PAW routines

   This run was terminated on:  17:33:31  21May2023

   JOB DONE.