     Program PWSCF v.7.0 starts on 20May2023 at 16: 5:13

     Reading input from espresso_13526.pwi
Warning: card &CELL ignored
Warning: card / ignored

     Current dimensions of program PWSCF are:
     Max number of different atomic species (ntypx) = 10
     Max number of k-points (npk) =  40000
     Max angular momentum in pseudopotentials (lmaxx) =  4
     file Cd.pbe-dn-rrkjus_psl.0.3.1.UPF: wavefunction(s)  4D renormalized

     gamma-point specific algorithms are used
     Message from routine setup:
     using ibrav=0 with symmetry is DISCOURAGED, use correct ibrav instead

     Subspace diagonalization in iterative solution of the eigenvalue problem:
     a serial algorithm will be used

     Using Slab Decomposition

     bravais-lattice index     =            0
     lattice parameter (alat)  =      11.7511  a.u.
     unit-cell volume          =    1082.3567 (a.u.)^3
     number of atoms/cell      =            6
     number of atomic types    =            2
     number of electrons       =        68.00
     number of Kohn-Sham states=           41
     kinetic-energy cutoff     =      30.0000  Ry
     charge density cutoff     =     240.0000  Ry
     scf convergence threshold =      1.0E-06
     mixing beta               =       0.7000
     number of iterations used =            8  plain     mixing
     Exchange-correlation= PBE
                           (   1   4   3   4   0   0   0)

     celldm(1)=  11.751121  celldm(2)=   0.000000  celldm(3)=   0.000000
     celldm(4)=   0.000000  celldm(5)=   0.000000  celldm(6)=   0.000000

     crystal axes: (cart. coord. in units of alat)
               a(1) = (   1.000000   0.000000   0.000000 )
               a(2) = (  -0.022991   0.999736   0.000000 )
               a(3) = (  -0.304272  -0.679912   0.667187 )

     reciprocal axes: (cart. coord. in units 2 pi/alat)
               b(1) = (  1.000000  0.022997  0.479488 )
               b(2) = (  0.000000  1.000264  1.019343 )
               b(3) = (  0.000000  0.000000  1.498831 )

     PseudoPot. # 1 for Ca read from file:
     /home/pragov/projects/rrg-bengioy-ad/pragov/crystal_structure_design/SSSP/Ca_pbe_v1.uspp.F.UPF
     MD5 check sum: 403a4c14b9e4d4dfdc3024c9a3812218
     Pseudo is Ultrasoft + core correction, Zval = 10.0
     Generated by new atomic code, or converted to UPF format
     Using radial grid of  845 points,  6 beta functions with:
                l(1) =   0
                l(2) =   0
                l(3) =   1
                l(4) =   1
                l(5) =   2
                l(6) =   2
     Q(r) pseudized with  8 coefficients,  rinner =    1.500   1.500   1.500
                                                       1.500   1.500

     PseudoPot. # 2 for Cd read from file:
     /home/pragov/projects/rrg-bengioy-ad/pragov/crystal_structure_design/SSSP/Cd.pbe-dn-rrkjus_psl.0.3.1.UPF
     MD5 check sum: 558e9f355611b531a870a69ef6ace9e2
     Pseudo is Ultrasoft + core correction, Zval = 12.0
     Generated using "atomic" code by A. Dal Corso  v.5.0.99 svn rev. 10869
     Using radial grid of 1239 points,  6 beta functions with:
                l(1) =   0
                l(2) =   0
                l(3) =   1
                l(4) =   1
                l(5) =   2
                l(6) =   2
     Q(r) pseudized with 0 coefficients

     atomic species   valence    mass     pseudopotential
        Ca            10.00    40.07800     Ca( 1.00)
        Cd            12.00   112.41400     Cd( 1.00)

      2 Sym. Ops., with inversion, found

                                    s                        frac. trans.

      isym =  1     identity

 cryst.   s( 1) = (     1          0          0      )
                  (     0          1          0      )
                  (     0          0          1      )

 cart.    s( 1) = (  1.0000000  0.0000000  0.0000000 )
                  (  0.0000000  1.0000000 -0.0000000 )
                  (  0.0000000  0.0000000  1.0000000 )

      isym =  2     inversion

 cryst.   s( 2) = (    -1          0          0      )
                  (     0         -1          0      )
                  (     0          0         -1      )

 cart.    s( 2) = ( -1.0000000 -0.0000000 -0.0000000 )
                  (  0.0000000 -1.0000000  0.0000000 )
                  (  0.0000000  0.0000000 -1.0000000 )

   Cartesian axes

     site n.     atom                  positions (alat units)
         1           Ca  tau(   1) = (   0.6871471   0.3551751   0.1667966  )
         2           Ca  tau(   2) = (  -0.0144102  -0.0353515   0.5003899  )
         3           Cd  tau(   3) = (   0.4890723  -0.1539239   0.3136811  )
         4           Cd  tau(   4) = (   0.1836646   0.4737475   0.3535055  )
         5           Cd  tau(   5) = (   0.4899994   0.1743754   0.6472744  )
         6           Cd  tau(   6) = (   0.1827375   0.1454482   0.0199122  )

   Crystallographic axes

     site n.     atom                  positions (cryst. coord.)
         1           Ca  tau(   1) = (  0.7752920  0.5252920  0.2500000  )
         2           Ca  tau(   2) = (  0.2247080  0.4747080  0.7500000  )
         3           Cd  tau(   3) = (  0.6359390  0.1657840  0.4701550  )
         4           Cd  tau(   4) = (  0.3640610  0.8342160  0.5298450  )
         5           Cd  tau(   5) = (  0.8043700  0.8342160  0.9701550  )
         6           Cd  tau(   6) = (  0.1956300  0.1657840  0.0298450  )

     number of k points=     1  Methfessel-Paxton smearing, width (Ry)=  0.0010
                       cart. coord. in units 2pi/alat
        k(    1) = (   0.0000000   0.0000000   0.0000000), wk =   2.0000000

                       cryst. coord.
        k(    1) = (   0.0000000   0.0000000   0.0000000), wk =   2.0000000

     Check: negative core charge=   -0.000002

     Initial potential from superposition of free atoms

     starting charge      67.9695, renormalised to      68.0000
     Starting wfcs are   56 randomized atomic wfcs

     Self-consistent Calculation

     iteration #  1     ecut=    30.00 Ry     beta= 0.70
     Davidson diagonalization with overlap

     ethr =  1.00E-02,  avg # of iterations =  2.0

     Threshold (ethr) on eigenvalues was too large:
     Diagonalizing with lowered threshold

     Davidson diagonalization with overlap

[...]

     total energy              =    -638.38139698 Ry
     estimated scf accuracy    <       0.15289368 Ry

[...]

     total energy              =    -638.44619750 Ry
     estimated scf accuracy    <       0.00000528 Ry

     iteration # 15     ecut=    30.00 Ry     beta= 0.70
     Davidson diagonalization with overlap

     ethr =  7.76E-09,  avg # of iterations =  1.0

     End of self-consistent calculation

          k = 0.0000 0.0000 0.0000 (  1512 PWs)   bands (ev):

   -32.7293 -32.7186 -13.8607 -13.8605 -13.8565 -13.7239 -13.6305 -13.6179
    -0.7360  -0.7012  -0.6155  -0.5199  -0.4547  -0.4515  -0.3959  -0.3798
    -0.2255  -0.2180  -0.1987  -0.1857  -0.1171  -0.0214   0.0813   0.0893
     0.1431   0.2092   0.3098   0.3330   1.5101   4.9681   6.4995   7.7098
     8.3250   8.4752   8.4897   8.7514   9.8032   9.9242  11.0386  11.5576
    11.6479

     occupation numbers
     1.0000   1.0000   1.0000   1.0000   1.0000   1.0000   1.0000   1.0000
     1.0000   1.0000   1.0000   1.0000   1.0000   1.0000   1.0000   1.0000
     1.0000   1.0000   1.0000   1.0000   1.0000   1.0000   1.0000   1.0000
     1.0000   1.0000   1.0000   1.0000   1.0000   1.0000   1.0000   1.0000
     1.0000   0.8871   0.1129  -0.0000  -0.0000  -0.0000  -0.0000  -0.0000
    -0.0000

     the Fermi energy is     8.4825 ev

!    total energy              =    -638.44619760 Ry
     estimated scf accuracy    <       0.00000016 Ry
     smearing contrib. (-TS)   =      -0.00018467 Ry
     internal energy E=F+TS    =    -638.44601293 Ry

     The total energy is F=E-TS. E is the sum of the following terms:
     one-electron contribution =    -209.01713499 Ry
     hartree contribution      =     156.27611958 Ry
     xc contribution           =    -195.18619619 Ry
     ewald contribution        =    -390.51880133 Ry

     convergence has been achieved in  15 iterations

     Forces acting on atoms (cartesian axes, Ry/au):

     atom    1 type  1   force =    -0.00990190   -0.01010997   -0.00000657
     atom    2 type  1   force =     0.00990190    0.01010997    0.00000657
     atom    3 type  2   force =    -0.03035843   -0.01134338   -0.00945379
     atom    4 type  2   force =     0.03035843    0.01134338    0.00945379
     atom    5 type  2   force =     0.01063841    0.03053738   -0.00938101
     atom    6 type  2   force =    -0.01063841   -0.03053738    0.00938101
     The non-local contrib.  to forces
     atom    1 type  1   force =    -0.02711532   -0.02774938    0.00000654
     atom    2 type  1   force =     0.02711532    0.02774938   -0.00000654
     atom    3 type  2   force =     0.23313559    0.08318340    0.07449102
     atom    4 type  2   force =    -0.23313559   -0.08318340   -0.07449102
     atom    5 type  2   force =    -0.07779184   -0.23502900    0.07454911
     atom    6 type  2   force =     0.07779184    0.23502900   -0.07454911
     The ionic contribution  to forces
     atom    1 type  1   force =     0.91355041    0.93476067    0.00001942
     atom    2 type  1   force =    -0.91355041   -0.93476067   -0.00001942
     atom    3 type  2   force =     0.94840050   -1.20638652    1.04352723
     atom    4 type  2   force =    -0.94840050    1.20638652   -1.04352723
     atom    5 type  2   force =     1.22795662   -0.92036996    1.04348762
     atom    6 type  2   force =    -1.22795662    0.92036996   -1.04348762
     The local contribution  to forces
     atom    1 type  1   force =    -0.89752846   -0.91828865    0.00005420
     atom    2 type  1   force =     0.89748247    0.91831108    0.00011672
     atom    3 type  2   force =    -1.20588245    1.11292316   -1.12524040
     atom    4 type  2   force =     1.20583592   -1.11297837    1.12484299
     atom    5 type  2   force =    -1.14035107    1.17979570   -1.12508140
     atom    6 type  2   force =     1.14059227   -1.18002523    1.12491263
     The core correction contribution to forces
     atom    1 type  1   force =     0.00127904    0.00130988    0.00000076
     atom    2 type  1   force =    -0.00127917   -0.00131073    0.00000122
     atom    3 type  2   force =    -0.00524448   -0.00095787   -0.00212109
     atom    4 type  2   force =     0.00524750    0.00095376    0.00211067
     atom    5 type  2   force =     0.00083720    0.00526445   -0.00211968
     atom    6 type  2   force =    -0.00083281   -0.00527082    0.00211212
     The Hubbard contrib.    to forces
     atom    1 type  1   force =     0.00000000    0.00000000    0.00000000
     atom    2 type  1   force =     0.00000000    0.00000000    0.00000000
     atom    3 type  2   force =     0.00000000    0.00000000    0.00000000
     atom    4 type  2   force =     0.00000000    0.00000000    0.00000000
     atom    5 type  2   force =     0.00000000    0.00000000    0.00000000
     atom    6 type  2   force =     0.00000000    0.00000000    0.00000000
     The SCF correction term to forces
     atom    1 type  1   force =    -0.00008638   -0.00014352   -0.00007691
     atom    2 type  1   force =     0.00013486    0.00011989   -0.00007482
     atom    3 type  2   force =    -0.00076488   -0.00012912   -0.00014497
     atom    4 type  2   force =     0.00081382    0.00014130    0.00048395
     atom    5 type  2   force =    -0.00001449    0.00084678   -0.00023180
     atom    6 type  2   force =    -0.00023508   -0.00066972    0.00037784

     Total force =     0.070337     Total SCF correction =     0.001740

     Computing stress (Cartesian axis) and pressure

          total   stress  (Ry/bohr**3)                   (kbar)     P=     -156.27
  -0.00099463  -0.00034256   0.00048334         -146.32      -50.39       71.10
  -0.00034256  -0.00101043  -0.00047233          -50.39     -148.64      -69.48
   0.00048334  -0.00047233  -0.00118174           71.10      -69.48     -173.84

     kinetic stress (kbar)  18069.09   -155.90     93.78
                             -155.90  18061.93    -91.66
                               93.78    -91.66  18120.19

     local   stress (kbar)   -417.82  -1877.59   2252.17
                            -1877.59   -504.21  -2200.92
                             2252.17  -2200.92  -1014.59

     nonloc. stress (kbar)  -2414.28    -16.85     27.48
                              -16.85  -2415.07    -26.85
                               27.48    -26.85  -2427.48

     hartree stress (kbar)   6984.02    695.50   -866.33
                              695.50   7016.03    846.61
                             -866.33    846.61   7239.72

     exc-cor stress (kbar)   9884.92     -1.14     -1.44
                               -1.14   9884.87      1.41
                               -1.44      1.41   9887.60

     corecor stress (kbar) -14449.96      2.70     -4.46
                                2.70 -14449.84      4.36
                               -4.46      4.36 -14447.78

     ewald   stress (kbar) -17802.29   1302.89  -1430.09
                             1302.89 -17742.35   1397.56
                            -1430.09   1397.56 -17531.49

     hubbard stress (kbar)      0.00      0.00      0.00
                                0.00      0.00      0.00
                                0.00      0.00      0.00

     DFT-D   stress (kbar)      0.00      0.00      0.00
                                0.00      0.00      0.00
                                0.00      0.00      0.00

     XDM     stress (kbar)      0.00      0.00      0.00
                                0.00      0.00      0.00
                                0.00      0.00      0.00

     dft-nl  stress (kbar)      0.00      0.00      0.00
                                0.00      0.00      0.00
                                0.00      0.00      0.00

     TS-vdW  stress (kbar)      0.00      0.00      0.00
                                0.00      0.00      0.00
                                0.00      0.00      0.00

[...]

                                0.00      0.00      0.00

     Writing all to output data dir new_calculations/myprefix.save/

     General routines

     Parallel routines

   This run was terminated on:  16: 6: 7  20May2023

   JOB DONE.