     Program PWSCF v.7.0 starts on 20May2023 at  3:59:25

     Reading input from espresso_15038.pwi
Warning: card &CELL ignored
Warning: card / ignored

     Current dimensions of program PWSCF are:
     Max number of different atomic species (ntypx) = 10
     Max number of k-points (npk) =  40000
     Max angular momentum in pseudopotentials (lmaxx) =  4

     gamma-point specific algorithms are used
     Message from routine setup:
     using ibrav=0 with symmetry is DISCOURAGED, use correct ibrav instead

     Subspace diagonalization in iterative solution of the eigenvalue problem:
     a serial algorithm will be used

     Using Slab Decomposition

     bravais-lattice index     =            0
     lattice parameter (alat)  =      10.8785  a.u.
     unit-cell volume          =    1292.3802 (a.u.)^3
     number of atoms/cell      =           12
     number of atomic types    =            3
     number of electrons       =       114.00
     number of Kohn-Sham states=           68
     kinetic-energy cutoff     =      30.0000  Ry
     charge density cutoff     =     240.0000  Ry
     scf convergence threshold =      1.0E-06
     mixing beta               =       0.7000
     number of iterations used =            8  plain     mixing
     Exchange-correlation=  SLA  PW   PBX  PBC
                           (   1   4   3   4   0   0   0)

     celldm(1)=  10.878520  celldm(2)=   0.000000  celldm(3)=   0.000000
     celldm(4)=   0.000000  celldm(5)=   0.000000  celldm(6)=   0.000000

     crystal axes: (cart. coord. in units of alat)
               a(1) = (   1.000000   0.000000   0.000000 )
               a(2) = (   0.000000   0.997614   0.000000 )
               a(3) = (   0.000000   0.002563   1.006278 )

     reciprocal axes: (cart. coord. in units 2 pi/alat)
               b(1) = (  1.000000  0.000000  0.000000 )
               b(2) = (  0.000000  1.002391 -0.002553 )
               b(3) = (  0.000000  0.000000  0.993761 )

     PseudoPot. # 1 for Cr read from file:
     /home/pragov/projects/rrg-bengioy-ad/pragov/crystal_structure_design/SSSP/cr_pbe_v1.5.uspp.F.UPF
     MD5 check sum: 0d52af634a40206e4dee301ad30da4bf
     Pseudo is Ultrasoft + core correction, Zval = 14.0
     Generated by new atomic code, or converted to UPF format
     Using radial grid of  857 points,  6 beta functions with:
                l(1) =   0
                l(2) =   0
                l(3) =   1
                l(4) =   1
                l(5) =   2
                l(6) =   2
     Q(r) pseudized with  8 coefficients,  rinner =    0.950   0.950   0.950
                                                       0.950   0.950

     PseudoPot. # 2 for Cu read from file:
     /home/pragov/projects/rrg-bengioy-ad/pragov/crystal_structure_design/SSSP/Cu_pbe_v1.2.uspp.F.UPF
     MD5 check sum: 6e991ff952a84172a2a52a1c1e996048
     Pseudo is Ultrasoft + core correction, Zval = 19.0
     Generated by new atomic code, or converted to UPF format
     Using radial grid of  867 points,  6 beta functions with:
                l(1) =   0
                l(2) =   0
                l(3) =   1
                l(4) =   1
                l(5) =   2
                l(6) =   2
     Q(r) pseudized with  8 coefficients,  rinner =    1.150   1.150   1.150
                                                       1.150   1.150

     PseudoPot. # 3 for S  read from file:
     /home/pragov/projects/rrg-bengioy-ad/pragov/crystal_structure_design/SSSP/s_pbe_v1.4.uspp.F.UPF
     MD5 check sum: 88d86576ff6df21479756cfb9bdac1df
     Pseudo is Ultrasoft + core correction, Zval =  6.0
     Generated by new atomic code, or converted to UPF format
     Using radial grid of  907 points,  6 beta functions with:
                l(1) =   0
                l(2) =   0
                l(3) =   1
                l(4) =   1
                l(5) =   2
                l(6) =   2
     Q(r) pseudized with  8 coefficients,  rinner =    1.300   1.300   1.300
                                                       1.300   1.300

     atomic species   valence    mass     pseudopotential
        Cr            14.00    51.99610     Cr( 1.00)
        Cu            19.00    63.54600     Cu( 1.00)
        S              6.00    32.06000     S ( 1.00)

      4 Sym. Ops., with inversion, found ( 2 have fractional translation)

                                    s                        frac. trans.

      isym =  1     identity

 cryst.   s( 1) = (     1          0          0      )
                  (     0          1          0      )
                  (     0          0          1      )

 cart.    s( 1) = (  1.0000000  0.0000000  0.0000000 )
                  (  0.0000000  1.0000000  0.0000000 )
                  (  0.0000000  0.0000000  1.0000000 )

      isym =  2     180 deg rotation - cart. axis [1,0,0]

 cryst.   s( 2) = (     1          0          0      )    f =( -0.5000000 )
                  (     0         -1          0      )       (  0.5000000 )
                  (     0          0         -1      )       ( -0.0000000 )

 cart.    s( 2) = (  1.0000000  0.0000000  0.0000000 )    f =( -0.5000000 )
                  (  0.0000000 -1.0000000 -0.0000000 )       (  0.4988072 )
                  (  0.0000000  0.0000000 -1.0000000 )       ( -0.0000000 )

      isym =  3     inversion

 cryst.   s( 3) = (    -1          0          0      )
                  (     0         -1          0      )
                  (     0          0         -1      )

 cart.    s( 3) = ( -1.0000000  0.0000000  0.0000000 )
                  (  0.0000000 -1.0000000 -0.0000000 )
                  (  0.0000000  0.0000000 -1.0000000 )

      isym =  4     inv. 180 deg rotation - cart. axis [1,0,0]

 cryst.   s( 4) = (    -1          0          0      )    f =(  0.5000000 )
                  (     0          1          0      )       (  0.5000000 )
                  (     0          0          1      )       (  0.0000000 )

 cart.    s( 4) = ( -1.0000000  0.0000000  0.0000000 )    f =(  0.5000000 )
                  (  0.0000000  1.0000000  0.0000000 )       (  0.4988072 )
                  (  0.0000000  0.0000000  1.0000000 )       (  0.0000000 )

   Cartesian axes

     site n.     atom                  positions (alat units)
         1           Cr  tau(   1) = (   0.0000000   0.5000886   0.5031391  )
         2           Cr  tau(   2) = (   0.5000000   0.0012814   0.5031391  )
         3           Cu  tau(   3) = (   0.0000000   0.0000000   0.0000000  )
         4           Cu  tau(   4) = (   0.5000000   0.4988072   0.0000000  )
         5           S   tau(   5) = (   0.5988470   0.1021612   0.1114252  )
         6           S   tau(   6) = (   0.0988470   0.3992088   0.8948531  )
         7           S   tau(   7) = (   0.3847640   0.6142441   0.4046084  )
         8           S   tau(   8) = (   0.8847640   0.8847403   0.6016699  )
         9           S   tau(   9) = (   0.4011530   0.8980160   0.8948531  )
        10           S   tau(  10) = (   0.9011530   0.6009684   0.1114252  )
        11           S   tau(  11) = (   0.6152360   0.3859331   0.6016699  )
        12           S   tau(  12) = (   0.1152360   0.1154369   0.4046084  )

   Crystallographic axes

     site n.     atom                  positions (cryst. coord.)
         1           Cr  tau(   1) = (  0.0000000  0.5000000  0.5000000  )
         2           Cr  tau(   2) = (  0.5000000  0.0000000  0.5000000  )
         3           Cu  tau(   3) = (  0.0000000  0.0000000  0.0000000  )
         4           Cu  tau(   4) = (  0.5000000  0.5000000  0.0000000  )
         5           S   tau(   5) = (  0.5988470  0.1021210  0.1107300  )
         6           S   tau(   6) = (  0.0988470  0.3978790  0.8892700  )
         7           S   tau(   7) = (  0.3847640  0.6146800  0.4020840  )
         8           S   tau(   8) = (  0.8847640  0.8853200  0.5979160  )
         9           S   tau(   9) = (  0.4011530  0.8978790  0.8892700  )
        10           S   tau(  10) = (  0.9011530  0.6021210  0.1107300  )
        11           S   tau(  11) = (  0.6152360  0.3853200  0.5979160  )
        12           S   tau(  12) = (  0.1152360  0.1146800  0.4020840  )

     number of k points=     1  Methfessel-Paxton smearing, width (Ry)=  0.0010
                       cart. coord. in units 2pi/alat
        k(    1) = (   0.0000000   0.0000000   0.0000000), wk =   2.0000000

                       cryst. coord.
        k(    1) = (   0.0000000   0.0000000   0.0000000), wk =   2.0000000

     Check: negative core charge=   -0.000005

     Initial potential from superposition of free atoms

     starting charge     109.9997, renormalised to     114.0000

     negative rho (up, down):  5.446E-03 0.000E+00
     Starting wfcs are   78 randomized atomic wfcs

     Self-consistent Calculation

     iteration #  1     ecut=    30.00 Ry     beta= 0.70
     Davidson diagonalization with overlap

     ethr =  1.00E-02,  avg # of iterations =  3.0

     negative rho (up, down):  4.387E-03 0.000E+00

     total energy              =   -1345.17007046 Ry
     estimated scf accuracy    <       8.52354490 Ry

[...]

     total energy              =   -1351.84166717 Ry
     estimated scf accuracy    <       0.00001301 Ry

     iteration # 22     ecut=    30.00 Ry     beta= 0.70
     Davidson diagonalization with overlap

     ethr =  5.20E-09,  avg # of iterations =  1.0

[...]

     End of self-consistent calculation

          k = 0.0000 0.0000 0.0000 (  1828 PWs)   bands (ev):

  -102.2149-102.2146 -60.6277 -60.6275 -59.6430 -59.6429 -59.6022 -59.6007
   -59.5606 -59.5603 -32.3708 -32.3707 -31.8649 -31.8637 -31.7488 -31.7452
    -6.3529  -5.3432  -4.9174  -4.5515  -2.0549  -2.0502  -2.0437  -1.2259
     3.8383   3.8450   3.9157   4.2672   4.4104   4.5375   4.6778   5.2007
     5.2567   5.3133   5.4437   5.4943   6.2622   6.3400   6.4855   6.6556
     6.7430   6.8523   6.9172   7.0106   7.5918   7.7243   7.7705   7.8585
     7.9237   7.9302   8.8138   8.9588   9.1944   9.5808  10.4847  10.6840
    11.0138  11.0213  11.3530  11.4519  11.6897  12.3787  12.6148  12.8049
    12.9686  13.1579  13.2423  13.9537

     occupation numbers
     1.0000   1.0000   1.0000   1.0000   1.0000   1.0000   1.0000   1.0000
     1.0000   1.0000   1.0000   1.0000   1.0000   1.0000   1.0000   1.0000
     1.0000   1.0000   1.0000   1.0000   1.0000   1.0000   1.0000   1.0000
     1.0000   1.0000   1.0000   1.0000   1.0000   1.0000   1.0000   1.0000
     1.0000   1.0000   1.0000   1.0000   1.0000   1.0000   1.0000   1.0000
     1.0000   1.0000   1.0000   1.0000   1.0000   1.0000   1.0000   1.0000
     1.0000   1.0000   1.0000   1.0000   1.0000   1.0000   1.0000   1.0000
     0.7220   0.2780  -0.0000  -0.0000  -0.0000  -0.0000  -0.0000  -0.0000
    -0.0000  -0.0000  -0.0000  -0.0000

     the Fermi energy is    11.0176 ev

!    total energy              =   -1351.84166637 Ry
     estimated scf accuracy    <       0.00000096 Ry
     smearing contrib. (-TS)   =      -0.00044532 Ry
     internal energy E=F+TS    =   -1351.84122105 Ry

     The total energy is F=E-TS. E is the sum of the following terms:
     one-electron contribution =    -948.64843375 Ry
     hartree contribution      =     525.94730157 Ry
     xc contribution           =    -189.87637499 Ry
     ewald contribution        =    -739.26371388 Ry

     convergence has been achieved in  22 iterations

     negative rho (up, down):  5.209E-03 0.000E+00

     Forces acting on atoms (cartesian axes, Ry/au):

     atom    1 type  1   force =     0.00000000   -0.00000000   -0.00000000
     atom    2 type  1   force =     0.00000000    0.00000000    0.00000000
     atom    3 type  2   force =     0.00000000    0.00000000    0.00000000
     atom    4 type  2   force =     0.00000000    0.00000000   -0.00000000
     atom    5 type  3   force =    -0.02887766   -0.04558216    0.02026616
     atom    6 type  3   force =    -0.02887766    0.04558216   -0.02026616
     atom    7 type  3   force =     0.03889774   -0.02884457    0.08599441
     atom    8 type  3   force =     0.03889774    0.02884457   -0.08599441
     atom    9 type  3   force =     0.02887766    0.04558216   -0.02026616
     atom   10 type  3   force =     0.02887766   -0.04558216    0.02026616
     atom   11 type  3   force =    -0.03889774    0.02884457   -0.08599441
     atom   12 type  3   force =    -0.03889774   -0.02884457    0.08599441
     The non-local contrib.  to forces
     atom    1 type  1   force =     0.00000000    0.00000000    0.00000000
     atom    2 type  1   force =     0.00000000    0.00000000    0.00000000
     atom    3 type  2   force =     0.00000000    0.00000000   -0.00000000
     atom    4 type  2   force =     0.00000000   -0.00000000    0.00000000
     atom    5 type  3   force =    -0.12992095   -0.12820598   -0.12419860
     atom    6 type  3   force =    -0.12992095    0.12820598    0.12419860
     atom    7 type  3   force =     0.09028069   -0.10169509    0.06086258
     atom    8 type  3   force =     0.09028069    0.10169509   -0.06086258
     atom    9 type  3   force =     0.12992095    0.12820598    0.12419860
     atom   10 type  3   force =     0.12992095   -0.12820598   -0.12419860
     atom   11 type  3   force =    -0.09028069    0.10169509   -0.06086258
     atom   12 type  3   force =    -0.09028069   -0.10169509    0.06086258
     The ionic contribution  to forces
     atom    1 type  1   force =     0.00000000    0.00000000   -0.00000000
     atom    2 type  1   force =    -0.00000000    0.00000000   -0.00000000
     atom    3 type  2   force =     0.00000000    0.00000000    0.00000000
     atom    4 type  2   force =    -0.00000000    0.00000000    0.00000000
     atom    5 type  3   force =    -0.55789664   -0.79722768    1.11586607
     atom    6 type  3   force =    -0.55789664    0.79722768   -1.11586606
     atom    7 type  3   force =     0.09856062   -0.06355148    1.22563910
     atom    8 type  3   force =     0.09856062    0.06355148   -1.22563910
     atom    9 type  3   force =     0.55789664    0.79722768   -1.11586606
     atom   10 type  3   force =     0.55789664   -0.79722768    1.11586607
     atom   11 type  3   force =    -0.09856062    0.06355148   -1.22563910
     atom   12 type  3   force =    -0.09856062   -0.06355148    1.22563910
     The local contribution  to forces
     atom    1 type  1   force =     0.00009958   -0.00007551   -0.00017386
     atom    2 type  1   force =     0.00010825    0.00006940    0.00017846
     atom    3 type  2   force =    -0.00000865    0.00005103    0.00000449
     atom    4 type  2   force =    -0.00000248   -0.00003991    0.00000774
     atom    5 type  3   force =     0.65239960    0.87337685   -0.97845589
     atom    6 type  3   force =     0.65241313   -0.87341809    0.97851444
     atom    7 type  3   force =    -0.14499173    0.13075577   -1.19809563
     atom    8 type  3   force =    -0.14509173   -0.13065044    1.19810686
     atom    9 type  3   force =    -0.65239237   -0.87336299    0.97838623
     atom   10 type  3   force =    -0.65241334    0.87340092   -0.97844690
     atom   11 type  3   force =     0.14490397   -0.13087859    1.19809882
     atom   12 type  3   force =     0.14499747    0.13077740   -1.19810989
     The core correction contribution to forces
     atom    1 type  1   force =     0.00000102    0.00000003    0.00000005
     atom    2 type  1   force =     0.00000078    0.00000002    0.00000044
     atom    3 type  2   force =    -0.00000003    0.00000003    0.00000005
     atom    4 type  2   force =     0.00000002   -0.00000007    0.00000002
     atom    5 type  3   force =     0.00658742    0.00653157    0.00674232
     atom    6 type  3   force =     0.00658715   -0.00653176   -0.00674244
     atom    7 type  3   force =    -0.00479133    0.00546871   -0.00265950
     atom    8 type  3   force =    -0.00479116   -0.00546864    0.00266023
     atom    9 type  3   force =    -0.00658806   -0.00653201   -0.00674376
     atom   10 type  3   force =    -0.00658753    0.00653233    0.00674370
     atom   11 type  3   force =     0.00478974   -0.00547056    0.00265982
     atom   12 type  3   force =     0.00478973    0.00547054   -0.00266057
     The Hubbard contrib.    to forces
     atom    1 type  1   force =     0.00000000    0.00000000    0.00000000
     atom    2 type  1   force =     0.00000000    0.00000000    0.00000000
     atom    3 type  2   force =     0.00000000    0.00000000    0.00000000
     atom    4 type  2   force =     0.00000000    0.00000000    0.00000000
     atom    5 type  3   force =     0.00000000    0.00000000    0.00000000
     atom    6 type  3   force =     0.00000000    0.00000000    0.00000000
     atom    7 type  3   force =     0.00000000    0.00000000    0.00000000
     atom    8 type  3   force =     0.00000000    0.00000000    0.00000000
     atom    9 type  3   force =     0.00000000    0.00000000    0.00000000
     atom   10 type  3   force =     0.00000000    0.00000000    0.00000000
     atom   11 type  3   force =     0.00000000    0.00000000    0.00000000
     atom   12 type  3   force =     0.00000000    0.00000000    0.00000000
     The SCF correction term to forces
     atom    1 type  1   force =    -0.00008229    0.00007630    0.00015614
     atom    2 type  1   force =    -0.00009159   -0.00006896   -0.00016310
     atom    3 type  2   force =     0.00000547   -0.00004235   -0.00000653
     atom    4 type  2   force =     0.00000366    0.00003652   -0.00000363
     atom    5 type  3   force =    -0.00005001   -0.00006332    0.00029719
     atom    6 type  3   force =    -0.00006802    0.00010052   -0.00035513
     atom    7 type  3   force =    -0.00018048    0.00015268    0.00025343
     atom    8 type  3   force =    -0.00008790   -0.00025455   -0.00025983
     atom    9 type  3   force =     0.00003321    0.00004085   -0.00025676
     atom   10 type  3   force =     0.00005767   -0.00007583    0.00031696
     atom   11 type  3   force =     0.00022309   -0.00008055   -0.00025241
     atom   12 type  3   force =     0.00013596    0.00017955    0.00025655

     Total force =     0.228582     Total SCF correction =     0.000995

     Computing stress (Cartesian axis) and pressure

     negative rho (up, down):  5.209E-03 0.000E+00
          total   stress  (Ry/bohr**3)                   (kbar)     P=     -287.53
  -0.00184711   0.00000000   0.00000000         -271.72        0.00        0.00
   0.00000000  -0.00188252   0.00011980            0.00     -276.93       17.62
   0.00000000   0.00011980  -0.00213403            0.00       17.62     -313.93

     kinetic stress (kbar)  16967.25      0.00      0.00
                                0.00  16920.35     35.62
                                0.00     35.62  16704.85

     local   stress (kbar) -14072.21     -0.02     -0.01
                               -0.02 -14534.63      1.36
                               -0.01      1.36 -11271.97

     nonloc. stress (kbar)  10261.98      0.00      0.00
                                0.00  10235.11     35.05
                                0.00     35.05  10173.57

     hartree stress (kbar)  20287.91      0.01      0.00
                                0.01  20438.48     -6.77
                                0.00     -6.77  19139.52

     exc-cor stress (kbar)  -1776.83      0.00      0.00
                                0.00  -1776.70      0.51
                                0.00      0.51  -1781.01

     corecor stress (kbar)  -4212.31     -0.00     -0.00
                               -0.00  -4211.44     -0.22
                               -0.00     -0.22  -4207.85

     ewald   stress (kbar) -27727.51     -0.00      0.00
                               -0.00 -27348.10    -47.93
                                0.00    -47.93 -29071.03

     hubbard stress (kbar)      0.00      0.00      0.00
                                0.00      0.00      0.00
                                0.00      0.00      0.00

     DFT-D   stress (kbar)      0.00      0.00      0.00
                                0.00      0.00      0.00
                                0.00      0.00      0.00

     XDM     stress (kbar)      0.00      0.00      0.00
                                0.00      0.00      0.00
                                0.00      0.00      0.00

     dft-nl  stress (kbar)      0.00      0.00      0.00
                                0.00      0.00      0.00
                                0.00      0.00      0.00

     TS-vdW  stress (kbar)      0.00      0.00      0.00
                                0.00      0.00      0.00
                                0.00      0.00      0.00

[...]

                                0.00      0.00      0.00

     Writing all to output data dir new_calculations/myprefix.save/

     General routines

     Parallel routines

   This run was terminated on:   4: 0:14  20May2023

   JOB DONE.