     Program PWSCF v.7.0 starts on 20May2023 at  7:24:14

     Reading input from espresso_9213.pwi
Warning: card &CELL ignored
Warning: card / ignored

     Current dimensions of program PWSCF are:
     Max number of different atomic species (ntypx) = 10
     Max number of k-points (npk) =  40000
     Max angular momentum in pseudopotentials (lmaxx) =  4
     file Mg.pbe-n-kjpaw_psl.0.3.0.UPF: wavefunction(s)  3S renormalized

     gamma-point specific algorithms are used
     Message from routine setup:
     using ibrav=0 with symmetry is DISCOURAGED, use correct ibrav instead

     Subspace diagonalization in iterative solution of the eigenvalue problem:
     a serial algorithm will be used

     Using Slab Decomposition

     bravais-lattice index     =            0
     lattice parameter (alat)  =      10.2014  a.u.
     unit-cell volume          =     891.5900 (a.u.)^3
     number of atoms/cell      =            6
     number of atomic types    =            2
     number of electrons       =        30.00
     number of Kohn-Sham states=           19
     kinetic-energy cutoff     =      30.0000  Ry
     charge density cutoff     =     240.0000  Ry
     scf convergence threshold =      1.0E-06
     mixing beta               =       0.7000
     number of iterations used =            8  plain     mixing
     Exchange-correlation= PBE
                           (   1   4   3   4   0   0   0)

     celldm(1)=  10.201363  celldm(2)=   0.000000  celldm(3)=   0.000000
     celldm(4)=   0.000000  celldm(5)=   0.000000  celldm(6)=   0.000000

     crystal axes: (cart. coord. in units of alat)
               a(1) = (   1.000000   0.000000   0.000000 )
               a(2) = (  -0.500000   0.866025   0.000000 )
               a(3) = (   0.000000   0.000000   0.969751 )

     reciprocal axes: (cart. coord. in units 2 pi/alat)
               b(1) = (  1.000000  0.577350  0.000000 )
               b(2) = (  0.000000  1.154701  0.000000 )
               b(3) = (  0.000000  0.000000  1.031193 )

     PseudoPot. # 1 for Mg read from file:
     /home/pragov/projects/rrg-bengioy-ad/pragov/crystal_structure_design/SSSP/Mg.pbe-n-kjpaw_psl.0.3.0.UPF
     MD5 check sum: 24ecedc7f3e3cbe212e682f4413594e4
     Pseudo is Projector augmented-wave + core cor, Zval =  2.0
     Generated using "atomic" code by A. Dal Corso  v.5.0.99 svn rev. 10869
     Shape of augmentation charge: PSQ
     Using radial grid of 1129 points,  4 beta functions with:
                l(1) =   0
                l(2) =   0
                l(3) =   1
                l(4) =   1
     Q(r) pseudized with 0 coefficients

     PseudoPot. # 2 for Hg read from file:
     /home/pragov/projects/rrg-bengioy-ad/pragov/crystal_structure_design/SSSP/Hg_ONCV_PBE-1.0.oncvpsp.upf
     MD5 check sum: dd5a8773074bfcf4280086d4d95875c4
     Pseudo is Norm-conserving, Zval = 20.0
     Generated using ONCVPSP code by D. R. Hamann
     Using radial grid of 1262 points,  8 beta functions with:
                l(1) =   0
                l(2) =   0
                l(3) =   1
                l(4) =   1
                l(5) =   2
                l(6) =   2
                l(7) =   3
                l(8) =   3

     atomic species   valence    mass     pseudopotential
        Mg             2.00    24.30500     Mg( 1.00)
        Hg            20.00   200.59200     Hg( 1.00)

     12 Sym. Ops. (no inversion) found

                                    s                        frac. trans.

      isym =  1     identity

 cryst.   s( 1) = (     1          0          0      )
                  (     0          1          0      )
                  (     0          0          1      )

 cart.    s( 1) = (  1.0000000 -0.0000000  0.0000000 )
                  (  0.0000000  1.0000000  0.0000000 )
                  (  0.0000000  0.0000000  1.0000000 )

      isym =  2     180 deg rotation - cart. axis [1,0,0]

[...]

      isym =  3     120 deg rotation - cryst. axis [0,0,1]

[...]

      isym =  6     180 deg rotation - cryst. axis [1,1,0]

[...]

      isym =  7     inv. 180 deg rotation - cart. axis [0,0,1]

[...]

      isym =  8     inv. 180 deg rotation - cart. axis [0,1,0]

[...]

      isym =  9     inv.  60 deg rotation - cryst. axis [0,0,1]

 cryst.   s( 9) = (    -1         -1          0      )
                  (     1          0          0      )
                  (     0          0         -1      )

 cart.    s( 9) = ( -0.4999999  0.8660255  0.0000000 )
                  ( -0.8660253 -0.5000001  0.0000000 )
                  (  0.0000000  0.0000000 -1.0000000 )

[...]

 cryst.   s(10) = (     0          1          0      )
                  (    -1         -1          0      )
                  (     0          0         -1      )

 cart.    s(10) = ( -0.5000001 -0.8660255  0.0000000 )
                  (  0.8660253 -0.4999999  0.0000000 )
                  (  0.0000000  0.0000000 -1.0000000 )

[...]

      isym = 12     inv. 180 deg rotation - cryst. axis [2,1,0]

 cryst.   s(12) = (    -1         -1          0      )
                  (     0          1          0      )
                  (     0          0          1      )

 cart.    s(12) = ( -0.4999999 -0.8660256  0.0000000 )
                  ( -0.8660253  0.4999999  0.0000000 )
                  (  0.0000000  0.0000000  1.0000000 )

   Cartesian axes

     site n.     atom                  positions (alat units)
         1           Mg  tau(   1) = (   0.3278620   0.0000000   0.4848753  )
         2           Mg  tau(   2) = (   0.3360689   0.5820885   0.4848753  )
         3           Mg  tau(   3) = (  -0.1639310   0.2839368   0.4848753  )
         4           Mg  tau(   4) = (  -0.0000006   0.5773505   0.0000000  )
         5           Mg  tau(   5) = (   0.5000005   0.2886748   0.0000000  )
         6           Hg  tau(   6) = (   0.0000000   0.0000000   0.0000000  )

   Crystallographic axes

     site n.     atom                  positions (cryst. coord.)
         1           Mg  tau(   1) = (  0.3278620  0.0000000  0.5000000  )
         2           Mg  tau(   2) = (  0.6721380  0.6721380  0.5000000  )
         3           Mg  tau(   3) = ( -0.0000000  0.3278620  0.5000000  )
         4           Mg  tau(   4) = (  0.3333330  0.6666670  0.0000000  )
         5           Mg  tau(   5) = (  0.6666670  0.3333330  0.0000000  )
         6           Hg  tau(   6) = (  0.0000000  0.0000000  0.0000000  )

     number of k points=     1  Methfessel-Paxton smearing, width (Ry)=  0.0010
                       cart. coord. in units 2pi/alat
        k(    1) = (   0.0000000   0.0000000   0.0000000), wk =   2.0000000

                       cryst. coord.
        k(    1) = (   0.0000000   0.0000000   0.0000000), wk =   2.0000000

     Initial potential from superposition of free atoms

     starting charge      29.9953, renormalised to      30.0000
     Starting wfcs are   30 randomized atomic wfcs
     Checking if some PAW data can be deallocated...

     Self-consistent Calculation

     iteration #  1     ecut=    30.00 Ry     beta= 0.70
     Davidson diagonalization with overlap

     ethr =  1.00E-02,  avg # of iterations =  2.0

     total energy              =    -477.20565464 Ry
     estimated scf accuracy    <       0.39576986 Ry

[...]

     total energy              =    -477.40942313 Ry
     estimated scf accuracy    <       0.00136321 Ry

     iteration # 16     ecut=    30.00 Ry     beta= 0.70
     Davidson diagonalization with overlap

     ethr =  4.54E-06,  avg # of iterations =  1.0

     End of self-consistent calculation

          k = 0.0000 0.0000 0.0000 (  1242 PWs)   bands (ev):

  -110.6735 -58.4708 -58.4707 -58.4663  -1.7288  -1.2939  -1.1525  -1.1525
    -1.0286  -1.0285   3.7790   4.0585   5.4200   5.4200   5.6451   5.6595
     6.1056   6.1057  10.1627

     occupation numbers
     1.0000   1.0000   1.0000   1.0000   1.0000   1.0000   1.0000   1.0000
     1.0000   1.0000   1.0000   1.0000   1.0000   1.0000   0.8868   0.1132
    -0.0000  -0.0000  -0.0000

     the Fermi energy is     5.6523 ev

!    total energy              =    -477.40944318 Ry
     estimated scf accuracy    <       0.00000082 Ry
     smearing contrib. (-TS)   =      -0.00018528 Ry
     internal energy E=F+TS    =    -477.40925790 Ry

     The total energy is F=E-TS. E is the sum of the following terms:
     one-electron contribution =    -276.99473452 Ry
     hartree contribution      =     139.87046483 Ry
     xc contribution           =     -35.40543451 Ry
     ewald contribution        =    -148.43345093 Ry
     one-center paw contrib.   =    -156.44610277 Ry
      -> PAW hartree energy AE =       3.42862148 Ry
      -> PAW hartree energy PS =      -3.41964045 Ry
      -> PAW xc energy AE      =    -162.73783349 Ry
      -> PAW xc energy PS      =       6.28274969 Ry
      -> total E_H with PAW    =     139.87944586 Ry
      -> total E_XC with PAW   =    -191.86051832 Ry

     convergence has been achieved in  16 iterations

     Forces acting on atoms (cartesian axes, Ry/au):

     atom    1 type  1   force =     0.03017567    0.00000000    0.00000000
     atom    2 type  1   force =    -0.01508784   -0.02613290    0.00000000
     atom    3 type  1   force =    -0.01508784    0.02613290   -0.00000000
     atom    4 type  1   force =     0.00000000    0.00000000   -0.00000000
     atom    5 type  1   force =    -0.00000000   -0.00000000   -0.00000000
     atom    6 type  2   force =     0.00000000   -0.00000000    0.00000000
     The non-local contrib.  to forces
     atom    1 type  1   force =     0.02077527    0.00000000    0.00000000
     atom    2 type  1   force =    -0.01038764   -0.01799192    0.00000000
     atom    3 type  1   force =    -0.01038764    0.01799192   -0.00000000
     atom    4 type  1   force =    -0.00000000    0.00000000    0.00000000
     atom    5 type  1   force =    -0.00000000    0.00000000   -0.00000000
     atom    6 type  2   force =     0.00000000    0.00000000    0.00000000
     The ionic contribution  to forces
     atom    1 type  1   force =     0.90328636    0.00000028    0.00000000
     atom    2 type  1   force =    -0.45164337   -0.78226941    0.00000000
     atom    3 type  1   force =    -0.45164306    0.78226900    0.00000000
     atom    4 type  1   force =     0.00000487   -0.00000280    0.00000000
     atom    5 type  1   force =    -0.00000485    0.00000282    0.00000000
     atom    6 type  2   force =     0.00000006    0.00000010    0.00000000
     The local contribution  to forces
     atom    1 type  1   force =    -0.89206382    0.00002210   -0.00000515
     atom    2 type  1   force =     0.44602611    0.77247632   -0.00007457
     atom    3 type  1   force =     0.44593407   -0.77249541    0.00003529
     atom    4 type  1   force =     0.00001712   -0.00004117    0.00005037
     atom    5 type  1   force =     0.00001480   -0.00003697    0.00000367
     atom    6 type  2   force =     0.00064866   -0.00097142    0.00090655
     The core correction contribution to forces
     atom    1 type  1   force =    -0.00191725   -0.00001390    0.00000312
     atom    2 type  1   force =     0.00094765    0.00166783   -0.00000588
     atom    3 type  1   force =     0.00095994   -0.00165451    0.00000560
     atom    4 type  1   force =     0.00000391   -0.00000459    0.00000168
     atom    5 type  1   force =     0.00000149   -0.00000440   -0.00000228
     atom    6 type  2   force =     0.00000000    0.00000000    0.00000000
     The Hubbard contrib.    to forces
     atom    1 type  1   force =     0.00000000    0.00000000    0.00000000
     atom    2 type  1   force =     0.00000000    0.00000000    0.00000000
     atom    3 type  1   force =     0.00000000    0.00000000    0.00000000
     atom    4 type  1   force =     0.00000000    0.00000000    0.00000000
     atom    5 type  1   force =     0.00000000    0.00000000    0.00000000
     atom    6 type  2   force =     0.00000000    0.00000000    0.00000000
     The SCF correction term to forces
     atom    1 type  1   force =     0.00005450   -0.00007637    0.00002423
     atom    2 type  1   force =    -0.00008593    0.00001577    0.00002751
     atom    3 type  1   force =     0.00003018    0.00005756    0.00001554
     atom    4 type  1   force =     0.00000828    0.00000823   -0.00002071
     atom    5 type  1   force =     0.00000160   -0.00000538   -0.00002693
     atom    6 type  2   force =    -0.00100198    0.00077654   -0.00081227

     Total force =     0.052266     Total SCF correction =     0.001513

     Computing stress (Cartesian axis) and pressure

          total   stress  (Ry/bohr**3)                   (kbar)     P=     -168.22
  -0.00092550  -0.00000000  -0.00000000         -136.15       -0.00       -0.00
  -0.00000000  -0.00092550   0.00000000           -0.00     -136.15        0.00
   0.00000000   0.00000000  -0.00157958            0.00        0.00     -232.36

     kinetic stress (kbar)  10703.71      0.00      0.00
                                0.00  10703.71      0.00
                                0.00      0.00  10651.68

     local   stress (kbar) -10969.76     -0.07     -0.03
                               -0.07 -10969.59     -0.01
                               -0.03     -0.01  -9791.15

     nonloc. stress (kbar)   1882.02      0.00      0.00
                                0.00   1882.02      0.00
                                0.00      0.00   1905.58

     hartree stress (kbar)   7880.78      0.02      0.02
                                0.02   7880.76     -0.01
                                0.02     -0.01   7315.94

     exc-cor stress (kbar)  -1096.15      0.00      0.00
                                0.00  -1096.15      0.00
                                0.00      0.00  -1095.36

     corecor stress (kbar)   -599.55      0.00     -0.00
                                0.00   -599.55     -0.00
                               -0.00     -0.00   -603.27

     ewald   stress (kbar)  -7937.26     -0.01      0.00
                               -0.01  -7937.27      0.00
                                0.00      0.00  -8615.79

     hubbard stress (kbar)      0.00      0.00      0.00
                                0.00      0.00      0.00
                                0.00      0.00      0.00

     DFT-D   stress (kbar)      0.00      0.00      0.00
                                0.00      0.00      0.00
                                0.00      0.00      0.00

     XDM     stress (kbar)      0.00      0.00      0.00
                                0.00      0.00      0.00
                                0.00      0.00      0.00

     dft-nl  stress (kbar)      0.00      0.00      0.00
                                0.00      0.00      0.00
                                0.00      0.00      0.00

     TS-vdW  stress (kbar)      0.00      0.00      0.00
                                0.00      0.00      0.00
                                0.00      0.00      0.00

[...]

                                0.00      0.00      0.00

     Writing all to output data dir new_calculations/myprefix.save/

     General routines

     Parallel routines

     PAW routines

   This run was terminated on:   7:24:29  20May2023

   JOB DONE.