     Program PWSCF v.7.0 starts on 20May2023 at  7:46:39

     Reading input from espresso_18127.pwi
Warning: card &CELL ignored
Warning: card / ignored

     Current dimensions of program PWSCF are:
     Max number of different atomic species (ntypx) = 10
     Max number of k-points (npk) =  40000
     Max angular momentum in pseudopotentials (lmaxx) =  4
     file Ga.pbe-dn-kjpaw_psl.1.0.0.UPF: wavefunction(s)  4S renormalized

     gamma-point specific algorithms are used
     Message from routine setup:
     using ibrav=0 with symmetry is DISCOURAGED, use correct ibrav instead

     Subspace diagonalization in iterative solution of the eigenvalue problem:
     a serial algorithm will be used

     Using Slab Decomposition

     bravais-lattice index     =            0
     lattice parameter (alat)  =      17.5190  a.u.
     unit-cell volume          =     950.1917 (a.u.)^3
     number of atoms/cell      =            8
     number of atomic types    =            2
     number of electrons       =       102.00
     number of Kohn-Sham states=           61
     kinetic-energy cutoff     =      30.0000  Ry
     charge density cutoff     =     240.0000  Ry
     scf convergence threshold =      1.0E-06
     mixing beta               =       0.7000
     number of iterations used =            8  plain     mixing
     Exchange-correlation= SLA  PW   PBX  PBC
                           (   1   4   3   4   0   0   0)

     celldm(1)=  17.519046  celldm(2)=   0.000000  celldm(3)=   0.000000
     celldm(4)=   0.000000  celldm(5)=   0.000000  celldm(6)=   0.000000

     crystal axes: (cart. coord. in units of alat)
               a(1) = (   1.000000   0.000000   0.000000 )
               a(2) = (   0.814467   0.580209   0.000000 )
               a(3) = (  -0.907234  -0.290105   0.304576 )

     reciprocal axes: (cart. coord. in units 2 pi/alat)
               b(1) = (  1.000000 -1.403748  1.641628 )
               b(2) = (  0.000000  1.723516  1.641628 )
               b(3) = (  0.000000  0.000000  3.283257 )

     PseudoPot. # 1 for Zr read from file:
     /home/pragov/projects/rrg-bengioy-ad/pragov/crystal_structure_design/SSSP/Zr_pbe_v1.uspp.F.UPF
     MD5 check sum: 5db81b1e868ab7776c4564c113de050b
     Pseudo is Ultrasoft + core correction, Zval = 12.0
     Generated by new atomic code, or converted to UPF format
     Using radial grid of  887 points,  6 beta functions with:
                l(1) =   0
                l(2) =   0
                l(3) =   1
                l(4) =   1
                l(5) =   2
                l(6) =   2
     Q(r) pseudized with  6 coefficients,  rinner =    1.200   1.200   1.200
                                                       1.200   1.200

     PseudoPot. # 2 for Ga read from file:
     /home/pragov/projects/rrg-bengioy-ad/pragov/crystal_structure_design/SSSP/Ga.pbe-dn-kjpaw_psl.1.0.0.UPF
     MD5 check sum: a27b4342b1af7e5f338de752e9ed7044
     Pseudo is Projector augmented-wave + core cor, Zval = 13.0
     Generated using "atomic" code by A. Dal Corso  v.5.1
     Shape of augmentation charge: PSQ
     Using radial grid of 1205 points,  6 beta functions with:
                l(1) =   0
                l(2) =   0
                l(3) =   1
                l(4) =   1
                l(5) =   2
                l(6) =   2
     Q(r) pseudized with 0 coefficients

     atomic species   valence    mass     pseudopotential
        Zr            12.00    91.22400     Zr( 1.00)
        Ga            13.00    69.72300     Ga( 1.00)

      4 Sym. Ops., with inversion, found

                                    s                        frac. trans.

      isym =  1     identity

 cryst.   s( 1) = (     1          0          0      )
                  (     0          1          0      )
                  (     0          0          1      )

 cart.    s( 1) = (  1.0000000  0.0000000 -0.0000000 )
                  (  0.0000000  1.0000000 -0.0000000 )
                  (  0.0000000  0.0000000  1.0000000 )

      isym =  2     180 deg rotation - cart. axis [0,0,1]

[...]

      isym =  3     inversion

[...]

      isym =  4     inv. 180 deg rotation - cart. axis [0,0,1]

 cryst.   s( 4) = (     1          0          0      )
                  (     0          1          0      )
                  (    -1         -1         -1      )

 cart.    s( 4) = (  1.0000000  0.0000000  0.0000000 )
                  (  0.0000000  1.0000000  0.0000000 )
                  (  0.0000000  0.0000000 -1.0000000 )

   Cartesian axes

     site n.     atom                  positions (alat units)
         1           Zr  tau(   1) = (   1.5996381   0.5115137   0.0000000  )
         2           Zr  tau(   2) = (   0.2148293   0.0686956   0.0000000  )
         3           Ga  tau(   3) = (  -0.0463832   0.1450523   0.1522878  )
         4           Ga  tau(   4) = (   0.0463832  -0.1450523   0.1522878  )
         5           Ga  tau(   5) = (   0.5000000   0.0000000   0.1522878  )
         6           Ga  tau(   6) = (   0.4072337   0.2901047   0.1522878  )
         7           Ga  tau(   7) = (   1.1336448   0.3625038   0.0000000  )
         8           Ga  tau(   8) = (   0.6808226   0.2177056   0.0000000  )

   Crystallographic axes

     site n.     atom                  positions (cryst. coord.)
         1           Zr  tau(   1) = (  0.8816020  0.8816020  0.0000000  )
         2           Zr  tau(   2) = (  0.1183980  0.1183980  0.0000000  )
         3           Ga  tau(   3) = ( -0.0000000  0.5000000  0.5000000  )
         4           Ga  tau(   4) = (  0.5000000 -0.0000000  0.5000000  )
         5           Ga  tau(   5) = (  0.7500000  0.2500000  0.5000000  )
         6           Ga  tau(   6) = (  0.2500000  0.7500000  0.5000000  )
         7           Ga  tau(   7) = (  0.6247810  0.6247810  0.0000000  )
         8           Ga  tau(   8) = (  0.3752190  0.3752190  0.0000000  )

     number of k points=     1  Methfessel-Paxton smearing, width (Ry)=  0.0010
                       cart. coord. in units 2pi/alat
        k(    1) = (   0.0000000   0.0000000   0.0000000), wk =   2.0000000

                       cryst. coord.
        k(    1) = (   0.0000000   0.0000000   0.0000000), wk =   2.0000000

     Check: negative core charge=   -0.000002

     Initial potential from superposition of free atoms

     starting charge     101.9780, renormalised to     102.0000

     negative rho (up, down):  1.222E-01 0.000E+00
     Starting wfcs are   80 randomized atomic wfcs
     Checking if some PAW data can be deallocated...

     Self-consistent Calculation

     iteration #  1     ecut=    30.00 Ry     beta= 0.70
     Davidson diagonalization with overlap

     ethr =  1.00E-02,  avg # of iterations =  2.0

     Threshold (ethr) on eigenvalues was too large:
     Diagonalizing with lowered threshold

     Davidson diagonalization with overlap

[...]

     negative rho (up, down):  1.178E-01 0.000E+00

     total energy              =   -1864.68261323 Ry
     estimated scf accuracy    <       0.50792021 Ry

[...]

     total energy              =   -1864.89168003 Ry
     estimated scf accuracy    <       0.00000395 Ry

     iteration # 18     ecut=    30.00 Ry     beta= 0.70
     Davidson diagonalization with overlap

     ethr =  2.13E-09,  avg # of iterations =  1.0

[...]

     End of self-consistent calculation

          k = 0.0000 0.0000 0.0000 (  1313 PWs)   bands (ev):

   -35.6847 -35.6655 -14.2901 -14.2443 -14.0893 -14.0724 -13.6059 -13.5720
    -3.7625  -3.7505  -3.7220  -3.7215  -3.7199  -3.7133  -3.7019  -3.6990
    -3.6986  -3.6788  -2.4540  -2.2856  -2.2515  -2.2171  -2.2105  -2.1099
    -2.1082  -2.0911  -1.9615  -1.7401  -0.8315  -0.7210  -0.6577  -0.6475
    -0.6376  -0.5307  -0.5149  -0.4616  -0.4161  -0.1031   1.9812   4.0337
     4.2548   8.5216  10.0229  10.2560  10.6185  11.0571  11.0650  12.0129
    12.0275  13.6297  14.0259  14.0450  14.0475  14.0986  14.4619  14.4958
    14.5919  14.6145  16.2350  17.2306  17.5438

     occupation numbers
     1.0000   1.0000   1.0000   1.0000   1.0000   1.0000   1.0000   1.0000
     1.0000   1.0000   1.0000   1.0000   1.0000   1.0000   1.0000   1.0000
     1.0000   1.0000   1.0000   1.0000   1.0000   1.0000   1.0000   1.0000
     1.0000   1.0000   1.0000   1.0000   1.0000   1.0000   1.0000   1.0000
     1.0000   1.0000   1.0000   1.0000   1.0000   1.0000   1.0000   1.0000
     1.0000   1.0000   1.0000   1.0000   1.0000   1.0000   1.0000   1.0000
     1.0000   1.0000   0.9634   0.0433  -0.0068  -0.0000  -0.0000  -0.0000
    -0.0000  -0.0000  -0.0000  -0.0000  -0.0000

     the Fermi energy is    14.0356 ev

!    total energy              =   -1864.89168011 Ry
     estimated scf accuracy    <       0.00000005 Ry
     smearing contrib. (-TS)   =       0.00006323 Ry
     internal energy E=F+TS    =   -1864.89174333 Ry

     The total energy is F=E-TS. E is the sum of the following terms:
     one-electron contribution =    -543.65740048 Ry
     hartree contribution      =     371.51187194 Ry
     xc contribution           =    -264.20994468 Ry
     ewald contribution        =    -763.54181005 Ry
     one-center paw contrib.   =    -664.99446006 Ry
      -> PAW hartree energy AE =     852.89660729 Ry
      -> PAW hartree energy PS =    -838.92828146 Ry
      -> PAW xc energy AE      =    -904.96627743 Ry
      -> PAW xc energy PS      =     226.00349154 Ry
      -> total E_H with PAW    =     385.48019777 Ry
      -> total E_XC with PAW   =    -943.17273057 Ry

     convergence has been achieved in  18 iterations

     negative rho (up, down):  1.180E-01 0.000E+00

     Forces acting on atoms (cartesian axes, Ry/au):

     atom    1 type  1   force =     0.03672280   -0.00945698    0.00000000
     atom    2 type  1   force =    -0.03672280    0.00945698   -0.00000000
     atom    3 type  2   force =     0.00000000    0.00000000    0.00000000
     atom    4 type  2   force =     0.00000000    0.00000000   -0.00000000
     atom    5 type  2   force =     0.00000000    0.00000000   -0.00032345
     atom    6 type  2   force =     0.00000000    0.00000000    0.00032345
     atom    7 type  2   force =     0.06878459    0.02138690    0.00000000
     atom    8 type  2   force =    -0.06878459   -0.02138690   -0.00000000
     The non-local contrib.  to forces
     atom    1 type  1   force =    -0.02649417   -0.00496846   -0.00000000
     atom    2 type  1   force =     0.02649417    0.00496846    0.00000000
     atom    3 type  2   force =     0.00000000    0.00000000    0.00000000
     atom    4 type  2   force =     0.00000000    0.00000000    0.00000000
     atom    5 type  2   force =     0.00000000    0.00000000    0.00026160
     atom    6 type  2   force =     0.00000000    0.00000000   -0.00026160
     atom    7 type  2   force =    -0.19580725   -0.04812724   -0.00000000
     atom    8 type  2   force =     0.19580725    0.04812724    0.00000000
     The ionic contribution  to forces
     atom    1 type  1   force =    -3.54978899   -1.13511033   -0.00000000
     atom    2 type  1   force =     3.54978899    1.13511033    0.00000000
     atom    3 type  2   force =     0.00000000    0.00000000   -0.00000000
     atom    4 type  2   force =     0.00000000    0.00000000    0.00000000
     atom    5 type  2   force =    -0.00000000   -0.00000000    0.00000000
     atom    6 type  2   force =    -0.00000000   -0.00000000   -0.00000000
     atom    7 type  2   force =     2.66491774    0.85215647   -0.00000000
     atom    8 type  2   force =    -2.66491774   -0.85215647   -0.00000000
     The local contribution  to forces
     atom    1 type  1   force =     3.61195227    1.13233317   -0.01318092
     atom    2 type  1   force =    -3.61191164   -1.13235103    0.01319403
     atom    3 type  2   force =    -0.00034415   -0.00013541    0.00000238
     atom    4 type  2   force =    -0.00034375   -0.00009138    0.00001861
     atom    5 type  2   force =    -0.00228239    0.00294445   -0.00053999
     atom    6 type  2   force =     0.00281852   -0.00273733    0.00051884
     atom    7 type  2   force =    -2.40268848   -0.78240526    0.00371175
     atom    8 type  2   force =     2.40277770    0.78244792   -0.00373643
     The core correction contribution to forces
     atom    1 type  1   force =     0.00131014   -0.00172065   -0.00006918
     atom    2 type  1   force =    -0.00130823    0.00172049    0.00006957
     atom    3 type  2   force =    -0.00000092   -0.00000121   -0.00000022
     atom    4 type  2   force =    -0.00000115   -0.00000003    0.00000052
     atom    5 type  2   force =    -0.00011007   -0.00001030   -0.00004114
     atom    6 type  2   force =     0.00010873    0.00001132    0.00004073
     atom    7 type  2   force =     0.00220082   -0.00036485   -0.00005926
     atom    8 type  2   force =    -0.00219804    0.00036602    0.00005871
     The Hubbard contrib.    to forces
     atom    1 type  1   force =     0.00000000    0.00000000    0.00000000
     atom    2 type  1   force =     0.00000000    0.00000000    0.00000000
     atom    3 type  2   force =     0.00000000    0.00000000    0.00000000
     atom    4 type  2   force =     0.00000000    0.00000000    0.00000000
     atom    5 type  2   force =     0.00000000    0.00000000    0.00000000
     atom    6 type  2   force =     0.00000000    0.00000000    0.00000000
     atom    7 type  2   force =     0.00000000    0.00000000    0.00000000
     atom    8 type  2   force =     0.00000000    0.00000000    0.00000000
     The SCF correction term to forces
     atom    1 type  1   force =    -0.00024852    0.00000593    0.00022967
     atom    2 type  1   force =     0.00022184    0.00000538   -0.00024319
     atom    3 type  2   force =     0.00034959    0.00013433    0.00000571
     atom    4 type  2   force =     0.00034769    0.00007356   -0.00000707
     atom    5 type  2   force =    -0.00027873   -0.00007690    0.00001335
     atom    6 type  2   force =    -0.00026518   -0.00013289    0.00004276
     atom    7 type  2   force =     0.00013428    0.00010696    0.00021301
     atom    8 type  2   force =    -0.00028123   -0.00019245   -0.00016616

     Total force =     0.115124     Total SCF correction =     0.000939

     Computing stress (Cartesian axis) and pressure

     negative rho (up, down):  1.180E-01 0.000E+00
          total   stress  (Ry/bohr**3)                   (kbar)     P=      142.75
   0.00031199  -0.00023102   0.00000000           45.90      -33.98        0.00
  -0.00023102   0.00106335   0.00000000          -33.98      156.42        0.00
   0.00000000   0.00000000   0.00153583            0.00        0.00      225.93

     kinetic stress (kbar)  14889.88    109.08      0.00
                              109.08  14645.42      0.00
                                0.00      0.00  14645.26

     local   stress (kbar)   7626.52    481.89     -0.52
                              481.89   6286.28    -15.78
                               -0.52    -15.78   6077.81

     nonloc. stress (kbar)   7779.50    -17.64      0.00
                              -17.64   7790.22      0.00
                                0.00      0.00   7854.85

     hartree stress (kbar)  18800.97   -190.11      3.87
                             -190.11  19316.40      7.76
                                3.87      7.76  19398.69

     exc-cor stress (kbar)   6619.23      1.01     -0.07
                                1.01   6614.92      0.22
                               -0.07      0.22   6614.95

     corecor stress (kbar) -15440.57     -0.29      0.56
                               -0.29 -15440.49     -0.28
                                0.56     -0.28 -15442.94

     ewald   stress (kbar) -40229.64   -417.92      0.00
                             -417.92 -39056.33      0.00
                                0.00      0.00 -38922.69

     hubbard stress (kbar)      0.00      0.00      0.00
                                0.00      0.00      0.00
                                0.00      0.00      0.00

     DFT-D   stress (kbar)      0.00      0.00      0.00
                                0.00      0.00      0.00
                                0.00      0.00      0.00

     XDM     stress (kbar)      0.00      0.00      0.00
                                0.00      0.00      0.00
                                0.00      0.00      0.00

     dft-nl  stress (kbar)      0.00      0.00      0.00
                                0.00      0.00      0.00
                                0.00      0.00      0.00

     TS-vdW  stress (kbar)      0.00      0.00      0.00
                                0.00      0.00      0.00
                                0.00      0.00      0.00

[...]

                                0.00      0.00      0.00

     Writing all to output data dir new_calculations/myprefix.save/

     General routines

     Parallel routines

     PAW routines

   This run was terminated on:   7:47: 9  20May2023

   JOB DONE.