     Program PWSCF v.7.0 starts on 21May2023 at  0: 8:47

     Reading input from espresso_4767.pwi
Warning: card &CELL ignored
Warning: card / ignored

     Current dimensions of program PWSCF are:
     Max number of different atomic species (ntypx) = 10
     Max number of k-points (npk) =  40000
     Max angular momentum in pseudopotentials (lmaxx) =  4
     file K.pbe-spn-kjpaw_psl.1.0.0.UPF: wavefunction(s)  3S renormalized

     gamma-point specific algorithms are used
     Message from routine setup:
     using ibrav=0 with symmetry is DISCOURAGED, use correct ibrav instead

     Subspace diagonalization in iterative solution of the eigenvalue problem:
     a serial algorithm will be used

     Using Slab Decomposition

     bravais-lattice index     =            0
     lattice parameter (alat)  =      11.4765  a.u.
     unit-cell volume          =     853.8721 (a.u.)^3
     number of atoms/cell      =            4
     number of atomic types    =            2
     number of electrons       =        69.00
     number of Kohn-Sham states=           42
     kinetic-energy cutoff     =      30.0000  Ry
     charge density cutoff     =     240.0000  Ry
     scf convergence threshold =      1.0E-06
     mixing beta               =       0.7000
     number of iterations used =            8  plain     mixing
     Exchange-correlation= PBE
                           (   1   4   3   4   0   0   0)

     celldm(1)=  11.476542  celldm(2)=   0.000000  celldm(3)=   0.000000
     celldm(4)=   0.000000  celldm(5)=   0.000000  celldm(6)=   0.000000

     crystal axes: (cart. coord. in units of alat)
               a(1) = (   1.000000   0.000000   0.000000 )
               a(2) = (   0.299106   0.954220   0.000000 )
               a(3) = (  -0.649553  -0.477110   0.591986 )

     reciprocal axes: (cart. coord. in units 2 pi/alat)
               b(1) = (  1.000000 -0.313456  0.844615 )
               b(2) = (  0.000000  1.047977  0.844615 )
               b(3) = (  0.000000  0.000000  1.689230 )

     PseudoPot. # 1 for K  read from file:
     /home/pragov/projects/rrg-bengioy-ad/pragov/crystal_structure_design/SSSP/K.pbe-spn-kjpaw_psl.1.0.0.UPF
     MD5 check sum: 7d58810084cac21f60fbe77ea2b688fd
     Pseudo is Projector augmented-wave + core cor, Zval =  9.0
     Generated using "atomic" code by A. Dal Corso  v.5.1
     Shape of augmentation charge: PSQ
     Using radial grid of 1165 points,  6 beta functions with:
                l(1) =   0
                l(2) =   0
                l(3) =   1
                l(4) =   1
                l(5) =   2
                l(6) =   2
     Q(r) pseudized with 0 coefficients

     PseudoPot. # 2 for Hg read from file:
     /home/pragov/projects/rrg-bengioy-ad/pragov/crystal_structure_design/SSSP/Hg_ONCV_PBE-1.0.oncvpsp.upf
     MD5 check sum: dd5a8773074bfcf4280086d4d95875c4
     Pseudo is Norm-conserving, Zval = 20.0
     Generated using ONCVPSP code by D. R. Hamann
     Using radial grid of 1262 points,  8 beta functions with:
                l(1) =   0
                l(2) =   0
                l(3) =   1
                l(4) =   1
                l(5) =   2
                l(6) =   2
                l(7) =   3
                l(8) =   3

     atomic species   valence    mass     pseudopotential
        K              9.00    39.09830     K ( 1.00)
        Hg            20.00   200.59200     Hg( 1.00)

      4 Sym. Ops., with inversion, found

                                    s                        frac. trans.

      isym =  1     identity

 cryst.   s( 1) = (     1          0          0      )
                  (     0          1          0      )
                  (     0          0          1      )

 cart.    s( 1) = (  1.0000000 -0.0000000  0.0000000 )
                  (  0.0000000  1.0000000  0.0000000 )
                  (  0.0000000  0.0000000  1.0000000 )

      isym =  2     180 deg rotation - cart. axis [0,0,1]

[...]

      isym =  3     inversion

[...]

      isym =  4     inv. 180 deg rotation - cart. axis [0,0,1]

 cryst.   s( 4) = (     1          0          0      )
                  (     0          1          0      )
                  (    -1         -1         -1      )

 cart.    s( 4) = (  1.0000000 -0.0000000  0.0000000 )
                  (  0.0000000  1.0000000  0.0000000 )
                  (  0.0000000  0.0000000 -1.0000000 )

   Cartesian axes

     site n.     atom                  positions (alat units)
         1           K   tau(   1) = (   0.0000000   0.0000000   0.0000000  )
         2           Hg  tau(   2) = (   0.5000000  -0.0000000   0.2959928  )
         3           Hg  tau(   3) = (   0.1495530   0.4771099   0.2959928  )
         4           Hg  tau(   4) = (   0.6495530   0.4771099   0.0000000  )

   Crystallographic axes

     site n.     atom                  positions (cryst. coord.)
         1           K   tau(   1) = (  0.0000000  0.0000000  0.0000000  )
         2           Hg  tau(   2) = (  0.7500000  0.2500000  0.5000000  )
         3           Hg  tau(   3) = (  0.2500000  0.7500000  0.5000000  )
         4           Hg  tau(   4) = (  0.5000000  0.5000000  0.0000000  )

     number of k points=     1  Methfessel-Paxton smearing, width (Ry)=  0.0010
                       cart. coord. in units 2pi/alat
        k(    1) = (   0.0000000   0.0000000   0.0000000), wk =   2.0000000

                       cryst. coord.
        k(    1) = (   0.0000000   0.0000000   0.0000000), wk =   2.0000000

     Check: negative core charge=   -0.000002

     Initial potential from superposition of free atoms

     starting charge      68.9810, renormalised to      69.0000
     Starting wfcs are   38 randomized atomic wfcs +    4 random wfcs
     Checking if some PAW data can be deallocated...

     Self-consistent Calculation

     iteration #  1     ecut=    30.00 Ry     beta= 0.70
     Davidson diagonalization with overlap

     ethr =  1.00E-02,  avg # of iterations = 10.0

     Threshold (ethr) on eigenvalues was too large:
     Diagonalizing with lowered threshold

     Davidson diagonalization with overlap

[...]

     total energy              =   -1043.08325082 Ry
     estimated scf accuracy    <       0.09835567 Ry

[...]

     total energy              =   -1043.12598378 Ry
     estimated scf accuracy    <       0.00002586 Ry

     iteration #  6     ecut=    30.00 Ry     beta= 0.70
     Davidson diagonalization with overlap

     ethr =  3.75E-08,  avg # of iterations =  2.0

     End of self-consistent calculation

          k = 0.0000 0.0000 0.0000 (  1183 PWs)   bands (ev):

  -108.5831-106.7073-105.9066 -55.1194 -54.8563 -54.8535 -54.5055 -54.4392
   -54.1839 -54.1443 -54.0994 -53.9683 -21.7413  -5.8739  -5.4939  -5.2801
     2.4702   2.6416   2.6664   2.7368   2.7881   2.8261   2.8553   2.9813
     3.1495   3.1555   3.2746   3.3057   3.4210   3.5041   3.5199   4.1043
     6.5499   8.1115  10.3659  10.8087  10.8850  11.6792  12.6047  12.7463
    14.8264  14.9884

     occupation numbers
     1.0000   1.0000   1.0000   1.0000   1.0000   1.0000   1.0000   1.0000
     1.0000   1.0000   1.0000   1.0000   1.0000   1.0000   1.0000   1.0000
     1.0000   1.0000   1.0000   1.0000   1.0000   1.0000   1.0000   1.0000
     1.0000   1.0000   1.0000   1.0000   1.0000   1.0000   1.0000   1.0000
     1.0000   1.0000   0.5000  -0.0000  -0.0000  -0.0000  -0.0000  -0.0000
    -0.0000  -0.0000

     the Fermi energy is    10.3659 ev

!    total energy              =   -1043.12599010 Ry
     estimated scf accuracy    <       0.00000031 Ry
     smearing contrib. (-TS)   =      -0.00028209 Ry
     internal energy E=F+TS    =   -1043.12570801 Ry

     The total energy is F=E-TS. E is the sum of the following terms:
     one-electron contribution =    -599.44224150 Ry
     hartree contribution      =     302.41873298 Ry
     xc contribution           =     -93.47824383 Ry
     ewald contribution        =    -597.23640801 Ry
     one-center paw contrib.   =     -55.38754765 Ry
      -> PAW hartree energy AE =      37.40176526 Ry
      -> PAW hartree energy PS =     -37.20459842 Ry
      -> PAW xc energy AE      =     -66.09590713 Ry
      -> PAW xc energy PS      =      10.51119264 Ry
      -> total E_H with PAW    =     302.61589982 Ry
      -> total E_XC with PAW   =    -149.06295832 Ry

     convergence has been achieved in   6 iterations

     Forces acting on atoms (cartesian axes, Ry/au):

     atom    1 type  1   force =     0.00000000    0.00000000   -0.00000000
     atom    2 type  2   force =     0.00000000    0.00000000   -0.00026690
     atom    3 type  2   force =     0.00000000    0.00000000    0.00026690
     atom    4 type  2   force =     0.00000000    0.00000000    0.00000000
     The non-local contrib.  to forces
     atom    1 type  1   force =     0.00000000    0.00000000    0.00000000
     atom    2 type  2   force =     0.00000000    0.00000000    0.00105663
     atom    3 type  2   force =     0.00000000    0.00000000   -0.00105663
     atom    4 type  2   force =     0.00000000    0.00000000   -0.00000000
     The ionic contribution  to forces
     atom    1 type  1   force =    -0.00000000   -0.00000000    0.00000000
     atom    2 type  2   force =    -0.00000000    0.00000000   -0.00000000
     atom    3 type  2   force =     0.00000000   -0.00000000   -0.00000000
     atom    4 type  2   force =    -0.00000000   -0.00000000    0.00000000
     The local contribution  to forces
     atom    1 type  1   force =    -0.00001785    0.00003934   -0.00002975
     atom    2 type  2   force =    -0.00189670   -0.00086228   -0.00162156
     atom    3 type  2   force =     0.00209713    0.00046089    0.00188521
     atom    4 type  2   force =    -0.00000820   -0.00008121    0.00033960
     The core correction contribution to forces
     atom    1 type  1   force =    -0.00000043    0.00000011   -0.00000091
     atom    2 type  2   force =     0.00000000    0.00000000    0.00000000
     atom    3 type  2   force =     0.00000000    0.00000000    0.00000000
     atom    4 type  2   force =     0.00000000    0.00000000    0.00000000
     The Hubbard contrib.    to forces
     atom    1 type  1   force =     0.00000000    0.00000000    0.00000000
     atom    2 type  2   force =     0.00000000    0.00000000    0.00000000
     atom    3 type  2   force =     0.00000000    0.00000000    0.00000000
     atom    4 type  2   force =     0.00000000    0.00000000    0.00000000
     The SCF correction term to forces
     atom    1 type  1   force =    -0.00002211    0.00000197    0.00001761
     atom    2 type  2   force =    -0.00084074    0.00081667    0.00029172
     atom    3 type  2   force =     0.00060114   -0.00021916   -0.00056799
     atom    4 type  2   force =     0.00005647    0.00012603   -0.00032943

     Total force =     0.000377     Total SCF correction =     0.001523
     SCF correction compared to forces is large: reduce conv_thr to get better values

     Computing stress (Cartesian axis) and pressure

          total   stress  (Ry/bohr**3)                   (kbar)     P=     -628.43
  -0.00374760   0.00017813  -0.00000000         -551.29       26.20       -0.00
   0.00017813  -0.00411055  -0.00000000           26.20     -604.68       -0.00
  -0.00000000  -0.00000000  -0.00495775           -0.00       -0.00     -729.31

     kinetic stress (kbar)  34977.39    110.42      0.00
                              110.42  34826.02      0.00
                                0.00      0.00  34790.24

     local   stress (kbar) -18622.26    134.46      6.01
                              134.46 -18666.28     -2.40
                                6.01     -2.40 -18761.09

     nonloc. stress (kbar)   5224.28     18.09      0.00
                               18.09   5199.57      0.00
                                0.00      0.00   5053.04

     hartree stress (kbar)  17313.24    -73.07      6.53
                              -73.07  17376.70     -6.39
                                6.53     -6.39  17410.76

     exc-cor stress (kbar)  -4570.64      2.27      0.24
                                2.27  -4571.44     -0.36
                                0.24     -0.36  -4573.73

     corecor stress (kbar)   -465.82      0.26      0.26
                                0.26   -466.00     -0.30
                                0.26     -0.30   -467.37

     ewald   stress (kbar) -34407.47   -166.23      0.00
                             -166.23 -34303.26      0.00
                                0.00      0.00 -34181.16

     hubbard stress (kbar)      0.00      0.00      0.00
                                0.00      0.00      0.00
                                0.00      0.00      0.00

     DFT-D   stress (kbar)      0.00      0.00      0.00
                                0.00      0.00      0.00
                                0.00      0.00      0.00

     XDM     stress (kbar)      0.00      0.00      0.00
                                0.00      0.00      0.00
                                0.00      0.00      0.00

     dft-nl  stress (kbar)      0.00      0.00      0.00
                                0.00      0.00      0.00
                                0.00      0.00      0.00

     TS-vdW  stress (kbar)      0.00      0.00      0.00
                                0.00      0.00      0.00
                                0.00      0.00      0.00

[...]

                                0.00      0.00      0.00

     Writing all to output data dir new_calculations/myprefix.save/

     General routines

     Parallel routines

     PAW routines

   This run was terminated on:   0: 8:59  21May2023

   JOB DONE.