     Program PWSCF v.7.0 starts on 21May2023 at  5:10: 0

     Reading input from espresso_14091.pwi
Warning: card &CELL ignored
Warning: card / ignored

     Current dimensions of program PWSCF are:
     Max number of different atomic species (ntypx) = 10
     Max number of k-points (npk) =  40000
     Max angular momentum in pseudopotentials (lmaxx) =  4
     file In.pbe-dn-rrkjus_psl.0.2.2.UPF: wavefunction(s)  5S renormalized

     gamma-point specific algorithms are used
     Message from routine setup:
     using ibrav=0 with symmetry is DISCOURAGED, use correct ibrav instead

     Subspace diagonalization in iterative solution of the eigenvalue problem:
     a serial algorithm will be used

     Using Slab Decomposition

     bravais-lattice index     =            0
     lattice parameter (alat)  =       8.8332  a.u.
     unit-cell volume          =    2004.8269 (a.u.)^3
     number of atoms/cell      =           12
     number of atomic types    =            3
     number of electrons       =       168.00
     number of Kohn-Sham states=          101
     kinetic-energy cutoff     =      30.0000  Ry
     charge density cutoff     =     240.0000  Ry
     scf convergence threshold =      1.0E-06
     mixing beta               =       0.7000
     number of iterations used =            8  plain     mixing
     Exchange-correlation= PBE
                           (   1   4   3   4   0   0   0)

     celldm(1)=   8.833185  celldm(2)=   0.000000  celldm(3)=   0.000000
     celldm(4)=   0.000000  celldm(5)=   0.000000  celldm(6)=   0.000000

     crystal axes: (cart. coord. in units of alat)
               a(1) = (   1.000000   0.000000   0.000000 )
               a(2) = (   0.000000   1.598106   0.000000 )
               a(3) = (   0.000000   0.000000   1.820201 )

     reciprocal axes: (cart. coord. in units 2 pi/alat)
               b(1) = (  1.000000  0.000000  0.000000 )
               b(2) = (  0.000000  0.625741  0.000000 )
               b(3) = (  0.000000  0.000000  0.549390 )

     PseudoPot. # 1 for Ca read from file:
     /home/pragov/projects/rrg-bengioy-ad/pragov/crystal_structure_design/SSSP/Ca_pbe_v1.uspp.F.UPF
     MD5 check sum: 403a4c14b9e4d4dfdc3024c9a3812218
     Pseudo is Ultrasoft + core correction, Zval = 10.0
     Generated by new atomic code, or converted to UPF format
     Using radial grid of  845 points,  6 beta functions with:
                l(1) =   0
                l(2) =   0
                l(3) =   1
                l(4) =   1
                l(5) =   2
                l(6) =   2
     Q(r) pseudized with  8 coefficients,  rinner =    1.500   1.500   1.500
                                                       1.500   1.500

     PseudoPot. # 2 for In read from file:
     /home/pragov/projects/rrg-bengioy-ad/pragov/crystal_structure_design/SSSP/In.pbe-dn-rrkjus_psl.0.2.2.UPF
     MD5 check sum: 25e7c42c3b55b68f4bf926be2e7201a4
     Pseudo is Ultrasoft + core correction, Zval = 13.0
     Generated using "atomic" code by A. Dal Corso  v.5.0.99 svn rev. 10869
     Using radial grid of 1241 points,  6 beta functions with:
                l(1) =   0
                l(2) =   0
                l(3) =   1
                l(4) =   1
                l(5) =   2
                l(6) =   2
     Q(r) pseudized with 0 coefficients

     PseudoPot. # 3 for Au read from file:
     /home/pragov/projects/rrg-bengioy-ad/pragov/crystal_structure_design/SSSP/Au_ONCV_PBE-1.0.oncvpsp.upf
     MD5 check sum: d14007822ba0e19f0206237467fc06c2
     Pseudo is Norm-conserving, Zval = 19.0
     Generated using ONCVPSP code by D. R. Hamann
     Using radial grid of 1278 points,  8 beta functions with:
                l(1) =   0
                l(2) =   0
                l(3) =   1
                l(4) =   1
                l(5) =   2
                l(6) =   2
                l(7) =   3
                l(8) =   3

     atomic species   valence    mass     pseudopotential
        Ca            10.00    40.07800     Ca( 1.00)
        In            13.00   114.81800     In( 1.00)
        Au            19.00   196.96657     Au( 1.00)

      8 Sym. Ops., with inversion, found ( 6 have fractional translation)

                                    s                        frac. trans.

      isym =  1     identity

 cryst.   s( 1) = (     1          0          0      )
                  (     0          1          0      )
                  (     0          0          1      )

 cart.    s( 1) = (  1.0000000  0.0000000  0.0000000 )
                  (  0.0000000  1.0000000  0.0000000 )
                  (  0.0000000  0.0000000  1.0000000 )

      isym =  2     180 deg rotation - cart. axis [0,0,1]

 cryst.   s( 2) = (    -1          0          0      )    f =(  0.0000000 )
                  (     0         -1          0      )       (  0.5000000 )
                  (     0          0          1      )       (  0.5000000 )

 cart.    s( 2) = ( -1.0000000  0.0000000  0.0000000 )    f =(  0.0000000 )
                  (  0.0000000 -1.0000000  0.0000000 )       (  0.7990532 )
                  (  0.0000000  0.0000000  1.0000000 )       (  0.9101003 )

[...]

      isym =  4     180 deg rotation - cart. axis [1,0,0]

[...]

      isym =  5     inversion

 cryst.   s( 5) = (    -1          0          0      )
                  (     0         -1          0      )
                  (     0          0         -1      )

 cart.    s( 5) = ( -1.0000000  0.0000000  0.0000000 )
                  (  0.0000000 -1.0000000  0.0000000 )
                  (  0.0000000  0.0000000 -1.0000000 )

      isym =  6     inv. 180 deg rotation - cart. axis [0,0,1]

[...]

      isym =  8     inv. 180 deg rotation - cart. axis [1,0,0]

 cryst.   s( 8) = (    -1          0          0      )    f =(  0.5000000 )
                  (     0          1          0      )       (  0.0000000 )
                  (     0          0          1      )       (  0.0000000 )

 cart.    s( 8) = ( -1.0000000  0.0000000  0.0000000 )    f =(  0.5000000 )
                  (  0.0000000  1.0000000  0.0000000 )       (  0.0000000 )
                  (  0.0000000  0.0000000  1.0000000 )       (  0.0000000 )

   Cartesian axes

     site n.     atom                  positions (alat units)
         1           Ca  tau(   1) = (   0.7500000   1.5636593   1.2481316  )
         2           Ca  tau(   2) = (   0.2500000   0.0344472   0.5720690  )
         3           Ca  tau(   3) = (   0.7500000   0.7646060   1.4821693  )
         4           Ca  tau(   4) = (   0.2500000   0.8335004   0.3380313  )
         5           In  tau(   5) = (   0.7500000   0.5415903   0.7909682  )
         6           In  tau(   6) = (   0.2500000   0.2574629   1.7010685  )
         7           In  tau(   7) = (   0.2500000   1.0565162   1.0292324  )
         8           In  tau(   8) = (   0.7500000   1.3406435   0.1191321  )
         9           Au  tau(   9) = (   0.2500000   1.2351046   1.6069495  )
        10           Au  tau(  10) = (   0.2500000   0.4360513   1.1233514  )
        11           Au  tau(  11) = (   0.7500000   1.1620551   0.6968492  )
        12           Au  tau(  12) = (   0.7500000   0.3630019   0.2132511  )

   Crystallographic axes

     site n.     atom                  positions (cryst. coord.)
         1           Ca  tau(   1) = (  0.7500000  0.9784450  0.6857110  )
         2           Ca  tau(   2) = (  0.2500000  0.0215550  0.3142890  )
         3           Ca  tau(   3) = (  0.7500000  0.4784450  0.8142890  )
         4           Ca  tau(   4) = (  0.2500000  0.5215550  0.1857110  )
         5           In  tau(   5) = (  0.7500000  0.3388950  0.4345500  )
         6           In  tau(   6) = (  0.2500000  0.1611050  0.9345500  )
         7           In  tau(   7) = (  0.2500000  0.6611050  0.5654500  )
         8           In  tau(   8) = (  0.7500000  0.8388950  0.0654500  )
         9           Au  tau(   9) = (  0.2500000  0.7728550  0.8828420  )
        10           Au  tau(  10) = (  0.2500000  0.2728550  0.6171580  )
        11           Au  tau(  11) = (  0.7500000  0.7271450  0.3828420  )
        12           Au  tau(  12) = (  0.7500000  0.2271450  0.1171580  )

     number of k points=     1  Methfessel-Paxton smearing, width (Ry)=  0.0010
                       cart. coord. in units 2pi/alat
        k(    1) = (   0.0000000   0.0000000   0.0000000), wk =   2.0000000

                       cryst. coord.
        k(    1) = (   0.0000000   0.0000000   0.0000000), wk =   2.0000000

     Initial potential from superposition of free atoms

     starting charge     167.9629, renormalised to     168.0000
     Starting wfcs are  116 randomized atomic wfcs

     Self-consistent Calculation

     iteration #  1     ecut=    30.00 Ry     beta= 0.70
     Davidson diagonalization with overlap

     ethr =  1.00E-02,  avg # of iterations =  3.0

     Threshold (ethr) on eigenvalues was too large:
     Diagonalizing with lowered threshold

     Davidson diagonalization with overlap

[...]

     total energy              =   -1977.46966384 Ry
     estimated scf accuracy    <       0.24608037 Ry

[...]

     total energy              =   -1977.54820560 Ry
     estimated scf accuracy    <       0.00000216 Ry

     iteration # 10     ecut=    30.00 Ry     beta= 0.70
     Davidson diagonalization with overlap

     ethr =  1.29E-09,  avg # of iterations =  4.0

     End of self-consistent calculation

          k = 0.0000 0.0000 0.0000 (  2790 PWs)   bands (ev):

   -95.7331 -95.7326 -95.7317 -95.7315 -46.8564 -46.8555 -46.8548 -46.8539
   -46.7348 -46.7338 -46.7302 -46.7295 -46.5930 -46.5913 -46.5907 -46.5885
   -29.7759 -29.7715 -29.7700 -29.7658 -10.9200 -10.9122 -10.8913 -10.8880
   -10.8583 -10.8425 -10.8237 -10.8199 -10.6977 -10.6897 -10.6770 -10.6676
    -3.2895  -3.2870  -3.2740  -3.2568  -3.2372  -3.2319  -3.2279  -3.2269
    -3.2262  -3.2226  -3.2215  -3.2204  -3.1904  -3.1828  -3.1813  -3.1786
    -3.1341  -3.1297  -3.0549  -3.0526   2.8438   4.0848   4.5995   5.1989
     6.0047   6.1407   6.1584   6.1935   6.3696   6.4797   6.5002   6.5991
     6.6377   6.6542   6.6545   6.6726   6.7407   6.7905   6.8052   6.8273
     6.8589   6.8885   6.9385   7.4434   7.8601   8.3020   8.7322  10.0544
    10.6039  10.8348  11.4942  11.7032  12.0545  12.3870  12.4948  13.1131
    13.3388  13.6513  13.8943  13.9014  13.9329  14.1613  14.3434  14.3717
    14.4843  14.6563  14.9197  14.9773  15.2283

     occupation numbers
     1.0000   1.0000   1.0000   1.0000   1.0000   1.0000   1.0000   1.0000
     1.0000   1.0000   1.0000   1.0000   1.0000   1.0000   1.0000   1.0000
     1.0000   1.0000   1.0000   1.0000   1.0000   1.0000   1.0000   1.0000
     1.0000   1.0000   1.0000   1.0000   1.0000   1.0000   1.0000   1.0000
     1.0000   1.0000   1.0000   1.0000   1.0000   1.0000   1.0000   1.0000
     1.0000   1.0000   1.0000   1.0000   1.0000   1.0000   1.0000   1.0000
     1.0000   1.0000   1.0000   1.0000   1.0000   1.0000   1.0000   1.0000
     1.0000   1.0000   1.0000   1.0000   1.0000   1.0000   1.0000   1.0000
     1.0000   1.0000   1.0000   1.0000   1.0000   1.0000   1.0000   1.0000
     1.0000   1.0000   1.0000   1.0000   1.0000   1.0000   1.0000   1.0000
     1.0000   1.0000   1.0000   1.0000  -0.0000  -0.0000  -0.0000  -0.0000
    -0.0000  -0.0000  -0.0000  -0.0000  -0.0000  -0.0000  -0.0000  -0.0000
    -0.0000  -0.0000  -0.0000  -0.0000  -0.0000

     the Fermi energy is    11.8883 ev

!    total energy              =   -1977.54820565 Ry
     estimated scf accuracy    <       0.00000086 Ry
     smearing contrib. (-TS)   =       0.00000000 Ry
     internal energy E=F+TS    =   -1977.54820565 Ry

     The total energy is F=E-TS. E is the sum of the following terms:
     one-electron contribution =    -912.26373661 Ry
     hartree contribution      =     525.14999063 Ry
     xc contribution           =    -339.52019055 Ry
     ewald contribution        =   -1250.91426913 Ry

     convergence has been achieved in  10 iterations

     Forces acting on atoms (cartesian axes, Ry/au):

     atom    1 type  1   force =     0.00000000    0.00552175    0.01420146
     atom    2 type  1   force =     0.00000000   -0.00552175   -0.01420146
     atom    3 type  1   force =     0.00000000    0.00552175   -0.01420146
     atom    4 type  1   force =     0.00000000   -0.00552175    0.01420146
     atom    5 type  2   force =     0.00000000    0.02728004   -0.02381051
     atom    6 type  2   force =     0.00000000   -0.02728004   -0.02381051
     atom    7 type  2   force =     0.00000000   -0.02728004    0.02381051
     atom    8 type  2   force =    -0.00000000    0.02728004    0.02381051
     atom    9 type  3   force =     0.00000000    0.01306286   -0.00248190
     atom   10 type  3   force =     0.00000000    0.01306286    0.00248190
     atom   11 type  3   force =     0.00000000   -0.01306286   -0.00248190
     atom   12 type  3   force =     0.00000000   -0.01306286    0.00248190
     The non-local contrib.  to forces
     atom    1 type  1   force =     0.00000000    0.00116304    0.04834376
     atom    2 type  1   force =     0.00000000   -0.00116304   -0.04834376
     atom    3 type  1   force =     0.00000000    0.00116304   -0.04834376
     atom    4 type  1   force =     0.00000000   -0.00116304    0.04834376
     atom    5 type  2   force =     0.00000000   -0.13178755    0.18739551
     atom    6 type  2   force =    -0.00000000    0.13178755    0.18739551
     atom    7 type  2   force =     0.00000000    0.13178755   -0.18739551
     atom    8 type  2   force =     0.00000000   -0.13178755   -0.18739551
     atom    9 type  3   force =     0.00000000   -0.07107839    0.08742156
     atom   10 type  3   force =     0.00000000   -0.07107839   -0.08742156
     atom   11 type  3   force =     0.00000000    0.07107839    0.08742156
     atom   12 type  3   force =     0.00000000    0.07107839   -0.08742156
     The ionic contribution  to forces
     atom    1 type  1   force =     0.00000000    0.52240972   -2.16711902
     atom    2 type  1   force =     0.00000000   -0.52240972    2.16711902
     atom    3 type  1   force =    -0.00000000    0.52240972    2.16711902
     atom    4 type  1   force =    -0.00000000   -0.52240972   -2.16711902
     atom    5 type  2   force =    -0.00000000   -3.81540320   -0.84269641
     atom    6 type  2   force =    -0.00000000    3.81540320   -0.84269641
     atom    7 type  2   force =    -0.00000000    3.81540320    0.84269641
     atom    8 type  2   force =    -0.00000000   -3.81540320    0.84269641
     atom    9 type  3   force =    -0.00000000   -6.20873606   -0.80101953
     atom   10 type  3   force =     0.00000000   -6.20873606    0.80101953
     atom   11 type  3   force =     0.00000000    6.20873606   -0.80101953
     atom   12 type  3   force =     0.00000000    6.20873606    0.80101953
     The local contribution  to forces
     atom    1 type  1   force =    -0.00000202   -0.51823343    2.13389020
     atom    2 type  1   force =     0.00000216    0.51852972   -2.13402362
     atom    3 type  1   force =    -0.00000311   -0.51800282   -2.13448899
     atom    4 type  1   force =    -0.00000182    0.51789947    2.13458857
     atom    5 type  2   force =    -0.00000738    3.97345504    0.62978655
     atom    6 type  2   force =    -0.00001397   -3.97020739    0.63023647
     atom    7 type  2   force =     0.00000636   -3.97374388   -0.63033176
     atom    8 type  2   force =    -0.00000067    3.97021169   -0.62957811
     atom    9 type  3   force =     0.00001498    6.28950100    0.71229918
     atom   10 type  3   force =    -0.00002221    6.29645292   -0.71323729
     atom   11 type  3   force =    -0.00000697   -6.29635520    0.71167784
     atom   12 type  3   force =     0.00000472   -6.28950981   -0.71073971
     The core correction contribution to forces
     atom    1 type  1   force =    -0.00000020    0.00011450   -0.00146162
     atom    2 type  1   force =     0.00000026   -0.00011218    0.00146234
     atom    3 type  1   force =    -0.00000015    0.00011433    0.00145779
     atom    4 type  1   force =    -0.00000024   -0.00011485   -0.00145767
     atom    5 type  2   force =    -0.00000080    0.00251980    0.00170871
     atom    6 type  2   force =    -0.00000048   -0.00249441    0.00172453
     atom    7 type  2   force =     0.00000014   -0.00252133   -0.00171668
     atom    8 type  2   force =    -0.00000069    0.00249451   -0.00171404
     atom    9 type  3   force =     0.00000000    0.00000000    0.00000000
     atom   10 type  3   force =     0.00000000    0.00000000    0.00000000
     atom   11 type  3   force =     0.00000000    0.00000000    0.00000000
     atom   12 type  3   force =     0.00000000    0.00000000    0.00000000
     The Hubbard contrib.    to forces
     atom    1 type  1   force =     0.00000000    0.00000000    0.00000000
     atom    2 type  1   force =     0.00000000    0.00000000    0.00000000
     atom    3 type  1   force =     0.00000000    0.00000000    0.00000000
     atom    4 type  1   force =     0.00000000    0.00000000    0.00000000
     atom    5 type  2   force =     0.00000000    0.00000000    0.00000000
     atom    6 type  2   force =     0.00000000    0.00000000    0.00000000
     atom    7 type  2   force =     0.00000000    0.00000000    0.00000000
     atom    8 type  2   force =     0.00000000    0.00000000    0.00000000
     atom    9 type  3   force =     0.00000000    0.00000000    0.00000000
     atom   10 type  3   force =     0.00000000    0.00000000    0.00000000
     atom   11 type  3   force =     0.00000000    0.00000000    0.00000000
     atom   12 type  3   force =     0.00000000    0.00000000    0.00000000
     The SCF correction term to forces
     atom    1 type  1   force =    -0.00000102    0.00007357    0.00055754
     atom    2 type  1   force =     0.00000183   -0.00036399   -0.00041313
     atom    3 type  1   force =    -0.00000075   -0.00016494    0.00005750
     atom    4 type  1   force =     0.00000057    0.00026706   -0.00015824
     atom    5 type  2   force =     0.00001618   -0.00164884   -0.00003854
     atom    6 type  2   force =     0.00001923   -0.00194531   -0.00043539
     atom    7 type  2   force =    -0.00001247    0.00199730    0.00063310
     atom    8 type  2   force =     0.00001183    0.00193594   -0.00027172
     atom    9 type  3   force =    -0.00001644    0.00356866   -0.00114791
     atom   10 type  3   force =     0.00001848   -0.00376609    0.00219968
     atom   11 type  3   force =     0.00000638    0.00366832   -0.00060472
     atom   12 type  3   force =    -0.00000289   -0.00355606   -0.00046258

     Total force =     0.082948     Total SCF correction =     0.008684
     SCF correction compared to forces is large: reduce conv_thr to get better values

     Computing stress (Cartesian axis) and pressure

          total   stress  (Ry/bohr**3)                   (kbar)     P=     -245.93
  -0.00154959   0.00000000   0.00000000         -227.95        0.00        0.00
   0.00000000  -0.00143350   0.00000000            0.00     -210.87        0.00
   0.00000000   0.00000000  -0.00203240            0.00        0.00     -298.98

     kinetic stress (kbar)  25865.27      0.00      0.00
                                0.00  26082.32      0.00
                                0.00      0.00  25782.62

     local   stress (kbar)  -9738.96      0.00     -0.00
                                0.00  -3560.67      0.04
                               -0.00      0.04  -8493.47

     nonloc. stress (kbar)   4543.50      0.00      0.00
                                0.00   4498.71      0.00
                                0.00      0.00   4487.39

     hartree stress (kbar)  13867.72      0.00     -0.00
                                0.00  11427.48     -0.02
                               -0.00     -0.02  13237.92

     exc-cor stress (kbar)   3437.06      0.00      0.00
                                0.00   3432.40     -0.00
                                0.00     -0.00   3432.55

     corecor stress (kbar)  -9084.21     -0.00      0.00
                               -0.00  -9084.93     -0.00
                                0.00     -0.00  -9084.09

     ewald   stress (kbar) -29118.32     -0.00      0.00
                               -0.00 -33006.19     -0.00
                                0.00     -0.00 -29661.89

     hubbard stress (kbar)      0.00      0.00      0.00
                                0.00      0.00      0.00
                                0.00      0.00      0.00

     DFT-D   stress (kbar)      0.00      0.00      0.00
                                0.00      0.00      0.00
                                0.00      0.00      0.00

     XDM     stress (kbar)      0.00      0.00      0.00
                                0.00      0.00      0.00
                                0.00      0.00      0.00

     dft-nl  stress (kbar)      0.00      0.00      0.00
                                0.00      0.00      0.00
                                0.00      0.00      0.00

     TS-vdW  stress (kbar)      0.00      0.00      0.00
                                0.00      0.00      0.00
                                0.00      0.00      0.00

[...]

                                0.00      0.00      0.00

     Writing all to output data dir new_calculations/myprefix.save/

     General routines

     Parallel routines

   This run was terminated on:   5:10:22  21May2023

   JOB DONE.