     Program PWSCF v.7.0 starts on 21May2023 at 11:32:32

     Reading input from espresso_25531.pwi
Warning: card &CELL ignored
Warning: card / ignored

     Current dimensions of program PWSCF are:
     Max number of different atomic species (ntypx) = 10
     Max number of k-points (npk) =  40000
     Max angular momentum in pseudopotentials (lmaxx) =  4

     gamma-point specific algorithms are used
     Message from routine setup:
     using ibrav=0 with symmetry is DISCOURAGED, use correct ibrav instead

     Subspace diagonalization in iterative solution of the eigenvalue problem:
     a serial algorithm will be used

     Using Slab Decomposition

     bravais-lattice index     =            0
     lattice parameter (alat)  =       8.1546  a.u.
     unit-cell volume          =    1527.0178 (a.u.)^3
     number of atoms/cell      =           12
     number of atomic types    =            3
     number of electrons       =       124.00
     number of Kohn-Sham states=           74
     kinetic-energy cutoff     =      30.0000  Ry
     charge density cutoff     =     240.0000  Ry
     scf convergence threshold =      1.0E-06
     mixing beta               =       0.7000
     number of iterations used =            8  plain     mixing
     Exchange-correlation=  SLA  PW   PBX  PBC
                           (   1   4   3   4   0   0   0)

     celldm(1)=   8.154610  celldm(2)=   0.000000  celldm(3)=   0.000000
     celldm(4)=   0.000000  celldm(5)=   0.000000  celldm(6)=   0.000000

     crystal axes: (cart. coord. in units of alat)
               a(1) = (   1.000000   0.000000   0.000000 )
               a(2) = (   0.000000   1.626944   0.000000 )
               a(3) = (   0.000000   0.000000   1.730859 )

     reciprocal axes: (cart. coord. in units 2 pi/alat)
               b(1) = (  1.000000  0.000000  0.000000 )
               b(2) = (  0.000000  0.614649  0.000000 )
               b(3) = (  0.000000  0.000000  0.577748 )

     PseudoPot. # 1 for Y  read from file:
     /home/pragov/projects/rrg-bengioy-ad/pragov/crystal_structure_design/SSSP/Y_pbe_v1.uspp.F.UPF
     MD5 check sum: 2cf71db95cafeb975fc457bd7f14888e
     Pseudo is Ultrasoft + core correction, Zval = 11.0
     Generated by new atomic code, or converted to UPF format
     Using radial grid of  885 points,  6 beta functions with:
                l(1) =   0
                l(2) =   0
                l(3) =   1
                l(4) =   1
                l(5) =   2
                l(6) =   2
     Q(r) pseudized with  6 coefficients,  rinner =    1.200   1.200   1.200
                                                       1.200   1.200

     PseudoPot. # 2 for Si read from file:
     /home/pragov/projects/rrg-bengioy-ad/pragov/crystal_structure_design/SSSP/Si.pbe-n-rrkjus_psl.1.0.0.UPF
     MD5 check sum: 0b0bb1205258b0d07b9f9672cf965d36
     Pseudo is Ultrasoft + core correction, Zval =  4.0
     Generated using "atomic" code by A. Dal Corso  v.5.1
     Using radial grid of 1141 points,  6 beta functions with:
                l(1) =   0
                l(2) =   0
                l(3) =   1
                l(4) =   1
                l(5) =   2
                l(6) =   2
     Q(r) pseudized with 0 coefficients

     PseudoPot. # 3 for Pt read from file:
     /home/pragov/projects/rrg-bengioy-ad/pragov/crystal_structure_design/SSSP/pt_pbe_v1.4.uspp.F.UPF
     MD5 check sum: f09d6de1a584b5a045c4fc126da2d0c4
     Pseudo is Ultrasoft + core correction, Zval = 16.0
     Generated by new atomic code, or converted to UPF format
     Using radial grid of  985 points,  6 beta functions with:
                l(1) =   0
                l(2) =   0
                l(3) =   1
                l(4) =   1
                l(5) =   2
                l(6) =   2
     Q(r) pseudized with  8 coefficients,  rinner =    1.300   1.300   1.300
                                                       1.300   1.300

     atomic species   valence    mass     pseudopotential
        Y             11.00    88.90584     Y ( 1.00)
        Si             4.00    28.08500     Si( 1.00)
        Pt            16.00   195.08400     Pt( 1.00)

      8 Sym. Ops., with inversion, found ( 6 have fractional translation)

                                    s                        frac. trans.

      isym =  1     identity

 cryst.   s( 1) = (     1          0          0      )
                  (     0          1          0      )
                  (     0          0          1      )

 cart.    s( 1) = (  1.0000000  0.0000000  0.0000000 )
                  (  0.0000000  1.0000000  0.0000000 )
                  (  0.0000000  0.0000000  1.0000000 )

      isym =  2     180 deg rotation - cart. axis [0,0,1]

 cryst.   s( 2) = (    -1          0          0      )    f =(  0.0000000 )
                  (     0         -1          0      )       (  0.5000000 )
                  (     0          0          1      )       ( -0.5000000 )

 cart.    s( 2) = ( -1.0000000  0.0000000  0.0000000 )    f =(  0.0000000 )
                  (  0.0000000 -1.0000000  0.0000000 )       (  0.8134721 )
                  (  0.0000000  0.0000000  1.0000000 )       ( -0.8654297 )

[...]

      isym =  4     180 deg rotation - cart. axis [1,0,0]

[...]

      isym =  5     inversion

 cryst.   s( 5) = (    -1          0          0      )
                  (     0         -1          0      )
                  (     0          0         -1      )

 cart.    s( 5) = ( -1.0000000  0.0000000  0.0000000 )
                  (  0.0000000 -1.0000000  0.0000000 )
                  (  0.0000000  0.0000000 -1.0000000 )

      isym =  6     inv. 180 deg rotation - cart. axis [0,0,1]

[...]

      isym =  8     inv. 180 deg rotation - cart. axis [1,0,0]

 cryst.   s( 8) = (    -1          0          0      )    f =(  0.5000000 )
                  (     0          1          0      )       (  0.0000000 )
                  (     0          0          1      )       (  0.0000000 )

 cart.    s( 8) = ( -1.0000000  0.0000000  0.0000000 )    f =(  0.5000000 )
                  (  0.0000000  1.0000000  0.0000000 )       (  0.0000000 )
                  (  0.0000000  0.0000000  1.0000000 )       (  0.0000000 )

   Cartesian axes

     site n.     atom                  positions (alat units)
         1           Y   tau(   1) = (   0.2500000   1.6232559   0.5160038  )
         2           Y   tau(   2) = (   0.2500000   0.8097838   0.3494259  )
         3           Y   tau(   3) = (   0.7500000   0.0036883   1.2148555  )
         4           Y   tau(   4) = (   0.7500000   0.8171604   1.3814334  )
         5           Si  tau(   5) = (   0.2500000   0.5099803   1.0167293  )
         6           Si  tau(   6) = (   0.2500000   1.3234524   1.5795597  )
         7           Si  tau(   7) = (   0.7500000   1.1169639   0.7141301  )
         8           Si  tau(   8) = (   0.7500000   0.3034918   0.1512996  )
         9           Pt  tau(   9) = (   0.2500000   0.3241280   1.5838522  )
        10           Pt  tau(  10) = (   0.2500000   1.1376001   1.0124367  )
        11           Pt  tau(  11) = (   0.7500000   1.3028163   0.1470071  )
        12           Pt  tau(  12) = (   0.7500000   0.4893441   0.7184226  )

   Crystallographic axes

     site n.     atom                  positions (cryst. coord.)
         1           Y   tau(   1) = (  0.2500000  0.9977330  0.2981200  )
         2           Y   tau(   2) = (  0.2500000  0.4977330  0.2018800  )
         3           Y   tau(   3) = (  0.7500000  0.0022670  0.7018800  )
         4           Y   tau(   4) = (  0.7500000  0.5022670  0.7981200  )
         5           Si  tau(   5) = (  0.2500000  0.3134590  0.5874130  )
         6           Si  tau(   6) = (  0.2500000  0.8134590  0.9125870  )
         7           Si  tau(   7) = (  0.7500000  0.6865410  0.4125870  )
         8           Si  tau(   8) = (  0.7500000  0.1865410  0.0874130  )
         9           Pt  tau(   9) = (  0.2500000  0.1992250  0.9150670  )
        10           Pt  tau(  10) = (  0.2500000  0.6992250  0.5849330  )
        11           Pt  tau(  11) = (  0.7500000  0.8007750  0.0849330  )
        12           Pt  tau(  12) = (  0.7500000  0.3007750  0.4150670  )

     number of k points=     1  Methfessel-Paxton smearing, width (Ry)=  0.0010
                       cart. coord. in units 2pi/alat
        k(    1) = (   0.0000000   0.0000000   0.0000000), wk =   2.0000000

                       cryst. coord.
        k(    1) = (   0.0000000   0.0000000   0.0000000), wk =   2.0000000

     Check: negative core charge=   -0.000003

     Initial potential from superposition of free atoms

     starting charge     121.9798, renormalised to     124.0000

     negative rho (up, down):  9.156E-01 0.000E+00
     Starting wfcs are  116 randomized atomic wfcs

     Self-consistent Calculation

     iteration #  1     ecut=    30.00 Ry     beta= 0.70
     Davidson diagonalization with overlap

     ethr =  1.00E-02,  avg # of iterations =  2.0

     negative rho (up, down):  8.198E-01 0.000E+00

     total energy              =   -1232.86312154 Ry
     estimated scf accuracy    <      10.14932788 Ry

[...]

     c_bands:  2 eigenvalues not converged
     ethr =  2.49E-05,  avg # of iterations = 20.0

[...]

     total energy              =   -1239.25398254 Ry
     estimated scf accuracy    <       0.00000435 Ry

     iteration # 16     ecut=    30.00 Ry     beta= 0.70
     Davidson diagonalization with overlap

     ethr =  8.24E-10,  avg # of iterations =  2.0

[...]

     End of self-consistent calculation

          k = 0.0000 0.0000 0.0000 (  2113 PWs)   bands (ev):

   -39.2514 -39.2506 -39.2494 -39.2489 -39.0102 -39.0094 -39.0088 -39.0082
   -38.7505 -38.7493 -38.7467 -38.7460 -27.7268 -27.7104 -27.7003 -27.6870
    -8.1448  -8.0929  -7.8967  -7.8474  -7.7908  -7.7591  -7.7166  -7.6899
    -7.6782  -7.6427  -7.6184  -7.5770   3.8961   5.3891   5.6644   5.8179
     8.3459   8.7830   8.9248   9.0577   9.3094   9.3370   9.6726   9.7460
     9.7488   9.8381   9.9903  10.1953  10.1974  10.4159  10.4847  10.5083
    10.7301  10.8361  10.8804  11.2639  11.3138  11.5475  11.6111  12.8817
    13.0361  13.2432  13.3834  13.6745  14.4711  15.0830  15.2309  15.2435
    15.9960  16.3501  16.5215  16.6877  16.8026  16.9842  17.0847  17.1066
    17.1397  17.2796

     occupation numbers
     1.0000   1.0000   1.0000   1.0000   1.0000   1.0000   1.0000   1.0000
     1.0000   1.0000   1.0000   1.0000   1.0000   1.0000   1.0000   1.0000
     1.0000   1.0000   1.0000   1.0000   1.0000   1.0000   1.0000   1.0000
     1.0000   1.0000   1.0000   1.0000   1.0000   1.0000   1.0000   1.0000
     1.0000   1.0000   1.0000   1.0000   1.0000   1.0000   1.0000   1.0000
     1.0000   1.0000   1.0000   1.0000   1.0000   1.0000   1.0000   1.0000
     1.0000   1.0000   1.0000   1.0000   1.0000   1.0000   1.0000   1.0000
     1.0000   1.0000   1.0000   1.0000   1.0000   1.0000  -0.0000  -0.0000
    -0.0000  -0.0000  -0.0000  -0.0000  -0.0000  -0.0000  -0.0000  -0.0000
    -0.0000  -0.0000

     the Fermi energy is    15.1552 ev

!    total energy              =   -1239.25398244 Ry
     estimated scf accuracy    <       0.00000075 Ry
     smearing contrib. (-TS)   =       0.00000000 Ry
     internal energy E=F+TS    =   -1239.25398244 Ry

     The total energy is F=E-TS. E is the sum of the following terms:
     one-electron contribution =    -288.16291140 Ry
     hartree contribution      =     212.73073727 Ry
     xc contribution           =    -340.53091675 Ry
     ewald contribution        =    -823.29089156 Ry

     convergence has been achieved in  16 iterations

     negative rho (up, down):  8.607E-01 0.000E+00

     Forces acting on atoms (cartesian axes, Ry/au):

     atom    1 type  1   force =     0.00000000    0.01812506    0.00654707
     atom    2 type  1   force =     0.00000000    0.01812506   -0.00654707
     atom    3 type  1   force =     0.00000000   -0.01812506   -0.00654707
     atom    4 type  1   force =     0.00000000   -0.01812506    0.00654707
     atom    5 type  2   force =     0.00000000    0.01456698    0.07143383
     atom    6 type  2   force =     0.00000000    0.01456698   -0.07143383
     atom    7 type  2   force =     0.00000000   -0.01456698   -0.07143383
     atom    8 type  2   force =     0.00000000   -0.01456698    0.07143383
     atom    9 type  3   force =     0.00000000   -0.01845204   -0.00288339
     atom   10 type  3   force =     0.00000000   -0.01845204    0.00288339
     atom   11 type  3   force =     0.00000000    0.01845204    0.00288339
     atom   12 type  3   force =    -0.00000000    0.01845204   -0.00288339
     The non-local contrib.  to forces
     atom    1 type  1   force =     0.00000000    0.02991543   -0.11592964
     atom    2 type  1   force =    -0.00000000    0.02991543    0.11592964
     atom    3 type  1   force =     0.00000000   -0.02991543    0.11592964
     atom    4 type  1   force =    -0.00000000   -0.02991543   -0.11592964
     atom    5 type  2   force =     0.00000000    0.01181507   -0.06094444
     atom    6 type  2   force =     0.00000000    0.01181507    0.06094444
     atom    7 type  2   force =     0.00000000   -0.01181507    0.06094444
     atom    8 type  2   force =    -0.00000000   -0.01181507   -0.06094444
     atom    9 type  3   force =     0.00000000   -0.00222574    0.10368146
     atom   10 type  3   force =     0.00000000   -0.00222574   -0.10368146
     atom   11 type  3   force =     0.00000000    0.00222574   -0.10368146
     atom   12 type  3   force =     0.00000000    0.00222574    0.10368146
     The ionic contribution  to forces
     atom    1 type  1   force =     0.00000000    0.64571641    2.68193624
     atom    2 type  1   force =    -0.00000000    0.64571641   -2.68193624
     atom    3 type  1   force =    -0.00000000   -0.64571641   -2.68193624
     atom    4 type  1   force =    -0.00000000   -0.64571641    2.68193624
     atom    5 type  2   force =    -0.00000000   -1.08038743    0.40362435
     atom    6 type  2   force =    -0.00000000   -1.08038743   -0.40362435
     atom    7 type  2   force =     0.00000000    1.08038743   -0.40362435
     atom    8 type  2   force =     0.00000000    1.08038743    0.40362435
     atom    9 type  3   force =    -0.00000000    2.22469859   -0.77775734
     atom   10 type  3   force =     0.00000000    2.22469859    0.77775734
     atom   11 type  3   force =    -0.00000000   -2.22469859    0.77775734
     atom   12 type  3   force =     0.00000000   -2.22469859   -0.77775734
     The local contribution  to forces
     atom    1 type  1   force =     0.00001700   -0.65561831   -2.56976265
     atom    2 type  1   force =    -0.00000440   -0.65536363    2.56707176
     atom    3 type  1   force =    -0.00001710    0.65490238    2.56970739
     atom    4 type  1   force =    -0.00001432    0.65591960   -2.56703698
     atom    5 type  2   force =     0.00000262    1.08500208   -0.27792915
     atom    6 type  2   force =     0.00000994    1.08380321    0.27840363
     atom    7 type  2   force =    -0.00000163   -1.08475323    0.27797358
     atom    8 type  2   force =    -0.00000566   -1.08394343   -0.27840747
     atom    9 type  3   force =     0.00005210   -2.22056505    0.68864897
     atom   10 type  3   force =     0.00001190   -2.22206054   -0.68649445
     atom   11 type  3   force =    -0.00007485    2.22026605   -0.68826589
     atom   12 type  3   force =     0.00002657    2.22254959    0.68577823
     The core correction contribution to forces
     atom    1 type  1   force =     0.00000011   -0.00207584    0.00912230
     atom    2 type  1   force =    -0.00000031   -0.00207482   -0.00912907
     atom    3 type  1   force =     0.00000003    0.00207907   -0.00912451
     atom    4 type  1   force =    -0.00000026    0.00207123    0.00912593
     atom    5 type  2   force =     0.00000022   -0.00126331    0.00695377
     atom    6 type  2   force =     0.00000037   -0.00130456   -0.00693773
     atom    7 type  2   force =     0.00000001    0.00127544   -0.00694935
     atom    8 type  2   force =    -0.00000009    0.00129516    0.00694322
     atom    9 type  3   force =     0.00000071   -0.01915850   -0.01625887
     atom   10 type  3   force =     0.00000023   -0.01913289    0.01624480
     atom   11 type  3   force =    -0.00000190    0.01914817    0.01626721
     atom   12 type  3   force =     0.00000103    0.01914014   -0.01625006
     The Hubbard contrib.    to forces
     atom    1 type  1   force =     0.00000000    0.00000000    0.00000000
     atom    2 type  1   force =     0.00000000    0.00000000    0.00000000
     atom    3 type  1   force =     0.00000000    0.00000000    0.00000000
     atom    4 type  1   force =     0.00000000    0.00000000    0.00000000
     atom    5 type  2   force =     0.00000000    0.00000000    0.00000000
     atom    6 type  2   force =     0.00000000    0.00000000    0.00000000
     atom    7 type  2   force =     0.00000000    0.00000000    0.00000000
     atom    8 type  2   force =     0.00000000    0.00000000    0.00000000
     atom    9 type  3   force =     0.00000000    0.00000000    0.00000000
     atom   10 type  3   force =     0.00000000    0.00000000    0.00000000
     atom   11 type  3   force =     0.00000000    0.00000000    0.00000000
     atom   12 type  3   force =     0.00000000    0.00000000    0.00000000
     The SCF correction term to forces
     atom    1 type  1   force =    -0.00001598    0.00016839    0.00105932
     atom    2 type  1   force =     0.00000171   -0.00005104    0.00139746
     atom    3 type  1   force =     0.00001748    0.00052437   -0.00103014
     atom    4 type  1   force =     0.00001169   -0.00048477   -0.00145309
     atom    5 type  2   force =    -0.00000164   -0.00029319   -0.00020301
     atom    6 type  2   force =    -0.00000701    0.00034653   -0.00013811
     atom    7 type  2   force =     0.00000157    0.00019326    0.00017850
     atom    8 type  2   force =     0.00000433   -0.00033379    0.00018884
     atom    9 type  3   force =    -0.00005489   -0.00124314   -0.00122549
     atom   10 type  3   force =    -0.00001331    0.00031204   -0.00097996
     atom   11 type  3   force =     0.00007837    0.00153436    0.00084478
     atom   12 type  3   force =    -0.00002810   -0.00078684    0.00169371

     Total force =     0.155373     Total SCF correction =     0.004236

     Computing stress (Cartesian axis) and pressure

     negative rho (up, down):  8.607E-01 0.000E+00
          total   stress  (Ry/bohr**3)                   (kbar)     P=      -47.49
  -0.00007244   0.00000000   0.00000000          -10.66        0.00        0.00
   0.00000000  -0.00067505   0.00000000            0.00      -99.30        0.00
   0.00000000   0.00000000  -0.00022096            0.00        0.00      -32.50

     kinetic stress (kbar)  20996.19      0.00      0.00
                                0.00  21214.45      0.00
                                0.00      0.00  21037.90

     local   stress (kbar)  -1958.87      0.00      0.00
                                0.00   -352.54      0.25
                                0.00      0.25  -1044.66

     nonloc. stress (kbar)   5767.16      0.00      0.00
                                0.00   5926.96      0.00
                                0.00      0.00   5893.78

     hartree stress (kbar)   7021.26     -0.00     -0.00
                               -0.00   6762.42     -0.03
                               -0.00     -0.03   6709.71

     exc-cor stress (kbar)  14702.57     -0.00     -0.00
                               -0.00  14700.10     -0.00
                               -0.00     -0.00  14702.67

     corecor stress (kbar) -20969.75      0.00     -0.00
                                0.00 -20975.46      0.00
                               -0.00      0.00 -20964.73

     ewald   stress (kbar) -25569.21     -0.00     -0.00
                               -0.00 -27375.24      0.00
                               -0.00      0.00 -26367.18

     hubbard stress (kbar)      0.00      0.00      0.00
                                0.00      0.00      0.00
                                0.00      0.00      0.00

     DFT-D   stress (kbar)      0.00      0.00      0.00
                                0.00      0.00      0.00
                                0.00      0.00      0.00

     XDM     stress (kbar)      0.00      0.00      0.00
                                0.00      0.00      0.00
                                0.00      0.00      0.00

     dft-nl  stress (kbar)      0.00      0.00      0.00
                                0.00      0.00      0.00
                                0.00      0.00      0.00

     TS-vdW  stress (kbar)      0.00      0.00      0.00
                                0.00      0.00      0.00
                                0.00      0.00      0.00

[...]

                                0.00      0.00      0.00

     Writing all to output data dir new_calculations/myprefix.save/

     General routines

     Parallel routines

   This run was terminated on:  11:33: 9  21May2023

   JOB DONE.