     Program PWSCF v.7.0 starts on 20May2023 at  3:49:50

     Reading input from espresso_11044.pwi
Warning: card &CELL ignored
Warning: card / ignored

     Current dimensions of program PWSCF are:
     Max number of different atomic species (ntypx) = 10
     Max number of k-points (npk) =  40000
     Max angular momentum in pseudopotentials (lmaxx) =  4
     file Ga.pbe-dn-kjpaw_psl.1.0.0.UPF: wavefunction(s)  4S renormalized

     gamma-point specific algorithms are used
     Message from routine setup:
     using ibrav=0 with symmetry is DISCOURAGED, use correct ibrav instead

     Subspace diagonalization in iterative solution of the eigenvalue problem:
     a serial algorithm will be used

     Using Slab Decomposition

     bravais-lattice index     =            0
     lattice parameter (alat)  =      13.5815  a.u.
     unit-cell volume          =    1023.7739 (a.u.)^3
     number of atoms/cell      =           10
     number of atomic types    =            2
     number of electrons       =       165.00
     number of Kohn-Sham states=          100
     kinetic-energy cutoff     =      30.0000  Ry
     charge density cutoff     =     240.0000  Ry
     scf convergence threshold =      1.0E-06
     mixing beta               =       0.7000
     number of iterations used =            8  plain     mixing
     Exchange-correlation= PBE
                           (   1   4   3   4   0   0   0)

     celldm(1)=  13.581542  celldm(2)=   0.000000  celldm(3)=   0.000000
     celldm(4)=   0.000000  celldm(5)=   0.000000  celldm(6)=   0.000000

     crystal axes: (cart. coord. in units of alat)
               a(1) = (   1.000000   0.000000   0.000000 )
               a(2) = (   0.835838   0.548976   0.000000 )
               a(3) = (   0.191486   0.057261   0.744395 )

     reciprocal axes: (cart. coord. in units 2 pi/alat)
               b(1) = (  1.000000 -1.522540 -0.140120 )
               b(2) = (  0.000000  1.821573 -0.140120 )
               b(3) = (  0.000000  0.000000  1.343373 )

     PseudoPot. # 1 for Ga read from file:
     /home/pragov/projects/rrg-bengioy-ad/pragov/crystal_structure_design/SSSP/Ga.pbe-dn-kjpaw_psl.1.0.0.UPF
     MD5 check sum: a27b4342b1af7e5f338de752e9ed7044
     Pseudo is Projector augmented-wave + core cor, Zval = 13.0
     Generated using "atomic" code by A. Dal Corso  v.5.1
     Shape of augmentation charge: PSQ
     Using radial grid of 1205 points,  6 beta functions with:
                l(1) =   0
                l(2) =   0
                l(3) =   1
                l(4) =   1
                l(5) =   2
                l(6) =   2
     Q(r) pseudized with 0 coefficients

     PseudoPot. # 2 for Pd read from file:
     /home/pragov/projects/rrg-bengioy-ad/pragov/crystal_structure_design/SSSP/Pd_ONCV_PBE-1.0.oncvpsp.upf
     MD5 check sum: eb77f42b51d86fb18e25f68156a31cf1
     Pseudo is Norm-conserving, Zval = 18.0
     Generated using ONCVPSP code by D. R. Hamann
     Using radial grid of 1410 points,  6 beta functions with:
                l(1) =   0
                l(2) =   0
                l(3) =   1
                l(4) =   1
                l(5) =   2
                l(6) =   2

     atomic species   valence    mass     pseudopotential
        Ga            13.00    69.72300     Ga( 1.00)
        Pd            18.00   106.42000     Pd( 1.00)

      2 Sym. Ops., with inversion, found

                                    s                        frac. trans.

      isym =  1     identity

 cryst.   s( 1) = (     1          0          0      )
                  (     0          1          0      )
                  (     0          0          1      )

 cart.    s( 1) = (  1.0000000 -0.0000000 -0.0000000 )
                  (  0.0000000  1.0000000 -0.0000000 )
                  (  0.0000000  0.0000000  1.0000000 )

      isym =  2     inversion

 cryst.   s( 2) = (    -1          0          0      )
                  (     0         -1          0      )
                  (     0          0         -1      )

 cart.    s( 2) = ( -1.0000000  0.0000000  0.0000000 )
                  (  0.0000000 -1.0000000  0.0000000 )
                  (  0.0000000  0.0000000 -1.0000000 )

   Cartesian axes

     site n.     atom                  positions (alat units)
         1           Ga  tau(   1) = (   0.0000000   0.0000000   0.0000000  )
         2           Ga  tau(   2) = (   0.4153305   0.1241975   0.2513985  )
         3           Ga  tau(   3) = (   1.6119932   0.4820392   0.4929963  )
         4           Pd  tau(   4) = (   0.0957429   0.0286303   0.3721974  )
         5           Pd  tau(   5) = (   0.5433620   0.1624832   0.6413304  )
         6           Pd  tau(   6) = (   1.4839617   0.4437536   0.1030644  )
         7           Pd  tau(   7) = (   0.7610485   0.2275786   0.2866553  )
         8           Pd  tau(   8) = (   1.2662752   0.3786581   0.4577395  )
         9           Pd  tau(   9) = (   0.9308686   0.2783604   0.6367903  )
        10           Pd  tau(  10) = (   1.0964552   0.3278763   0.1076045  )

   Crystallographic axes

     site n.     atom                  positions (cryst. coord.)
         1           Ga  tau(   1) = (  0.0000000  0.0000000  0.0000000  )
         2           Ga  tau(   2) = (  0.1910090  0.1910090  0.3377220  )
         3           Ga  tau(   3) = (  0.8089910  0.8089910  0.6622780  )
         4           Pd  tau(   4) = ( -0.0000000  0.0000000  0.5000000  )
         5           Pd  tau(   5) = (  0.2061120  0.2061120  0.8615460  )
         6           Pd  tau(   6) = (  0.7938880  0.7938880  0.1384540  )
         7           Pd  tau(   7) = (  0.3743850  0.3743850  0.3850850  )
         8           Pd  tau(   8) = (  0.6256150  0.6256150  0.6149150  )
         9           Pd  tau(   9) = (  0.4178270  0.4178270  0.8554470  )
        10           Pd  tau(  10) = (  0.5821730  0.5821730  0.1445530  )

     number of k points=     1  Methfessel-Paxton smearing, width (Ry)=  0.0010
                       cart. coord. in units 2pi/alat
        k(    1) = (   0.0000000   0.0000000   0.0000000), wk =   2.0000000

                       cryst. coord.
        k(    1) = (   0.0000000   0.0000000   0.0000000), wk =   2.0000000

     Check: negative core charge=   -0.000002

     Initial potential from superposition of free atoms

     starting charge     164.9887, renormalised to     165.0000
     Starting wfcs are   97 randomized atomic wfcs +    3 random wfcs
     Checking if some PAW data can be deallocated...

     Self-consistent Calculation

     iteration #  1     ecut=    30.00 Ry     beta= 0.70
     Davidson diagonalization with overlap

     ethr =  1.00E-02,  avg # of iterations =  4.0

     Threshold (ethr) on eigenvalues was too large:
     Diagonalizing with lowered threshold

     Davidson diagonalization with overlap

[...]

     total energy              =   -2604.40571816 Ry
     estimated scf accuracy    <       0.99109937 Ry

[...]

     total energy              =   -2604.86150365 Ry
     estimated scf accuracy    <       0.00000430 Ry

     iteration # 17     ecut=    30.00 Ry     beta= 0.70
     Davidson diagonalization with overlap

     ethr =  2.51E-09,  avg # of iterations =  2.0

     End of self-consistent calculation

          k = 0.0000 0.0000 0.0000 (  1425 PWs)   bands (ev):

   -67.8490 -67.8439 -67.8269 -67.8239 -66.9965 -66.9913 -66.9052 -33.4866
   -33.4702 -33.3643 -33.3571 -33.3390 -33.3383 -33.2175 -33.2157 -33.1036
   -33.0945 -32.9982 -32.9908 -32.6450 -32.6099 -32.5232 -32.5198 -32.4919
   -32.3204 -32.2626 -32.2130 -32.1726   2.6197   2.6349   2.7172   2.7488
     2.7562   2.7819   2.7905   2.8052   2.8125   2.8335   2.8377   2.8431
     2.8499   2.8672   2.8986   8.0351  10.3601  10.5594  12.5931  12.7980
    12.9734  13.0382  13.1080  13.2656  13.3706  13.4799  13.4978  13.6470
    13.7777  13.8369  14.0759  14.4631  14.5549  14.8157  14.9655  15.0954
    15.1639  15.2517  15.3831  15.5479  15.7498  15.8514  15.9245  16.0023
    16.2358  16.2691  16.4810  16.5820  16.6749  16.8775  16.9570  17.0621
    17.3304  17.5136  17.6000  17.9288  18.8941  20.3044  20.3421  20.4086
    22.4975  22.5653  23.9922  24.0090  24.6500  25.2783  25.3820  25.8974
    26.5728  26.7681  27.1158  27.3437

     occupation numbers
     1.0000   1.0000   1.0000   1.0000   1.0000   1.0000   1.0000   1.0000
     1.0000   1.0000   1.0000   1.0000   1.0000   1.0000   1.0000   1.0000
     1.0000   1.0000   1.0000   1.0000   1.0000   1.0000   1.0000   1.0000
     1.0000   1.0000   1.0000   1.0000   1.0000   1.0000   1.0000   1.0000
     1.0000   1.0000   1.0000   1.0000   1.0000   1.0000   1.0000   1.0000
     1.0000   1.0000   1.0000   1.0000   1.0000   1.0000   1.0000   1.0000
     1.0000   1.0000   1.0000   1.0000   1.0000   1.0000   1.0000   1.0000
     1.0000   1.0000   1.0000   1.0000   1.0000   1.0000   1.0000   1.0000
     1.0000   1.0000   1.0000   1.0000   1.0000   1.0000   1.0000   1.0000
     1.0000   1.0000   1.0000   1.0000   1.0000   1.0000   1.0000   1.0000
     1.0000   1.0000   0.5000  -0.0000  -0.0000  -0.0000  -0.0000  -0.0000
    -0.0000  -0.0000  -0.0000  -0.0000  -0.0000  -0.0000  -0.0000  -0.0000
    -0.0000  -0.0000  -0.0000  -0.0000

     the Fermi energy is    17.6000 ev

!    total energy              =   -2604.86150400 Ry
     estimated scf accuracy    <       0.00000021 Ry
     smearing contrib. (-TS)   =      -0.00028209 Ry
     internal energy E=F+TS    =   -2604.86122190 Ry

     The total energy is F=E-TS. E is the sum of the following terms:
     one-electron contribution =    -813.61936783 Ry
     hartree contribution      =     526.05871581 Ry
     xc contribution           =    -288.40197067 Ry
     ewald contribution        =   -1696.01186923 Ry
     one-center paw contrib.   =    -332.88672998 Ry
      -> PAW hartree energy AE =     420.58488589 Ry
      -> PAW hartree energy PS =    -414.04432832 Ry
      -> PAW xc energy AE      =    -452.30715968 Ry
      -> PAW xc energy PS      =     112.87987213 Ry
      -> total E_H with PAW    =     532.59927338 Ry
      -> total E_XC with PAW   =    -627.82925822 Ry

     convergence has been achieved in  17 iterations

     Forces acting on atoms (cartesian axes, Ry/au):

     atom    1 type  1   force =     0.00000000    0.00000000    0.00000000
     atom    2 type  1   force =     0.00768281    0.00225864   -0.01001940
     atom    3 type  1   force =    -0.00768281   -0.00225864    0.01001940
     atom    4 type  2   force =     0.00000000    0.00000000    0.00000000
     atom    5 type  2   force =     0.05260044    0.01572841   -0.00548542
     atom    6 type  2   force =    -0.05260044   -0.01572841    0.00548542
     atom    7 type  2   force =    -0.00981942   -0.00293579    0.07814327
     atom    8 type  2   force =     0.00981942    0.00293579   -0.07814327
     atom    9 type  2   force =     0.04862752    0.01454365    0.02446274
     atom   10 type  2   force =    -0.04862752   -0.01454365   -0.02446274
     The non-local contrib.  to forces
     atom    1 type  1   force =     0.00000000    0.00000000    0.00000000
     atom    2 type  1   force =     0.15344577    0.04589643   -0.01144500
     atom    3 type  1   force =    -0.15344577   -0.04589643    0.01144500
     atom    4 type  2   force =     0.00000000    0.00000000    0.00000000
     atom    5 type  2   force =     0.13523917    0.04044059   -0.00454716
     atom    6 type  2   force =    -0.13523917   -0.04044059    0.00454716
     atom    7 type  2   force =    -0.08241712   -0.02464603    0.03451349
     atom    8 type  2   force =     0.08241712    0.02464603   -0.03451349
     atom    9 type  2   force =     0.00834462    0.00249702    0.07653415
     atom   10 type  2   force =    -0.00834462   -0.00249702   -0.07653415
     The ionic contribution  to forces
     atom    1 type  1   force =    -0.00000000    0.00000000   -0.00000000
     atom    2 type  1   force =     0.51314029    0.15344589    1.33766151
     atom    3 type  1   force =    -0.51314029   -0.15344589   -1.33766151
     atom    4 type  2   force =     0.00000000   -0.00000000    0.00000000
     atom    5 type  2   force =    -2.61031179   -0.78056942   -1.06400924
     atom    6 type  2   force =     2.61031179    0.78056942    1.06400924
     atom    7 type  2   force =     0.79403368    0.23744229   -2.41400059
     atom    8 type  2   force =    -0.79403368   -0.23744229    2.41400059
     atom    9 type  2   force =     0.24064428    0.07196059    0.51234368
     atom   10 type  2   force =    -0.24064428   -0.07196059   -0.51234368
     The local contribution  to forces
     atom    1 type  1   force =    -0.00095424   -0.00028469    0.00026765
     atom    2 type  1   force =    -0.65551284   -0.19603017   -1.33674845
     atom    3 type  1   force =     0.65673472    0.19639244    1.33646658
     atom    4 type  2   force =    -0.00092106   -0.00027963    0.00060383
     atom    5 type  2   force =     2.52847509    0.75609642    1.06380443
     atom    6 type  2   force =    -2.52677645   -0.75558301   -1.06394677
     atom    7 type  2   force =    -0.72078756   -0.21553819    2.45708303
     atom    8 type  2   force =     0.72055965    0.21547320   -2.45753974
     atom    9 type  2   force =    -0.20042341   -0.05993434   -0.56414259
     atom   10 type  2   force =     0.19975704    0.05973701    0.56465952
     The core correction contribution to forces
     atom    1 type  1   force =    -0.00000514   -0.00000152    0.00000345
     atom    2 type  1   force =    -0.00329251   -0.00098466    0.00006988
     atom    3 type  1   force =     0.00329800    0.00098632   -0.00006828
     atom    4 type  2   force =     0.00000000    0.00000000    0.00000000
     atom    5 type  2   force =     0.00000000    0.00000000    0.00000000
     atom    6 type  2   force =     0.00000000    0.00000000    0.00000000
     atom    7 type  2   force =     0.00000000    0.00000000    0.00000000
     atom    8 type  2   force =     0.00000000    0.00000000    0.00000000
     atom    9 type  2   force =     0.00000000    0.00000000    0.00000000
     atom   10 type  2   force =     0.00000000    0.00000000    0.00000000
     The Hubbard contrib.    to forces
     atom    1 type  1   force =     0.00000000    0.00000000    0.00000000
     atom    2 type  1   force =     0.00000000    0.00000000    0.00000000
     atom    3 type  1   force =     0.00000000    0.00000000    0.00000000
     atom    4 type  2   force =     0.00000000    0.00000000    0.00000000
     atom    5 type  2   force =     0.00000000    0.00000000    0.00000000
     atom    6 type  2   force =     0.00000000    0.00000000    0.00000000
     atom    7 type  2   force =     0.00000000    0.00000000    0.00000000
     atom    8 type  2   force =     0.00000000    0.00000000    0.00000000
     atom    9 type  2   force =     0.00000000    0.00000000    0.00000000
     atom   10 type  2   force =     0.00000000    0.00000000    0.00000000
     The SCF correction term to forces
     atom    1 type  1   force =     0.00096090    0.00028767   -0.00023602
     atom    2 type  1   force =    -0.00009767   -0.00007171    0.00047212
     atom    3 type  1   force =    -0.00112924   -0.00029793   -0.00013292
     atom    4 type  2   force =     0.00084466    0.00025033   -0.00052164
     atom    5 type  2   force =    -0.00079159   -0.00023635   -0.00079241
     atom    6 type  2   force =    -0.00088618   -0.00027139    0.00081683
     atom    7 type  2   force =    -0.00065813   -0.00019400    0.00059221
     atom    8 type  2   force =     0.00086662    0.00025872   -0.00004577
     atom    9 type  2   force =     0.00010369    0.00003302   -0.00024181
     atom   10 type  2   force =     0.00064600    0.00018958   -0.00021375

     Total force =     0.158712     Total SCF correction =     0.002963

     Computing stress (Cartesian axis) and pressure

          total   stress  (Ry/bohr**3)                   (kbar)     P=    -1103.28
  -0.00762087   0.00008813   0.00088774        -1121.07       12.96      130.59
   0.00008813  -0.00788923   0.00026546           12.96    -1160.55       39.05
   0.00088774   0.00026546  -0.00698968          130.59       39.05    -1028.22

     kinetic stress (kbar)  61593.30    213.99     34.83
                              213.99  60941.69     10.41
                               34.83     10.41  61198.66

     local   stress (kbar)  -5611.38    521.53   1176.64
                              521.53  -7199.48    351.85
                             1176.64    351.85  -2385.85

     nonloc. stress (kbar)   9963.57    -35.98     23.78
                              -35.98  10073.15      7.11
                               23.78      7.11  10027.71

     hartree stress (kbar)  25428.79   -186.20   -485.16
                             -186.20  25995.80   -145.08
                             -485.16   -145.08  24164.28

     exc-cor stress (kbar)  -5007.65      1.42     -2.70
                                1.42  -5011.99     -0.81
                               -2.70     -0.81  -5016.46

     corecor stress (kbar)  -6255.96     -0.60      0.25
                               -0.60  -6254.12      0.07
                                0.25      0.07  -6255.59

     ewald   stress (kbar) -81231.74   -501.18   -617.06
                             -501.18 -79705.59   -184.52
                             -617.06   -184.52 -82760.96

     hubbard stress (kbar)      0.00      0.00      0.00
                                0.00      0.00      0.00
                                0.00      0.00      0.00

     DFT-D   stress (kbar)      0.00      0.00      0.00
                                0.00      0.00      0.00
                                0.00      0.00      0.00

     XDM     stress (kbar)      0.00      0.00      0.00
                                0.00      0.00      0.00
                                0.00      0.00      0.00

     dft-nl  stress (kbar)      0.00      0.00      0.00
                                0.00      0.00      0.00
                                0.00      0.00      0.00

     TS-vdW  stress (kbar)      0.00      0.00      0.00
                                0.00      0.00      0.00
                                0.00      0.00      0.00

[...]

                                0.00      0.00      0.00

     Writing all to output data dir new_calculations/myprefix.save/

     General routines

     Parallel routines

     PAW routines

   This run was terminated on:   3:50:35  20May2023

   JOB DONE.