     Program PWSCF v.7.0 starts on 20May2023 at 17:10:54

     Reading input from espresso_6453.pwi
Warning: card &CELL ignored
Warning: card / ignored

     Current dimensions of program PWSCF are:
     Max number of different atomic species (ntypx) = 10
     Max number of k-points (npk) =  40000
     Max angular momentum in pseudopotentials (lmaxx) =  4
     file O.pbe-n-kjpaw_psl.0.1.UPF: wavefunction(s)  2P renormalized

     gamma-point specific algorithms are used
     Message from routine setup:
     using ibrav=0 with symmetry is DISCOURAGED, use correct ibrav instead

     Subspace diagonalization in iterative solution of the eigenvalue problem:
     a serial algorithm will be used

     Using Slab Decomposition

     bravais-lattice index     =            0
     lattice parameter (alat)  =      10.5606  a.u.
     unit-cell volume          =    1674.0167 (a.u.)^3
     number of atoms/cell      =           17
     number of atomic types    =            3
     number of electrons       =       142.00
     number of Kohn-Sham states=           85
     kinetic-energy cutoff     =      30.0000  Ry
     charge density cutoff     =     240.0000  Ry
     scf convergence threshold =      1.0E-06
     mixing beta               =       0.7000
     number of iterations used =            8  plain     mixing
     Exchange-correlation= SLA  PW   PBX  PBC
                           (   1   4   3   4   0   0   0)

     celldm(1)=  10.560588  celldm(2)=   0.000000  celldm(3)=   0.000000
     celldm(4)=   0.000000  celldm(5)=   0.000000  celldm(6)=   0.000000

     crystal axes: (cart. coord. in units of alat)
               a(1) = (   1.000000   0.000000   0.000000 )
               a(2) = (  -0.000883   1.000000   0.000000 )
               a(3) = (   0.000000   0.000000   1.421332 )

     reciprocal axes: (cart. coord. in units 2 pi/alat)
               b(1) = (  1.000000  0.000883  0.000000 )
               b(2) = (  0.000000  1.000000  0.000000 )
               b(3) = (  0.000000  0.000000  0.703565 )

     PseudoPot. # 1 for Gd read from file:
     /home/pragov/projects/rrg-bengioy-ad/pragov/crystal_structure_design/SSSP/Gd.GGA-PBE-paw-v1.0.UPF
     MD5 check sum: 3e8e0d208da550914ae52eaf991d13de
     Pseudo is Projector augmented-wave + core cor, Zval = 18.0
     Generated using ATOMPAW code
     Shape of augmentation charge: BESSEL
     Using radial grid of 1110 points,  8 beta functions with:
                l(1) =   0
                l(2) =   0
                l(3) =   1
                l(4) =   1
                l(5) =   2
                l(6) =   2
                l(7) =   3
                l(8) =   3
     Q(r) pseudized with 0 coefficients

     PseudoPot. # 2 for Ta read from file:
     /home/pragov/projects/rrg-bengioy-ad/pragov/crystal_structure_design/SSSP/Ta_pbe_v1.uspp.F.UPF
     MD5 check sum: f8bbe9446314a3b8ea5d9f3e3836c939
     Pseudo is Ultrasoft + core correction, Zval = 13.0
     Generated by new atomic code, or converted to UPF format
     Using radial grid of  921 points,  7 beta functions with:
                l(1) =   0
                l(2) =   0
                l(3) =   1
                l(4) =   1
                l(5) =   2
                l(6) =   2
                l(7) =   3
     Q(r) pseudized with  6 coefficients,  rinner =    1.300   1.300   1.300
                                                       1.300   1.300   1.300
                                                       1.300

     PseudoPot. # 3 for O  read from file:
     /home/pragov/projects/rrg-bengioy-ad/pragov/crystal_structure_design/SSSP/O.pbe-n-kjpaw_psl.0.1.UPF
     MD5 check sum: 0234752ac141de4415c5fc33072bef88
     Pseudo is Projector augmented-wave + core cor, Zval =  6.0
     Generated using "atomic" code by A. Dal Corso  v.5.0.99 svn rev. 10869
     Shape of augmentation charge: BESSEL
     Using radial grid of 1095 points,  4 beta functions with:
                l(1) =   0
                l(2) =   0
                l(3) =   1
                l(4) =   1
     Q(r) pseudized with 0 coefficients

     atomic species   valence    mass     pseudopotential
        Gd            18.00   157.25000     Gd( 1.00)
        Ta            13.00   180.94788     Ta( 1.00)
        O              6.00    15.99900     O ( 1.00)

      2 Sym. Ops. (no inversion) found

                                    s                        frac. trans.

      isym =  1     identity

 cryst.   s( 1) = (     1          0          0      )
                  (     0          1          0      )
                  (     0          0          1      )

 cart.    s( 1) = (  1.0000000 -0.0000000  0.0000000 )
                  (  0.0000000  1.0000000  0.0000000 )
                  (  0.0000000  0.0000000  1.0000000 )

      isym =  2     inv. 180 deg rotation - cart. axis [0,0,1]

 cryst.   s( 2) = (     1          0          0      )
                  (     0          1          0      )
                  (     0          0         -1      )

 cart.    s( 2) = (  1.0000000 -0.0000000  0.0000000 )
                  (  0.0000000  1.0000000  0.0000000 )
                  (  0.0000000  0.0000000 -1.0000000 )

   Cartesian axes

     site n.     atom                  positions (alat units)
         1           Gd  tau(   1) = (   0.7132209   0.2865259   0.0000000  )
         2           Ta  tau(   2) = (   0.7469396   0.7579027   0.3656420  )
         3           Ta  tau(   3) = (   0.2418741   0.2523909   0.3656420  )
         4           Ta  tau(   4) = (   0.7469396   0.7579027   1.0556904  )
         5           Ta  tau(   5) = (   0.2418741   0.2523909   1.0556904  )
         6           O   tau(   6) = (   0.9981654   0.0018330   0.3357088  )
         7           O   tau(   7) = (   0.9981654   0.0018330   1.0856237  )
         8           O   tau(   8) = (   0.5139562   0.0110780   0.3245542  )
         9           O   tau(   9) = (   0.9884927   0.4860338   1.0967783  )
        10           O   tau(  10) = (   0.5139562   0.0110780   1.0967783  )
        11           O   tau(  11) = (   0.9884927   0.4860338   0.3245542  )
        12           O   tau(  12) = (   0.7514815   0.7297327   0.0000000  )
        13           O   tau(  13) = (   0.2700481   0.2478739   0.0000000  )
        14           O   tau(  14) = (   0.7398379   0.7394547   0.7106662  )
        15           O   tau(  15) = (   0.2603158   0.2595089   0.7106662  )
        16           O   tau(  16) = (   0.5128071   0.4867628   0.3218849  )
        17           O   tau(  17) = (   0.5128071   0.4867628   1.0994475  )

   Crystallographic axes

     site n.     atom                  positions (cryst. coord.)
         1           Gd  tau(   1) = (  0.7134740  0.2865260  0.0000000  )
         2           Ta  tau(   2) = (  0.7476090  0.7579030  0.2572530  )
         3           Ta  tau(   3) = (  0.2420970  0.2523910  0.2572530  )
         4           Ta  tau(   4) = (  0.7476090  0.7579030  0.7427470  )
         5           Ta  tau(   5) = (  0.2420970  0.2523910  0.7427470  )
         6           O   tau(   6) = (  0.9981670  0.0018330  0.2361930  )
         7           O   tau(   7) = (  0.9981670  0.0018330  0.7638070  )
         8           O   tau(   8) = (  0.5139660  0.0110780  0.2283450  )
         9           O   tau(   9) = (  0.9889220  0.4860340  0.7716550  )
        10           O   tau(  10) = (  0.5139660  0.0110780  0.7716550  )
        11           O   tau(  11) = (  0.9889220  0.4860340  0.2283450  )
        12           O   tau(  12) = (  0.7521260  0.7297330  0.0000000  )
        13           O   tau(  13) = (  0.2702670  0.2478740  0.0000000  )
        14           O   tau(  14) = (  0.7404910  0.7394550  0.5000000  )
        15           O   tau(  15) = (  0.2605450  0.2595090  0.5000000  )
        16           O   tau(  16) = (  0.5132370  0.4867630  0.2264670  )
        17           O   tau(  17) = (  0.5132370  0.4867630  0.7735330  )

     number of k points=     1  Methfessel-Paxton smearing, width (Ry)=  0.0010
                       cart. coord. in units 2pi/alat
        k(    1) = (   0.0000000   0.0000000   0.0000000), wk =   2.0000000

                       cryst. coord.
        k(    1) = (   0.0000000   0.0000000   0.0000000), wk =   2.0000000

     Check: negative core charge=   -0.000008

     Initial potential from superposition of free atoms

     starting charge     141.9904, renormalised to     142.0000

     negative rho (up, down):  3.777E-01 0.000E+00
     Starting wfcs are  132 randomized atomic wfcs
     Checking if some PAW data can be deallocated...

     Self-consistent Calculation

     iteration #  1     ecut=    30.00 Ry     beta= 0.70
     Davidson diagonalization with overlap

     ethr =  1.00E-02,  avg # of iterations =  2.0

     negative rho (up, down):  3.789E-01 0.000E+00

     total energy              =   -1746.60166876 Ry
     estimated scf accuracy    <       7.68043419 Ry

[...]

     total energy              =   -1751.50752960 Ry
     estimated scf accuracy    <       0.00000109 Ry

     iteration # 39     ecut=    30.00 Ry     beta= 0.70
     Davidson diagonalization with overlap

     ethr =  7.65E-10,  avg # of iterations =  1.0

[...]

     End of self-consistent calculation

          k = 0.0000 0.0000 0.0000 (  2308 PWs)   bands (ev):

   -61.2111 -61.2103 -61.2094 -61.2080 -34.4744 -27.8022 -27.7980 -27.7974
   -27.7924 -27.7161 -27.7121 -27.7079 -27.7062 -27.6859 -27.6844 -27.5977
   -27.5908 -12.7260 -12.5587 -12.4866 -10.9548 -10.3386 -10.3076 -10.1994
   -10.1991 -10.1617  -9.3632  -9.2784  -9.2345  -9.1989  -9.0231  -8.9801
     1.1822   1.2658   1.3559   1.3987   1.4154   1.4946   2.1581   2.5343
     2.6522   2.6596   3.5355   3.6356   3.6697   3.7140   4.2894   4.4272
     4.4553   4.4707   4.5594   4.5704   4.9637   5.2008   5.2089   5.2948
     5.3674   5.6456   5.7153   5.8386   5.8703   6.2663   6.2783   6.2995
     6.7993   6.8810   7.0365   7.0615   7.2108   7.2168   7.2256   7.3220
     7.4627   7.4661   7.9612   9.1195   9.1668   9.5916   9.6741  11.5426
    11.6112  11.9232  12.0226  12.1064  12.6488

     occupation numbers
     1.0000   1.0000   1.0000   1.0000   1.0000   1.0000   1.0000   1.0000
     1.0000   1.0000   1.0000   1.0000   1.0000   1.0000   1.0000   1.0000
     1.0000   1.0000   1.0000   1.0000   1.0000   1.0000   1.0000   1.0000
     1.0000   1.0000   1.0000   1.0000   1.0000   1.0000   1.0000   1.0000
     1.0000   1.0000   1.0000   1.0000   1.0000   1.0000   1.0000   1.0000
     1.0000   1.0000   1.0000   1.0000   1.0000   1.0000   1.0000   1.0000
     1.0000   1.0000   1.0000   1.0000   1.0000   1.0000   1.0000   1.0000
     1.0000   1.0000   1.0000   1.0000   1.0000   1.0000   1.0000   1.0000
     1.0000   1.0000   1.0000   1.0000   1.0000   1.0000   1.0000  -0.0000
    -0.0000  -0.0000  -0.0000  -0.0000  -0.0000  -0.0000  -0.0000  -0.0000
    -0.0000  -0.0000  -0.0000  -0.0000  -0.0000

     the Fermi energy is     7.2738 ev

!    total energy              =   -1751.50752981 Ry
     estimated scf accuracy    <       0.00000019 Ry
     smearing contrib. (-TS)   =       0.00000005 Ry
     internal energy E=F+TS    =   -1751.50752986 Ry

     The total energy is F=E-TS. E is the sum of the following terms:
     one-electron contribution =    -575.03504409 Ry
     hartree contribution      =     354.06931717 Ry
     xc contribution           =    -280.62343648 Ry
     ewald contribution        =    -669.75865320 Ry
     one-center paw contrib.   =    -580.15971326 Ry
      -> PAW hartree energy AE =     547.14373128 Ry
      -> PAW hartree energy PS =    -536.42408040 Ry
      -> PAW xc energy AE      =    -704.17959078 Ry
      -> PAW xc energy PS      =     113.30022664 Ry
      -> total E_H with PAW    =     364.78896805 Ry
      -> total E_XC with PAW   =    -871.50280062 Ry

     convergence has been achieved in  39 iterations

     negative rho (up, down):  3.841E-01 0.000E+00

     Forces acting on atoms (cartesian axes, Ry/au):

     atom    1 type  1   force =    -0.02736187    0.02718317    0.00000000
     atom    2 type  2   force =    -0.05445529    0.08464231    0.05058178
     atom    3 type  2   force =    -0.08469829    0.05440241    0.05055713
     atom    4 type  2   force =    -0.05445529    0.08464231   -0.05058178
     atom    5 type  2   force =    -0.08469829    0.05440241   -0.05055713
     atom    6 type  3   force =     0.02831045   -0.02826504   -0.03621259
     atom    7 type  3   force =     0.02831045   -0.02826504    0.03621259
     atom    8 type  3   force =     0.03739926   -0.02229726   -0.04252784
     atom    9 type  3   force =     0.02233945   -0.03736153    0.04252066
     atom   10 type  3   force =     0.03739926   -0.02229726    0.04252784
     atom   11 type  3   force =     0.02233945   -0.03736153   -0.04252066
     atom   12 type  3   force =     0.00264842   -0.01980944    0.00000000
     atom   13 type  3   force =     0.01982826   -0.00263431    0.00000000
     atom   14 type  3   force =     0.00170685   -0.03104455    0.00000000
     atom   15 type  3   force =     0.03105576   -0.00167624    0.00000000
     atom   16 type  3   force =     0.03716570   -0.03713022   -0.03372274
     atom   17 type  3   force =     0.03716570   -0.03713022    0.03372274
     The non-local contrib.  to forces
     atom    1 type  1   force =     0.17763955   -0.17750596    0.00000000
     atom    2 type  2   force =    -0.02265434    0.03107288    0.11110868
     atom    3 type  2   force =    -0.03113870    0.02266717    0.11108187
     atom    4 type  2   force =    -0.02265434    0.03107288   -0.11110868
     atom    5 type  2   force =    -0.03113870    0.02266717   -0.11108187
     atom    6 type  3   force =    -0.11876099    0.11866422    0.12572259
     atom    7 type  3   force =    -0.11876099    0.11866422   -0.12572259
     atom    8 type  3   force =     0.17991781   -0.03562268    0.11209883
     atom    9 type  3   force =     0.03582373   -0.17985028   -0.11212612
     atom   10 type  3   force =     0.17991781   -0.03562268   -0.11209883
     atom   11 type  3   force =     0.03582373   -0.17985028    0.11212612
     atom   12 type  3   force =    -0.07191438   -0.03853203    0.00000000
     atom   13 type  3   force =     0.03846754    0.07191397    0.00000000
     atom   14 type  3   force =     0.04905418    0.15543800    0.00000000
     atom   15 type  3   force =    -0.15540179   -0.04918640    0.00000000
     atom   16 type  3   force =     0.04891771   -0.04888570    0.05964448
     atom   17 type  3   force =     0.04891771   -0.04888570   -0.05964448
     The ionic contribution  to forces
     atom    1 type  1   force =     5.57120834   -5.56629012    0.00000000
     atom    2 type  2   force =     0.73685116    1.25160681   13.28118394
     atom    3 type  2   force =    -1.25095555   -0.73795627   13.28118394
     atom    4 type  2   force =     0.73685116    1.25160681  -13.28118394
     atom    5 type  2   force =    -1.25095555   -0.73795627  -13.28118394
     atom    6 type  3   force =     2.91088155   -2.90831184    4.70574336
     atom    7 type  3   force =     2.91088155   -2.90831184   -4.70574336
     atom    8 type  3   force =    -3.37555035   -2.64928193    5.84081794
     atom    9 type  3   force =     2.64629966    3.37788884   -5.84081794
     atom   10 type  3   force =    -3.37555035   -2.64928193   -5.84081794
     atom   11 type  3   force =     2.64629966    3.37788884    5.84081794
     atom   12 type  3   force =     1.18776770    3.21241454    0.00000000
     atom   13 type  3   force =    -3.21136426   -1.19060439    0.00000000
     atom   14 type  3   force =    -0.31046881   -0.61995171    0.00000000
     atom   15 type  3   force =     0.61967727    0.31101622    0.00000000
     atom   16 type  3   force =    -3.59593658    3.59276211    7.63281511
     atom   17 type  3   force =    -3.59593658    3.59276211   -7.63281511
     The local contribution  to forces
     atom    1 type  1   force =    -5.77606164    5.77105658    0.00060457
     atom    2 type  2   force =    -0.76829284   -1.20623234  -13.35864891
     atom    3 type  2   force =     1.20549120    0.76944298  -13.35877197
     atom    4 type  2   force =    -0.76812218   -1.20632819   13.35859301
     atom    5 type  2   force =     1.20526239    0.76949921   13.35871097
     atom    6 type  3   force =    -2.76515008    2.76269752   -4.86661962
     atom    7 type  3   force =    -2.76510441    2.76268154    4.86663344
     atom    8 type  3   force =     3.23455364    2.66281592   -5.99449186
     atom    9 type  3   force =    -2.65995648   -3.23687980    5.99455240
     atom   10 type  3   force =     3.23449180    2.66269414    5.99448650
     atom   11 type  3   force =    -2.65995135   -3.23688979   -5.99447359
     atom   12 type  3   force =    -1.11392260   -3.19397566    0.00013033
     atom   13 type  3   force =     3.19289408    1.11684002    0.00017686
     atom   14 type  3   force =     0.26353906    0.43504427   -0.00013881
     atom   15 type  3   force =    -0.43486705   -0.26387687   -0.00014610
     atom   16 type  3   force =     3.58454364   -3.58138151   -7.72542138
     atom   17 type  3   force =     3.58453286   -3.58130459    7.72544778
     The core correction contribution to forces
     atom    1 type  1   force =    -0.00000400    0.00000399    0.00000001
     atom    2 type  2   force =    -0.00039742    0.00806961    0.01679598
     atom    3 type  2   force =    -0.00806986    0.00039030    0.01679570
     atom    4 type  2   force =    -0.00039644    0.00806928   -0.01679919
     atom    5 type  2   force =    -0.00807145    0.00039027   -0.01679809
     atom    6 type  3   force =     0.00127981   -0.00127883   -0.00114180
     atom    7 type  3   force =     0.00128012   -0.00127899    0.00114172
     atom    8 type  3   force =    -0.00144870   -0.00012624   -0.00105611
     atom    9 type  3   force =     0.00012471    0.00144869    0.00105653
     atom   10 type  3   force =    -0.00144918   -0.00012659    0.00105617
     atom   11 type  3   force =     0.00012434    0.00144848   -0.00105659
     atom   12 type  3   force =     0.00074191    0.00023087   -0.00000040
     atom   13 type  3   force =    -0.00023016   -0.00074163   -0.00000012
     atom   14 type  3   force =    -0.00041193   -0.00161780    0.00000029
     atom   15 type  3   force =     0.00161752    0.00041327    0.00000029
     atom   16 type  3   force =    -0.00031560    0.00031536   -0.00082973
     atom   17 type  3   force =    -0.00031580    0.00031576    0.00082971
     The Hubbard contrib.    to forces
     atom    1 type  1   force =     0.00000000    0.00000000    0.00000000
     atom    2 type  2   force =     0.00000000    0.00000000    0.00000000
     atom    3 type  2   force =     0.00000000    0.00000000    0.00000000
     atom    4 type  2   force =     0.00000000    0.00000000    0.00000000
     atom    5 type  2   force =     0.00000000    0.00000000    0.00000000
     atom    6 type  3   force =     0.00000000    0.00000000    0.00000000
     atom    7 type  3   force =     0.00000000    0.00000000    0.00000000
     atom    8 type  3   force =     0.00000000    0.00000000    0.00000000
     atom    9 type  3   force =     0.00000000    0.00000000    0.00000000
     atom   10 type  3   force =     0.00000000    0.00000000    0.00000000
     atom   11 type  3   force =     0.00000000    0.00000000    0.00000000
     atom   12 type  3   force =     0.00000000    0.00000000    0.00000000
     atom   13 type  3   force =     0.00000000    0.00000000    0.00000000
     atom   14 type  3   force =     0.00000000    0.00000000    0.00000000
     atom   15 type  3   force =     0.00000000    0.00000000    0.00000000
     atom   16 type  3   force =     0.00000000    0.00000000    0.00000000
     atom   17 type  3   force =     0.00000000    0.00000000    0.00000000
     The SCF correction term to forces
     atom    1 type  1   force =    -0.00015034   -0.00008338   -0.00065026
     atom    2 type  2   force =     0.00003427    0.00012295    0.00014549
     atom    3 type  2   force =    -0.00003464   -0.00014481    0.00027080
     atom    4 type  2   force =    -0.00014204    0.00021982   -0.00007960
     atom    5 type  2   force =     0.00020184   -0.00019905   -0.00020100
     atom    6 type  3   force =     0.00004307   -0.00003305    0.00008081
     atom    7 type  3   force =     0.00001885   -0.00002713   -0.00009870
     atom    8 type  3   force =    -0.00006820   -0.00006894    0.00010880
     atom    9 type  3   force =     0.00005176    0.00003869   -0.00014501
     atom   10 type  3   force =    -0.00002820    0.00002229   -0.00009262
     atom   11 type  3   force =     0.00002670    0.00002946    0.00006466
     atom   12 type  3   force =    -0.00003043    0.00005079   -0.00015142
     atom   13 type  3   force =     0.00005485   -0.00004434   -0.00019018
     atom   14 type  3   force =    -0.00001186    0.00004063    0.00015036
     atom   15 type  3   force =     0.00002360   -0.00004452    0.00016243
     atom   16 type  3   force =    -0.00004043    0.00005118    0.00007053
     atom   17 type  3   force =    -0.00004793   -0.00001357   -0.00009341

     Total force =     0.288806     Total SCF correction =     0.001002

     Computing stress (Cartesian axis) and pressure

     negative rho (up, down):  3.841E-01 0.000E+00
          total   stress  (Ry/bohr**3)                   (kbar)     P=     -338.44
  -0.00217353  -0.00000756   0.00000000         -319.74       -1.11        0.00
  -0.00000756  -0.00217295   0.00000000           -1.11     -319.65        0.00
   0.00000000   0.00000000  -0.00255559            0.00        0.00     -375.94

     kinetic stress (kbar)  22756.24      5.61      0.00
                                5.61  22756.25      0.00
                                0.00      0.00  22749.03

     local   stress (kbar)  -7446.33   -863.53      0.27
                             -863.53  -7447.97      0.24
                                0.27      0.24  -1600.20

     nonloc. stress (kbar)  -2574.76     -3.27      0.00
                               -3.27  -2574.59      0.00
                                0.00      0.00  -2599.07

     hartree stress (kbar)  11376.96    350.57     -0.11
                              350.57  11377.59     -0.09
                               -0.11     -0.09   8359.47

     exc-cor stress (kbar)   4823.86      0.47     -0.00
                                0.47   4823.86     -0.00
                               -0.00     -0.00   4829.26

     corecor stress (kbar) -10588.21      0.06     -0.00
                                0.06 -10588.21      0.00
                               -0.00      0.00 -10593.14

     ewald   stress (kbar) -18667.50    508.99      0.00
                              508.99 -18666.60     -0.00
                                0.00     -0.00 -21521.29

     hubbard stress (kbar)      0.00      0.00      0.00
                                0.00      0.00      0.00
                                0.00      0.00      0.00

     DFT-D   stress (kbar)      0.00      0.00      0.00
                                0.00      0.00      0.00
                                0.00      0.00      0.00

     XDM     stress (kbar)      0.00      0.00      0.00
                                0.00      0.00      0.00
                                0.00      0.00      0.00

     dft-nl  stress (kbar)      0.00      0.00      0.00
                                0.00      0.00      0.00
                                0.00      0.00      0.00

     TS-vdW  stress (kbar)      0.00      0.00      0.00
                                0.00      0.00      0.00
                                0.00      0.00      0.00

[...]

                                0.00      0.00      0.00

     Writing all to output data dir new_calculations/myprefix.save/

     General routines

     Parallel routines

     PAW routines

   This run was terminated on:  17:12:41  20May2023

   JOB DONE.