     Program PWSCF v.7.0 starts on 20May2023 at 19:11:42

     Reading input from espresso_23064.pwi
Warning: card &CELL ignored
Warning: card / ignored

     Current dimensions of program PWSCF are:
     Max number of different atomic species (ntypx) = 10
     Max number of k-points (npk) =  40000
     Max angular momentum in pseudopotentials (lmaxx) =  4
     file O.pbe-n-kjpaw_psl.0.1.UPF: wavefunction(s)  2P renormalized

     gamma-point specific algorithms are used

     Subspace diagonalization in iterative solution of the eigenvalue problem:
     a serial algorithm will be used

     Using Slab Decomposition

     bravais-lattice index     =            0
     lattice parameter (alat)  =       9.7333  a.u.
     unit-cell volume          =    1462.6982 (a.u.)^3
     number of atoms/cell      =           20
     number of atomic types    =            3
     number of electrons       =       172.00
     number of Kohn-Sham states=          103
     kinetic-energy cutoff     =      30.0000  Ry
     charge density cutoff     =     240.0000  Ry
     scf convergence threshold =      1.0E-06
     mixing beta               =       0.7000
     number of iterations used =            8  plain     mixing
     Exchange-correlation= SLA  PW   PBX  PBC
                           (   1   4   3   4   0   0   0)

     celldm(1)=   9.733350  celldm(2)=   0.000000  celldm(3)=   0.000000
     celldm(4)=   0.000000  celldm(5)=   0.000000  celldm(6)=   0.000000

     crystal axes: (cart. coord. in units of alat)
               a(1) = (   1.000000   0.000000   0.000000 )
               a(2) = (   0.002117   1.077927   0.000000 )
               a(3) = (   0.005579   0.155381   1.471561 )

     reciprocal axes: (cart. coord. in units 2 pi/alat)
               b(1) = (  1.000000 -0.001964 -0.003584 )
               b(2) = (  0.000000  0.927706 -0.097956 )
               b(3) = (  0.000000  0.000000  0.679550 )

     PseudoPot. # 1 for Ti read from file:
     /home/pragov/projects/rrg-bengioy-ad/pragov/crystal_structure_design/SSSP/ti_pbe_v1.4.uspp.F.UPF
     MD5 check sum: 88a00a6731bd790ddea75d31a80cb452
     Pseudo is Ultrasoft + core correction, Zval = 12.0
     Generated by new atomic code, or converted to UPF format
     Using radial grid of  851 points,  6 beta functions with:
                l(1) =   0
                l(2) =   0
                l(3) =   1
                l(4) =   1
                l(5) =   2
                l(6) =   2
     Q(r) pseudized with  6 coefficients,  rinner =    1.000   1.000   1.000
                                                       1.000   1.000

     PseudoPot. # 2 for V  read from file:
     /home/pragov/projects/rrg-bengioy-ad/pragov/crystal_structure_design/SSSP/v_pbe_v1.4.uspp.F.UPF
     MD5 check sum: 22b79981416ebb76fdaf5b1b8640f6fb
     Pseudo is Ultrasoft + core correction, Zval = 13.0
     Generated by new atomic code, or converted to UPF format
     Using radial grid of  853 points,  6 beta functions with:
                l(1) =   0
                l(2) =   0
                l(3) =   1
                l(4) =   1
                l(5) =   2
                l(6) =   2
     Q(r) pseudized with  8 coefficients,  rinner =    1.100   1.100   1.100
                                                       1.100   1.100

     PseudoPot. # 3 for O  read from file:
     /home/pragov/projects/rrg-bengioy-ad/pragov/crystal_structure_design/SSSP/O.pbe-n-kjpaw_psl.0.1.UPF
     MD5 check sum: 0234752ac141de4415c5fc33072bef88
     Pseudo is Projector augmented-wave + core cor, Zval =  6.0
     Generated using "atomic" code by A. Dal Corso  v.5.0.99 svn rev. 10869
     Shape of augmentation charge: BESSEL
     Using radial grid of 1095 points,  4 beta functions with:
                l(1) =   0
                l(2) =   0
                l(3) =   1
                l(4) =   1
     Q(r) pseudized with 0 coefficients

     atomic species   valence    mass     pseudopotential
        Ti            12.00    47.86700     Ti( 1.00)
        V             13.00    50.94150     V ( 1.00)
        O              6.00    15.99900     O ( 1.00)

     No symmetry found

                                    s                        frac. trans.

      isym =  1     identity

 cryst.   s( 1) = (     1          0          0      )
                  (     0          1          0      )
                  (     0          0          1      )

 cart.    s( 1) = (  1.0000000  0.0000000  0.0000000 )
                  (  0.0000000  1.0000000 -0.0000000 )
                  (  0.0000000  0.0000000  1.0000000 )

   Cartesian axes

     site n.     atom                  positions (alat units)
         1           Ti  tau(   1) = (   0.5035526   0.8821559   0.2139503  )
         2           Ti  tau(   2) = (   0.4982623   0.2576872   0.5142723  )
         3           Ti  tau(   3) = (   1.0035390   0.4279997   0.9515290  )
         4           Ti  tau(   4) = (   0.5085047   0.3540079   1.2604156  )
         5           V   tau(   5) = (   0.0021152   0.3503851   0.2282200  )
         6           V   tau(   6) = (   1.0031299   0.8034154   0.5144416  )
         7           V   tau(   7) = (   0.5041906   0.9717513   0.9530595  )
         8           V   tau(   8) = (   1.0060525   0.8842546   1.2476380  )
         9           O   tau(   9) = (   0.3243450   0.5762860   0.3660641  )
        10           O   tau(  10) = (   0.8345400   0.7284898   0.1523404  )
        11           O   tau(  11) = (   0.6603382   0.9809240   0.5801732  )
        12           O   tau(  12) = (   0.2052446   1.1100281   0.3770081  )
        13           O   tau(  13) = (   0.6376368   0.1846015   0.1367654  )
        14           O   tau(  14) = (   0.1517864   0.7835161   0.8714614  )
        15           O   tau(  15) = (   0.8402401   0.4299968   0.6078312  )
        16           O   tau(  16) = (   0.3700502   1.0574328   1.3426450  )
        17           O   tau(  17) = (   0.3387945   0.2649042   0.8711391  )
        18           O   tau(  18) = (   0.1761623   0.5056202   1.3195105  )
        19           O   tau(  19) = (   0.6967649   0.6384101   1.1079472  )
        20           O   tau(  20) = (   0.8117159   0.1412205   1.0991987  )

   Crystallographic axes

     site n.     atom                  positions (cryst. coord.)
         1           Ti  tau(   1) = (  0.5010530  0.7974240  0.1453900  )
         2           Ti  tau(   2) = (  0.4959130  0.1886820  0.3494740  )
         3           Ti  tau(   3) = (  0.9992880  0.3038500  0.6466120  )
         4           Ti  tau(   4) = (  0.5032920  0.2049500  0.8565160  )
         5           V   tau(   5) = (  0.0006090  0.3026990  0.1550870  )
         6           V   tau(   6) = (  0.9997080  0.6949410  0.3495890  )
         7           V   tau(   7) = (  0.4988660  0.8081420  0.6476520  )
         8           V   tau(   8) = (  0.9998440  0.6981150  0.8478330  )
         9           O   tau(   9) = (  0.3219010  0.4987660  0.2487590  )
        10           O   tau(  10) = (  0.8325630  0.6609020  0.1035230  )
        11           O   tau(  11) = (  0.6563320  0.8531780  0.3942570  )
        12           O   tau(  12) = (  0.2017130  0.9928500  0.2561960  )
        13           O   tau(  13) = (  0.6367840  0.1578590  0.0929390  )
        14           O   tau(  14) = (  0.1471240  0.6415080  0.5922020  )
        15           O   tau(  15) = (  0.8372170  0.3393700  0.4130520  )
        16           O   tau(  16) = (  0.3631610  0.8494670  0.9123950  )
        17           O   tau(  17) = (  0.3351520  0.1604200  0.5919830  )
        18           O   tau(  18) = (  0.1704400  0.3398130  0.8966740  )
        19           O   tau(  19) = (  0.6915400  0.4837270  0.7529060  )
        20           O   tau(  20) = (  0.8074990  0.0233380  0.7469610  )

     number of k points=     1  Methfessel-Paxton smearing, width (Ry)=  0.0010
                       cart. coord. in units 2pi/alat
        k(    1) = (   0.0000000   0.0000000   0.0000000), wk =   2.0000000

                       cryst. coord.
        k(    1) = (   0.0000000   0.0000000   0.0000000), wk =   2.0000000

     Check: negative core charge=   -0.000018

     Initial potential from superposition of free atoms

     starting charge     167.9949, renormalised to     172.0000

     negative rho (up, down):  9.941E-03 0.000E+00
     Starting wfcs are  128 randomized atomic wfcs
     Checking if some PAW data can be deallocated...

     Self-consistent Calculation

     iteration #  1     ecut=    30.00 Ry     beta= 0.70
     Davidson diagonalization with overlap

     ethr =  1.00E-02,  avg # of iterations =  2.0

     negative rho (up, down):  1.863E-02 0.000E+00

     total energy              =   -1531.66779745 Ry
     estimated scf accuracy    <      35.80172472 Ry

[...]

     total energy              =   -1558.35645738 Ry
     estimated scf accuracy    <       0.00001226 Ry

     iteration # 35     ecut=    30.00 Ry     beta= 0.70
     Davidson diagonalization with overlap

     ethr =  1.08E-09,  avg # of iterations =  1.0

[...]

     End of self-consistent calculation

          k = 0.0000 0.0000 0.0000 (  2041 PWs)   bands (ev):

   -53.0956 -52.9195 -52.8966 -52.8131 -46.1767 -46.1596 -46.1217 -45.8460
   -27.0696 -26.9361 -26.9219 -26.8933 -26.8664 -26.8254 -26.8002 -26.7452
   -26.6248 -26.5756 -26.5411 -26.5049 -22.6136 -22.5735 -22.5673 -22.5094
   -22.4811 -22.4526 -22.4182 -22.3581 -22.3296 -22.1753 -22.1277 -22.0839
    -8.3749  -7.7719  -7.4069  -7.3456  -7.2795  -7.2576  -7.2055  -7.1309
    -6.9987  -6.9687  -6.9406  -6.9212   4.5594   4.7331   4.9257   5.1811
     5.3562   5.3712   5.5832   5.6677   5.6784   5.7439   5.8913   6.1953
     6.2181   6.2912   6.3510   6.4087   6.5183   6.5523   6.6361   6.7241
     6.7700   6.9904   7.0707   7.1058   7.7593   7.8420   7.8947   7.9187
     7.9464   8.0177   8.0443   8.2142   8.5833   8.6378   8.6541   8.7000
    11.5485  11.7655  11.8289  12.0378  12.1254  12.2714  12.3483  12.4988
    12.5394  12.6227  12.7353  12.7551  12.7770  12.9525  13.1082  13.1742
    13.3074  13.3641  13.4365  13.5274  13.6505  13.6693  13.9074

     occupation numbers
     1.0000   1.0000   1.0000   1.0000   1.0000   1.0000   1.0000   1.0000
     1.0000   1.0000   1.0000   1.0000   1.0000   1.0000   1.0000   1.0000
     1.0000   1.0000   1.0000   1.0000   1.0000   1.0000   1.0000   1.0000
     1.0000   1.0000   1.0000   1.0000   1.0000   1.0000   1.0000   1.0000
     1.0000   1.0000   1.0000   1.0000   1.0000   1.0000   1.0000   1.0000
     1.0000   1.0000   1.0000   1.0000   1.0000   1.0000   1.0000   1.0000
     1.0000   1.0000   1.0000   1.0000   1.0000   1.0000   1.0000   1.0000
     1.0000   1.0000   1.0000   1.0000   1.0000   1.0000   1.0000   1.0000
     1.0000   1.0000   1.0000   1.0000   1.0000   1.0000   1.0000   1.0000
     1.0000   1.0000   1.0000   1.0000   1.0000   1.0000   1.0000   1.0000
     1.0000   1.0000   1.0000   1.0000   1.0000   1.0002  -0.0002  -0.0000
    -0.0000  -0.0000  -0.0000  -0.0000  -0.0000  -0.0000  -0.0000  -0.0000
    -0.0000  -0.0000  -0.0000  -0.0000  -0.0000  -0.0000  -0.0000

     the Fermi energy is    12.3098 ev

!    total energy              =   -1558.35645743 Ry
     estimated scf accuracy    <       0.00000028 Ry
     smearing contrib. (-TS)   =       0.00000284 Ry
     internal energy E=F+TS    =   -1558.35646026 Ry

     The total energy is F=E-TS. E is the sum of the following terms:
     one-electron contribution =    -510.31877990 Ry
     hartree contribution      =     340.68695254 Ry
     xc contribution           =    -239.70231290 Ry
     ewald contribution        =   -1034.79479480 Ry
     one-center paw contrib.   =    -114.22752519 Ry
      -> PAW hartree energy AE =     356.43287107 Ry
      -> PAW hartree energy PS =    -355.15313395 Ry
      -> PAW xc energy AE      =    -206.14429444 Ry
      -> PAW xc energy PS      =      90.63703212 Ry
      -> total E_H with PAW    =     341.96668967 Ry
      -> total E_XC with PAW   =    -355.20957523 Ry

     convergence has been achieved in  35 iterations

     negative rho (up, down):  9.753E-03 0.000E+00

     Forces acting on atoms (cartesian axes, Ry/au):

     atom    1 type  1   force =    -0.01312672   -0.01076575    0.02566692
     atom    2 type  1   force =     0.01188707    0.00699648   -0.00398690
     atom    3 type  1   force =     0.00019602    0.00193061   -0.00852003
     atom    4 type  1   force =     0.00770823   -0.00527208   -0.01742186
     atom    5 type  2   force =     0.00390315    0.03976684    0.01103976
     atom    6 type  2   force =    -0.00825748   -0.01365914   -0.00334710
     atom    7 type  2   force =     0.01314818    0.01589691    0.02968630
     atom    8 type  2   force =    -0.01067373   -0.03650932   -0.01907943
     atom    9 type  3   force =    -0.03467360    0.00298249   -0.00508771
     atom   10 type  3   force =     0.04098435   -0.01450825   -0.01538868
     atom   11 type  3   force =     0.01312369   -0.02736425    0.01820356
     atom   12 type  3   force =    -0.03512552    0.00756074   -0.00700741
     atom   13 type  3   force =     0.01101523    0.01324286    0.01272790
     atom   14 type  3   force =     0.01128294    0.05354293   -0.00125286
     atom   15 type  3   force =     0.03021458    0.00768785   -0.02828261
     atom   16 type  3   force =    -0.01234357   -0.03648678   -0.03478011
     atom   17 type  3   force =     0.00192678   -0.01778890    0.02313760
     atom   18 type  3   force =    -0.03164792    0.01743282    0.01413259
     atom   19 type  3   force =    -0.00897332    0.05304695    0.00724327
     atom   20 type  3   force =     0.00943162   -0.05773300    0.00231681
     The non-local contrib.  to forces
     atom    1 type  1   force =    -0.02217467    0.04125959    0.03984841
     atom    2 type  1   force =    -0.01672797   -0.01632155   -0.03384968
     atom    3 type  1   force =    -0.00991262    0.02103811    0.04743170
     atom    4 type  1   force =     0.01030910   -0.03394013   -0.04731433
     atom    5 type  2   force =     0.01066803    0.00768196    0.02646190
     atom    6 type  2   force =     0.01885567   -0.04313377   -0.04364708
     atom    7 type  2   force =     0.03423983    0.00279869    0.03431568
     atom    8 type  2   force =    -0.02514575    0.00809235   -0.02970751
     atom    9 type  3   force =    -0.24171082    0.01133381   -0.01233550
     atom   10 type  3   force =     0.08529859   -0.05201462    0.10264221
     atom   11 type  3   force =    -0.03071826    0.04482265   -0.02746008
     atom   12 type  3   force =     0.04528884    0.02290509   -0.04623278
     atom   13 type  3   force =     0.00742675   -0.14519532    0.01328713
     atom   14 type  3   force =    -0.10224511    0.00558050    0.07465299
     atom   15 type  3   force =     0.17292455    0.10500385   -0.13826131
     atom   16 type  3   force =     0.02024659    0.09616745   -0.07772841
     atom   17 type  3   force =     0.02272622   -0.16146589    0.07765063
     atom   18 type  3   force =    -0.02046433    0.09192546   -0.08555844
     atom   19 type  3   force =     0.15525403    0.01779643    0.02262571
     atom   20 type  3   force =    -0.10348076   -0.04728656    0.01301962
     The ionic contribution  to forces
     atom    1 type  1   force =    -0.74881418   -3.93739076   -2.46926018
     atom    2 type  1   force =     0.36325962    5.01793917    2.94523779
     atom    3 type  1   force =     0.50493921   -4.39724187   -1.62415865
     atom    4 type  1   force =    -0.36863069    3.00587765    1.34563773
     atom    5 type  2   force =    -0.31455016   -5.03501258   -4.30971849
     atom    6 type  2   force =     0.25854295    4.40113246    2.62041166
     atom    7 type  2   force =     0.27787514   -4.90091989   -1.91451437
     atom    8 type  2   force =     0.04665830    5.48704409    3.33719983
     atom    9 type  3   force =     2.57407362   -0.13013392    0.05317426
     atom   10 type  3   force =     0.09279348    0.58614841   -3.42197492
     atom   11 type  3   force =     1.37512757   -1.45402097    2.63320254
     atom   12 type  3   force =    -3.28464228    0.22499566   -0.38225662
     atom   13 type  3   force =     2.24075079    1.80467166   -1.19230813
     atom   14 type  3   force =     2.37899424    2.08889314   -1.05352282
     atom   15 type  3   force =    -2.00303988   -1.38977009    1.38096910
     atom   16 type  3   force =    -2.40517723   -1.79181683    0.30076943
     atom   17 type  3   force =    -0.69300490    1.16049513   -1.02091889
     atom   18 type  3   force =    -0.27676188   -0.69650991    2.61709371
     atom   19 type  3   force =    -2.70954495    1.71641464   -0.37750429
     atom   20 type  3   force =     2.69115123   -1.76079520    0.53244130
     The local contribution  to forces
     atom    1 type  1   force =     0.75755608    3.88348518    2.45391099
     atom    2 type  1   force =    -0.33711024   -4.99526497   -2.91569990
     atom    3 type  1   force =    -0.49689472    4.37696006    1.56951353
     atom    4 type  1   force =     0.36775844   -2.97381879   -1.31444236
     atom    5 type  2   force =     0.30974956    5.06601798    4.29569344
     atom    6 type  2   force =    -0.28374890   -4.36986036   -2.57987790
     atom    7 type  2   force =    -0.29751460    4.91181040    1.90898370
     atom    8 type  2   force =    -0.03446023   -5.52966254   -3.32779292
     atom    9 type  3   force =    -2.37063651    0.12189181   -0.04573165
     atom   10 type  3   force =    -0.13467774   -0.54977527    3.30459614
     atom   11 type  3   force =    -1.33095292    1.38172778   -2.58706803
     atom   12 type  3   force =     3.20361676   -0.24028830    0.42103344
     atom   13 type  3   force =    -2.23610046   -1.64753614    1.19227086
     atom   14 type  3   force =    -2.26632204   -2.04017194    0.97834097
     atom   15 type  3   force =     1.86245858    1.29415520   -1.27311517
     atom   16 type  3   force =     2.37179634    1.65987370   -0.26002054
     atom   17 type  3   force =     0.67280239   -1.01893725    0.96757369
     atom   18 type  3   force =     0.26425688    0.62378596   -2.51775911
     atom   19 type  3   force =     2.54726043   -1.67967271    0.36196613
     atom   20 type  3   force =    -2.57934905    1.74848366   -0.54270350
     The core correction contribution to forces
     atom    1 type  1   force =     0.00036695    0.00175678    0.00128711
     atom    2 type  1   force =     0.00248641    0.00074284    0.00051279
     atom    3 type  1   force =     0.00208524    0.00146693   -0.00141154
     atom    4 type  1   force =    -0.00170381   -0.00324639   -0.00149795
     atom    5 type  2   force =    -0.00199915    0.00130270   -0.00130992
     atom    6 type  2   force =    -0.00189298   -0.00187381    0.00010769
     atom    7 type  2   force =    -0.00149280    0.00197028    0.00084448
     atom    8 type  2   force =     0.00228007   -0.00208917    0.00097468
     atom    9 type  3   force =     0.00332507    0.00003012    0.00003033
     atom   10 type  3   force =    -0.00212340    0.00116683   -0.00051085
     atom   11 type  3   force =     0.00005969   -0.00012696   -0.00037795
     atom   12 type  3   force =     0.00030028   -0.00034810    0.00067888
     atom   13 type  3   force =    -0.00102017    0.00137822   -0.00069109
     atom   14 type  3   force =     0.00061637   -0.00080895   -0.00096661
     atom   15 type  3   force =    -0.00194329   -0.00139209    0.00225752
     atom   16 type  3   force =     0.00064897   -0.00071354    0.00200195
     atom   17 type  3   force =    -0.00071621    0.00224246   -0.00106791
     atom   18 type  3   force =     0.00133803   -0.00170735    0.00014390
     atom   19 type  3   force =    -0.00183300   -0.00155929    0.00011798
     atom   20 type  3   force =     0.00120631    0.00187283   -0.00045774
     The Hubbard contrib.    to forces
     atom    1 type  1   force =     0.00000000    0.00000000    0.00000000
     atom    2 type  1   force =     0.00000000    0.00000000    0.00000000
     atom    3 type  1   force =     0.00000000    0.00000000    0.00000000
     atom    4 type  1   force =     0.00000000    0.00000000    0.00000000
     atom    5 type  2   force =     0.00000000    0.00000000    0.00000000
     atom    6 type  2   force =     0.00000000    0.00000000    0.00000000
     atom    7 type  2   force =     0.00000000    0.00000000    0.00000000
     atom    8 type  2   force =     0.00000000    0.00000000    0.00000000
     atom    9 type  3   force =     0.00000000    0.00000000    0.00000000
     atom   10 type  3   force =     0.00000000    0.00000000    0.00000000
     atom   11 type  3   force =     0.00000000    0.00000000    0.00000000
     atom   12 type  3   force =     0.00000000    0.00000000    0.00000000
     atom   13 type  3   force =     0.00000000    0.00000000    0.00000000
     atom   14 type  3   force =     0.00000000    0.00000000    0.00000000
     atom   15 type  3   force =     0.00000000    0.00000000    0.00000000
     atom   16 type  3   force =     0.00000000    0.00000000    0.00000000
     atom   17 type  3   force =     0.00000000    0.00000000    0.00000000
     atom   18 type  3   force =     0.00000000    0.00000000    0.00000000
     atom   19 type  3   force =     0.00000000    0.00000000    0.00000000
     atom   20 type  3   force =     0.00000000    0.00000000    0.00000000
     The SCF correction term to forces
     atom    1 type  1   force =    -0.00006008    0.00012074   -0.00012123
     atom    2 type  1   force =    -0.00001993   -0.00010174   -0.00018971
     atom    3 type  1   force =    -0.00002026   -0.00029533    0.00010311
     atom    4 type  1   force =    -0.00002399   -0.00014713    0.00019323
     atom    5 type  2   force =     0.00003569   -0.00022592   -0.00008898
     atom    6 type  2   force =    -0.00001340    0.00007364   -0.00034327
     atom    7 type  2   force =     0.00004144    0.00023472    0.00005499
     atom    8 type  2   force =    -0.00000530    0.00010324    0.00024469
     atom    9 type  3   force =     0.00027586   -0.00014205   -0.00022696
     atom   10 type  3   force =    -0.00030576   -0.00003632   -0.00014307
     atom   11 type  3   force =    -0.00039157    0.00023052   -0.00009472
     atom   12 type  3   force =     0.00031172    0.00029367   -0.00023214
     atom   13 type  3   force =    -0.00004086   -0.00007828    0.00016731
     atom   14 type  3   force =     0.00024030    0.00004746    0.00024081
     atom   15 type  3   force =    -0.00018456   -0.00031172   -0.00013456
     atom   16 type  3   force =     0.00014258   -0.00000027    0.00019565
     atom   17 type  3   force =     0.00012010   -0.00012606   -0.00010172
     atom   18 type  3   force =    -0.00001581   -0.00006406    0.00021072
     atom   19 type  3   force =    -0.00010902    0.00006517    0.00003593
     atom   20 type  3   force =    -0.00009529   -0.00001045    0.00001532

     Total force =     0.171271     Total SCF correction =     0.001321

     Computing stress (Cartesian axis) and pressure

     negative rho (up, down):  9.753E-03 0.000E+00
          total   stress  (Ry/bohr**3)                   (kbar)     P=     -513.78
  -0.00343175  -0.00000342   0.00007610         -504.83       -0.50       11.19
  -0.00000342  -0.00334550   0.00015867           -0.50     -492.14       23.34
   0.00007610   0.00015867  -0.00370064           11.19       23.34     -544.38

     kinetic stress (kbar)  30255.33     22.82     43.65
                               22.82  30226.35    -25.23
                               43.65    -25.23  30237.42

     local   stress (kbar)  -5139.26    187.76    -43.11
                              187.76  -3870.50   1210.23
                              -43.11   1210.23  -5256.84

     nonloc. stress (kbar)   4707.75      5.89      1.43
                                5.89   4688.02    -25.76
                                1.43    -25.76   4723.70

     hartree stress (kbar)  11521.53    -65.42     13.03
                              -65.42  11125.28   -385.54
                               13.03   -385.54  11616.43

     exc-cor stress (kbar)  -4407.90     -0.07      0.42
                               -0.07  -4411.27     -2.71
                                0.42     -2.71  -4408.56

     corecor stress (kbar)  -3026.01     -0.56     -0.37
                               -0.56  -3024.88      2.11
                               -0.37      2.11  -3027.56

     ewald   stress (kbar) -34416.27   -150.92     -3.86
                             -150.92 -35225.14   -749.75
                               -3.86   -749.75 -34428.98

     hubbard stress (kbar)      0.00      0.00      0.00
                                0.00      0.00      0.00
                                0.00      0.00      0.00

     DFT-D   stress (kbar)      0.00      0.00      0.00
                                0.00      0.00      0.00
                                0.00      0.00      0.00

     XDM     stress (kbar)      0.00      0.00      0.00
                                0.00      0.00      0.00
                                0.00      0.00      0.00

     dft-nl  stress (kbar)      0.00      0.00      0.00
                                0.00      0.00      0.00
                                0.00      0.00      0.00

     TS-vdW  stress (kbar)      0.00      0.00      0.00
                                0.00      0.00      0.00
                                0.00      0.00      0.00

[...]

                                0.00      0.00      0.00

     Writing all to output data dir new_calculations/myprefix.save/

     General routines

     Parallel routines

     PAW routines

   This run was terminated on:  19:12:54  20May2023

   JOB DONE.