     Program PWSCF v.7.0 starts on 21May2023 at  8:28:17

     Reading input from espresso_17986.pwi
Warning: card &CELL ignored
Warning: card / ignored

     Current dimensions of program PWSCF are:
     Max number of different atomic species (ntypx) = 10
     Max number of k-points (npk) =  40000
     Max angular momentum in pseudopotentials (lmaxx) =  4
     file K.pbe-spn-kjpaw_psl.1.0.0.UPF: wavefunction(s)  3S renormalized

     gamma-point specific algorithms are used
     Message from routine setup:
     using ibrav=0 with symmetry is DISCOURAGED, use correct ibrav instead

     Subspace diagonalization in iterative solution of the eigenvalue problem:
     a serial algorithm will be used

     Using Slab Decomposition

     bravais-lattice index     =            0
     lattice parameter (alat)  =      14.9653  a.u.
     unit-cell volume          =    2369.9771 (a.u.)^3
     number of atoms/cell      =           10
     number of atomic types    =            4
     number of electrons       =        85.00
     number of Kohn-Sham states=           52
     kinetic-energy cutoff     =      30.0000  Ry
     charge density cutoff     =     240.0000  Ry
     scf convergence threshold =      1.0E-06
     mixing beta               =       0.7000
     number of iterations used =            8  plain     mixing
     Exchange-correlation=  SLA  PW   PBX  PBC
                           (   1   4   3   4   0   0   0)

     celldm(1)=  14.965333  celldm(2)=   0.000000  celldm(3)=   0.000000
     celldm(4)=   0.000000  celldm(5)=   0.000000  celldm(6)=   0.000000

     crystal axes: (cart. coord. in units of alat)
               a(1) = (   1.000000   0.000000   0.000000 )
               a(2) = (   0.500000   0.866025   0.000000 )
               a(3) = (   0.500000   0.288675   0.816497 )

     reciprocal axes: (cart. coord. in units 2 pi/alat)
               b(1) = (  1.000000 -0.577350 -0.408248 )
               b(2) = (  0.000000  1.154701 -0.408248 )
               b(3) = (  0.000000  0.000000  1.224745 )

     PseudoPot. # 1 for K  read from file:
     /home/pragov/projects/rrg-bengioy-ad/pragov/crystal_structure_design/SSSP/K.pbe-spn-kjpaw_psl.1.0.0.UPF
     MD5 check sum: 7d58810084cac21f60fbe77ea2b688fd
     Pseudo is Projector augmented-wave + core cor, Zval =  9.0
     Generated using "atomic" code by A. Dal Corso  v.5.1
     Shape of augmentation charge: PSQ
     Using radial grid of 1165 points,  6 beta functions with:
                l(1) =   0
                l(2) =   0
                l(3) =   1
                l(4) =   1
                l(5) =   2
                l(6) =   2
     Q(r) pseudized with 0 coefficients

     PseudoPot. # 2 for Hg read from file:
     /home/pragov/projects/rrg-bengioy-ad/pragov/crystal_structure_design/SSSP/Hg_ONCV_PBE-1.0.oncvpsp.upf
     MD5 check sum: dd5a8773074bfcf4280086d4d95875c4
     Pseudo is Norm-conserving, Zval = 20.0
     Generated using ONCVPSP code by D. R. Hamann
     Using radial grid of 1262 points,  8 beta functions with:
                l(1) =   0
                l(2) =   0
                l(3) =   1
                l(4) =   1
                l(5) =   2
                l(6) =   2
                l(7) =   3
                l(8) =   3

     PseudoPot. # 3 for As read from file:
     /home/pragov/projects/rrg-bengioy-ad/pragov/crystal_structure_design/SSSP/As.pbe-n-rrkjus_psl.0.2.UPF
     MD5 check sum: 767315de957beeeb34f87d97bf945c8f
     Pseudo is Ultrasoft + core correction, Zval =  5.0
     Generated using "atomic" code by A. Dal Corso  v.5.0.99 svn rev. 10869
     Using radial grid of 1209 points,  4 beta functions with:
                l(1) =   0
                l(2) =   0
                l(3) =   1
                l(4) =   1
     Q(r) pseudized with 0 coefficients

     PseudoPot. # 4 for Br read from file:
     /home/pragov/projects/rrg-bengioy-ad/pragov/crystal_structure_design/SSSP/br_pbe_v1.4.uspp.F.UPF
     MD5 check sum: d3ffb7b29f6225aa16fe06858fb2a80b
     Pseudo is Ultrasoft + core correction, Zval =  7.0
     Generated by new atomic code, or converted to UPF format
     Using radial grid of  879 points,  6 beta functions with:
                l(1) =   0
                l(2) =   0
                l(3) =   1
                l(4) =   1
                l(5) =   2
                l(6) =   2
     Q(r) pseudized with  8 coefficients,  rinner =    1.100   1.100   1.100
                                                       1.100   1.100

     atomic species   valence    mass     pseudopotential
        K              9.00    39.09830     K ( 1.00)
        Hg            20.00   200.59200     Hg( 1.00)
        As             5.00    74.92159     As( 1.00)
        Br             7.00    79.90400     Br( 1.00)

     12 Sym. Ops., with inversion, found

                                    s                        frac. trans.

      isym =  1     identity

 cryst.   s( 1) = (     1          0          0      )
                  (     0          1          0      )
                  (     0          0          1      )

 cart.    s( 1) = (  1.0000000  0.0000000  0.0000000 )
                  (  0.0000000  1.0000000  0.0000000 )
                  (  0.0000000  0.0000000  1.0000000 )

      isym =  2     180 deg rotation - cart. axis [1,0,0]

[...]

      isym =  3     120 deg rotation - cryst. axis [0,0,1]

[...]

      isym =  6     180 deg rotation - cryst. axis [1,1,0]

[...]

      isym =  7     inversion

[...]

      isym =  8     inv. 180 deg rotation - cart. axis [1,0,0]

[...]

      isym =  9     inv. 120 deg rotation - cryst. axis [0,0,1]

 cryst.   s( 9) = (     1         -1          0      )
                  (     1          0          0      )
                  (     1          0         -1      )

 cart.    s( 9) = (  0.5000000  0.8660254 -0.0000000 )
                  ( -0.8660254  0.5000000 -0.0000000 )
                  (  0.0000000  0.0000000 -1.0000000 )

[...]

 cryst.   s(10) = (     0          1          0      )
                  (    -1          1          0      )
                  (     0          1         -1      )

 cart.    s(10) = (  0.5000000 -0.8660254  0.0000000 )
                  (  0.8660254  0.5000000 -0.0000000 )
                  (  0.0000000  0.0000000 -1.0000000 )

[...]

      isym = 12     inv. 180 deg rotation - cryst. axis [1,1,0]

 cryst.   s(12) = (     1         -1          0      )
                  (     0         -1          0      )
                  (     0         -1          1      )

 cart.    s(12) = (  0.5000000 -0.8660254  0.0000000 )
                  ( -0.8660254 -0.5000000  0.0000000 )
                  (  0.0000000  0.0000000  1.0000000 )

   Cartesian axes

     site n.     atom                  positions (alat units)
         1           K   tau(   1) = (   1.5000000   0.8660254   0.6123724  )
         2           K   tau(   2) = (   0.5000000   0.2886751   0.2041241  )
         3           Hg  tau(   3) = (   1.0000000   0.5773503   0.4082483  )
         4           As  tau(   4) = (   0.0000000   0.0000000   0.0000000  )
         5           Br  tau(   5) = (   1.0000000   0.2762529   0.1953403  )
         6           Br  tau(   6) = (   0.7392420   0.4268016   0.6211563  )
         7           Br  tau(   7) = (   1.0000000   0.8784477   0.6211563  )
         8           Br  tau(   8) = (   0.7392420   0.7278990   0.1953403  )
         9           Br  tau(   9) = (   1.2607580   0.4268016   0.6211563  )
        10           Br  tau(  10) = (   1.2607580   0.7278990   0.1953403  )

   Crystallographic axes

     site n.     atom                  positions (cryst. coord.)
         1           K   tau(   1) = (  0.7500000  0.7500000  0.7500000  )
         2           K   tau(   2) = (  0.2500000  0.2500000  0.2500000  )
         3           Hg  tau(   3) = (  0.5000000  0.5000000  0.5000000  )
         4           As  tau(   4) = (  0.0000000  0.0000000  0.0000000  )
         5           Br  tau(   5) = (  0.7607580  0.2392420  0.2392420  )
         6           Br  tau(   6) = (  0.2392420  0.2392420  0.7607580  )
         7           Br  tau(   7) = (  0.2392420  0.7607580  0.7607580  )
         8           Br  tau(   8) = (  0.2392420  0.7607580  0.2392420  )
         9           Br  tau(   9) = (  0.7607580  0.2392420  0.7607580  )
        10           Br  tau(  10) = (  0.7607580  0.7607580  0.2392420  )

     number of k points=     1  Methfessel-Paxton smearing, width (Ry)=  0.0010
                       cart. coord. in units 2pi/alat
        k(    1) = (   0.0000000   0.0000000   0.0000000), wk =   2.0000000

                       cryst. coord.
        k(    1) = (   0.0000000   0.0000000   0.0000000), wk =   2.0000000

     Check: negative core charge=   -0.000002

     Initial potential from superposition of free atoms

     starting charge      84.9619, renormalised to      85.0000
     Starting wfcs are   54 randomized atomic wfcs
     Checking if some PAW data can be deallocated...

     Self-consistent Calculation

     iteration #  1     ecut=    30.00 Ry     beta= 0.70
     Davidson diagonalization with overlap

     ethr =  1.00E-02,  avg # of iterations =  7.0

     Threshold (ethr) on eigenvalues was too large:
     Diagonalizing with lowered threshold

     Davidson diagonalization with overlap

[...]

     total energy              =    -835.43204942 Ry
     estimated scf accuracy    <       0.44625074 Ry

[...]

     ethr =  7.46E-06,  avg # of iterations =  1.0

[...]

     ethr =  7.46E-06,  avg # of iterations =  1.0
     Minimization algorithm failed to find Fermi energy: reverting to bisection
     Possible cause: smearing is larger than the electronic band-gap.

[...]

     total energy              =    -835.60977475 Ry
     estimated scf accuracy    <       0.00000478 Ry

     iteration # 22     ecut=    30.00 Ry     beta= 0.70
     Davidson diagonalization with overlap

     ethr =  5.51E-09,  avg # of iterations =  1.0
     Minimization algorithm failed to find Fermi energy: reverting to bisection
     Possible cause: smearing is larger than the electronic band-gap.

     End of self-consistent calculation

          k = 0.0000 0.0000 0.0000 (  3308 PWs)   bands (ev):

  -112.1959 -60.0649 -60.0649 -60.0649 -27.1136 -27.1134 -11.5868 -10.8537
   -10.8537 -10.8537 -10.6703 -10.6703 -10.5718 -10.5718 -10.5718 -10.5671
   -10.5671 -10.5671  -7.1313  -3.0952  -3.0952  -2.8911  -2.8911  -2.8911
    -1.3073  -1.3072  -1.3072  -0.9459   0.4776   0.4776   0.4776   1.5620
     1.5620   1.5620   1.6307   1.6307   1.6307   1.7531   1.7531   2.1913
     2.1913   2.1914   4.8950   4.8950   4.8950   5.1004   6.2883   7.3725
     8.3668   8.3669   9.0557   9.0559

     occupation numbers
     1.0000   1.0000   1.0000   1.0000   1.0000   1.0000   1.0000   1.0000
     1.0000   1.0000   1.0000   1.0000   1.0000   1.0000   1.0000   1.0000
     1.0000   1.0000   1.0000   1.0000   1.0000   1.0000   1.0000   1.0000
     1.0000   1.0000   1.0000   1.0000   1.0000   1.0000   1.0000   1.0000
     1.0000   1.0000   1.0000   1.0000   1.0000   1.0000   1.0000   1.0000
     1.0000   1.0000   0.1679   0.1669   0.1652  -0.0000  -0.0000  -0.0000
    -0.0000  -0.0000  -0.0000  -0.0000

     the Fermi energy is     4.8891 ev

!    total energy              =    -835.60977464 Ry
     estimated scf accuracy    <       0.00000033 Ry
     smearing contrib. (-TS)   =      -0.00043272 Ry
     internal energy E=F+TS    =    -835.60934192 Ry

     The total energy is F=E-TS. E is the sum of the following terms:
     one-electron contribution =    -362.17969866 Ry
     hartree contribution      =     202.28827218 Ry
     xc contribution           =    -216.04836076 Ry
     ewald contribution        =    -348.83579063 Ry
     one-center paw contrib.   =    -110.83376406 Ry
      -> PAW hartree energy AE =      75.07999067 Ry
      -> PAW hartree energy PS =     -74.65978109 Ry
      -> PAW xc energy AE      =    -132.39943021 Ry
      -> PAW xc energy PS      =      21.14545658 Ry
      -> total E_H with PAW    =     202.70848176 Ry
      -> total E_XC with PAW   =    -327.30233439 Ry

     convergence has been achieved in  22 iterations

     Forces acting on atoms (cartesian axes, Ry/au):

     atom    1 type  1   force =     0.00000000    0.00000000    0.00000569
     atom    2 type  1   force =     0.00000000    0.00000000   -0.00000569
     atom    3 type  2   force =     0.00000000    0.00000000    0.00000000
     atom    4 type  3   force =     0.00000000    0.00000000    0.00000000
     atom    5 type  4   force =     0.00000000   -0.00260136   -0.00185377
     atom    6 type  4   force =    -0.00225284   -0.00130068    0.00185377
     atom    7 type  4   force =     0.00000000    0.00260136    0.00185377
     atom    8 type  4   force =    -0.00225284    0.00130068   -0.00185377
     atom    9 type  4   force =     0.00225284   -0.00130068    0.00185377
     atom   10 type  4   force =     0.00225284    0.00130068   -0.00185377
     The non-local contrib.  to forces
     atom    1 type  1   force =     0.00000000    0.00000000    0.00000035
     atom    2 type  1   force =     0.00000000    0.00000000   -0.00000035
     atom    3 type  2   force =     0.00000000   -0.00000000    0.00000000
     atom    4 type  3   force =     0.00000000    0.00000000    0.00000000
     atom    5 type  4   force =     0.00000000    0.00315805    0.00222481
     atom    6 type  4   force =     0.00273495    0.00157902   -0.00222481
     atom    7 type  4   force =     0.00000000   -0.00315805   -0.00222481
     atom    8 type  4   force =     0.00273495   -0.00157902    0.00222481
     atom    9 type  4   force =    -0.00273495    0.00157902   -0.00222481
     atom   10 type  4   force =    -0.00273495   -0.00157902    0.00222481
     The ionic contribution  to forces
     atom    1 type  1   force =    -0.00000000   -0.00000000   -0.00000000
     atom    2 type  1   force =     0.00000000    0.00000000    0.00000000
     atom    3 type  2   force =     0.00000000   -0.00000000    0.00000000
     atom    4 type  3   force =    -0.00000000    0.00000000   -0.00000000
     atom    5 type  4   force =     0.00000000   -3.15132299   -2.22832185
     atom    6 type  4   force =    -2.72912576   -1.57566149    2.22832185
     atom    7 type  4   force =     0.00000000    3.15132299    2.22832185
     atom    8 type  4   force =    -2.72912576    1.57566149   -2.22832185
     atom    9 type  4   force =     2.72912576   -1.57566149    2.22832185
     atom   10 type  4   force =     2.72912576    1.57566149   -2.22832185
     The local contribution  to forces
     atom    1 type  1   force =    -0.00000872   -0.00005332    0.00001840
     atom    2 type  1   force =     0.00000894    0.00005359   -0.00001824
     atom    3 type  2   force =     0.00000097    0.00000415   -0.00001057
     atom    4 type  3   force =     0.00000278    0.00000287   -0.00000155
     atom    5 type  4   force =    -0.00001342    3.14203836    2.22169437
     atom    6 type  4   force =     2.72120469    1.57115120   -2.22189226
     atom    7 type  4   force =     0.00001382   -3.14203850   -2.22169448
     atom    8 type  4   force =     2.72122566   -1.57117352    2.22189957
     atom    9 type  4   force =    -2.72122324    1.57117368   -2.22189950
     atom   10 type  4   force =    -2.72120631   -1.57115104    2.22189360
     The core correction contribution to forces
     atom    1 type  1   force =     0.00000007    0.00000022    0.00000013
     atom    2 type  1   force =    -0.00000006   -0.00000019   -0.00000016
     atom    3 type  2   force =     0.00000000    0.00000000    0.00000000
     atom    4 type  3   force =     0.00000032    0.00000029   -0.00000020
     atom    5 type  4   force =    -0.00000066    0.00342866    0.00242066
     atom    6 type  4   force =     0.00293780    0.00169981   -0.00240099
     atom    7 type  4   force =     0.00000077   -0.00342862   -0.00242077
     atom    8 type  4   force =     0.00293488   -0.00169880    0.00239764
     atom    9 type  4   force =    -0.00293480    0.00169878   -0.00239738
     atom   10 type  4   force =    -0.00293802   -0.00169964    0.00240105
     The Hubbard contrib.    to forces
     atom    1 type  1   force =     0.00000000    0.00000000    0.00000000
     atom    2 type  1   force =     0.00000000    0.00000000    0.00000000
     atom    3 type  2   force =     0.00000000    0.00000000    0.00000000
     atom    4 type  3   force =     0.00000000    0.00000000    0.00000000
     atom    5 type  4   force =     0.00000000    0.00000000    0.00000000
     atom    6 type  4   force =     0.00000000    0.00000000    0.00000000
     atom    7 type  4   force =     0.00000000    0.00000000    0.00000000
     atom    8 type  4   force =     0.00000000    0.00000000    0.00000000
     atom    9 type  4   force =     0.00000000    0.00000000    0.00000000
     atom   10 type  4   force =     0.00000000    0.00000000    0.00000000
     The SCF correction term to forces
     atom    1 type  1   force =     0.00000749    0.00005248   -0.00001341
     atom    2 type  1   force =    -0.00000731   -0.00005099    0.00001284
     atom    3 type  2   force =    -0.00000222   -0.00001098    0.00001067
     atom    4 type  3   force =    -0.00000032   -0.00000052    0.00000081
     atom    5 type  4   force =     0.00000283   -0.00002094    0.00001810
     atom    6 type  4   force =     0.00002096   -0.00002006   -0.00000245
     atom    7 type  4   force =    -0.00000285    0.00002004   -0.00001666
     atom    8 type  4   force =     0.00001933    0.00002133    0.00000452
     atom    9 type  4   force =    -0.00002206   -0.00002111   -0.00000515
     atom   10 type  4   force =    -0.00001796    0.00002055    0.00000046

     Total force =     0.007824     Total SCF correction =     0.000104

     Computing stress (Cartesian axis) and pressure

          total   stress  (Ry/bohr**3)                   (kbar)     P=      -55.32
  -0.00037600   0.00000000   0.00000000          -55.31        0.00        0.00
   0.00000000  -0.00037600   0.00000000            0.00      -55.31        0.00
   0.00000000   0.00000000  -0.00037611            0.00        0.00      -55.33

     kinetic stress (kbar)   8158.64     -0.00      0.00
                                0.00   8158.64     -0.00
                                0.00     -0.00   8158.66

     local   stress (kbar)  -3045.16     -0.03     -0.05
                               -0.03  -3044.54      0.09
                               -0.05      0.09  -3044.91

     nonloc. stress (kbar)   -148.12      0.00      0.00
                                0.00   -148.12      0.00
                                0.00      0.00   -148.12

     hartree stress (kbar)   4185.52      0.01      0.02
                                0.01   4185.19     -0.07
                                0.02     -0.07   4185.38

     exc-cor stress (kbar)   6373.64      0.00      0.00
                                0.00   6373.63     -0.00
                                0.00     -0.00   6373.63

     corecor stress (kbar)  -8362.53     -0.00     -0.00
                               -0.00  -8362.50     -0.00
                               -0.00     -0.00  -8362.52

     ewald   stress (kbar)  -7217.44     -0.00      0.00
                               -0.00  -7217.44     -0.00
                                0.00     -0.00  -7217.44

     hubbard stress (kbar)      0.00      0.00      0.00
                                0.00      0.00      0.00
                                0.00      0.00      0.00

     DFT-D   stress (kbar)      0.00      0.00      0.00
                                0.00      0.00      0.00
                                0.00      0.00      0.00

     XDM     stress (kbar)      0.00      0.00      0.00
                                0.00      0.00      0.00
                                0.00      0.00      0.00

     dft-nl  stress (kbar)      0.00      0.00      0.00
                                0.00      0.00      0.00
                                0.00      0.00      0.00

     TS-vdW  stress (kbar)      0.00      0.00      0.00
                                0.00      0.00      0.00
                                0.00      0.00      0.00

[...]

                                0.00      0.00      0.00

     Writing all to output data dir new_calculations/myprefix.save/

     General routines

     Parallel routines

     PAW routines

   This run was terminated on:   8:29:33  21May2023

   JOB DONE.