     Program PWSCF v.7.0 starts on 21May2023 at 13:41:53

     Reading input from espresso_23679.pwi
Warning: card &CELL ignored
Warning: card / ignored

     Current dimensions of program PWSCF are:
     Max number of different atomic species (ntypx) = 10
     Max number of k-points (npk) =  40000
     Max angular momentum in pseudopotentials (lmaxx) =  4

     gamma-point specific algorithms are used
     Message from routine setup:
     using ibrav=0 with symmetry is DISCOURAGED, use correct ibrav instead

     Subspace diagonalization in iterative solution of the eigenvalue problem:
     a serial algorithm will be used

     Using Slab Decomposition

     bravais-lattice index     =            0
     lattice parameter (alat)  =       8.7894  a.u.
     unit-cell volume          =     679.0114 (a.u.)^3
     number of atoms/cell      =            8
     number of atomic types    =            3
     number of electrons       =       113.00
     number of Kohn-Sham states=           68
     kinetic-energy cutoff     =      30.0000  Ry
     charge density cutoff     =     240.0000  Ry
     scf convergence threshold =      1.0E-06
     mixing beta               =       0.7000
     number of iterations used =            8  plain     mixing
     Exchange-correlation=  SLA  PW   PBX  PBC
                           (   1   4   3   4   0   0   0)

     celldm(1)=   8.789396  celldm(2)=   0.000000  celldm(3)=   0.000000
     celldm(4)=   0.000000  celldm(5)=   0.000000  celldm(6)=   0.000000

     crystal axes: (cart. coord. in units of alat)
               a(1) = (   1.000000   0.000000   0.000000 )
               a(2) = (   0.000000   1.000000   0.000000 )
               a(3) = (   0.000000   0.000000   1.000000 )

     reciprocal axes: (cart. coord. in units 2 pi/alat)
               b(1) = (  1.000000  0.000000  0.000000 )
               b(2) = (  0.000000  1.000000  0.000000 )
               b(3) = (  0.000000  0.000000  1.000000 )

     PseudoPot. # 1 for V  read from file:
     /home/pragov/projects/rrg-bengioy-ad/pragov/crystal_structure_design/SSSP/v_pbe_v1.4.uspp.F.UPF
     MD5 check sum: 22b79981416ebb76fdaf5b1b8640f6fb
     Pseudo is Ultrasoft + core correction, Zval = 13.0
     Generated by new atomic code, or converted to UPF format
     Using radial grid of  853 points,  6 beta functions with:
                l(1) =   0
                l(2) =   0
                l(3) =   1
                l(4) =   1
                l(5) =   2
                l(6) =   2
     Q(r) pseudized with  8 coefficients,  rinner =    1.100   1.100   1.100
                                                       1.100   1.100

     PseudoPot. # 2 for Co read from file:
     /home/pragov/projects/rrg-bengioy-ad/pragov/crystal_structure_design/SSSP/Co_pbe_v1.2.uspp.F.UPF
     MD5 check sum: 5f91765df6ddd3222702df6e7b74a16d
     Pseudo is Ultrasoft + core correction, Zval = 17.0
     Generated by new atomic code, or converted to UPF format
     Using radial grid of  863 points,  6 beta functions with:
                l(1) =   0
                l(2) =   0
                l(3) =   1
                l(4) =   1
                l(5) =   2
                l(6) =   2
     Q(r) pseudized with  8 coefficients,  rinner =    1.200   1.200   1.200
                                                       1.200   1.200

     PseudoPot. # 3 for Ni read from file:
     /home/pragov/projects/rrg-bengioy-ad/pragov/crystal_structure_design/SSSP/ni_pbe_v1.4.uspp.F.UPF
     MD5 check sum: 1ee80287db30b12d2bc1f57a5b5d6409
     Pseudo is Ultrasoft + core correction, Zval = 18.0
     Generated by new atomic code, or converted to UPF format
     Using radial grid of  865 points,  6 beta functions with:
                l(1) =   0
                l(2) =   0
                l(3) =   1
                l(4) =   1
                l(5) =   2
                l(6) =   2
     Q(r) pseudized with 10 coefficients,  rinner =    0.980   0.980   0.980
                                                       0.980   0.980

     atomic species   valence    mass     pseudopotential
        V             13.00    50.94150     V ( 1.00)
        Co            17.00    58.93319     Co( 1.00)
        Ni            18.00    58.69340     Ni( 1.00)

     24 Sym. Ops., with inversion, found

                                    s                        frac. trans.

      isym =  1     identity

 cryst.   s( 1) = (     1          0          0      )
                  (     0          1          0      )
                  (     0          0          1      )

 cart.    s( 1) = (  1.0000000  0.0000000  0.0000000 )
                  (  0.0000000  1.0000000  0.0000000 )
                  (  0.0000000  0.0000000  1.0000000 )

      isym =  2     180 deg rotation - cart. axis [0,0,1]

[...]

 cryst.   s( 9) = (     0          1          0      )
                  (     0          0          1      )
                  (     1          0          0      )

 cart.    s( 9) = (  0.0000000  0.0000000  1.0000000 )
                  (  1.0000000  0.0000000  0.0000000 )
                  (  0.0000000  1.0000000  0.0000000 )

[...]

 cryst.   s(10) = (     0         -1          0      )
                  (     0          0         -1      )
                  (     1          0          0      )

 cart.    s(10) = (  0.0000000  0.0000000  1.0000000 )
                  ( -1.0000000  0.0000000  0.0000000 )
                  (  0.0000000 -1.0000000  0.0000000 )

[...]

      isym = 12     120 deg rotation - cart. axis [-1,-1,1]

[...]

      isym = 13     inversion

[...]

      isym = 14     inv. 180 deg rotation - cart. axis [0,0,1]

[...]

      isym = 24     inv. 120 deg rotation - cart. axis [-1,-1,1]

 cryst.   s(24) = (     0         -1          0      )
                  (     0          0          1      )
                  (     1          0          0      )

 cart.    s(24) = (  0.0000000  0.0000000  1.0000000 )
                  ( -1.0000000  0.0000000  0.0000000 )
                  (  0.0000000  1.0000000  0.0000000 )

   Cartesian axes

     site n.     atom                  positions (alat units)
         1           V   tau(   1) = (   0.0000000   0.5000000   0.7497040  )
         2           V   tau(   2) = (   0.5000000   0.2502960   0.0000000  )
         3           V   tau(   3) = (   0.7497040   0.0000000   0.5000000  )
         4           V   tau(   4) = (   0.0000000   0.5000000   0.2502960  )
         5           V   tau(   5) = (   0.5000000   0.7497040   0.0000000  )
         6           V   tau(   6) = (   0.2502960   0.0000000   0.5000000  )
         7           Co  tau(   7) = (   0.5000000   0.5000000   0.5000000  )
         8           Ni  tau(   8) = (   0.0000000   0.0000000   0.0000000  )

   Crystallographic axes

     site n.     atom                  positions (cryst. coord.)
         1           V   tau(   1) = (  0.0000000  0.5000000  0.7497040  )
         2           V   tau(   2) = (  0.5000000  0.2502960  0.0000000  )
         3           V   tau(   3) = (  0.7497040  0.0000000  0.5000000  )
         4           V   tau(   4) = (  0.0000000  0.5000000  0.2502960  )
         5           V   tau(   5) = (  0.5000000  0.7497040  0.0000000  )
         6           V   tau(   6) = (  0.2502960  0.0000000  0.5000000  )
         7           Co  tau(   7) = (  0.5000000  0.5000000  0.5000000  )
         8           Ni  tau(   8) = (  0.0000000  0.0000000  0.0000000  )

     number of k points=     1  Methfessel-Paxton smearing, width (Ry)=  0.0010
                       cart. coord. in units 2pi/alat
        k(    1) = (   0.0000000   0.0000000   0.0000000), wk =   2.0000000

                       cryst. coord.
        k(    1) = (   0.0000000   0.0000000   0.0000000), wk =   2.0000000

     Check: negative core charge=   -0.000014

     Initial potential from superposition of free atoms

     starting charge     109.9926, renormalised to     113.0000

     negative rho (up, down):  2.503E-03 0.000E+00
     Starting wfcs are   86 randomized atomic wfcs

     Self-consistent Calculation

     iteration #  1     ecut=    30.00 Ry     beta= 0.70
     Davidson diagonalization with overlap

     ethr =  1.00E-02,  avg # of iterations =  2.0

     negative rho (up, down):  9.049E-03 0.000E+00

     total energy              =   -1492.47562276 Ry
     estimated scf accuracy    <      26.97045185 Ry

[...]

     ethr =  1.00E-02,  avg # of iterations =  3.0
     Minimization algorithm failed to find Fermi energy: reverting to bisection
     Possible cause: smearing is larger than the electronic band-gap.

[...]

     total energy              =   -1512.48810860 Ry
     estimated scf accuracy    <       0.00000794 Ry

     iteration # 35     ecut=    30.00 Ry     beta= 0.70
     Davidson diagonalization with overlap

     ethr =  7.02E-09,  avg # of iterations =  1.0

[...]

     End of self-consistent calculation

          k = 0.0000 0.0000 0.0000 (   932 PWs)   bands (ev):

   -86.7213 -77.9509 -47.0053 -47.0053 -47.0052 -46.8985 -46.8141 -46.8140
   -46.5824 -46.5824 -46.5822 -41.1608 -41.1608 -41.1608 -21.1185 -21.1184
   -20.9796 -20.9138 -20.9137 -20.9137 -20.6062 -20.6062 -20.6061 -20.5908
   -20.5907 -20.5907 -20.5119 -20.5118 -20.5118 -19.6013 -19.6012 -19.6011
    10.0598  13.7846  13.8248  13.8248  14.5850  14.5850  14.5850  14.7786
    14.7786  14.7786  15.0862  15.0863  15.5428  15.6010  15.6010  15.6010
    15.6086  15.6086  15.6086  16.1157  16.3104  16.3104  16.3104  16.3586
    16.3587  17.5805  17.5806  17.7734  17.7734  17.7735  19.0749  19.0749
    19.0750  19.6133  19.6134  20.2311

     occupation numbers
     1.0000   1.0000   1.0000   1.0000   1.0000   1.0000   1.0000   1.0000
     1.0000   1.0000   1.0000   1.0000   1.0000   1.0000   1.0000   1.0000
     1.0000   1.0000   1.0000   1.0000   1.0000   1.0000   1.0000   1.0000
     1.0000   1.0000   1.0000   1.0000   1.0000   1.0000   1.0000   1.0000
     1.0000   1.0000   1.0000   1.0000   1.0000   1.0000   1.0000   1.0000
     1.0000   1.0000   1.0000   1.0000   1.0000   1.0000   1.0000   1.0000
     1.0000   1.0000   1.0000   1.0000   1.0000   1.0000   1.0000   0.7508
     0.7492  -0.0000  -0.0000  -0.0000  -0.0000  -0.0000  -0.0000  -0.0000
    -0.0000  -0.0000  -0.0000  -0.0000

     the Fermi energy is    16.3629 ev

!    total energy              =   -1512.48810835 Ry
     estimated scf accuracy    <       0.00000043 Ry
     smearing contrib. (-TS)   =      -0.00041260 Ry
     internal energy E=F+TS    =   -1512.48769575 Ry

     The total energy is F=E-TS. E is the sum of the following terms:
     one-electron contribution =    -657.28495684 Ry
     hartree contribution      =     387.35778299 Ry
     xc contribution           =    -185.70564544 Ry
     ewald contribution        =   -1056.85487647 Ry

     convergence has been achieved in  35 iterations

     negative rho (up, down):  8.428E-03 0.000E+00

     Forces acting on atoms (cartesian axes, Ry/au):

     atom    1 type  1   force =     0.00000000    0.00000000   -0.00212147
     atom    2 type  1   force =     0.00000000    0.00212147    0.00000000
     atom    3 type  1   force =    -0.00212147    0.00000000    0.00000000
     atom    4 type  1   force =     0.00000000    0.00000000    0.00212147
     atom    5 type  1   force =     0.00000000   -0.00212147    0.00000000
     atom    6 type  1   force =     0.00212147    0.00000000    0.00000000
     atom    7 type  2   force =     0.00000000    0.00000000    0.00000000
     atom    8 type  3   force =     0.00000000    0.00000000    0.00000000
     The non-local contrib.  to forces
     atom    1 type  1   force =     0.00000000    0.00000000    0.00732990
     atom    2 type  1   force =     0.00000000   -0.00732990   -0.00000000
     atom    3 type  1   force =     0.00732990    0.00000000    0.00000000
     atom    4 type  1   force =     0.00000000    0.00000000   -0.00732990
     atom    5 type  1   force =     0.00000000    0.00732990   -0.00000000
     atom    6 type  1   force =    -0.00732990    0.00000000    0.00000000
     atom    7 type  2   force =     0.00000000    0.00000000    0.00000000
     atom    8 type  3   force =     0.00000000    0.00000000    0.00000000
     The ionic contribution  to forces
     atom    1 type  1   force =     0.00000000   -0.00000000   -0.43023074
     atom    2 type  1   force =     0.00000000    0.43023074   -0.00000000
     atom    3 type  1   force =    -0.43023074   -0.00000000   -0.00000000
     atom    4 type  1   force =    -0.00000000    0.00000000    0.43023074
     atom    5 type  1   force =    -0.00000000   -0.43023074   -0.00000000
     atom    6 type  1   force =     0.43023074   -0.00000000    0.00000000
     atom    7 type  2   force =     0.00000000    0.00000000    0.00000000
     atom    8 type  3   force =    -0.00000000   -0.00000000   -0.00000000
     The local contribution  to forces
     atom    1 type  1   force =     0.00028197   -0.00014167    0.42066742
     atom    2 type  1   force =    -0.00028942   -0.42114588   -0.00026131
     atom    3 type  1   force =     0.42018645    0.00011956    0.00025977
     atom    4 type  1   force =     0.00030688   -0.00013669   -0.42070527
     atom    5 type  1   force =    -0.00031013    0.42114506   -0.00026298
     atom    6 type  1   force =    -0.42015022    0.00011528    0.00023550
     atom    7 type  2   force =    -0.00054738   -0.00021933    0.00033087
     atom    8 type  3   force =     0.00054100    0.00022315   -0.00036117
     The core correction contribution to forces
     atom    1 type  1   force =     0.00000350   -0.00000158    0.00007677
     atom    2 type  1   force =    -0.00000406   -0.00007358   -0.00000206
     atom    3 type  1   force =     0.00007200    0.00000056    0.00000092
     atom    4 type  1   force =     0.00000363   -0.00000186   -0.00007780
     atom    5 type  1   force =    -0.00000380    0.00007319   -0.00000190
     atom    6 type  1   force =    -0.00007152    0.00000109    0.00000076
     atom    7 type  2   force =    -0.00000475   -0.00000106    0.00000151
     atom    8 type  3   force =     0.00000350    0.00000083    0.00000000
     The Hubbard contrib.    to forces
     atom    1 type  1   force =     0.00000000    0.00000000    0.00000000
     atom    2 type  1   force =     0.00000000    0.00000000    0.00000000
     atom    3 type  1   force =     0.00000000    0.00000000    0.00000000
     atom    4 type  1   force =     0.00000000    0.00000000    0.00000000
     atom    5 type  1   force =     0.00000000    0.00000000    0.00000000
     atom    6 type  1   force =     0.00000000    0.00000000    0.00000000
     atom    7 type  2   force =     0.00000000    0.00000000    0.00000000
     atom    8 type  3   force =     0.00000000    0.00000000    0.00000000
     The SCF correction term to forces
     atom    1 type  1   force =    -0.00025386    0.00012834    0.00006446
     atom    2 type  1   force =     0.00023103    0.00042293    0.00027962
     atom    3 type  1   force =     0.00049892   -0.00011407   -0.00026555
     atom    4 type  1   force =    -0.00028867    0.00012285   -0.00000539
     atom    5 type  1   force =     0.00025564   -0.00041950    0.00027553
     atom    6 type  1   force =    -0.00050470   -0.00010650   -0.00023520
     atom    7 type  2   force =     0.00039662    0.00019199   -0.00036452
     atom    8 type  3   force =    -0.00037772   -0.00020592    0.00037639

     Total force =     0.005197     Total SCF correction =     0.001456
     SCF correction compared to forces is large: reduce conv_thr to get better values

     Computing stress (Cartesian axis) and pressure

     negative rho (up, down):  8.428E-03 0.000E+00
          total   stress  (Ry/bohr**3)                   (kbar)     P=     -602.20
  -0.00409366   0.00000000   0.00000000         -602.20        0.00        0.00
   0.00000000  -0.00409366   0.00000000            0.00     -602.20        0.00
   0.00000000   0.00000000  -0.00409366            0.00        0.00     -602.20

     kinetic stress (kbar)  44876.29      0.00      0.00
                                0.00  44876.29      0.00
                                0.00      0.00  44876.29

     local   stress (kbar)   9999.18     -0.00     -0.00
                               -0.00   9998.62      0.00
                               -0.00      0.00  10000.50

     nonloc. stress (kbar)   5453.08      0.00      0.00
                                0.00   5453.08      0.00
                                0.00      0.00   5453.08

     hartree stress (kbar)  27973.30     -0.00      0.00
                               -0.00  27973.44     -0.00
                                0.00     -0.00  27972.76

     exc-cor stress (kbar)  -8338.74      0.00      0.00
                                0.00  -8338.74      0.00
                                0.00      0.00  -8338.75

     corecor stress (kbar)  -4244.32     -0.00      0.00
                               -0.00  -4244.32      0.00
                                0.00      0.00  -4244.31

     ewald   stress (kbar) -76321.11      0.00     -0.00
                                0.00 -76321.11     -0.00
                               -0.00     -0.00 -76321.11

     hubbard stress (kbar)      0.00      0.00      0.00
                                0.00      0.00      0.00
                                0.00      0.00      0.00

     DFT-D   stress (kbar)      0.00      0.00      0.00
                                0.00      0.00      0.00
                                0.00      0.00      0.00

     XDM     stress (kbar)      0.00      0.00      0.00
                                0.00      0.00      0.00
                                0.00      0.00      0.00

     dft-nl  stress (kbar)      0.00      0.00      0.00
                                0.00      0.00      0.00
                                0.00      0.00      0.00

     TS-vdW  stress (kbar)      0.00      0.00      0.00
                                0.00      0.00      0.00
                                0.00      0.00      0.00

[...]

                                0.00      0.00      0.00

     Writing all to output data dir new_calculations/myprefix.save/

     General routines

     Parallel routines

   This run was terminated on:  13:42:14  21May2023

   JOB DONE.