     Program PWSCF v.7.0 starts on 21May2023 at  1:12:50

     Reading input from espresso_8944.pwi
Warning: card &CELL ignored
Warning: card / ignored

     Current dimensions of program PWSCF are:
     Max number of different atomic species (ntypx) = 10
     Max number of k-points (npk) =  40000
     Max angular momentum in pseudopotentials (lmaxx) =  4

     gamma-point specific algorithms are used
     Message from routine setup:
     using ibrav=0 with symmetry is DISCOURAGED, use correct ibrav instead

     Subspace diagonalization in iterative solution of the eigenvalue problem:
     a serial algorithm will be used

     Using Slab Decomposition

     bravais-lattice index     =            0
     lattice parameter (alat)  =      14.7490  a.u.
     unit-cell volume          =    2469.8339 (a.u.)^3
     number of atoms/cell      =           14
     number of atomic types    =            2
     number of electrons       =       126.00
     number of Kohn-Sham states=           76
     kinetic-energy cutoff     =      30.0000  Ry
     charge density cutoff     =     240.0000  Ry
     scf convergence threshold =      1.0E-06
     mixing beta               =       0.7000
     number of iterations used =            8  plain     mixing
     Exchange-correlation= SLA  PW   PBE  PBE
                           (   1   4   3   4   0   0   0)

     celldm(1)=  14.749022  celldm(2)=   0.000000  celldm(3)=   0.000000
     celldm(4)=   0.000000  celldm(5)=   0.000000  celldm(6)=   0.000000

     crystal axes: (cart. coord. in units of alat)
               a(1) = (   1.000000   0.000000   0.000000 )
               a(2) = (  -0.333333   0.942809   0.000000 )
               a(3) = (  -0.333333  -0.471405   0.816497 )

     reciprocal axes: (cart. coord. in units 2 pi/alat)
               b(1) = (  1.000000  0.353553  0.612372 )
               b(2) = (  0.000000  1.060660  0.612372 )
               b(3) = (  0.000000  0.000000  1.224745 )

     PseudoPot. # 1 for Pr read from file:
     /home/pragov/projects/rrg-bengioy-ad/pragov/crystal_structure_design/SSSP/Pr.GGA-PBE-paw-v1.0.UPF
     MD5 check sum: b5e1e58e76df433569641143f671cc27
     Pseudo is Projector augmented-wave + core cor, Zval = 13.0
     Generated using ATOMPAW code
     Shape of augmentation charge: BESSEL
     Using radial grid of 1103 points,  8 beta functions with:
                l(1) =   0
                l(2) =   0
                l(3) =   1
                l(4) =   1
                l(5) =   2
                l(6) =   2
                l(7) =   3
                l(8) =   3
     Q(r) pseudized with 0 coefficients

     PseudoPot. # 2 for Se read from file:
     /home/pragov/projects/rrg-bengioy-ad/pragov/crystal_structure_design/SSSP/Se_pbe_v1.uspp.F.UPF
     MD5 check sum: 1b3568f3a8ae88f9a2a0ad0698632c85
     Pseudo is Ultrasoft + core correction, Zval =  6.0
     Generated by new atomic code, or converted to UPF format
     Using radial grid of  877 points,  6 beta functions with:
                l(1) =   0
                l(2) =   0
                l(3) =   1
                l(4) =   1
                l(5) =   2
                l(6) =   2
     Q(r) pseudized with  8 coefficients,  rinner =    1.300   1.300   1.300
                                                       1.300   1.300

     atomic species   valence    mass     pseudopotential
        Pr            13.00   140.90766     Pr( 1.00)
        Se             6.00    78.97100     Se( 1.00)

      2 Sym. Ops. (no inversion) found ( 1 have fractional translation)

                                    s                        frac. trans.

      isym =  1     identity

 cryst.   s( 1) = (     1          0          0      )
                  (     0          1          0      )
                  (     0          0          1      )

 cart.    s( 1) = (  1.0000000  0.0000000  0.0000000 )
                  (  0.0000000  1.0000000 -0.0000000 )
                  (  0.0000000  0.0000000  1.0000000 )

      isym =  2     inv. 180 deg rotation - cart. axis [0,0,1]

 cryst.   s( 2) = (     1          0          0      )    f =( -0.5000000 )
                  (     0          1          0      )       ( -0.0000000 )
                  (    -1         -1         -1      )       ( -0.0000000 )

 cart.    s( 2) = (  1.0000000  0.0000000 -0.0000000 )    f =( -0.5000000 )
                  (  0.0000000  1.0000000 -0.0000000 )       ( -0.0000000 )
                  (  0.0000000  0.0000000 -1.0000000 )       ( -0.0000000 )

   Cartesian axes

     site n.     atom                  positions (alat units)
         1           Pr  tau(   1) = (   0.5833333  -0.2357023   0.6123724  )
         2           Pr  tau(   2) = (   0.0833333  -0.0589256   0.5103104  )
         3           Pr  tau(   3) = (  -0.4166667   0.2946278   0.7144345  )
         4           Pr  tau(   4) = (   0.4166667   0.7660323   0.1020621  )
         5           Pr  tau(   5) = (  -0.0833333   0.4124790   0.3061862  )
         6           Pr  tau(   6) = (   0.4166667   0.2357023   0.2041241  )
         7           Se  tau(   7) = (   0.2166403   0.3063757   0.5306583  )
         8           Se  tau(   8) = (   0.3833070  -0.1650288   0.2858383  )
         9           Se  tau(   9) = (   0.7166403   0.0943554   0.4082483  )
        10           Se  tau(  10) = (   0.1834123   0.4714045   0.0000000  )
        11           Se  tau(  11) = (   0.5499737   0.5657599   0.4082483  )
        12           Se  tau(  12) = (   0.6834123   0.4714045   0.0000000  )
        13           Se  tau(  13) = (   0.0499737   0.0706734   0.1224100  )
        14           Se  tau(  14) = (   0.2166403  -0.4007311   0.6940866  )

   Crystallographic axes

     site n.     atom                  positions (cryst. coord.)
         1           Pr  tau(   1) = (  0.8750000  0.1250000  0.7500000  )
         2           Pr  tau(   2) = (  0.3750000  0.2500000  0.6250000  )
         3           Pr  tau(   3) = (  0.1250000  0.7500000  0.8750000  )
         4           Pr  tau(   4) = (  0.7500000  0.8750000  0.1250000  )
         5           Pr  tau(   5) = (  0.2500000  0.6250000  0.3750000  )
         6           Pr  tau(   6) = (  0.6250000  0.3750000  0.2500000  )
         7           Se  tau(   7) = (  0.6499210  0.6499210  0.6499210  )
         8           Se  tau(   8) = (  0.5000000 -0.0000000  0.3500790  )
         9           Se  tau(   9) = (  1.0000000  0.3500790  0.5000000  )
        10           Se  tau(  10) = (  0.3500790  0.5000000  0.0000000  )
        11           Se  tau(  11) = (  1.0000000  0.8500790  0.5000000  )
        12           Se  tau(  12) = (  0.8500790  0.5000000  0.0000000  )
        13           Se  tau(  13) = (  0.1499210  0.1499210  0.1499210  )
        14           Se  tau(  14) = (  0.5000000 -0.0000000  0.8500790  )

     number of k points=     1  Methfessel-Paxton smearing, width (Ry)=  0.0010
                       cart. coord. in units 2pi/alat
        k(    1) = (   0.0000000   0.0000000   0.0000000), wk =   2.0000000

                       cryst. coord.
        k(    1) = (   0.0000000   0.0000000   0.0000000), wk =   2.0000000

     Initial potential from superposition of free atoms

     starting charge     125.9549, renormalised to     126.0000
     Starting wfcs are  224 randomized atomic wfcs
     Checking if some PAW data can be deallocated...

     Self-consistent Calculation

     iteration #  1     ecut=    30.00 Ry     beta= 0.70
     Davidson diagonalization with overlap

     ethr =  1.00E-02,  avg # of iterations = 19.0

     total energy              =   -3411.54778181 Ry
     estimated scf accuracy    <      23.82525987 Ry

[...]

     c_bands:  2 eigenvalues not converged
     ethr =  4.17E-05,  avg # of iterations = 20.0

[...]

     total energy              =   -3426.79518426 Ry
     estimated scf accuracy    <       0.00015274 Ry

     iteration # 95     ecut=    30.00 Ry     beta= 0.70
     Davidson diagonalization with overlap

     ethr =  1.82E-09,  avg # of iterations = 10.0

     End of self-consistent calculation

          k = 0.0000 0.0000 0.0000 (  3410 PWs)   bands (ev):

   -29.9740 -28.7787 -28.5242 -28.1014 -27.3429 -26.9648 -14.5920 -13.7783
   -13.2373 -12.7675 -12.1635 -11.5240 -11.2018 -10.7783 -10.3906 -10.2383
   -10.0006  -9.6354  -9.4107  -9.2947  -9.0738  -8.7646  -8.5462  -8.4078
    -7.1489  -5.1359  -4.2618  -3.7809  -2.8416  -2.4331  -1.9684  -1.5740
     3.3842   3.8370   4.6873   4.8542   5.1449   5.3963   5.4910   5.8147
     6.0009   6.0840   6.5620   6.9045   7.0864   7.2292   7.2636   7.3452
     7.5039   7.6610   7.9398   8.0051   8.1869   8.2330   8.4460   8.6236
     8.7922   8.8353   9.0544   9.1302   9.2666   9.3033   9.4018   9.4045
     9.4525   9.4932   9.5780   9.6018   9.6086   9.6271   9.6458   9.6639
     9.6736   9.6938   9.7219   9.7358

     occupation numbers
     1.0000   1.0000   1.0000   1.0000   1.0000   1.0000   1.0000   1.0000
     1.0000   1.0000   1.0000   1.0000   1.0000   1.0000   1.0000   1.0000
     1.0000   1.0000   1.0000   1.0000   1.0000   1.0000   1.0000   1.0000
     1.0000   1.0000   1.0000   1.0000   1.0000   1.0000   1.0000   1.0000
     1.0000   1.0000   1.0000   1.0000   1.0000   1.0000   1.0000   1.0000
     1.0000   1.0000   1.0000   1.0000   1.0000   1.0000   1.0000   1.0000
     1.0000   1.0000   1.0000   1.0000   1.0000   1.0000   1.0000   1.0000
     1.0000   1.0000   1.0000   1.0000   1.0000   1.0000   0.5839   0.4161
    -0.0000  -0.0000  -0.0000  -0.0000  -0.0000  -0.0000  -0.0000  -0.0000
    -0.0000  -0.0000  -0.0000  -0.0000

     the Fermi energy is     9.4032 ev

!    total energy              =   -3426.79518607 Ry
     estimated scf accuracy    <       0.00000051 Ry
     smearing contrib. (-TS)   =      -0.00054749 Ry
     internal energy E=F+TS    =   -3426.79463858 Ry

     The total energy is F=E-TS. E is the sum of the following terms:
     one-electron contribution =     -91.99647953 Ry
     hartree contribution      =     127.67232744 Ry
     xc contribution           =    -323.52339206 Ry
     ewald contribution        =    -626.91672231 Ry
     one-center paw contrib.   =   -2512.03037213 Ry
      -> PAW hartree energy AE =     320.96409667 Ry
      -> PAW hartree energy PS =    -322.07224528 Ry
      -> PAW xc energy AE      =   -2567.77596203 Ry
      -> PAW xc energy PS      =      56.85373851 Ry
      -> total E_H with PAW    =     126.56417883 Ry
      -> total E_XC with PAW   =   -2834.44561558 Ry

     convergence has been achieved in  95 iterations

     Forces acting on atoms (cartesian axes, Ry/au):

     atom    1 type  1   force =     0.05294854   -0.23416898   -0.13190976
     atom    2 type  1   force =    -0.07010788    0.07727535    0.13052961
     atom    3 type  1   force =    -0.02876440   -0.02385735    0.12175125
     atom    4 type  1   force =    -0.02876440   -0.02385735   -0.12175125
     atom    5 type  1   force =    -0.07010788    0.07727535   -0.13052961
     atom    6 type  1   force =     0.05294854   -0.23416898    0.13190976
     atom    7 type  2   force =     0.01494641    0.16745978    0.17770473
     atom    8 type  2   force =     0.01494641    0.16745978   -0.17770473
     atom    9 type  2   force =     0.08313371   -0.01317292    0.01197003
     atom   10 type  2   force =    -0.06410163   -0.10742303   -0.00276546
     atom   11 type  2   force =     0.08313371   -0.01317292   -0.01197003
     atom   12 type  2   force =    -0.06410163   -0.10742303    0.00276546
     atom   13 type  2   force =     0.01194524    0.13388715    0.62539844
     atom   14 type  2   force =     0.01194524    0.13388715   -0.62539844
     The non-local contrib.  to forces
     atom    1 type  1   force =     0.03903935   -0.12877061   -0.25542819
     atom    2 type  1   force =    -0.02604234   -0.01542522    0.03226737
     atom    3 type  1   force =    -0.03778725    0.05324514    0.03157845
     atom    4 type  1   force =    -0.03778725    0.05324514   -0.03157845
     atom    5 type  1   force =    -0.02604234   -0.01542522   -0.03226737
     atom    6 type  1   force =     0.03903935   -0.12877061    0.25542819
     atom    7 type  2   force =    -0.04184476    0.14933987    0.09695988
     atom    8 type  2   force =    -0.04184476    0.14933987   -0.09695988
     atom    9 type  2   force =     0.06030743   -0.01991962   -0.00779191
     atom   10 type  2   force =    -0.01975672    0.04661401    0.08106611
     atom   11 type  2   force =     0.06030743   -0.01991962    0.00779191
     atom   12 type  2   force =    -0.01975672    0.04661401   -0.08106611
     atom   13 type  2   force =    -0.01686956    0.05502652    0.19465480
     atom   14 type  2   force =    -0.01686956    0.05502652   -0.19465480
     The ionic contribution  to forces
     atom    1 type  1   force =    -0.00000000    0.00000000   -0.00000000
     atom    2 type  1   force =    -0.00000000   -0.00000000    0.00000000
     atom    3 type  1   force =     0.00000000    0.00000000    0.00000000
     atom    4 type  1   force =    -0.00000000   -0.00000000    0.00000000
     atom    5 type  1   force =     0.00000000    0.00000000    0.00000000
     atom    6 type  1   force =     0.00000000    0.00000000    0.00000000
     atom    7 type  2   force =     0.09341621    0.13211047    0.22882204
     atom    8 type  2   force =     0.09341621    0.13211047   -0.22882205
     atom    9 type  2   force =     0.09341621   -0.26422094   -0.00000000
     atom   10 type  2   force =    -0.28024863    0.00000000   -0.00000000
     atom   11 type  2   force =     0.09341621   -0.26422094   -0.00000000
     atom   12 type  2   force =    -0.28024863   -0.00000000   -0.00000000
     atom   13 type  2   force =     0.09341621    0.13211047    0.22882205
     atom   14 type  2   force =     0.09341621    0.13211047   -0.22882205
     The local contribution  to forces
     atom    1 type  1   force =     0.09195207   -0.10244756    0.32290701
     atom    2 type  1   force =    -0.06565357    0.11510691    0.04498154
     atom    3 type  1   force =     0.11884056   -0.06674147    0.05816867
     atom    4 type  1   force =    -0.09137188    0.02535095   -0.12231470
     atom    5 type  1   force =    -0.01260476    0.18312111   -0.15145359
     atom    6 type  1   force =    -0.05498795    0.00468958    0.07558138
     atom    7 type  2   force =     0.00528968   -0.11293612   -0.18276923
     atom    8 type  2   force =    -0.08013361   -0.10508484    0.14181953
     atom    9 type  2   force =    -0.08763259    0.25780173    0.06986636
     atom   10 type  2   force =     0.16555060   -0.16104759   -0.18206310
     atom   11 type  2   force =    -0.04717251    0.34629483    0.00772839
     atom   12 type  2   force =     0.35022822   -0.04623562   -0.03125373
     atom   13 type  2   force =    -0.09512249    0.13952300    0.05255274
     atom   14 type  2   force =    -0.05369989   -0.24683966   -0.08770271
     The core correction contribution to forces
     atom    1 type  1   force =     0.00002435   -0.00005629    0.00007179
     atom    2 type  1   force =    -0.00004160    0.00004878   -0.00000275
     atom    3 type  1   force =     0.00004829   -0.00003012    0.00006460
     atom    4 type  1   force =    -0.00003290   -0.00002633    0.00003043
     atom    5 type  1   force =    -0.00002686    0.00004377   -0.00003851
     atom    6 type  1   force =    -0.00001016   -0.00003126    0.00005414
     atom    7 type  2   force =     0.02078828    0.08595958   -0.00507670
     atom    8 type  2   force =    -0.01014026    0.01679466   -0.03320023
     atom    9 type  2   force =    -0.01304034    0.04169869   -0.00631400
     atom   10 type  2   force =    -0.06617651   -0.00032286   -0.03186175
     atom   11 type  2   force =     0.01650910    0.00915335    0.01627878
     atom   12 type  2   force =     0.03171160    0.01215565   -0.01499020
     atom   13 type  2   force =     0.01199787    0.17277308    0.11017496
     atom   14 type  2   force =     0.01718576   -0.05875126   -0.15373493
     The Hubbard contrib.    to forces
     atom    1 type  1   force =     0.00000000    0.00000000    0.00000000
     atom    2 type  1   force =     0.00000000    0.00000000    0.00000000
     atom    3 type  1   force =     0.00000000    0.00000000    0.00000000
     atom    4 type  1   force =     0.00000000    0.00000000    0.00000000
     atom    5 type  1   force =     0.00000000    0.00000000    0.00000000
     atom    6 type  1   force =     0.00000000    0.00000000    0.00000000
     atom    7 type  2   force =     0.00000000    0.00000000    0.00000000
     atom    8 type  2   force =     0.00000000    0.00000000    0.00000000
     atom    9 type  2   force =     0.00000000    0.00000000    0.00000000
     atom   10 type  2   force =     0.00000000    0.00000000    0.00000000
     atom   11 type  2   force =     0.00000000    0.00000000    0.00000000
     atom   12 type  2   force =     0.00000000    0.00000000    0.00000000
     atom   13 type  2   force =     0.00000000    0.00000000    0.00000000
     atom   14 type  2   force =     0.00000000    0.00000000    0.00000000
     The SCF correction term to forces
     atom    1 type  1   force =     0.00017956    0.00002936   -0.00018755
     atom    2 type  1   force =    -0.00021701    0.00022030    0.00008158
     atom    3 type  1   force =     0.00011950    0.00002111   -0.00007676
     atom    4 type  1   force =    -0.00006713    0.00010730    0.00009517
     atom    5 type  1   force =    -0.00009653   -0.00025333    0.00002799
     atom    6 type  1   force =     0.00015125   -0.00009415    0.00011886
     atom    7 type  2   force =     0.00022641   -0.00004925    0.00010771
     atom    8 type  2   force =     0.00021017    0.00022128   -0.00020312
     atom    9 type  2   force =    -0.00017132   -0.00005866   -0.00003331
     atom   10 type  2   force =     0.00010371    0.00012548   -0.00002489
     atom   11 type  2   force =    -0.00018146   -0.00006825   -0.00001203
     atom   12 type  2   force =    -0.00011946    0.00013726   -0.00004267
     atom   13 type  2   force =     0.00003550   -0.00018469   -0.00005168
     atom   14 type  2   force =    -0.00010882   -0.00013374    0.00027045

     Total force =     1.105536     Total SCF correction =     0.000900

     Computing stress (Cartesian axis) and pressure

          total   stress  (Ry/bohr**3)                   (kbar)     P=     1397.48
   0.00140939  -0.00205337   0.00000000          207.33     -302.06        0.00
  -0.00205337   0.01868721  -0.00000000         -302.06     2748.98       -0.00
   0.00000000  -0.00000000   0.00840305            0.00       -0.00     1236.13

     kinetic stress (kbar)  10237.08   -222.19     -0.00
                             -222.19  12211.85     -0.00
                               -0.00     -0.00  11039.21

     local   stress (kbar)   -781.77    -29.12     20.21
                              -29.12   -709.41   -102.07
                               20.21   -102.07   -744.93

     nonloc. stress (kbar)   3181.54    -55.48     -0.00
                              -55.48   3613.68     -0.00
                               -0.00     -0.00   3342.89

     hartree stress (kbar)   2519.80      7.18      0.69
                                7.18   2550.63     16.80
                                0.69     16.80   2533.82

     exc-cor stress (kbar)   9714.60      0.26      0.15
                                0.26   9714.45      0.44
                                0.15      0.44   9714.07

     corecor stress (kbar) -12217.39     -2.71      4.40
                               -2.71 -12185.67     -7.39
                                4.40     -7.39 -12202.39

     ewald   stress (kbar) -12446.54     -0.00     -0.00
                               -0.00 -12446.54     -0.00
                               -0.00     -0.00 -12446.54

     hubbard stress (kbar)      0.00      0.00      0.00
                                0.00      0.00      0.00
                                0.00      0.00      0.00

     DFT-D   stress (kbar)      0.00      0.00      0.00
                                0.00      0.00      0.00
                                0.00      0.00      0.00

     XDM     stress (kbar)      0.00      0.00      0.00
                                0.00      0.00      0.00
                                0.00      0.00      0.00

     dft-nl  stress (kbar)      0.00      0.00      0.00
                                0.00      0.00      0.00
                                0.00      0.00      0.00

     TS-vdW  stress (kbar)      0.00      0.00      0.00
                                0.00      0.00      0.00
                                0.00      0.00      0.00

[...]

                                0.00      0.00      0.00

     Writing all to output data dir new_calculations/myprefix.save/

     General routines

     Parallel routines

     PAW routines

   This run was terminated on:   1:19:36  21May2023

   JOB DONE.