     Program PWSCF v.7.0 starts on 21May2023 at  1:39:51

     Reading input from espresso_11737.pwi
Warning: card &CELL ignored
Warning: card / ignored

     Current dimensions of program PWSCF are:
     Max number of different atomic species (ntypx) = 10
     Max number of k-points (npk) =  40000
     Max angular momentum in pseudopotentials (lmaxx) =  4
     file Fe.pbe-spn-kjpaw_psl.0.2.1.UPF: wavefunction(s)  3D renormalized

     gamma-point specific algorithms are used
     Message from routine setup:
     using ibrav=0 with symmetry is DISCOURAGED, use correct ibrav instead

     Subspace diagonalization in iterative solution of the eigenvalue problem:
     a serial algorithm will be used

     Using Slab Decomposition

     bravais-lattice index     =            0
     lattice parameter (alat)  =      11.1181  a.u.
     unit-cell volume          =     644.1804 (a.u.)^3
     number of atoms/cell      =            5
     number of atomic types    =            3
     number of electrons       =        69.00
     number of Kohn-Sham states=           42
     kinetic-energy cutoff     =      30.0000  Ry
     charge density cutoff     =     240.0000  Ry
     scf convergence threshold =      1.0E-06
     mixing beta               =       0.7000
     number of iterations used =            8  plain     mixing
     Exchange-correlation=  SLA  PW   PBX  PBC
                           (   1   4   3   4   0   0   0)

     celldm(1)=  11.118141  celldm(2)=   0.000000  celldm(3)=   0.000000
     celldm(4)=   0.000000  celldm(5)=   0.000000  celldm(6)=   0.000000

     crystal axes: (cart. coord. in units of alat)
               a(1) = (   1.000000   0.000000   0.000000 )
               a(2) = (   0.449407   0.893327   0.000000 )
               a(3) = (  -0.724703  -0.446664   0.524687 )

     reciprocal axes: (cart. coord. in units 2 pi/alat)
               b(1) = (  1.000000 -0.503071  0.952949 )
               b(2) = (  0.000000  1.119411  0.952949 )
               b(3) = (  0.000000  0.000000  1.905898 )

     PseudoPot. # 1 for La read from file:
     /home/pragov/projects/rrg-bengioy-ad/pragov/crystal_structure_design/SSSP/La.GGA-PBE-paw-v1.0.UPF
     MD5 check sum: 436541e95c1ad8901025bd0b0ed42ae2
     Pseudo is Projector augmented-wave + core cor, Zval = 11.0
     Generated using ATOMPAW code
     Shape of augmentation charge: BESSEL
     Using radial grid of 1101 points,  8 beta functions with:
                l(1) =   0
                l(2) =   0
                l(3) =   1
                l(4) =   1
                l(5) =   2
                l(6) =   2
                l(7) =   3
                l(8) =   3
     Q(r) pseudized with 0 coefficients

     PseudoPot. # 2 for Fe read from file:
     /home/pragov/projects/rrg-bengioy-ad/pragov/crystal_structure_design/SSSP/Fe.pbe-spn-kjpaw_psl.0.2.1.UPF
     MD5 check sum: e86618425769142926afa95317d90200
     Pseudo is Projector augmented-wave + core cor, Zval = 16.0
     Generated using "atomic" code by A. Dal Corso  v.5.0.99 svn rev. 10869
     Shape of augmentation charge: PSQ
     Using radial grid of 1191 points,  6 beta functions with:
                l(1) =   0
                l(2) =   0
                l(3) =   1
                l(4) =   1
                l(5) =   2
                l(6) =   2
     Q(r) pseudized with 0 coefficients

     PseudoPot. # 3 for Ge read from file:
     /home/pragov/projects/rrg-bengioy-ad/pragov/crystal_structure_design/SSSP/ge_pbe_v1.4.uspp.F.UPF
     MD5 check sum: 9c9eaa91e581c3f09632fb3098b2c6b2
     Pseudo is Ultrasoft + core correction, Zval = 14.0
     Generated by new atomic code, or converted to UPF format
     Using radial grid of  873 points,  6 beta functions with:
                l(1) =   0
                l(2) =   0
                l(3) =   1
                l(4) =   1
                l(5) =   2
                l(6) =   2
     Q(r) pseudized with  8 coefficients,  rinner =    1.400   1.400   1.400
                                                       1.400   1.400

     atomic species   valence    mass     pseudopotential
        La            11.00   138.90547     La( 1.00)
        Fe            16.00    55.84500     Fe( 1.00)
        Ge            14.00    72.63000     Ge( 1.00)

      2 Sym. Ops. (no inversion) found

                                    s                        frac. trans.

      isym =  1     identity

 cryst.   s( 1) = (     1          0          0      )
                  (     0          1          0      )
                  (     0          0          1      )

 cart.    s( 1) = (  1.0000000  0.0000000 -0.0000000 )
                  (  0.0000000  1.0000000  0.0000000 )
                  (  0.0000000  0.0000000  1.0000000 )

      isym =  2     inv. 180 deg rotation - cart. axis [0,0,1]

 cryst.   s( 2) = (     1          0          0      )
                  (     0          1          0      )
                  (    -1         -1         -1      )

 cart.    s( 2) = (  1.0000000  0.0000000  0.0000000 )
                  (  0.0000000  1.0000000  0.0000000 )
                  (  0.0000000  0.0000000 -1.0000000 )

   Cartesian axes

     site n.     atom                  positions (alat units)
         1           La  tau(   1) = (   0.8199324   0.5053570   0.0000000  )
         2           Fe  tau(   2) = (   0.3349434   0.2064390   0.0000000  )
         3           Ge  tau(   3) = (   0.3287593   0.5107973   0.2623436  )
         4           Ge  tau(   4) = (   0.0049207   0.0030328   0.0000000  )
         5           Ge  tau(   5) = (   0.6040558   0.0641337   0.2623436  )

   Crystallographic axes

     site n.     atom                  positions (cryst. coord.)
         1           La  tau(   1) = (  0.5657020  0.5657020  0.0000000  )
         2           Fe  tau(   2) = (  0.2310900  0.2310900  0.0000000  )
         3           Ge  tau(   3) = (  0.3217920  0.8217920  0.5000000  )
         4           Ge  tau(   4) = (  0.0033950  0.0033950  0.0000000  )
         5           Ge  tau(   5) = (  0.8217920  0.3217920  0.5000000  )

     number of k points=     1  Methfessel-Paxton smearing, width (Ry)=  0.0010
                       cart. coord. in units 2pi/alat
        k(    1) = (   0.0000000   0.0000000   0.0000000), wk =   2.0000000

                       cryst. coord.
        k(    1) = (   0.0000000   0.0000000   0.0000000), wk =   2.0000000

     Check: negative core charge=   -0.000066

     Initial potential from superposition of free atoms

     starting charge      68.9884, renormalised to      69.0000
     Starting wfcs are   72 randomized atomic wfcs
     Checking if some PAW data can be deallocated...

     Self-consistent Calculation

     iteration #  1     ecut=    30.00 Ry     beta= 0.70
     Davidson diagonalization with overlap

     ethr =  1.00E-02,  avg # of iterations =  2.0

     negative rho (up, down):  1.595E-06 0.000E+00

     total energy              =   -1425.49555354 Ry
     estimated scf accuracy    <       2.86506915 Ry

[...]

     total energy              =   -1427.79612837 Ry
     estimated scf accuracy    <       0.00000144 Ry

     iteration # 27     ecut=    30.00 Ry     beta= 0.70
     Davidson diagonalization with overlap

     ethr =  2.08E-09,  avg # of iterations =  2.0

     End of self-consistent calculation

          k = 0.0000 0.0000 0.0000 (   877 PWs)   bands (ev):

   -73.3206 -39.1906 -38.9592 -38.3320 -19.1870 -11.9322 -11.9178 -11.9106
   -11.8608 -11.7873 -11.7557 -11.7275 -11.7255 -11.7170 -11.7034 -11.6617
   -11.6145 -11.6070 -11.5192 -11.4709  -3.1335  -2.9864  -2.9322   1.3125
     5.7647   6.5800   9.3167   9.3300   9.6995  10.6929  11.6730  12.2105
    12.7043  12.7388  13.2582  13.2590  13.9976  15.0590  15.4726  15.5947
    15.6128  15.7777

     occupation numbers
     1.0000   1.0000   1.0000   1.0000   1.0000   1.0000   1.0000   1.0000
     1.0000   1.0000   1.0000   1.0000   1.0000   1.0000   1.0000   1.0000
     1.0000   1.0000   1.0000   1.0000   1.0000   1.0000   1.0000   1.0000
     1.0000   1.0000   1.0000   1.0000   1.0000   1.0000   1.0000   1.0000
     1.0000   1.0000   0.2692   0.2308  -0.0000  -0.0000  -0.0000  -0.0000
    -0.0000  -0.0000

     the Fermi energy is    13.2544 ev

!    total energy              =   -1427.79612835 Ry
     estimated scf accuracy    <       0.00000015 Ry
     smearing contrib. (-TS)   =      -0.00041159 Ry
     internal energy E=F+TS    =   -1427.79571676 Ry

     The total energy is F=E-TS. E is the sum of the following terms:
     one-electron contribution =    -549.38178343 Ry
     hartree contribution      =     335.25043380 Ry
     xc contribution           =    -218.49616214 Ry
     ewald contribution        =    -521.01502171 Ry
     one-center paw contrib.   =    -474.15318329 Ry
      -> PAW hartree energy AE =     254.61147525 Ry
      -> PAW hartree energy PS =    -253.86079686 Ry
      -> PAW xc energy AE      =    -517.06367054 Ry
      -> PAW xc energy PS      =      42.15980885 Ry
      -> total E_H with PAW    =     336.00111219 Ry
      -> total E_XC with PAW   =    -693.40002382 Ry

     convergence has been achieved in  27 iterations

     Forces acting on atoms (cartesian axes, Ry/au):

     atom    1 type  1   force =     0.02358503    0.01408856    0.00000000
     atom    2 type  2   force =    -0.08544158   -0.04670897   -0.00000000
     atom    3 type  3   force =     0.02000150    0.00953004    0.00062078
     atom    4 type  3   force =     0.02185355    0.01356033    0.00000000
     atom    5 type  3   force =     0.02000150    0.00953004   -0.00062078
     The non-local contrib.  to forces
     atom    1 type  1   force =    -0.07192131   -0.03471838   -0.00000000
     atom    2 type  2   force =     0.25929050    0.15323831    0.00000000
     atom    3 type  3   force =    -0.13030295   -0.08716166    0.00044602
     atom    4 type  3   force =    -0.16179085   -0.10245943   -0.00000000
     atom    5 type  3   force =    -0.13030295   -0.08716166   -0.00044602
     The ionic contribution  to forces
     atom    1 type  1   force =     1.51522552    0.93389383   -0.00000000
     atom    2 type  2   force =    -6.24583018   -3.84955388   -0.00000000
     atom    3 type  3   force =     3.59677079    2.21683308    0.00000000
     atom    4 type  3   force =    -2.46293691   -1.51800611    0.00000000
     atom    5 type  3   force =     3.59677079    2.21683307    0.00000000
     The local contribution  to forces
     atom    1 type  1   force =    -1.41932772   -0.88734282    0.00137913
     atom    2 type  2   force =     5.89511422    3.64457245    0.00302420
     atom    3 type  3   force =    -3.43995643   -2.12130572   -0.00128274
     atom    4 type  3   force =     2.64094614    1.62825348   -0.00257557
     atom    5 type  3   force =    -3.45596672   -2.12644765   -0.00107989
     The core correction contribution to forces
     atom    1 type  1   force =    -0.00002059   -0.00001434    0.00000086
     atom    2 type  2   force =     0.00653699    0.00284224    0.00004075
     atom    3 type  3   force =     0.00242437    0.00168481   -0.00010723
     atom    4 type  3   force =     0.00583448    0.00334975    0.00006877
     atom    5 type  3   force =     0.00164933    0.00148423   -0.00064091
     The Hubbard contrib.    to forces
     atom    1 type  1   force =     0.00000000    0.00000000    0.00000000
     atom    2 type  2   force =     0.00000000    0.00000000    0.00000000
     atom    3 type  3   force =     0.00000000    0.00000000    0.00000000
     atom    4 type  3   force =     0.00000000    0.00000000    0.00000000
     atom    5 type  3   force =     0.00000000    0.00000000    0.00000000
     The SCF correction term to forces
     atom    1 type  1   force =     0.00004757    0.00002004   -0.00001848
     atom    2 type  2   force =    -0.00013468   -0.00005832   -0.00001005
     atom    3 type  3   force =    -0.00071238   -0.00044951    0.00001824
     atom    4 type  3   force =     0.00021912    0.00017241    0.00005790
     atom    5 type  3   force =     0.00046601    0.00025066   -0.00000046

     Total force =     0.108999     Total SCF correction =     0.001047

     Computing stress (Cartesian axis) and pressure

          total   stress  (Ry/bohr**3)                   (kbar)     P=     -325.03
  -0.00261043  -0.00044413  -0.00000000         -384.01      -65.33       -0.00
  -0.00044413  -0.00189888  -0.00000000          -65.33     -279.33       -0.00
  -0.00000000  -0.00000000  -0.00211926           -0.00       -0.00     -311.75

     kinetic stress (kbar)  17365.43     95.45      0.00
                               95.45  17272.07      0.00
                                0.00      0.00  17166.24

     local   stress (kbar)  10751.21   3917.17     17.43
                             3917.17   6842.23     -7.65
                               17.43     -7.65   4438.67

     nonloc. stress (kbar)   -836.80     31.19     -0.00
                               31.19   -845.10     -0.00
                               -0.00     -0.00   -897.49

     hartree stress (kbar)  23845.04  -1926.16     -8.84
                            -1926.16  25764.93      4.80
                               -8.84      4.80  26947.84

     exc-cor stress (kbar)  13118.87      4.57     -0.48
                                4.57  13113.63      0.47
                               -0.48      0.47  13110.98

     corecor stress (kbar) -23057.97     -7.59      0.72
                               -7.59 -23050.67      0.35
                                0.72      0.35 -23045.18

     ewald   stress (kbar) -41569.78  -2179.97      0.00
                            -2179.97 -39376.42      0.00
                                0.00      0.00 -38032.82

     hubbard stress (kbar)      0.00      0.00      0.00
                                0.00      0.00      0.00
                                0.00      0.00      0.00

     DFT-D   stress (kbar)      0.00      0.00      0.00
                                0.00      0.00      0.00
                                0.00      0.00      0.00

     XDM     stress (kbar)      0.00      0.00      0.00
                                0.00      0.00      0.00
                                0.00      0.00      0.00

     dft-nl  stress (kbar)      0.00      0.00      0.00
                                0.00      0.00      0.00
                                0.00      0.00      0.00

     TS-vdW  stress (kbar)      0.00      0.00      0.00
                                0.00      0.00      0.00
                                0.00      0.00      0.00

[...]

                                0.00      0.00      0.00

     Writing all to output data dir new_calculations/myprefix.save/

     General routines

     Parallel routines

     PAW routines

   This run was terminated on:   1:40:37  21May2023

   JOB DONE.