     Program PWSCF v.7.0 starts on 21May2023 at  9:57:40

     Reading input from espresso_22682.pwi
Warning: card &CELL ignored
Warning: card / ignored

     Current dimensions of program PWSCF are:
     Max number of different atomic species (ntypx) = 10
     Max number of k-points (npk) =  40000
     Max angular momentum in pseudopotentials (lmaxx) =  4

     gamma-point specific algorithms are used
     Message from routine setup:
     using ibrav=0 with symmetry is DISCOURAGED, use correct ibrav instead

     Subspace diagonalization in iterative solution of the eigenvalue problem:
     a serial algorithm will be used

     Using Slab Decomposition

     bravais-lattice index     =            0
     lattice parameter (alat)  =       8.0703  a.u.
     unit-cell volume          =     767.1683 (a.u.)^3
     number of atoms/cell      =            6
     number of atomic types    =            3
     number of electrons       =       106.00
     number of Kohn-Sham states=           64
     kinetic-energy cutoff     =      30.0000  Ry
     charge density cutoff     =     240.0000  Ry
     scf convergence threshold =      1.0E-06
     mixing beta               =       0.7000
     number of iterations used =            8  plain     mixing
     Exchange-correlation=  SLA  PW   PBX  PBC
                           (   1   4   3   4   0   0   0)

     celldm(1)=   8.070336  celldm(2)=   0.000000  celldm(3)=   0.000000
     celldm(4)=   0.000000  celldm(5)=   0.000000  celldm(6)=   0.000000

     crystal axes: (cart. coord. in units of alat)
               a(1) = (   1.000000   0.000000   0.000000 )
               a(2) = (  -0.500000   0.866025   0.000000 )
               a(3) = (   0.000000   0.000000   1.685331 )

     reciprocal axes: (cart. coord. in units 2 pi/alat)
               b(1) = (  1.000000  0.577350  0.000000 )
               b(2) = (  0.000000  1.154701  0.000000 )
               b(3) = (  0.000000  0.000000  0.593355 )

     PseudoPot. # 1 for Dy read from file:
     /home/pragov/projects/rrg-bengioy-ad/pragov/crystal_structure_design/SSSP/Dy.GGA-PBE-paw-v1.0.UPF
     MD5 check sum: 733414aae3e3693a823ce0c917a68f08
     Pseudo is Projector augmented-wave + core cor, Zval = 20.0
     Generated using ATOMPAW code
     Shape of augmentation charge: BESSEL
     Using radial grid of 1112 points,  8 beta functions with:
                l(1) =   0
                l(2) =   0
                l(3) =   1
                l(4) =   1
                l(5) =   2
                l(6) =   2
                l(7) =   3
                l(8) =   3
     Q(r) pseudized with 0 coefficients

     PseudoPot. # 2 for Cu read from file:
     /home/pragov/projects/rrg-bengioy-ad/pragov/crystal_structure_design/SSSP/Cu_pbe_v1.2.uspp.F.UPF
     MD5 check sum: 6e991ff952a84172a2a52a1c1e996048
     Pseudo is Ultrasoft + core correction, Zval = 19.0
     Generated by new atomic code, or converted to UPF format
     Using radial grid of  867 points,  6 beta functions with:
                l(1) =   0
                l(2) =   0
                l(3) =   1
                l(4) =   1
                l(5) =   2
                l(6) =   2
     Q(r) pseudized with  8 coefficients,  rinner =    1.150   1.150   1.150
                                                       1.150   1.150

     PseudoPot. # 3 for Ge read from file:
     /home/pragov/projects/rrg-bengioy-ad/pragov/crystal_structure_design/SSSP/ge_pbe_v1.4.uspp.F.UPF
     MD5 check sum: 9c9eaa91e581c3f09632fb3098b2c6b2
     Pseudo is Ultrasoft + core correction, Zval = 14.0
     Generated by new atomic code, or converted to UPF format
     Using radial grid of  873 points,  6 beta functions with:
                l(1) =   0
                l(2) =   0
                l(3) =   1
                l(4) =   1
                l(5) =   2
                l(6) =   2
     Q(r) pseudized with  8 coefficients,  rinner =    1.400   1.400   1.400
                                                       1.400   1.400

     atomic species   valence    mass     pseudopotential
        Dy            20.00   162.50000     Dy( 1.00)
        Cu            19.00    63.54600     Cu( 1.00)
        Ge            14.00    72.63000     Ge( 1.00)

     12 Sym. Ops. (no inversion) found ( 6 have fractional translation)

                                    s                        frac. trans.

      isym =  1     identity

 cryst.   s( 1) = (     1          0          0      )
                  (     0          1          0      )
                  (     0          0          1      )

 cart.    s( 1) = (  1.0000000  0.0000000  0.0000000 )
                  (  0.0000000  1.0000000  0.0000000 )
                  (  0.0000000  0.0000000  1.0000000 )

      isym =  2     180 deg rotation - cart. axis [0,0,1]

 cryst.   s( 2) = (    -1          0          0      )    f =(  0.0000000 )
                  (     0         -1          0      )       (  0.0000000 )
                  (     0          0          1      )       (  0.5000000 )

 cart.    s( 2) = ( -1.0000000 -0.0000000  0.0000000 )    f =(  0.0000000 )
                  (  0.0000000 -1.0000000  0.0000000 )       (  0.0000000 )
                  (  0.0000000  0.0000000  1.0000000 )       (  0.8426653 )

      isym =  3      60 deg rotation - cryst. axis [0,0,1]

[...]

      isym =  6     120 deg rotation - cryst. axis [0,0,-1]

[...]

      isym =  7     inv. 180 deg rotation - cart. axis [0,1,0]

[...]

      isym =  8     inv. 180 deg rotation - cart. axis [1,0,0]

 cryst.   s( 8) = (    -1          0          0      )
                  (     1          1          0      )
                  (     0          0          1      )

 cart.    s( 8) = ( -1.0000000 -0.0000000  0.0000000 )
                  (  0.0000000  1.0000000  0.0000000 )
                  (  0.0000000  0.0000000  1.0000000 )

      isym =  9     inv. 180 deg rotation - cryst. axis [1,-1,0]

 cryst.   s( 9) = (     0          1          0      )    f =(  0.0000000 )
                  (     1          0          0      )       (  0.0000000 )
                  (     0          0          1      )       (  0.5000000 )

 cart.    s( 9) = ( -0.5000000  0.8660254  0.0000000 )    f =(  0.0000000 )
                  (  0.8660254  0.5000000  0.0000000 )       (  0.0000000 )
                  (  0.0000000  0.0000000  1.0000000 )       (  0.8426653 )

[...]

 cryst.   s(10) = (    -1         -1          0      )    f =(  0.0000000 )
                  (     0          1          0      )       (  0.0000000 )
                  (     0          0          1      )       (  0.5000000 )

 cart.    s(10) = ( -0.5000000 -0.8660254  0.0000000 )    f =(  0.0000000 )
                  ( -0.8660254  0.5000000  0.0000000 )       (  0.0000000 )
                  (  0.0000000  0.0000000  1.0000000 )       (  0.8426653 )

[...]

 cryst.   s(11) = (     1          1          0      )
                  (     0         -1          0      )
                  (     0          0          1      )

 cart.    s(11) = (  0.5000000  0.8660254  0.0000000 )
                  (  0.8660254 -0.5000000  0.0000000 )
                  (  0.0000000  0.0000000  1.0000000 )

      isym = 12     inv. 180 deg rotation - cryst. axis [1,1,0]

 cryst.   s(12) = (     0         -1          0      )
                  (    -1          0          0      )
                  (     0          0          1      )

 cart.    s(12) = (  0.5000000 -0.8660254  0.0000000 )
                  ( -0.8660254 -0.5000000  0.0000000 )
                  (  0.0000000  0.0000000  1.0000000 )

   Cartesian axes

     site n.     atom                  positions (alat units)
         1           Dy  tau(   1) = (   0.0000000   0.0000000   1.2819771  )
         2           Dy  tau(   2) = (   0.0000000   0.0000000   0.4393118  )
         3           Cu  tau(   3) = (   0.5000005   0.2886748   0.9219921  )
         4           Cu  tau(   4) = (  -0.0000005   0.5773506   0.0793268  )
         5           Ge  tau(   5) = (  -0.0000005   0.5773506   0.8168174  )
         6           Ge  tau(   6) = (   0.5000005   0.2886748   1.6594827  )

   Crystallographic axes

     site n.     atom                  positions (cryst. coord.)
         1           Dy  tau(   1) = (  0.0000000  0.0000000  0.7606680  )
         2           Dy  tau(   2) = (  0.0000000  0.0000000  0.2606680  )
         3           Cu  tau(   3) = (  0.6666670  0.3333330  0.5470690  )
         4           Cu  tau(   4) = (  0.3333330  0.6666670  0.0470690  )
         5           Ge  tau(   5) = (  0.3333330  0.6666670  0.4846630  )
         6           Ge  tau(   6) = (  0.6666670  0.3333330  0.9846630  )

     number of k points=     1  Methfessel-Paxton smearing, width (Ry)=  0.0010
                       cart. coord. in units 2pi/alat
        k(    1) = (   0.0000000   0.0000000   0.0000000), wk =   2.0000000

                       cryst. coord.
        k(    1) = (   0.0000000   0.0000000   0.0000000), wk =   2.0000000

     Check: negative core charge=   -0.000001

     Initial potential from superposition of free atoms

     starting charge     103.9906, renormalised to     106.0000
     Starting wfcs are  108 randomized atomic wfcs
     Checking if some PAW data can be deallocated...

     Self-consistent Calculation

     iteration #  1     ecut=    30.00 Ry     beta= 0.70
     Davidson diagonalization with overlap

     ethr =  1.00E-02,  avg # of iterations =  2.0

     total energy              =   -2784.23270591 Ry
     estimated scf accuracy    <       4.01547279 Ry

[...]

     ethr =  3.23E-04,  avg # of iterations =  1.0
     Minimization algorithm failed to find Fermi energy: reverting to bisection
     Possible cause: smearing is larger than the electronic band-gap.

[...]

     total energy              =   -2788.24525708 Ry
     estimated scf accuracy    <       0.00011423 Ry

     iteration # 70     ecut=    30.00 Ry     beta= 0.70
     Davidson diagonalization with overlap

     ethr =  9.77E-10,  avg # of iterations =  1.0

     End of self-consistent calculation

          k = 0.0000 0.0000 0.0000 (  1041 PWs)   bands (ev):

   -99.8463 -99.8439 -57.2936 -57.2936 -57.2903 -57.2903 -57.0486 -57.0420
   -30.2706 -30.2500 -10.6733 -10.6733 -10.6715 -10.6688 -10.6688 -10.6664
   -10.6546 -10.6546 -10.6537 -10.6537  -6.9887  -6.5123  -6.5123  -6.5078
    -6.4576  -6.4576   3.5563   5.1014   9.3359   9.3359   9.4532   9.5797
     9.5797  10.0148  10.0770  10.0770  10.2527  10.2527  10.5631  12.9953
    12.9954  13.9737  13.9737  14.1243  14.2917  14.5524  14.5630  14.6174
    14.6174  14.6390  14.6390  14.7648  14.7683  14.7696  14.7776  14.7776
    15.4238  15.4239  15.6902  15.6903  15.8834  16.0390  16.2451  16.7866

     occupation numbers
     1.0000   1.0000   1.0000   1.0000   1.0000   1.0000   1.0000   1.0000
     1.0000   1.0000   1.0000   1.0000   1.0000   1.0000   1.0000   1.0000
     1.0000   1.0000   1.0000   1.0000   1.0000   1.0000   1.0000   1.0000
     1.0000   1.0000   1.0000   1.0000   1.0000   1.0000   1.0000   1.0000
     1.0000   1.0000   1.0000   1.0000   1.0000   1.0000   1.0000   1.0000
     1.0000   1.0000   1.0000   1.0000   1.0000   1.0000   1.0000   1.0000
     1.0000   1.0000   1.0000   0.7726   0.5724   0.4907   0.0822   0.0821
    -0.0000  -0.0000  -0.0000  -0.0000  -0.0000  -0.0000  -0.0000  -0.0000

     the Fermi energy is    14.7695 ev

!    total energy              =   -2788.24525714 Ry
     estimated scf accuracy    <       0.00000007 Ry
     smearing contrib. (-TS)   =      -0.00086484 Ry
     internal energy E=F+TS    =   -2788.24439229 Ry

     The total energy is F=E-TS. E is the sum of the following terms:
     one-electron contribution =   -1156.77274055 Ry
     hartree contribution      =     651.59372400 Ry
     xc contribution           =    -249.90146358 Ry
     ewald contribution        =   -1072.51136026 Ry
     one-center paw contrib.   =    -960.65255191 Ry
      -> PAW hartree energy AE =     521.02696622 Ry
      -> PAW hartree energy PS =    -484.89256928 Ry
      -> PAW xc energy AE      =   -1050.45088198 Ry
      -> PAW xc energy PS      =      53.66393313 Ry
      -> total E_H with PAW    =     687.72812094 Ry
      -> total E_XC with PAW   =   -1246.68841242 Ry

     convergence has been achieved in  70 iterations

     Forces acting on atoms (cartesian axes, Ry/au):

     atom    1 type  1   force =     0.00000000   -0.00000000    0.03233703
     atom    2 type  1   force =     0.00000000    0.00000000    0.03233703
     atom    3 type  2   force =     0.00000000   -0.00000000    0.01951005
     atom    4 type  2   force =     0.00000000   -0.00000000    0.01951005
     atom    5 type  3   force =     0.00000000   -0.00000000   -0.05184708
     atom    6 type  3   force =     0.00000000   -0.00000000   -0.05184708
     The non-local contrib.  to forces
     atom    1 type  1   force =     0.00000000    0.00000000    0.07063833
     atom    2 type  1   force =     0.00000000    0.00000000    0.07063833
     atom    3 type  2   force =     0.00000000   -0.00000000   -0.23102145
     atom    4 type  2   force =     0.00000000    0.00000000   -0.23102145
     atom    5 type  3   force =    -0.00000000   -0.00000000    0.38627506
     atom    6 type  3   force =     0.00000000    0.00000000    0.38627506
     The ionic contribution  to forces
     atom    1 type  1   force =     0.00001760   -0.00001016    1.97628380
     atom    2 type  1   force =    -0.00001760    0.00001016    1.97628380
     atom    3 type  2   force =    -0.00012292    0.00007097   -1.18550612
     atom    4 type  2   force =     0.00012292   -0.00007097   -1.18550612
     atom    5 type  3   force =     0.00011168   -0.00006447   -0.79077768
     atom    6 type  3   force =    -0.00011168    0.00006447   -0.79077768
     The local contribution  to forces
     atom    1 type  1   force =    -0.00016880    0.00009059   -2.01504057
     atom    2 type  1   force =     0.00019811   -0.00016318   -2.01412610
     atom    3 type  2   force =     0.00014013   -0.00007602    1.43515536
     atom    4 type  2   force =    -0.00014539    0.00006357    1.43635153
     atom    5 type  3   force =    -0.00012322    0.00007593    0.36084350
     atom    6 type  3   force =     0.00012165   -0.00007874    0.36153278
     The core correction contribution to forces
     atom    1 type  1   force =    -0.00000000    0.00000000   -0.00000107
     atom    2 type  1   force =     0.00000000   -0.00000000   -0.00000106
     atom    3 type  2   force =    -0.00000001    0.00000000    0.00029845
     atom    4 type  2   force =    -0.00000000   -0.00000000    0.00029844
     atom    5 type  3   force =    -0.00000014    0.00000010   -0.00854029
     atom    6 type  3   force =     0.00000013   -0.00000012   -0.00854064
     The Hubbard contrib.    to forces
     atom    1 type  1   force =     0.00000000    0.00000000    0.00000000
     atom    2 type  1   force =     0.00000000    0.00000000    0.00000000
     atom    3 type  2   force =     0.00000000    0.00000000    0.00000000
     atom    4 type  2   force =     0.00000000    0.00000000    0.00000000
     atom    5 type  3   force =     0.00000000    0.00000000    0.00000000
     atom    6 type  3   force =     0.00000000    0.00000000    0.00000000
     The SCF correction term to forces
     atom    1 type  1   force =     0.00011589   -0.00006554    0.00042393
     atom    2 type  1   force =    -0.00014132    0.00011836   -0.00042528
     atom    3 type  2   force =    -0.00001498    0.00000578    0.00054725
     atom    4 type  2   force =     0.00002314    0.00001021   -0.00057573
     atom    5 type  3   force =     0.00001124   -0.00001011    0.00034571
     atom    6 type  3   force =    -0.00000928    0.00001672   -0.00032991

     Total force =     0.090713     Total SCF correction =     0.001128

     Computing stress (Cartesian axis) and pressure

          total   stress  (Ry/bohr**3)                   (kbar)     P=     -389.83
  -0.00202602  -0.00000000   0.00000000         -298.04       -0.00        0.00
  -0.00000000  -0.00202602  -0.00000000           -0.00     -298.04       -0.00
   0.00000000  -0.00000000  -0.00389790            0.00       -0.00     -573.40

     kinetic stress (kbar)  20488.35      0.00      0.00
                                0.00  20488.35      0.00
                                0.00      0.00  20426.04

     local   stress (kbar)  -6375.07      0.05     -0.00
                                0.05  -6375.19      0.08
                               -0.00      0.08  18121.69

     nonloc. stress (kbar)  16292.38      0.00      0.00
                                0.00  16292.38     -0.00
                                0.00     -0.00  16318.16

     hartree stress (kbar)  45058.96     -0.02      0.00
                               -0.02  45059.01     -0.04
                                0.00     -0.04  34825.61

     exc-cor stress (kbar)   -118.75     -0.00      0.00
                               -0.00   -118.75     -0.00
                                0.00     -0.00   -125.34

     corecor stress (kbar) -11925.10     -0.00     -0.00
                               -0.00 -11925.10      0.00
                               -0.00      0.00 -11922.26

     ewald   stress (kbar) -63718.79      0.03     -0.00
                                0.03 -63718.76     -0.00
                               -0.00     -0.00 -78217.29

     hubbard stress (kbar)      0.00      0.00      0.00
                                0.00      0.00      0.00
                                0.00      0.00      0.00

     DFT-D   stress (kbar)      0.00      0.00      0.00
                                0.00      0.00      0.00
                                0.00      0.00      0.00

     XDM     stress (kbar)      0.00      0.00      0.00
                                0.00      0.00      0.00
                                0.00      0.00      0.00

     dft-nl  stress (kbar)      0.00      0.00      0.00
                                0.00      0.00      0.00
                                0.00      0.00      0.00

     TS-vdW  stress (kbar)      0.00      0.00      0.00
                                0.00      0.00      0.00
                                0.00      0.00      0.00

[...]

                                0.00      0.00      0.00

     Writing all to output data dir new_calculations/myprefix.save/

     General routines

     Parallel routines

     PAW routines

   This run was terminated on:   9:59: 0  21May2023

   JOB DONE.