     Program PWSCF v.7.0 starts on 20May2023 at 13:39:39

     Reading input from espresso_5457.pwi
Warning: card &CELL ignored
Warning: card / ignored

     Current dimensions of program PWSCF are:
     Max number of different atomic species (ntypx) = 10
     Max number of k-points (npk) =  40000
     Max angular momentum in pseudopotentials (lmaxx) =  4
     file O.pbe-n-kjpaw_psl.0.1.UPF: wavefunction(s)  2P renormalized

     gamma-point specific algorithms are used
     Message from routine setup:
     using ibrav=0 with symmetry is DISCOURAGED, use correct ibrav instead

     Subspace diagonalization in iterative solution of the eigenvalue problem:
     a serial algorithm will be used

     Using Slab Decomposition

     bravais-lattice index     =            0
     lattice parameter (alat)  =      10.6612  a.u.
     unit-cell volume          =    1720.4617 (a.u.)^3
     number of atoms/cell      =           20
     number of atomic types    =            3
     number of electrons       =       172.00
     number of Kohn-Sham states=          103
     kinetic-energy cutoff     =      30.0000  Ry
     charge density cutoff     =     240.0000  Ry
     scf convergence threshold =      1.0E-06
     mixing beta               =       0.7000
     number of iterations used =            8  plain     mixing
     Exchange-correlation= SLA  PW   PBX  PBC
                           (   1   4   3   4   0   0   0)

     celldm(1)=  10.661224  celldm(2)=   0.000000  celldm(3)=   0.000000
     celldm(4)=   0.000000  celldm(5)=   0.000000  celldm(6)=   0.000000

     crystal axes: (cart. coord. in units of alat)
               a(1) = (   1.000000   0.000000   0.000000 )
               a(2) = (   0.000000   1.008365   0.000000 )
               a(3) = (   0.000000   0.000000   1.408011 )

     reciprocal axes: (cart. coord. in units 2 pi/alat)
               b(1) = (  1.000000  0.000000  0.000000 )
               b(2) = (  0.000000  0.991705  0.000000 )
               b(3) = (  0.000000  0.000000  0.710221 )

     PseudoPot. # 1 for Sr read from file:
     /home/pragov/projects/rrg-bengioy-ad/pragov/crystal_structure_design/SSSP/Sr_pbe_v1.uspp.F.UPF
     MD5 check sum: 6b418c05fbe9db5448babca5e47b7a5b
     Pseudo is Ultrasoft + core correction, Zval = 10.0
     Generated by new atomic code, or converted to UPF format
     Using radial grid of  883 points,  6 beta functions with:
                l(1) =   0
                l(2) =   0
                l(3) =   1
                l(4) =   1
                l(5) =   2
                l(6) =   2
     Q(r) pseudized with  6 coefficients,  rinner =    1.400   1.400   1.400
                                                       1.400   1.400

     PseudoPot. # 2 for Ir read from file:
     /home/pragov/projects/rrg-bengioy-ad/pragov/crystal_structure_design/SSSP/Ir_pbe_v1.2.uspp.F.UPF
     MD5 check sum: 8836f839c3459d2b385c504ce6d91f2c
     Pseudo is Ultrasoft + core correction, Zval = 15.0
     Generated by new atomic code, or converted to UPF format
     Using radial grid of  983 points,  7 beta functions with:
                l(1) =   0
                l(2) =   0
                l(3) =   1
                l(4) =   1
                l(5) =   1
                l(6) =   2
                l(7) =   2
     Q(r) pseudized with  8 coefficients,  rinner =    1.400   1.400   1.400
                                                       1.400   1.400

     PseudoPot. # 3 for O  read from file:
     /home/pragov/projects/rrg-bengioy-ad/pragov/crystal_structure_design/SSSP/O.pbe-n-kjpaw_psl.0.1.UPF
     MD5 check sum: 0234752ac141de4415c5fc33072bef88
     Pseudo is Projector augmented-wave + core cor, Zval =  6.0
     Generated using "atomic" code by A. Dal Corso  v.5.0.99 svn rev. 10869
     Shape of augmentation charge: BESSEL
     Using radial grid of 1095 points,  4 beta functions with:
                l(1) =   0
                l(2) =   0
                l(3) =   1
                l(4) =   1
     Q(r) pseudized with 0 coefficients

     atomic species   valence    mass     pseudopotential
        Sr            10.00    87.62000     Sr( 1.00)
        Ir            15.00   192.21700     Ir( 1.00)
        O              6.00    15.99900     O ( 1.00)

      8 Sym. Ops., with inversion, found ( 6 have fractional translation)

                                    s                        frac. trans.

      isym =  1     identity

 cryst.   s( 1) = (     1          0          0      )
                  (     0          1          0      )
                  (     0          0          1      )

 cart.    s( 1) = (  1.0000000  0.0000000  0.0000000 )
                  (  0.0000000  1.0000000  0.0000000 )
                  (  0.0000000  0.0000000  1.0000000 )

      isym =  2     180 deg rotation - cart. axis [0,0,1]

 cryst.   s( 2) = (    -1          0          0      )    f =(  0.0000000 )
                  (     0         -1          0      )       (  0.0000000 )
                  (     0          0          1      )       ( -0.5000000 )

 cart.    s( 2) = ( -1.0000000  0.0000000  0.0000000 )    f =(  0.0000000 )
                  (  0.0000000 -1.0000000  0.0000000 )       (  0.0000000 )
                  (  0.0000000  0.0000000  1.0000000 )       ( -0.7040057 )

[...]

      isym =  4     180 deg rotation - cart. axis [1,0,0]

[...]

      isym =  5     inversion

 cryst.   s( 5) = (    -1          0          0      )
                  (     0         -1          0      )
                  (     0          0         -1      )

 cart.    s( 5) = ( -1.0000000  0.0000000  0.0000000 )
                  (  0.0000000 -1.0000000  0.0000000 )
                  (  0.0000000  0.0000000 -1.0000000 )

      isym =  6     inv. 180 deg rotation - cart. axis [0,0,1]

[...]

      isym =  8     inv. 180 deg rotation - cart. axis [1,0,0]

 cryst.   s( 8) = (    -1          0          0      )    f =(  0.5000000 )
                  (     0          1          0      )       ( -0.5000000 )
                  (     0          0          1      )       (  0.0000000 )

 cart.    s( 8) = ( -1.0000000  0.0000000  0.0000000 )    f =(  0.5000000 )
                  (  0.0000000  1.0000000  0.0000000 )       ( -0.5041823 )
                  (  0.0000000  0.0000000  1.0000000 )       (  0.0000000 )

   Cartesian axes

     site n.     atom                  positions (alat units)
         1           Sr  tau(   1) = (   0.9899010   0.0420024   0.3520029  )
         2           Sr  tau(   2) = (   0.5100990   0.5461847   0.3520029  )
         3           Sr  tau(   3) = (   0.0100990   0.9663621   1.0560086  )
         4           Sr  tau(   4) = (   0.4899010   0.4621799   1.0560086  )
         5           Ir  tau(   5) = (   0.5000000   0.0000000   0.0000000  )
         6           Ir  tau(   6) = (   0.0000000   0.5041823   0.7040057  )
         7           Ir  tau(   7) = (   0.5000000   0.0000000   0.7040057  )
         8           Ir  tau(   8) = (   0.0000000   0.5041823   0.0000000  )
         9           O   tau(   9) = (   0.4172720   0.9926260   0.3520029  )
        10           O   tau(  10) = (   0.0827280   0.4884437   0.3520029  )
        11           O   tau(  11) = (   0.5827280   0.0157386   1.0560086  )
        12           O   tau(  12) = (   0.9172720   0.5199208   1.0560086  )
        13           O   tau(  13) = (   0.7882910   0.7943150   0.0626988  )
        14           O   tau(  14) = (   0.7117090   0.2901327   0.6413070  )
        15           O   tau(  15) = (   0.2117090   0.2140496   0.7667045  )
        16           O   tau(  16) = (   0.2882910   0.7182318   1.3453127  )
        17           O   tau(  17) = (   0.2117090   0.2140496   1.3453127  )
        18           O   tau(  18) = (   0.2882910   0.7182318   0.7667045  )
        19           O   tau(  19) = (   0.7882910   0.7943150   0.6413070  )
        20           O   tau(  20) = (   0.7117090   0.2901327   0.0626988  )

   Crystallographic axes

     site n.     atom                  positions (cryst. coord.)
         1           Sr  tau(   1) = (  0.9899010  0.0416540  0.2500000  )
         2           Sr  tau(   2) = (  0.5100990  0.5416540  0.2500000  )
         3           Sr  tau(   3) = (  0.0100990  0.9583460  0.7500000  )
         4           Sr  tau(   4) = (  0.4899010  0.4583460  0.7500000  )
         5           Ir  tau(   5) = (  0.5000000  0.0000000  0.0000000  )
         6           Ir  tau(   6) = (  0.0000000  0.5000000  0.5000000  )
         7           Ir  tau(   7) = (  0.5000000  0.0000000  0.5000000  )
         8           Ir  tau(   8) = (  0.0000000  0.5000000  0.0000000  )
         9           O   tau(   9) = (  0.4172720  0.9843920  0.2500000  )
        10           O   tau(  10) = (  0.0827280  0.4843920  0.2500000  )
        11           O   tau(  11) = (  0.5827280  0.0156080  0.7500000  )
        12           O   tau(  12) = (  0.9172720  0.5156080  0.7500000  )
        13           O   tau(  13) = (  0.7882910  0.7877260  0.0445300  )
        14           O   tau(  14) = (  0.7117090  0.2877260  0.4554700  )
        15           O   tau(  15) = (  0.2117090  0.2122740  0.5445300  )
        16           O   tau(  16) = (  0.2882910  0.7122740  0.9554700  )
        17           O   tau(  17) = (  0.2117090  0.2122740  0.9554700  )
        18           O   tau(  18) = (  0.2882910  0.7122740  0.5445300  )
        19           O   tau(  19) = (  0.7882910  0.7877260  0.4554700  )
        20           O   tau(  20) = (  0.7117090  0.2877260  0.0445300  )

     number of k points=     1  Methfessel-Paxton smearing, width (Ry)=  0.0010
                       cart. coord. in units 2pi/alat
        k(    1) = (   0.0000000   0.0000000   0.0000000), wk =   2.0000000

                       cryst. coord.
        k(    1) = (   0.0000000   0.0000000   0.0000000), wk =   2.0000000

     Check: negative core charge=   -0.000010

     Initial potential from superposition of free atoms

     starting charge     169.8652, renormalised to     172.0000

     negative rho (up, down):  1.704E+00 0.000E+00
     Starting wfcs are  148 randomized atomic wfcs
     Checking if some PAW data can be deallocated...

     Self-consistent Calculation

     iteration #  1     ecut=    30.00 Ry     beta= 0.70
     Davidson diagonalization with overlap

     ethr =  1.00E-02,  avg # of iterations =  2.0

     negative rho (up, down):  1.401E+00 0.000E+00

     total energy              =   -1500.71322946 Ry
     estimated scf accuracy    <      12.05192353 Ry

[...]

     total energy              =   -1507.44969352 Ry
     estimated scf accuracy    <       0.00000413 Ry

     iteration # 21     ecut=    30.00 Ry     beta= 0.70
     Davidson diagonalization with overlap

     ethr =  2.40E-09,  avg # of iterations =  1.0

[...]

     End of self-consistent calculation

          k = 0.0000 0.0000 0.0000 (  2402 PWs)   bands (ev):

   -37.9683 -37.9667 -37.9622 -37.9607 -37.7688 -37.7673 -37.7637 -37.7616
   -37.6232 -37.6226 -37.6180 -37.6168 -21.4720 -21.4512 -21.4319 -21.4164
    -7.3071  -7.1099  -6.5740  -6.4733  -6.4146  -6.4137  -6.3748  -6.3710
    -6.1312  -5.9763  -5.8356  -5.8326  -3.6966  -3.5823  -3.5795  -3.5725
    -3.5090  -3.4122  -3.4091  -3.3339  -3.3160  -3.0900  -3.0524  -2.9257
     4.5245   4.5481   4.7358   4.7786   4.8161   4.8557   5.5581   6.2994
     6.3335   6.3939   7.0946   7.1194   7.2857   7.4378   7.4628   7.4863
     7.4921   7.5437   7.6783   8.1705   8.3505   8.3971   8.9958   9.1281
     9.1819   9.2175   9.3310   9.4339   9.4590   9.4743   9.4955   9.5271
     9.6221   9.6525   9.7278   9.8727   9.9342   9.9911  10.0681  10.1345
    11.1642  11.5672  11.6989  11.7015  11.9407  12.2715  12.2899  12.5387
    13.0820  13.1081  13.4390  13.7839  14.6240  15.7371  17.1685  17.1803
    17.3725  17.3902  17.5756  17.6464  17.7793  17.8539  18.3117

     occupation numbers
     1.0000   1.0000   1.0000   1.0000   1.0000   1.0000   1.0000   1.0000
     1.0000   1.0000   1.0000   1.0000   1.0000   1.0000   1.0000   1.0000
     1.0000   1.0000   1.0000   1.0000   1.0000   1.0000   1.0000   1.0000
     1.0000   1.0000   1.0000   1.0000   1.0000   1.0000   1.0000   1.0000
     1.0000   1.0000   1.0000   1.0000   1.0000   1.0000   1.0000   1.0000
     1.0000   1.0000   1.0000   1.0000   1.0000   1.0000   1.0000   1.0000
     1.0000   1.0000   1.0000   1.0000   1.0000   1.0000   1.0000   1.0000
     1.0000   1.0000   1.0000   1.0000   1.0000   1.0000   1.0000   1.0000
     1.0000   1.0000   1.0000   1.0000   1.0000   1.0000   1.0000   1.0000
     1.0000   1.0000   1.0000   1.0000   1.0000   1.0000   1.0000   1.0000
     1.0000   1.0000   1.0000   1.0000   1.0000   0.9522   0.0478  -0.0000
    -0.0000  -0.0000  -0.0000  -0.0000  -0.0000  -0.0000  -0.0000  -0.0000
    -0.0000  -0.0000  -0.0000  -0.0000  -0.0000  -0.0000  -0.0000

     the Fermi energy is    12.2807 ev

!    total energy              =   -1507.44969351 Ry
     estimated scf accuracy    <       0.00000018 Ry
     smearing contrib. (-TS)   =      -0.00002794 Ry
     internal energy E=F+TS    =   -1507.44966556 Ry

     The total energy is F=E-TS. E is the sum of the following terms:
     one-electron contribution =    -292.17941466 Ry
     hartree contribution      =     258.25011011 Ry
     xc contribution           =    -363.91297997 Ry
     ewald contribution        =    -995.32503336 Ry
     one-center paw contrib.   =    -114.28234768 Ry
      -> PAW hartree energy AE =     349.30564454 Ry
      -> PAW hartree energy PS =    -348.07241190 Ry
      -> PAW xc energy AE      =    -205.06951030 Ry
      -> PAW xc energy PS      =      89.55392998 Ry
      -> total E_H with PAW    =     259.48334275 Ry
      -> total E_XC with PAW   =    -479.42856029 Ry

     convergence has been achieved in  21 iterations

     negative rho (up, down):  1.505E+00 0.000E+00

     Forces acting on atoms (cartesian axes, Ry/au):

     atom    1 type  1   force =    -0.00438883    0.01017768   -0.00000000
     atom    2 type  1   force =     0.00438883    0.01017768    0.00000000
     atom    3 type  1   force =     0.00438883   -0.01017768    0.00000000
     atom    4 type  1   force =    -0.00438883   -0.01017768    0.00000000
     atom    5 type  2   force =     0.00000000   -0.00000000    0.00000000
     atom    6 type  2   force =     0.00000000    0.00000000    0.00000000
     atom    7 type  2   force =     0.00000000   -0.00000000    0.00000000
     atom    8 type  2   force =     0.00000000   -0.00000000    0.00000000
     atom    9 type  3   force =    -0.03819865   -0.03193230    0.00000000
     atom   10 type  3   force =     0.03819865   -0.03193230   -0.00000000
     atom   11 type  3   force =     0.03819865    0.03193230   -0.00000000
     atom   12 type  3   force =    -0.03819865    0.03193230    0.00000000
     atom   13 type  3   force =     0.01153034    0.00744772    0.01954384
     atom   14 type  3   force =    -0.01153034    0.00744772   -0.01954384
     atom   15 type  3   force =    -0.01153034   -0.00744772    0.01954384
     atom   16 type  3   force =     0.01153034   -0.00744772   -0.01954384
     atom   17 type  3   force =    -0.01153034   -0.00744772   -0.01954384
     atom   18 type  3   force =     0.01153034   -0.00744772    0.01954384
     atom   19 type  3   force =     0.01153034    0.00744772   -0.01954384
     atom   20 type  3   force =    -0.01153034    0.00744772    0.01954384
     The non-local contrib.  to forces
     atom    1 type  1   force =     0.00975078    0.00576426    0.00000000
     atom    2 type  1   force =    -0.00975078    0.00576426    0.00000000
     atom    3 type  1   force =    -0.00975078   -0.00576426   -0.00000000
     atom    4 type  1   force =     0.00975078   -0.00576426    0.00000000
     atom    5 type  2   force =     0.00000000   -0.00000000    0.00000000
     atom    6 type  2   force =     0.00000000    0.00000000    0.00000000
     atom    7 type  2   force =     0.00000000   -0.00000000    0.00000000
     atom    8 type  2   force =     0.00000000   -0.00000000    0.00000000
     atom    9 type  3   force =     0.80944384    0.14177720   -0.00000000
     atom   10 type  3   force =    -0.80944384    0.14177720    0.00000000
     atom   11 type  3   force =    -0.80944384   -0.14177720    0.00000000
     atom   12 type  3   force =     0.80944384   -0.14177720    0.00000000
     atom   13 type  3   force =    -0.33401593   -0.30408444   -0.57819750
     atom   14 type  3   force =     0.33401593   -0.30408444    0.57819750
     atom   15 type  3   force =     0.33401593    0.30408444   -0.57819750
     atom   16 type  3   force =    -0.33401593    0.30408444    0.57819750
     atom   17 type  3   force =     0.33401593    0.30408444    0.57819750
     atom   18 type  3   force =    -0.33401593    0.30408444   -0.57819750
     atom   19 type  3   force =    -0.33401593   -0.30408444    0.57819750
     atom   20 type  3   force =     0.33401593   -0.30408444   -0.57819750
     The ionic contribution  to forces
     atom    1 type  1   force =     0.91881915   -1.67405007   -0.00000000
     atom    2 type  1   force =    -0.91881915   -1.67405007    0.00000000
     atom    3 type  1   force =    -0.91881915    1.67405007    0.00000000
     atom    4 type  1   force =     0.91881915    1.67405007    0.00000000
     atom    5 type  2   force =    -0.00000000    0.00000000    0.00000000
     atom    6 type  2   force =     0.00000000    0.00000000   -0.00000000
     atom    7 type  2   force =    -0.00000000    0.00000000    0.00000000
     atom    8 type  2   force =    -0.00000000    0.00000000    0.00000000
     atom    9 type  3   force =    -2.76164785    0.30560003    0.00000000
     atom   10 type  3   force =     2.76164785    0.30560003   -0.00000000
     atom   11 type  3   force =     2.76164785   -0.30560003    0.00000000
     atom   12 type  3   force =    -2.76164785   -0.30560003    0.00000000
     atom   13 type  3   force =     1.35575647    1.02409548    1.35168749
     atom   14 type  3   force =    -1.35575647    1.02409548   -1.35168749
     atom   15 type  3   force =    -1.35575647   -1.02409548    1.35168749
     atom   16 type  3   force =     1.35575647   -1.02409548   -1.35168749
     atom   17 type  3   force =    -1.35575647   -1.02409548   -1.35168749
     atom   18 type  3   force =     1.35575647   -1.02409548    1.35168749
     atom   19 type  3   force =     1.35575647    1.02409548   -1.35168749
     atom   20 type  3   force =    -1.35575647    1.02409548    1.35168749
     The local contribution  to forces
     atom    1 type  1   force =    -0.93222171    1.67883625   -0.00017665
     atom    2 type  1   force =     0.93221401    1.67885772   -0.00017106
     atom    3 type  1   force =     0.93220891   -1.67881887    0.00018615
     atom    4 type  1   force =    -0.93220204   -1.67887873    0.00017600
     atom    5 type  2   force =    -0.00001291   -0.00000029   -0.00004056
     atom    6 type  2   force =    -0.00004140   -0.00002911    0.00001034
     atom    7 type  2   force =     0.00003562    0.00003807    0.00002872
     atom    8 type  2   force =     0.00001973   -0.00000336   -0.00002339
     atom    9 type  3   force =     1.92454279   -0.47710146   -0.00035328
     atom   10 type  3   force =    -1.92453755   -0.47712549    0.00004096
     atom   11 type  3   force =    -1.92455274    0.47710374    0.00034911
     atom   12 type  3   force =     1.92453589    0.47711610   -0.00004388
     atom   13 type  3   force =    -1.01465793   -0.71634809   -0.76163390
     atom   14 type  3   force =     1.01458981   -0.71647844    0.76150103
     atom   15 type  3   force =     1.01443657    0.71667262   -0.76148138
     atom   16 type  3   force =    -1.01431721    0.71675116    0.76160913
     atom   17 type  3   force =     1.01466310    0.71635153    0.76162476
     atom   18 type  3   force =    -1.01457811    0.71646853   -0.76146596
     atom   19 type  3   force =    -1.01443987   -0.71667021    0.76149327
     atom   20 type  3   force =     1.01431232   -0.71675179   -0.76161371
     The core correction contribution to forces
     atom    1 type  1   force =    -0.00064071   -0.00035101    0.00000043
     atom    2 type  1   force =     0.00064038   -0.00035148   -0.00000021
     atom    3 type  1   force =     0.00064064    0.00035106   -0.00000044
     atom    4 type  1   force =    -0.00064037    0.00035147    0.00000014
     atom    5 type  2   force =     0.00000004   -0.00000020   -0.00000037
     atom    6 type  2   force =    -0.00000027   -0.00000030    0.00000013
     atom    7 type  2   force =     0.00000027    0.00000035    0.00000041
     atom    8 type  2   force =     0.00000014    0.00000000   -0.00000041
     atom    9 type  3   force =    -0.01056582   -0.00218877    0.00000015
     atom   10 type  3   force =     0.01056560   -0.00218885   -0.00000002
     atom   11 type  3   force =     0.01056564    0.00218868   -0.00000017
     atom   12 type  3   force =    -0.01056554    0.00218885    0.00000002
     atom   13 type  3   force =     0.00426855    0.00397685    0.00763033
     atom   14 type  3   force =    -0.00426838    0.00397656   -0.00763103
     atom   15 type  3   force =    -0.00426805   -0.00397624    0.00763106
     atom   16 type  3   force =     0.00426856   -0.00397672   -0.00763060
     atom   17 type  3   force =    -0.00426851   -0.00397682   -0.00763022
     atom   18 type  3   force =     0.00426848   -0.00397665    0.00763122
     atom   19 type  3   force =     0.00426804    0.00397623   -0.00763111
     atom   20 type  3   force =    -0.00426861    0.00397676    0.00763072
     The Hubbard contrib.    to forces
     atom    1 type  1   force =     0.00000000    0.00000000    0.00000000
     atom    2 type  1   force =     0.00000000    0.00000000    0.00000000
     atom    3 type  1   force =     0.00000000    0.00000000    0.00000000
     atom    4 type  1   force =     0.00000000    0.00000000    0.00000000
     atom    5 type  2   force =     0.00000000    0.00000000    0.00000000
     atom    6 type  2   force =     0.00000000    0.00000000    0.00000000
     atom    7 type  2   force =     0.00000000    0.00000000    0.00000000
     atom    8 type  2   force =     0.00000000    0.00000000    0.00000000
     atom    9 type  3   force =     0.00000000    0.00000000    0.00000000
     atom   10 type  3   force =     0.00000000    0.00000000    0.00000000
     atom   11 type  3   force =     0.00000000    0.00000000    0.00000000
     atom   12 type  3   force =     0.00000000    0.00000000    0.00000000
     atom   13 type  3   force =     0.00000000    0.00000000    0.00000000
     atom   14 type  3   force =     0.00000000    0.00000000    0.00000000
     atom   15 type  3   force =     0.00000000    0.00000000    0.00000000
     atom   16 type  3   force =     0.00000000    0.00000000    0.00000000
     atom   17 type  3   force =     0.00000000    0.00000000    0.00000000
     atom   18 type  3   force =     0.00000000    0.00000000    0.00000000
     atom   19 type  3   force =     0.00000000    0.00000000    0.00000000
     atom   20 type  3   force =     0.00000000    0.00000000    0.00000000
     The SCF correction term to forces
     atom    1 type  1   force =    -0.00009905   -0.00001959    0.00018155
     atom    2 type  1   force =     0.00010242   -0.00004444    0.00016946
     atom    3 type  1   force =     0.00011106    0.00000341   -0.00019080
     atom    4 type  1   force =    -0.00011379    0.00006517   -0.00017529
     atom    5 type  2   force =     0.00001584    0.00000134    0.00004353
     atom    6 type  2   force =     0.00004547    0.00003307   -0.00001177
     atom    7 type  2   force =    -0.00003881   -0.00004214   -0.00003136
     atom    8 type  2   force =    -0.00002252    0.00000301    0.00002577
     atom    9 type  3   force =     0.00001619   -0.00001776    0.00038360
     atom   10 type  3   force =    -0.00003871    0.00000085   -0.00005150
     atom   11 type  3   force =    -0.00001627    0.00000989   -0.00038038
     atom   12 type  3   force =     0.00004389    0.00000937    0.00005435
     atom   13 type  3   force =     0.00020462   -0.00018069    0.00003164
     atom   14 type  3   force =    -0.00011641   -0.00006768    0.00006142
     atom   15 type  3   force =     0.00007374   -0.00011037   -0.00008165
     atom   16 type  3   force =    -0.00016320   -0.00022586   -0.00002217
     atom   17 type  3   force =    -0.00020775    0.00017920   -0.00001490
     atom   18 type  3   force =     0.00011074    0.00007146   -0.00008606
     atom   19 type  3   force =    -0.00007101    0.00010787    0.00006648
     atom   20 type  3   force =     0.00016542    0.00022787    0.00003464

     Total force =     0.122351     Total SCF correction =     0.000946

     Computing stress (Cartesian axis) and pressure

     negative rho (up, down):  1.505E+00 0.000E+00
          total   stress  (Ry/bohr**3)                   (kbar)     P=     -319.78
  -0.00212394   0.00000000   0.00000000         -312.44        0.00        0.00
   0.00000000  -0.00206204   0.00000000            0.00     -303.34        0.00
   0.00000000   0.00000000  -0.00233545            0.00        0.00     -343.56

     kinetic stress (kbar)  27087.46      0.00      0.00
                                0.00  27034.91      0.00
                                0.00      0.00  27026.02

     local   stress (kbar)  -6724.59      0.06      0.11
                                0.06  -5600.96      0.02
                                0.11      0.02  -7414.84

     nonloc. stress (kbar)   7308.93      0.00      0.00
                                0.00   7293.77      0.00
                                0.00      0.00   7337.21

     hartree stress (kbar)   7337.92     -0.04     -0.01
                               -0.04   7003.44     -0.01
                               -0.01     -0.01   7739.87

     exc-cor stress (kbar)   8433.90     -0.00     -0.00
                               -0.00   8430.39     -0.00
                               -0.00     -0.00   8433.81

     corecor stress (kbar) -15530.27      0.00      0.01
                                0.00 -15522.06      0.00
                                0.01      0.00 -15530.70

     ewald   stress (kbar) -28225.78     -0.00      0.00
                               -0.00 -28942.82     -0.00
                                0.00     -0.00 -27934.93

     hubbard stress (kbar)      0.00      0.00      0.00
                                0.00      0.00      0.00
                                0.00      0.00      0.00

     DFT-D   stress (kbar)      0.00      0.00      0.00
                                0.00      0.00      0.00
                                0.00      0.00      0.00

     XDM     stress (kbar)      0.00      0.00      0.00
                                0.00      0.00      0.00
                                0.00      0.00      0.00

     dft-nl  stress (kbar)      0.00      0.00      0.00
                                0.00      0.00      0.00
                                0.00      0.00      0.00

     TS-vdW  stress (kbar)      0.00      0.00      0.00
                                0.00      0.00      0.00
                                0.00      0.00      0.00

[...]

                                0.00      0.00      0.00

     Writing all to output data dir new_calculations/myprefix.save/

     General routines

     Parallel routines

     PAW routines

   This run was terminated on:  13:40:14  20May2023

   JOB DONE.