     Program PWSCF v.7.1 starts on 16Jul2023 at 17: 3:23

     Reading input from espresso_15720.pwi
Warning: card &CELL ignored
Warning: card / ignored

     Current dimensions of program PWSCF are:
     Max number of different atomic species (ntypx) = 10
     Max number of k-points (npk) =  40000
     Max angular momentum in pseudopotentials (lmaxx) =  4
     file Eu.paw.z_17.atompaw.wentzcovitch.v1.2.upf: wavefunction(s)  6S 0P 5D 0D 4F 0F renormalized
     Message from routine setup:
     using ibrav=0 with symmetry is DISCOURAGED, use correct ibrav instead

     K-points division:     npool     =       2
     R & G space division:  proc/nbgrp/npool/nimage =       4
     Subspace diagonalization in iterative solution of the eigenvalue problem:
     one sub-group per band group will be used

     Using Slab Decomposition

     bravais-lattice index     =            0
     lattice parameter (alat)  =      14.4310  a.u.
     unit-cell volume          =    2313.4779 (a.u.)^3
     number of atoms/cell      =           17
     number of atomic types    =            3
     number of electrons       =       249.00
     number of Kohn-Sham states=          150
     kinetic-energy cutoff     =      30.0000  Ry
     charge density cutoff     =     240.0000  Ry
     scf convergence threshold =      1.0E-06
     mixing beta               =       0.7000
     number of iterations used =            8  plain     mixing
     Exchange-correlation=  SLA  PW   PBX  PBC
                           (   1   4   3   4   0   0   0)

     celldm(1)=  14.430978  celldm(2)=   0.000000  celldm(3)=   0.000000
     celldm(4)=   0.000000  celldm(5)=   0.000000  celldm(6)=   0.000000

     crystal axes: (cart. coord. in units of alat)
               a(1) = (   1.000000   0.000000   0.000000 )
               a(2) = (  -0.333333   0.942809   0.000000 )
               a(3) = (  -0.333333  -0.471405   0.816497 )

     reciprocal axes: (cart. coord. in units 2 pi/alat)
               b(1) = (  1.000000  0.353553  0.612372 )
               b(2) = (  0.000000  1.060660  0.612372 )
               b(3) = (  0.000000  0.000000  1.224745 )

     PseudoPot. # 1 for Eu read from file:
     /lustre07/scratch/pragov/crystal_structure_design/utils/SSSP/Eu.paw.z_17.atompaw.wentzcovitch.v1.2.upf
     MD5 check sum: 52b6e423bc4e840b6e0dc4248fa51623
     Pseudo is Projector augmented-wave + core cor, Zval = 17.0
     Generated using ATOMPAW code
     Shape of augmentation charge: BESSEL
     Using radial grid of 1109 points,  8 beta functions with:
                l(1) =   0
                l(2) =   0
                l(3) =   1
                l(4) =   1
                l(5) =   2
                l(6) =   2
                l(7) =   3
                l(8) =   3
     Q(r) pseudized with 0 coefficients

     PseudoPot. # 2 for Ge read from file:
     /lustre07/scratch/pragov/crystal_structure_design/utils/SSSP/ge_pbe_v1.4.uspp.F.UPF
     MD5 check sum: 9c9eaa91e581c3f09632fb3098b2c6b2
     Pseudo is Ultrasoft + core correction, Zval = 14.0
     Generated by new atomic code, or converted to UPF format
     Using radial grid of  873 points,  6 beta functions with:
                l(1) =   0
                l(2) =   0
                l(3) =   1
                l(4) =   1
                l(5) =   2
                l(6) =   2
     Q(r) pseudized with  8 coefficients,  rinner =    1.400   1.400   1.400
                                                       1.400   1.400

     PseudoPot. # 3 for Pt read from file:
     /lustre07/scratch/pragov/crystal_structure_design/utils/SSSP/pt_pbe_v1.4.uspp.F.UPF
     MD5 check sum: f09d6de1a584b5a045c4fc126da2d0c4
     Pseudo is Ultrasoft + core correction, Zval = 16.0
     Generated by new atomic code, or converted to UPF format
     Using radial grid of  985 points,  6 beta functions with:
                l(1) =   0
                l(2) =   0
                l(3) =   1
                l(4) =   1
                l(5) =   2
                l(6) =   2
     Q(r) pseudized with  8 coefficients,  rinner =    1.300   1.300   1.300
                                                       1.300   1.300

     atomic species   valence    mass     pseudopotential
        Eu            17.00   151.96400     Eu( 1.00)
        Ge            14.00    72.63000     Ge( 1.00)
        Pt            16.00   195.08400     Pt( 1.00)

      2 Sym. Ops., with inversion, found

                                    s                        frac. trans.

      isym =  1     identity

 cryst.   s( 1) = (     1          0          0      )
                  (     0          1          0      )
                  (     0          0          1      )

 cart.    s( 1) = (  1.0000000  0.0000000  0.0000000 )
                  (  0.0000000  1.0000000  0.0000000 )
                  (  0.0000000  0.0000000  1.0000000 )

      isym =  2     inversion

 cryst.   s( 2) = (    -1          0          0      )
                  (     0         -1          0      )
                  (     0          0         -1      )

 cart.    s( 2) = ( -1.0000000 -0.0000000 -0.0000000 )
                  (  0.0000000 -1.0000000  0.0000000 )
                  (  0.0000000  0.0000000 -1.0000000 )

   Cartesian axes

     site n.     atom                  positions (alat units)
         1           Eu  tau(   1) = (   0.0000000   0.0000000   0.0000000  )
         2           Ge  tau(   2) = (   0.1350133   0.4044952   0.1232975  )
         3           Ge  tau(   3) = (   0.3303097   0.6806846   0.1232975  )
         4           Ge  tau(   4) = (   0.6636423   0.2378401   0.1653577  )
         5           Ge  tau(   5) = (   0.3363573  -0.0242830   0.2886544  )
         6           Ge  tau(   6) = (  -0.1983190   0.6337826   0.2886544  )
         7           Ge  tau(   7) = (   0.4683467   0.3759357   0.4045447  )
         8           Ge  tau(   8) = (  -0.1350133   0.0954688   0.4119519  )
         9           Ge  tau(   9) = (   0.5316523  -0.1623781   0.5278422  )
        10           Ge  tau(  10) = (  -0.0030240   0.4956875   0.5278422  )
        11           Ge  tau(  11) = (  -0.3303090   0.2335644   0.6511389  )
        12           Ge  tau(  12) = (   0.0030237  -0.2092800   0.6931991  )
        13           Ge  tau(  13) = (   0.1983200   0.0669093   0.6931991  )
        14           Pt  tau(  14) = (   0.5000000   0.0000000   0.0000000  )
        15           Pt  tau(  15) = (  -0.1666667   0.4714045   0.0000000  )
        16           Pt  tau(  16) = (  -0.1666667  -0.2357023   0.4082483  )
        17           Pt  tau(  17) = (   0.1666667   0.2357023   0.4082483  )

   Crystallographic axes

     site n.     atom                  positions (cryst. coord.)
         1           Eu  tau(   1) = (  0.0000000  0.0000000  0.0000000  )
         2           Ge  tau(   2) = (  0.3535280  0.5045360  0.1510080  )
         3           Ge  tau(   3) = (  0.6464720  0.7974790  0.1510080  )
         4           Ge  tau(   4) = (  0.8489920  0.3535280  0.2025210  )
         5           Ge  tau(   5) = (  0.5045360  0.1510080  0.3535280  )
         6           Ge  tau(   6) = (  0.2025210  0.8489920  0.3535280  )
         7           Ge  tau(   7) = (  0.8489920  0.6464720  0.4954640  )
         8           Ge  tau(   8) = (  0.1510080  0.3535280  0.5045360  )
         9           Ge  tau(   9) = (  0.7974790  0.1510080  0.6464720  )
        10           Ge  tau(  10) = (  0.4954640  0.8489920  0.6464720  )
        11           Ge  tau(  11) = (  0.1510080  0.6464720  0.7974790  )
        12           Ge  tau(  12) = (  0.3535280  0.2025210  0.8489920  )
        13           Ge  tau(  13) = (  0.6464720  0.4954640  0.8489920  )
        14           Pt  tau(  14) = (  0.5000000  0.0000000  0.0000000  )
        15           Pt  tau(  15) = (  0.0000000  0.5000000  0.0000000  )
        16           Pt  tau(  16) = (  0.0000000 -0.0000000  0.5000000  )
        17           Pt  tau(  17) = (  0.5000000  0.5000000  0.5000000  )

     number of k points=    14  Gaussian smearing, width (Ry)=  0.0010
                       cart. coord. in units 2pi/alat
        k(    1) = (   0.0000000   0.0000000   0.0000000), wk =   0.0740741
        k(    2) = (   0.0000000   0.0000000   0.4082483), wk =   0.1481481
        k(    3) = (   0.0000000   0.3535534   0.2041241), wk =   0.1481481
        k(    4) = (   0.0000000   0.3535534   0.6123724), wk =   0.1481481
        k(    5) = (   0.3333333   0.1178511   0.2041241), wk =   0.1481481
        k(    6) = (   0.3333333   0.1178511   0.6123724), wk =   0.1481481
        k(    7) = (   0.3333333   0.4714045   0.4082483), wk =   0.1481481
        k(    8) = (   0.3333333   0.4714045  -0.0000000), wk =   0.1481481
        k(    9) = (   0.3333333  -0.2357023   0.0000000), wk =   0.1481481
        k(   10) = (   0.3333333  -0.2357023   0.4082483), wk =   0.1481481
        k(   11) = (   0.0000000  -0.3535534   0.2041241), wk =   0.1481481
        k(   12) = (  -0.3333333  -0.1178511   0.2041241), wk =   0.1481481
        k(   13) = (  -0.3333333  -0.4714045   0.4082483), wk =   0.1481481
        k(   14) = (  -0.3333333   0.2357023   0.4082483), wk =   0.1481481

                       cryst. coord.
        k(    1) = (   0.0000000   0.0000000   0.0000000), wk =   0.0740741
        k(    2) = (   0.0000000   0.0000000   0.3333333), wk =   0.1481481
        k(    3) = (   0.0000000   0.3333333   0.0000000), wk =   0.1481481
        k(    4) = (   0.0000000   0.3333333   0.3333333), wk =   0.1481481
        k(    5) = (   0.3333333   0.0000000   0.0000000), wk =   0.1481481
        k(    6) = (   0.3333333   0.0000000   0.3333333), wk =   0.1481481
        k(    7) = (   0.3333333   0.3333333   0.0000000), wk =   0.1481481
        k(    8) = (   0.3333333   0.3333333  -0.3333333), wk =   0.1481481
        k(    9) = (   0.3333333  -0.3333333  -0.0000000), wk =   0.1481481
        k(   10) = (   0.3333333  -0.3333333   0.3333333), wk =   0.1481481
        k(   11) = (   0.0000000  -0.3333333   0.3333333), wk =   0.1481481
        k(   12) = (  -0.3333333   0.0000000   0.3333333), wk =   0.1481481
        k(   13) = (  -0.3333333  -0.3333333   0.6666667), wk =   0.1481481
        k(   14) = (  -0.3333333   0.3333333   0.3333333), wk =   0.1481481

     Check: negative core charge=   -0.000001

     Initial potential from superposition of free atoms

     starting charge     246.9848, renormalised to     249.0000

     negative rho (up, down):  7.600E-01 0.000E+00
     Starting wfcs are  188 randomized atomic wfcs
     Checking if some PAW data can be deallocated...

     Self-consistent Calculation

     iteration #  1     ecut=    30.00 Ry     beta= 0.70
     Davidson diagonalization with overlap

     ethr =  1.00E-02,  avg # of iterations =  2.3

     negative rho (up, down):  6.816E-01 0.000E+00

     total energy              =   -4000.85181854 Ry
     estimated scf accuracy    <      44.18516681 Ry

[...]

     total energy              =   -4048.86316777 Ry
     estimated scf accuracy    <       0.00000189 Ry

     iteration #104     ecut=    30.00 Ry     beta= 0.70
     Davidson diagonalization with overlap

     ethr =  6.60E-10,  avg # of iterations =  2.1

     negative rho (up, down):  7.100E-01 0.000E+00

     End of self-consistent calculation

          k = 0.0000 0.0000 0.0000 (  6459 PWs)   bands (ev):

   -41.2375 -41.2371 -41.2357 -41.2352 -41.2321 -41.2316 -41.2290 -41.2285
   -41.1318 -41.1300 -41.1253 -41.1213 -29.4281 -12.7909 -12.7907 -12.7726
   -12.7421 -12.7418 -12.7418 -12.7309 -12.7307 -12.7286 -12.7284 -12.7283
   -12.7217 -12.7041 -12.7039 -12.7038 -12.7031 -12.7028 -12.7026 -12.7001
   -12.7000 -12.6981 -12.6838 -12.6832 -12.6828 -12.6812 -12.6808 -12.6804
   -12.6802 -12.6801 -12.6799 -12.6685 -12.6683 -12.6680 -12.6569 -12.6564
   -12.6563 -12.6543 -12.6535 -12.6534 -12.6365 -12.6363 -12.6359 -12.6354
   -12.6353 -12.6352 -12.6247 -12.6246 -12.6242 -12.6214 -12.6213 -12.6211
   -12.6170 -12.6164 -12.6162 -12.5964 -12.5961 -12.5960 -12.5737 -12.5735
   -12.5734  -8.3055  -8.3013  -8.2979  -0.0691   1.9745   1.9746   3.3113
     3.3122   3.3132   3.7825   3.7832   3.7840   3.8732   3.8740   3.8743
     6.5318   6.5319   6.5967   6.9329   6.9331   6.9333   7.2790   7.2806
     7.2822   8.3224   8.3234   8.3247   8.3340   8.5238   8.5238   8.5515
     8.5518   8.5520   8.7420   8.7427   8.7434   9.3497   9.3499   9.3502
    10.8184  10.8186  10.9005  10.9016  10.9021  10.9542  11.5060  11.5127
    11.5185  11.8175  11.8364  11.8410  11.8505  11.9571  11.9652  11.9672
    12.1654  12.1654  12.9715  12.9717  12.9967  12.9971  12.9973  13.7707
    14.4112  14.4115  14.4117  14.8187  14.8192  14.8194  16.1711  16.3875
    16.3881  16.5044  16.5049  16.5056  16.7223  16.7223

     occupation numbers
     1.0000   1.0000   1.0000   1.0000   1.0000   1.0000   1.0000   1.0000
     1.0000   1.0000   1.0000   1.0000   1.0000   1.0000   1.0000   1.0000
     1.0000   1.0000   1.0000   1.0000   1.0000   1.0000   1.0000   1.0000
     1.0000   1.0000   1.0000   1.0000   1.0000   1.0000   1.0000   1.0000
     1.0000   1.0000   1.0000   1.0000   1.0000   1.0000   1.0000   1.0000
     1.0000   1.0000   1.0000   1.0000   1.0000   1.0000   1.0000   1.0000
     1.0000   1.0000   1.0000   1.0000   1.0000   1.0000   1.0000   1.0000
     1.0000   1.0000   1.0000   1.0000   1.0000   1.0000   1.0000   1.0000
     1.0000   1.0000   1.0000   1.0000   1.0000   1.0000   1.0000   1.0000
     1.0000   1.0000   1.0000   1.0000   1.0000   1.0000   1.0000   1.0000
     1.0000   1.0000   1.0000   1.0000   1.0000   1.0000   1.0000   1.0000
     1.0000   1.0000   1.0000   1.0000   1.0000   1.0000   1.0000   1.0000
     1.0000   1.0000   1.0000   1.0000   1.0000   1.0000   1.0000   1.0000
     1.0000   1.0000   1.0000   1.0000   1.0000   1.0000   1.0000   1.0000
     1.0000   1.0000   1.0000   1.0000   1.0000   1.0000   1.0000   1.0000
     1.0000   0.0000   0.0000   0.0000   0.0000   0.0000   0.0000   0.0000
     0.0000   0.0000   0.0000   0.0000   0.0000   0.0000   0.0000   0.0000
     0.0000   0.0000   0.0000   0.0000   0.0000   0.0000   0.0000   0.0000
     0.0000   0.0000   0.0000   0.0000   0.0000   0.0000

[...]

          k = 0.0000-0.3536 0.2041 (  6448 PWs)   bands (ev):

[...]

          k =-0.3333-0.1179 0.2041 (  6448 PWs)   bands (ev):

[...]

          k =-0.3333 0.2357 0.4082 (  6418 PWs)   bands (ev):

   -41.2375 -41.2370 -41.2357 -41.2352 -41.2321 -41.2315 -41.2289 -41.2285
   -41.1317 -41.1300 -41.1253 -41.1212 -29.4281 -12.7951 -12.7830 -12.7801
   -12.7454 -12.7417 -12.7416 -12.7293 -12.7287 -12.7276 -12.7271 -12.7263
   -12.7241 -12.7060 -12.7056 -12.7046 -12.7027 -12.6978 -12.6969 -12.6965
   -12.6958 -12.6943 -12.6813 -12.6804 -12.6791 -12.6789 -12.6787 -12.6780
   -12.6774 -12.6737 -12.6736 -12.6669 -12.6655 -12.6644 -12.6603 -12.6564
   -12.6545 -12.6526 -12.6522 -12.6503 -12.6413 -12.6389 -12.6376 -12.6315
   -12.6303 -12.6297 -12.6217 -12.6209 -12.6204 -12.6199 -12.6177 -12.6169
   -12.6159 -12.6127 -12.6120 -12.5978 -12.5978 -12.5965 -12.5758 -12.5752
   -12.5746  -8.3067  -8.3024  -8.2991   0.7006   1.3985   2.0545   2.1101
     2.1287   2.7689   3.6356   3.7249   3.7288   4.7944   5.2138   5.3518
     6.6855   6.8422   6.8536   6.9855   7.2024   7.4375   7.5048   7.5069
     7.6280   7.8045   8.1890   8.2515   8.3170   8.5120   8.5348   8.5889
     8.6505   8.7051   8.7152   8.7643   8.8522   9.0213   9.4771   9.8360
     9.8820   9.9630   9.9665  10.2961  10.4763  10.4894  10.6879  10.7674
    11.3375  11.4449  11.4975  11.5785  11.6537  11.6574  11.7630  11.9362
    11.9669  11.9756  11.9805  13.4110  13.7240  13.7365  14.1502  14.1931
    14.3087  14.4277  14.8099  15.1956  15.3203  15.7112  15.7398  15.8336
    15.9091  16.1748  16.2712  17.1412  17.1456  17.6647

     occupation numbers
     1.0000   1.0000   1.0000   1.0000   1.0000   1.0000   1.0000   1.0000
     1.0000   1.0000   1.0000   1.0000   1.0000   1.0000   1.0000   1.0000
     1.0000   1.0000   1.0000   1.0000   1.0000   1.0000   1.0000   1.0000
     1.0000   1.0000   1.0000   1.0000   1.0000   1.0000   1.0000   1.0000
     1.0000   1.0000   1.0000   1.0000   1.0000   1.0000   1.0000   1.0000
     1.0000   1.0000   1.0000   1.0000   1.0000   1.0000   1.0000   1.0000
     1.0000   1.0000   1.0000   1.0000   1.0000   1.0000   1.0000   1.0000
     1.0000   1.0000   1.0000   1.0000   1.0000   1.0000   1.0000   1.0000
     1.0000   1.0000   1.0000   1.0000   1.0000   1.0000   1.0000   1.0000
     1.0000   1.0000   1.0000   1.0000   1.0000   1.0000   1.0000   1.0000
     1.0000   1.0000   1.0000   1.0000   1.0000   1.0000   1.0000   1.0000
     1.0000   1.0000   1.0000   1.0000   1.0000   1.0000   1.0000   1.0000
     1.0000   1.0000   1.0000   1.0000   1.0000   1.0000   1.0000   1.0000
     1.0000   1.0000   1.0000   1.0000   1.0000   1.0000   1.0000   1.0000
     1.0000   1.0000   1.0000   1.0000   1.0000   1.0000   1.0000   1.0000
     1.0000   1.0000   1.0000   1.0000   1.0000   1.0000   0.0000   0.0000
     0.0000   0.0000   0.0000   0.0000   0.0000   0.0000   0.0000   0.0000
     0.0000   0.0000   0.0000   0.0000   0.0000   0.0000   0.0000   0.0000
     0.0000   0.0000   0.0000   0.0000   0.0000   0.0000

     the Fermi energy is    11.6995 ev

!    total energy              =   -4048.86316757 Ry
     estimated scf accuracy    <       0.00000096 Ry
     smearing contrib. (-TS)   =      -0.00029287 Ry
     internal energy E=F+TS    =   -4048.86287470 Ry

     The total energy is F=E-TS. E is the sum of the following terms:
     one-electron contribution =   -1754.99797154 Ry
     hartree contribution      =    1100.23386449 Ry
     xc contribution           =    -947.01782539 Ry
     ewald contribution        =   -1989.47548815 Ry
     one-center paw contrib.   =    -457.60545411 Ry
      -> PAW hartree energy AE =     155.84060549 Ry
      -> PAW hartree energy PS =    -149.33814273 Ry
      -> PAW xc energy AE      =    -483.21809767 Ry
      -> PAW xc energy PS      =      19.11018080 Ry
      -> total E_H with PAW    =    1106.73632725 Ry
      -> total E_XC with PAW   =   -1411.12574226 Ry

     convergence has been achieved in 104 iterations

     Writing all to output data dir energy_m/myprefix.save/

     General routines

     Parallel routines

     PAW routines

   This run was terminated on:  17:10:11  16Jul2023

   JOB DONE.