     Program PWSCF v.7.0 starts on 20May2023 at  1:32: 3

     Reading input from espresso_2060.pwi
Warning: card &CELL ignored
Warning: card / ignored

     Current dimensions of program PWSCF are:
     Max number of different atomic species (ntypx) = 10
     Max number of k-points (npk) =  40000
     Max angular momentum in pseudopotentials (lmaxx) =  4
     file Ga.pbe-dn-kjpaw_psl.1.0.0.UPF: wavefunction(s)  4S renormalized

     gamma-point specific algorithms are used
     Message from routine setup:
     using ibrav=0 with symmetry is DISCOURAGED, use correct ibrav instead

     Subspace diagonalization in iterative solution of the eigenvalue problem:
     a serial algorithm will be used

     Using Slab Decomposition

     bravais-lattice index     =            0
     lattice parameter (alat)  =       8.2445  a.u.
     unit-cell volume          =    1405.2792 (a.u.)^3
     number of atoms/cell      =           10
     number of atomic types    =            3
     number of electrons       =       144.00
     number of Kohn-Sham states=           86
     kinetic-energy cutoff     =      30.0000  Ry
     charge density cutoff     =     240.0000  Ry
     scf convergence threshold =      1.0E-06
     mixing beta               =       0.7000
     number of iterations used =            8  plain     mixing
     Exchange-correlation= PBE
                           (   1   4   3   4   0   0   0)

     celldm(1)=   8.244495  celldm(2)=   0.000000  celldm(3)=   0.000000
     celldm(4)=   0.000000  celldm(5)=   0.000000  celldm(6)=   0.000000

     crystal axes: (cart. coord. in units of alat)
               a(1) = (   1.000000   0.000000   0.000000 )
               a(2) = (   0.000000   1.000000   0.000000 )
               a(3) = (   0.000000   0.000000   2.507670 )

     reciprocal axes: (cart. coord. in units 2 pi/alat)
               b(1) = (  1.000000  0.000000  0.000000 )
               b(2) = (  0.000000  1.000000  0.000000 )
               b(3) = (  0.000000  0.000000  0.398777 )

     PseudoPot. # 1 for Eu read from file:
     /home/pragov/projects/rrg-bengioy-ad/pragov/crystal_structure_design/SSSP/Eu.GGA-PBE-paw-v1.0.UPF
     MD5 check sum: acec5fd9176fb57ec8e299eae1ecaf48
     Pseudo is Projector augmented-wave + core cor, Zval = 17.0
     Generated using ATOMPAW code
     Shape of augmentation charge: BESSEL
     Using radial grid of 1109 points,  8 beta functions with:
                l(1) =   0
                l(2) =   0
                l(3) =   1
                l(4) =   1
                l(5) =   2
                l(6) =   2
                l(7) =   3
                l(8) =   3
     Q(r) pseudized with 0 coefficients

     PseudoPot. # 2 for Ga read from file:
     /home/pragov/projects/rrg-bengioy-ad/pragov/crystal_structure_design/SSSP/Ga.pbe-dn-kjpaw_psl.1.0.0.UPF
     MD5 check sum: a27b4342b1af7e5f338de752e9ed7044
     Pseudo is Projector augmented-wave + core cor, Zval = 13.0
     Generated using "atomic" code by A. Dal Corso  v.5.1
     Shape of augmentation charge: PSQ
     Using radial grid of 1205 points,  6 beta functions with:
                l(1) =   0
                l(2) =   0
                l(3) =   1
                l(4) =   1
                l(5) =   2
                l(6) =   2
     Q(r) pseudized with 0 coefficients

     PseudoPot. # 3 for Ag read from file:
     /home/pragov/projects/rrg-bengioy-ad/pragov/crystal_structure_design/SSSP/Ag_ONCV_PBE-1.0.oncvpsp.upf
     MD5 check sum: 94f47bd0669c641108e45594df92fabc
     Pseudo is Norm-conserving, Zval = 19.0
     Generated using ONCVPSP code by D. R. Hamann
     Using radial grid of 1398 points,  6 beta functions with:
                l(1) =   0
                l(2) =   0
                l(3) =   1
                l(4) =   1
                l(5) =   2
                l(6) =   2

     atomic species   valence    mass     pseudopotential
        Eu            17.00   151.96400     Eu( 1.00)
        Ga            13.00    69.72300     Ga( 1.00)
        Ag            19.00   107.86820     Ag( 1.00)

      8 Sym. Ops. (no inversion) found

                                    s                        frac. trans.

      isym =  1     identity

 cryst.   s( 1) = (     1          0          0      )
                  (     0          1          0      )
                  (     0          0          1      )

 cart.    s( 1) = (  1.0000000  0.0000000  0.0000000 )
                  (  0.0000000  1.0000000  0.0000000 )
                  (  0.0000000  0.0000000  1.0000000 )

      isym =  2     180 deg rotation - cart. axis [0,0,1]

[...]

      isym =  4     180 deg rotation - cart. axis [1,-1,0]

[...]

      isym =  5     inv. 180 deg rotation - cart. axis [0,1,0]

[...]

      isym =  8     inv.  90 deg rotation - cart. axis [0,0,1]

 cryst.   s( 8) = (     0         -1          0      )
                  (     1          0          0      )
                  (     0          0         -1      )

 cart.    s( 8) = (  0.0000000  1.0000000  0.0000000 )
                  ( -1.0000000  0.0000000  0.0000000 )
                  (  0.0000000  0.0000000 -1.0000000 )

   Cartesian axes

     site n.     atom                  positions (alat units)
         1           Eu  tau(   1) = (   0.5000000   0.0000000   1.8780845  )
         2           Eu  tau(   2) = (   0.0000000   0.5000000   0.6295857  )
         3           Ga  tau(   3) = (   0.0000000   0.5000000   2.1677104  )
         4           Ga  tau(   4) = (   0.5000000   0.0000000   0.9129374  )
         5           Ga  tau(   5) = (   0.5000000   0.0000000   0.3399598  )
         6           Ga  tau(   6) = (   0.0000000   0.5000000   1.5947328  )
         7           Ga  tau(   7) = (   0.0000000   0.0000000   1.2538351  )
         8           Ga  tau(   8) = (   0.0000000   0.0000000   0.0000000  )
         9           Ga  tau(   9) = (   0.5000000   0.5000000   1.2538351  )
        10           Ag  tau(  10) = (   0.5000000   0.5000000   0.0000000  )

   Crystallographic axes

     site n.     atom                  positions (cryst. coord.)
         1           Eu  tau(   1) = (  0.5000000  0.0000000  0.7489360  )
         2           Eu  tau(   2) = (  0.0000000  0.5000000  0.2510640  )
         3           Ga  tau(   3) = (  0.0000000  0.5000000  0.8644320  )
         4           Ga  tau(   4) = (  0.5000000  0.0000000  0.3640580  )
         5           Ga  tau(   5) = (  0.5000000  0.0000000  0.1355680  )
         6           Ga  tau(   6) = (  0.0000000  0.5000000  0.6359420  )
         7           Ga  tau(   7) = (  0.0000000  0.0000000  0.5000000  )
         8           Ga  tau(   8) = (  0.0000000  0.0000000  0.0000000  )
         9           Ga  tau(   9) = (  0.5000000  0.5000000  0.5000000  )
        10           Ag  tau(  10) = (  0.5000000  0.5000000  0.0000000  )

     number of k points=     1  Methfessel-Paxton smearing, width (Ry)=  0.0010
                       cart. coord. in units 2pi/alat
        k(    1) = (   0.0000000   0.0000000   0.0000000), wk =   2.0000000

                       cryst. coord.
        k(    1) = (   0.0000000   0.0000000   0.0000000), wk =   2.0000000

     Check: negative core charge=   -0.000002

     Initial potential from superposition of free atoms

     starting charge     143.9696, renormalised to     144.0000
     Starting wfcs are  137 randomized atomic wfcs
     Checking if some PAW data can be deallocated...

     Self-consistent Calculation

     iteration #  1     ecut=    30.00 Ry     beta= 0.70
     Davidson diagonalization with overlap

     ethr =  1.00E-02,  avg # of iterations =  2.0

     total energy              =   -3447.80827234 Ry
     estimated scf accuracy    <      56.53974901 Ry

[...]

     ethr =  1.45E-03,  avg # of iterations =  2.0
     Minimization algorithm failed to find Fermi energy: reverting to bisection
     Possible cause: smearing is larger than the electronic band-gap.

[...]

     total energy              =   -3515.84975929 Ry
     estimated scf accuracy    <       0.00000418 Ry

     iteration # 57     ecut=    30.00 Ry     beta= 0.70
     Davidson diagonalization with overlap

     ethr =  2.90E-09,  avg # of iterations =  1.0

     End of self-consistent calculation

          k = 0.0000 0.0000 0.0000 (  1939 PWs)   bands (ev):

   -82.7596 -45.7733 -45.7733 -45.6937 -29.0579 -29.0578  -8.0966  -8.0854
    -7.9058  -7.9058  -7.8576  -7.8575  -4.0972  -4.0967  -4.0259  -4.0258
    -4.0241  -4.0239  -3.9765  -3.9728  -3.9657  -3.9392  -3.5597  -3.5596
    -3.5541  -3.5540  -3.5425  -3.5374  -3.5313  -3.5274  -3.5230  -3.5067
    -3.0634  -3.0235  -2.9341  -2.9297  -2.9297  -2.8330  -2.8330  -2.8308
    -2.8038  -2.7502  -2.2886  -2.2691  -2.2674  -2.2674  -2.2337   1.0690
     2.4075   3.3152   5.2910   5.8055   6.0774   6.0774   6.3649   6.9419
     7.2334   9.0088   9.1763   9.1763  10.3340  10.3340  11.2923  11.3175
    11.6237  11.6988  11.6988  11.8148  11.8148  11.8396  11.8559  11.9500
    11.9500  12.0651  12.0959  12.1306  12.1307  12.1893  12.1893  12.5078
    12.8296  12.8296  13.3044  13.6943  13.6944  14.5107

     occupation numbers
     1.0000   1.0000   1.0000   1.0000   1.0000   1.0000   1.0000   1.0000
     1.0000   1.0000   1.0000   1.0000   1.0000   1.0000   1.0000   1.0000
     1.0000   1.0000   1.0000   1.0000   1.0000   1.0000   1.0000   1.0000
     1.0000   1.0000   1.0000   1.0000   1.0000   1.0000   1.0000   1.0000
     1.0000   1.0000   1.0000   1.0000   1.0000   1.0000   1.0000   1.0000
     1.0000   1.0000   1.0000   1.0000   1.0000   1.0000   1.0000   1.0000
     1.0000   1.0000   1.0000   1.0000   1.0000   1.0000   1.0000   1.0000
     1.0000   1.0000   1.0000   1.0000   1.0000   1.0000   1.0000   1.0000
     1.0000   1.0000   1.0000   1.0000   1.0000   1.0000   1.0000   0.5008
     0.4992  -0.0000  -0.0000  -0.0000  -0.0000  -0.0000  -0.0000  -0.0000
    -0.0000  -0.0000  -0.0000  -0.0000  -0.0000  -0.0000

     the Fermi energy is    11.9500 ev

!    total energy              =   -3515.84975901 Ry
     estimated scf accuracy    <       0.00000071 Ry
     smearing contrib. (-TS)   =      -0.00056419 Ry
     internal energy E=F+TS    =   -3515.84919482 Ry

     The total energy is F=E-TS. E is the sum of the following terms:
     one-electron contribution =    -969.93441022 Ry
     hartree contribution      =     616.34619874 Ry
     xc contribution           =    -334.07184753 Ry
     ewald contribution        =   -1137.69145740 Ry
     one-center paw contrib.   =   -1690.49767842 Ry
      -> PAW hartree energy AE =    1307.36958181 Ry
      -> PAW hartree energy PS =   -1277.50922966 Ry
      -> PAW xc energy AE      =   -2022.51281799 Ry
      -> PAW xc energy PS      =     302.15478742 Ry
      -> total E_H with PAW    =     646.20655089 Ry
      -> total E_XC with PAW   =   -2054.42987810 Ry

     convergence has been achieved in  57 iterations

     Forces acting on atoms (cartesian axes, Ry/au):

     atom    1 type  1   force =     0.00000000    0.00000000   -0.00461412
     atom    2 type  1   force =     0.00000000    0.00000000    0.00461412
     atom    3 type  2   force =     0.00000000    0.00000000    0.00786467
     atom    4 type  2   force =     0.00000000    0.00000000   -0.04650473
     atom    5 type  2   force =     0.00000000    0.00000000   -0.00786467
     atom    6 type  2   force =     0.00000000    0.00000000    0.04650473
     atom    7 type  2   force =     0.00000000    0.00000000    0.00000000
     atom    8 type  2   force =     0.00000000    0.00000000    0.00000000
     atom    9 type  2   force =     0.00000000    0.00000000    0.00000000
     atom   10 type  3   force =     0.00000000    0.00000000    0.00000000
     The non-local contrib.  to forces
     atom    1 type  1   force =     0.00000000    0.00000000   -0.13203666
     atom    2 type  1   force =     0.00000000    0.00000000    0.13203666
     atom    3 type  2   force =     0.00000000    0.00000000   -0.04281912
     atom    4 type  2   force =     0.00000000    0.00000000    0.46028154
     atom    5 type  2   force =     0.00000000    0.00000000    0.04281912
     atom    6 type  2   force =     0.00000000    0.00000000   -0.46028154
     atom    7 type  2   force =     0.00000000    0.00000000    0.00000000
     atom    8 type  2   force =     0.00000000    0.00000000    0.00000000
     atom    9 type  2   force =     0.00000000    0.00000000    0.00000000
     atom   10 type  3   force =     0.00000000    0.00000000    0.00000000
     The ionic contribution  to forces
     atom    1 type  1   force =    -0.00000000    0.00000000   -8.66602322
     atom    2 type  1   force =     0.00000000    0.00000000    8.66602322
     atom    3 type  2   force =    -0.00000000   -0.00000000  -12.75427993
     atom    4 type  2   force =     0.00000000    0.00000000   -0.58415976
     atom    5 type  2   force =    -0.00000000    0.00000000   12.75427993
     atom    6 type  2   force =    -0.00000000    0.00000000    0.58415976
     atom    7 type  2   force =    -0.00000000   -0.00000000   -0.00000000
     atom    8 type  2   force =     0.00000000   -0.00000000   -0.00000000
     atom    9 type  2   force =     0.00000000    0.00000000   -0.00000000
     atom   10 type  3   force =     0.00000000    0.00000000   -0.00000000
     The local contribution  to forces
     atom    1 type  1   force =     0.00001615   -0.00004768    8.79340992
     atom    2 type  1   force =    -0.00001382   -0.00006765   -8.79366271
     atom    3 type  2   force =    -0.00000075    0.00001030   12.80439852
     atom    4 type  2   force =    -0.00000152    0.00002259    0.08633091
     atom    5 type  2   force =    -0.00000411    0.00000293  -12.80603229
     atom    6 type  2   force =    -0.00000225   -0.00000038   -0.08468095
     atom    7 type  2   force =    -0.00000253    0.00000616    0.00114351
     atom    8 type  2   force =    -0.00000167   -0.00000478   -0.00092606
     atom    9 type  2   force =     0.00000083   -0.00000637    0.00116052
     atom   10 type  3   force =     0.00000082    0.00000364   -0.00148606
     The core correction contribution to forces
     atom    1 type  1   force =     0.00000000   -0.00000000   -0.00000342
     atom    2 type  1   force =    -0.00000000   -0.00000000    0.00000342
     atom    3 type  2   force =    -0.00000004    0.00000007   -0.00022692
     atom    4 type  2   force =    -0.00000005    0.00000023   -0.00819546
     atom    5 type  2   force =    -0.00000002    0.00000001    0.00022581
     atom    6 type  2   force =     0.00000001   -0.00000004    0.00819739
     atom    7 type  2   force =    -0.00000002   -0.00000009    0.00000018
     atom    8 type  2   force =    -0.00000015    0.00000009    0.00000150
     atom    9 type  2   force =     0.00000003    0.00000001    0.00000056
     atom   10 type  3   force =     0.00000000    0.00000000    0.00000000
     The Hubbard contrib.    to forces
     atom    1 type  1   force =     0.00000000    0.00000000    0.00000000
     atom    2 type  1   force =     0.00000000    0.00000000    0.00000000
     atom    3 type  2   force =     0.00000000    0.00000000    0.00000000
     atom    4 type  2   force =     0.00000000    0.00000000    0.00000000
     atom    5 type  2   force =     0.00000000    0.00000000    0.00000000
     atom    6 type  2   force =     0.00000000    0.00000000    0.00000000
     atom    7 type  2   force =     0.00000000    0.00000000    0.00000000
     atom    8 type  2   force =     0.00000000    0.00000000    0.00000000
     atom    9 type  2   force =     0.00000000    0.00000000    0.00000000
     atom   10 type  3   force =     0.00000000    0.00000000    0.00000000
     The SCF correction term to forces
     atom    1 type  1   force =    -0.00001883    0.00004586   -0.00001750
     atom    2 type  1   force =     0.00000595    0.00006097    0.00015677
     atom    3 type  2   force =     0.00000275   -0.00000760    0.00077957
     atom    4 type  2   force =     0.00000163   -0.00002198   -0.00076408
     atom    5 type  2   force =    -0.00000847    0.00000050    0.00083022
     atom    6 type  2   force =     0.00000036   -0.00000625   -0.00089206
     atom    7 type  2   force =     0.00000241   -0.00000849   -0.00112187
     atom    8 type  2   force =     0.00000684    0.00000117    0.00095501
     atom    9 type  2   force =    -0.00000019    0.00001109   -0.00113395
     atom   10 type  3   force =    -0.00000171   -0.00000611    0.00151984

     Total force =     0.067020     Total SCF correction =     0.002911

     Computing stress (Cartesian axis) and pressure

          total   stress  (Ry/bohr**3)                   (kbar)     P=     -118.11
  -0.00067171  -0.00000000   0.00000000          -98.81       -0.00        0.00
   0.00000000  -0.00067171   0.00000000            0.00      -98.81        0.00
   0.00000000   0.00000000  -0.00106530            0.00        0.00     -156.71

     kinetic stress (kbar)  16475.53      0.00      0.00
                                0.00  16475.53      0.00
                                0.00      0.00  16284.82

     local   stress (kbar)   2382.52     -0.01      0.00
                               -0.01   2381.50      0.04
                                0.00      0.04   9040.58

     nonloc. stress (kbar)   5012.98      0.00      0.00
                                0.00   5012.98      0.00
                                0.00      0.00   5019.79

     hartree stress (kbar)  22641.21      0.00     -0.00
                                0.00  22641.57     -0.01
                               -0.00     -0.01  19236.53

     exc-cor stress (kbar)   2683.83      0.00     -0.00
                                0.00   2683.83     -0.00
                               -0.00     -0.00   2682.28

     corecor stress (kbar) -10638.59      0.00     -0.00
                                0.00 -10638.59      0.00
                               -0.00      0.00 -10638.71

     ewald   stress (kbar) -38655.95     -0.00      0.00
                               -0.00 -38655.95      0.00
                                0.00      0.00 -41782.00

     hubbard stress (kbar)      0.00      0.00      0.00
                                0.00      0.00      0.00
                                0.00      0.00      0.00

     DFT-D   stress (kbar)      0.00      0.00      0.00
                                0.00      0.00      0.00
                                0.00      0.00      0.00

     XDM     stress (kbar)      0.00      0.00      0.00
                                0.00      0.00      0.00
                                0.00      0.00      0.00

     dft-nl  stress (kbar)      0.00      0.00      0.00
                                0.00      0.00      0.00
                                0.00      0.00      0.00

     TS-vdW  stress (kbar)      0.00      0.00      0.00
                                0.00      0.00      0.00
                                0.00      0.00      0.00

[...]

                                0.00      0.00      0.00

     Writing all to output data dir new_calculations/myprefix.save/

     General routines

     Parallel routines

     PAW routines

   This run was terminated on:   1:34: 6  20May2023

   JOB DONE.