     Program PWSCF v.7.0 starts on 20May2023 at 22:22:11

     Reading input from espresso_26159.pwi
Warning: card &CELL ignored
Warning: card / ignored

     Current dimensions of program PWSCF are:
     Max number of different atomic species (ntypx) = 10
     Max number of k-points (npk) =  40000
     Max angular momentum in pseudopotentials (lmaxx) =  4

     gamma-point specific algorithms are used
     Message from routine setup:
     using ibrav=0 with symmetry is DISCOURAGED, use correct ibrav instead

     Subspace diagonalization in iterative solution of the eigenvalue problem:
     a serial algorithm will be used

     Using Slab Decomposition

     bravais-lattice index     =            0
     lattice parameter (alat)  =      13.5207  a.u.
     unit-cell volume          =    1034.8041 (a.u.)^3
     number of atoms/cell      =           10
     number of atomic types    =            3
     number of electrons       =        98.00
     number of Kohn-Sham states=           59
     kinetic-energy cutoff     =      30.0000  Ry
     charge density cutoff     =     240.0000  Ry
     scf convergence threshold =      1.0E-06
     mixing beta               =       0.7000
     number of iterations used =            8  plain     mixing
     Exchange-correlation= SLA  PW   PBE  PBE
                           (   1   4   3   4   0   0   0)

     celldm(1)=  13.520743  celldm(2)=   0.000000  celldm(3)=   0.000000
     celldm(4)=   0.000000  celldm(5)=   0.000000  celldm(6)=   0.000000

     crystal axes: (cart. coord. in units of alat)
               a(1) = (   1.000000   0.000000   0.000000 )
               a(2) = (   0.563217   0.651247   0.000000 )
               a(3) = (   0.436783  -0.104237   0.642851 )

     reciprocal axes: (cart. coord. in units 2 pi/alat)
               b(1) = (  1.000000 -0.864829 -0.819676 )
               b(2) = (  0.000000  1.535515  0.248980 )
               b(3) = (  0.000000  0.000000  1.555570 )

     PseudoPot. # 1 for Pr read from file:
     /home/pragov/projects/rrg-bengioy-ad/pragov/crystal_structure_design/SSSP/Pr.GGA-PBE-paw-v1.0.UPF
     MD5 check sum: b5e1e58e76df433569641143f671cc27
     Pseudo is Projector augmented-wave + core cor, Zval = 13.0
     Generated using ATOMPAW code
     Shape of augmentation charge: BESSEL
     Using radial grid of 1103 points,  8 beta functions with:
                l(1) =   0
                l(2) =   0
                l(3) =   1
                l(4) =   1
                l(5) =   2
                l(6) =   2
                l(7) =   3
                l(8) =   3
     Q(r) pseudized with 0 coefficients

     PseudoPot. # 2 for B  read from file:
     /home/pragov/projects/rrg-bengioy-ad/pragov/crystal_structure_design/SSSP/b_pbe_v1.4.uspp.F.UPF
     MD5 check sum: cc6de2960df11db49a60e589f9ebb39b
     Pseudo is Ultrasoft + core correction, Zval =  3.0
     Generated by new atomic code, or converted to UPF format
     Using radial grid of  781 points,  4 beta functions with:
                l(1) =   0
                l(2) =   0
                l(3) =   1
                l(4) =   1
     Q(r) pseudized with  8 coefficients,  rinner =    1.100   1.100   1.100

     PseudoPot. # 3 for Ir read from file:
     /home/pragov/projects/rrg-bengioy-ad/pragov/crystal_structure_design/SSSP/Ir_pbe_v1.2.uspp.F.UPF
     MD5 check sum: 8836f839c3459d2b385c504ce6d91f2c
     Pseudo is Ultrasoft + core correction, Zval = 15.0
     Generated by new atomic code, or converted to UPF format
     Using radial grid of  983 points,  7 beta functions with:
                l(1) =   0
                l(2) =   0
                l(3) =   1
                l(4) =   1
                l(5) =   1
                l(6) =   2
                l(7) =   2
     Q(r) pseudized with  8 coefficients,  rinner =    1.400   1.400   1.400
                                                       1.400   1.400

     atomic species   valence    mass     pseudopotential
        Pr            13.00   140.90766     Pr( 1.00)
        B              3.00    10.81000     B ( 1.00)
        Ir            15.00   192.21700     Ir( 1.00)

      2 Sym. Ops., with inversion, found ( 1 have fractional translation)

                                    s                        frac. trans.

      isym =  1     identity

 cryst.   s( 1) = (     1          0          0      )
                  (     0          1          0      )
                  (     0          0          1      )

 cart.    s( 1) = (  1.0000000  0.0000000  0.0000000 )
                  (  0.0000000  1.0000000 -0.0000000 )
                  (  0.0000000  0.0000000  1.0000000 )

      isym =  2     inversion

 cryst.   s( 2) = (    -1          0          0      )    f =( -0.2500000 )
                  (     0         -1          0      )       ( -0.2500000 )
                  (     0          0         -1      )       ( -0.2500000 )

 cart.    s( 2) = ( -1.0000000 -0.0000000 -0.0000000 )    f =( -0.5000000 )
                  (  0.0000000 -1.0000000  0.0000000 )       ( -0.1367526 )
                  (  0.0000000  0.0000000 -1.0000000 )       ( -0.1607128 )

   Cartesian axes

     site n.     atom                  positions (alat units)
         1           Pr  tau(   1) = (   1.0000000   0.2735052   0.3214256  )
         2           Pr  tau(   2) = (   1.5000000   0.4102578   0.4821385  )
         3           B   tau(   3) = (   0.7181932   0.5172199   0.1140457  )
         4           B   tau(   4) = (   0.3450243   0.2707800   0.0466671  )
         5           B   tau(   5) = (   1.2818068   0.0297905   0.5288056  )
         6           B   tau(   6) = (   0.6549757   0.0027252   0.2747585  )
         7           Ir  tau(   7) = (   1.4175368   0.5535413   0.0831393  )
         8           Ir  tau(   8) = (   0.5824632  -0.0065309   0.5597120  )
         9           Ir  tau(   9) = (   0.6456807   0.2344586   0.0775735  )
        10           Ir  tau(  10) = (   0.3543193   0.0390466   0.2438521  )

   Crystallographic axes

     site n.     atom                  positions (cryst. coord.)
         1           Pr  tau(   1) = (  0.5000000  0.5000000  0.5000000  )
         2           Pr  tau(   2) = (  0.7500000  0.7500000  0.7500000  )
         3           B   tau(   3) = (  0.1774060  0.8225940  0.1774060  )
         4           B   tau(   4) = (  0.0725940  0.4274060  0.0725940  )
         5           B   tau(   5) = (  0.8225940  0.1774060  0.8225940  )
         6           B   tau(   6) = (  0.4274060  0.0725940  0.4274060  )
         7           Ir  tau(   7) = (  0.8706710  0.8706710  0.1293290  )
         8           Ir  tau(   8) = (  0.1293290  0.1293290  0.8706710  )
         9           Ir  tau(   9) = (  0.3793290  0.3793290  0.1206710  )
        10           Ir  tau(  10) = (  0.1206710  0.1206710  0.3793290  )

     number of k points=     1  Methfessel-Paxton smearing, width (Ry)=  0.0010
                       cart. coord. in units 2pi/alat
        k(    1) = (   0.0000000   0.0000000   0.0000000), wk =   2.0000000

                       cryst. coord.
        k(    1) = (   0.0000000   0.0000000   0.0000000), wk =   2.0000000

     Initial potential from superposition of free atoms

     starting charge      95.9839, renormalised to      98.0000

     negative rho (up, down):  1.471E+00 0.000E+00
     Starting wfcs are  128 randomized atomic wfcs
     Checking if some PAW data can be deallocated...

     Self-consistent Calculation

     iteration #  1     ecut=    30.00 Ry     beta= 0.70
     Davidson diagonalization with overlap

     ethr =  1.00E-02,  avg # of iterations =  2.0

     negative rho (up, down):  1.113E+00 0.000E+00

     total energy              =   -1763.01479405 Ry
     estimated scf accuracy    <      10.88318544 Ry

[...]

     ethr =  1.71E-04,  avg # of iterations =  1.0
     Minimization algorithm failed to find Fermi energy: reverting to bisection
     Possible cause: smearing is larger than the electronic band-gap.

[...]

     c_bands:  1 eigenvalues not converged
     ethr =  2.12E-06,  avg # of iterations = 20.0

[...]

     total energy              =   -1769.39255762 Ry
     estimated scf accuracy    <       0.00000145 Ry

     iteration # 71     ecut=    30.00 Ry     beta= 0.70
     Davidson diagonalization with overlap

     ethr =  1.36E-09,  avg # of iterations =  1.0

[...]

     End of self-consistent calculation

          k = 0.0000 0.0000 0.0000 (  1434 PWs)   bands (ev):

   -33.7368 -33.7295 -33.4303 -33.4256 -33.4219 -33.3927 -33.2534 -33.2253
   -32.9599 -32.9582 -32.9307 -32.9300 -19.8632 -19.8084  -2.1371  -2.0581
    -1.8293  -1.7871  -1.7858  -1.7325   5.3944   7.6751   8.3615   8.4153
     9.0196  10.0344  10.1828  10.5945  10.7954  11.7487  11.9229  11.9852
    12.4596  12.5439  12.5480  12.8214  13.1753  13.3553  13.4289  14.0435
    14.0492  14.2082  14.4630  14.6420  14.7847  15.3505  15.3702  16.0171
    16.0205  16.0225  16.0815  16.0995  16.1159  16.1569  16.2441  16.2744
    16.2787  16.3034  16.3586

     occupation numbers
     1.0000   1.0000   1.0000   1.0000   1.0000   1.0000   1.0000   1.0000
     1.0000   1.0000   1.0000   1.0000   1.0000   1.0000   1.0000   1.0000
     1.0000   1.0000   1.0000   1.0000   1.0000   1.0000   1.0000   1.0000
     1.0000   1.0000   1.0000   1.0000   1.0000   1.0000   1.0000   1.0000
     1.0000   1.0000   1.0000   1.0000   1.0000   1.0000   1.0000   1.0000
     1.0000   1.0000   1.0000   1.0000   1.0000   1.0000   1.0000   0.8285
     0.6452   0.5263  -0.0000  -0.0000  -0.0000  -0.0000  -0.0000  -0.0000
    -0.0000  -0.0000  -0.0000

     the Fermi energy is    16.0229 ev

!    total energy              =   -1769.39255703 Ry
     estimated scf accuracy    <       0.00000040 Ry
     smearing contrib. (-TS)   =      -0.00068667 Ry
     internal energy E=F+TS    =   -1769.39187035 Ry

     The total energy is F=E-TS. E is the sum of the following terms:
     one-electron contribution =    -172.01908118 Ry
     hartree contribution      =     157.35246945 Ry
     xc contribution           =    -237.36902561 Ry
     ewald contribution        =    -678.32774876 Ry
     one-center paw contrib.   =    -839.02848426 Ry
      -> PAW hartree energy AE =     124.92806703 Ry
      -> PAW hartree energy PS =    -124.97409810 Ry
      -> PAW xc energy AE      =    -860.08975097 Ry
      -> PAW xc energy PS      =      21.10729778 Ry
      -> total E_H with PAW    =     157.30643838 Ry
      -> total E_XC with PAW   =   -1076.35147879 Ry

     convergence has been achieved in  71 iterations

     negative rho (up, down):  1.242E+00 0.000E+00

     Forces acting on atoms (cartesian axes, Ry/au):

     atom    1 type  1   force =     0.00000818    0.00002594    0.00002477
     atom    2 type  1   force =    -0.00000818   -0.00002594   -0.00002477
     atom    3 type  2   force =     0.00242516   -0.00209559    0.00178701
     atom    4 type  2   force =    -0.00242516    0.00209559   -0.00178701
     atom    5 type  2   force =    -0.00243211    0.00210794   -0.00177811
     atom    6 type  2   force =     0.00243211   -0.00210794    0.00177811
     atom    7 type  3   force =    -0.02095204   -0.01403766    0.01194581
     atom    8 type  3   force =     0.02092468    0.01405873   -0.01194347
     atom    9 type  3   force =     0.02095204    0.01403766   -0.01194581
     atom   10 type  3   force =    -0.02092468   -0.01405873    0.01194347
     The non-local contrib.  to forces
     atom    1 type  1   force =    -0.00021937   -0.00024475    0.00007016
     atom    2 type  1   force =     0.00021937    0.00024475   -0.00007016
     atom    3 type  2   force =    -0.01119173    0.00966734   -0.00821212
     atom    4 type  2   force =     0.01119173   -0.00966734    0.00821212
     atom    5 type  2   force =     0.01117586   -0.00967841    0.00823548
     atom    6 type  2   force =    -0.01117586    0.00967841   -0.00823548
     atom    7 type  3   force =     0.05906941    0.03962462   -0.03372052
     atom    8 type  3   force =    -0.05911821   -0.03964610    0.03373512
     atom    9 type  3   force =    -0.05906941   -0.03962462    0.03372052
     atom   10 type  3   force =     0.05911821    0.03964610   -0.03373512
     The ionic contribution  to forces
     atom    1 type  1   force =    -0.00000000    0.00000001   -0.00000000
     atom    2 type  1   force =     0.00000000   -0.00000001    0.00000000
     atom    3 type  2   force =     1.55676852   -1.34633830    1.14561658
     atom    4 type  2   force =    -1.55676852    1.34633830   -1.14561658
     atom    5 type  2   force =    -1.55676852    1.34633830   -1.14561657
     atom    6 type  2   force =     1.55676852   -1.34633830    1.14561658
     atom    7 type  3   force =    -4.03250072   -2.70454217    2.30132972
     atom    8 type  3   force =     4.03250072    2.70454216   -2.30132971
     atom    9 type  3   force =     4.03250072    2.70454217   -2.30132972
     atom   10 type  3   force =    -4.03250072   -2.70454216    2.30132971
     The local contribution  to forces
     atom    1 type  1   force =     0.00011684    0.00012513   -0.00007331
     atom    2 type  1   force =    -0.00013196   -0.00017547    0.00003787
     atom    3 type  2   force =    -1.54299935    1.33446694   -1.13549652
     atom    4 type  2   force =     1.54299169   -1.33445879    1.13549728
     atom    5 type  2   force =     1.54302516   -1.33443336    1.13547978
     atom    6 type  2   force =    -1.54301621    1.33442697   -1.13547563
     atom    7 type  3   force =     3.95755260    2.65435670   -2.25853879
     atom    8 type  3   force =    -3.95751355   -2.65423483    2.25856635
     atom    9 type  3   force =    -3.95739574   -2.65425041    2.25850088
     atom   10 type  3   force =     3.95736875    2.65413588   -2.25849023
     The core correction contribution to forces
     atom    1 type  1   force =    -0.00000001    0.00000002   -0.00000001
     atom    2 type  1   force =     0.00000000   -0.00000003    0.00000001
     atom    3 type  2   force =    -0.00014837    0.00013309   -0.00010924
     atom    4 type  2   force =     0.00014847   -0.00013318    0.00010936
     atom    5 type  2   force =     0.00014024   -0.00012989    0.00011262
     atom    6 type  2   force =    -0.00014048    0.00013007   -0.00011269
     atom    7 type  3   force =    -0.00492878   -0.00330556    0.00280939
     atom    8 type  3   force =     0.00492674    0.00330649   -0.00281342
     atom    9 type  3   force =     0.00493082    0.00330548   -0.00280923
     atom   10 type  3   force =    -0.00492808   -0.00330676    0.00281396
     The Hubbard contrib.    to forces
     atom    1 type  1   force =     0.00000000    0.00000000    0.00000000
     atom    2 type  1   force =     0.00000000    0.00000000    0.00000000
     atom    3 type  2   force =     0.00000000    0.00000000    0.00000000
     atom    4 type  2   force =     0.00000000    0.00000000    0.00000000
     atom    5 type  2   force =     0.00000000    0.00000000    0.00000000
     atom    6 type  2   force =     0.00000000    0.00000000    0.00000000
     atom    7 type  3   force =     0.00000000    0.00000000    0.00000000
     atom    8 type  3   force =     0.00000000    0.00000000    0.00000000
     atom    9 type  3   force =     0.00000000    0.00000000    0.00000000
     atom   10 type  3   force =     0.00000000    0.00000000    0.00000000
     The SCF correction term to forces
     atom    1 type  1   force =     0.00010631    0.00013106    0.00002183
     atom    2 type  1   force =    -0.00010000   -0.00010964    0.00000140
     atom    3 type  2   force =    -0.00000300   -0.00002562   -0.00001011
     atom    4 type  2   force =     0.00001239    0.00001563    0.00001240
     atom    5 type  2   force =    -0.00000663    0.00001258    0.00000956
     atom    6 type  2   force =    -0.00000563   -0.00000381   -0.00001570
     atom    7 type  3   force =    -0.00014832   -0.00017281    0.00006788
     atom    8 type  3   force =     0.00013036    0.00010291   -0.00010453
     atom    9 type  3   force =    -0.00001811    0.00006350   -0.00002638
     atom   10 type  3   force =     0.00001853    0.00002012    0.00002243

     Total force =     0.056283     Total SCF correction =     0.000393

     Computing stress (Cartesian axis) and pressure

     negative rho (up, down):  1.242E+00 0.000E+00
          total   stress  (Ry/bohr**3)                   (kbar)     P=        6.32
  -0.00017922  -0.00000528   0.00000471          -26.36       -0.78        0.69
  -0.00000528   0.00010068   0.00032735           -0.78       14.81       48.16
   0.00000471   0.00032735   0.00020742            0.69       48.16       30.51

     kinetic stress (kbar)  22652.91     21.96    -18.54
                               21.96  22809.36    192.58
                              -18.54    192.58  22871.78

     local   stress (kbar)    751.02   2133.76  -1815.96
                             2133.76   3449.04   4009.98
                            -1815.96   4009.98   4749.64

     nonloc. stress (kbar)   5868.73     63.36    -53.76
                               63.36   5922.57     88.23
                              -53.76     88.23   5951.16

     hartree stress (kbar)   8373.49   -782.80    666.15
                             -782.80   7259.83  -1616.67
                              666.15  -1616.67   6735.51

     exc-cor stress (kbar)  12873.60      1.10     -0.94
                                1.10  12872.63     -0.70
                               -0.94     -0.70  12872.40

     corecor stress (kbar) -19852.71      2.44     -2.07
                                2.44 -19855.89     -2.78
                               -2.07     -2.78 -19856.79

     ewald   stress (kbar) -30693.40  -1440.60   1225.82
                            -1440.60 -32442.73  -2622.49
                             1225.82  -2622.49 -33293.19

     hubbard stress (kbar)      0.00      0.00      0.00
                                0.00      0.00      0.00
                                0.00      0.00      0.00

     DFT-D   stress (kbar)      0.00      0.00      0.00
                                0.00      0.00      0.00
                                0.00      0.00      0.00

     XDM     stress (kbar)      0.00      0.00      0.00
                                0.00      0.00      0.00
                                0.00      0.00      0.00

     dft-nl  stress (kbar)      0.00      0.00      0.00
                                0.00      0.00      0.00
                                0.00      0.00      0.00

     TS-vdW  stress (kbar)      0.00      0.00      0.00
                                0.00      0.00      0.00
                                0.00      0.00      0.00

[...]

                                0.00      0.00      0.00

     Writing all to output data dir new_calculations/myprefix.save/

     General routines

     Parallel routines

     PAW routines

   This run was terminated on:  22:24: 5  20May2023

   JOB DONE.