     Program PWSCF v.7.0 starts on 20May2023 at 14:20:32

     Reading input from espresso_16396.pwi
Warning: card &CELL ignored
Warning: card / ignored

     Current dimensions of program PWSCF are:
     Max number of different atomic species (ntypx) = 10
     Max number of k-points (npk) =  40000
     Max angular momentum in pseudopotentials (lmaxx) =  4

     gamma-point specific algorithms are used
     Message from routine setup:
     using ibrav=0 with symmetry is DISCOURAGED, use correct ibrav instead

     Subspace diagonalization in iterative solution of the eigenvalue problem:
     a serial algorithm will be used

     Using Slab Decomposition

     bravais-lattice index     =            0
     lattice parameter (alat)  =      11.1031  a.u.
     unit-cell volume          =    2639.7744 (a.u.)^3
     number of atoms/cell      =           16
     number of atomic types    =            2
     number of electrons       =       204.00
     number of Kohn-Sham states=          122
     kinetic-energy cutoff     =      30.0000  Ry
     charge density cutoff     =     240.0000  Ry
     scf convergence threshold =      1.0E-06
     mixing beta               =       0.7000
     number of iterations used =            8  plain     mixing
     Exchange-correlation= SLA  PW   PBE  PBE
                           (   1   4   3   4   0   0   0)

     celldm(1)=  11.103114  celldm(2)=   0.000000  celldm(3)=   0.000000
     celldm(4)=   0.000000  celldm(5)=   0.000000  celldm(6)=   0.000000

     crystal axes: (cart. coord. in units of alat)
               a(1) = (   1.000000   0.000000   0.000000 )
               a(2) = (   0.500000   1.388725   0.000000 )
               a(3) = (   0.500000   0.000000   1.388725 )

     reciprocal axes: (cart. coord. in units 2 pi/alat)
               b(1) = (  1.000000 -0.360043 -0.360043 )
               b(2) = (  0.000000  0.720085 -0.000000 )
               b(3) = (  0.000000  0.000000  0.720085 )

     PseudoPot. # 1 for Zr read from file:
     /home/pragov/projects/rrg-bengioy-ad/pragov/crystal_structure_design/SSSP/Zr_pbe_v1.uspp.F.UPF
     MD5 check sum: 5db81b1e868ab7776c4564c113de050b
     Pseudo is Ultrasoft + core correction, Zval = 12.0
     Generated by new atomic code, or converted to UPF format
     Using radial grid of  887 points,  6 beta functions with:
                l(1) =   0
                l(2) =   0
                l(3) =   1
                l(4) =   1
                l(5) =   2
                l(6) =   2
     Q(r) pseudized with  6 coefficients,  rinner =    1.200   1.200   1.200
                                                       1.200   1.200

     PseudoPot. # 2 for Bi read from file:
     /home/pragov/projects/rrg-bengioy-ad/pragov/crystal_structure_design/SSSP/Bi_pbe_v1.uspp.F.UPF
     MD5 check sum: cceb9f28ec65b6d7ff33140f5b0b1758
     Pseudo is Ultrasoft + core correction, Zval = 15.0
     Generated by new atomic code, or converted to UPF format
     Using radial grid of  899 points,  6 beta functions with:
                l(1) =   0
                l(2) =   0
                l(3) =   1
                l(4) =   1
                l(5) =   2
                l(6) =   2
     Q(r) pseudized with  6 coefficients,  rinner =    1.000   1.000   1.000
                                                       1.000   1.000

     atomic species   valence    mass     pseudopotential
        Zr            12.00    91.22400     Zr( 1.00)
        Bi            15.00   208.98040     Bi( 1.00)

      4 Sym. Ops. (no inversion) found

                                    s                        frac. trans.

      isym =  1     identity

 cryst.   s( 1) = (     1          0          0      )
                  (     0          1          0      )
                  (     0          0          1      )

 cart.    s( 1) = (  1.0000000 -0.0000000  0.0000000 )
                  (  0.0000000  1.0000000  0.0000000 )
                  (  0.0000000  0.0000000  1.0000000 )

      isym =  2     180 deg rotation - cart. axis [1,0,0]

[...]

      isym =  3     inv.  90 deg rotation - cart. axis [-1,0,0]

[...]

      isym =  4     inv.  90 deg rotation - cart. axis [1,0,0]

 cryst.   s( 4) = (    -1          0          0      )
                  (     0          0         -1      )
                  (    -1          1          0      )

 cart.    s( 4) = ( -1.0000000  0.0000000  0.0000001 )
                  (  0.0000000 -0.0000000  1.0000000 )
                  (  0.0000000 -1.0000000  0.0000000 )

   Cartesian axes

     site n.     atom                  positions (alat units)
         1           Zr  tau(   1) = (   1.2323931   1.3490309   0.5544248  )
         2           Zr  tau(   2) = (   1.2323931   0.0396939   0.8343000  )
         3           Zr  tau(   3) = (   0.2676070   0.5544248   0.0396939  )
         4           Zr  tau(   4) = (   1.2676071   0.8343000   1.3490309  )
         5           Zr  tau(   5) = (   0.5329586   0.4584472   0.5264100  )
         6           Zr  tau(   6) = (   1.5329586   0.9302776   0.8623148  )
         7           Zr  tau(   7) = (   0.9670416   0.5264100   0.9302776  )
         8           Zr  tau(   8) = (   0.9670416   0.8623148   0.4584472  )
         9           Zr  tau(   9) = (   0.7994161   0.0371567   1.1314135  )
        10           Zr  tau(  10) = (   0.7994161   1.3515681   0.2573113  )
        11           Zr  tau(  11) = (   1.7005842   1.1314135   1.3515681  )
        12           Zr  tau(  12) = (   0.7005840   0.2573113   0.0371567  )
        13           Bi  tau(  13) = (   1.0331471   1.0351749   0.9399334  )
        14           Bi  tau(  14) = (   1.0331470   0.3535499   0.4487914  )
        15           Bi  tau(  15) = (   0.4668521   0.9399334   0.3535499  )
        16           Bi  tau(  16) = (   1.4668531   0.4487914   1.0351749  )

   Crystallographic axes

     site n.     atom                  positions (cryst. coord.)
         1           Zr  tau(   1) = (  0.5470680  0.9714170  0.3992330  )
         2           Zr  tau(   2) = (  0.9177180  0.0285830  0.6007670  )
         3           Zr  tau(   3) = (  0.0536990  0.3992330  0.0285830  )
         4           Zr  tau(   4) = (  0.4815150  0.6007670  0.9714170  )
         5           Zr  tau(   5) = (  0.1783680  0.3301210  0.3790600  )
         6           Zr  tau(   6) = (  0.8875490  0.6698790  0.6209400  )
         7           Zr  tau(   7) = (  0.4425720  0.3790600  0.6698790  )
         8           Zr  tau(   8) = (  0.4915110  0.6209400  0.3301210  )
         9           Zr  tau(   9) = (  0.3786810  0.0267560  0.8147140  )
        10           Zr  tau(  10) = (  0.2201510  0.9732440  0.1852860  )
        11           Zr  tau(  11) = (  0.8066050  0.8147140  0.9732440  )
        12           Zr  tau(  12) = (  0.5945630  0.1852860  0.0267560  )
        13           Bi  tau(  13) = (  0.3220240  0.7454140  0.6768320  )
        14           Bi  tau(  14) = (  0.7442700  0.2545860  0.3231680  )
        15           Bi  tau(  15) = (  0.0011430  0.6768320  0.2545860  )
        16           Bi  tau(  16) = (  0.9325620  0.3231680  0.7454140  )

     number of k points=     1  Methfessel-Paxton smearing, width (Ry)=  0.0010
                       cart. coord. in units 2pi/alat
        k(    1) = (   0.0000000   0.0000000   0.0000000), wk =   2.0000000

                       cryst. coord.
        k(    1) = (   0.0000000   0.0000000   0.0000000), wk =   2.0000000

     Check: negative core charge=   -0.000005

     Initial potential from superposition of free atoms

     starting charge     199.9740, renormalised to     204.0000

     negative rho (up, down):  9.086E-01 0.000E+00
     Starting wfcs are  192 randomized atomic wfcs

     Self-consistent Calculation

     iteration #  1     ecut=    30.00 Ry     beta= 0.70
     Davidson diagonalization with overlap

     ethr =  1.00E-02,  avg # of iterations =  2.0

     negative rho (up, down):  9.035E-01 0.000E+00

     total energy              =   -1929.36818619 Ry
     estimated scf accuracy    <       3.19475928 Ry

[...]

     total energy              =   -1931.21761350 Ry
     estimated scf accuracy    <       0.00000152 Ry

     iteration # 18     ecut=    30.00 Ry     beta= 0.70
     Davidson diagonalization with overlap

     ethr =  7.43E-10,  avg # of iterations =  2.0

[...]

     End of self-consistent calculation

          k = 0.0000 0.0000 0.0000 (  3669 PWs)   bands (ev):

   -35.2660 -35.2474 -35.2446 -35.2440 -35.0751 -35.0738 -35.0510 -35.0501
   -34.9161 -34.8725 -34.8596 -34.8570 -13.5487 -13.4789 -13.4720 -13.4709
   -13.3837 -13.3793 -13.3539 -13.3385 -13.2965 -13.2962 -13.2825 -13.2745
   -13.2259 -13.2243 -13.2190 -13.1624 -13.1486 -13.1224 -13.0778 -13.0684
   -13.0501 -13.0468 -13.0116 -12.9846 -12.9746 -12.9462 -12.9276 -12.9258
   -12.9011 -12.8267 -12.7998 -12.7849 -12.7834 -12.7037 -12.6520 -12.6500
    -8.7711  -8.7669  -8.7645  -8.7607  -8.7406  -8.7403  -8.7388  -8.7369
    -8.7303  -8.7288  -8.7186  -8.7172  -8.7087  -8.7050  -8.7047  -8.7025
    -8.7018  -8.7015  -8.6964  -8.6957   2.0957   2.6485   2.6489   2.7386
     9.2556   9.3696  10.1016  10.1018  10.5900  10.5903  10.6469  10.9826
    11.1184  11.1191  11.1331  11.1411  11.3719  12.3352  12.4570  12.4577
    12.4580  12.5757  12.7412  12.8135  12.8139  12.8640  13.1188  13.1206
    13.1375  13.1824  13.1858  13.4584  13.4603  13.5833  14.0026  14.1570
    14.2427  14.2430  14.4771  14.7200  14.7208  14.8032  15.2547  15.3301
    15.3852  15.3860  15.3870  15.5001  15.7158  15.8123  15.8137  15.9628
    16.0387  16.0406

     occupation numbers
     1.0000   1.0000   1.0000   1.0000   1.0000   1.0000   1.0000   1.0000
     1.0000   1.0000   1.0000   1.0000   1.0000   1.0000   1.0000   1.0000
     1.0000   1.0000   1.0000   1.0000   1.0000   1.0000   1.0000   1.0000
     1.0000   1.0000   1.0000   1.0000   1.0000   1.0000   1.0000   1.0000
     1.0000   1.0000   1.0000   1.0000   1.0000   1.0000   1.0000   1.0000
     1.0000   1.0000   1.0000   1.0000   1.0000   1.0000   1.0000   1.0000
     1.0000   1.0000   1.0000   1.0000   1.0000   1.0000   1.0000   1.0000
     1.0000   1.0000   1.0000   1.0000   1.0000   1.0000   1.0000   1.0000
     1.0000   1.0000   1.0000   1.0000   1.0000   1.0000   1.0000   1.0000
     1.0000   1.0000   1.0000   1.0000   1.0000   1.0000   1.0000   1.0000
     1.0000   1.0000   1.0000   1.0000   1.0000   1.0000   1.0000   1.0000
     1.0000   1.0000   1.0000   1.0000   1.0000   1.0000   1.0000   1.0000
     1.0000   1.0000   1.0000   1.0000   1.0000   1.0000  -0.0000  -0.0000
    -0.0000  -0.0000  -0.0000  -0.0000  -0.0000  -0.0000  -0.0000  -0.0000
    -0.0000  -0.0000  -0.0000  -0.0000  -0.0000  -0.0000  -0.0000  -0.0000
    -0.0000  -0.0000

     the Fermi energy is    13.7589 ev

!    total energy              =   -1931.21761336 Ry
     estimated scf accuracy    <       0.00000034 Ry
     smearing contrib. (-TS)   =       0.00000000 Ry
     internal energy E=F+TS    =   -1931.21761336 Ry

     The total energy is F=E-TS. E is the sum of the following terms:
     one-electron contribution =    -392.55329726 Ry
     hartree contribution      =     295.01823888 Ry
     xc contribution           =    -472.12994515 Ry
     ewald contribution        =   -1361.55260983 Ry

     convergence has been achieved in  18 iterations

     negative rho (up, down):  9.247E-01 0.000E+00

     Forces acting on atoms (cartesian axes, Ry/au):

     atom    1 type  1   force =     0.01807249   -0.03001966   -0.00476013
     atom    2 type  1   force =     0.01807249    0.03001966    0.00476012
     atom    3 type  1   force =    -0.01807249   -0.00476012    0.03001966
     atom    4 type  1   force =    -0.01807249    0.00476013   -0.03001966
     atom    5 type  1   force =     0.00638021    0.04901561    0.02167605
     atom    6 type  1   force =     0.00638021   -0.04901561   -0.02167605
     atom    7 type  1   force =    -0.00638021    0.02167605   -0.04901561
     atom    8 type  1   force =    -0.00638021   -0.02167605    0.04901561
     atom    9 type  1   force =    -0.00825730   -0.01038901    0.00859693
     atom   10 type  1   force =    -0.00825730    0.01038901   -0.00859692
     atom   11 type  1   force =     0.00825730    0.00859692    0.01038901
     atom   12 type  1   force =     0.00825730   -0.00859693   -0.01038901
     atom   13 type  2   force =     0.00647797    0.02890207    0.02489430
     atom   14 type  2   force =     0.00647797   -0.02890207   -0.02489430
     atom   15 type  2   force =    -0.00647797    0.02489430   -0.02890207
     atom   16 type  2   force =    -0.00647797   -0.02489430    0.02890207
     The non-local contrib.  to forces
     atom    1 type  1   force =     0.05767781   -0.02947450    0.02387462
     atom    2 type  1   force =     0.05767781    0.02947449   -0.02387463
     atom    3 type  1   force =    -0.05767781    0.02387463    0.02947450
     atom    4 type  1   force =    -0.05767781   -0.02387462   -0.02947449
     atom    5 type  1   force =    -0.05553885    0.00183533   -0.02510026
     atom    6 type  1   force =    -0.05553885   -0.00183532    0.02510026
     atom    7 type  1   force =     0.05553885   -0.02510026   -0.00183533
     atom    8 type  1   force =     0.05553885    0.02510026    0.00183532
     atom    9 type  1   force =    -0.06303246   -0.03046015    0.05001436
     atom   10 type  1   force =    -0.06303246    0.03046016   -0.05001435
     atom   11 type  1   force =     0.06303246    0.05001435    0.03046015
     atom   12 type  1   force =     0.06303246   -0.05001436   -0.03046016
     atom   13 type  2   force =    -0.02101802   -0.09911874   -0.11797467
     atom   14 type  2   force =    -0.02101802    0.09911875    0.11797468
     atom   15 type  2   force =     0.02101802   -0.11797468    0.09911874
     atom   16 type  2   force =     0.02101802    0.11797467   -0.09911875
     The ionic contribution  to forces
     atom    1 type  1   force =    -0.30834062    0.90271564   -0.29153449
     atom    2 type  1   force =    -0.30834005   -0.90269748    0.29154103
     atom    3 type  1   force =     0.30834190   -0.29155645   -0.90270547
     atom    4 type  1   force =     0.30832735    0.29155111    0.90272007
     atom    5 type  1   force =     0.14549242   -1.20640996   -0.79168083
     atom    6 type  1   force =     0.14549392    1.20641745    0.79167079
     atom    7 type  1   force =    -0.14548330   -0.79167808    1.20641722
     atom    8 type  1   force =    -0.14556269    0.79167880   -1.20641695
     atom    9 type  1   force =    -1.43910204    0.13200931    2.01734256
     atom   10 type  1   force =    -1.43911452   -0.13203095   -2.01733599
     atom   11 type  1   force =     1.43909496    2.01735075   -0.13203239
     atom   12 type  1   force =     1.43910154   -2.01733690    0.13201102
     atom   13 type  2   force =    -0.19451146    1.56602801    2.45486535
     atom   14 type  2   force =    -0.19451199   -1.56603227   -2.45486049
     atom   15 type  2   force =     0.19460838    2.45485231   -1.56602906
     atom   16 type  2   force =     0.19450621   -2.45486131    1.56602762
     The local contribution  to forces
     atom    1 type  1   force =     0.26948597   -0.90484482    0.26415883
     atom    2 type  1   force =     0.26930425    0.90356797   -0.26405411
     atom    3 type  1   force =    -0.26955662    0.26377653    0.90490089
     atom    4 type  1   force =    -0.26961298   -0.26374240   -0.90568713
     atom    5 type  1   force =    -0.08583753    1.25212077    0.83569887
     atom    6 type  1   force =    -0.08604101   -1.25179663   -0.83572406
     atom    7 type  1   force =     0.08590614    0.83636696   -1.25169244
     atom    8 type  1   force =     0.08594806   -0.83537640    1.25239409
     atom    9 type  1   force =     1.49479530   -0.11398258   -2.05517455
     atom   10 type  1   force =     1.49483902    0.11360720    2.05519889
     atom   11 type  1   force =    -1.49457810   -2.05595184    0.11282507
     atom   12 type  1   force =    -1.49459220    2.05588922   -0.11306959
     atom   13 type  2   force =     0.22205702   -1.44848861   -2.31931988
     atom   14 type  2   force =     0.22169481    1.44807069    2.31892489
     atom   15 type  2   force =    -0.22217096   -2.31807886    1.44920009
     atom   16 type  2   force =    -0.22211818    2.31897116   -1.44842075
     The core correction contribution to forces
     atom    1 type  1   force =    -0.00076110    0.00143900   -0.00085200
     atom    2 type  1   force =    -0.00076356   -0.00144246    0.00085188
     atom    3 type  1   force =     0.00076695   -0.00062364   -0.00161772
     atom    4 type  1   force =     0.00076631    0.00062340    0.00161515
     atom    5 type  1   force =     0.00250689    0.00195164    0.00290782
     atom    6 type  1   force =     0.00250519   -0.00195165   -0.00290895
     atom    7 type  1   force =    -0.00252323    0.00298175   -0.00183904
     atom    8 type  1   force =    -0.00252376   -0.00297716    0.00184263
     atom    9 type  1   force =    -0.00086152    0.00147306   -0.00363909
     atom   10 type  1   force =    -0.00086171   -0.00147325    0.00364063
     atom   11 type  1   force =     0.00087910   -0.00356294   -0.00151218
     atom   12 type  1   force =     0.00087852    0.00356326    0.00151326
     atom   13 type  2   force =    -0.00011826    0.01028681    0.00651396
     atom   14 type  2   force =    -0.00011908   -0.01028821   -0.00651296
     atom   15 type  2   force =     0.00012048    0.00649212   -0.01023321
     atom   16 type  2   force =     0.00011971   -0.00649180    0.01023558
     The Hubbard contrib.    to forces
     atom    1 type  1   force =     0.00000000    0.00000000    0.00000000
     atom    2 type  1   force =     0.00000000    0.00000000    0.00000000
     atom    3 type  1   force =     0.00000000    0.00000000    0.00000000
     atom    4 type  1   force =     0.00000000    0.00000000    0.00000000
     atom    5 type  1   force =     0.00000000    0.00000000    0.00000000
     atom    6 type  1   force =     0.00000000    0.00000000    0.00000000
     atom    7 type  1   force =     0.00000000    0.00000000    0.00000000
     atom    8 type  1   force =     0.00000000    0.00000000    0.00000000
     atom    9 type  1   force =     0.00000000    0.00000000    0.00000000
     atom   10 type  1   force =     0.00000000    0.00000000    0.00000000
     atom   11 type  1   force =     0.00000000    0.00000000    0.00000000
     atom   12 type  1   force =     0.00000000    0.00000000    0.00000000
     atom   13 type  2   force =     0.00000000    0.00000000    0.00000000
     atom   14 type  2   force =     0.00000000    0.00000000    0.00000000
     atom   15 type  2   force =     0.00000000    0.00000000    0.00000000
     atom   16 type  2   force =     0.00000000    0.00000000    0.00000000
     The SCF correction term to forces
     atom    1 type  1   force =    -0.00006016    0.00049829   -0.00053698
     atom    2 type  1   force =     0.00007862    0.00068587    0.00042458
     atom    3 type  1   force =    -0.00003114   -0.00009964    0.00033810
     atom    4 type  1   force =     0.00002287    0.00007568    0.00039286
     atom    5 type  1   force =    -0.00028258   -0.00017122   -0.00053544
     atom    6 type  1   force =    -0.00010054   -0.00016340    0.00055107
     atom    7 type  1   force =     0.00013677   -0.00047368    0.00027782
     atom    8 type  1   force =     0.00016253   -0.00043198   -0.00092055
     atom    9 type  1   force =     0.00003264    0.00014380    0.00072114
     atom   10 type  1   force =     0.00000640    0.00024893   -0.00072307
     atom   11 type  1   force =    -0.00006943    0.00009447    0.00022771
     atom   12 type  1   force =    -0.00008148   -0.00004583    0.00004644
     atom   13 type  2   force =     0.00000243    0.00006991    0.00091726
     atom   14 type  2   force =     0.00036698    0.00035251   -0.00051456
     atom   15 type  2   force =    -0.00011652   -0.00048321   -0.00107580
     atom   16 type  2   force =    -0.00007264   -0.00037179    0.00030944

     Total force =     0.153761     Total SCF correction =     0.002796

     Computing stress (Cartesian axis) and pressure

     negative rho (up, down):  9.247E-01 0.000E+00
          total   stress  (Ry/bohr**3)                   (kbar)     P=        5.76
  -0.00001673   0.00000000   0.00000000           -2.46        0.00        0.00
   0.00000000   0.00006705  -0.00000000            0.00        9.86       -0.00
   0.00000000  -0.00000000   0.00006705            0.00       -0.00        9.86

     kinetic stress (kbar)  14349.41     -0.00     -0.00
                               -0.00  14543.32     -0.00
                               -0.00     -0.00  14543.32

     local   stress (kbar)  -5420.09     -0.01     -0.00
                               -0.01  -4198.89      0.68
                               -0.00      0.68  -4197.70

     nonloc. stress (kbar)  15507.56     -0.00     -0.00
                               -0.00  15457.60     -0.00
                               -0.00     -0.00  15457.60

     hartree stress (kbar)   5794.07      0.01     -0.00
                                0.01   5323.02     -0.01
                               -0.00     -0.01   5323.22

     exc-cor stress (kbar)   9334.55      0.00      0.00
                                0.00   9337.64      0.00
                                0.00      0.00   9337.66

     corecor stress (kbar) -14868.56      0.00     -0.00
                                0.00 -14866.08      0.03
                               -0.00      0.03 -14865.99

     ewald   stress (kbar) -24699.40     -0.00      0.00
                               -0.00 -25587.50      0.00
                                0.00      0.00 -25587.50

     hubbard stress (kbar)      0.00      0.00      0.00
                                0.00      0.00      0.00
                                0.00      0.00      0.00

     DFT-D   stress (kbar)      0.00      0.00      0.00
                                0.00      0.00      0.00
                                0.00      0.00      0.00

     XDM     stress (kbar)      0.00      0.00      0.00
                                0.00      0.00      0.00
                                0.00      0.00      0.00

     dft-nl  stress (kbar)      0.00      0.00      0.00
                                0.00      0.00      0.00
                                0.00      0.00      0.00

     TS-vdW  stress (kbar)      0.00      0.00      0.00
                                0.00      0.00      0.00
                                0.00      0.00      0.00

[...]

                                0.00      0.00      0.00

     Writing all to output data dir new_calculations/myprefix.save/

     General routines

     Parallel routines

   This run was terminated on:  14:21:30  20May2023

   JOB DONE.