     Program PWSCF v.7.0 starts on 20May2023 at 17: 4:24

     Reading input from espresso_13553.pwi
Warning: card &CELL ignored
Warning: card / ignored

     Current dimensions of program PWSCF are:
     Max number of different atomic species (ntypx) = 10
     Max number of k-points (npk) =  40000
     Max angular momentum in pseudopotentials (lmaxx) =  4
     file O.pbe-n-kjpaw_psl.0.1.UPF: wavefunction(s)  2P renormalized

     gamma-point specific algorithms are used
     Message from routine setup:
     using ibrav=0 with symmetry is DISCOURAGED, use correct ibrav instead

     Subspace diagonalization in iterative solution of the eigenvalue problem:
     a serial algorithm will be used

     Using Slab Decomposition

     bravais-lattice index     =            0
     lattice parameter (alat)  =       5.5960  a.u.
     unit-cell volume          =     940.3465 (a.u.)^3
     number of atoms/cell      =           14
     number of atomic types    =            3
     number of electrons       =       110.00
     number of Kohn-Sham states=           66
     kinetic-energy cutoff     =      30.0000  Ry
     charge density cutoff     =     240.0000  Ry
     scf convergence threshold =      1.0E-06
     mixing beta               =       0.7000
     number of iterations used =            8  plain     mixing
     Exchange-correlation= SLA  PW   PBX  PBC
                           (   1   4   3   4   0   0   0)

     celldm(1)=   5.596025  celldm(2)=   0.000000  celldm(3)=   0.000000
     celldm(4)=   0.000000  celldm(5)=   0.000000  celldm(6)=   0.000000

     crystal axes: (cart. coord. in units of alat)
               a(1) = (   1.000000   0.000000   0.000000 )
               a(2) = (   0.000000   1.603599   0.000000 )
               a(3) = (   0.000000   0.000000   3.346210 )

     reciprocal axes: (cart. coord. in units 2 pi/alat)
               b(1) = (  1.000000  0.000000  0.000000 )
               b(2) = (  0.000000  0.623597  0.000000 )
               b(3) = (  0.000000  0.000000  0.298846 )

     PseudoPot. # 1 for Mn read from file:
     /home/pragov/projects/rrg-bengioy-ad/pragov/crystal_structure_design/SSSP/mn_pbe_v1.5.uspp.F.UPF
     MD5 check sum: 82ef2b46521d7a7d9e736dc3972e4928
     Pseudo is Ultrasoft + core correction, Zval = 15.0
     Generated by new atomic code, or converted to UPF format
     Using radial grid of  859 points,  6 beta functions with:
                l(1) =   0
                l(2) =   0
                l(3) =   1
                l(4) =   1
                l(5) =   2
                l(6) =   2
     Q(r) pseudized with  8 coefficients,  rinner =    0.950   0.950   0.950
                                                       0.950   0.950

     PseudoPot. # 2 for H  read from file:
     /home/pragov/projects/rrg-bengioy-ad/pragov/crystal_structure_design/SSSP/H.pbe-rrkjus_psl.1.0.0.UPF
     MD5 check sum: f52b6d4d1c606e5624b1dc7b2218f220
     Pseudo is Ultrasoft, Zval =  1.0
     Generated using "atomic" code by A. Dal Corso  v.5.1
     Using radial grid of  929 points,  2 beta functions with:
                l(1) =   0
                l(2) =   0
     Q(r) pseudized with 0 coefficients

     PseudoPot. # 3 for O  read from file:
     /home/pragov/projects/rrg-bengioy-ad/pragov/crystal_structure_design/SSSP/O.pbe-n-kjpaw_psl.0.1.UPF
     MD5 check sum: 0234752ac141de4415c5fc33072bef88
     Pseudo is Projector augmented-wave + core cor, Zval =  6.0
     Generated using "atomic" code by A. Dal Corso  v.5.0.99 svn rev. 10869
     Shape of augmentation charge: BESSEL
     Using radial grid of 1095 points,  4 beta functions with:
                l(1) =   0
                l(2) =   0
                l(3) =   1
                l(4) =   1
     Q(r) pseudized with 0 coefficients

     atomic species   valence    mass     pseudopotential
        Mn            15.00    54.93804     Mn( 1.00)
        H              1.00     1.00800     H ( 1.00)
        O              6.00    15.99900     O ( 1.00)

      4 Sym. Ops. (no inversion) found ( 2 have fractional translation)

                                    s                        frac. trans.

      isym =  1     identity

 cryst.   s( 1) = (     1          0          0      )
                  (     0          1          0      )
                  (     0          0          1      )

 cart.    s( 1) = (  1.0000000  0.0000000  0.0000000 )
                  (  0.0000000  1.0000000  0.0000000 )
                  (  0.0000000  0.0000000  1.0000000 )

      isym =  2     180 deg rotation - cart. axis [0,0,1]

 cryst.   s( 2) = (    -1          0          0      )    f =(  0.0000000 )
                  (     0         -1          0      )       (  0.0000000 )
                  (     0          0          1      )       (  0.5000000 )

 cart.    s( 2) = ( -1.0000000  0.0000000  0.0000000 )    f =(  0.0000000 )
                  (  0.0000000 -1.0000000  0.0000000 )       (  0.0000000 )
                  (  0.0000000  0.0000000  1.0000000 )       (  1.6731052 )

      isym =  3     inv. 180 deg rotation - cart. axis [0,1,0]

 cryst.   s( 3) = (     1          0          0      )    f =(  0.0000000 )
                  (     0         -1          0      )       (  0.0000000 )
                  (     0          0          1      )       (  0.5000000 )

 cart.    s( 3) = (  1.0000000  0.0000000  0.0000000 )    f =(  0.0000000 )
                  (  0.0000000 -1.0000000  0.0000000 )       (  0.0000000 )
                  (  0.0000000  0.0000000  1.0000000 )       (  1.6731052 )

      isym =  4     inv. 180 deg rotation - cart. axis [1,0,0]

 cryst.   s( 4) = (    -1          0          0      )
                  (     0          1          0      )
                  (     0          0          1      )

 cart.    s( 4) = ( -1.0000000  0.0000000  0.0000000 )
                  (  0.0000000  1.0000000  0.0000000 )
                  (  0.0000000  0.0000000  1.0000000 )

   Cartesian axes

     site n.     atom                  positions (alat units)
         1           Mn  tau(   1) = (   0.0000000   0.3562571   2.1353908  )
         2           Mn  tau(   2) = (   0.0000000   1.2473416   0.4622857  )
         3           Mn  tau(   3) = (   0.5000000   0.4711629   1.2045822  )
         4           Mn  tau(   4) = (   0.5000000   1.1324357   2.8776874  )
         5           H   tau(   5) = (   0.0000000   1.1260550   1.5393873  )
         6           H   tau(   6) = (   0.0000000   0.4775437   3.2124925  )
         7           O   tau(   7) = (   0.0000000   0.7910857   1.5324205  )
         8           O   tau(   8) = (   0.0000000   0.8125130   3.2055257  )
         9           O   tau(   9) = (   0.5000000   0.0959417   1.7621077  )
        10           O   tau(  10) = (   0.5000000   1.5076569   0.0890025  )
        11           O   tau(  11) = (   0.0000000   1.4538450   2.6206382  )
        12           O   tau(  12) = (   0.0000000   0.1497537   0.9475330  )
        13           O   tau(  13) = (   0.5000000   0.9377187   0.7492968  )
        14           O   tau(  14) = (   0.5000000   0.6658799   2.4224020  )

   Crystallographic axes

     site n.     atom                  positions (cryst. coord.)
         1           Mn  tau(   1) = (  0.0000000  0.2221610  0.6381520  )
         2           Mn  tau(   2) = (  0.0000000  0.7778390  0.1381520  )
         3           Mn  tau(   3) = (  0.5000000  0.2938160  0.3599840  )
         4           Mn  tau(   4) = (  0.5000000  0.7061840  0.8599840  )
         5           H   tau(   5) = (  0.0000000  0.7022050  0.4600390  )
         6           H   tau(   6) = (  0.0000000  0.2977950  0.9600390  )
         7           O   tau(   7) = (  0.0000000  0.4933190  0.4579570  )
         8           O   tau(   8) = (  0.0000000  0.5066810  0.9579570  )
         9           O   tau(   9) = (  0.5000000  0.0598290  0.5265980  )
        10           O   tau(  10) = (  0.5000000  0.9401710  0.0265980  )
        11           O   tau(  11) = (  0.0000000  0.9066140  0.7831660  )
        12           O   tau(  12) = (  0.0000000  0.0933860  0.2831660  )
        13           O   tau(  13) = (  0.5000000  0.5847590  0.2239240  )
        14           O   tau(  14) = (  0.5000000  0.4152410  0.7239240  )

     number of k points=     1  Methfessel-Paxton smearing, width (Ry)=  0.0010
                       cart. coord. in units 2pi/alat
        k(    1) = (   0.0000000   0.0000000   0.0000000), wk =   2.0000000

                       cryst. coord.
        k(    1) = (   0.0000000   0.0000000   0.0000000), wk =   2.0000000

     Check: negative core charge=   -0.000031

     Initial potential from superposition of free atoms

     starting charge     107.9996, renormalised to     110.0000
     Starting wfcs are   86 randomized atomic wfcs
     Checking if some PAW data can be deallocated...

     Self-consistent Calculation

     iteration #  1     ecut=    30.00 Ry     beta= 0.70
     Davidson diagonalization with overlap

     ethr =  1.00E-02,  avg # of iterations =  2.0

     total energy              =   -1174.58627111 Ry
     estimated scf accuracy    <       7.93003319 Ry

[...]

     total energy              =   -1179.67102749 Ry
     estimated scf accuracy    <       0.00000231 Ry

     iteration # 40     ecut=    30.00 Ry     beta= 0.70
     Davidson diagonalization with overlap

     ethr =  2.10E-09,  avg # of iterations =  2.0

     End of self-consistent calculation

          k = 0.0000 0.0000 0.0000 (  1302 PWs)   bands (ev):

   -71.3758 -71.3756 -71.2864 -71.2863 -40.3845 -40.3827 -40.1412 -40.1392
   -39.9373 -39.9355 -39.9340 -39.9326 -39.9162 -39.9124 -39.8913 -39.8901
   -12.0821 -11.9645 -10.5738 -10.5176  -9.9312  -9.7901  -9.6302  -9.6202
     0.0197   0.1124   1.6377   2.4109   2.8118   2.8439   3.3437   3.4675
     3.5128   3.6332   3.6749   3.8600   4.0549   4.1056   4.2344   4.9212
     5.0693   5.1790   5.5971   5.9578   6.1596   6.1962   6.2305   6.6754
     7.7852   7.8054   7.8693   8.0434   8.1304   8.2051   8.2431   8.2521
     8.4552   8.4822   9.0674   9.1744   9.3093   9.8228  11.0008  11.0694
    11.2530  11.2796

     occupation numbers
     1.0000   1.0000   1.0000   1.0000   1.0000   1.0000   1.0000   1.0000
     1.0000   1.0000   1.0000   1.0000   1.0000   1.0000   1.0000   1.0000
     1.0000   1.0000   1.0000   1.0000   1.0000   1.0000   1.0000   1.0000
     1.0000   1.0000   1.0000   1.0000   1.0000   1.0000   1.0000   1.0000
     1.0000   1.0000   1.0000   1.0000   1.0000   1.0000   1.0000   1.0000
     1.0000   1.0000   1.0000   1.0000   1.0000   1.0000   1.0000   1.0000
     1.0000   1.0000   1.0000   1.0000   1.0000   1.0000   0.7627   0.2373
    -0.0000  -0.0000  -0.0000  -0.0000  -0.0000  -0.0000  -0.0000  -0.0000
    -0.0000  -0.0000

     the Fermi energy is     8.2476 ev

!    total energy              =   -1179.67102733 Ry
     estimated scf accuracy    <       0.00000026 Ry
     smearing contrib. (-TS)   =      -0.00039604 Ry
     internal energy E=F+TS    =   -1179.67063129 Ry

     The total energy is F=E-TS. E is the sum of the following terms:
     one-electron contribution =    -670.19011910 Ry
     hartree contribution      =     383.29161979 Ry
     xc contribution           =    -165.86859110 Ry
     ewald contribution        =    -650.76513050 Ry
     one-center paw contrib.   =     -76.13841038 Ry
      -> PAW hartree energy AE =     234.61060798 Ry
      -> PAW hartree energy PS =    -233.75066729 Ry
      -> PAW xc energy AE      =    -136.95924054 Ry
      -> PAW xc energy PS      =      59.96088947 Ry
      -> total E_H with PAW    =     384.15156048 Ry
      -> total E_XC with PAW   =    -242.86694217 Ry

     convergence has been achieved in  40 iterations

     Forces acting on atoms (cartesian axes, Ry/au):

     atom    1 type  1   force =     0.00000000   -0.03126124    0.01236587
     atom    2 type  1   force =     0.00000000    0.03126124    0.01236587
     atom    3 type  1   force =     0.00000000   -0.06505244   -0.07743936
     atom    4 type  1   force =     0.00000000    0.06505244   -0.07743936
     atom    5 type  2   force =     0.00000000   -0.01641477    0.00693545
     atom    6 type  2   force =     0.00000000    0.01641477    0.00693545
     atom    7 type  3   force =     0.00000000   -0.03003289   -0.02079197
     atom    8 type  3   force =     0.00000000    0.03003289   -0.02079197
     atom    9 type  3   force =    -0.00000000    0.11877515    0.06431218
     atom   10 type  3   force =     0.00000000   -0.11877515    0.06431218
     atom   11 type  3   force =     0.00000000   -0.02237919    0.04125402
     atom   12 type  3   force =     0.00000000    0.02237919    0.04125402
     atom   13 type  3   force =     0.00000000    0.03698474   -0.02663619
     atom   14 type  3   force =     0.00000000   -0.03698474   -0.02663619
     The non-local contrib.  to forces
     atom    1 type  1   force =     0.00000000    0.08654554   -0.00048022
     atom    2 type  1   force =     0.00000000   -0.08654554   -0.00048022
     atom    3 type  1   force =     0.00000000   -0.08238460   -0.03510378
     atom    4 type  1   force =     0.00000000    0.08238460   -0.03510378
     atom    5 type  2   force =    -0.00000000   -0.10604080   -0.00168894
     atom    6 type  2   force =     0.00000000    0.10604080   -0.00168894
     atom    7 type  3   force =     0.00000000    1.11313537    0.04617087
     atom    8 type  3   force =     0.00000000   -1.11313537    0.04617087
     atom    9 type  3   force =     0.00000000    0.65150643    0.03468562
     atom   10 type  3   force =     0.00000000   -0.65150643    0.03468562
     atom   11 type  3   force =     0.00000000   -0.07854745   -0.12226528
     atom   12 type  3   force =     0.00000000    0.07854745   -0.12226528
     atom   13 type  3   force =     0.00000000   -0.10356182    0.09714195
     atom   14 type  3   force =     0.00000000    0.10356182    0.09714195
     The ionic contribution  to forces
     atom    1 type  1   force =     0.00000000   -2.79542148    2.86213972
     atom    2 type  1   force =     0.00000000    2.79542148    2.86213972
     atom    3 type  1   force =    -0.00000000   -0.13116857   -3.67910148
     atom    4 type  1   force =     0.00000000    0.13116857   -3.67910148
     atom    5 type  2   force =    -0.00000000    3.48113827    0.53064106
     atom    6 type  2   force =    -0.00000000   -3.48113827    0.53064106
     atom    7 type  3   force =    -0.00000000   11.00100188    4.34440670
     atom    8 type  3   force =    -0.00000000  -11.00100188    4.34440670
     atom    9 type  3   force =    -0.00000000  -13.95925098   -1.35632634
     atom   10 type  3   force =    -0.00000000   13.95925098   -1.35632634
     atom   11 type  3   force =    -0.00000000    4.96055952   -3.75718280
     atom   12 type  3   force =    -0.00000000   -4.96055952   -3.75718280
     atom   13 type  3   force =    -0.00000000   -2.32945320    1.05542314
     atom   14 type  3   force =     0.00000000    2.32945320    1.05542314
     The local contribution  to forces
     atom    1 type  1   force =    -0.00007067    2.67998107   -2.84735934
     atom    2 type  1   force =    -0.00006541   -2.67992269   -2.84643239
     atom    3 type  1   force =    -0.00003706    0.14478696    3.63675367
     atom    4 type  1   force =    -0.00008245   -0.14513559    3.63359816
     atom    5 type  2   force =     0.00000032   -3.39152169   -0.52194547
     atom    6 type  2   force =    -0.00000028    3.39151113   -0.52209258
     atom    7 type  3   force =     0.00000603  -12.13322592   -4.40956574
     atom    8 type  3   force =    -0.00001265   12.13287482   -4.41052344
     atom    9 type  3   force =     0.00000764   13.43277934    1.38626913
     atom   10 type  3   force =    -0.00001341  -13.43252580    1.38566463
     atom   11 type  3   force =     0.00003659   -4.90415830    3.91765728
     atom   12 type  3   force =    -0.00000896    4.90446873    3.91891210
     atom   13 type  3   force =     0.00001995    2.46795634   -1.17714820
     atom   14 type  3   force =    -0.00000443   -2.46837447   -1.17817512
     The core correction contribution to forces
     atom    1 type  1   force =    -0.00000254   -0.00236756   -0.00239203
     atom    2 type  1   force =    -0.00000135    0.00237113   -0.00238892
     atom    3 type  1   force =    -0.00000158    0.00349470    0.00157577
     atom    4 type  1   force =    -0.00000174   -0.00349607    0.00157324
     atom    5 type  2   force =     0.00000000    0.00000000    0.00000000
     atom    6 type  2   force =     0.00000000    0.00000000    0.00000000
     atom    7 type  3   force =    -0.00000004   -0.01113251   -0.00137423
     atom    8 type  3   force =    -0.00000024    0.01113210   -0.00137430
     atom    9 type  3   force =     0.00000005   -0.00614429   -0.00008596
     atom   10 type  3   force =    -0.00000029    0.00614373   -0.00008555
     atom   11 type  3   force =     0.00000002   -0.00013479    0.00245811
     atom   12 type  3   force =    -0.00000001    0.00013454    0.00245763
     atom   13 type  3   force =    -0.00000004    0.00176238   -0.00148661
     atom   14 type  3   force =     0.00000004   -0.00176183   -0.00148610
     The Hubbard contrib.    to forces
     atom    1 type  1   force =     0.00000000    0.00000000    0.00000000
     atom    2 type  1   force =     0.00000000    0.00000000    0.00000000
     atom    3 type  1   force =     0.00000000    0.00000000    0.00000000
     atom    4 type  1   force =     0.00000000    0.00000000    0.00000000
     atom    5 type  2   force =     0.00000000    0.00000000    0.00000000
     atom    6 type  2   force =     0.00000000    0.00000000    0.00000000
     atom    7 type  3   force =     0.00000000    0.00000000    0.00000000
     atom    8 type  3   force =     0.00000000    0.00000000    0.00000000
     atom    9 type  3   force =     0.00000000    0.00000000    0.00000000
     atom   10 type  3   force =     0.00000000    0.00000000    0.00000000
     atom   11 type  3   force =     0.00000000    0.00000000    0.00000000
     atom   12 type  3   force =     0.00000000    0.00000000    0.00000000
     atom   13 type  3   force =     0.00000000    0.00000000    0.00000000
     atom   14 type  3   force =     0.00000000    0.00000000    0.00000000
     The SCF correction term to forces
     atom    1 type  1   force =     0.00002805    0.00002536    0.00044149
     atom    2 type  1   force =     0.00003857   -0.00003898   -0.00045527
     atom    3 type  1   force =     0.00001336    0.00021455   -0.00152988
     atom    4 type  1   force =     0.00004786    0.00012641    0.00156163
     atom    5 type  2   force =    -0.00000025    0.00000601   -0.00007209
     atom    6 type  2   force =    -0.00000008   -0.00000232    0.00007755
     atom    7 type  3   force =    -0.00000578    0.00017335   -0.00043218
     atom    8 type  3   force =     0.00000275    0.00014828    0.00053160
     atom    9 type  3   force =     0.00000053   -0.00014000   -0.00024127
     atom   10 type  3   force =     0.00000052   -0.00016227    0.00038560
     atom   11 type  3   force =    -0.00001612   -0.00009927    0.00059927
     atom   12 type  3   force =     0.00000346   -0.00021311   -0.00067942
     atom   13 type  3   force =    -0.00001022    0.00028991   -0.00058559
     atom   14 type  3   force =     0.00000175    0.00014539    0.00047984

     Total force =     0.266587     Total SCF correction =     0.002755

     Computing stress (Cartesian axis) and pressure

          total   stress  (Ry/bohr**3)                   (kbar)     P=     -709.42
  -0.00398440   0.00000000   0.00000000         -586.13        0.00        0.00
   0.00000000  -0.00512390   0.00000000            0.00     -753.75        0.00
   0.00000000   0.00000000  -0.00535934            0.00        0.00     -788.39

     kinetic stress (kbar)  32392.15      0.00      0.00
                                0.00  31656.12      0.00
                                0.00      0.00  32064.46

     local   stress (kbar) -53440.91     -0.14      0.05
                               -0.14  10116.38      0.04
                                0.05      0.04 -25538.16

     nonloc. stress (kbar)  12308.07      0.00      0.00
                                0.00  12194.19      0.00
                                0.00      0.00  12193.37

     hartree stress (kbar)  32953.43      0.03     -0.01
                                0.03   5539.87      0.01
                               -0.01      0.01  21467.73

     exc-cor stress (kbar)  -5294.51      0.00     -0.00
                                0.00  -5303.79     -0.00
                               -0.00     -0.00  -5304.14

     corecor stress (kbar)  -2778.38     -0.00      0.00
                               -0.00  -2775.05      0.00
                                0.00      0.00  -2775.28

     ewald   stress (kbar) -16725.99     -0.00      0.00
                               -0.00 -52181.47     -0.00
                                0.00     -0.00 -32896.36

     hubbard stress (kbar)      0.00      0.00      0.00
                                0.00      0.00      0.00
                                0.00      0.00      0.00

     DFT-D   stress (kbar)      0.00      0.00      0.00
                                0.00      0.00      0.00
                                0.00      0.00      0.00

     XDM     stress (kbar)      0.00      0.00      0.00
                                0.00      0.00      0.00
                                0.00      0.00      0.00

     dft-nl  stress (kbar)      0.00      0.00      0.00
                                0.00      0.00      0.00
                                0.00      0.00      0.00

     TS-vdW  stress (kbar)      0.00      0.00      0.00
                                0.00      0.00      0.00
                                0.00      0.00      0.00

[...]

                                0.00      0.00      0.00

     Writing all to output data dir new_calculations/myprefix.save/

     General routines

     Parallel routines

     PAW routines

   This run was terminated on:  17: 4:48  20May2023

   JOB DONE.