     Program PWSCF v.7.0 starts on 20May2023 at  6: 5:15

     Reading input from espresso_4196.pwi
Warning: card &CELL ignored
Warning: card / ignored

     Current dimensions of program PWSCF are:
     Max number of different atomic species (ntypx) = 10
     Max number of k-points (npk) =  40000
     Max angular momentum in pseudopotentials (lmaxx) =  4
     file K.pbe-spn-kjpaw_psl.1.0.0.UPF: wavefunction(s)  3S renormalized

     gamma-point specific algorithms are used

     Subspace diagonalization in iterative solution of the eigenvalue problem:
     a serial algorithm will be used

     Using Slab Decomposition

     bravais-lattice index     =            0
     lattice parameter (alat)  =      12.2377  a.u.
     unit-cell volume          =    2030.1290 (a.u.)^3
     number of atoms/cell      =            9
     number of atomic types    =            2
     number of electrons       =        65.00
     number of Kohn-Sham states=           40
     kinetic-energy cutoff     =      30.0000  Ry
     charge density cutoff     =     240.0000  Ry
     scf convergence threshold =      1.0E-06
     mixing beta               =       0.7000
     number of iterations used =            8  plain     mixing
     Exchange-correlation= PBE
                           (   1   4   3   4   0   0   0)

     celldm(1)=  12.237695  celldm(2)=   0.000000  celldm(3)=   0.000000
     celldm(4)=   0.000000  celldm(5)=   0.000000  celldm(6)=   0.000000

     crystal axes: (cart. coord. in units of alat)
               a(1) = (   1.000000   0.000000   0.000000 )
               a(2) = (   0.673927   0.738798   0.000000 )
               a(3) = (   0.570420   0.251758   1.499336 )

     reciprocal axes: (cart. coord. in units 2 pi/alat)
               b(1) = (  1.000000 -0.912193 -0.227279 )
               b(2) = (  0.000000  1.353550 -0.227279 )
               b(3) = (  0.000000  0.000000  0.666962 )

     PseudoPot. # 1 for K  read from file:
     /home/pragov/projects/rrg-bengioy-ad/pragov/crystal_structure_design/SSSP/K.pbe-spn-kjpaw_psl.1.0.0.UPF
     MD5 check sum: 7d58810084cac21f60fbe77ea2b688fd
     Pseudo is Projector augmented-wave + core cor, Zval =  9.0
     Generated using "atomic" code by A. Dal Corso  v.5.1
     Shape of augmentation charge: PSQ
     Using radial grid of 1165 points,  6 beta functions with:
                l(1) =   0
                l(2) =   0
                l(3) =   1
                l(4) =   1
                l(5) =   2
                l(6) =   2
     Q(r) pseudized with 0 coefficients

     PseudoPot. # 2 for As read from file:
     /home/pragov/projects/rrg-bengioy-ad/pragov/crystal_structure_design/SSSP/As.pbe-n-rrkjus_psl.0.2.UPF
     MD5 check sum: 767315de957beeeb34f87d97bf945c8f
     Pseudo is Ultrasoft + core correction, Zval =  5.0
     Generated using "atomic" code by A. Dal Corso  v.5.0.99 svn rev. 10869
     Using radial grid of 1209 points,  4 beta functions with:
                l(1) =   0
                l(2) =   0
                l(3) =   1
                l(4) =   1
     Q(r) pseudized with 0 coefficients

     atomic species   valence    mass     pseudopotential
        K              9.00    39.09830     K ( 1.00)
        As             5.00    74.92159     As( 1.00)

     No symmetry found

                                    s                        frac. trans.

      isym =  1     identity

 cryst.   s( 1) = (     1          0          0      )
                  (     0          1          0      )
                  (     0          0          1      )

 cart.    s( 1) = (  1.0000000 -0.0000000  0.0000000 )
                  (  0.0000000  1.0000000  0.0000000 )
                  (  0.0000000  0.0000000  1.0000000 )

   Cartesian axes

     site n.     atom                  positions (alat units)
         1           K   tau(   1) = (   1.1692211   0.5160431   1.3450695  )
         2           K   tau(   2) = (   1.0727267   0.4734547   0.1473892  )
         3           K   tau(   3) = (   1.6345196   0.7214055   1.0009778  )
         4           K   tau(   4) = (   0.6222569   0.2746370   0.4956281  )
         5           K   tau(   5) = (   1.1450260   0.5053644   0.7331514  )
         6           As  tau(   6) = (   0.6683862   0.2949965   1.3378907  )
         7           As  tau(   7) = (   1.5741026   0.6947401   0.1603195  )
         8           As  tau(   8) = (   0.4640592   0.2048155   1.0335269  )
         9           As  tau(   9) = (   1.7786682   0.7850264   0.4660717  )

   Crystallographic axes

     site n.     atom                  positions (cryst. coord.)
         1           K   tau(   1) = (  0.3927840  0.3927840  0.8971100  )
         2           K   tau(   2) = (  0.6073460  0.6073460  0.0983030  )
         3           K   tau(   3) = (  0.7489570  0.7489570  0.6676140  )
         4           K   tau(   4) = (  0.2590890  0.2590890  0.3305650  )
         5           K   tau(   5) = (  0.5174060  0.5174060  0.4889840  )
         6           As  tau(   6) = (  0.0952180  0.0952180  0.8923220  )
         7           As  tau(   7) = (  0.9039280  0.9039280  0.1069270  )
         8           As  tau(   8) = (  0.0423290  0.0423290  0.6893230  )
         9           As  tau(   9) = (  0.9566440  0.9566440  0.3108520  )

     number of k points=     1  Methfessel-Paxton smearing, width (Ry)=  0.0010
                       cart. coord. in units 2pi/alat
        k(    1) = (   0.0000000   0.0000000   0.0000000), wk =   2.0000000

                       cryst. coord.
        k(    1) = (   0.0000000   0.0000000   0.0000000), wk =   2.0000000

     Check: negative core charge=   -0.000003

     Initial potential from superposition of free atoms

     starting charge      64.9049, renormalised to      65.0000
     Starting wfcs are   56 randomized atomic wfcs
     Checking if some PAW data can be deallocated...

     Self-consistent Calculation

     iteration #  1     ecut=    30.00 Ry     beta= 0.70
     Davidson diagonalization with overlap

     ethr =  1.00E-02,  avg # of iterations =  8.0

     Threshold (ethr) on eigenvalues was too large:
     Diagonalizing with lowered threshold

     Davidson diagonalization with overlap

[...]

     total energy              =    -637.81989088 Ry
     estimated scf accuracy    <       0.49956400 Ry

[...]

     total energy              =    -638.01197507 Ry
     estimated scf accuracy    <       0.00000159 Ry

     iteration # 10     ecut=    30.00 Ry     beta= 0.70
     Davidson diagonalization with overlap

     ethr =  2.44E-09,  avg # of iterations =  2.0

     End of self-consistent calculation

          k = 0.0000 0.0000 0.0000 (  2826 PWs)   bands (ev):

   -26.9822 -26.5240 -26.5109 -26.3053 -26.2717 -10.6168 -10.4832 -10.4166
   -10.0829 -10.0601 -10.0434 -10.0252 -10.0017  -9.9943  -9.9137  -9.8715
    -9.8197  -9.7849  -9.7339  -9.6985  -7.2841  -6.0063  -4.3663  -3.2470
     1.2729   1.7893   2.2450   2.2920   3.1186   3.6757   3.7136   4.3228
     5.0002   5.6125   5.8263   6.1793   7.3025   7.4580   8.0424   8.2278

     occupation numbers
     1.0000   1.0000   1.0000   1.0000   1.0000   1.0000   1.0000   1.0000
     1.0000   1.0000   1.0000   1.0000   1.0000   1.0000   1.0000   1.0000
     1.0000   1.0000   1.0000   1.0000   1.0000   1.0000   1.0000   1.0000
     1.0000   1.0000   1.0000   1.0000   1.0000   1.0000   1.0000   1.0000
     0.5000  -0.0000  -0.0000  -0.0000  -0.0000  -0.0000  -0.0000  -0.0000

     the Fermi energy is     5.0002 ev

!    total energy              =    -638.01197535 Ry
     estimated scf accuracy    <       0.00000013 Ry
     smearing contrib. (-TS)   =      -0.00028209 Ry
     internal energy E=F+TS    =    -638.01169326 Ry

     The total energy is F=E-TS. E is the sum of the following terms:
     one-electron contribution =    -117.93724501 Ry
     hartree contribution      =      79.78851786 Ry
     xc contribution           =     -93.15311941 Ry
     ewald contribution        =    -229.63400692 Ry
     one-center paw contrib.   =    -277.07583978 Ry
      -> PAW hartree energy AE =     188.71027945 Ry
      -> PAW hartree energy PS =    -187.66234635 Ry
      -> PAW xc energy AE      =    -331.09168641 Ry
      -> PAW xc energy PS      =      52.96791352 Ry
      -> total E_H with PAW    =      80.83645096 Ry
      -> total E_XC with PAW   =    -371.27689229 Ry

     convergence has been achieved in  10 iterations

     Forces acting on atoms (cartesian axes, Ry/au):

     atom    1 type  1   force =     0.01437277    0.00634385   -0.00281520
     atom    2 type  1   force =    -0.01418111   -0.00624929    0.00226158
     atom    3 type  1   force =    -0.01360792   -0.00601157    0.00698755
     atom    4 type  1   force =     0.01539913    0.00679542   -0.00821721
     atom    5 type  1   force =    -0.00108174   -0.00047659    0.00089560
     atom    6 type  2   force =    -0.01449678   -0.00639937    0.00569812
     atom    7 type  2   force =     0.01423161    0.00628034   -0.00621780
     atom    8 type  2   force =    -0.00426993   -0.00188554    0.02555620
     atom    9 type  2   force =     0.00363396    0.00160276   -0.02414883
     The non-local contrib.  to forces
     atom    1 type  1   force =     0.04838013    0.02135284    0.01597815
     atom    2 type  1   force =    -0.04937018   -0.02179428   -0.01469224
     atom    3 type  1   force =     0.00507774    0.00224251    0.04203138
     atom    4 type  1   force =    -0.01262166   -0.00557059   -0.04153826
     atom    5 type  1   force =     0.00190237    0.00083852   -0.00725933
     atom    6 type  2   force =    -0.16807257   -0.07418023   -0.02263936
     atom    7 type  2   force =     0.16424761    0.07249172    0.02296196
     atom    8 type  2   force =     0.09323294    0.04114908    0.09369174
     atom    9 type  2   force =    -0.08987395   -0.03966648   -0.09212991
     The ionic contribution  to forces
     atom    1 type  1   force =    -1.38761879   -0.61243428   -0.09186660
     atom    2 type  1   force =     1.37105546    0.60512394   -0.22158528
     atom    3 type  1   force =     0.71221175    0.31433913   -0.36303078
     atom    4 type  1   force =    -0.51137271   -0.22569756    0.46137728
     atom    5 type  1   force =    -0.25232299   -0.11136434    0.30608299
     atom    6 type  2   force =     1.22100280    0.53889726   -0.31206922
     atom    7 type  2   force =    -1.20158063   -0.53032517    0.14363262
     atom    8 type  2   force =    -0.45446515   -0.20058105   -0.93871281
     atom    9 type  2   force =     0.50309027    0.22204205    1.01617180
     The local contribution  to forces
     atom    1 type  1   force =     1.35531035    0.59817768    0.07373758
     atom    2 type  1   force =    -1.33746984   -0.59026401    0.23756900
     atom    3 type  1   force =    -0.73084109   -0.32257037    0.32976507
     atom    4 type  1   force =     0.53883785    0.23781675   -0.42905327
     atom    5 type  1   force =     0.24951613    0.11013304   -0.29819717
     atom    6 type  2   force =    -1.08079447   -0.47701610    0.33826605
     atom    7 type  2   force =     1.06458608    0.46986167   -0.17055406
     atom    8 type  2   force =     0.36407675    0.16068652    0.87387388
     atom    9 type  2   force =    -0.41606635   -0.18363398   -0.95134465
     The core correction contribution to forces
     atom    1 type  1   force =    -0.00152989   -0.00067520   -0.00060722
     atom    2 type  1   force =     0.00157930    0.00069764    0.00053098
     atom    3 type  1   force =    -0.00020194   -0.00008930   -0.00133745
     atom    4 type  1   force =     0.00063592    0.00028061    0.00127040
     atom    5 type  1   force =    -0.00019512   -0.00008592    0.00035222
     atom    6 type  2   force =     0.01345242    0.00593732    0.00215660
     atom    7 type  2   force =    -0.01300397   -0.00573938   -0.00241399
     atom    8 type  2   force =    -0.00695002   -0.00306752   -0.00314217
     atom    9 type  2   force =     0.00648319    0.00286140    0.00319159
     The Hubbard contrib.    to forces
     atom    1 type  1   force =     0.00000000    0.00000000    0.00000000
     atom    2 type  1   force =     0.00000000    0.00000000    0.00000000
     atom    3 type  1   force =     0.00000000    0.00000000    0.00000000
     atom    4 type  1   force =     0.00000000    0.00000000    0.00000000
     atom    5 type  1   force =     0.00000000    0.00000000    0.00000000
     atom    6 type  2   force =     0.00000000    0.00000000    0.00000000
     atom    7 type  2   force =     0.00000000    0.00000000    0.00000000
     atom    8 type  2   force =     0.00000000    0.00000000    0.00000000
     atom    9 type  2   force =     0.00000000    0.00000000    0.00000000
     The SCF correction term to forces
     atom    1 type  1   force =    -0.00015654   -0.00007070   -0.00003844
     atom    2 type  1   force =     0.00003664   -0.00000610    0.00045779
     atom    3 type  1   force =     0.00015811    0.00007295   -0.00042199
     atom    4 type  1   force =    -0.00006779   -0.00002731   -0.00025469
     atom    5 type  1   force =     0.00003035    0.00000860   -0.00006443
     atom    6 type  2   force =    -0.00007248   -0.00003114    0.00000271
     atom    7 type  2   force =    -0.00000499   -0.00000203    0.00017433
     atom    8 type  2   force =    -0.00015197   -0.00006609   -0.00013577
     atom    9 type  2   force =     0.00001329    0.00000625   -0.00001899

     Total force =     0.054417     Total SCF correction =     0.000780

     Computing stress (Cartesian axis) and pressure

          total   stress  (Ry/bohr**3)                   (kbar)     P=      -11.14
  -0.00011301  -0.00013934   0.00005098          -16.62      -20.50        7.50
  -0.00013934   0.00014120   0.00002250          -20.50       20.77        3.31
   0.00005098   0.00002250  -0.00025544            7.50        3.31      -37.58

     kinetic stress (kbar)   6383.39    -70.89    -15.17
                              -70.89   6512.71     -6.70
                              -15.17     -6.70   6284.83

     local   stress (kbar)  -2985.72    209.54   -132.06
                              209.54  -3368.01    -58.29
                             -132.06    -58.29  -3240.40

     nonloc. stress (kbar)   2049.47      5.07     -0.83
                                5.07   2040.21     -0.37
                               -0.83     -0.37   2048.81

     hartree stress (kbar)   1853.52    -91.58     31.34
                              -91.58   2020.59     13.83
                               31.34     13.83   1907.44

     exc-cor stress (kbar)   1098.74     -0.33      0.69
                               -0.33   1099.35      0.31
                                0.69      0.31   1099.83

     corecor stress (kbar)  -2732.66      2.31      0.57
                                2.31  -2736.87      0.25
                                0.57      0.25  -2729.16

     ewald   stress (kbar)  -5683.36    -74.63    122.96
                              -74.63  -5547.21     54.27
                              122.96     54.27  -5408.92

     hubbard stress (kbar)      0.00      0.00      0.00
                                0.00      0.00      0.00
                                0.00      0.00      0.00

     DFT-D   stress (kbar)      0.00      0.00      0.00
                                0.00      0.00      0.00
                                0.00      0.00      0.00

     XDM     stress (kbar)      0.00      0.00      0.00
                                0.00      0.00      0.00
                                0.00      0.00      0.00

     dft-nl  stress (kbar)      0.00      0.00      0.00
                                0.00      0.00      0.00
                                0.00      0.00      0.00

     TS-vdW  stress (kbar)      0.00      0.00      0.00
                                0.00      0.00      0.00
                                0.00      0.00      0.00

[...]

                                0.00      0.00      0.00

     Writing all to output data dir new_calculations/myprefix.save/

     General routines

     Parallel routines

     PAW routines

   This run was terminated on:   6: 5:44  20May2023

   JOB DONE.