     Program PWSCF v.7.0 starts on 21May2023 at  6:42: 7

     Reading input from espresso_7053.pwi
Warning: card &CELL ignored
Warning: card / ignored

     Current dimensions of program PWSCF are:
     Max number of different atomic species (ntypx) = 10
     Max number of k-points (npk) =  40000
     Max angular momentum in pseudopotentials (lmaxx) =  4
     file Mg.pbe-n-kjpaw_psl.0.3.0.UPF: wavefunction(s)  3S renormalized

     gamma-point specific algorithms are used
     Message from routine setup:
     using ibrav=0 with symmetry is DISCOURAGED, use correct ibrav instead

     Subspace diagonalization in iterative solution of the eigenvalue problem:
     a serial algorithm will be used

     Using Slab Decomposition

     bravais-lattice index     =            0
     lattice parameter (alat)  =       9.8235  a.u.
     unit-cell volume          =     583.8268 (a.u.)^3
     number of atoms/cell      =            8
     number of atomic types    =            3
     number of electrons       =        32.00
     number of Kohn-Sham states=           20
     kinetic-energy cutoff     =      30.0000  Ry
     charge density cutoff     =     240.0000  Ry
     scf convergence threshold =      1.0E-06
     mixing beta               =       0.7000
     number of iterations used =            8  plain     mixing
     Exchange-correlation= PBE
                           (   1   4   3   4   0   0   0)

     celldm(1)=   9.823460  celldm(2)=   0.000000  celldm(3)=   0.000000
     celldm(4)=   0.000000  celldm(5)=   0.000000  celldm(6)=   0.000000

     crystal axes: (cart. coord. in units of alat)
               a(1) = (   1.000000   0.000000   0.000000 )
               a(2) = (   0.207330   0.978271   0.000000 )
               a(3) = (  -0.603665  -0.489136   0.629552 )

     reciprocal axes: (cart. coord. in units 2 pi/alat)
               b(1) = (  1.000000 -0.211935  0.794216 )
               b(2) = (  0.000000  1.022211  0.794216 )
               b(3) = (  0.000000  0.000000  1.588432 )

     PseudoPot. # 1 for Mg read from file:
     /home/pragov/projects/rrg-bengioy-ad/pragov/crystal_structure_design/SSSP/Mg.pbe-n-kjpaw_psl.0.3.0.UPF
     MD5 check sum: 24ecedc7f3e3cbe212e682f4413594e4
     Pseudo is Projector augmented-wave + core cor, Zval =  2.0
     Generated using "atomic" code by A. Dal Corso  v.5.0.99 svn rev. 10869
     Shape of augmentation charge: PSQ
     Using radial grid of 1129 points,  4 beta functions with:
                l(1) =   0
                l(2) =   0
                l(3) =   1
                l(4) =   1
     Q(r) pseudized with 0 coefficients

     PseudoPot. # 2 for Si read from file:
     /home/pragov/projects/rrg-bengioy-ad/pragov/crystal_structure_design/SSSP/Si.pbe-n-rrkjus_psl.1.0.0.UPF
     MD5 check sum: 0b0bb1205258b0d07b9f9672cf965d36
     Pseudo is Ultrasoft + core correction, Zval =  4.0
     Generated using "atomic" code by A. Dal Corso  v.5.1
     Using radial grid of 1141 points,  6 beta functions with:
                l(1) =   0
                l(2) =   0
                l(3) =   1
                l(4) =   1
                l(5) =   2
                l(6) =   2
     Q(r) pseudized with 0 coefficients

     PseudoPot. # 3 for N  read from file:
     /home/pragov/projects/rrg-bengioy-ad/pragov/crystal_structure_design/SSSP/N.pbe-n-radius_5.UPF
     MD5 check sum: 16739722b17309cd8fe442a2ace49922
     Pseudo is Ultrasoft + core correction, Zval =  5.0
     Generated using "atomic" code by A. Dal Corso  v.5.1
     Using radial grid of 1085 points,  4 beta functions with:
                l(1) =   0
                l(2) =   0
                l(3) =   1
                l(4) =   1
     Q(r) pseudized with 0 coefficients

     atomic species   valence    mass     pseudopotential
        Mg             2.00    24.30500     Mg( 1.00)
        Si             4.00    28.08500     Si( 1.00)
        N              5.00    14.00700     N ( 1.00)

      2 Sym. Ops. (no inversion) found ( 1 have fractional translation)

                                    s                        frac. trans.

      isym =  1     identity

 cryst.   s( 1) = (     1          0          0      )
                  (     0          1          0      )
                  (     0          0          1      )

 cart.    s( 1) = (  1.0000000 -0.0000000  0.0000000 )
                  (  0.0000000  1.0000000 -0.0000000 )
                  (  0.0000000  0.0000000  1.0000000 )

      isym =  2     inv. 180 deg rotation - cart. axis [0,0,1]

 cryst.   s( 2) = (     1          0          0      )    f =(  0.2500000 )
                  (     0          1          0      )       ( -0.2500000 )
                  (    -1         -1         -1      )       (  0.5000000 )

 cart.    s( 2) = (  1.0000000 -0.0000000  0.0000000 )    f =( -0.1036648 )
                  (  0.0000000  1.0000000  0.0000000 )       ( -0.4891356 )
                  (  0.0000000  0.0000000 -1.0000000 )       (  0.3147758 )

   Cartesian axes

     site n.     atom                  positions (alat units)
         1           Mg  tau(   1) = (   0.0000000   0.0000000   0.0000000  )
         2           Mg  tau(   2) = (   0.5000000  -0.0000000   0.3147758  )
         3           Si  tau(   3) = (   0.1036648   0.4891356   0.3147758  )
         4           Si  tau(   4) = (   0.6036648   0.4891356   0.0000000  )
         5           N   tau(   5) = (   0.4277430   0.3977122   0.2750561  )
         6           N   tau(   6) = (  -0.0222458   0.3359911   0.5898319  )
         7           N   tau(   7) = (  -0.1259106  -0.1531444   0.3544955  )
         8           N   tau(   8) = (   0.9277430   0.3977122   0.0397197  )

   Crystallographic axes

     site n.     atom                  positions (cryst. coord.)
         1           Mg  tau(   1) = (  0.0000000  0.0000000  0.0000000  )
         2           Mg  tau(   2) = (  0.7500000  0.2500000  0.5000000  )
         3           Si  tau(   3) = (  0.2500000  0.7500000  0.5000000  )
         4           Si  tau(   4) = (  0.5000000  0.5000000  0.0000000  )
         5           N   tau(   5) = (  0.5619080  0.6250000  0.4369080  )
         6           N   tau(   6) = (  0.3750000  0.8119080  0.9369080  )
         7           N   tau(   7) = (  0.1880920  0.1250000  0.5630920  )
         8           N   tau(   8) = (  0.8750000  0.4380920  0.0630920  )

     number of k points=     1  Methfessel-Paxton smearing, width (Ry)=  0.0010
                       cart. coord. in units 2pi/alat
        k(    1) = (   0.0000000   0.0000000   0.0000000), wk =   2.0000000

                       cryst. coord.
        k(    1) = (   0.0000000   0.0000000   0.0000000), wk =   2.0000000

     Initial potential from superposition of free atoms

     starting charge      31.9970, renormalised to      32.0000
     Starting wfcs are   32 randomized atomic wfcs
     Checking if some PAW data can be deallocated...

     Self-consistent Calculation

     iteration #  1     ecut=    30.00 Ry     beta= 0.70
     Davidson diagonalization with overlap

     ethr =  1.00E-02,  avg # of iterations =  3.0

     total energy              =    -170.63305580 Ry
     estimated scf accuracy    <       2.30119699 Ry

[...]

     total energy              =    -171.61050130 Ry
     estimated scf accuracy    <       0.00000251 Ry

     iteration #  9     ecut=    30.00 Ry     beta= 0.70
     Davidson diagonalization with overlap

     ethr =  7.84E-09,  avg # of iterations = 10.0

     End of self-consistent calculation

          k = 0.0000 0.0000 0.0000 (   827 PWs)   bands (ev):

    -9.6717  -6.7251  -6.4288  -6.3987  -1.1861   1.9222   1.9351   2.1690
     3.1254   3.1567   3.9405   5.4301   5.4349   5.9496   5.9721   6.2153
     9.9108  10.1864  13.6871  13.7010

     occupation numbers
     1.0000   1.0000   1.0000   1.0000   1.0000   1.0000   1.0000   1.0000
     1.0000   1.0000   1.0000   1.0000   1.0000   1.0000   1.0000   1.0000
    -0.0000  -0.0000  -0.0000  -0.0000

     the Fermi energy is     7.9259 ev

!    total energy              =    -171.61050602 Ry
     estimated scf accuracy    <       0.00000044 Ry
     smearing contrib. (-TS)   =       0.00000000 Ry
     internal energy E=F+TS    =    -171.61050602 Ry

     The total energy is F=E-TS. E is the sum of the following terms:
     one-electron contribution =     -14.72194094 Ry
     hartree contribution      =      27.15269318 Ry
     xc contribution           =     -38.26260059 Ry
     ewald contribution        =     -83.16468857 Ry
     one-center paw contrib.   =     -62.61396910 Ry
      -> PAW hartree energy AE =       2.35044618 Ry
      -> PAW hartree energy PS =      -2.34635622 Ry
      -> PAW xc energy AE      =     -65.60976321 Ry
      -> PAW xc energy PS      =       2.99170415 Ry
      -> total E_H with PAW    =      27.15678315 Ry
      -> total E_XC with PAW   =    -100.88065966 Ry

     convergence has been achieved in   9 iterations

     Forces acting on atoms (cartesian axes, Ry/au):

     atom    1 type  1   force =     0.00249910   -0.00836361   -0.00018464
     atom    2 type  1   force =     0.00249910   -0.00836361    0.00018464
     atom    3 type  2   force =     0.00387742   -0.00518707   -0.00194052
     atom    4 type  2   force =     0.00387742   -0.00518707    0.00194052
     atom    5 type  3   force =     0.01559544   -0.02096965    0.03058465
     atom    6 type  3   force =    -0.02197196    0.03452033    0.00025763
     atom    7 type  3   force =    -0.02197196    0.03452033   -0.00025763
     atom    8 type  3   force =     0.01559544   -0.02096965   -0.03058465
     The non-local contrib.  to forces
     atom    1 type  1   force =     0.00008648    0.00005350   -0.00104866
     atom    2 type  1   force =     0.00008648    0.00005350    0.00104866
     atom    3 type  2   force =    -0.00138586    0.00282289   -0.00144983
     atom    4 type  2   force =    -0.00138586    0.00282289    0.00144983
     atom    5 type  3   force =    -0.23768673    0.26146288   -0.32659398
     atom    6 type  3   force =     0.21134249   -0.24934636   -0.33341839
     atom    7 type  3   force =     0.21134249   -0.24934636    0.33341839
     atom    8 type  3   force =    -0.23768673    0.26146288    0.32659398
     The ionic contribution  to forces
     atom    1 type  1   force =     0.00000000    0.00000000    0.00000000
     atom    2 type  1   force =     0.00000000    0.00000000    0.00000000
     atom    3 type  2   force =     0.00000000    0.00000000    0.00000000
     atom    4 type  2   force =     0.00000000    0.00000000    0.00000000
     atom    5 type  3   force =     1.11602992   -1.37734404    1.77273782
     atom    6 type  3   force =    -1.11602992    1.37734404    1.77273782
     atom    7 type  3   force =    -1.11602992    1.37734404   -1.77273783
     atom    8 type  3   force =     1.11602992   -1.37734404   -1.77273782
     The local contribution  to forces
     atom    1 type  1   force =     0.00000989    0.00137114    0.00138693
     atom    2 type  1   force =    -0.00010583   -0.00083393   -0.00023802
     atom    3 type  2   force =     0.00246294   -0.00133383   -0.00034371
     atom    4 type  2   force =     0.00151068    0.00353879    0.00040305
     atom    5 type  3   force =    -0.87188387    1.06977803   -1.36872065
     atom    6 type  3   force =     0.85822998   -1.07017028   -1.39915209
     atom    7 type  3   force =     0.90591069   -1.10372462    1.48347879
     atom    8 type  3   force =    -0.86315988    1.14202444    1.46788968
     The core correction contribution to forces
     atom    1 type  1   force =    -0.00002889    0.00020015    0.00022780
     atom    2 type  1   force =     0.00007286   -0.00010652    0.00006983
     atom    3 type  2   force =     0.00100023   -0.00067286    0.00063046
     atom    4 type  2   force =     0.00048767    0.00011055    0.00062958
     atom    5 type  3   force =     0.00228050   -0.00309015    0.00384097
     atom    6 type  3   force =    -0.00247883    0.00271888    0.00296450
     atom    7 type  3   force =    -0.00152027    0.00206191   -0.00177457
     atom    8 type  3   force =     0.00263828   -0.00157978   -0.00198797
     The Hubbard contrib.    to forces
     atom    1 type  1   force =     0.00000000    0.00000000    0.00000000
     atom    2 type  1   force =     0.00000000    0.00000000    0.00000000
     atom    3 type  2   force =     0.00000000    0.00000000    0.00000000
     atom    4 type  2   force =     0.00000000    0.00000000    0.00000000
     atom    5 type  3   force =     0.00000000    0.00000000    0.00000000
     atom    6 type  3   force =     0.00000000    0.00000000    0.00000000
     atom    7 type  3   force =     0.00000000    0.00000000    0.00000000
     atom    8 type  3   force =     0.00000000    0.00000000    0.00000000
     The SCF correction term to forces
     atom    1 type  1   force =    -0.00002043    0.00005563    0.00000142
     atom    2 type  1   force =    -0.00002253   -0.00000405    0.00005631
     atom    3 type  2   force =    -0.00006666   -0.00002954   -0.00019956
     atom    4 type  2   force =     0.00021149   -0.00011640    0.00003593
     atom    5 type  3   force =    -0.00019429    0.00012383   -0.00015746
     atom    6 type  3   force =     0.00012614   -0.00005654   -0.00007251
     atom    7 type  3   force =     0.00024302   -0.00026740    0.00015929
     atom    8 type  3   force =    -0.00009644    0.00008328    0.00017953

     Total force =     0.082641     Total SCF correction =     0.000647

     Computing stress (Cartesian axis) and pressure

          total   stress  (Ry/bohr**3)                   (kbar)     P=      -81.27
  -0.00107615  -0.00108489  -0.00000000         -158.31     -159.59       -0.00
  -0.00108489  -0.00073919  -0.00000000         -159.59     -108.74       -0.00
  -0.00000000  -0.00000000   0.00015789           -0.00       -0.00       23.23

     kinetic stress (kbar)   9230.75   -149.58      0.00
                             -149.58   9282.65      0.00
                                0.00      0.00   9406.51

     local   stress (kbar)  -5780.29     29.17      6.67
                               29.17  -5800.54      7.20
                                6.67      7.20  -5816.43

     nonloc. stress (kbar)   3508.68    -34.93      0.00
                              -34.93   3522.54      0.00
                                0.00      0.00   3545.68

     hartree stress (kbar)   2339.11    106.56     -0.82
                              106.56   2295.57     -0.58
                               -0.82     -0.58   2206.90

     exc-cor stress (kbar)    168.19     -3.01     -0.01
                               -3.01    169.39     -0.03
                               -0.01     -0.03    171.81

     corecor stress (kbar)  -2576.27      7.18      0.21
                                7.18  -2578.61      0.31
                                0.21      0.31  -2584.70

     ewald   stress (kbar)  -7048.47   -114.99      0.00
                             -114.99  -6999.73      0.00
                                0.00      0.00  -6906.56

     hubbard stress (kbar)      0.00      0.00      0.00
                                0.00      0.00      0.00
                                0.00      0.00      0.00

     DFT-D   stress (kbar)      0.00      0.00      0.00
                                0.00      0.00      0.00
                                0.00      0.00      0.00

     XDM     stress (kbar)      0.00      0.00      0.00
                                0.00      0.00      0.00
                                0.00      0.00      0.00

     dft-nl  stress (kbar)      0.00      0.00      0.00
                                0.00      0.00      0.00
                                0.00      0.00      0.00

     TS-vdW  stress (kbar)      0.00      0.00      0.00
                                0.00      0.00      0.00
                                0.00      0.00      0.00

[...]

                                0.00      0.00      0.00

     Writing all to output data dir new_calculations/myprefix.save/

     General routines

     Parallel routines

     PAW routines

   This run was terminated on:   6:42:16  21May2023

   JOB DONE.