     Program PWSCF v.7.0 starts on 20May2023 at  5:39:19

     Reading input from espresso_13117.pwi
Warning: card &CELL ignored
Warning: card / ignored

     Current dimensions of program PWSCF are:
     Max number of different atomic species (ntypx) = 10
     Max number of k-points (npk) =  40000
     Max angular momentum in pseudopotentials (lmaxx) =  4

     gamma-point specific algorithms are used
     Message from routine setup:
     using ibrav=0 with symmetry is DISCOURAGED, use correct ibrav instead

     Subspace diagonalization in iterative solution of the eigenvalue problem:
     a serial algorithm will be used

     Using Slab Decomposition

     bravais-lattice index     =            0
     lattice parameter (alat)  =       8.8676  a.u.
     unit-cell volume          =    2199.2531 (a.u.)^3
     number of atoms/cell      =           18
     number of atomic types    =            2
     number of electrons       =       109.00
     number of Kohn-Sham states=           66
     kinetic-energy cutoff     =      30.0000  Ry
     charge density cutoff     =     240.0000  Ry
     scf convergence threshold =      1.0E-06
     mixing beta               =       0.7000
     number of iterations used =            8  plain     mixing
     Exchange-correlation= SLA  PW   PBE  PBE
                           (   1   4   3   4   0   0   0)

     celldm(1)=   8.867594  celldm(2)=   0.000000  celldm(3)=   0.000000
     celldm(4)=   0.000000  celldm(5)=   0.000000  celldm(6)=   0.000000

     crystal axes: (cart. coord. in units of alat)
               a(1) = (   1.000000   0.000000   0.000000 )
               a(2) = (  -0.500000   0.866025   0.000000 )
               a(3) = (   0.000000   0.000000   3.641894 )

     reciprocal axes: (cart. coord. in units 2 pi/alat)
               b(1) = (  1.000000  0.577350  0.000000 )
               b(2) = (  0.000000  1.154701  0.000000 )
               b(3) = (  0.000000  0.000000  0.274582 )

     PseudoPot. # 1 for Li read from file:
     /home/pragov/projects/rrg-bengioy-ad/pragov/crystal_structure_design/SSSP/li_pbe_v1.4.uspp.F.UPF
     MD5 check sum: e912e257baa3777c20ea3d68f190483c
     Pseudo is Ultrasoft, Zval =  3.0
     Generated by new atomic code, or converted to UPF format
     Using radial grid of  751 points,  5 beta functions with:
                l(1) =   0
                l(2) =   0
                l(3) =   0
                l(4) =   1
                l(5) =   1
     Q(r) pseudized with 10 coefficients,  rinner =    1.150   1.150   1.150

     PseudoPot. # 2 for Sn read from file:
     /home/pragov/projects/rrg-bengioy-ad/pragov/crystal_structure_design/SSSP/Sn_pbe_v1.uspp.F.UPF
     MD5 check sum: 4cf58ce39ec5d5d420df3dd08604eb00
     Pseudo is Ultrasoft + core correction, Zval = 14.0
     Generated by new atomic code, or converted to UPF format
     Using radial grid of  891 points,  6 beta functions with:
                l(1) =   0
                l(2) =   0
                l(3) =   1
                l(4) =   1
                l(5) =   2
                l(6) =   2
     Q(r) pseudized with  6 coefficients,  rinner =    1.200   1.200   1.200
                                                       1.200   1.200

     atomic species   valence    mass     pseudopotential
        Li             3.00     6.94000     Li( 1.00)
        Sn            14.00   118.71000     Sn( 1.00)

     12 Sym. Ops., with inversion, found

                                    s                        frac. trans.

      isym =  1     identity

 cryst.   s( 1) = (     1          0          0      )
                  (     0          1          0      )
                  (     0          0          1      )

 cart.    s( 1) = (  1.0000000 -0.0000000  0.0000000 )
                  (  0.0000000  1.0000000  0.0000000 )
                  (  0.0000000  0.0000000  1.0000000 )

      isym =  2     180 deg rotation - cart. axis [1,0,0]

[...]

      isym =  3     120 deg rotation - cryst. axis [0,0,1]

[...]

      isym =  6     180 deg rotation - cryst. axis [1,1,0]

[...]

      isym =  7     inversion

[...]

      isym =  8     inv. 180 deg rotation - cart. axis [1,0,0]

[...]

      isym =  9     inv. 120 deg rotation - cryst. axis [0,0,1]

 cryst.   s( 9) = (     0         -1          0      )
                  (     1          1          0      )
                  (     0          0         -1      )

 cart.    s( 9) = (  0.5000001  0.8660255  0.0000000 )
                  ( -0.8660253  0.4999999  0.0000000 )
                  (  0.0000000  0.0000000 -1.0000000 )

[...]

 cryst.   s(10) = (     1          1          0      )
                  (    -1          0          0      )
                  (     0          0         -1      )

 cart.    s(10) = (  0.4999999 -0.8660255  0.0000000 )
                  (  0.8660253  0.5000001  0.0000000 )
                  (  0.0000000  0.0000000 -1.0000000 )

[...]

      isym = 12     inv. 180 deg rotation - cryst. axis [1,1,0]

 cryst.   s(12) = (     0         -1          0      )
                  (    -1          0          0      )
                  (     0          0          1      )

 cart.    s(12) = (  0.5000001 -0.8660253  0.0000000 )
                  ( -0.8660253 -0.5000001  0.0000000 )
                  (  0.0000000  0.0000000  1.0000000 )

   Cartesian axes

     site n.     atom                  positions (alat units)
         1           Li  tau(   1) = (   0.0000000   0.0000000   1.8209469  )
         2           Li  tau(   2) = (   0.0000000   0.0000000   2.4460451  )
         3           Li  tau(   3) = (   0.0000000   0.0000000   1.1958486  )
         4           Li  tau(   4) = (   0.0000000   0.0000000   3.0463421  )
         5           Li  tau(   5) = (   0.0000000   0.0000000   0.5955516  )
         6           Li  tau(   6) = (  -0.0000006   0.5773505   3.4477626  )
         7           Li  tau(   7) = (   0.5000005   0.2886748   0.1941311  )
         8           Li  tau(   8) = (  -0.0000006   0.5773505   1.6251150  )
         9           Li  tau(   9) = (   0.5000005   0.2886748   2.0167788  )
        10           Li  tau(  10) = (  -0.0000006   0.5773505   1.0332708  )
        11           Li  tau(  11) = (   0.5000005   0.2886748   2.6086229  )
        12           Li  tau(  12) = (  -0.0000006   0.5773505   0.4080341  )
        13           Li  tau(  13) = (   0.5000005   0.2886748   3.2338596  )
        14           Sn  tau(  14) = (   0.0000000   0.0000000   0.0000000  )
        15           Sn  tau(  15) = (  -0.0000006   0.5773505   2.8343839  )
        16           Sn  tau(  16) = (   0.5000005   0.2886748   0.8075098  )
        17           Sn  tau(  17) = (  -0.0000006   0.5773505   2.2144061  )
        18           Sn  tau(  18) = (   0.5000005   0.2886748   1.4274876  )

   Crystallographic axes

     site n.     atom                  positions (cryst. coord.)
         1           Li  tau(   1) = (  0.0000000  0.0000000  0.5000000  )
         2           Li  tau(   2) = (  0.0000000  0.0000000  0.6716410  )
         3           Li  tau(   3) = (  0.0000000  0.0000000  0.3283590  )
         4           Li  tau(   4) = (  0.0000000  0.0000000  0.8364720  )
         5           Li  tau(   5) = (  0.0000000  0.0000000  0.1635280  )
         6           Li  tau(   6) = (  0.3333330  0.6666670  0.9466950  )
         7           Li  tau(   7) = (  0.6666670  0.3333330  0.0533050  )
         8           Li  tau(   8) = (  0.3333330  0.6666670  0.4462280  )
         9           Li  tau(   9) = (  0.6666670  0.3333330  0.5537720  )
        10           Li  tau(  10) = (  0.3333330  0.6666670  0.2837180  )
        11           Li  tau(  11) = (  0.6666670  0.3333330  0.7162820  )
        12           Li  tau(  12) = (  0.3333330  0.6666670  0.1120390  )
        13           Li  tau(  13) = (  0.6666670  0.3333330  0.8879610  )
        14           Sn  tau(  14) = (  0.0000000  0.0000000  0.0000000  )
        15           Sn  tau(  15) = (  0.3333330  0.6666670  0.7782720  )
        16           Sn  tau(  16) = (  0.6666670  0.3333330  0.2217280  )
        17           Sn  tau(  17) = (  0.3333330  0.6666670  0.6080370  )
        18           Sn  tau(  18) = (  0.6666670  0.3333330  0.3919630  )

     number of k points=     1  Methfessel-Paxton smearing, width (Ry)=  0.0010
                       cart. coord. in units 2pi/alat
        k(    1) = (   0.0000000   0.0000000   0.0000000), wk =   2.0000000

                       cryst. coord.
        k(    1) = (   0.0000000   0.0000000   0.0000000), wk =   2.0000000

     Check: negative core charge=   -0.000001

     Initial potential from superposition of free atoms

     starting charge      98.1401, renormalised to     109.0000
     Starting wfcs are  110 randomized atomic wfcs

     Self-consistent Calculation

     iteration #  1     ecut=    30.00 Ry     beta= 0.70
     Davidson diagonalization with overlap

     ethr =  1.00E-02,  avg # of iterations =  3.0

     total energy              =    -979.72501089 Ry
     estimated scf accuracy    <      35.20904851 Ry

[...]

     total energy              =   -1002.74636727 Ry
     estimated scf accuracy    <       0.00000312 Ry

     iteration # 27     ecut=    30.00 Ry     beta= 0.70
     Davidson diagonalization with overlap

     ethr =  2.86E-09,  avg # of iterations =  1.0

     End of self-consistent calculation

          k = 0.0000 0.0000 0.0000 (  3062 PWs)   bands (ev):

   -41.9849 -41.9844 -41.9611 -41.9608 -41.8680 -41.3707 -41.3705 -40.6586
   -40.6540 -40.5687 -40.5680 -40.3313 -40.3267 -14.7166 -14.7154 -14.5786
   -14.5786 -14.5769 -14.5769 -14.4984 -14.4984 -14.4982 -14.4982 -14.4799
   -14.4799 -14.4789 -14.4789 -14.4758 -14.4757 -14.4756 -14.4755 -14.4583
   -14.4572 -13.7491 -13.6830 -13.6830 -13.6059 -13.6059  -2.6526  -2.4970
    -1.2829  -0.6831  -0.6490   2.9558   3.2379   5.4166   5.4167   5.5634
     5.5635   5.5993   6.3217   6.7468   6.7468   6.8804   6.8804   7.1922
     7.1922   7.8608   7.8608   8.0325   8.0359   8.0359   8.0633   8.5089
     9.0056   9.0065

     occupation numbers
     1.0000   1.0000   1.0000   1.0000   1.0000   1.0000   1.0000   1.0000
     1.0000   1.0000   1.0000   1.0000   1.0000   1.0000   1.0000   1.0000
     1.0000   1.0000   1.0000   1.0000   1.0000   1.0000   1.0000   1.0000
     1.0000   1.0000   1.0000   1.0000   1.0000   1.0000   1.0000   1.0000
     1.0000   1.0000   1.0000   1.0000   1.0000   1.0000   1.0000   1.0000
     1.0000   1.0000   1.0000   1.0000   1.0000   1.0000   1.0000   1.0000
     1.0000   1.0000   1.0000   1.0000   1.0000   0.7520   0.7480  -0.0000
    -0.0000  -0.0000  -0.0000  -0.0000  -0.0000  -0.0000  -0.0000  -0.0000
    -0.0000  -0.0000

     the Fermi energy is     6.8846 ev

!    total energy              =   -1002.74636714 Ry
     estimated scf accuracy    <       0.00000046 Ry
     smearing contrib. (-TS)   =      -0.00041260 Ry
     internal energy E=F+TS    =   -1002.74595454 Ry

     The total energy is F=E-TS. E is the sum of the following terms:
     one-electron contribution =    -493.83469154 Ry
     hartree contribution      =     281.11403905 Ry
     xc contribution           =    -282.80800330 Ry
     ewald contribution        =    -507.21729875 Ry

     convergence has been achieved in  27 iterations

     Forces acting on atoms (cartesian axes, Ry/au):

     atom    1 type  1   force =     0.00000000   -0.00000000    0.00000000
     atom    2 type  1   force =    -0.00000000    0.00000000   -0.00134835
     atom    3 type  1   force =     0.00000000    0.00000000    0.00134835
     atom    4 type  1   force =     0.00000000    0.00000000    0.01389124
     atom    5 type  1   force =     0.00000000    0.00000000   -0.01389124
     atom    6 type  1   force =     0.00000000    0.00000000    0.00073486
     atom    7 type  1   force =     0.00000000    0.00000000   -0.00073486
     atom    8 type  1   force =     0.00000000    0.00000000    0.00326607
     atom    9 type  1   force =     0.00000000    0.00000000   -0.00326607
     atom   10 type  1   force =    -0.00000000   -0.00000000   -0.00299539
     atom   11 type  1   force =     0.00000000   -0.00000000    0.00299539
     atom   12 type  1   force =     0.00000000    0.00000000   -0.00980097
     atom   13 type  1   force =    -0.00000000   -0.00000000    0.00980097
     atom   14 type  2   force =     0.00000000    0.00000000    0.00000000
     atom   15 type  2   force =     0.00000000   -0.00000000    0.01187504
     atom   16 type  2   force =    -0.00000000    0.00000000   -0.01187504
     atom   17 type  2   force =    -0.00000000   -0.00000000   -0.00925933
     atom   18 type  2   force =     0.00000000    0.00000000    0.00925933
     The non-local contrib.  to forces
     atom    1 type  1   force =     0.00000000   -0.00000000    0.00000000
     atom    2 type  1   force =     0.00000000    0.00000000   -0.01294382
     atom    3 type  1   force =    -0.00000000   -0.00000000    0.01294382
     atom    4 type  1   force =     0.00000000    0.00000000   -0.11914054
     atom    5 type  1   force =     0.00000000    0.00000000    0.11914054
     atom    6 type  1   force =     0.00000000   -0.00000000    0.09873160
     atom    7 type  1   force =     0.00000000    0.00000000   -0.09873160
     atom    8 type  1   force =     0.00000000   -0.00000000   -0.11459891
     atom    9 type  1   force =     0.00000000    0.00000000    0.11459891
     atom   10 type  1   force =     0.00000000    0.00000000   -0.01155188
     atom   11 type  1   force =     0.00000000    0.00000000    0.01155188
     atom   12 type  1   force =     0.00000000    0.00000000    0.02401611
     atom   13 type  1   force =    -0.00000000   -0.00000000   -0.02401611
     atom   14 type  2   force =     0.00000000   -0.00000000    0.00000000
     atom   15 type  2   force =     0.00000000    0.00000000   -0.01515257
     atom   16 type  2   force =     0.00000000    0.00000000    0.01515257
     atom   17 type  2   force =     0.00000000    0.00000000    0.03529203
     atom   18 type  2   force =     0.00000000   -0.00000000   -0.03529203
     The ionic contribution  to forces
     atom    1 type  1   force =     0.00000000    0.00000000    0.00000000
     atom    2 type  1   force =    -0.00000369    0.00000213    0.36128752
     atom    3 type  1   force =     0.00000369   -0.00000213   -0.36128752
     atom    4 type  1   force =    -0.00000287    0.00000166    0.78125319
     atom    5 type  1   force =     0.00000287   -0.00000166   -0.78125319
     atom    6 type  1   force =     0.00000696   -0.00000402    0.29028814
     atom    7 type  1   force =    -0.00000696    0.00000402   -0.29028814
     atom    8 type  1   force =     0.00001132   -0.00000654   -0.03786159
     atom    9 type  1   force =    -0.00001132    0.00000654    0.03786159
     atom   10 type  1   force =     0.00001322   -0.00000763   -0.55992044
     atom   11 type  1   force =    -0.00001322    0.00000763    0.55992044
     atom   12 type  1   force =     0.00000779   -0.00000450   -0.59555159
     atom   13 type  1   force =    -0.00000779    0.00000450    0.59555159
     atom   14 type  2   force =     0.00000000    0.00000000    0.00000000
     atom   15 type  2   force =     0.00001777   -0.00001026    8.38610153
     atom   16 type  2   force =    -0.00001777    0.00001026   -8.38610153
     atom   17 type  2   force =     0.00001923   -0.00001110   -4.12797577
     atom   18 type  2   force =    -0.00001923    0.00001110    4.12797577
     The local contribution  to forces
     atom    1 type  1   force =     0.00000119    0.00001663    0.00019450
     atom    2 type  1   force =    -0.00010814   -0.00000925   -0.34973173
     atom    3 type  1   force =     0.00010581    0.00002449    0.34978733
     atom    4 type  1   force =    -0.00026630   -0.00002521   -0.64830783
     atom    5 type  1   force =     0.00026176    0.00005722    0.64811355
     atom    6 type  1   force =    -0.00004822   -0.00001060   -0.38840073
     atom    7 type  1   force =     0.00002270   -0.00000902    0.38818840
     atom    8 type  1   force =    -0.00033445   -0.00005824    0.15593884
     atom    9 type  1   force =     0.00033809    0.00003010   -0.15557759
     atom   10 type  1   force =    -0.00019267   -0.00002586    0.56852855
     atom   11 type  1   force =     0.00019800    0.00001122   -0.56851135
     atom   12 type  1   force =    -0.00016203   -0.00003492    0.56163477
     atom   13 type  1   force =     0.00016158    0.00001216   -0.56184755
     atom   14 type  2   force =    -0.00011345   -0.00002109   -0.00057435
     atom   15 type  2   force =     0.00001970    0.00009665   -8.35500713
     atom   16 type  2   force =    -0.00003372    0.00001924    8.35468490
     atom   17 type  2   force =    -0.00066793   -0.00010254    4.08186873
     atom   18 type  2   force =     0.00068881   -0.00001046   -4.08089074
     The core correction contribution to forces
     atom    1 type  1   force =     0.00000000    0.00000000    0.00000000
     atom    2 type  1   force =     0.00000000    0.00000000    0.00000000
     atom    3 type  1   force =     0.00000000    0.00000000    0.00000000
     atom    4 type  1   force =     0.00000000    0.00000000    0.00000000
     atom    5 type  1   force =     0.00000000    0.00000000    0.00000000
     atom    6 type  1   force =     0.00000000    0.00000000    0.00000000
     atom    7 type  1   force =     0.00000000    0.00000000    0.00000000
     atom    8 type  1   force =     0.00000000    0.00000000    0.00000000
     atom    9 type  1   force =     0.00000000    0.00000000    0.00000000
     atom   10 type  1   force =     0.00000000    0.00000000    0.00000000
     atom   11 type  1   force =     0.00000000    0.00000000    0.00000000
     atom   12 type  1   force =     0.00000000    0.00000000    0.00000000
     atom   13 type  1   force =     0.00000000    0.00000000    0.00000000
     atom   14 type  2   force =    -0.00000229   -0.00000006   -0.00000295
     atom   15 type  2   force =     0.00000153    0.00000072   -0.00419351
     atom   16 type  2   force =    -0.00000292    0.00000046    0.00419645
     atom   17 type  2   force =    -0.00001257   -0.00000261    0.00166756
     atom   18 type  2   force =     0.00001239   -0.00000025   -0.00166789
     The Hubbard contrib.    to forces
     atom    1 type  1   force =     0.00000000    0.00000000    0.00000000
     atom    2 type  1   force =     0.00000000    0.00000000    0.00000000
     atom    3 type  1   force =     0.00000000    0.00000000    0.00000000
     atom    4 type  1   force =     0.00000000    0.00000000    0.00000000
     atom    5 type  1   force =     0.00000000    0.00000000    0.00000000
     atom    6 type  1   force =     0.00000000    0.00000000    0.00000000
     atom    7 type  1   force =     0.00000000    0.00000000    0.00000000
     atom    8 type  1   force =     0.00000000    0.00000000    0.00000000
     atom    9 type  1   force =     0.00000000    0.00000000    0.00000000
     atom   10 type  1   force =     0.00000000    0.00000000    0.00000000
     atom   11 type  1   force =     0.00000000    0.00000000    0.00000000
     atom   12 type  1   force =     0.00000000    0.00000000    0.00000000
     atom   13 type  1   force =     0.00000000    0.00000000    0.00000000
     atom   14 type  2   force =     0.00000000    0.00000000    0.00000000
     atom   15 type  2   force =     0.00000000    0.00000000    0.00000000
     atom   16 type  2   force =     0.00000000    0.00000000    0.00000000
     atom   17 type  2   force =     0.00000000    0.00000000    0.00000000
     atom   18 type  2   force =     0.00000000    0.00000000    0.00000000
     The SCF correction term to forces
     atom    1 type  1   force =     0.00000190   -0.00002459   -0.00015964
     atom    2 type  1   force =     0.00009046    0.00001032    0.00003784
     atom    3 type  1   force =    -0.00008216   -0.00002359   -0.00009711
     atom    4 type  1   force =     0.00018075    0.00001870    0.00006618
     atom    5 type  1   force =    -0.00018972   -0.00004795    0.00008761
     atom    6 type  1   force =     0.00001026    0.00000661    0.00010705
     atom    7 type  1   force =    -0.00001831   -0.00000311    0.00008768
     atom    8 type  1   force =     0.00023079    0.00004838   -0.00018106
     atom    9 type  1   force =    -0.00022997   -0.00002220   -0.00011777
     atom   10 type  1   force =     0.00013457    0.00002940   -0.00004106
     atom   11 type  1   force =    -0.00013346   -0.00001307    0.00004498
     atom   12 type  1   force =     0.00010478    0.00003178    0.00008131
     atom   13 type  1   force =    -0.00011102   -0.00001049    0.00009459
     atom   14 type  2   force =    -0.00003142   -0.00009165    0.00053849
     atom   15 type  2   force =    -0.00004128   -0.00001927    0.00023079
     atom   16 type  2   force =     0.00007417   -0.00000906    0.00029663
     atom   17 type  2   force =     0.00055761    0.00010357   -0.00014399
     atom   18 type  2   force =    -0.00055429   -0.00005085   -0.00089791

     Total force =     0.032796     Total SCF correction =     0.001516

     Computing stress (Cartesian axis) and pressure

          total   stress  (Ry/bohr**3)                   (kbar)     P=       97.66
   0.00071997   0.00000000   0.00000000          105.91        0.00        0.00
   0.00000000   0.00071997   0.00000000            0.00      105.91        0.00
   0.00000000   0.00000000   0.00055179            0.00        0.00       81.17

     kinetic stress (kbar)   6701.61      0.00      0.00
                                0.00   6701.61      0.00
                                0.00      0.00   6627.82

     local   stress (kbar)   1485.52     -0.91     -0.15
                               -0.91   1485.80     -0.02
                               -0.15     -0.02  -2553.31

     nonloc. stress (kbar)   2138.95      0.00      0.00
                                0.00   2138.95      0.00
                                0.00      0.00   2055.05

     hartree stress (kbar)   5701.46      0.51      0.11
                                0.51   5701.30      0.02
                                0.11      0.02   7400.57

     exc-cor stress (kbar)   5835.15      0.01      0.00
                                0.01   5835.15      0.00
                                0.00      0.00   5837.32

     corecor stress (kbar)  -9625.27     -0.01     -0.00
                               -0.01  -9625.27     -0.00
                               -0.00     -0.00  -9622.35

     ewald   stress (kbar) -12131.58      0.00      0.00
                                0.00 -12131.57     -0.00
                                0.00     -0.00  -9663.93

     hubbard stress (kbar)      0.00      0.00      0.00
                                0.00      0.00      0.00
                                0.00      0.00      0.00

     DFT-D   stress (kbar)      0.00      0.00      0.00
                                0.00      0.00      0.00
                                0.00      0.00      0.00

     XDM     stress (kbar)      0.00      0.00      0.00
                                0.00      0.00      0.00
                                0.00      0.00      0.00

     dft-nl  stress (kbar)      0.00      0.00      0.00
                                0.00      0.00      0.00
                                0.00      0.00      0.00

     TS-vdW  stress (kbar)      0.00      0.00      0.00
                                0.00      0.00      0.00
                                0.00      0.00      0.00

[...]

                                0.00      0.00      0.00

     Writing all to output data dir new_calculations/myprefix.save/

     General routines

     Parallel routines

   This run was terminated on:   5:39:48  20May2023

   JOB DONE.