     Program PWSCF v.7.0 starts on 20May2023 at 16:30:42

     Reading input from espresso_20077.pwi
Warning: card &CELL ignored
Warning: card / ignored

     Current dimensions of program PWSCF are:
     Max number of different atomic species (ntypx) = 10
     Max number of k-points (npk) =  40000
     Max angular momentum in pseudopotentials (lmaxx) =  4

     gamma-point specific algorithms are used
     Message from routine setup:
     using ibrav=0 with symmetry is DISCOURAGED, use correct ibrav instead

     Subspace diagonalization in iterative solution of the eigenvalue problem:
     a serial algorithm will be used

     Using Slab Decomposition

     bravais-lattice index     =            0
     lattice parameter (alat)  =      12.8888  a.u.
     unit-cell volume          =    2091.9010 (a.u.)^3
     number of atoms/cell      =           19
     number of atomic types    =            2
     number of electrons       =       376.00
     number of Kohn-Sham states=          226
     kinetic-energy cutoff     =      30.0000  Ry
     charge density cutoff     =     240.0000  Ry
     scf convergence threshold =      1.0E-06
     mixing beta               =       0.7000
     number of iterations used =            8  plain     mixing
     Exchange-correlation= SLA  PW   PBE  PBE
                           (   1   4   3   4   0   0   0)

     celldm(1)=  12.888835  celldm(2)=   0.000000  celldm(3)=   0.000000
     celldm(4)=   0.000000  celldm(5)=   0.000000  celldm(6)=   0.000000

     crystal axes: (cart. coord. in units of alat)
               a(1) = (   1.000000   0.000000   0.000000 )
               a(2) = (   0.128728   0.991680   0.000000 )
               a(3) = (   0.128728   0.113098   0.985210 )

     reciprocal axes: (cart. coord. in units 2 pi/alat)
               b(1) = (  1.000000 -0.129808 -0.115759 )
               b(2) = (  0.000000  1.008390 -0.115759 )
               b(3) = (  0.000000  0.000000  1.015012 )

     PseudoPot. # 1 for Gd read from file:
     /home/pragov/projects/rrg-bengioy-ad/pragov/crystal_structure_design/SSSP/Gd.GGA-PBE-paw-v1.0.UPF
     MD5 check sum: 3e8e0d208da550914ae52eaf991d13de
     Pseudo is Projector augmented-wave + core cor, Zval = 18.0
     Generated using ATOMPAW code
     Shape of augmentation charge: BESSEL
     Using radial grid of 1110 points,  8 beta functions with:
                l(1) =   0
                l(2) =   0
                l(3) =   1
                l(4) =   1
                l(5) =   2
                l(6) =   2
                l(7) =   3
                l(8) =   3
     Q(r) pseudized with 0 coefficients

     PseudoPot. # 2 for Zn read from file:
     /home/pragov/projects/rrg-bengioy-ad/pragov/crystal_structure_design/SSSP/Zn_pbe_v1.uspp.F.UPF
     MD5 check sum: df62231357ef9e81f77b2b3087fa5675
     Pseudo is Ultrasoft, Zval = 20.0
     Generated by new atomic code, or converted to UPF format
     Using radial grid of  943 points,  6 beta functions with:
                l(1) =   0
                l(2) =   0
                l(3) =   1
                l(4) =   1
                l(5) =   2
                l(6) =   2
     Q(r) pseudized with  8 coefficients,  rinner =    1.100   1.100   1.100
                                                       1.100   1.100

     atomic species   valence    mass     pseudopotential
        Gd            18.00   157.25000     Gd( 1.00)
        Zn            20.00    65.38000     Zn( 1.00)

      2 Sym. Ops., with inversion, found

                                    s                        frac. trans.

      isym =  1     identity

 cryst.   s( 1) = (     1          0          0      )
                  (     0          1          0      )
                  (     0          0          1      )

 cart.    s( 1) = (  1.0000000 -0.0000000 -0.0000000 )
                  (  0.0000000  1.0000000 -0.0000000 )
                  (  0.0000000  0.0000000  1.0000000 )

      isym =  2     inversion

 cryst.   s( 2) = (    -1          0          0      )
                  (     0         -1          0      )
                  (     0          0         -1      )

 cart.    s( 2) = ( -1.0000000  0.0000000  0.0000000 )
                  (  0.0000000 -1.0000000  0.0000000 )
                  (  0.0000000  0.0000000 -1.0000000 )

   Cartesian axes

     site n.     atom                  positions (alat units)
         1           Gd  tau(   1) = (   0.8357715   0.7342939   0.6548225  )
         2           Gd  tau(   2) = (   0.4216839   0.3704839   0.3303871  )
         3           Zn  tau(   3) = (   0.5041072   0.4428996   0.8263337  )
         4           Zn  tau(   4) = (   0.7418586   0.2938159   0.0000000  )
         5           Zn  tau(   5) = (   0.3868691   0.0795891   0.6933107  )
         6           Zn  tau(   6) = (   0.9290955   0.3877328   0.3457692  )
         7           Zn  tau(   7) = (   0.7533482   0.6618782   0.1588759  )
         8           Zn  tau(   8) = (   0.5041072   0.8714535   0.3457692  )
         9           Zn  tau(   9) = (   0.1287277   0.7313728   0.2918989  )
        10           Zn  tau(  10) = (   0.7533482   0.2333243   0.6394404  )
        11           Zn  tau(  11) = (   0.3283598   0.7170450   0.6394404  )
        12           Zn  tau(  12) = (   0.0643638   0.0565489   0.4926048  )
        13           Zn  tau(  13) = (   0.3868691   0.6978640   0.0000000  )
        14           Zn  tau(  14) = (   0.1257569   0.1104877   0.0985298  )
        15           Zn  tau(  15) = (   0.7418586   0.0335087   0.2918989  )
        16           Zn  tau(  16) = (   0.5000000   0.0000000   0.0000000  )
        17           Zn  tau(  17) = (   1.1316985   0.9942901   0.8866798  )
        18           Zn  tau(  18) = (   0.0643638   0.4958400   0.0000000  )
        19           Zn  tau(  19) = (   1.1287277   0.3734050   0.6933107  )

   Crystallographic axes

     site n.     atom                  positions (cryst. coord.)
         1           Gd  tau(   1) = (  0.6646530  0.6646530  0.6646530  )
         2           Gd  tau(   2) = (  0.3353470  0.3353470  0.3353470  )
         3           Zn  tau(   3) = (  0.3509600  0.3509600  0.8387390  )
         4           Zn  tau(   4) = (  0.7037190  0.2962810  0.0000000  )
         5           Zn  tau(   5) = (  0.2962810 -0.0000000  0.7037190  )
         6           Zn  tau(   6) = (  0.8387390  0.3509600  0.3509600  )
         7           Zn  tau(   7) = (  0.6490400  0.6490400  0.1612610  )
         8           Zn  tau(   8) = (  0.3509600  0.8387390  0.3509600  )
         9           Zn  tau(   9) = (  0.0000000  0.7037190  0.2962810  )
        10           Zn  tau(  10) = (  0.6490400  0.1612610  0.6490400  )
        11           Zn  tau(  11) = (  0.1612610  0.6490400  0.6490400  )
        12           Zn  tau(  12) = ( -0.0000000 -0.0000000  0.5000000  )
        13           Zn  tau(  13) = (  0.2962810  0.7037190  0.0000000  )
        14           Zn  tau(  14) = (  0.1000090  0.1000090  0.1000090  )
        15           Zn  tau(  15) = (  0.7037190  0.0000000  0.2962810  )
        16           Zn  tau(  16) = (  0.5000000  0.0000000  0.0000000  )
        17           Zn  tau(  17) = (  0.8999910  0.8999910  0.8999910  )
        18           Zn  tau(  18) = ( -0.0000000  0.5000000  0.0000000  )
        19           Zn  tau(  19) = (  1.0000000  0.2962810  0.7037190  )

     number of k points=     1  Methfessel-Paxton smearing, width (Ry)=  0.0010
                       cart. coord. in units 2pi/alat
        k(    1) = (   0.0000000   0.0000000   0.0000000), wk =   2.0000000

                       cryst. coord.
        k(    1) = (   0.0000000   0.0000000   0.0000000), wk =   2.0000000

     Initial potential from superposition of free atoms

     starting charge     375.9873, renormalised to     376.0000
     Starting wfcs are  285 randomized atomic wfcs
     Checking if some PAW data can be deallocated...

     Self-consistent Calculation

     iteration #  1     ecut=    30.00 Ry     beta= 0.70
     Davidson diagonalization with overlap

     ethr =  1.00E-02,  avg # of iterations =  2.0

     total energy              =   -9143.65030651 Ry
     estimated scf accuracy    <      61.36875833 Ry

[...]

     ethr =  1.00E-02,  avg # of iterations =  2.0
     Minimization algorithm failed to find Fermi energy: reverting to bisection
     Possible cause: smearing is larger than the electronic band-gap.

[...]

     ethr =  1.43E-06,  avg # of iterations =  2.0
     Minimization algorithm failed to find Fermi energy: reverting to bisection
     Possible cause: smearing is larger than the electronic band-gap.

[...]

     total energy              =   -9213.08289261 Ry
     estimated scf accuracy    <       0.00000135 Ry

     iteration # 92     ecut=    30.00 Ry     beta= 0.70
     Davidson diagonalization with overlap

     ethr =  3.58E-10,  avg # of iterations =  2.0

     End of self-consistent calculation

          k = 0.0000 0.0000 0.0000 (  2906 PWs)   bands (ev):

  -112.9368-112.9354-112.9350-112.9349-112.9346-112.9346-112.7978-112.7964
  -112.7959-112.6474-112.6473-112.4992-112.4991-112.4988-112.4982-112.4980
  -112.4979 -67.0754 -67.0681 -67.0679 -67.0563 -67.0561 -67.0438 -67.0291
   -67.0289 -67.0279 -67.0213 -67.0198 -67.0196 -66.9940 -66.9848 -66.9844
   -66.9842 -66.9779 -66.9777 -66.9455 -66.9451 -66.9413 -66.8713 -66.8703
   -66.8699 -66.8336 -66.8282 -66.8277 -66.7510 -66.7431 -66.7299 -66.7298
   -66.7263 -66.7262 -66.6128 -66.6121 -66.6111 -66.6110 -66.6073 -66.6072
   -66.5903 -66.5903 -66.5878 -66.5814 -66.5814 -66.5801 -66.5577 -66.5524
   -66.5523 -66.5522 -66.5483 -66.5483 -29.1931 -29.1920  -7.1759  -7.1445
    -7.1443  -7.1399  -7.1386  -7.1384   3.7813   5.3583   5.4844   5.4844
     5.6678   5.6678   5.6970   5.6971   5.7364   5.7451   5.7451   5.8123
     5.8129   5.8692   5.8692   5.8777   5.8947   5.9105   5.9106   5.9372
     6.0271   6.0469   6.0470   6.0903   6.0903   6.1154   6.1155   6.1770
     6.1771   6.1834   6.1948   6.1949   6.2015   6.2015   6.2314   6.2315
     6.2435   6.2904   6.2941   6.2941   6.3162   6.4266   6.4282   6.4283
     6.4574   6.4665   6.4666   6.4750   6.4751   6.4819   6.4870   6.5480
     6.5482   6.5975   6.5976   6.6096   6.6422   6.6498   6.6498   6.6609
     6.6785   6.7044   6.7044   6.7390   6.7391   6.7790   6.7790   6.8045
     6.8408   6.8408   6.8743   6.8743   6.8755   6.8755   6.9273   6.9485
     6.9507   6.9638   6.9875   6.9876   7.0237   7.0238   7.0441   7.0453
     7.1010   7.1011   7.5901   7.5902   7.8426   7.8427   8.8701   9.0052
    10.1181  10.1182  10.5938  10.5939  10.7127  11.6513  11.8497  11.8498
    11.9352  12.3989  12.5085  12.5829  12.5833  12.7083  12.7840  12.8046
    12.8083  12.8112  12.8686  12.8715  12.9404  13.0809  13.1488  13.1504
    13.1645  13.1879  13.1894  14.7517  14.7518  15.0820  15.5616  15.5616
    16.4146  16.4147  16.4624  16.7451  17.0996  17.0997  17.9675  17.9676
    17.9948  18.7218  19.1425  19.3596  19.3597  19.4519  19.5250  19.5757
    19.5758  19.7420  19.7420  19.9162  19.9163  20.0408  21.1579  21.1579
    21.3308  21.3308

     occupation numbers
     1.0000   1.0000   1.0000   1.0000   1.0000   1.0000   1.0000   1.0000
     1.0000   1.0000   1.0000   1.0000   1.0000   1.0000   1.0000   1.0000
     1.0000   1.0000   1.0000   1.0000   1.0000   1.0000   1.0000   1.0000
     1.0000   1.0000   1.0000   1.0000   1.0000   1.0000   1.0000   1.0000
     1.0000   1.0000   1.0000   1.0000   1.0000   1.0000   1.0000   1.0000
     1.0000   1.0000   1.0000   1.0000   1.0000   1.0000   1.0000   1.0000
     1.0000   1.0000   1.0000   1.0000   1.0000   1.0000   1.0000   1.0000
     1.0000   1.0000   1.0000   1.0000   1.0000   1.0000   1.0000   1.0000
     1.0000   1.0000   1.0000   1.0000   1.0000   1.0000   1.0000   1.0000
     1.0000   1.0000   1.0000   1.0000   1.0000   1.0000   1.0000   1.0000
     1.0000   1.0000   1.0000   1.0000   1.0000   1.0000   1.0000   1.0000
     1.0000   1.0000   1.0000   1.0000   1.0000   1.0000   1.0000   1.0000
     1.0000   1.0000   1.0000   1.0000   1.0000   1.0000   1.0000   1.0000
     1.0000   1.0000   1.0000   1.0000   1.0000   1.0000   1.0000   1.0000
     1.0000   1.0000   1.0000   1.0000   1.0000   1.0000   1.0000   1.0000
     1.0000   1.0000   1.0000   1.0000   1.0000   1.0000   1.0000   1.0000
     1.0000   1.0000   1.0000   1.0000   1.0000   1.0000   1.0000   1.0000
     1.0000   1.0000   1.0000   1.0000   1.0000   1.0000   1.0000   1.0000
     1.0000   1.0000   1.0000   1.0000   1.0000   1.0000   1.0000   1.0000
     1.0000   1.0000   1.0000   1.0000   1.0000   1.0000   1.0000   1.0000
     1.0000   1.0000   1.0000   1.0000   1.0000   1.0000   1.0000   1.0000
     1.0000   1.0000   1.0000   1.0000   1.0000   1.0000   1.0000   1.0000
     1.0000   1.0000   1.0000   1.0000   1.0000   1.0000   1.0000   1.0000
     1.0000   1.0000   1.0003   1.0009  -0.0012  -0.0000  -0.0000  -0.0000
    -0.0000  -0.0000  -0.0000  -0.0000  -0.0000  -0.0000  -0.0000  -0.0000
    -0.0000  -0.0000  -0.0000  -0.0000  -0.0000  -0.0000  -0.0000  -0.0000
    -0.0000  -0.0000  -0.0000  -0.0000  -0.0000  -0.0000  -0.0000  -0.0000
    -0.0000  -0.0000  -0.0000  -0.0000  -0.0000  -0.0000  -0.0000  -0.0000
    -0.0000  -0.0000

     the Fermi energy is    12.9064 ev

!    total energy              =   -9213.08289185 Ry
     estimated scf accuracy    <       0.00000087 Ry
     smearing contrib. (-TS)   =       0.00001276 Ry
     internal energy E=F+TS    =   -9213.08290461 Ry

     The total energy is F=E-TS. E is the sum of the following terms:
     one-electron contribution =   -6643.22953691 Ry
     hartree contribution      =    3476.98638612 Ry
     xc contribution           =    -762.04521873 Ry
     ewald contribution        =   -4353.07594501 Ry
     one-center paw contrib.   =    -931.71859007 Ry
      -> PAW hartree energy AE =     367.51859962 Ry
      -> PAW hartree energy PS =    -348.30998516 Ry
      -> PAW xc energy AE      =    -993.67193339 Ry
      -> PAW xc energy PS      =      42.74472886 Ry
      -> total E_H with PAW    =    3496.19500058 Ry
      -> total E_XC with PAW   =   -1712.97242326 Ry

     convergence has been achieved in  92 iterations

     Forces acting on atoms (cartesian axes, Ry/au):

     atom    1 type  1   force =     0.00493869    0.00442029    0.00406015
     atom    2 type  1   force =    -0.00493869   -0.00442029   -0.00406015
     atom    3 type  2   force =    -0.00091487   -0.00099468    0.00728317
     atom    4 type  2   force =     0.00335961   -0.00237082    0.00030929
     atom    5 type  2   force =    -0.00199743    0.00048103    0.00357729
     atom    6 type  2   force =     0.00698846   -0.00186766   -0.00191011
     atom    7 type  2   force =     0.00091487    0.00099468   -0.00728317
     atom    8 type  2   force =    -0.00125813    0.00717346   -0.00146853
     atom    9 type  2   force =     0.00034595    0.00334505   -0.00235726
     atom   10 type  2   force =     0.00125813   -0.00717346    0.00146853
     atom   11 type  2   force =    -0.00698846    0.00186766    0.00191011
     atom   12 type  2   force =     0.00000000    0.00000000    0.00000000
     atom   13 type  2   force =    -0.00335961    0.00237082   -0.00030929
     atom   14 type  2   force =    -0.00606579   -0.00526165   -0.00462536
     atom   15 type  2   force =     0.00199743   -0.00048103   -0.00357729
     atom   16 type  2   force =     0.00000000    0.00000000    0.00000000
     atom   17 type  2   force =     0.00606579    0.00526165    0.00462536
     atom   18 type  2   force =     0.00000000    0.00000000    0.00000000
     atom   19 type  2   force =    -0.00034595   -0.00334505    0.00235726
     The non-local contrib.  to forces
     atom    1 type  1   force =     0.02215747    0.01961228    0.01783520
     atom    2 type  1   force =    -0.02215747   -0.01961228   -0.01783520
     atom    3 type  2   force =    -0.10958835   -0.10024322    0.03032479
     atom    4 type  2   force =     0.08654416   -0.11305058   -0.00700788
     atom    5 type  2   force =    -0.10111642    0.00386813    0.10040703
     atom    6 type  2   force =     0.00448739   -0.11104193   -0.10349791
     atom    7 type  2   force =     0.10958835    0.10024322   -0.03032479
     atom    8 type  2   force =    -0.11388842    0.01913247   -0.09812738
     atom    9 type  2   force =    -0.00891606    0.08830541   -0.11154326
     atom   10 type  2   force =     0.11388842   -0.01913247    0.09812738
     atom   11 type  2   force =    -0.00448739    0.11104193    0.10349791
     atom   12 type  2   force =     0.00000000    0.00000000    0.00000000
     atom   13 type  2   force =    -0.08654416    0.11305058    0.00700788
     atom   14 type  2   force =    -0.08570021   -0.07459406   -0.06662495
     atom   15 type  2   force =     0.10111642   -0.00386813   -0.10040703
     atom   16 type  2   force =     0.00000000    0.00000000    0.00000000
     atom   17 type  2   force =     0.08570021    0.07459406    0.06662495
     atom   18 type  2   force =     0.00000000    0.00000000    0.00000000
     atom   19 type  2   force =     0.00891606   -0.08830541    0.11154326
     The ionic contribution  to forces
     atom    1 type  1   force =    -7.37628450   -6.48067180   -5.77927869
     atom    2 type  1   force =     7.37628450    6.48067180    5.77927869
     atom    3 type  2   force =    15.14769078   13.30849054   -9.90290366
     atom    4 type  2   force =   -15.77288879   17.95266272   -0.00000000
     atom    5 type  2   force =    15.77288784   -2.04744075  -17.83552726
     atom    6 type  2   force =    -6.30134850   16.09274115   14.35105073
     atom    7 type  2   force =   -15.14769078  -13.30849054    9.90290366
     atom    8 type  2   force =    15.14769124   -8.32050243   14.35105073
     atom    9 type  2   force =    -0.00000130  -15.90521940   17.83552726
     atom   10 type  2   force =   -15.14769124    8.32050244  -14.35105073
     atom   11 type  2   force =     6.30134850  -16.09274115  -14.35105073
     atom   12 type  2   force =     0.00000000   -0.00000000   -0.00000000
     atom   13 type  2   force =    15.77288879  -17.95266272   -0.00000000
     atom   14 type  2   force =     9.75234450    8.56823568    7.64090901
     atom   15 type  2   force =   -15.77288784    2.04744075   17.83552725
     atom   16 type  2   force =     0.00000000    0.00000000   -0.00000000
     atom   17 type  2   force =    -9.75234450   -8.56823567   -7.64090901
     atom   18 type  2   force =    -0.00000000   -0.00000000   -0.00000000
     atom   19 type  2   force =     0.00000130   15.90521940  -17.83552726
     The local contribution  to forces
     atom    1 type  1   force =     7.35920487    6.46515910    5.76542084
     atom    2 type  1   force =    -7.35910097   -6.46572133   -5.76514010
     atom    3 type  2   force =   -15.03912063  -13.20976118    9.87987704
     atom    4 type  2   force =    15.68977432  -17.84242276    0.00691794
     atom    5 type  2   force =   -15.67391243    2.04464530   17.73897059
     atom    6 type  2   force =     6.30383354  -15.98382647  -14.24949590
     atom    7 type  2   force =    15.03909771   13.20947205   -9.88001585
     atom    8 type  2   force =   -15.03519446    8.30878193  -14.25473364
     atom    9 type  2   force =     0.00934680   15.82036033  -17.72664370
     atom   10 type  2   force =    15.03502390   -8.30841318   14.25484216
     atom   11 type  2   force =    -6.30381189   15.98341095   14.24972268
     atom   12 type  2   force =     0.00001359    0.00024458    0.00008590
     atom   13 type  2   force =   -15.68999421   17.84220495   -0.00714992
     atom   14 type  2   force =    -9.67273622   -8.49895855   -7.57936510
     atom   15 type  2   force =    15.67390823   -2.04401757  -17.73896018
     atom   16 type  2   force =    -0.00003318    0.00039642   -0.00017385
     atom   17 type  2   force =     9.67287033    8.49937149    7.57909943
     atom   18 type  2   force =     0.00011589   -0.00023182   -0.00016201
     atom   19 type  2   force =    -0.00914613  -15.82046148   17.72666117
     The core correction contribution to forces
     atom    1 type  1   force =    -0.00000095   -0.00000084   -0.00000075
     atom    2 type  1   force =     0.00000096    0.00000082    0.00000076
     atom    3 type  2   force =     0.00000000    0.00000000    0.00000000
     atom    4 type  2   force =     0.00000000    0.00000000    0.00000000
     atom    5 type  2   force =     0.00000000    0.00000000    0.00000000
     atom    6 type  2   force =     0.00000000    0.00000000    0.00000000
     atom    7 type  2   force =     0.00000000    0.00000000    0.00000000
     atom    8 type  2   force =     0.00000000    0.00000000    0.00000000
     atom    9 type  2   force =     0.00000000    0.00000000    0.00000000
     atom   10 type  2   force =     0.00000000    0.00000000    0.00000000
     atom   11 type  2   force =     0.00000000    0.00000000    0.00000000
     atom   12 type  2   force =     0.00000000    0.00000000    0.00000000
     atom   13 type  2   force =     0.00000000    0.00000000    0.00000000
     atom   14 type  2   force =     0.00000000    0.00000000    0.00000000
     atom   15 type  2   force =     0.00000000    0.00000000    0.00000000
     atom   16 type  2   force =     0.00000000    0.00000000    0.00000000
     atom   17 type  2   force =     0.00000000    0.00000000    0.00000000
     atom   18 type  2   force =     0.00000000    0.00000000    0.00000000
     atom   19 type  2   force =     0.00000000    0.00000000    0.00000000
     The Hubbard contrib.    to forces
     atom    1 type  1   force =     0.00000000    0.00000000    0.00000000
     atom    2 type  1   force =     0.00000000    0.00000000    0.00000000
     atom    3 type  2   force =     0.00000000    0.00000000    0.00000000
     atom    4 type  2   force =     0.00000000    0.00000000    0.00000000
     atom    5 type  2   force =     0.00000000    0.00000000    0.00000000
     atom    6 type  2   force =     0.00000000    0.00000000    0.00000000
     atom    7 type  2   force =     0.00000000    0.00000000    0.00000000
     atom    8 type  2   force =     0.00000000    0.00000000    0.00000000
     atom    9 type  2   force =     0.00000000    0.00000000    0.00000000
     atom   10 type  2   force =     0.00000000    0.00000000    0.00000000
     atom   11 type  2   force =     0.00000000    0.00000000    0.00000000
     atom   12 type  2   force =     0.00000000    0.00000000    0.00000000
     atom   13 type  2   force =     0.00000000    0.00000000    0.00000000
     atom   14 type  2   force =     0.00000000    0.00000000    0.00000000
     atom   15 type  2   force =     0.00000000    0.00000000    0.00000000
     atom   16 type  2   force =     0.00000000    0.00000000    0.00000000
     atom   17 type  2   force =     0.00000000    0.00000000    0.00000000
     atom   18 type  2   force =     0.00000000    0.00000000    0.00000000
     atom   19 type  2   force =     0.00000000    0.00000000    0.00000000
     The SCF correction term to forces
     atom    1 type  1   force =    -0.00013024    0.00029399    0.00008933
     atom    2 type  1   force =     0.00004225    0.00021313   -0.00035852
     atom    3 type  2   force =     0.00009676    0.00054189    0.00000078
     atom    4 type  2   force =    -0.00006024    0.00045346    0.00043398
     atom    5 type  2   force =     0.00013872   -0.00063388   -0.00027934
     atom    6 type  2   force =     0.00001935    0.00028844    0.00000527
     atom    7 type  2   force =    -0.00008696   -0.00020734    0.00016962
     atom    8 type  2   force =     0.00013743   -0.00026276    0.00032434
     atom    9 type  2   force =    -0.00008341   -0.00010062    0.00029250
     atom   10 type  2   force =     0.00004098   -0.00015450   -0.00046770
     atom   11 type  2   force =    -0.00003434    0.00018478   -0.00028745
     atom   12 type  2   force =    -0.00000480   -0.00027783   -0.00011180
     atom   13 type  2   force =     0.00029981   -0.00020832   -0.00013250
     atom   14 type  2   force =     0.00002488    0.00002675    0.00048481
     atom   15 type  2   force =    -0.00014424   -0.00007833    0.00025639
     atom   16 type  2   force =     0.00003330   -0.00045001    0.00020957
     atom   17 type  2   force =    -0.00016152   -0.00049675   -0.00016089
     atom   18 type  2   force =    -0.00011784    0.00026788    0.00019762
     atom   19 type  2   force =    -0.00011709    0.00020310   -0.00032987

     Total force =     0.026952     Total SCF correction =     0.001927

     Computing stress (Cartesian axis) and pressure

          total   stress  (Ry/bohr**3)                   (kbar)     P=     -586.06
  -0.00395309   0.00013603   0.00012088         -581.52       20.01       17.78
   0.00013603  -0.00398579   0.00010577           20.01     -586.33       15.56
   0.00012088   0.00010577  -0.00401292           17.78       15.56     -590.32

     kinetic stress (kbar)  34317.67     18.34     16.37
                               18.34  34312.98     14.39
                               16.37     14.39  34309.52

     local   stress (kbar)   3116.74  -4373.38  -3900.10
                            -4373.38   4251.09  -3425.76
                            -3900.10  -3425.76   5038.87

     nonloc. stress (kbar)  -1349.27     13.06     11.59
                               13.06  -1351.42      9.59
                               11.59      9.59  -1354.75

     hartree stress (kbar)  81992.05   2102.70   1875.14
                             2102.70  81446.27   1647.20
                             1875.14   1647.20  81067.69

     exc-cor stress (kbar) -17146.17      0.15      0.13
                                0.15 -17146.21      0.11
                                0.13      0.11 -17146.24

     corecor stress (kbar)     -1.09      0.00      0.00
                                0.00     -1.09      0.00
                                0.00      0.00     -1.09

     ewald   stress (kbar)-101511.44   2259.14   2014.64
                             2259.14-102097.95   1770.03
                             2014.64   1770.03-102504.32

     hubbard stress (kbar)      0.00      0.00      0.00
                                0.00      0.00      0.00
                                0.00      0.00      0.00

     DFT-D   stress (kbar)      0.00      0.00      0.00
                                0.00      0.00      0.00
                                0.00      0.00      0.00

     XDM     stress (kbar)      0.00      0.00      0.00
                                0.00      0.00      0.00
                                0.00      0.00      0.00

     dft-nl  stress (kbar)      0.00      0.00      0.00
                                0.00      0.00      0.00
                                0.00      0.00      0.00

     TS-vdW  stress (kbar)      0.00      0.00      0.00
                                0.00      0.00      0.00
                                0.00      0.00      0.00

[...]

                                0.00      0.00      0.00

     Writing all to output data dir new_calculations/myprefix.save/

     General routines

     Parallel routines

     PAW routines

   This run was terminated on:  16:38:23  20May2023

   JOB DONE.