     Program PWSCF v.7.0 starts on 20May2023 at 15:27:53

     Reading input from espresso_6396.pwi
Warning: card &CELL ignored
Warning: card / ignored

     Current dimensions of program PWSCF are:
     Max number of different atomic species (ntypx) = 10
     Max number of k-points (npk) =  40000
     Max angular momentum in pseudopotentials (lmaxx) =  4
     file Mg.pbe-n-kjpaw_psl.0.3.0.UPF: wavefunction(s)  3S renormalized

     gamma-point specific algorithms are used
     Message from routine setup:
     using ibrav=0 with symmetry is DISCOURAGED, use correct ibrav instead

     Subspace diagonalization in iterative solution of the eigenvalue problem:
     a serial algorithm will be used

     Using Slab Decomposition

     bravais-lattice index     =            0
     lattice parameter (alat)  =      10.6280  a.u.
     unit-cell volume          =     848.8561 (a.u.)^3
     number of atoms/cell      =            4
     number of atomic types    =            3
     number of electrons       =        37.00
     number of Kohn-Sham states=           23
     kinetic-energy cutoff     =      30.0000  Ry
     charge density cutoff     =     240.0000  Ry
     scf convergence threshold =      1.0E-06
     mixing beta               =       0.7000
     number of iterations used =            8  plain     mixing
     Exchange-correlation= SLA  PW   PBE  PBE
                           (   1   4   3   4   0   0   0)

     celldm(1)=  10.627955  celldm(2)=   0.000000  celldm(3)=   0.000000
     celldm(4)=   0.000000  celldm(5)=   0.000000  celldm(6)=   0.000000

     crystal axes: (cart. coord. in units of alat)
               a(1) = (   1.000000   0.000000   0.000000 )
               a(2) = (   0.500000   0.866025   0.000000 )
               a(3) = (   0.500000   0.288675   0.816497 )

     reciprocal axes: (cart. coord. in units 2 pi/alat)
               b(1) = (  1.000000 -0.577350 -0.408248 )
               b(2) = (  0.000000  1.154701 -0.408248 )
               b(3) = (  0.000000  0.000000  1.224745 )

     PseudoPot. # 1 for La read from file:
     /home/pragov/projects/rrg-bengioy-ad/pragov/crystal_structure_design/SSSP/La.GGA-PBE-paw-v1.0.UPF
     MD5 check sum: 436541e95c1ad8901025bd0b0ed42ae2
     Pseudo is Projector augmented-wave + core cor, Zval = 11.0
     Generated using ATOMPAW code
     Shape of augmentation charge: BESSEL
     Using radial grid of 1101 points,  8 beta functions with:
                l(1) =   0
                l(2) =   0
                l(3) =   1
                l(4) =   1
                l(5) =   2
                l(6) =   2
                l(7) =   3
                l(8) =   3
     Q(r) pseudized with 0 coefficients

     PseudoPot. # 2 for Mg read from file:
     /home/pragov/projects/rrg-bengioy-ad/pragov/crystal_structure_design/SSSP/Mg.pbe-n-kjpaw_psl.0.3.0.UPF
     MD5 check sum: 24ecedc7f3e3cbe212e682f4413594e4
     Pseudo is Projector augmented-wave + core cor, Zval =  2.0
     Generated using "atomic" code by A. Dal Corso  v.5.0.99 svn rev. 10869
     Shape of augmentation charge: PSQ
     Using radial grid of 1129 points,  4 beta functions with:
                l(1) =   0
                l(2) =   0
                l(3) =   1
                l(4) =   1
     Q(r) pseudized with 0 coefficients

     PseudoPot. # 3 for Tl read from file:
     /home/pragov/projects/rrg-bengioy-ad/pragov/crystal_structure_design/SSSP/Tl_pbe_v1.2.uspp.F.UPF
     MD5 check sum: b76cf1f7e72655a2b2c53cf6385d7059
     Pseudo is Ultrasoft + core correction, Zval = 13.0
     Generated by new atomic code, or converted to UPF format
     Using radial grid of  899 points,  6 beta functions with:
                l(1) =   0
                l(2) =   0
                l(3) =   1
                l(4) =   1
                l(5) =   2
                l(6) =   2
     Q(r) pseudized with  6 coefficients,  rinner =    1.100   1.100   1.100
                                                       1.100   1.100

     atomic species   valence    mass     pseudopotential
        La            11.00   138.90547     La( 1.00)
        Mg             2.00    24.30500     Mg( 1.00)
        Tl            13.00   204.38000     Tl( 1.00)

     12 Sym. Ops., with inversion, found

                                    s                        frac. trans.

      isym =  1     identity

 cryst.   s( 1) = (     1          0          0      )
                  (     0          1          0      )
                  (     0          0          1      )

 cart.    s( 1) = (  1.0000000  0.0000000  0.0000000 )
                  (  0.0000000  1.0000000 -0.0000000 )
                  (  0.0000000  0.0000000  1.0000000 )

      isym =  2     180 deg rotation - cart. axis [1,0,0]

[...]

      isym =  3     120 deg rotation - cryst. axis [0,0,1]

[...]

      isym =  6     180 deg rotation - cryst. axis [1,1,0]

[...]

      isym =  7     inversion

[...]

      isym =  8     inv. 180 deg rotation - cart. axis [1,0,0]

[...]

      isym =  9     inv. 120 deg rotation - cryst. axis [0,0,1]

 cryst.   s( 9) = (     1         -1          0      )
                  (     1          0          0      )
                  (     1          0         -1      )

 cart.    s( 9) = (  0.5000000  0.8660254  0.0000000 )
                  ( -0.8660254  0.5000000  0.0000000 )
                  (  0.0000000  0.0000000 -1.0000000 )

[...]

 cryst.   s(10) = (     0          1          0      )
                  (    -1          1          0      )
                  (     0          1         -1      )

 cart.    s(10) = (  0.5000000 -0.8660254 -0.0000000 )
                  (  0.8660254  0.5000000  0.0000000 )
                  (  0.0000000  0.0000000 -1.0000000 )

[...]

      isym = 12     inv. 180 deg rotation - cryst. axis [1,1,0]

 cryst.   s(12) = (     1         -1          0      )
                  (     0         -1          0      )
                  (     0         -1          1      )

 cart.    s(12) = (  0.5000000 -0.8660254 -0.0000000 )
                  ( -0.8660254 -0.5000000 -0.0000000 )
                  (  0.0000000  0.0000000  1.0000000 )

   Cartesian axes

     site n.     atom                  positions (alat units)
         1           La  tau(   1) = (   0.5000000   0.2886751   0.2041241  )
         2           La  tau(   2) = (   1.5000000   0.8660254   0.6123724  )
         3           Mg  tau(   3) = (   1.0000000   0.5773503   0.4082483  )
         4           Tl  tau(   4) = (   0.0000000   0.0000000   0.0000000  )

   Crystallographic axes

     site n.     atom                  positions (cryst. coord.)
         1           La  tau(   1) = (  0.2500000  0.2500000  0.2500000  )
         2           La  tau(   2) = (  0.7500000  0.7500000  0.7500000  )
         3           Mg  tau(   3) = (  0.5000000  0.5000000  0.5000000  )
         4           Tl  tau(   4) = (  0.0000000  0.0000000  0.0000000  )

     number of k points=     1  Methfessel-Paxton smearing, width (Ry)=  0.0010
                       cart. coord. in units 2pi/alat
        k(    1) = (   0.0000000   0.0000000   0.0000000), wk =   2.0000000

                       cryst. coord.
        k(    1) = (   0.0000000   0.0000000   0.0000000), wk =   2.0000000

     Check: negative core charge=   -0.000003

     Initial potential from superposition of free atoms

     starting charge      36.9772, renormalised to      37.0000

     negative rho (up, down):  5.000E-02 0.000E+00
     Starting wfcs are   77 randomized atomic wfcs
     Checking if some PAW data can be deallocated...

     Self-consistent Calculation

     iteration #  1     ecut=    30.00 Ry     beta= 0.70
     Davidson diagonalization with overlap

     ethr =  1.00E-02,  avg # of iterations =  1.0

     Threshold (ethr) on eigenvalues was too large:
     Diagonalizing with lowered threshold

     Davidson diagonalization with overlap

[...]

     negative rho (up, down):  4.972E-02 0.000E+00

     total energy              =   -1095.42856465 Ry
     estimated scf accuracy    <       0.03393037 Ry

[...]

     total energy              =   -1095.43792195 Ry
     estimated scf accuracy    <       0.00000101 Ry

     iteration # 24     ecut=    30.00 Ry     beta= 0.70
     Davidson diagonalization with overlap

     ethr =  2.73E-09,  avg # of iterations =  2.0

[...]

     End of self-consistent calculation

          k = 0.0000 0.0000 0.0000 (  1199 PWs)   bands (ev):

   -23.5486 -23.4533  -7.3559  -7.3559  -7.3558  -7.0069  -7.0068  -7.0068
    -1.3185  -1.3184  -1.3183  -1.3145  -1.3144   2.7239   7.6936   7.6936
     7.6937   8.0825   9.2371   9.2371  10.9007  10.9008  10.9009

     occupation numbers
     1.0000   1.0000   1.0000   1.0000   1.0000   1.0000   1.0000   1.0000
     1.0000   1.0000   1.0000   1.0000   1.0000   1.0000   1.0000   1.0000
     1.0000   1.0000   0.2506   0.2494  -0.0000  -0.0000  -0.0000

     the Fermi energy is     9.2329 ev

!    total energy              =   -1095.43792199 Ry
     estimated scf accuracy    <       0.00000009 Ry
     smearing contrib. (-TS)   =      -0.00041261 Ry
     internal energy E=F+TS    =   -1095.43750938 Ry

     The total energy is F=E-TS. E is the sum of the following terms:
     one-electron contribution =     -51.45710925 Ry
     hartree contribution      =      47.61225527 Ry
     xc contribution           =     -81.11795321 Ry
     ewald contribution        =    -183.12314054 Ry
     one-center paw contrib.   =    -827.35156165 Ry
      -> PAW hartree energy AE =      70.60919310 Ry
      -> PAW hartree energy PS =     -70.66717679 Ry
      -> PAW xc energy AE      =    -843.25539724 Ry
      -> PAW xc energy PS      =      15.96181928 Ry
      -> total E_H with PAW    =      47.55427158 Ry
      -> total E_XC with PAW   =    -908.41153117 Ry

     convergence has been achieved in  24 iterations

     negative rho (up, down):  5.074E-02 0.000E+00

     Forces acting on atoms (cartesian axes, Ry/au):

     atom    1 type  1   force =     0.00000000   -0.00000000    0.00019067
     atom    2 type  1   force =    -0.00000000    0.00000000   -0.00019067
     atom    3 type  2   force =     0.00000000   -0.00000000   -0.00000000
     atom    4 type  3   force =     0.00000000   -0.00000000   -0.00000000
     The non-local contrib.  to forces
     atom    1 type  1   force =     0.00000000    0.00000000   -0.00011113
     atom    2 type  1   force =     0.00000000    0.00000000    0.00011113
     atom    3 type  2   force =    -0.00000000    0.00000000    0.00000000
     atom    4 type  3   force =     0.00000000    0.00000000    0.00000000
     The ionic contribution  to forces
     atom    1 type  1   force =     0.00000000    0.00000000    0.00000000
     atom    2 type  1   force =     0.00000000   -0.00000000   -0.00000000
     atom    3 type  2   force =     0.00000000    0.00000000   -0.00000000
     atom    4 type  3   force =    -0.00000000    0.00000000    0.00000000
     The local contribution  to forces
     atom    1 type  1   force =    -0.00003832    0.00007872    0.00026176
     atom    2 type  1   force =    -0.00014239    0.00027169   -0.00020639
     atom    3 type  2   force =     0.00001681   -0.00000733   -0.00000730
     atom    4 type  3   force =    -0.00006336    0.00015033    0.00009790
     The core correction contribution to forces
     atom    1 type  1   force =    -0.00000008    0.00000008    0.00000017
     atom    2 type  1   force =    -0.00000007    0.00000014   -0.00000013
     atom    3 type  2   force =     0.00000141   -0.00000062   -0.00000065
     atom    4 type  3   force =     0.00000649    0.00000468    0.00000244
     The Hubbard contrib.    to forces
     atom    1 type  1   force =     0.00000000    0.00000000    0.00000000
     atom    2 type  1   force =     0.00000000    0.00000000    0.00000000
     atom    3 type  2   force =     0.00000000    0.00000000    0.00000000
     atom    4 type  3   force =     0.00000000    0.00000000    0.00000000
     The SCF correction term to forces
     atom    1 type  1   force =     0.00000886   -0.00004390    0.00006767
     atom    2 type  1   force =    -0.00008448   -0.00002759   -0.00006748
     atom    3 type  2   force =     0.00000452   -0.00000228   -0.00000132
     atom    4 type  3   force =     0.00009128   -0.00003534   -0.00004388

     Total force =     0.000270     Total SCF correction =     0.000175
     SCF correction compared to forces is large: reduce conv_thr to get better values

     Computing stress (Cartesian axis) and pressure

     negative rho (up, down):  5.074E-02 0.000E+00
          total   stress  (Ry/bohr**3)                   (kbar)     P=     -109.21
  -0.00074243   0.00000000  -0.00000000         -109.22        0.00       -0.00
   0.00000000  -0.00074243  -0.00000000            0.00     -109.22       -0.00
   0.00000000  -0.00000000  -0.00074240            0.00       -0.00     -109.21

     kinetic stress (kbar)   5681.10     -0.00     -0.00
                               -0.00   5681.10      0.00
                               -0.00      0.00   5681.12

     local   stress (kbar)  -1868.70     -0.23      0.41
                               -0.23  -1869.02     -0.24
                                0.41     -0.24  -1868.91

     nonloc. stress (kbar)   6358.63     -0.00     -0.00
                               -0.00   6358.63      0.00
                               -0.00      0.00   6358.61

     hartree stress (kbar)   2750.30      0.07     -0.12
                                0.07   2750.40      0.07
                               -0.12      0.07   2750.41

     exc-cor stress (kbar)   6079.51      0.00     -0.00
                                0.00   6079.52      0.00
                               -0.00      0.00   6079.51

     corecor stress (kbar)  -8531.65     -0.00      0.00
                               -0.00  -8531.65     -0.00
                                0.00     -0.00  -8531.65

     ewald   stress (kbar) -10578.29     -0.00      0.00
                               -0.00 -10578.29      0.00
                                0.00      0.00 -10578.29

     hubbard stress (kbar)      0.00      0.00      0.00
                                0.00      0.00      0.00
                                0.00      0.00      0.00

     DFT-D   stress (kbar)      0.00      0.00      0.00
                                0.00      0.00      0.00
                                0.00      0.00      0.00

     XDM     stress (kbar)      0.00      0.00      0.00
                                0.00      0.00      0.00
                                0.00      0.00      0.00

     dft-nl  stress (kbar)      0.00      0.00      0.00
                                0.00      0.00      0.00
                                0.00      0.00      0.00

     TS-vdW  stress (kbar)      0.00      0.00      0.00
                                0.00      0.00      0.00
                                0.00      0.00      0.00

[...]

                                0.00      0.00      0.00

     Writing all to output data dir new_calculations/myprefix.save/

     General routines

     Parallel routines

     PAW routines

   This run was terminated on:  15:28:37  20May2023

   JOB DONE.