     Program PWSCF v.7.0 starts on 20May2023 at 17: 2: 4

     Reading input from espresso_13551.pwi
Warning: card &CELL ignored
Warning: card / ignored

     Current dimensions of program PWSCF are:
     Max number of different atomic species (ntypx) = 10
     Max number of k-points (npk) =  40000
     Max angular momentum in pseudopotentials (lmaxx) =  4
     file Mg.pbe-n-kjpaw_psl.0.3.0.UPF: wavefunction(s)  3S renormalized

     gamma-point specific algorithms are used
     Message from routine setup:
     using ibrav=0 with symmetry is DISCOURAGED, use correct ibrav instead

     Subspace diagonalization in iterative solution of the eigenvalue problem:
     a serial algorithm will be used

     Using Slab Decomposition

     bravais-lattice index     =            0
     lattice parameter (alat)  =       9.8165  a.u.
     unit-cell volume          =    2072.3608 (a.u.)^3
     number of atoms/cell      =           18
     number of atomic types    =            2
     number of electrons       =       132.00
     number of Kohn-Sham states=           79
     kinetic-energy cutoff     =      30.0000  Ry
     charge density cutoff     =     240.0000  Ry
     scf convergence threshold =      1.0E-06
     mixing beta               =       0.7000
     number of iterations used =            8  plain     mixing
     Exchange-correlation=  SLA  PW   PBX  PBC
                           (   1   4   3   4   0   0   0)

     celldm(1)=   9.816523  celldm(2)=   0.000000  celldm(3)=   0.000000
     celldm(4)=   0.000000  celldm(5)=   0.000000  celldm(6)=   0.000000

     crystal axes: (cart. coord. in units of alat)
               a(1) = (   1.000000   0.000000   0.000000 )
               a(2) = (  -0.500000   0.866025   0.000000 )
               a(3) = (   0.000000   0.000000   2.529657 )

     reciprocal axes: (cart. coord. in units 2 pi/alat)
               b(1) = (  1.000000  0.577350  0.000000 )
               b(2) = (  0.000000  1.154701  0.000000 )
               b(3) = (  0.000000  0.000000  0.395310 )

     PseudoPot. # 1 for Mg read from file:
     /home/pragov/projects/rrg-bengioy-ad/pragov/crystal_structure_design/SSSP/Mg.pbe-n-kjpaw_psl.0.3.0.UPF
     MD5 check sum: 24ecedc7f3e3cbe212e682f4413594e4
     Pseudo is Projector augmented-wave + core cor, Zval =  2.0
     Generated using "atomic" code by A. Dal Corso  v.5.0.99 svn rev. 10869
     Shape of augmentation charge: PSQ
     Using radial grid of 1129 points,  4 beta functions with:
                l(1) =   0
                l(2) =   0
                l(3) =   1
                l(4) =   1
     Q(r) pseudized with 0 coefficients

     PseudoPot. # 2 for Ni read from file:
     /home/pragov/projects/rrg-bengioy-ad/pragov/crystal_structure_design/SSSP/ni_pbe_v1.4.uspp.F.UPF
     MD5 check sum: 1ee80287db30b12d2bc1f57a5b5d6409
     Pseudo is Ultrasoft + core correction, Zval = 18.0
     Generated by new atomic code, or converted to UPF format
     Using radial grid of  865 points,  6 beta functions with:
                l(1) =   0
                l(2) =   0
                l(3) =   1
                l(4) =   1
                l(5) =   2
                l(6) =   2
     Q(r) pseudized with 10 coefficients,  rinner =    0.980   0.980   0.980
                                                       0.980   0.980

     atomic species   valence    mass     pseudopotential
        Mg             2.00    24.30500     Mg( 1.00)
        Ni            18.00    58.69340     Ni( 1.00)

     12 Sym. Ops. (no inversion) found ( 8 have fractional translation)

                                    s                        frac. trans.

      isym =  1     identity

 cryst.   s( 1) = (     1          0          0      )
                  (     0          1          0      )
                  (     0          0          1      )

 cart.    s( 1) = (  1.0000000  0.0000000  0.0000000 )
                  (  0.0000000  1.0000000  0.0000000 )
                  (  0.0000000  0.0000000  1.0000000 )

      isym =  2     180 deg rotation - cart. axis [0,0,1]

[...]

      isym =  4     180 deg rotation - cart. axis [1,0,0]

 cryst.   s( 4) = (     1          0          0      )
                  (    -1         -1          0      )
                  (     0          0         -1      )

 cart.    s( 4) = (  1.0000000  0.0000001  0.0000000 )
                  (  0.0000000 -1.0000000  0.0000000 )
                  (  0.0000000  0.0000000 -1.0000000 )

      isym =  5      60 deg rotation - cryst. axis [0,0,1]

 cryst.   s( 5) = (     1          1          0      )    f =(  0.0000000 )
                  (    -1          0          0      )       (  0.0000000 )
                  (     0          0          1      )       ( -0.3333330 )

 cart.    s( 5) = (  0.5000000 -0.8660254  0.0000000 )    f =(  0.0000000 )
                  (  0.8660254  0.5000000  0.0000000 )       (  0.0000000 )
                  (  0.0000000  0.0000000  1.0000000 )       ( -0.8432183 )

[...]

 cryst.   s( 9) = (     0         -1          0      )    f =( -0.0000000 )
                  (    -1          0          0      )       ( -0.0000000 )
                  (     0          0         -1      )       (  0.3333340 )

 cart.    s( 9) = (  0.5000000 -0.8660254  0.0000000 )    f =(  0.0000000 )
                  ( -0.8660254 -0.5000000  0.0000000 )       ( -0.0000000 )
                  (  0.0000000  0.0000000 -1.0000000 )       (  0.8432208 )

[...]

 cryst.   s(10) = (     1          1          0      )    f =(  0.0000000 )
                  (     0         -1          0      )       (  0.0000000 )
                  (     0          0         -1      )       ( -0.3333330 )

 cart.    s(10) = (  0.5000000  0.8660254  0.0000000 )    f =(  0.0000000 )
                  (  0.8660254 -0.5000000  0.0000000 )       (  0.0000000 )
                  (  0.0000000  0.0000000 -1.0000000 )       ( -0.8432183 )

[...]

      isym = 12     180 deg rotation - cryst. axis [1,1,0]

 cryst.   s(12) = (     0          1          0      )    f =(  0.0000000 )
                  (     1          0          0      )       (  0.0000000 )
                  (     0          0         -1      )       (  0.3333340 )

 cart.    s(12) = ( -0.5000000  0.8660254  0.0000000 )    f =( -0.0000000 )
                  (  0.8660254  0.5000000  0.0000000 )       (  0.0000000 )
                  (  0.0000000  0.0000000 -1.0000000 )       (  0.8432208 )

   Cartesian axes

     site n.     atom                  positions (alat units)
         1           Mg  tau(   1) = (   0.5000000   0.0000000   0.2926637  )
         2           Mg  tau(   2) = (   0.2500000   0.4330127   1.1358845  )
         3           Mg  tau(   3) = (  -0.2500000   0.4330127   1.9791028  )
         4           Mg  tau(   4) = (   0.5000000   0.0000000   2.2369937  )
         5           Mg  tau(   5) = (   0.2500000   0.4330127   0.5505546  )
         6           Mg  tau(   6) = (  -0.2500000   0.4330127   1.3937729  )
         7           Mg  tau(   7) = (  -0.0000005   0.2853701   0.0000000  )
         8           Mg  tau(   8) = (   0.7528630   0.1426846   0.8432183  )
         9           Mg  tau(   9) = (   0.2471380   0.1426846   1.6864391  )
        10           Mg  tau(  10) = (   0.2528620   0.7233408   1.6864391  )
        11           Mg  tau(  11) = (  -0.2528630   0.7233408   0.8432183  )
        12           Mg  tau(  12) = (   0.5000005   0.5806553   0.0000000  )
        13           Ni  tau(  13) = (   0.0000000   0.0000000   0.4216104  )
        14           Ni  tau(  14) = (   0.0000000   0.0000000   1.2648287  )
        15           Ni  tau(  15) = (   0.0000000   0.0000000   2.1080470  )
        16           Ni  tau(  16) = (  -0.2500000   0.4330127   0.4216104  )
        17           Ni  tau(  17) = (   0.5000000   0.0000000   1.2648287  )
        18           Ni  tau(  18) = (   0.2500000   0.4330127   2.1080470  )

   Crystallographic axes

     site n.     atom                  positions (cryst. coord.)
         1           Mg  tau(   1) = (  0.5000000  0.0000000  0.1156930  )
         2           Mg  tau(   2) = (  0.5000000  0.5000000  0.4490270  )
         3           Mg  tau(   3) = (  0.0000000  0.5000000  0.7823600  )
         4           Mg  tau(   4) = (  0.5000000  0.0000000  0.8843070  )
         5           Mg  tau(   5) = (  0.5000000  0.5000000  0.2176400  )
         6           Mg  tau(   6) = (  0.0000000  0.5000000  0.5509730  )
         7           Mg  tau(   7) = (  0.1647580  0.3295170  0.0000000  )
         8           Mg  tau(   8) = (  0.8352420  0.1647580  0.3333330  )
         9           Mg  tau(   9) = (  0.3295170  0.1647580  0.6666670  )
        10           Mg  tau(  10) = (  0.6704830  0.8352420  0.6666670  )
        11           Mg  tau(  11) = (  0.1647580  0.8352420  0.3333330  )
        12           Mg  tau(  12) = (  0.8352420  0.6704830  0.0000000  )
        13           Ni  tau(  13) = (  0.0000000  0.0000000  0.1666670  )
        14           Ni  tau(  14) = (  0.0000000  0.0000000  0.5000000  )
        15           Ni  tau(  15) = (  0.0000000  0.0000000  0.8333330  )
        16           Ni  tau(  16) = (  0.0000000  0.5000000  0.1666670  )
        17           Ni  tau(  17) = (  0.5000000  0.0000000  0.5000000  )
        18           Ni  tau(  18) = (  0.5000000  0.5000000  0.8333330  )

     number of k points=     1  Methfessel-Paxton smearing, width (Ry)=  0.0010
                       cart. coord. in units 2pi/alat
        k(    1) = (   0.0000000   0.0000000   0.0000000), wk =   2.0000000

                       cryst. coord.
        k(    1) = (   0.0000000   0.0000000   0.0000000), wk =   2.0000000

     Check: negative core charge=   -0.000002

     Initial potential from superposition of free atoms

     starting charge     119.9889, renormalised to     132.0000
     Starting wfcs are  126 randomized atomic wfcs
     Checking if some PAW data can be deallocated...

     Self-consistent Calculation

     iteration #  1     ecut=    30.00 Ry     beta= 0.70
     Davidson diagonalization with overlap

     ethr =  1.00E-02,  avg # of iterations =  6.0

     total energy              =   -2199.53410726 Ry
     estimated scf accuracy    <     383.35146952 Ry

[...]

     total energy              =   -2460.93712066 Ry
     estimated scf accuracy    <       0.00000157 Ry

     iteration # 42     ecut=    30.00 Ry     beta= 0.70
     Davidson diagonalization with overlap

     ethr =  8.52E-10,  avg # of iterations =  2.0

     End of self-consistent calculation

          k = 0.0000 0.0000 0.0000 (  2905 PWs)   bands (ev):

   -96.1890 -96.1877 -96.1873 -96.1246 -96.1239 -96.1235 -56.5973 -56.5956
   -56.5955 -56.5118 -56.5091 -56.5088 -56.5031 -56.5027 -56.4996 -56.4434
   -56.4432 -56.4392 -56.4344 -56.4340 -56.4337 -56.4034 -56.4026 -56.4022
    -0.5495   0.3171   0.3172   2.8462   2.8463   4.4344   4.4344   4.4880
     4.5022   4.5578   4.5579   4.6168   4.6321   4.7118   4.7118   5.1495
     5.1887   5.2210   5.2211   5.2459   5.2460   5.4625   5.4628   5.5431
     5.5433   5.6495   5.7346   5.7409   5.7410   6.2061   6.2062   6.2186
     6.2187   6.2271   6.2289   6.5163   6.5428   6.5428   6.8621   7.2806
     7.3582   7.3582   7.5381   7.5381   7.5678   7.8976   8.1001   8.1002
     8.1246   8.2751   8.2751   8.4768   9.1523   9.1525   9.9784

     occupation numbers
     1.0000   1.0000   1.0000   1.0000   1.0000   1.0000   1.0000   1.0000
     1.0000   1.0000   1.0000   1.0000   1.0000   1.0000   1.0000   1.0000
     1.0000   1.0000   1.0000   1.0000   1.0000   1.0000   1.0000   1.0000
     1.0000   1.0000   1.0000   1.0000   1.0000   1.0000   1.0000   1.0000
     1.0000   1.0000   1.0000   1.0000   1.0000   1.0000   1.0000   1.0000
     1.0000   1.0000   1.0000   1.0000   1.0000   1.0000   1.0000   1.0000
     1.0000   1.0000   1.0000   1.0000   1.0000   1.0000   1.0000   1.0000
     1.0000   1.0000   1.0000   1.0000   1.0000   1.0000   1.0000   1.0000
     1.0000   1.0000  -0.0000  -0.0000  -0.0000  -0.0000  -0.0000  -0.0000
    -0.0000  -0.0000  -0.0000  -0.0000  -0.0000  -0.0000  -0.0000

     the Fermi energy is     7.4639 ev

!    total energy              =   -2460.93712002 Ry
     estimated scf accuracy    <       0.00000079 Ry
     smearing contrib. (-TS)   =       0.00000000 Ry
     internal energy E=F+TS    =   -2460.93712002 Ry

     The total energy is F=E-TS. E is the sum of the following terms:
     one-electron contribution =   -2162.59273029 Ry
     hartree contribution      =    1121.51840627 Ry
     xc contribution           =    -232.69640987 Ry
     ewald contribution        =    -811.49649358 Ry
     one-center paw contrib.   =    -375.66989255 Ry
      -> PAW hartree energy AE =      11.41674717 Ry
      -> PAW hartree energy PS =     -11.38837417 Ry
      -> PAW xc energy AE      =    -392.41629555 Ry
      -> PAW xc energy PS      =      16.71802999 Ry
      -> total E_H with PAW    =    1121.54677928 Ry
      -> total E_XC with PAW   =    -608.39467543 Ry

     convergence has been achieved in  42 iterations

     Forces acting on atoms (cartesian axes, Ry/au):

     atom    1 type  1   force =     0.00000000    0.00000000    0.01112849
     atom    2 type  1   force =     0.00000000    0.00000000    0.01112849
     atom    3 type  1   force =    -0.00000000   -0.00000000    0.01112849
     atom    4 type  1   force =     0.00000000   -0.00000000   -0.01112849
     atom    5 type  1   force =     0.00000000    0.00000000   -0.01112849
     atom    6 type  1   force =     0.00000000   -0.00000000   -0.01112849
     atom    7 type  1   force =     0.00000000   -0.00682012    0.00000000
     atom    8 type  1   force =     0.00590640   -0.00341006   -0.00000000
     atom    9 type  1   force =    -0.00590640   -0.00341006   -0.00000000
     atom   10 type  1   force =     0.00590640    0.00341006   -0.00000000
     atom   11 type  1   force =    -0.00590640    0.00341006    0.00000000
     atom   12 type  1   force =    -0.00000000    0.00682012    0.00000000
     atom   13 type  2   force =     0.00000000    0.00000000    0.00000000
     atom   14 type  2   force =     0.00000000    0.00000000    0.00000000
     atom   15 type  2   force =    -0.00000000   -0.00000000    0.00000000
     atom   16 type  2   force =    -0.00000000   -0.00000000    0.00000000
     atom   17 type  2   force =    -0.00000000   -0.00000000    0.00000000
     atom   18 type  2   force =     0.00000000    0.00000000    0.00000000
     The non-local contrib.  to forces
     atom    1 type  1   force =    -0.00000000   -0.00000000   -0.05032212
     atom    2 type  1   force =     0.00000000    0.00000000   -0.05032212
     atom    3 type  1   force =    -0.00000000   -0.00000000   -0.05032212
     atom    4 type  1   force =    -0.00000000   -0.00000000    0.05032212
     atom    5 type  1   force =     0.00000000    0.00000000    0.05032212
     atom    6 type  1   force =     0.00000000   -0.00000000    0.05032212
     atom    7 type  1   force =     0.00000000    0.03752541    0.00000000
     atom    8 type  1   force =    -0.03249796    0.01876270   -0.00000000
     atom    9 type  1   force =     0.03249796    0.01876271    0.00000000
     atom   10 type  1   force =    -0.03249796   -0.01876271    0.00000000
     atom   11 type  1   force =     0.03249796   -0.01876270   -0.00000000
     atom   12 type  1   force =     0.00000000   -0.03752541    0.00000000
     atom   13 type  2   force =    -0.00000000   -0.00000000    0.00000000
     atom   14 type  2   force =     0.00000000    0.00000000    0.00000000
     atom   15 type  2   force =    -0.00000000   -0.00000000   -0.00000000
     atom   16 type  2   force =     0.00000000   -0.00000000    0.00000000
     atom   17 type  2   force =     0.00000000    0.00000000    0.00000000
     atom   18 type  2   force =     0.00000000    0.00000000   -0.00000000
     The ionic contribution  to forces
     atom    1 type  1   force =     0.00000000    0.00000000   -1.45248722
     atom    2 type  1   force =    -0.00000000   -0.00000000   -1.45245445
     atom    3 type  1   force =    -0.00000000    0.00000000   -1.45243524
     atom    4 type  1   force =     0.00000000   -0.00000000    1.45248761
     atom    5 type  1   force =    -0.00000000   -0.00000000    1.45243484
     atom    6 type  1   force =    -0.00000000   -0.00000000    1.45245446
     atom    7 type  1   force =    -0.00000074    0.85551309   -0.00000510
     atom    8 type  1   force =    -0.74091253    0.42775037    0.00002794
     atom    9 type  1   force =     0.74091007    0.42774814   -0.00002284
     atom   10 type  1   force =    -0.74091007   -0.42774814   -0.00002284
     atom   11 type  1   force =     0.74091253   -0.42775037    0.00002794
     atom   12 type  1   force =     0.00000074   -0.85551309   -0.00000510
     atom   13 type  2   force =     0.00000000   -0.00000000   -0.00022173
     atom   14 type  2   force =     0.00000000    0.00000000    0.00001085
     atom   15 type  2   force =     0.00000000    0.00000000    0.00021088
     atom   16 type  2   force =    -0.00000000    0.00000000   -0.00018364
     atom   17 type  2   force =     0.00000000    0.00000000   -0.00001072
     atom   18 type  2   force =    -0.00000000   -0.00000000    0.00019436
     The local contribution  to forces
     atom    1 type  1   force =    -0.00000012   -0.00000010    1.50728393
     atom    2 type  1   force =     0.00000038    0.00000025    1.50725060
     atom    3 type  1   force =    -0.00000048    0.00000009    1.50698683
     atom    4 type  1   force =    -0.00000013    0.00000032   -1.50728719
     atom    5 type  1   force =    -0.00000001    0.00000011   -1.50697103
     atom    6 type  1   force =    -0.00000012    0.00000045   -1.50724815
     atom    7 type  1   force =     0.00001355   -0.89554216   -0.00001148
     atom    8 type  1   force =     0.77557299   -0.44776959    0.00015736
     atom    9 type  1   force =    -0.77556631   -0.44774269   -0.00015933
     atom   10 type  1   force =     0.77556643    0.44774237   -0.00015912
     atom   11 type  1   force =    -0.77557310    0.44776964    0.00015774
     atom   12 type  1   force =    -0.00001353    0.89554232   -0.00001230
     atom   13 type  2   force =     0.00000131   -0.00000107    0.00153059
     atom   14 type  2   force =     0.00000820   -0.00000358   -0.00000890
     atom   15 type  2   force =     0.00000143   -0.00000733   -0.00168012
     atom   16 type  2   force =     0.00000117    0.00000169    0.00157168
     atom   17 type  2   force =    -0.00000681   -0.00000441    0.00001263
     atom   18 type  2   force =     0.00001099    0.00000282   -0.00166837
     The core correction contribution to forces
     atom    1 type  1   force =    -0.00000000   -0.00000001    0.00672997
     atom    2 type  1   force =     0.00000004    0.00000004    0.00673207
     atom    3 type  1   force =    -0.00000001    0.00000000    0.00673038
     atom    4 type  1   force =    -0.00000001    0.00000002   -0.00672979
     atom    5 type  1   force =    -0.00000001    0.00000001   -0.00672957
     atom    6 type  1   force =    -0.00000001   -0.00000000   -0.00673249
     atom    7 type  1   force =    -0.00000019   -0.00435153   -0.00000057
     atom    8 type  1   force =     0.00376893   -0.00217513    0.00000191
     atom    9 type  1   force =    -0.00376937   -0.00217561   -0.00000267
     atom   10 type  1   force =     0.00376936    0.00217558   -0.00000266
     atom   11 type  1   force =    -0.00376893    0.00217515    0.00000193
     atom   12 type  1   force =     0.00000019    0.00435156   -0.00000064
     atom   13 type  2   force =     0.00000006    0.00000003   -0.00000188
     atom   14 type  2   force =    -0.00000002    0.00000002   -0.00000004
     atom   15 type  2   force =     0.00000007    0.00000001    0.00000159
     atom   16 type  2   force =     0.00000008   -0.00000010   -0.00000058
     atom   17 type  2   force =     0.00000004    0.00000007   -0.00000016
     atom   18 type  2   force =     0.00000001    0.00000004    0.00000118
     The Hubbard contrib.    to forces
     atom    1 type  1   force =     0.00000000    0.00000000    0.00000000
     atom    2 type  1   force =     0.00000000    0.00000000    0.00000000
     atom    3 type  1   force =     0.00000000    0.00000000    0.00000000
     atom    4 type  1   force =     0.00000000    0.00000000    0.00000000
     atom    5 type  1   force =     0.00000000    0.00000000    0.00000000
     atom    6 type  1   force =     0.00000000    0.00000000    0.00000000
     atom    7 type  1   force =     0.00000000    0.00000000    0.00000000
     atom    8 type  1   force =     0.00000000    0.00000000    0.00000000
     atom    9 type  1   force =     0.00000000    0.00000000    0.00000000
     atom   10 type  1   force =     0.00000000    0.00000000    0.00000000
     atom   11 type  1   force =     0.00000000    0.00000000    0.00000000
     atom   12 type  1   force =     0.00000000    0.00000000    0.00000000
     atom   13 type  2   force =     0.00000000    0.00000000    0.00000000
     atom   14 type  2   force =     0.00000000    0.00000000    0.00000000
     atom   15 type  2   force =     0.00000000    0.00000000    0.00000000
     atom   16 type  2   force =     0.00000000    0.00000000    0.00000000
     atom   17 type  2   force =     0.00000000    0.00000000    0.00000000
     atom   18 type  2   force =     0.00000000    0.00000000    0.00000000
     The SCF correction term to forces
     atom    1 type  1   force =     0.00000001    0.00000003   -0.00008939
     atom    2 type  1   force =    -0.00000005    0.00000000   -0.00005372
     atom    3 type  1   force =     0.00000029   -0.00000008    0.00016346
     atom    4 type  1   force =     0.00000001   -0.00000010    0.00009626
     atom    5 type  1   force =    -0.00000000   -0.00000003   -0.00016703
     atom    6 type  1   force =     0.00000003   -0.00000030    0.00004563
     atom    7 type  1   force =    -0.00001249    0.00003758    0.00000927
     atom    8 type  1   force =    -0.00002289    0.00002847   -0.00015021
     atom    9 type  1   force =     0.00001364    0.00000258    0.00014132
     atom   10 type  1   force =    -0.00001375   -0.00000249    0.00014125
     atom   11 type  1   force =     0.00002294   -0.00002845   -0.00015037
     atom   12 type  1   force =     0.00001243   -0.00003755    0.00000948
     atom   13 type  2   force =    -0.00000337    0.00000169   -0.00124780
     atom   14 type  2   force =    -0.00001066    0.00000588   -0.00001022
     atom   15 type  2   force =     0.00000046    0.00000916    0.00142352
     atom   16 type  2   force =    -0.00000190   -0.00000097   -0.00130794
     atom   17 type  2   force =     0.00000987    0.00000461   -0.00000457
     atom   18 type  2   force =    -0.00001295   -0.00000173    0.00140353

     Total force =     0.031971     Total SCF correction =     0.002726

     Computing stress (Cartesian axis) and pressure

          total   stress  (Ry/bohr**3)                   (kbar)     P=     -399.36
  -0.00244800  -0.00000000   0.00000000         -360.11       -0.00        0.00
  -0.00000000  -0.00244800   0.00000000           -0.00     -360.11        0.00
   0.00000000   0.00000000  -0.00324841            0.00        0.00     -477.86

     kinetic stress (kbar)  13923.00      0.00      0.00
                                0.00  13923.00      0.00
                                0.00      0.00  13979.08

     local   stress (kbar) -32887.82     -0.01     -0.00
                               -0.01 -32887.95      0.00
                               -0.00      0.00  -2628.29

     nonloc. stress (kbar)   6232.82      0.00      0.00
                                0.00   6232.82      0.00
                                0.00      0.00   6148.91

     hartree stress (kbar)  31296.87      0.02      0.00
                                0.02  31296.97     -0.00
                                0.00     -0.00  17016.37

     exc-cor stress (kbar)  -3687.06     -0.00      0.00
                               -0.00  -3687.06     -0.00
                                0.00     -0.00  -3684.59

     corecor stress (kbar)  -1394.46      0.00      0.00
                                0.00  -1394.46      0.00
                                0.00      0.00  -1392.69

     ewald   stress (kbar) -13843.44     -0.00      0.00
                               -0.00 -13843.44     -0.00
                                0.00     -0.00 -29916.63

     hubbard stress (kbar)      0.00      0.00      0.00
                                0.00      0.00      0.00
                                0.00      0.00      0.00

     DFT-D   stress (kbar)      0.00      0.00      0.00
                                0.00      0.00      0.00
                                0.00      0.00      0.00

     XDM     stress (kbar)      0.00      0.00      0.00
                                0.00      0.00      0.00
                                0.00      0.00      0.00

     dft-nl  stress (kbar)      0.00      0.00      0.00
                                0.00      0.00      0.00
                                0.00      0.00      0.00

     TS-vdW  stress (kbar)      0.00      0.00      0.00
                                0.00      0.00      0.00
                                0.00      0.00      0.00

[...]

                                0.00      0.00      0.00

     Writing all to output data dir new_calculations/myprefix.save/

     General routines

     Parallel routines

     PAW routines

   This run was terminated on:  17: 2:50  20May2023

   JOB DONE.