     Program PWSCF v.7.0 starts on 21May2023 at  5:38:46

     Reading input from espresso_7018.pwi
Warning: card &CELL ignored
Warning: card / ignored

     Current dimensions of program PWSCF are:
     Max number of different atomic species (ntypx) = 10
     Max number of k-points (npk) =  40000
     Max angular momentum in pseudopotentials (lmaxx) =  4

     gamma-point specific algorithms are used
     Message from routine setup:
     using ibrav=0 with symmetry is DISCOURAGED, use correct ibrav instead

     Subspace diagonalization in iterative solution of the eigenvalue problem:
     a serial algorithm will be used

     Using Slab Decomposition

     bravais-lattice index     =            0
     lattice parameter (alat)  =      10.4517  a.u.
     unit-cell volume          =     878.8967 (a.u.)^3
     number of atoms/cell      =            5
     number of atomic types    =            2
     number of electrons       =        96.00
     number of Kohn-Sham states=           58
     kinetic-energy cutoff     =      30.0000  Ry
     charge density cutoff     =     240.0000  Ry
     scf convergence threshold =      1.0E-06
     mixing beta               =       0.7000
     number of iterations used =            8  plain     mixing
     Exchange-correlation=  SLA  PW   PBX  PBC
                           (   1   4   3   4   0   0   0)

     celldm(1)=  10.451691  celldm(2)=   0.000000  celldm(3)=   0.000000
     celldm(4)=   0.000000  celldm(5)=   0.000000  celldm(6)=   0.000000

     crystal axes: (cart. coord. in units of alat)
               a(1) = (   1.000000   0.000000   0.000000 )
               a(2) = (  -0.333333   0.942809   0.000000 )
               a(3) = (  -0.333333  -0.471405   0.816497 )

     reciprocal axes: (cart. coord. in units 2 pi/alat)
               b(1) = (  1.000000  0.353553  0.612372 )
               b(2) = (  0.000000  1.060660  0.612372 )
               b(3) = (  0.000000  0.000000  1.224745 )

     PseudoPot. # 1 for Hg read from file:
     /home/pragov/projects/rrg-bengioy-ad/pragov/crystal_structure_design/SSSP/Hg_ONCV_PBE-1.0.oncvpsp.upf
     MD5 check sum: dd5a8773074bfcf4280086d4d95875c4
     Pseudo is Norm-conserving, Zval = 20.0
     Generated using ONCVPSP code by D. R. Hamann
     Using radial grid of 1262 points,  8 beta functions with:
                l(1) =   0
                l(2) =   0
                l(3) =   1
                l(4) =   1
                l(5) =   2
                l(6) =   2
                l(7) =   3
                l(8) =   3

     PseudoPot. # 2 for Pt read from file:
     /home/pragov/projects/rrg-bengioy-ad/pragov/crystal_structure_design/SSSP/pt_pbe_v1.4.uspp.F.UPF
     MD5 check sum: f09d6de1a584b5a045c4fc126da2d0c4
     Pseudo is Ultrasoft + core correction, Zval = 16.0
     Generated by new atomic code, or converted to UPF format
     Using radial grid of  985 points,  6 beta functions with:
                l(1) =   0
                l(2) =   0
                l(3) =   1
                l(4) =   1
                l(5) =   2
                l(6) =   2
     Q(r) pseudized with  8 coefficients,  rinner =    1.300   1.300   1.300
                                                       1.300   1.300

     atomic species   valence    mass     pseudopotential
        Hg            20.00   200.59200     Hg( 1.00)
        Pt            16.00   195.08400     Pt( 1.00)

      4 Sym. Ops., with inversion, found

                                    s                        frac. trans.

      isym =  1     identity

 cryst.   s( 1) = (     1          0          0      )
                  (     0          1          0      )
                  (     0          0          1      )

 cart.    s( 1) = (  1.0000000  0.0000000  0.0000000 )
                  (  0.0000000  1.0000000  0.0000000 )
                  (  0.0000000  0.0000000  1.0000000 )

      isym =  2     180 deg rotation - cart. axis [0,0,1]

[...]

      isym =  3     inversion

[...]

      isym =  4     inv. 180 deg rotation - cart. axis [0,0,1]

 cryst.   s( 4) = (     1          0          0      )
                  (     0          1          0      )
                  (    -1         -1         -1      )

 cart.    s( 4) = (  1.0000000  0.0000000 -0.0000000 )
                  (  0.0000000  1.0000000 -0.0000000 )
                  (  0.0000000  0.0000000 -1.0000000 )

   Cartesian axes

     site n.     atom                  positions (alat units)
         1           Hg  tau(   1) = (   0.1666667   0.2357023   0.4082483  )
         2           Hg  tau(   2) = (  -0.1666667  -0.2357023   0.4082483  )
         3           Hg  tau(   3) = (   0.5000000   0.0000000   0.0000000  )
         4           Hg  tau(   4) = (  -0.1666667   0.4714045   0.0000000  )
         5           Pt  tau(   5) = (   0.0000000   0.0000000   0.0000000  )

   Crystallographic axes

     site n.     atom                  positions (cryst. coord.)
         1           Hg  tau(   1) = (  0.5000000  0.5000000  0.5000000  )
         2           Hg  tau(   2) = (  0.0000000  0.0000000  0.5000000  )
         3           Hg  tau(   3) = (  0.5000000  0.0000000  0.0000000  )
         4           Hg  tau(   4) = ( -0.0000000  0.5000000  0.0000000  )
         5           Pt  tau(   5) = (  0.0000000  0.0000000  0.0000000  )

     number of k points=     1  Methfessel-Paxton smearing, width (Ry)=  0.0010
                       cart. coord. in units 2pi/alat
        k(    1) = (   0.0000000   0.0000000   0.0000000), wk =   2.0000000

                       cryst. coord.
        k(    1) = (   0.0000000   0.0000000   0.0000000), wk =   2.0000000

     Initial potential from superposition of free atoms

     starting charge      95.4997, renormalised to      96.0000

     negative rho (up, down):  1.921E-01 0.000E+00
     Starting wfcs are   52 randomized atomic wfcs +    6 random wfcs

     Self-consistent Calculation

     iteration #  1     ecut=    30.00 Ry     beta= 0.70
     Davidson diagonalization with overlap

     ethr =  1.00E-02,  avg # of iterations =  9.0

     negative rho (up, down):  1.662E-01 0.000E+00

     total energy              =   -1450.15790438 Ry
     estimated scf accuracy    <       2.35059362 Ry

[...]

     total energy              =   -1451.66638548 Ry
     estimated scf accuracy    <       0.00001109 Ry

     iteration # 25     ecut=    30.00 Ry     beta= 0.70
     Davidson diagonalization with overlap

     ethr =  1.16E-08,  avg # of iterations =  1.0

[...]

     End of self-consistent calculation

          k = 0.0000 0.0000 0.0000 (  1246 PWs)   bands (ev):

  -106.7790-104.3034-103.8878-101.5923 -52.0098 -51.9132 -51.6379 -51.5000
   -51.2783 -51.2446 -50.8751 -50.7358 -50.5751 -50.4506 -50.2434 -50.0127
   -40.8431 -39.9489 -39.4830   3.9852   4.6604   5.0713   5.2516   5.3850
     5.4523   5.6425   5.9400   6.2602   6.3117   6.3546   6.5762   6.7210
     6.9116   7.1040   7.1669   7.3041   7.5528   7.5699   7.6341   7.8015
     9.1494   9.7873  10.3367  10.4421  10.5944  12.1232  12.8035  12.8102
    12.8138  13.0581  13.3454  14.0123  14.0606  14.1006  16.8744  19.9548
    20.2804  20.7974

     occupation numbers
     1.0000   1.0000   1.0000   1.0000   1.0000   1.0000   1.0000   1.0000
     1.0000   1.0000   1.0000   1.0000   1.0000   1.0000   1.0000   1.0000
     1.0000   1.0000   1.0000   1.0000   1.0000   1.0000   1.0000   1.0000
     1.0000   1.0000   1.0000   1.0000   1.0000   1.0000   1.0000   1.0000
     1.0000   1.0000   1.0000   1.0000   1.0000   1.0000   1.0000   1.0000
     1.0000   1.0000   1.0000   1.0000   1.0000   1.0000   0.9446   0.6377
     0.4177  -0.0000  -0.0000  -0.0000  -0.0000  -0.0000  -0.0000  -0.0000
    -0.0000  -0.0000

     the Fermi energy is    12.8125 ev

!    total energy              =   -1451.66638519 Ry
     estimated scf accuracy    <       0.00000057 Ry
     smearing contrib. (-TS)   =      -0.00055784 Ry
     internal energy E=F+TS    =   -1451.66582735 Ry

     The total energy is F=E-TS. E is the sum of the following terms:
     one-electron contribution =    -776.17524336 Ry
     hartree contribution      =     405.74431304 Ry
     xc contribution           =    -166.67164265 Ry
     ewald contribution        =    -914.56325438 Ry

     convergence has been achieved in  25 iterations

     negative rho (up, down):  1.714E-01 0.000E+00

     Forces acting on atoms (cartesian axes, Ry/au):

     atom    1 type  1   force =     0.00000000    0.00000000    0.00000000
     atom    2 type  1   force =     0.00000000   -0.00000000    0.00000000
     atom    3 type  1   force =     0.00000000    0.00000000   -0.00000000
     atom    4 type  1   force =     0.00000000    0.00000000    0.00000000
     atom    5 type  2   force =     0.00000000    0.00000000    0.00000000
     The non-local contrib.  to forces
     atom    1 type  1   force =     0.00000000    0.00000000    0.00000000
     atom    2 type  1   force =     0.00000000   -0.00000000   -0.00000000
     atom    3 type  1   force =     0.00000000    0.00000000   -0.00000000
     atom    4 type  1   force =     0.00000000    0.00000000    0.00000000
     atom    5 type  2   force =     0.00000000    0.00000000    0.00000000
     The ionic contribution  to forces
     atom    1 type  1   force =     0.00000000   -0.00000000   -0.00000000
     atom    2 type  1   force =     0.00000000   -0.00000000   -0.00000000
     atom    3 type  1   force =    -0.00000000   -0.00000000    0.00000000
     atom    4 type  1   force =    -0.00000000    0.00000000    0.00000000
     atom    5 type  2   force =     0.00000000   -0.00000000    0.00000000
     The local contribution  to forces
     atom    1 type  1   force =     0.00000529   -0.00001024   -0.00001837
     atom    2 type  1   force =     0.00001165   -0.00000070   -0.00000608
     atom    3 type  1   force =    -0.00000794    0.00000854    0.00000795
     atom    4 type  1   force =    -0.00000069   -0.00002031    0.00001299
     atom    5 type  2   force =     0.00000655    0.00000065    0.00000914
     The core correction contribution to forces
     atom    1 type  1   force =     0.00000000    0.00000000    0.00000000
     atom    2 type  1   force =     0.00000000    0.00000000    0.00000000
     atom    3 type  1   force =     0.00000000    0.00000000    0.00000000
     atom    4 type  1   force =     0.00000000    0.00000000    0.00000000
     atom    5 type  2   force =    -0.00000001    0.00000047   -0.00000036
     The Hubbard contrib.    to forces
     atom    1 type  1   force =     0.00000000    0.00000000    0.00000000
     atom    2 type  1   force =     0.00000000    0.00000000    0.00000000
     atom    3 type  1   force =     0.00000000    0.00000000    0.00000000
     atom    4 type  1   force =     0.00000000    0.00000000    0.00000000
     atom    5 type  2   force =     0.00000000    0.00000000    0.00000000
     The SCF correction term to forces
     atom    1 type  1   force =    -0.00000422    0.00000632    0.00001655
     atom    2 type  1   force =    -0.00001031    0.00000108    0.00001170
     atom    3 type  1   force =     0.00001520   -0.00001334   -0.00001656
     atom    4 type  1   force =    -0.00000087    0.00002199   -0.00001806
     atom    5 type  2   force =    -0.00001139   -0.00000185   -0.00001077

     Total force =     0.000000     Total SCF correction =     0.000048

     Computing stress (Cartesian axis) and pressure

     negative rho (up, down):  1.714E-01 0.000E+00
          total   stress  (Ry/bohr**3)                   (kbar)     P=     -602.42
  -0.00445343  -0.00038003   0.00000000         -655.12      -55.90        0.00
  -0.00038003  -0.00364013   0.00000000          -55.90     -535.48        0.00
   0.00000000   0.00000000  -0.00419197            0.00        0.00     -616.66

     kinetic stress (kbar)  48408.21     93.59     -0.00
                               93.59  48957.68     -0.00
                               -0.00     -0.00  48637.12

     local   stress (kbar) -18165.18   -201.83   -262.70
                             -201.83 -18259.54    159.95
                             -262.70    159.95 -18003.60

     nonloc. stress (kbar)   5069.12     41.44     -0.00
                               41.44   4646.58     -0.00
                               -0.00     -0.00   4784.33

     hartree stress (kbar)  22632.99     19.45     95.80
                               19.45  22715.14    -94.71
                               95.80    -94.71  22563.21

     exc-cor stress (kbar)  -1130.54      1.23      2.45
                                1.23  -1127.75     -2.57
                                2.45     -2.57  -1131.40

     corecor stress (kbar)  -6444.80     -9.78     -5.15
                               -9.78  -6442.65      5.71
                               -5.15      5.71  -6441.40

     ewald   stress (kbar) -51024.92     -0.00     -0.00
                               -0.00 -51024.92     -0.00
                               -0.00     -0.00 -51024.92

     hubbard stress (kbar)      0.00      0.00      0.00
                                0.00      0.00      0.00
                                0.00      0.00      0.00

     DFT-D   stress (kbar)      0.00      0.00      0.00
                                0.00      0.00      0.00
                                0.00      0.00      0.00

     XDM     stress (kbar)      0.00      0.00      0.00
                                0.00      0.00      0.00
                                0.00      0.00      0.00

     dft-nl  stress (kbar)      0.00      0.00      0.00
                                0.00      0.00      0.00
                                0.00      0.00      0.00

     TS-vdW  stress (kbar)      0.00      0.00      0.00
                                0.00      0.00      0.00
                                0.00      0.00      0.00

[...]

                                0.00      0.00      0.00

     Writing all to output data dir new_calculations/myprefix.save/

     General routines

     Parallel routines

   This run was terminated on:   5:39: 6  21May2023

   JOB DONE.