     Program PWSCF v.7.0 starts on 20May2023 at 18: 2:20

     Reading input from espresso_5581.pwi
Warning: card &CELL ignored
Warning: card / ignored

     Current dimensions of program PWSCF are:
     Max number of different atomic species (ntypx) = 10
     Max number of k-points (npk) =  40000
     Max angular momentum in pseudopotentials (lmaxx) =  4
     file Ba.pbe-spn-kjpaw_psl.1.0.0.UPF: wavefunction(s)  5S 6S renormalized
     file Nb.pbe-spn-kjpaw_psl.0.3.0.UPF: wavefunction(s)  4S 4P renormalized
     file O.pbe-n-kjpaw_psl.0.1.UPF: wavefunction(s)  2P renormalized

     gamma-point specific algorithms are used
     Message from routine setup:
     using ibrav=0 with symmetry is DISCOURAGED, use correct ibrav instead

     Subspace diagonalization in iterative solution of the eigenvalue problem:
     a serial algorithm will be used

     Using Slab Decomposition

     bravais-lattice index     =            0
     lattice parameter (alat)  =      11.1552  a.u.
     unit-cell volume          =     981.5585 (a.u.)^3
     number of atoms/cell      =           10
     number of atomic types    =            5
     number of electrons       =        81.00
     number of Kohn-Sham states=           49
     kinetic-energy cutoff     =      30.0000  Ry
     charge density cutoff     =     240.0000  Ry
     scf convergence threshold =      1.0E-06
     mixing beta               =       0.7000
     number of iterations used =            8  plain     mixing
     Exchange-correlation= SLA  PW   PBX  PBC
                           (   1   4   3   4   0   0   0)

     celldm(1)=  11.155192  celldm(2)=   0.000000  celldm(3)=   0.000000
     celldm(4)=   0.000000  celldm(5)=   0.000000  celldm(6)=   0.000000

     crystal axes: (cart. coord. in units of alat)
               a(1) = (   1.000000   0.000000   0.000000 )
               a(2) = (   0.500000   0.866025   0.000000 )
               a(3) = (   0.500000   0.288675   0.816497 )

     reciprocal axes: (cart. coord. in units 2 pi/alat)
               b(1) = (  1.000000 -0.577350 -0.408248 )
               b(2) = (  0.000000  1.154701 -0.408248 )
               b(3) = (  0.000000  0.000000  1.224745 )

     PseudoPot. # 1 for Ba read from file:
     /home/pragov/projects/rrg-bengioy-ad/pragov/crystal_structure_design/SSSP/Ba.pbe-spn-kjpaw_psl.1.0.0.UPF
     MD5 check sum: c432291d3e53af55f19d5e8866385beb
     Pseudo is Projector augmented-wave + core cor, Zval = 10.0
     Generated using "atomic" code by A. Dal Corso  v.5.1
     Shape of augmentation charge: PSQ
     Using radial grid of 1251 points,  7 beta functions with:
                l(1) =   0
                l(2) =   0
                l(3) =   0
                l(4) =   1
                l(5) =   1
                l(6) =   2
                l(7) =   2
     Q(r) pseudized with 0 coefficients

     PseudoPot. # 2 for Sr read from file:
     /home/pragov/projects/rrg-bengioy-ad/pragov/crystal_structure_design/SSSP/Sr_pbe_v1.uspp.F.UPF
     MD5 check sum: 6b418c05fbe9db5448babca5e47b7a5b
     Pseudo is Ultrasoft + core correction, Zval = 10.0
     Generated by new atomic code, or converted to UPF format
     Using radial grid of  883 points,  6 beta functions with:
                l(1) =   0
                l(2) =   0
                l(3) =   1
                l(4) =   1
                l(5) =   2
                l(6) =   2
     Q(r) pseudized with  6 coefficients,  rinner =    1.400   1.400   1.400
                                                       1.400   1.400

     PseudoPot. # 3 for Zr read from file:
     /home/pragov/projects/rrg-bengioy-ad/pragov/crystal_structure_design/SSSP/Zr_pbe_v1.uspp.F.UPF
     MD5 check sum: 5db81b1e868ab7776c4564c113de050b
     Pseudo is Ultrasoft + core correction, Zval = 12.0
     Generated by new atomic code, or converted to UPF format
     Using radial grid of  887 points,  6 beta functions with:
                l(1) =   0
                l(2) =   0
                l(3) =   1
                l(4) =   1
                l(5) =   2
                l(6) =   2
     Q(r) pseudized with  6 coefficients,  rinner =    1.200   1.200   1.200
                                                       1.200   1.200

     PseudoPot. # 4 for Nb read from file:
     /home/pragov/projects/rrg-bengioy-ad/pragov/crystal_structure_design/SSSP/Nb.pbe-spn-kjpaw_psl.0.3.0.UPF
     MD5 check sum: 411d72ad547312f8017e2943ceca08cc
     Pseudo is Projector augmented-wave + core cor, Zval = 13.0
     Generated using "atomic" code by A. Dal Corso  v.5.0.99 svn rev. 10869
     Shape of augmentation charge: PSQ
     Using radial grid of 1227 points,  6 beta functions with:
                l(1) =   0
                l(2) =   0
                l(3) =   1
                l(4) =   1
                l(5) =   2
                l(6) =   2
     Q(r) pseudized with 0 coefficients

     PseudoPot. # 5 for O  read from file:
     /home/pragov/projects/rrg-bengioy-ad/pragov/crystal_structure_design/SSSP/O.pbe-n-kjpaw_psl.0.1.UPF
     MD5 check sum: 0234752ac141de4415c5fc33072bef88
     Pseudo is Projector augmented-wave + core cor, Zval =  6.0
     Generated using "atomic" code by A. Dal Corso  v.5.0.99 svn rev. 10869
     Shape of augmentation charge: BESSEL
     Using radial grid of 1095 points,  4 beta functions with:
                l(1) =   0
                l(2) =   0
                l(3) =   1
                l(4) =   1
     Q(r) pseudized with 0 coefficients

     atomic species   valence    mass     pseudopotential
        Ba            10.00   137.32700     Ba( 1.00)
        Sr            10.00    87.62000     Sr( 1.00)
        Zr            12.00    91.22400     Zr( 1.00)
        Nb            13.00    92.90637     Nb( 1.00)
        O              6.00    15.99900     O ( 1.00)

      6 Sym. Ops. (no inversion) found

                                    s                        frac. trans.

      isym =  1     identity

 cryst.   s( 1) = (     1          0          0      )
                  (     0          1          0      )
                  (     0          0          1      )

 cart.    s( 1) = (  1.0000000  0.0000000  0.0000000 )
                  (  0.0000000  1.0000000 -0.0000000 )
                  (  0.0000000  0.0000000  1.0000000 )

      isym =  2     120 deg rotation - cryst. axis [0,0,1]

[...]

      isym =  3     120 deg rotation - cryst. axis [0,0,-1]

[...]

      isym =  4     inv. 180 deg rotation - cart. axis [1,0,0]

[...]

      isym =  5     inv. 180 deg rotation - cryst. axis [0,1,0]

[...]

      isym =  6     inv. 180 deg rotation - cryst. axis [1,1,0]

 cryst.   s( 6) = (     1         -1          0      )
                  (     0         -1          0      )
                  (     0         -1          1      )

 cart.    s( 6) = (  0.5000000 -0.8660254 -0.0000000 )
                  ( -0.8660254 -0.5000000 -0.0000000 )
                  (  0.0000000  0.0000000  1.0000000 )

   Cartesian axes

     site n.     atom                  positions (alat units)
         1           Ba  tau(   1) = (   1.5000000   0.8660254   0.6123724  )
         2           Sr  tau(   2) = (   0.5000000   0.2886751   0.2041241  )
         3           Zr  tau(   3) = (   1.0000000   0.5773503   0.4082483  )
         4           Nb  tau(   4) = (   0.0000000   0.0000000   0.0000000  )
         5           O   tau(   5) = (   1.0000000   0.2837020   0.2006076  )
         6           O   tau(   6) = (   1.0000000   0.8709986   0.6158890  )
         7           O   tau(   7) = (   1.2543069   0.4305261   0.6158890  )
         8           O   tau(   8) = (   0.7456931   0.7241744   0.2006076  )
         9           O   tau(   9) = (   1.2543069   0.7241744   0.2006076  )
        10           O   tau(  10) = (   0.7456931   0.4305261   0.6158890  )

   Crystallographic axes

     site n.     atom                  positions (cryst. coord.)
         1           Ba  tau(   1) = (  0.7500000  0.7500000  0.7500000  )
         2           Sr  tau(   2) = (  0.2500000  0.2500000  0.2500000  )
         3           Zr  tau(   3) = (  0.5000000  0.5000000  0.5000000  )
         4           Nb  tau(   4) = (  0.0000000  0.0000000  0.0000000  )
         5           O   tau(   5) = (  0.7543069  0.2456931  0.2456931  )
         6           O   tau(   6) = (  0.2456931  0.7543069  0.7543069  )
         7           O   tau(   7) = (  0.7543069  0.2456931  0.7543069  )
         8           O   tau(   8) = (  0.2456931  0.7543069  0.2456931  )
         9           O   tau(   9) = (  0.7543069  0.7543069  0.2456931  )
        10           O   tau(  10) = (  0.2456931  0.2456931  0.7543069  )

     number of k points=     1  Methfessel-Paxton smearing, width (Ry)=  0.0010
                       cart. coord. in units 2pi/alat
        k(    1) = (   0.0000000   0.0000000   0.0000000), wk =   2.0000000

                       cryst. coord.
        k(    1) = (   0.0000000   0.0000000   0.0000000), wk =   2.0000000

     Check: negative core charge=   -0.000014

     Initial potential from superposition of free atoms

     starting charge      80.9451, renormalised to      81.0000

     negative rho (up, down):  1.246E-01 0.000E+00
     Starting wfcs are   65 randomized atomic wfcs
     Checking if some PAW data can be deallocated...

     Self-consistent Calculation

     iteration #  1     ecut=    30.00 Ry     beta= 0.70
     Davidson diagonalization with overlap

     ethr =  1.00E-02,  avg # of iterations =  4.0

     negative rho (up, down):  1.279E-01 0.000E+00

     total energy              =   -1187.79142385 Ry
     estimated scf accuracy    <       4.41355362 Ry

[...]

     ethr =  1.62E-05,  avg # of iterations =  2.0

[...]

     c_bands:  1 eigenvalues not converged
     ethr =  1.62E-05,  avg # of iterations = 20.0
     Minimization algorithm failed to find Fermi energy: reverting to bisection
     Possible cause: smearing is larger than the electronic band-gap.

[...]

     ethr =  4.21E-06,  avg # of iterations =  3.0
     Minimization algorithm failed to find Fermi energy: reverting to bisection
     Possible cause: smearing is larger than the electronic band-gap.

[...]

     total energy              =   -1189.98818339 Ry
     estimated scf accuracy    <       0.00000421 Ry

     iteration # 27     ecut=    30.00 Ry     beta= 0.70
     Davidson diagonalization with overlap

     ethr =  1.99E-09,  avg # of iterations =  4.0
     Minimization algorithm failed to find Fermi energy: reverting to bisection
     Possible cause: smearing is larger than the electronic band-gap.

[...]

     End of self-consistent calculation

          k = 0.0000 0.0000 0.0000 (  1367 PWs)   bands (ev):

   -44.5965 -37.6075 -24.4595 -20.6886 -20.6886 -20.6884 -15.9294 -15.8081
   -15.8081 -15.8080  -6.4463  -6.4463  -6.4462  -6.3757  -5.9325  -5.9323
    -5.1751  -5.1750  -5.1748  -1.3266  -1.3266  -1.3266   6.0306   6.0308
     6.3267   6.8945   6.8946   6.8946   8.3815   8.3815   8.3816   9.3417
     9.3418   9.3419  10.0180  10.0181  10.0181  10.3996  10.3997  10.3998
    12.0919  12.0919  12.0920  14.3643  14.3643  14.7361  15.5227  15.5227
    15.8919

     occupation numbers
     1.0000   1.0000   1.0000   1.0000   1.0000   1.0000   1.0000   1.0000
     1.0000   1.0000   1.0000   1.0000   1.0000   1.0000   1.0000   1.0000
     1.0000   1.0000   1.0000   1.0000   1.0000   1.0000   1.0000   1.0000
     1.0000   1.0000   1.0000   1.0000   1.0000   1.0000   1.0000   1.0000
     1.0000   1.0000   1.0000   1.0000   1.0000   1.0000   1.0000   1.0000
     0.1685   0.1662   0.1653  -0.0000  -0.0000  -0.0000  -0.0000  -0.0000
    -0.0000

     the Fermi energy is    12.0860 ev

!    total energy              =   -1189.98818329 Ry
     estimated scf accuracy    <       0.00000057 Ry
     smearing contrib. (-TS)   =      -0.00043271 Ry
     internal energy E=F+TS    =   -1189.98775057 Ry

     The total energy is F=E-TS. E is the sum of the following terms:
     one-electron contribution =    -121.23227498 Ry
     hartree contribution      =     110.93504358 Ry
     xc contribution           =    -130.67014156 Ry
     ewald contribution        =    -408.53202409 Ry
     one-center paw contrib.   =    -640.48835352 Ry
      -> PAW hartree energy AE =     278.41996761 Ry
      -> PAW hartree energy PS =    -277.21753354 Ry
      -> PAW xc energy AE      =    -733.81552568 Ry
      -> PAW xc energy PS      =      92.12473809 Ry
      -> total E_H with PAW    =     112.13747765 Ry
      -> total E_XC with PAW   =    -772.36092915 Ry

     convergence has been achieved in  27 iterations

     negative rho (up, down):  1.340E-01 0.000E+00

     Forces acting on atoms (cartesian axes, Ry/au):

     atom    1 type  1   force =     0.00000000    0.00000000    0.00000521
     atom    2 type  2   force =     0.00000000    0.00000000   -0.00000014
     atom    3 type  3   force =     0.00000000    0.00000000   -0.00000444
     atom    4 type  4   force =     0.00000000    0.00000000   -0.00000151
     atom    5 type  5   force =     0.00000000   -0.01968201   -0.01391655
     atom    6 type  5   force =     0.00000000    0.01968345    0.01391684
     atom    7 type  5   force =     0.01704637   -0.00984173    0.01391684
     atom    8 type  5   force =    -0.01704512    0.00984101   -0.01391655
     atom    9 type  5   force =     0.01704512    0.00984101   -0.01391655
     atom   10 type  5   force =    -0.01704637   -0.00984173    0.01391684
     The non-local contrib.  to forces
     atom    1 type  1   force =    -0.00000000   -0.00000000   -0.00006366
     atom    2 type  2   force =     0.00000000    0.00000000   -0.00000066
     atom    3 type  3   force =    -0.00000000   -0.00000000   -0.00000247
     atom    4 type  4   force =     0.00000000    0.00000000    0.00000181
     atom    5 type  5   force =     0.00000000   -0.07972313   -0.05637465
     atom    6 type  5   force =     0.00000000    0.07972391    0.05637482
     atom    7 type  5   force =     0.06904293   -0.03986195    0.05637482
     atom    8 type  5   force =    -0.06904226    0.03986157   -0.05637465
     atom    9 type  5   force =     0.06904226    0.03986157   -0.05637465
     atom   10 type  5   force =    -0.06904293   -0.03986195    0.05637482
     The ionic contribution  to forces
     atom    1 type  1   force =     0.00000000    0.00000000    0.00000000
     atom    2 type  2   force =    -0.00000000    0.00000000   -0.00000000
     atom    3 type  3   force =    -0.00000000   -0.00000000    0.00000000
     atom    4 type  4   force =     0.00000000    0.00000000   -0.00000000
     atom    5 type  5   force =     0.00000000    1.41786961    1.00258522
     atom    6 type  5   force =     0.00000000   -1.41786961   -1.00258522
     atom    7 type  5   force =    -1.22791110    0.70893480   -1.00258522
     atom    8 type  5   force =     1.22791110   -0.70893480    1.00258522
     atom    9 type  5   force =    -1.22791110   -0.70893480    1.00258522
     atom   10 type  5   force =     1.22791110    0.70893480   -1.00258522
     The local contribution  to forces
     atom    1 type  1   force =     0.00032240   -0.00032323    0.00005326
     atom    2 type  2   force =     0.00001129   -0.00006444    0.00000045
     atom    3 type  3   force =    -0.00000577    0.00006440   -0.00001933
     atom    4 type  4   force =     0.00000112   -0.00003956    0.00002023
     atom    5 type  5   force =    -0.00000700   -1.35870104   -0.96072758
     atom    6 type  5   force =     0.00000439    1.35866705    0.96071173
     atom    7 type  5   force =     1.17665125   -0.67936323    0.96074849
     atom    8 type  5   force =    -1.17663958    0.67934877   -0.96073383
     atom    9 type  5   force =     1.17665451    0.67936103   -0.96074262
     atom   10 type  5   force =    -1.17666571   -0.67937462    0.96075591
     The core correction contribution to forces
     atom    1 type  1   force =     0.00000637   -0.00000398   -0.00000007
     atom    2 type  2   force =     0.00000039   -0.00000264    0.00000006
     atom    3 type  3   force =    -0.00000000   -0.00000025   -0.00000021
     atom    4 type  4   force =     0.00000009    0.00000024    0.00000030
     atom    5 type  5   force =    -0.00000003    0.00073139    0.00051720
     atom    6 type  5   force =     0.00000004   -0.00073145   -0.00051716
     atom    7 type  5   force =    -0.00063338    0.00036568   -0.00051723
     atom    8 type  5   force =     0.00063329   -0.00036573    0.00051715
     atom    9 type  5   force =    -0.00063318   -0.00036568    0.00051709
     atom   10 type  5   force =     0.00063316    0.00036554   -0.00051702
     The Hubbard contrib.    to forces
     atom    1 type  1   force =     0.00000000    0.00000000    0.00000000
     atom    2 type  2   force =     0.00000000    0.00000000    0.00000000
     atom    3 type  3   force =     0.00000000    0.00000000    0.00000000
     atom    4 type  4   force =     0.00000000    0.00000000    0.00000000
     atom    5 type  5   force =     0.00000000    0.00000000    0.00000000
     atom    6 type  5   force =     0.00000000    0.00000000    0.00000000
     atom    7 type  5   force =     0.00000000    0.00000000    0.00000000
     atom    8 type  5   force =     0.00000000    0.00000000    0.00000000
     atom    9 type  5   force =     0.00000000    0.00000000    0.00000000
     atom   10 type  5   force =     0.00000000    0.00000000    0.00000000
     The SCF correction term to forces
     atom    1 type  1   force =    -0.00004094    0.00002804    0.00001667
     atom    2 type  2   force =    -0.00000555    0.00002024    0.00000101
     atom    3 type  3   force =     0.00000454   -0.00006102    0.00001856
     atom    4 type  4   force =    -0.00000043    0.00004764   -0.00002284
     atom    5 type  5   force =     0.00000487    0.00015702    0.00008698
     atom    6 type  5   force =    -0.00000320   -0.00013864   -0.00007728
     atom    7 type  5   force =    -0.00010611    0.00009418   -0.00011502
     atom    8 type  5   force =     0.00009898   -0.00008705    0.00010533
     atom    9 type  5   force =    -0.00007397   -0.00007741    0.00008192
     atom   10 type  5   force =     0.00007875    0.00008209   -0.00008771

     Total force =     0.059047     Total SCF correction =     0.000410

     Computing stress (Cartesian axis) and pressure

     negative rho (up, down):  1.340E-01 0.000E+00
          total   stress  (Ry/bohr**3)                   (kbar)     P=     -168.96
  -0.00114854   0.00000000  -0.00000000         -168.96        0.00       -0.00
  -0.00000000  -0.00114854  -0.00000000           -0.00     -168.96       -0.00
   0.00000000   0.00000000  -0.00114855            0.00        0.00     -168.96

     kinetic stress (kbar)  21405.87     -0.00      0.00
                               -0.00  21405.87      0.00
                               -0.00      0.00  21405.87

     local   stress (kbar) -10137.63      0.92     -1.13
                                0.92 -10137.13     -1.28
                               -1.13     -1.28 -10137.38

     nonloc. stress (kbar)   8381.65     -0.00     -0.00
                                0.00   8381.65      0.00
                                0.00     -0.00   8381.65

     hartree stress (kbar)   5541.83     -0.36      0.48
                               -0.36   5541.98      0.41
                                0.48      0.41   5541.90

     exc-cor stress (kbar)   2093.66     -0.01      0.01
                               -0.01   2093.66      0.01
                                0.01      0.01   2093.66

     corecor stress (kbar)  -7045.92      0.01     -0.01
                                0.01  -7045.91     -0.01
                               -0.01     -0.01  -7045.92

     ewald   stress (kbar) -20408.75      0.00     -0.00
                                0.00 -20408.75      0.00
                               -0.00      0.00 -20408.75

     hubbard stress (kbar)      0.00      0.00      0.00
                                0.00      0.00      0.00
                                0.00      0.00      0.00

     DFT-D   stress (kbar)      0.00      0.00      0.00
                                0.00      0.00      0.00
                                0.00      0.00      0.00

     XDM     stress (kbar)      0.00      0.00      0.00
                                0.00      0.00      0.00
                                0.00      0.00      0.00

     dft-nl  stress (kbar)      0.00      0.00      0.00
                                0.00      0.00      0.00
                                0.00      0.00      0.00

     TS-vdW  stress (kbar)      0.00      0.00      0.00
                                0.00      0.00      0.00
                                0.00      0.00      0.00

[...]

                                0.00      0.00      0.00

     Writing all to output data dir new_calculations/myprefix.save/

     General routines

     Parallel routines

     PAW routines

   This run was terminated on:  18: 3:13  20May2023

   JOB DONE.