     Program PWSCF v.7.0 starts on 21May2023 at  7:17:50

     Reading input from espresso_14177.pwi
Warning: card &CELL ignored
Warning: card / ignored

     Current dimensions of program PWSCF are:
     Max number of different atomic species (ntypx) = 10
     Max number of k-points (npk) =  40000
     Max angular momentum in pseudopotentials (lmaxx) =  4

     gamma-point specific algorithms are used
     Message from routine setup:
     using ibrav=0 with symmetry is DISCOURAGED, use correct ibrav instead

     Subspace diagonalization in iterative solution of the eigenvalue problem:
     a serial algorithm will be used

     Using Slab Decomposition

     bravais-lattice index     =            0
     lattice parameter (alat)  =      10.0351  a.u.
     unit-cell volume          =     669.0560 (a.u.)^3
     number of atoms/cell      =            6
     number of atomic types    =            3
     number of electrons       =        98.00
     number of Kohn-Sham states=           59
     kinetic-energy cutoff     =      30.0000  Ry
     charge density cutoff     =     240.0000  Ry
     scf convergence threshold =      1.0E-06
     mixing beta               =       0.7000
     number of iterations used =            8  plain     mixing
     Exchange-correlation= PBE
                           (   1   4   3   4   0   0   0)

     celldm(1)=  10.035088  celldm(2)=   0.000000  celldm(3)=   0.000000
     celldm(4)=   0.000000  celldm(5)=   0.000000  celldm(6)=   0.000000

     crystal axes: (cart. coord. in units of alat)
               a(1) = (   1.000000   0.000000   0.000000 )
               a(2) = (  -0.500000   0.866025   0.000000 )
               a(3) = (   0.000000   0.000000   0.764484 )

     reciprocal axes: (cart. coord. in units 2 pi/alat)
               b(1) = (  1.000000  0.577350  0.000000 )
               b(2) = (  0.000000  1.154700  0.000000 )
               b(3) = (  0.000000  0.000000  1.308072 )

     PseudoPot. # 1 for La read from file:
     /home/pragov/projects/rrg-bengioy-ad/pragov/crystal_structure_design/SSSP/La.GGA-PBE-paw-v1.0.UPF
     MD5 check sum: 436541e95c1ad8901025bd0b0ed42ae2
     Pseudo is Projector augmented-wave + core cor, Zval = 11.0
     Generated using ATOMPAW code
     Shape of augmentation charge: BESSEL
     Using radial grid of 1101 points,  8 beta functions with:
                l(1) =   0
                l(2) =   0
                l(3) =   1
                l(4) =   1
                l(5) =   2
                l(6) =   2
                l(7) =   3
                l(8) =   3
     Q(r) pseudized with 0 coefficients

     PseudoPot. # 2 for Ni read from file:
     /home/pragov/projects/rrg-bengioy-ad/pragov/crystal_structure_design/SSSP/ni_pbe_v1.4.uspp.F.UPF
     MD5 check sum: 1ee80287db30b12d2bc1f57a5b5d6409
     Pseudo is Ultrasoft + core correction, Zval = 18.0
     Generated by new atomic code, or converted to UPF format
     Using radial grid of  865 points,  6 beta functions with:
                l(1) =   0
                l(2) =   0
                l(3) =   1
                l(4) =   1
                l(5) =   2
                l(6) =   2
     Q(r) pseudized with 10 coefficients,  rinner =    0.980   0.980   0.980
                                                       0.980   0.980

     PseudoPot. # 3 for Rh read from file:
     /home/pragov/projects/rrg-bengioy-ad/pragov/crystal_structure_design/SSSP/Rh_ONCV_PBE-1.0.oncvpsp.upf
     MD5 check sum: ba07c69523b14cacd10683cd4c4284c1
     Pseudo is Norm-conserving, Zval = 17.0
     Generated using ONCVPSP code by D. R. Hamann
     Using radial grid of 1442 points,  6 beta functions with:
                l(1) =   0
                l(2) =   0
                l(3) =   1
                l(4) =   1
                l(5) =   2
                l(6) =   2

     atomic species   valence    mass     pseudopotential
        La            11.00   138.90547     La( 1.00)
        Ni            18.00    58.69340     Ni( 1.00)
        Rh            17.00   102.90550     Rh( 1.00)

     24 Sym. Ops., with inversion, found

                                    s                        frac. trans.

      isym =  1     identity

 cryst.   s( 1) = (     1          0          0      )
                  (     0          1          0      )
                  (     0          0          1      )

 cart.    s( 1) = (  1.0000000 -0.0000000  0.0000000 )
                  (  0.0000000  1.0000000  0.0000000 )
                  (  0.0000000  0.0000000  1.0000000 )

      isym =  2     180 deg rotation - cart. axis [0,0,1]

[...]

      isym =  4     180 deg rotation - cart. axis [1,0,0]

[...]

      isym =  5      60 deg rotation - cryst. axis [0,0,1]

[...]

 cryst.   s( 9) = (     0         -1          0      )
                  (    -1          0          0      )
                  (     0          0         -1      )

 cart.    s( 9) = (  0.4999999 -0.8660254  0.0000000 )
                  ( -0.8660254 -0.4999999  0.0000000 )
                  (  0.0000000  0.0000000 -1.0000000 )

[...]

 cryst.   s(10) = (     1          1          0      )
                  (     0         -1          0      )
                  (     0          0         -1      )

 cart.    s(10) = (  0.5000001  0.8660253  0.0000000 )
                  (  0.8660254 -0.5000001  0.0000000 )
                  (  0.0000000  0.0000000 -1.0000000 )

[...]

      isym = 12     180 deg rotation - cryst. axis [1,1,0]

[...]

      isym = 13     inversion

[...]

      isym = 14     inv. 180 deg rotation - cart. axis [0,0,1]

[...]

      isym = 16     inv. 180 deg rotation - cart. axis [1,0,0]

[...]

      isym = 17     inv.  60 deg rotation - cryst. axis [0,0,1]

[...]

      isym = 24     inv. 180 deg rotation - cryst. axis [1,1,0]

 cryst.   s(24) = (     0         -1          0      )
                  (    -1          0          0      )
                  (     0          0          1      )

 cart.    s(24) = (  0.4999999 -0.8660254  0.0000000 )
                  ( -0.8660254 -0.4999999  0.0000000 )
                  (  0.0000000  0.0000000  1.0000000 )

   Cartesian axes

     site n.     atom                  positions (alat units)
         1           La  tau(   1) = (   0.0000000   0.0000000   0.0000000  )
         2           Ni  tau(   2) = (   0.5000005   0.2886749   0.0000000  )
         3           Ni  tau(   3) = (  -0.0000005   0.5773506   0.0000000  )
         4           Rh  tau(   4) = (   0.2500000   0.4330127   0.3822419  )
         5           Rh  tau(   5) = (   0.5000000   0.0000000   0.3822419  )
         6           Rh  tau(   6) = (  -0.2500000   0.4330127   0.3822419  )

   Crystallographic axes

     site n.     atom                  positions (cryst. coord.)
         1           La  tau(   1) = (  0.0000000  0.0000000  0.0000000  )
         2           Ni  tau(   2) = (  0.6666670  0.3333330  0.0000000  )
         3           Ni  tau(   3) = (  0.3333330  0.6666670  0.0000000  )
         4           Rh  tau(   4) = (  0.5000000  0.5000000  0.5000000  )
         5           Rh  tau(   5) = (  0.5000000  0.0000000  0.5000000  )
         6           Rh  tau(   6) = (  0.0000000  0.5000000  0.5000000  )

     number of k points=     1  Methfessel-Paxton smearing, width (Ry)=  0.0010
                       cart. coord. in units 2pi/alat
        k(    1) = (   0.0000000   0.0000000   0.0000000), wk =   2.0000000

                       cryst. coord.
        k(    1) = (   0.0000000   0.0000000   0.0000000), wk =   2.0000000

     Check: negative core charge=   -0.000005

     Initial potential from superposition of free atoms

     starting charge      93.9902, renormalised to      98.0000
     Starting wfcs are   88 randomized atomic wfcs
     Checking if some PAW data can be deallocated...

     Self-consistent Calculation

     iteration #  1     ecut=    30.00 Ry     beta= 0.70
     Davidson diagonalization with overlap

     ethr =  1.00E-02,  avg # of iterations =  4.0

     total energy              =   -1768.04023135 Ry
     estimated scf accuracy    <      36.27964998 Ry

[...]

     c_bands:  1 eigenvalues not converged
     ethr =  6.84E-08,  avg # of iterations = 20.0

[...]

     total energy              =   -1795.28430158 Ry
     estimated scf accuracy    <       0.00476210 Ry

     iteration # 47     ecut=    30.00 Ry     beta= 0.70
     Davidson diagonalization with overlap

     ethr =  6.84E-08,  avg # of iterations =  2.0

     End of self-consistent calculation

          k = 0.0000 0.0000 0.0000 (   922 PWs)   bands (ev):

   -84.9057 -84.9021 -61.0278 -60.9600 -60.9599 -45.6042 -45.6027 -45.0781
   -45.0781 -45.0538 -45.0538 -29.5063 -29.0634 -29.0634 -28.7731 -28.7066
   -28.7065 -28.6982 -28.6982 -28.5572 -14.2728   1.8531   1.9505   1.9505
    10.3360  12.2468  12.9829  12.9830  13.0834  13.1772  13.6945  13.6945
    14.2788  14.2789  15.5586  16.1244  16.1244  16.3172  16.3172  16.4915
    16.4916  16.7340  16.8700  16.9323  16.9323  17.5610  17.5611  18.3262
    18.4444  18.4444  18.4471  19.6762  19.8844  19.8874  19.8874  20.2034
    20.2034  20.7449  20.7454

     occupation numbers
     1.0000   1.0000   1.0000   1.0000   1.0000   1.0000   1.0000   1.0000
     1.0000   1.0000   1.0000   1.0000   1.0000   1.0000   1.0000   1.0000
     1.0000   1.0000   1.0000   1.0000   1.0000   1.0000   1.0000   1.0000
     1.0000   1.0000   1.0000   1.0000   1.0000   1.0000   1.0000   1.0000
     1.0000   1.0000   1.0000   1.0000   1.0000   1.0000   1.0000   1.0000
     1.0000   1.0000   1.0000   1.0000   1.0000   1.0000   1.0000   1.0000
     0.3831   0.3821   0.2347  -0.0000  -0.0000  -0.0000  -0.0000  -0.0000
    -0.0000  -0.0000  -0.0000

     the Fermi energy is    18.4425 ev

!    total energy              =   -1795.28431612 Ry
     estimated scf accuracy    <       0.00000051 Ry
     smearing contrib. (-TS)   =      -0.00072792 Ry
     internal energy E=F+TS    =   -1795.28358820 Ry

     The total energy is F=E-TS. E is the sum of the following terms:
     one-electron contribution =    -778.44885402 Ry
     hartree contribution      =     446.94146941 Ry
     xc contribution           =    -145.96906083 Ry
     ewald contribution        =    -919.65997358 Ry
     one-center paw contrib.   =    -398.14716918 Ry
      -> PAW hartree energy AE =      35.30826808 Ry
      -> PAW hartree energy PS =     -35.34399711 Ry
      -> PAW xc energy AE      =    -405.43984902 Ry
      -> PAW xc energy PS      =       7.32840887 Ry
      -> total E_H with PAW    =     446.90574038 Ry
      -> total E_XC with PAW   =    -544.08050098 Ry

     convergence has been achieved in  47 iterations

     Forces acting on atoms (cartesian axes, Ry/au):

     atom    1 type  1   force =     0.00000000    0.00000000    0.00000000
     atom    2 type  2   force =     0.00000000   -0.00000000    0.00000000
     atom    3 type  2   force =    -0.00000000   -0.00000000    0.00000000
     atom    4 type  3   force =    -0.00000000    0.00000000    0.00000000
     atom    5 type  3   force =     0.00000000    0.00000000    0.00000000
     atom    6 type  3   force =     0.00000000    0.00000000   -0.00000000
     The non-local contrib.  to forces
     atom    1 type  1   force =    -0.00000000   -0.00000000    0.00000000
     atom    2 type  2   force =     0.00000000   -0.00000000    0.00000000
     atom    3 type  2   force =    -0.00000000    0.00000000    0.00000000
     atom    4 type  3   force =    -0.00000000    0.00000000    0.00000000
     atom    5 type  3   force =    -0.00000000    0.00000000    0.00000000
     atom    6 type  3   force =     0.00000000   -0.00000000   -0.00000000
     The ionic contribution  to forces
     atom    1 type  1   force =     0.00000000    0.00000000    0.00000000
     atom    2 type  2   force =    -0.00009189    0.00005306    0.00000000
     atom    3 type  2   force =     0.00009189   -0.00005306    0.00000000
     atom    4 type  3   force =     0.00000000   -0.00000000   -0.00000000
     atom    5 type  3   force =    -0.00000000    0.00000000   -0.00000000
     atom    6 type  3   force =    -0.00000000   -0.00000000   -0.00000000
     The local contribution  to forces
     atom    1 type  1   force =    -0.00000295    0.00001521    0.00000343
     atom    2 type  2   force =     0.00061169   -0.00032447   -0.00004173
     atom    3 type  2   force =    -0.00060287    0.00031392    0.00003431
     atom    4 type  3   force =     0.00011722   -0.00007953    0.00000229
     atom    5 type  3   force =     0.00001194    0.00014900    0.00000336
     atom    6 type  3   force =    -0.00012279   -0.00008195    0.00000921
     The core correction contribution to forces
     atom    1 type  1   force =    -0.00000000    0.00000001    0.00000000
     atom    2 type  2   force =    -0.00000065    0.00000029    0.00000003
     atom    3 type  2   force =     0.00000076   -0.00000042    0.00000015
     atom    4 type  3   force =     0.00000000    0.00000000    0.00000000
     atom    5 type  3   force =     0.00000000    0.00000000    0.00000000
     atom    6 type  3   force =     0.00000000    0.00000000    0.00000000
     The Hubbard contrib.    to forces
     atom    1 type  1   force =     0.00000000    0.00000000    0.00000000
     atom    2 type  2   force =     0.00000000    0.00000000    0.00000000
     atom    3 type  2   force =     0.00000000    0.00000000    0.00000000
     atom    4 type  3   force =     0.00000000    0.00000000    0.00000000
     atom    5 type  3   force =     0.00000000    0.00000000    0.00000000
     atom    6 type  3   force =     0.00000000    0.00000000    0.00000000
     The SCF correction term to forces
     atom    1 type  1   force =     0.00000621   -0.00000868    0.00000099
     atom    2 type  2   force =    -0.00048810    0.00025939    0.00007098
     atom    3 type  2   force =     0.00047789   -0.00025224   -0.00005543
     atom    4 type  3   force =    -0.00011229    0.00007686   -0.00000001
     atom    5 type  3   force =    -0.00002164   -0.00014162   -0.00000747
     atom    6 type  3   force =     0.00011895    0.00008403   -0.00000985

     Total force =     0.000000     Total SCF correction =     0.000816

     Computing stress (Cartesian axis) and pressure

          total   stress  (Ry/bohr**3)                   (kbar)     P=     -511.06
  -0.00293341   0.00000000   0.00000000         -431.52        0.00        0.00
   0.00000000  -0.00293341  -0.00000000            0.00     -431.52       -0.00
   0.00000000   0.00000000  -0.00455555            0.00        0.00     -670.14

     kinetic stress (kbar)  47448.50     -0.00      0.00
                               -0.00  47448.49     -0.00
                                0.00     -0.00  47123.48

     local   stress (kbar)   3029.30     -1.80      0.05
                               -1.80   3027.63      0.19
                                0.05      0.19 -53434.10

     nonloc. stress (kbar)  12803.58     -0.00      0.00
                               -0.00  12803.58     -0.00
                                0.00     -0.00  12518.88

     hartree stress (kbar)  23976.17      1.01     -0.01
                                1.01  23977.12     -0.04
                               -0.01     -0.04  50315.55

     exc-cor stress (kbar)  -9317.78      0.00     -0.00
                                0.00  -9317.77     -0.00
                               -0.00     -0.00  -9316.41

     corecor stress (kbar)   -805.32     -0.00      0.00
                               -0.00   -805.33      0.00
                                0.00      0.00   -803.48

     ewald   stress (kbar) -77565.67      0.11      0.00
                                0.11 -77565.53      0.00
                                0.00      0.00 -47074.07

     hubbard stress (kbar)      0.00      0.00      0.00
                                0.00      0.00      0.00
                                0.00      0.00      0.00

     DFT-D   stress (kbar)      0.00      0.00      0.00
                                0.00      0.00      0.00
                                0.00      0.00      0.00

     XDM     stress (kbar)      0.00      0.00      0.00
                                0.00      0.00      0.00
                                0.00      0.00      0.00

     dft-nl  stress (kbar)      0.00      0.00      0.00
                                0.00      0.00      0.00
                                0.00      0.00      0.00

     TS-vdW  stress (kbar)      0.00      0.00      0.00
                                0.00      0.00      0.00
                                0.00      0.00      0.00

[...]

                                0.00      0.00      0.00

     Writing all to output data dir new_calculations/myprefix.save/

     General routines

     Parallel routines

     PAW routines

   This run was terminated on:   7:18:31  21May2023

   JOB DONE.