     Program PWSCF v.7.0 starts on 21May2023 at 15:58:52

     Reading input from espresso_25705.pwi
Warning: card &CELL ignored
Warning: card / ignored

     Current dimensions of program PWSCF are:
     Max number of different atomic species (ntypx) = 10
     Max number of k-points (npk) =  40000
     Max angular momentum in pseudopotentials (lmaxx) =  4

     gamma-point specific algorithms are used
     Message from routine setup:
     using ibrav=0 with symmetry is DISCOURAGED, use correct ibrav instead

     Subspace diagonalization in iterative solution of the eigenvalue problem:
     a serial algorithm will be used

     Using Slab Decomposition

     bravais-lattice index     =            0
     lattice parameter (alat)  =      20.6866  a.u.
     unit-cell volume          =    4068.7207 (a.u.)^3
     number of atoms/cell      =           20
     number of atomic types    =            3
     number of electrons       =       304.00
     number of Kohn-Sham states=          182
     kinetic-energy cutoff     =      30.0000  Ry
     charge density cutoff     =     240.0000  Ry
     scf convergence threshold =      1.0E-06
     mixing beta               =       0.7000
     number of iterations used =            8  plain     mixing
     Exchange-correlation= PBE
                           (   1   4   3   4   0   0   0)

     celldm(1)=  20.686628  celldm(2)=   0.000000  celldm(3)=   0.000000
     celldm(4)=   0.000000  celldm(5)=   0.000000  celldm(6)=   0.000000

     crystal axes: (cart. coord. in units of alat)
               a(1) = (   1.000000   0.000000   0.000000 )
               a(2) = (   0.000000   1.000000   0.000000 )
               a(3) = (   0.000000   0.000000   0.459609 )

     reciprocal axes: (cart. coord. in units 2 pi/alat)
               b(1) = (  1.000000  0.000000  0.000000 )
               b(2) = (  0.000000  1.000000  0.000000 )
               b(3) = (  0.000000  0.000000  2.175761 )

     PseudoPot. # 1 for Sr read from file:
     /home/pragov/projects/rrg-bengioy-ad/pragov/crystal_structure_design/SSSP/Sr_pbe_v1.uspp.F.UPF
     MD5 check sum: 6b418c05fbe9db5448babca5e47b7a5b
     Pseudo is Ultrasoft + core correction, Zval = 10.0
     Generated by new atomic code, or converted to UPF format
     Using radial grid of  883 points,  6 beta functions with:
                l(1) =   0
                l(2) =   0
                l(3) =   1
                l(4) =   1
                l(5) =   2
                l(6) =   2
     Q(r) pseudized with  6 coefficients,  rinner =    1.400   1.400   1.400
                                                       1.400   1.400

     PseudoPot. # 2 for Tl read from file:
     /home/pragov/projects/rrg-bengioy-ad/pragov/crystal_structure_design/SSSP/Tl_pbe_v1.2.uspp.F.UPF
     MD5 check sum: b76cf1f7e72655a2b2c53cf6385d7059
     Pseudo is Ultrasoft + core correction, Zval = 13.0
     Generated by new atomic code, or converted to UPF format
     Using radial grid of  899 points,  6 beta functions with:
                l(1) =   0
                l(2) =   0
                l(3) =   1
                l(4) =   1
                l(5) =   2
                l(6) =   2
     Q(r) pseudized with  6 coefficients,  rinner =    1.100   1.100   1.100
                                                       1.100   1.100

     PseudoPot. # 3 for Hg read from file:
     /home/pragov/projects/rrg-bengioy-ad/pragov/crystal_structure_design/SSSP/Hg_ONCV_PBE-1.0.oncvpsp.upf
     MD5 check sum: dd5a8773074bfcf4280086d4d95875c4
     Pseudo is Norm-conserving, Zval = 20.0
     Generated using ONCVPSP code by D. R. Hamann
     Using radial grid of 1262 points,  8 beta functions with:
                l(1) =   0
                l(2) =   0
                l(3) =   1
                l(4) =   1
                l(5) =   2
                l(6) =   2
                l(7) =   3
                l(8) =   3

     atomic species   valence    mass     pseudopotential
        Sr            10.00    87.62000     Sr( 1.00)
        Tl            13.00   204.38000     Tl( 1.00)
        Hg            20.00   200.59200     Hg( 1.00)

     16 Sym. Ops., with inversion, found ( 8 have fractional translation)

                                    s                        frac. trans.

      isym =  1     identity

 cryst.   s( 1) = (     1          0          0      )
                  (     0          1          0      )
                  (     0          0          1      )

 cart.    s( 1) = (  1.0000000  0.0000000  0.0000000 )
                  (  0.0000000  1.0000000  0.0000000 )
                  (  0.0000000  0.0000000  1.0000000 )

      isym =  2     180 deg rotation - cart. axis [0,0,1]

[...]

 cryst.   s( 3) = (    -1          0          0      )    f =(  0.5000000 )
                  (     0          1          0      )       (  0.5000000 )
                  (     0          0         -1      )       (  0.5000000 )

 cart.    s( 3) = ( -1.0000000  0.0000000  0.0000000 )    f =(  0.5000000 )
                  (  0.0000000  1.0000000  0.0000000 )       (  0.5000000 )
                  (  0.0000000  0.0000000 -1.0000000 )       (  0.2298046 )

[...]

      isym =  8      90 deg rotation - cart. axis [0,0,1]

 cryst.   s( 8) = (     0          1          0      )    f =(  0.5000000 )
                  (    -1          0          0      )       (  0.5000000 )
                  (     0          0          1      )       ( -0.5000000 )

 cart.    s( 8) = (  0.0000000 -1.0000000  0.0000000 )    f =(  0.5000000 )
                  (  1.0000000  0.0000000  0.0000000 )       (  0.5000000 )
                  (  0.0000000  0.0000000  1.0000000 )       ( -0.2298046 )

      isym =  9     inversion

 cryst.   s( 9) = (    -1          0          0      )
                  (     0         -1          0      )
                  (     0          0         -1      )

 cart.    s( 9) = ( -1.0000000  0.0000000  0.0000000 )
                  (  0.0000000 -1.0000000  0.0000000 )
                  (  0.0000000  0.0000000 -1.0000000 )

      isym = 10     inv. 180 deg rotation - cart. axis [0,0,1]

 cryst.   s(10) = (     1          0          0      )
                  (     0          1          0      )
                  (     0          0         -1      )

 cart.    s(10) = (  1.0000000  0.0000000  0.0000000 )
                  (  0.0000000  1.0000000  0.0000000 )
                  (  0.0000000  0.0000000 -1.0000000 )

[...]

 cryst.   s(11) = (     1          0          0      )    f =(  0.5000000 )
                  (     0         -1          0      )       (  0.5000000 )
                  (     0          0          1      )       ( -0.5000000 )

 cart.    s(11) = (  1.0000000  0.0000000  0.0000000 )    f =(  0.5000000 )
                  (  0.0000000 -1.0000000  0.0000000 )       (  0.5000000 )
                  (  0.0000000  0.0000000  1.0000000 )       ( -0.2298046 )

[...]

 cryst.   s(14) = (     0          1          0      )
                  (     1          0          0      )
                  (     0          0          1      )

 cart.    s(14) = (  0.0000000  1.0000000  0.0000000 )
                  (  1.0000000  0.0000000  0.0000000 )
                  (  0.0000000  0.0000000  1.0000000 )

[...]

      isym = 16     inv.  90 deg rotation - cart. axis [0,0,1]

 cryst.   s(16) = (     0         -1          0      )    f =(  0.5000000 )
                  (     1          0          0      )       (  0.5000000 )
                  (     0          0         -1      )       (  0.5000000 )

 cart.    s(16) = (  0.0000000  1.0000000  0.0000000 )    f =(  0.5000000 )
                  ( -1.0000000  0.0000000  0.0000000 )       (  0.5000000 )
                  (  0.0000000  0.0000000 -1.0000000 )       (  0.2298046 )

   Cartesian axes

     site n.     atom                  positions (alat units)
         1           Sr  tau(   1) = (   0.3535070   0.3535070   0.0000000  )
         2           Sr  tau(   2) = (   0.6464930   0.6464930   0.0000000  )
         3           Sr  tau(   3) = (   0.8535070   0.1464930   0.2298046  )
         4           Sr  tau(   4) = (   0.1464930   0.8535070   0.2298046  )
         5           Tl  tau(   5) = (   0.6433140   0.0280840   0.0000000  )
         6           Tl  tau(   6) = (   0.3566860   0.9719160   0.0000000  )
         7           Tl  tau(   7) = (   0.5280840   0.8566860   0.2298046  )
         8           Tl  tau(   8) = (   0.1433140   0.4719160   0.2298046  )
         9           Tl  tau(   9) = (   0.4719160   0.1433140   0.2298046  )
        10           Tl  tau(  10) = (   0.8566860   0.5280840   0.2298046  )
        11           Tl  tau(  11) = (   0.0280840   0.6433140   0.0000000  )
        12           Tl  tau(  12) = (   0.9719160   0.3566860   0.0000000  )
        13           Hg  tau(  13) = (   0.6889500   0.3110500   0.0000000  )
        14           Hg  tau(  14) = (   0.3110500   0.6889500   0.0000000  )
        15           Hg  tau(  15) = (   0.8110500   0.8110500   0.2298046  )
        16           Hg  tau(  16) = (   0.1889500   0.1889500   0.2298046  )
        17           Hg  tau(  17) = (   0.0943130   0.0943130   0.0000000  )
        18           Hg  tau(  18) = (   0.9056870   0.9056870   0.0000000  )
        19           Hg  tau(  19) = (   0.5943130   0.4056870   0.2298046  )
        20           Hg  tau(  20) = (   0.4056870   0.5943130   0.2298046  )

   Crystallographic axes

     site n.     atom                  positions (cryst. coord.)
         1           Sr  tau(   1) = (  0.3535070  0.3535070  0.0000000  )
         2           Sr  tau(   2) = (  0.6464930  0.6464930  0.0000000  )
         3           Sr  tau(   3) = (  0.8535070  0.1464930  0.5000000  )
         4           Sr  tau(   4) = (  0.1464930  0.8535070  0.5000000  )
         5           Tl  tau(   5) = (  0.6433140  0.0280840  0.0000000  )
         6           Tl  tau(   6) = (  0.3566860  0.9719160  0.0000000  )
         7           Tl  tau(   7) = (  0.5280840  0.8566860  0.5000000  )
         8           Tl  tau(   8) = (  0.1433140  0.4719160  0.5000000  )
         9           Tl  tau(   9) = (  0.4719160  0.1433140  0.5000000  )
        10           Tl  tau(  10) = (  0.8566860  0.5280840  0.5000000  )
        11           Tl  tau(  11) = (  0.0280840  0.6433140  0.0000000  )
        12           Tl  tau(  12) = (  0.9719160  0.3566860  0.0000000  )
        13           Hg  tau(  13) = (  0.6889500  0.3110500  0.0000000  )
        14           Hg  tau(  14) = (  0.3110500  0.6889500  0.0000000  )
        15           Hg  tau(  15) = (  0.8110500  0.8110500  0.5000000  )
        16           Hg  tau(  16) = (  0.1889500  0.1889500  0.5000000  )
        17           Hg  tau(  17) = (  0.0943130  0.0943130  0.0000000  )
        18           Hg  tau(  18) = (  0.9056870  0.9056870  0.0000000  )
        19           Hg  tau(  19) = (  0.5943130  0.4056870  0.5000000  )
        20           Hg  tau(  20) = (  0.4056870  0.5943130  0.5000000  )

     number of k points=     1  Methfessel-Paxton smearing, width (Ry)=  0.0010
                       cart. coord. in units 2pi/alat
[...]
     3.6591   3.6908   3.7086   3.7086   3.8082   3.8468   3.8885   3.9699
     4.0271   4.0271   4.0800   4.0801   4.0932   4.1315   4.1346   4.1878
     4.1878   4.2128   4.2586   4.2587   4.3200   4.9759   5.0636   5.0637
     5.8648   6.6218   7.1183   7.1183   7.9357   8.1552   9.3214   9.3214
     9.4445   9.6375   9.9519  10.1288  10.7382  10.8262  11.0615  11.0615
    11.0761  11.0762  11.1346  11.7240  11.8343  11.8343  12.1010  12.1698
    12.3630  12.6576  12.6577  12.9688  12.9688  13.2688  13.3726  13.6838
    13.6838  13.7109  13.7424  13.9740  14.0602  14.1860  14.1861  14.5070
    14.5075  14.5075  14.6732  14.7211  14.8426  14.8901

     occupation numbers
     1.0000   1.0000   1.0000   1.0000   1.0000   1.0000   1.0000   1.0000
     1.0000   1.0000   1.0000   1.0000   1.0000   1.0000   1.0000   1.0000
     1.0000   1.0000   1.0000   1.0000   1.0000   1.0000   1.0000   1.0000
     1.0000   1.0000   1.0000   1.0000   1.0000   1.0000   1.0000   1.0000
     1.0000   1.0000   1.0000   1.0000   1.0000   1.0000   1.0000   1.0000
     1.0000   1.0000   1.0000   1.0000   1.0000   1.0000   1.0000   1.0000
     1.0000   1.0000   1.0000   1.0000   1.0000   1.0000   1.0000   1.0000
     1.0000   1.0000   1.0000   1.0000   1.0000   1.0000   1.0000   1.0000
     1.0000   1.0000   1.0000   1.0000   1.0000   1.0000   1.0000   1.0000
     1.0000   1.0000   1.0000   1.0000   1.0000   1.0000   1.0000   1.0000
     1.0000   1.0000   1.0000   1.0000   1.0000   1.0000   1.0000   1.0000
     1.0000   1.0000   1.0000   1.0000   1.0000   1.0000   1.0000   1.0000
     1.0000   1.0000   1.0000   1.0000   1.0000   1.0000   1.0000   1.0000
     1.0000   1.0000   1.0000   1.0000   1.0000   1.0000   1.0000   1.0000
     1.0000   1.0000   1.0000   1.0000   1.0000   1.0000   1.0000   1.0000
     1.0000   1.0000   1.0000   1.0000   1.0000   1.0000   1.0000   1.0000
     1.0000   1.0000   1.0000   1.0000   1.0000   1.0000   1.0000   1.0000
     1.0000   1.0000   1.0000   1.0000   1.0000   1.0000   1.0000   1.0000
     1.0000   1.0000   1.0000   1.0000   1.0000   1.0000   0.8907   0.8895
     0.1108   0.1090  -0.0000  -0.0000  -0.0000  -0.0000  -0.0000  -0.0000
    -0.0000  -0.0000  -0.0000  -0.0000  -0.0000  -0.0000  -0.0000  -0.0000
    -0.0000  -0.0000  -0.0000  -0.0000  -0.0000  -0.0000  -0.0000  -0.0000
    -0.0000  -0.0000  -0.0000  -0.0000  -0.0000  -0.0000

     the Fermi energy is    11.0688 ev

!    total energy              =   -3919.31330973 Ry
     estimated scf accuracy    <       0.00000035 Ry
     smearing contrib. (-TS)   =      -0.00035647 Ry
     internal energy E=F+TS    =   -3919.31295326 Ry

     The total energy is F=E-TS. E is the sum of the following terms:
     one-electron contribution =   -1915.50026493 Ry
     hartree contribution      =    1062.31771787 Ry
     xc contribution           =    -789.10030746 Ry
     ewald contribution        =   -2277.03009874 Ry

     convergence has been achieved in  23 iterations

     negative rho (up, down):  6.772E-01 0.000E+00

     Forces acting on atoms (cartesian axes, Ry/au):

     atom    1 type  1   force =    -0.00374830   -0.00374830   -0.00000000
     atom    2 type  1   force =     0.00374830    0.00374830   -0.00000000
     atom    3 type  1   force =    -0.00374830    0.00374830    0.00000000
     atom    4 type  1   force =     0.00374830   -0.00374830    0.00000000
     atom    5 type  2   force =     0.02543359    0.02009626    0.00000000
     atom    6 type  2   force =    -0.02543359   -0.02009626   -0.00000000
     atom    7 type  2   force =     0.02009626   -0.02543359    0.00000000
     atom    8 type  2   force =     0.02543359   -0.02009626    0.00000000
     atom    9 type  2   force =    -0.02009626    0.02543359    0.00000000
     atom   10 type  2   force =    -0.02543359    0.02009626    0.00000000
     atom   11 type  2   force =     0.02009626    0.02543359    0.00000000
     atom   12 type  2   force =    -0.02009626   -0.02543359    0.00000000
     atom   13 type  3   force =     0.02516219   -0.02516219    0.00000000
     atom   14 type  3   force =    -0.02516219    0.02516219    0.00000000
     atom   15 type  3   force =    -0.02516219   -0.02516219    0.00000000
     atom   16 type  3   force =     0.02516219    0.02516219   -0.00000000
     atom   17 type  3   force =    -0.02571029   -0.02571029   -0.00000000
     atom   18 type  3   force =     0.02571029    0.02571029   -0.00000000
     atom   19 type  3   force =    -0.02571029    0.02571029    0.00000000
     atom   20 type  3   force =     0.02571029   -0.02571029    0.00000000
     The non-local contrib.  to forces
     atom    1 type  1   force =    -0.01059388   -0.01059388    0.00000000
     atom    2 type  1   force =     0.01059388    0.01059388    0.00000000
     atom    3 type  1   force =    -0.01059388    0.01059388   -0.00000000
     atom    4 type  1   force =     0.01059388   -0.01059388   -0.00000000
     atom    5 type  2   force =    -0.00935791   -0.03418272   -0.00000000
     atom    6 type  2   force =     0.00935791    0.03418272   -0.00000000
     atom    7 type  2   force =    -0.03418272    0.00935791    0.00000000
     atom    8 type  2   force =    -0.00935791    0.03418272    0.00000000
     atom    9 type  2   force =     0.03418272   -0.00935791    0.00000000
     atom   10 type  2   force =     0.00935791   -0.03418272   -0.00000000
     atom   11 type  2   force =    -0.03418272   -0.00935791   -0.00000000
     atom   12 type  2   force =     0.03418272    0.00935791    0.00000000
     atom   13 type  3   force =    -0.14917501    0.14917501    0.00000000
     atom   14 type  3   force =     0.14917501   -0.14917501   -0.00000000
     atom   15 type  3   force =     0.14917501    0.14917501    0.00000000
     atom   16 type  3   force =    -0.14917501   -0.14917501    0.00000000
     atom   17 type  3   force =     0.12206611    0.12206611    0.00000000
     atom   18 type  3   force =    -0.12206611   -0.12206611   -0.00000000
     atom   19 type  3   force =     0.12206611   -0.12206611    0.00000000
     atom   20 type  3   force =    -0.12206611    0.12206611    0.00000000
     The ionic contribution  to forces
     atom    1 type  1   force =    -1.89382571   -1.89382571    0.00000000
     atom    2 type  1   force =     1.89382571    1.89382571    0.00000000
     atom    3 type  1   force =    -1.89382571    1.89382571   -0.00000000
     atom    4 type  1   force =     1.89382571   -1.89382571   -0.00000000
     atom    5 type  2   force =    -3.31973616   -0.78266176    0.00000000
     atom    6 type  2   force =     3.31973616    0.78266176    0.00000000
     atom    7 type  2   force =    -0.78266176    3.31973616   -0.00000000
     atom    8 type  2   force =    -3.31973616    0.78266176   -0.00000000
     atom    9 type  2   force =     0.78266176   -3.31973616   -0.00000000
     atom   10 type  2   force =     3.31973616   -0.78266176   -0.00000000
     atom   11 type  2   force =    -0.78266176   -3.31973616    0.00000000
     atom   12 type  2   force =     0.78266176    3.31973616    0.00000000
     atom   13 type  3   force =     6.46744521   -6.46744521    0.00000000
     atom   14 type  3   force =    -6.46744521    6.46744521    0.00000000
     atom   15 type  3   force =    -6.46744521   -6.46744521   -0.00000000
     atom   16 type  3   force =     6.46744521    6.46744521   -0.00000000
     atom   17 type  3   force =    -0.03469588   -0.03469588    0.00000000
     atom   18 type  3   force =     0.03469588    0.03469588    0.00000000
     atom   19 type  3   force =    -0.03469588    0.03469588   -0.00000000
     atom   20 type  3   force =     0.03469588   -0.03469588   -0.00000000
     The local contribution  to forces
     atom    1 type  1   force =     1.89997989    1.90020956    0.00003578
     atom    2 type  1   force =    -1.90010380   -1.90046558    0.00003284
     atom    3 type  1   force =     1.89999746   -1.89946870   -0.00003577
     atom    4 type  1   force =    -1.89988397    1.89976826   -0.00003267
     atom    5 type  2   force =     3.35540351    0.83055330   -0.00015565
     atom    6 type  2   force =    -3.35550450   -0.82988270   -0.00015882
     atom    7 type  2   force =     0.82900920   -3.35573899    0.00013853
     atom    8 type  2   force =     3.35550663   -0.82930849   -0.00001899
     atom    9 type  2   force =    -0.82920706    3.35604942    0.00014614
     atom   10 type  2   force =    -3.35537489    0.82869795   -0.00003446
     atom   11 type  2   force =     0.83011885    3.35480967    0.00004233
     atom   12 type  2   force =    -0.82996765   -3.35525779    0.00004065
     atom   13 type  3   force =    -6.29263016    6.29317242   -0.00004374
     atom   14 type  3   force =     6.29262105   -6.29368908   -0.00000643
     atom   15 type  3   force =     6.29334292    6.29264075    0.00002759
     atom   16 type  3   force =    -6.29332939   -6.29239903    0.00004067
     atom   17 type  3   force =    -0.11416523   -0.11318582    0.00013510
     atom   18 type  3   force =     0.11426000    0.11417270    0.00013721
     atom   19 type  3   force =    -0.11237563    0.11243155   -0.00010933
     atom   20 type  3   force =     0.11219129   -0.11297822   -0.00014149
     The core correction contribution to forces
     atom    1 type  1   force =     0.00068573    0.00068542    0.00000079
     atom    2 type  1   force =    -0.00068379   -0.00068414    0.00000061
     atom    3 type  1   force =     0.00069122   -0.00069161    0.00000006
     atom    4 type  1   force =    -0.00069285    0.00069027   -0.00000081
     atom    5 type  2   force =    -0.00112180    0.00735000   -0.00000882
     atom    6 type  2   force =     0.00112463   -0.00734748   -0.00000857
     atom    7 type  2   force =     0.00733258    0.00110964    0.00000552
     atom    8 type  2   force =    -0.00111343   -0.00733041   -0.00000093
     atom    9 type  2   force =    -0.00733055   -0.00111080    0.00000594
     atom   10 type  2   force =     0.00111328    0.00732870   -0.00000137
     atom   11 type  2   force =     0.00734228   -0.00112313    0.00000469
     atom   12 type  2   force =    -0.00734682    0.00112623    0.00000527
     atom   13 type  3   force =     0.00000000    0.00000000    0.00000000
     atom   14 type  3   force =     0.00000000    0.00000000    0.00000000
     atom   15 type  3   force =     0.00000000    0.00000000    0.00000000
     atom   16 type  3   force =     0.00000000    0.00000000    0.00000000
     atom   17 type  3   force =     0.00000000    0.00000000    0.00000000
     atom   18 type  3   force =     0.00000000    0.00000000    0.00000000
     atom   19 type  3   force =     0.00000000    0.00000000    0.00000000
     atom   20 type  3   force =     0.00000000    0.00000000    0.00000000
     The Hubbard contrib.    to forces
     atom    1 type  1   force =     0.00000000    0.00000000    0.00000000
     atom    2 type  1   force =     0.00000000    0.00000000    0.00000000
     atom    3 type  1   force =     0.00000000    0.00000000    0.00000000
     atom    4 type  1   force =     0.00000000    0.00000000    0.00000000
     atom    5 type  2   force =     0.00000000    0.00000000    0.00000000
     atom    6 type  2   force =     0.00000000    0.00000000    0.00000000
     atom    7 type  2   force =     0.00000000    0.00000000    0.00000000
     atom    8 type  2   force =     0.00000000    0.00000000    0.00000000
     atom    9 type  2   force =     0.00000000    0.00000000    0.00000000
     atom   10 type  2   force =     0.00000000    0.00000000    0.00000000
     atom   11 type  2   force =     0.00000000    0.00000000    0.00000000
     atom   12 type  2   force =     0.00000000    0.00000000    0.00000000
     atom   13 type  3   force =     0.00000000    0.00000000    0.00000000
     atom   14 type  3   force =     0.00000000    0.00000000    0.00000000
     atom   15 type  3   force =     0.00000000    0.00000000    0.00000000
     atom   16 type  3   force =     0.00000000    0.00000000    0.00000000
     atom   17 type  3   force =     0.00000000    0.00000000    0.00000000
     atom   18 type  3   force =     0.00000000    0.00000000    0.00000000
     atom   19 type  3   force =     0.00000000    0.00000000    0.00000000
     atom   20 type  3   force =     0.00000000    0.00000000    0.00000000
     The SCF correction term to forces
     atom    1 type  1   force =    -0.00000597   -0.00025004   -0.00002395
     atom    2 type  1   force =     0.00016187    0.00052290   -0.00002348
     atom    3 type  1   force =     0.00000359   -0.00054444    0.00002813
     atom    4 type  1   force =    -0.00014712    0.00023369    0.00002573
     atom    5 type  2   force =     0.00020490   -0.00093093    0.00010521
     atom    6 type  2   force =    -0.00007943    0.00024169    0.00011521
     atom    7 type  2   force =     0.00057990    0.00004088   -0.00011846
     atom    8 type  2   force =     0.00017614   -0.00023940   -0.00000412
     atom    9 type  2   force =    -0.00036209   -0.00037929   -0.00013247
     atom   10 type  2   force =    -0.00033518    0.00088909    0.00001685
     atom   11 type  2   force =    -0.00049762    0.00081397   -0.00000377
     atom   12 type  2   force =     0.00032825   -0.00032933    0.00000130
     atom   13 type  3   force =    -0.00054192   -0.00002369    0.00003102
     atom   14 type  3   force =     0.00049919    0.00063723   -0.00000270
     atom   15 type  3   force =    -0.00030977    0.00047688   -0.00001853
     atom   16 type  3   force =     0.00026406   -0.00075596   -0.00003234
     atom   17 type  3   force =     0.00103974   -0.00001635   -0.00012824
     atom   18 type  3   force =    -0.00116986   -0.00108507   -0.00012950
     atom   19 type  3   force =    -0.00063024    0.00060643    0.00010159
     atom   20 type  3   force =     0.00091784   -0.00000750    0.00013554

     Total force =     0.137373     Total SCF correction =     0.003422

     Computing stress (Cartesian axis) and pressure

     negative rho (up, down):  6.772E-01 0.000E+00
          total   stress  (Ry/bohr**3)                   (kbar)     P=     -328.90
  -0.00214756   0.00000000   0.00000000         -315.92        0.00        0.00
   0.00000000  -0.00214756   0.00000000            0.00     -315.92        0.00
   0.00000000   0.00000000  -0.00241229            0.00        0.00     -354.86

     kinetic stress (kbar)  22553.46      0.00      0.00
                                0.00  22553.46      0.00
                                0.00      0.00  22458.63

     local   stress (kbar)  -8437.90      0.15     -0.00
                                0.15  -8437.90      0.00
                               -0.00      0.00 -16278.52

     nonloc. stress (kbar)   8396.63      0.00      0.00
                                0.00   8396.63      0.00
                                0.00      0.00   8337.12

     hartree stress (kbar)  11629.51     -0.10      0.00
                               -0.10  11629.52     -0.00
                                0.00     -0.00  15149.20

     exc-cor stress (kbar)   9901.71     -0.00      0.00
                               -0.00   9901.71     -0.00
                                0.00     -0.00   9902.71

     corecor stress (kbar) -15440.03      0.00      0.00
                                0.00 -15440.03     -0.00
                                0.00     -0.00 -15436.30

     ewald   stress (kbar) -28919.30     -0.00     -0.00
                               -0.00 -28919.30     -0.00
                               -0.00     -0.00 -24487.69

     hubbard stress (kbar)      0.00      0.00      0.00
                                0.00      0.00      0.00
                                0.00      0.00      0.00

     DFT-D   stress (kbar)      0.00      0.00      0.00
                                0.00      0.00      0.00
                                0.00      0.00      0.00

     XDM     stress (kbar)      0.00      0.00      0.00
                                0.00      0.00      0.00
                                0.00      0.00      0.00

     dft-nl  stress (kbar)      0.00      0.00      0.00
                                0.00      0.00      0.00
                                0.00      0.00      0.00

     TS-vdW  stress (kbar)      0.00      0.00      0.00
                                0.00      0.00      0.00
                                0.00      0.00      0.00

[...]

                                0.00      0.00      0.00

     Writing all to output data dir new_calculations/myprefix.save/

     General routines

     Parallel routines

   This run was terminated on:  16: 3:34  21May2023

   JOB DONE.