     Program PWSCF v.7.0 starts on 20May2023 at 15: 6:26

     Reading input from espresso_6386.pwi
Warning: card &CELL ignored
Warning: card / ignored

     Current dimensions of program PWSCF are:
     Max number of different atomic species (ntypx) = 10
     Max number of k-points (npk) =  40000
     Max angular momentum in pseudopotentials (lmaxx) =  4

     gamma-point specific algorithms are used
     Message from routine setup:
     using ibrav=0 with symmetry is DISCOURAGED, use correct ibrav instead

     Subspace diagonalization in iterative solution of the eigenvalue problem:
     a serial algorithm will be used

     Using Slab Decomposition

     bravais-lattice index     =            0
     lattice parameter (alat)  =      10.4679  a.u.
     unit-cell volume          =     788.7382 (a.u.)^3
     number of atoms/cell      =            8
     number of atomic types    =            2
     number of electrons       =       120.00
     number of Kohn-Sham states=           72
     kinetic-energy cutoff     =      30.0000  Ry
     charge density cutoff     =     240.0000  Ry
     scf convergence threshold =      1.0E-06
     mixing beta               =       0.7000
     number of iterations used =            8  plain     mixing
     Exchange-correlation= SLA  PW   PBE  PBE
                           (   1   4   3   4   0   0   0)

     celldm(1)=  10.467863  celldm(2)=   0.000000  celldm(3)=   0.000000
     celldm(4)=   0.000000  celldm(5)=   0.000000  celldm(6)=   0.000000

     crystal axes: (cart. coord. in units of alat)
               a(1) = (   1.000000   0.000000   0.000000 )
               a(2) = (  -0.500000   0.866025   0.000000 )
               a(3) = (   0.000000   0.000000   0.794014 )

     reciprocal axes: (cart. coord. in units 2 pi/alat)
               b(1) = (  1.000000  0.577350  0.000000 )
               b(2) = (  0.000000  1.154701  0.000000 )
               b(3) = (  0.000000  0.000000  1.259424 )

     PseudoPot. # 1 for Re read from file:
     /home/pragov/projects/rrg-bengioy-ad/pragov/crystal_structure_design/SSSP/Re_pbe_v1.2.uspp.F.UPF
     MD5 check sum: 85f993410f3e006da9d71c142b4ad953
     Pseudo is Ultrasoft + core correction, Zval = 15.0
     Generated by new atomic code, or converted to UPF format
     Using radial grid of  981 points,  8 beta functions with:
                l(1) =   0
                l(2) =   0
                l(3) =   1
                l(4) =   1
                l(5) =   2
                l(6) =   2
                l(7) =   3
                l(8) =   3
     Q(r) pseudized with  8 coefficients,  rinner =    1.150   1.150   1.150
                                                       1.150   1.150   1.150
                                                       1.150

     PseudoPot. # 2 for Ir read from file:
     /home/pragov/projects/rrg-bengioy-ad/pragov/crystal_structure_design/SSSP/Ir_pbe_v1.2.uspp.F.UPF
     MD5 check sum: 8836f839c3459d2b385c504ce6d91f2c
     Pseudo is Ultrasoft + core correction, Zval = 15.0
     Generated by new atomic code, or converted to UPF format
     Using radial grid of  983 points,  7 beta functions with:
                l(1) =   0
                l(2) =   0
                l(3) =   1
                l(4) =   1
                l(5) =   1
                l(6) =   2
                l(7) =   2
     Q(r) pseudized with  8 coefficients,  rinner =    1.400   1.400   1.400
                                                       1.400   1.400

     atomic species   valence    mass     pseudopotential
        Re            15.00   186.20700     Re( 1.00)
        Ir            15.00   192.21700     Ir( 1.00)

     24 Sym. Ops., with inversion, found (12 have fractional translation)

                                    s                        frac. trans.

      isym =  1     identity

 cryst.   s( 1) = (     1          0          0      )
                  (     0          1          0      )
                  (     0          0          1      )

 cart.    s( 1) = (  1.0000000  0.0000000  0.0000000 )
                  (  0.0000000  1.0000000  0.0000000 )
                  (  0.0000000  0.0000000  1.0000000 )

      isym =  2     180 deg rotation - cart. axis [0,0,1]

 cryst.   s( 2) = (    -1          0          0      )    f =( -0.0000000 )
                  (     0         -1          0      )       ( -0.0000000 )
                  (     0          0          1      )       (  0.5000000 )

 cart.    s( 2) = ( -1.0000000 -0.0000000  0.0000000 )    f =( -0.0000000 )
                  (  0.0000000 -1.0000000  0.0000000 )       ( -0.0000000 )
                  (  0.0000000  0.0000000  1.0000000 )       (  0.3970070 )

[...]

      isym =  4     180 deg rotation - cart. axis [1,0,0]

[...]

      isym =  5      60 deg rotation - cryst. axis [0,0,1]

[...]

 cryst.   s( 8) = (    -1         -1          0      )
                  (     1          0          0      )
                  (     0          0          1      )

 cart.    s( 8) = ( -0.4999999  0.8660255  0.0000000 )
                  ( -0.8660253 -0.5000001  0.0000000 )
                  (  0.0000000  0.0000000  1.0000000 )

[...]

 cryst.   s( 9) = (     0         -1          0      )    f =( -0.0000000 )
                  (    -1          0          0      )       ( -0.0000000 )
                  (     0          0         -1      )       (  0.5000000 )

 cart.    s( 9) = (  0.5000001 -0.8660253  0.0000000 )    f =( -0.0000000 )
                  ( -0.8660253 -0.5000001  0.0000000 )       ( -0.0000000 )
                  (  0.0000000  0.0000000 -1.0000000 )       (  0.3970070 )

[...]

 cryst.   s(10) = (     1          1          0      )    f =(  0.0000000 )
                  (     0         -1          0      )       ( -0.0000010 )
                  (     0          0         -1      )       (  0.5000000 )

 cart.    s(10) = (  0.4999999  0.8660256  0.0000000 )    f =(  0.0000005 )
                  (  0.8660253 -0.4999999  0.0000000 )       ( -0.0000009 )
                  (  0.0000000  0.0000000 -1.0000000 )       (  0.3970070 )

[...]

 cryst.   s(11) = (    -1         -1          0      )
                  (     0          1          0      )
                  (     0          0         -1      )

 cart.    s(11) = ( -0.4999999 -0.8660256  0.0000000 )
                  ( -0.8660253  0.4999999  0.0000000 )
                  (  0.0000000  0.0000000 -1.0000000 )

      isym = 12     180 deg rotation - cryst. axis [1,1,0]

[...]

      isym = 13     inversion

[...]

      isym = 14     inv. 180 deg rotation - cart. axis [0,0,1]

[...]

      isym = 16     inv. 180 deg rotation - cart. axis [1,0,0]

[...]

      isym = 17     inv.  60 deg rotation - cryst. axis [0,0,1]

[...]

 cryst.   s(22) = (    -1         -1          0      )    f =( -0.0000000 )
                  (     0          1          0      )       ( -0.0000010 )
                  (     0          0          1      )       (  0.5000000 )

 cart.    s(22) = ( -0.4999999 -0.8660256  0.0000000 )    f =(  0.0000005 )
                  ( -0.8660253  0.4999999  0.0000000 )       ( -0.0000009 )
                  (  0.0000000  0.0000000  1.0000000 )       (  0.3970070 )

[...]

      isym = 24     inv. 180 deg rotation - cryst. axis [1,1,0]

 cryst.   s(24) = (     0         -1          0      )
                  (    -1          0          0      )
                  (     0          0          1      )

 cart.    s(24) = (  0.5000001 -0.8660253  0.0000000 )
                  ( -0.8660253 -0.5000001  0.0000000 )
                  (  0.0000000  0.0000000  1.0000000 )

   Cartesian axes

     site n.     atom                  positions (alat units)
         1           Re  tau(   1) = (  -0.0000006   0.5773505   0.5955105  )
         2           Re  tau(   2) = (   0.5000005   0.2886748   0.1985035  )
         3           Ir  tau(   3) = (  -0.0000000   0.2899903   0.1985035  )
         4           Ir  tau(   4) = (   0.2488609   0.7210302   0.1985035  )
         5           Ir  tau(   5) = (  -0.2488611   0.7210302   0.1985035  )
         6           Ir  tau(   6) = (   0.4999999   0.5760350   0.5955105  )
         7           Ir  tau(   7) = (   0.2511390   0.1449952   0.5955105  )
         8           Ir  tau(   8) = (   0.7488610   0.1449952   0.5955105  )

   Crystallographic axes

     site n.     atom                  positions (cryst. coord.)
         1           Re  tau(   1) = (  0.3333330  0.6666670  0.7500000  )
         2           Re  tau(   2) = (  0.6666670  0.3333330  0.2500000  )
         3           Ir  tau(   3) = (  0.1674260  0.3348520  0.2500000  )
         4           Ir  tau(   4) = (  0.6651480  0.8325740  0.2500000  )
         5           Ir  tau(   5) = (  0.1674260  0.8325740  0.2500000  )
         6           Ir  tau(   6) = (  0.8325740  0.6651480  0.7500000  )
         7           Ir  tau(   7) = (  0.3348520  0.1674260  0.7500000  )
         8           Ir  tau(   8) = (  0.8325740  0.1674260  0.7500000  )

     number of k points=     1  Methfessel-Paxton smearing, width (Ry)=  0.0010
                       cart. coord. in units 2pi/alat
        k(    1) = (   0.0000000   0.0000000   0.0000000), wk =   2.0000000

                       cryst. coord.
        k(    1) = (   0.0000000   0.0000000   0.0000000), wk =   2.0000000

     Initial potential from superposition of free atoms

     starting charge     115.9997, renormalised to     120.0000

     negative rho (up, down):  2.545E+00 0.000E+00
     Starting wfcs are   98 randomized atomic wfcs

     Self-consistent Calculation

     iteration #  1     ecut=    30.00 Ry     beta= 0.70
     Davidson diagonalization with overlap

     ethr =  1.00E-02,  avg # of iterations =  2.0

     negative rho (up, down):  2.035E+00 0.000E+00

     total energy              =   -1465.57935031 Ry
     estimated scf accuracy    <      10.58884822 Ry

[...]

     total energy              =   -1471.45835848 Ry
     estimated scf accuracy    <       0.00000123 Ry

     iteration # 40     ecut=    30.00 Ry     beta= 0.70
     Davidson diagonalization with overlap

     ethr =  1.03E-09,  avg # of iterations =  1.0

[...]

     End of self-consistent calculation

          k = 0.0000 0.0000 0.0000 (  1109 PWs)   bands (ev):

   -56.4807 -56.4801 -25.4820 -25.3651 -25.3516 -25.3258 -25.3256 -25.2832
   -25.2831 -25.1659 -25.1656 -25.1653 -24.9794 -24.9760 -24.9758 -24.9671
   -24.9670 -24.9240 -24.9238 -24.8513 -18.5138 -18.5138 -18.5109 -18.5109
   -17.7953 -17.7907  13.5797  16.5438  17.0908  17.1185  17.1185  17.2871
    17.2871  17.3417  18.0167  18.0684  18.0685  20.4025  20.6889  20.6890
    20.8014  20.8014  21.0085  21.1835  21.1835  21.3309  21.5072  21.5072
    21.7492  21.7493  21.7576  21.8236  21.8237  22.4384  22.4385  22.5470
    24.1727  24.9374  25.3762  25.4762  25.4762  25.5201  25.6469  25.6470
    26.0394  26.0394  26.6381  26.6382  27.6219  27.6219  28.4101  28.8611

     occupation numbers
     1.0000   1.0000   1.0000   1.0000   1.0000   1.0000   1.0000   1.0000
     1.0000   1.0000   1.0000   1.0000   1.0000   1.0000   1.0000   1.0000
     1.0000   1.0000   1.0000   1.0000   1.0000   1.0000   1.0000   1.0000
     1.0000   1.0000   1.0000   1.0000   1.0000   1.0000   1.0000   1.0000
     1.0000   1.0000   1.0000   1.0000   1.0000   1.0000   1.0000   1.0000
     1.0000   1.0000   1.0000   1.0000   1.0000   1.0000   1.0000   1.0000
     1.0000   1.0000   1.0000   1.0000   1.0000   1.0000   1.0000   1.0000
     1.0000   1.0000   1.0000   0.5001   0.4999  -0.0000  -0.0000  -0.0000
    -0.0000  -0.0000  -0.0000  -0.0000  -0.0000  -0.0000  -0.0000  -0.0000

     the Fermi energy is    25.4762 ev

!    total energy              =   -1471.45835846 Ry
     estimated scf accuracy    <       0.00000010 Ry
     smearing contrib. (-TS)   =      -0.00056402 Ry
     internal energy E=F+TS    =   -1471.45779444 Ry

     The total energy is F=E-TS. E is the sum of the following terms:
     one-electron contribution =     -84.51673641 Ry
     hartree contribution      =     146.03634714 Ry
     xc contribution           =    -407.80603471 Ry
     ewald contribution        =   -1125.17137045 Ry

     convergence has been achieved in  40 iterations

     negative rho (up, down):  2.196E+00 0.000E+00

     Forces acting on atoms (cartesian axes, Ry/au):

     atom    1 type  1   force =     0.00000000   -0.00000000    0.00000000
     atom    2 type  1   force =     0.00000000    0.00000000    0.00000000
     atom    3 type  2   force =    -0.00000000   -0.01290463    0.00000000
     atom    4 type  2   force =     0.01117574    0.00645232    0.00000000
     atom    5 type  2   force =    -0.01117574    0.00645231   -0.00000000
     atom    6 type  2   force =     0.00000000    0.01290463   -0.00000000
     atom    7 type  2   force =    -0.01117574   -0.00645232   -0.00000000
     atom    8 type  2   force =     0.01117574   -0.00645231    0.00000000
     The non-local contrib.  to forces
     atom    1 type  1   force =     0.00000000    0.00000000    0.00000000
     atom    2 type  1   force =     0.00000000   -0.00000000    0.00000000
     atom    3 type  2   force =    -0.00000000   -0.02750273   -0.00000000
     atom    4 type  2   force =     0.02381806    0.01375137    0.00000000
     atom    5 type  2   force =    -0.02381806    0.01375136    0.00000000
     atom    6 type  2   force =    -0.00000000    0.02750273    0.00000000
     atom    7 type  2   force =    -0.02381806   -0.01375137   -0.00000000
     atom    8 type  2   force =     0.02381806   -0.01375136   -0.00000000
     The ionic contribution  to forces
     atom    1 type  1   force =     0.00010100   -0.00005831   -0.00000000
     atom    2 type  1   force =    -0.00010100    0.00005831   -0.00000000
     atom    3 type  2   force =     0.00008960   -0.65796539   -0.00000000
     atom    4 type  2   force =     0.56985950    0.32890517   -0.00000000
     atom    5 type  2   force =    -0.56985921    0.32900832   -0.00000000
     atom    6 type  2   force =    -0.00008960    0.65796539   -0.00000000
     atom    7 type  2   force =    -0.56985949   -0.32890517   -0.00000000
     atom    8 type  2   force =     0.56985921   -0.32900832   -0.00000000
     The local contribution  to forces
     atom    1 type  1   force =    -0.00010465    0.00049000   -0.00002367
     atom    2 type  1   force =     0.00031873   -0.00011430    0.00002120
     atom    3 type  2   force =    -0.00028633    0.66985649    0.00000430
     atom    4 type  2   force =    -0.58026749   -0.33474580    0.00000372
     atom    5 type  2   force =     0.58025177   -0.33505251    0.00000458
     atom    6 type  2   force =     0.00010494   -0.67001661   -0.00000455
     atom    7 type  2   force =     0.58060286    0.33472794   -0.00000370
     atom    8 type  2   force =    -0.58063105    0.33485817   -0.00000423
     The core correction contribution to forces
     atom    1 type  1   force =    -0.00000018    0.00000239   -0.00000038
     atom    2 type  1   force =     0.00000097   -0.00000146    0.00000036
     atom    3 type  2   force =     0.00000217    0.00279612    0.00000006
     atom    4 type  2   force =    -0.00242465   -0.00139970    0.00000004
     atom    5 type  2   force =     0.00242525   -0.00139774    0.00000009
     atom    6 type  2   force =     0.00000103   -0.00279945   -0.00000008
     atom    7 type  2   force =     0.00242147    0.00140262   -0.00000003
     atom    8 type  2   force =    -0.00242285    0.00140467   -0.00000004
     The Hubbard contrib.    to forces
     atom    1 type  1   force =     0.00000000    0.00000000    0.00000000
     atom    2 type  1   force =     0.00000000    0.00000000    0.00000000
     atom    3 type  2   force =     0.00000000    0.00000000    0.00000000
     atom    4 type  2   force =     0.00000000    0.00000000    0.00000000
     atom    5 type  2   force =     0.00000000    0.00000000    0.00000000
     atom    6 type  2   force =     0.00000000    0.00000000    0.00000000
     atom    7 type  2   force =     0.00000000    0.00000000    0.00000000
     atom    8 type  2   force =     0.00000000    0.00000000    0.00000000
     The SCF correction term to forces
     atom    1 type  1   force =     0.00000764   -0.00042725    0.00002503
     atom    2 type  1   force =    -0.00021453    0.00006596   -0.00002326
     atom    3 type  2   force =     0.00020657   -0.00011234   -0.00000371
     atom    4 type  2   force =     0.00017868   -0.00008232   -0.00000340
     atom    5 type  2   force =    -0.00016849    0.00014034   -0.00000387
     atom    6 type  2   force =    -0.00001543    0.00024763    0.00000421
     atom    7 type  2   force =    -0.00055441    0.00009220    0.00000312
     atom    8 type  2   force =     0.00056106    0.00007443    0.00000333

     Total force =     0.031610     Total SCF correction =     0.001036

     Computing stress (Cartesian axis) and pressure

     negative rho (up, down):  2.196E+00 0.000E+00
          total   stress  (Ry/bohr**3)                   (kbar)     P=      133.39
   0.00033295   0.00000000   0.00000000           48.98        0.00        0.00
   0.00000000   0.00033295   0.00000000            0.00       48.98        0.00
   0.00000000   0.00000000   0.00205445            0.00        0.00      302.22

     kinetic stress (kbar)  47070.81      0.01      0.00
                                0.01  47070.82     -0.00
                                0.00     -0.00  48209.40

     local   stress (kbar)  33222.84      0.03     -0.00
                                0.03  33222.72     -0.00
                               -0.00     -0.00  27417.94

     nonloc. stress (kbar)  -3469.77     -0.00      0.00
                               -0.00  -3469.77      0.00
                                0.00      0.00  -3041.35

     hartree stress (kbar)   8426.20     -0.01      0.00
                               -0.01   8426.22      0.00
                                0.00      0.00  10384.35

     exc-cor stress (kbar)  37272.39     -0.00      0.00
                               -0.00  37272.39      0.00
                                0.00      0.00  37301.73

     corecor stress (kbar) -51692.14     -0.00     -0.00
                               -0.00 -51692.15     -0.00
                               -0.00     -0.00 -51680.29

     ewald   stress (kbar) -70781.30     -0.01     -0.00
                               -0.01 -70781.31      0.00
                               -0.00      0.00 -68289.57

     hubbard stress (kbar)      0.00      0.00      0.00
                                0.00      0.00      0.00
                                0.00      0.00      0.00

     DFT-D   stress (kbar)      0.00      0.00      0.00
                                0.00      0.00      0.00
                                0.00      0.00      0.00

     XDM     stress (kbar)      0.00      0.00      0.00
                                0.00      0.00      0.00
                                0.00      0.00      0.00

     dft-nl  stress (kbar)      0.00      0.00      0.00
                                0.00      0.00      0.00
                                0.00      0.00      0.00

     TS-vdW  stress (kbar)      0.00      0.00      0.00
                                0.00      0.00      0.00
                                0.00      0.00      0.00

[...]

                                0.00      0.00      0.00

     Writing all to output data dir new_calculations/myprefix.save/

     General routines

     Parallel routines

   This run was terminated on:  15: 7:21  20May2023

   JOB DONE.