     Program PWSCF v.7.0 starts on 21May2023 at 11: 2: 7

     Reading input from espresso_24651.pwi
Warning: card &CELL ignored
Warning: card / ignored

     Current dimensions of program PWSCF are:
     Max number of different atomic species (ntypx) = 10
     Max number of k-points (npk) =  40000
     Max angular momentum in pseudopotentials (lmaxx) =  4
     file Mg.pbe-n-kjpaw_psl.0.3.0.UPF: wavefunction(s)  3S renormalized

     gamma-point specific algorithms are used
     Message from routine setup:
     using ibrav=0 with symmetry is DISCOURAGED, use correct ibrav instead

     Subspace diagonalization in iterative solution of the eigenvalue problem:
     a serial algorithm will be used

     Using Slab Decomposition

     bravais-lattice index     =            0
     lattice parameter (alat)  =       9.2445  a.u.
     unit-cell volume          =     638.1170 (a.u.)^3
     number of atoms/cell      =            6
     number of atomic types    =            2
     number of electrons       =        82.00
     number of Kohn-Sham states=           49
     kinetic-energy cutoff     =      30.0000  Ry
     charge density cutoff     =     240.0000  Ry
     scf convergence threshold =      1.0E-06
     mixing beta               =       0.7000
     number of iterations used =            8  plain     mixing
     Exchange-correlation=  SLA  PW   PBX  PBC
                           (   1   4   3   4   0   0   0)

     celldm(1)=   9.244476  celldm(2)=   0.000000  celldm(3)=   0.000000
     celldm(4)=   0.000000  celldm(5)=   0.000000  celldm(6)=   0.000000

     crystal axes: (cart. coord. in units of alat)
               a(1) = (   1.000000   0.000000   0.000000 )
               a(2) = (  -0.500000   0.866025   0.000000 )
               a(3) = (   0.000000   0.000000   0.932659 )

     reciprocal axes: (cart. coord. in units 2 pi/alat)
               b(1) = (  1.000000  0.577350  0.000000 )
               b(2) = (  0.000000  1.154701  0.000000 )
               b(3) = (  0.000000  0.000000  1.072204 )

     PseudoPot. # 1 for Mg read from file:
     /home/pragov/projects/rrg-bengioy-ad/pragov/crystal_structure_design/SSSP/Mg.pbe-n-kjpaw_psl.0.3.0.UPF
     MD5 check sum: 24ecedc7f3e3cbe212e682f4413594e4
     Pseudo is Projector augmented-wave + core cor, Zval =  2.0
     Generated using "atomic" code by A. Dal Corso  v.5.0.99 svn rev. 10869
     Shape of augmentation charge: PSQ
     Using radial grid of 1129 points,  4 beta functions with:
                l(1) =   0
                l(2) =   0
                l(3) =   1
                l(4) =   1
     Q(r) pseudized with 0 coefficients

     PseudoPot. # 2 for Pt read from file:
     /home/pragov/projects/rrg-bengioy-ad/pragov/crystal_structure_design/SSSP/pt_pbe_v1.4.uspp.F.UPF
     MD5 check sum: f09d6de1a584b5a045c4fc126da2d0c4
     Pseudo is Ultrasoft + core correction, Zval = 16.0
     Generated by new atomic code, or converted to UPF format
     Using radial grid of  985 points,  6 beta functions with:
                l(1) =   0
                l(2) =   0
                l(3) =   1
                l(4) =   1
                l(5) =   2
                l(6) =   2
     Q(r) pseudized with  8 coefficients,  rinner =    1.300   1.300   1.300
                                                       1.300   1.300

     atomic species   valence    mass     pseudopotential
        Mg             2.00    24.30500     Mg( 1.00)
        Pt            16.00   195.08400     Pt( 1.00)

     12 Sym. Ops. (no inversion) found

                                    s                        frac. trans.

      isym =  1     identity

 cryst.   s( 1) = (     1          0          0      )
                  (     0          1          0      )
                  (     0          0          1      )

 cart.    s( 1) = (  1.0000000  0.0000000  0.0000000 )
                  (  0.0000000  1.0000000  0.0000000 )
                  (  0.0000000  0.0000000  1.0000000 )

      isym =  2     180 deg rotation - cart. axis [1,0,0]

[...]

      isym =  3     120 deg rotation - cryst. axis [0,0,1]

[...]

      isym =  6     180 deg rotation - cryst. axis [1,1,0]

[...]

      isym =  7     inv. 180 deg rotation - cart. axis [0,0,1]

[...]

      isym =  8     inv. 180 deg rotation - cart. axis [0,1,0]

[...]

      isym =  9     inv.  60 deg rotation - cryst. axis [0,0,1]

 cryst.   s( 9) = (    -1         -1          0      )
                  (     1          0          0      )
                  (     0          0         -1      )

 cart.    s( 9) = ( -0.5000000  0.8660254  0.0000000 )
                  ( -0.8660254 -0.5000000  0.0000000 )
                  (  0.0000000  0.0000000 -1.0000000 )

[...]

 cryst.   s(10) = (     0          1          0      )
                  (    -1         -1          0      )
                  (     0          0         -1      )

 cart.    s(10) = ( -0.5000000 -0.8660254  0.0000000 )
                  (  0.8660254 -0.5000000  0.0000000 )
                  (  0.0000000  0.0000000 -1.0000000 )

[...]

      isym = 12     inv. 180 deg rotation - cryst. axis [2,1,0]

 cryst.   s(12) = (    -1         -1          0      )
                  (     0          1          0      )
                  (     0          0          1      )

 cart.    s(12) = ( -0.5000000 -0.8660255  0.0000000 )
                  ( -0.8660254  0.5000000  0.0000000 )
                  (  0.0000000  0.0000000  1.0000000 )

   Cartesian axes

     site n.     atom                  positions (alat units)
         1           Mg  tau(   1) = (   0.0000000   0.0000000   0.0000000  )
         2           Pt  tau(   2) = (   0.6599730   0.0000000   0.4663294  )
         3           Pt  tau(   3) = (   0.5000005   0.2886748   0.0000000  )
         4           Pt  tau(   4) = (   0.1700135   0.2944720   0.4663294  )
         5           Pt  tau(   5) = (   0.6700135   0.5715534   0.4663294  )
         6           Pt  tau(   6) = (  -0.0000005   0.5773505   0.0000000  )

   Crystallographic axes

     site n.     atom                  positions (cryst. coord.)
         1           Mg  tau(   1) = (  0.0000000  0.0000000  0.0000000  )
         2           Pt  tau(   2) = (  0.6599730  0.0000000  0.5000000  )
         3           Pt  tau(   3) = (  0.6666670  0.3333330  0.0000000  )
         4           Pt  tau(   4) = (  0.3400270  0.3400270  0.5000000  )
         5           Pt  tau(   5) = (  1.0000000  0.6599730  0.5000000  )
         6           Pt  tau(   6) = (  0.3333330  0.6666670  0.0000000  )

     number of k points=     1  Methfessel-Paxton smearing, width (Ry)=  0.0010
                       cart. coord. in units 2pi/alat
        k(    1) = (   0.0000000   0.0000000   0.0000000), wk =   2.0000000

                       cryst. coord.
        k(    1) = (   0.0000000   0.0000000   0.0000000), wk =   2.0000000

     Initial potential from superposition of free atoms

     starting charge      79.4990, renormalised to      82.0000

     negative rho (up, down):  9.404E-01 0.000E+00
     Starting wfcs are   64 randomized atomic wfcs
     Checking if some PAW data can be deallocated...

     Self-consistent Calculation

     iteration #  1     ecut=    30.00 Ry     beta= 0.70
     Davidson diagonalization with overlap

     ethr =  1.00E-02,  avg # of iterations =  2.0

     negative rho (up, down):  8.538E-01 0.000E+00

     total energy              =   -1084.96730609 Ry
     estimated scf accuracy    <       4.90374119 Ry

[...]

     total energy              =   -1087.02522523 Ry
     estimated scf accuracy    <       0.00002003 Ry

     iteration # 20     ecut=    30.00 Ry     beta= 0.70
     Davidson diagonalization with overlap

     ethr =  1.51E-08,  avg # of iterations =  1.0

[...]

     End of self-consistent calculation

          k = 0.0000 0.0000 0.0000 (   860 PWs)   bands (ev):

   -34.0445 -33.9835 -33.9835 -33.9589 -33.9067 -33.9067 -33.7896 -33.7896
   -33.7866 -33.7278 -33.7024 -33.7024 -33.6141 -33.6141 -33.5984   9.1669
    12.2126  13.4516  13.4516  13.6804  13.7957  13.7957  14.4641  14.5758
    14.5758  14.9054  15.3186  15.5310  15.5310  15.7422  15.7422  16.1076
    16.1076  16.1497  17.3847  17.3847  17.6988  17.6988  18.1773  18.2821
    18.5081  18.5081  21.8158  21.8159  22.2521  22.4778  23.1476  23.1476
    24.2166

     occupation numbers
     1.0000   1.0000   1.0000   1.0000   1.0000   1.0000   1.0000   1.0000
     1.0000   1.0000   1.0000   1.0000   1.0000   1.0000   1.0000   1.0000
     1.0000   1.0000   1.0000   1.0000   1.0000   1.0000   1.0000   1.0000
     1.0000   1.0000   1.0000   1.0000   1.0000   1.0000   1.0000   1.0000
     1.0000   1.0000   1.0000   1.0000   1.0000   1.0000   1.0000   1.0000
     0.5014   0.4986  -0.0000  -0.0000  -0.0000  -0.0000  -0.0000  -0.0000
    -0.0000

     the Fermi energy is    18.5081 ev

!    total energy              =   -1087.02522489 Ry
     estimated scf accuracy    <       0.00000063 Ry
     smearing contrib. (-TS)   =      -0.00056419 Ry
     internal energy E=F+TS    =   -1087.02466071 Ry

     The total energy is F=E-TS. E is the sum of the following terms:
     one-electron contribution =    -213.50268810 Ry
     hartree contribution      =     170.92815544 Ry
     xc contribution           =    -286.30349335 Ry
     ewald contribution        =    -726.84629406 Ry
     one-center paw contrib.   =     -31.30034065 Ry
      -> PAW hartree energy AE =       1.02482561 Ry
      -> PAW hartree energy PS =      -1.02277032 Ry
      -> PAW xc energy AE      =     -32.72993774 Ry
      -> PAW xc energy PS      =       1.42754179 Ry
      -> total E_H with PAW    =     170.93021074 Ry
      -> total E_XC with PAW   =    -317.60588929 Ry

     convergence has been achieved in  20 iterations

     negative rho (up, down):  8.860E-01 0.000E+00

     Forces acting on atoms (cartesian axes, Ry/au):

     atom    1 type  1   force =     0.00000000   -0.00000000    0.00000000
     atom    2 type  2   force =    -0.11208266   -0.00000000    0.00000000
     atom    3 type  2   force =     0.00000000   -0.00000000    0.00000000
     atom    4 type  2   force =     0.05604133    0.09706643    0.00000000
     atom    5 type  2   force =     0.05604133   -0.09706643    0.00000000
     atom    6 type  2   force =     0.00000000    0.00000000    0.00000000
     The non-local contrib.  to forces
     atom    1 type  1   force =     0.00000000   -0.00000000    0.00000000
     atom    2 type  2   force =    -0.01075214   -0.00000000    0.00000000
     atom    3 type  2   force =     0.00000000   -0.00000000    0.00000000
     atom    4 type  2   force =     0.00537607    0.00931163   -0.00000000
     atom    5 type  2   force =     0.00537607   -0.00931163    0.00000000
     atom    6 type  2   force =     0.00000000    0.00000000    0.00000000
     The ionic contribution  to forces
     atom    1 type  1   force =    -0.00000002   -0.00000003   -0.00000000
     atom    2 type  2   force =     8.68472938   -0.00002842   -0.00000000
     atom    3 type  2   force =    -0.00008180    0.00004692   -0.00000000
     atom    4 type  2   force =    -4.34233954   -7.52115300   -0.00000000
     atom    5 type  2   force =    -4.34238956    7.52118190    0.00000000
     atom    6 type  2   force =     0.00008153   -0.00004738   -0.00000000
     The local contribution  to forces
     atom    1 type  1   force =     0.00009067    0.00009847    0.00000005
     atom    2 type  2   force =    -8.76590576    0.00015493   -0.00000187
     atom    3 type  2   force =    -0.00040454   -0.00008095    0.00000213
     atom    4 type  2   force =     4.38256237    7.59077063   -0.00000308
     atom    5 type  2   force =     4.38302877   -7.59126623    0.00000197
     atom    6 type  2   force =    -0.00009777   -0.00047293    0.00000190
     The core correction contribution to forces
     atom    1 type  1   force =    -0.00000008   -0.00000007   -0.00000000
     atom    2 type  2   force =    -0.02046602   -0.00000137    0.00000004
     atom    3 type  2   force =     0.00000725   -0.00000082   -0.00000006
     atom    4 type  2   force =     0.01022850    0.01771691   -0.00000005
     atom    5 type  2   force =     0.01023040   -0.01772298   -0.00000006
     atom    6 type  2   force =    -0.00000131    0.00000710   -0.00000006
     The Hubbard contrib.    to forces
     atom    1 type  1   force =     0.00000000    0.00000000    0.00000000
     atom    2 type  2   force =     0.00000000    0.00000000    0.00000000
     atom    3 type  2   force =     0.00000000    0.00000000    0.00000000
     atom    4 type  2   force =     0.00000000    0.00000000    0.00000000
     atom    5 type  2   force =     0.00000000    0.00000000    0.00000000
     atom    6 type  2   force =     0.00000000    0.00000000    0.00000000
     The SCF correction term to forces
     atom    1 type  1   force =    -0.00006435   -0.00006970   -0.00000006
     atom    2 type  2   force =     0.00023325   -0.00014040    0.00000188
     atom    3 type  2   force =     0.00060427    0.00001964   -0.00000204
     atom    4 type  2   force =     0.00015462    0.00032422    0.00000291
     atom    5 type  2   force =    -0.00020681    0.00001162   -0.00000171
     atom    6 type  2   force =    -0.00000390    0.00064011   -0.00000181

     Total force =     0.194133     Total SCF correction =     0.001015

     Computing stress (Cartesian axis) and pressure

     negative rho (up, down):  8.860E-01 0.000E+00
          total   stress  (Ry/bohr**3)                   (kbar)     P=      -59.77
  -0.00218619  -0.00000000   0.00000000         -321.60       -0.00        0.00
  -0.00000000  -0.00218619   0.00000000           -0.00     -321.60        0.00
   0.00000000   0.00000000   0.00315354            0.00        0.00      463.90

     kinetic stress (kbar)  44034.76      0.00     -0.00
                                0.00  44034.76     -0.00
                               -0.00     -0.00  44759.14

     local   stress (kbar)  12502.63      1.09     -0.00
                                1.09  12504.75      0.00
                               -0.00      0.00   8315.92

     nonloc. stress (kbar)   -581.82     -0.00      0.00
                               -0.00   -581.82      0.00
                                0.00      0.00    -22.67

     hartree stress (kbar)  12614.82     -0.41      0.00
                               -0.41  12614.01     -0.00
                                0.00     -0.00  14175.22

     exc-cor stress (kbar)  32261.49     -0.01     -0.00
                               -0.01  32261.48      0.00
                               -0.00      0.00  32272.98

     corecor stress (kbar) -44598.43      0.04     -0.00
                                0.04 -44598.35     -0.00
                               -0.00     -0.00 -44588.32

     ewald   stress (kbar) -56555.77      0.07      0.00
                                0.07 -56555.69     -0.00
                                0.00     -0.00 -54448.37

     hubbard stress (kbar)      0.00      0.00      0.00
                                0.00      0.00      0.00
                                0.00      0.00      0.00

     DFT-D   stress (kbar)      0.00      0.00      0.00
                                0.00      0.00      0.00
                                0.00      0.00      0.00

     XDM     stress (kbar)      0.00      0.00      0.00
                                0.00      0.00      0.00
                                0.00      0.00      0.00

     dft-nl  stress (kbar)      0.00      0.00      0.00
                                0.00      0.00      0.00
                                0.00      0.00      0.00

     TS-vdW  stress (kbar)      0.00      0.00      0.00
                                0.00      0.00      0.00
                                0.00      0.00      0.00

[...]

                                0.00      0.00      0.00

     Writing all to output data dir new_calculations/myprefix.save/

     General routines

     Parallel routines

     PAW routines

   This run was terminated on:  11: 2:16  21May2023

   JOB DONE.