     Program PWSCF v.7.0 starts on 20May2023 at 13: 3:32

     Reading input from espresso_13409.pwi
Warning: card &CELL ignored
Warning: card / ignored

     Current dimensions of program PWSCF are:
     Max number of different atomic species (ntypx) = 10
     Max number of k-points (npk) =  40000
     Max angular momentum in pseudopotentials (lmaxx) =  4
     file Mg.pbe-n-kjpaw_psl.0.3.0.UPF: wavefunction(s)  3S renormalized
     file Cd.pbe-dn-rrkjus_psl.0.3.1.UPF: wavefunction(s)  4D renormalized

     gamma-point specific algorithms are used
     Message from routine setup:
     using ibrav=0 with symmetry is DISCOURAGED, use correct ibrav instead

     Subspace diagonalization in iterative solution of the eigenvalue problem:
     a serial algorithm will be used

     Using Slab Decomposition

     bravais-lattice index     =            0
     lattice parameter (alat)  =       9.0937  a.u.
     unit-cell volume          =     531.7561 (a.u.)^3
     number of atoms/cell      =            4
     number of atomic types    =            3
     number of electrons       =        20.00
     number of Kohn-Sham states=           14
     kinetic-energy cutoff     =      30.0000  Ry
     charge density cutoff     =     240.0000  Ry
     scf convergence threshold =      1.0E-06
     mixing beta               =       0.7000
     number of iterations used =            8  plain     mixing
     Exchange-correlation= PBE
                           (   1   4   3   4   0   0   0)

     celldm(1)=   9.093739  celldm(2)=   0.000000  celldm(3)=   0.000000
     celldm(4)=   0.000000  celldm(5)=   0.000000  celldm(6)=   0.000000

     crystal axes: (cart. coord. in units of alat)
               a(1) = (   1.000000   0.000000   0.000000 )
               a(2) = (   0.500000   0.866025   0.000000 )
               a(3) = (   0.500000   0.288675   0.816497 )

     reciprocal axes: (cart. coord. in units 2 pi/alat)
               b(1) = (  1.000000 -0.577350 -0.408248 )
               b(2) = (  0.000000  1.154701 -0.408248 )
               b(3) = (  0.000000  0.000000  1.224745 )

     PseudoPot. # 1 for Li read from file:
     /home/pragov/projects/rrg-bengioy-ad/pragov/crystal_structure_design/SSSP/li_pbe_v1.4.uspp.F.UPF
     MD5 check sum: e912e257baa3777c20ea3d68f190483c
     Pseudo is Ultrasoft, Zval =  3.0
     Generated by new atomic code, or converted to UPF format
     Using radial grid of  751 points,  5 beta functions with:
                l(1) =   0
                l(2) =   0
                l(3) =   0
                l(4) =   1
                l(5) =   1
     Q(r) pseudized with 10 coefficients,  rinner =    1.150   1.150   1.150

     PseudoPot. # 2 for Mg read from file:
     /home/pragov/projects/rrg-bengioy-ad/pragov/crystal_structure_design/SSSP/Mg.pbe-n-kjpaw_psl.0.3.0.UPF
     MD5 check sum: 24ecedc7f3e3cbe212e682f4413594e4
     Pseudo is Projector augmented-wave + core cor, Zval =  2.0
     Generated using "atomic" code by A. Dal Corso  v.5.0.99 svn rev. 10869
     Shape of augmentation charge: PSQ
     Using radial grid of 1129 points,  4 beta functions with:
                l(1) =   0
                l(2) =   0
                l(3) =   1
                l(4) =   1
     Q(r) pseudized with 0 coefficients

     PseudoPot. # 3 for Cd read from file:
     /home/pragov/projects/rrg-bengioy-ad/pragov/crystal_structure_design/SSSP/Cd.pbe-dn-rrkjus_psl.0.3.1.UPF
     MD5 check sum: 558e9f355611b531a870a69ef6ace9e2
     Pseudo is Ultrasoft + core correction, Zval = 12.0
     Generated using "atomic" code by A. Dal Corso  v.5.0.99 svn rev. 10869
     Using radial grid of 1239 points,  6 beta functions with:
                l(1) =   0
                l(2) =   0
                l(3) =   1
                l(4) =   1
                l(5) =   2
                l(6) =   2
     Q(r) pseudized with 0 coefficients

     atomic species   valence    mass     pseudopotential
        Li             3.00     6.94000     Li( 1.00)
        Mg             2.00    24.30500     Mg( 1.00)
        Cd            12.00   112.41400     Cd( 1.00)

      6 Sym. Ops. (no inversion) found

                                    s                        frac. trans.

      isym =  1     identity

 cryst.   s( 1) = (     1          0          0      )
                  (     0          1          0      )
                  (     0          0          1      )

 cart.    s( 1) = (  1.0000000  0.0000000  0.0000000 )
                  (  0.0000000  1.0000000  0.0000000 )
                  (  0.0000000  0.0000000  1.0000000 )

      isym =  2     120 deg rotation - cryst. axis [0,0,1]

[...]

      isym =  3     120 deg rotation - cryst. axis [0,0,-1]

[...]

      isym =  4     inv. 180 deg rotation - cart. axis [1,0,0]

[...]

      isym =  5     inv. 180 deg rotation - cryst. axis [0,1,0]

[...]

      isym =  6     inv. 180 deg rotation - cryst. axis [1,1,0]

 cryst.   s( 6) = (     1         -1          0      )
                  (     0         -1          0      )
                  (     0         -1          1      )

 cart.    s( 6) = (  0.5000000 -0.8660254  0.0000000 )
                  ( -0.8660254 -0.5000000  0.0000000 )
                  (  0.0000000  0.0000000  1.0000000 )

   Cartesian axes

     site n.     atom                  positions (alat units)
         1           Li  tau(   1) = (   1.0000000   0.5773503   0.4082483  )
         2           Li  tau(   2) = (   1.5000000   0.8660254   0.6123724  )
         3           Mg  tau(   3) = (   0.5000000   0.2886751   0.2041241  )
         4           Cd  tau(   4) = (   0.0000000   0.0000000   0.0000000  )

   Crystallographic axes

     site n.     atom                  positions (cryst. coord.)
         1           Li  tau(   1) = (  0.5000000  0.5000000  0.5000000  )
         2           Li  tau(   2) = (  0.7500000  0.7500000  0.7500000  )
         3           Mg  tau(   3) = (  0.2500000  0.2500000  0.2500000  )
         4           Cd  tau(   4) = (  0.0000000  0.0000000  0.0000000  )

     number of k points=     1  Methfessel-Paxton smearing, width (Ry)=  0.0010
                       cart. coord. in units 2pi/alat
        k(    1) = (   0.0000000   0.0000000   0.0000000), wk =   2.0000000

                       cryst. coord.
        k(    1) = (   0.0000000   0.0000000   0.0000000), wk =   2.0000000

     Initial potential from superposition of free atoms

     starting charge      19.0927, renormalised to      20.0000
     Starting wfcs are   23 randomized atomic wfcs
     Checking if some PAW data can be deallocated...

     Self-consistent Calculation

     iteration #  1     ecut=    30.00 Ry     beta= 0.70
     Davidson diagonalization with overlap

     ethr =  1.00E-02,  avg # of iterations =  2.0

     total energy              =    -183.36759413 Ry
     estimated scf accuracy    <       1.08373856 Ry

[...]

     WARNING: integrated charge=    20.00187190, expected=    20.00000000

[...]

     WARNING: integrated charge=    20.00000428, expected=    20.00000000

[...]

     total energy              =    -183.96890917 Ry
     estimated scf accuracy    <       0.00001103 Ry

     iteration # 81     ecut=    30.00 Ry     beta= 0.70
     Davidson diagonalization with overlap

     ethr =  5.51E-08,  avg # of iterations =  1.0

     End of self-consistent calculation

          k = 0.0000 0.0000 0.0000 (   730 PWs)   bands (ev):

   -43.2657 -40.3481  -3.6573  -3.6403  -3.6138  -3.4879  -3.4831  -1.6624
     7.0327   7.0341   7.0354   7.9242   7.9291   7.9323

     occupation numbers
     1.0000   1.0000   1.0000   1.0000   1.0000   1.0000   1.0000   1.0000
     0.7442   0.6661   0.5897  -0.0000  -0.0000  -0.0000

     the Fermi energy is     7.0369 ev

!    total energy              =    -183.96890917 Ry
     estimated scf accuracy    <       0.00000094 Ry
     smearing contrib. (-TS)   =      -0.00073155 Ry
     internal energy E=F+TS    =    -183.96817761 Ry

     The total energy is F=E-TS. E is the sum of the following terms:
     one-electron contribution =     -71.88873884 Ry
     hartree contribution      =      46.01539013 Ry
     xc contribution           =     -51.22638265 Ry
     ewald contribution        =     -75.65147951 Ry
     one-center paw contrib.   =     -31.21696674 Ry
      -> PAW hartree energy AE =       0.15101022 Ry
      -> PAW hartree energy PS =      -0.15070861 Ry
      -> PAW xc energy AE      =     -32.11675474 Ry
      -> PAW xc energy PS      =       0.89948639 Ry
      -> total E_H with PAW    =      46.01569173 Ry
      -> total E_XC with PAW   =     -82.44365100 Ry

     convergence has been achieved in  81 iterations

     Forces acting on atoms (cartesian axes, Ry/au):

     atom    1 type  1   force =     0.00000000    0.00000000   -0.00057760
     atom    2 type  1   force =     0.00000000    0.00000000    0.00110084
     atom    3 type  2   force =     0.00000000    0.00000000   -0.00081906
     atom    4 type  3   force =     0.00000000    0.00000000    0.00029582
     The non-local contrib.  to forces
     atom    1 type  1   force =     0.00000000    0.00000000    0.00049200
     atom    2 type  1   force =     0.00000000    0.00000000   -0.00101893
     atom    3 type  2   force =     0.00000000    0.00000000    0.00034392
     atom    4 type  3   force =     0.00000000    0.00000000   -0.00164928
     The ionic contribution  to forces
     atom    1 type  1   force =     0.00000000    0.00000000    0.00000000
     atom    2 type  1   force =    -0.00000000    0.00000000    0.00000000
     atom    3 type  2   force =     0.00000000   -0.00000000    0.00000000
     atom    4 type  3   force =    -0.00000000   -0.00000000   -0.00000000
     The local contribution  to forces
     atom    1 type  1   force =    -0.00012465   -0.00147377   -0.00100695
     atom    2 type  1   force =     0.00026677    0.00291984    0.00199881
     atom    3 type  2   force =    -0.00015936   -0.00154018   -0.00103065
     atom    4 type  3   force =     0.00058616    0.00228333    0.00148980
     The core correction contribution to forces
     atom    1 type  1   force =     0.00000000    0.00000000    0.00000000
     atom    2 type  1   force =     0.00000000    0.00000000    0.00000000
     atom    3 type  2   force =    -0.00000498   -0.00005317   -0.00003796
     atom    4 type  3   force =     0.00002506    0.00018756    0.00012670
     The Hubbard contrib.    to forces
     atom    1 type  1   force =     0.00000000    0.00000000    0.00000000
     atom    2 type  1   force =     0.00000000    0.00000000    0.00000000
     atom    3 type  2   force =     0.00000000    0.00000000    0.00000000
     atom    4 type  3   force =     0.00000000    0.00000000    0.00000000
     The SCF correction term to forces
     atom    1 type  1   force =     0.00003577   -0.00002564   -0.00003333
     atom    2 type  1   force =    -0.00001005    0.00020022    0.00015028
     atom    3 type  2   force =     0.00001106   -0.00006261   -0.00006505
     atom    4 type  3   force =    -0.00015168    0.00048667    0.00035792

     Total force =     0.001518     Total SCF correction =     0.000680
     SCF correction compared to forces is large: reduce conv_thr to get better values

     Computing stress (Cartesian axis) and pressure

          total   stress  (Ry/bohr**3)                   (kbar)     P=      -15.43
  -0.00004083  -0.00000000  -0.00000000           -6.01       -0.00       -0.00
   0.00000000  -0.00004083   0.00000000            0.00       -6.01        0.00
   0.00000000   0.00000000  -0.00023297            0.00        0.00      -34.27

     kinetic stress (kbar)   8702.56     -0.00     -0.00
                                0.00   8702.56      0.00
                                0.00     -0.00   8658.91

     local   stress (kbar)  -1297.34     -3.14     -2.16
                               -3.14  -1228.63    -24.01
                               -2.16    -24.01  -1213.76

     nonloc. stress (kbar)  -2217.45      0.00      0.00
                                0.00  -2217.45      0.00
                                0.00      0.00  -2227.63

     hartree stress (kbar)   4267.72      1.52      1.03
                                1.52   4234.56     11.54
                                1.03     11.54   4227.42

     exc-cor stress (kbar)   4804.19      0.03      0.02
                                0.03   4803.56      0.24
                                0.02      0.24   4803.41

     corecor stress (kbar)  -7307.45     -0.04     -0.03
                               -0.04  -7306.70     -0.27
                               -0.03     -0.27  -7306.54

     ewald   stress (kbar)  -6976.08     -0.00     -0.00
                               -0.00  -6976.08     -0.00
                               -0.00     -0.00  -6976.08

     hubbard stress (kbar)      0.00      0.00      0.00
                                0.00      0.00      0.00
                                0.00      0.00      0.00

     DFT-D   stress (kbar)      0.00      0.00      0.00
                                0.00      0.00      0.00
                                0.00      0.00      0.00

     XDM     stress (kbar)      0.00      0.00      0.00
                                0.00      0.00      0.00
                                0.00      0.00      0.00

     dft-nl  stress (kbar)      0.00      0.00      0.00
                                0.00      0.00      0.00
                                0.00      0.00      0.00

     TS-vdW  stress (kbar)      0.00      0.00      0.00
                                0.00      0.00      0.00
                                0.00      0.00      0.00

[...]

                                0.00      0.00      0.00

     Writing all to output data dir new_calculations/myprefix.save/

     General routines

     Parallel routines

     PAW routines

   This run was terminated on:  13: 3:43  20May2023

   JOB DONE.