     Program PWSCF v.7.0 starts on 21May2023 at 14: 7:54

     Reading input from espresso_21987.pwi
Warning: card &CELL ignored
Warning: card / ignored

     Current dimensions of program PWSCF are:
     Max number of different atomic species (ntypx) = 10
     Max number of k-points (npk) =  40000
     Max angular momentum in pseudopotentials (lmaxx) =  4
     file Al.pbe-n-kjpaw_psl.1.0.0.UPF: wavefunction(s)  3S 3P renormalized

     gamma-point specific algorithms are used
     Message from routine setup:
     using ibrav=0 with symmetry is DISCOURAGED, use correct ibrav instead

     Subspace diagonalization in iterative solution of the eigenvalue problem:
     a serial algorithm will be used

     Using Slab Decomposition

     bravais-lattice index     =            0
     lattice parameter (alat)  =       9.8865  a.u.
     unit-cell volume          =     613.7087 (a.u.)^3
     number of atoms/cell      =            6
     number of atomic types    =            3
     number of electrons       =        82.00
     number of Kohn-Sham states=           49
     kinetic-energy cutoff     =      30.0000  Ry
     charge density cutoff     =     240.0000  Ry
     scf convergence threshold =      1.0E-06
     mixing beta               =       0.7000
     number of iterations used =            8  plain     mixing
     Exchange-correlation= SLA  PW   PBE  PBE
                           (   1   4   3   4   0   0   0)

     celldm(1)=   9.886484  celldm(2)=   0.000000  celldm(3)=   0.000000
     celldm(4)=   0.000000  celldm(5)=   0.000000  celldm(6)=   0.000000

     crystal axes: (cart. coord. in units of alat)
               a(1) = (   1.000000   0.000000   0.000000 )
               a(2) = (  -0.500000   0.866025   0.000000 )
               a(3) = (   0.000000   0.000000   0.733341 )

     reciprocal axes: (cart. coord. in units 2 pi/alat)
               b(1) = (  1.000000  0.577350  0.000000 )
               b(2) = (  0.000000  1.154701  0.000000 )
               b(3) = (  0.000000  0.000000  1.363622 )

     PseudoPot. # 1 for La read from file:
     /home/pragov/projects/rrg-bengioy-ad/pragov/crystal_structure_design/SSSP/La.GGA-PBE-paw-v1.0.UPF
     MD5 check sum: 436541e95c1ad8901025bd0b0ed42ae2
     Pseudo is Projector augmented-wave + core cor, Zval = 11.0
     Generated using ATOMPAW code
     Shape of augmentation charge: BESSEL
     Using radial grid of 1101 points,  8 beta functions with:
                l(1) =   0
                l(2) =   0
                l(3) =   1
                l(4) =   1
                l(5) =   2
                l(6) =   2
                l(7) =   3
                l(8) =   3
     Q(r) pseudized with 0 coefficients

     PseudoPot. # 2 for Al read from file:
     /home/pragov/projects/rrg-bengioy-ad/pragov/crystal_structure_design/SSSP/Al.pbe-n-kjpaw_psl.1.0.0.UPF
     MD5 check sum: cfc449ca30b5f3223ec38ddd88ac046d
     Pseudo is Projector augmented-wave + core cor, Zval =  3.0
     Generated using "atomic" code by A. Dal Corso  v.5.1
     Shape of augmentation charge: PSQ
     Using radial grid of 1135 points,  6 beta functions with:
                l(1) =   0
                l(2) =   0
                l(3) =   1
                l(4) =   1
                l(5) =   2
                l(6) =   2
     Q(r) pseudized with 0 coefficients

     PseudoPot. # 3 for Co read from file:
     /home/pragov/projects/rrg-bengioy-ad/pragov/crystal_structure_design/SSSP/Co_pbe_v1.2.uspp.F.UPF
     MD5 check sum: 5f91765df6ddd3222702df6e7b74a16d
     Pseudo is Ultrasoft + core correction, Zval = 17.0
     Generated by new atomic code, or converted to UPF format
     Using radial grid of  863 points,  6 beta functions with:
                l(1) =   0
                l(2) =   0
                l(3) =   1
                l(4) =   1
                l(5) =   2
                l(6) =   2
     Q(r) pseudized with  8 coefficients,  rinner =    1.200   1.200   1.200
                                                       1.200   1.200

     atomic species   valence    mass     pseudopotential
        La            11.00   138.90547     La( 1.00)
        Al             3.00    26.98154     Al( 1.00)
        Co            17.00    58.93319     Co( 1.00)

     12 Sym. Ops. (no inversion) found

                                    s                        frac. trans.

      isym =  1     identity

 cryst.   s( 1) = (     1          0          0      )
                  (     0          1          0      )
                  (     0          0          1      )

 cart.    s( 1) = (  1.0000000 -0.0000000  0.0000000 )
                  (  0.0000000  1.0000000  0.0000000 )
                  (  0.0000000  0.0000000  1.0000000 )

      isym =  2     180 deg rotation - cart. axis [0,1,0]

[...]

      isym =  3     120 deg rotation - cryst. axis [0,0,1]

[...]

      isym =  6     180 deg rotation - cryst. axis [2,1,0]

[...]

      isym =  7     inv. 180 deg rotation - cart. axis [0,0,1]

[...]

      isym =  8     inv. 180 deg rotation - cart. axis [1,0,0]

[...]

      isym =  9     inv.  60 deg rotation - cryst. axis [0,0,1]

 cryst.   s( 9) = (    -1         -1          0      )
                  (     1          0          0      )
                  (     0          0         -1      )

 cart.    s( 9) = ( -0.5000000  0.8660254  0.0000000 )
                  ( -0.8660254 -0.5000000  0.0000000 )
                  (  0.0000000  0.0000000 -1.0000000 )

[...]

 cryst.   s(10) = (     0          1          0      )
                  (    -1         -1          0      )
                  (     0          0         -1      )

 cart.    s(10) = ( -0.5000000 -0.8660254  0.0000000 )
                  (  0.8660254 -0.5000000  0.0000000 )
                  (  0.0000000  0.0000000 -1.0000000 )

[...]

      isym = 12     inv. 180 deg rotation - cryst. axis [1,1,0]

 cryst.   s(12) = (     0         -1          0      )
                  (    -1          0          0      )
                  (     0          0          1      )

 cart.    s(12) = (  0.5000000 -0.8660254  0.0000000 )
                  ( -0.8660254 -0.5000000  0.0000000 )
                  (  0.0000000  0.0000000  1.0000000 )

   Cartesian axes

     site n.     atom                  positions (alat units)
         1           La  tau(   1) = (   0.5000005   0.2886748   0.0000000  )
         2           Al  tau(   2) = (   0.0000000   0.0000000   0.0000000  )
         3           Co  tau(   3) = (  -0.0000005   0.5773505   0.0000000  )
         4           Co  tau(   4) = (   0.2443220   0.7184096   0.3666705  )
         5           Co  tau(   5) = (  -0.2443220   0.7184096   0.3666705  )
         6           Co  tau(   6) = (  -0.0000000   0.2952315   0.3666705  )

   Crystallographic axes

     site n.     atom                  positions (cryst. coord.)
         1           La  tau(   1) = (  0.6666670  0.3333330  0.0000000  )
         2           Al  tau(   2) = (  0.0000000  0.0000000  0.0000000  )
         3           Co  tau(   3) = (  0.3333330  0.6666670  0.0000000  )
         4           Co  tau(   4) = (  0.6590960  0.8295480  0.5000000  )
         5           Co  tau(   5) = (  0.1704520  0.8295480  0.5000000  )
         6           Co  tau(   6) = (  0.1704520  0.3409040  0.5000000  )

     number of k points=     1  Methfessel-Paxton smearing, width (Ry)=  0.0010
                       cart. coord. in units 2pi/alat
        k(    1) = (   0.0000000   0.0000000   0.0000000), wk =   2.0000000

                       cryst. coord.
        k(    1) = (   0.0000000   0.0000000   0.0000000), wk =   2.0000000

     Check: negative core charge=   -0.000018

     Initial potential from superposition of free atoms

     starting charge      77.9892, renormalised to      82.0000
     Starting wfcs are   88 randomized atomic wfcs
     Checking if some PAW data can be deallocated...

     Self-consistent Calculation

     iteration #  1     ecut=    30.00 Ry     beta= 0.70
     Davidson diagonalization with overlap

     ethr =  1.00E-02,  avg # of iterations =  3.0

     total energy              =   -1529.90508657 Ry
     estimated scf accuracy    <     190.48139041 Ry

[...]

     negative rho (up, down):  1.736E-03 0.000E+00

[...]

     negative rho (up, down):  8.852E-05 0.000E+00

[...]

     total energy              =   -1691.36824001 Ry
     estimated scf accuracy    <       0.00001317 Ry

     iteration # 48     ecut=    30.00 Ry     beta= 0.70
     Davidson diagonalization with overlap

     ethr =  1.46E-09,  avg # of iterations =  1.0

     End of self-consistent calculation

          k = 0.0000 0.0000 0.0000 (   862 PWs)   bands (ev):

   -79.7717 -79.7556 -79.7554 -78.6715 -43.3428 -43.2197 -43.2195 -43.0265
   -42.9841 -42.9838 -42.9112 -42.9109 -42.8613 -42.1498 -41.8812 -41.8810
   -17.2694  -1.2280  -1.2280  -0.8172   6.3201  10.6982  10.6983  10.8987
    11.7236  11.8687  12.3529  12.3832  12.3833  12.5698  12.5699  13.9955
    13.9956  14.2411  14.2413  14.3910  14.9182  14.9183  15.1231  15.1231
    15.1982  15.2020  15.7491  15.9446  15.9446  16.3785  16.5553  16.5553
    17.6815

     occupation numbers
     1.0000   1.0000   1.0000   1.0000   1.0000   1.0000   1.0000   1.0000
     1.0000   1.0000   1.0000   1.0000   1.0000   1.0000   1.0000   1.0000
     1.0000   1.0000   1.0000   1.0000   1.0000   1.0000   1.0000   1.0000
     1.0000   1.0000   1.0000   1.0000   1.0000   1.0000   1.0000   1.0000
     1.0000   1.0000   1.0000   1.0000   1.0000   1.0000   1.0000   1.0000
     0.6170   0.3830  -0.0000  -0.0000  -0.0000  -0.0000  -0.0000  -0.0000
    -0.0000

     the Fermi energy is    15.2001 ev

!    total energy              =   -1691.36824000 Ry
     estimated scf accuracy    <       0.00000021 Ry
     smearing contrib. (-TS)   =      -0.00053169 Ry
     internal energy E=F+TS    =   -1691.36770831 Ry

     The total energy is F=E-TS. E is the sum of the following terms:
     one-electron contribution =    -915.92371392 Ry
     hartree contribution      =     504.45524034 Ry
     xc contribution           =    -142.24294015 Ry
     ewald contribution        =    -704.85530540 Ry
     one-center paw contrib.   =    -432.80098918 Ry
      -> PAW hartree energy AE =      37.47066813 Ry
      -> PAW hartree energy PS =     -37.50025754 Ry
      -> PAW xc energy AE      =    -442.21082594 Ry
      -> PAW xc energy PS      =       9.43942618 Ry
      -> total E_H with PAW    =     504.42565093 Ry
      -> total E_XC with PAW   =    -575.01433992 Ry

     convergence has been achieved in  48 iterations

     Forces acting on atoms (cartesian axes, Ry/au):

     atom    1 type  1   force =     0.00000000    0.00000000    0.00000000
     atom    2 type  2   force =     0.00000000   -0.00000000    0.00000000
     atom    3 type  3   force =    -0.00000000   -0.00000000    0.00000000
     atom    4 type  3   force =     0.03175178    0.01833190    0.00000000
     atom    5 type  3   force =    -0.03175178    0.01833190   -0.00000000
     atom    6 type  3   force =    -0.00000000   -0.03666380    0.00000000
     The non-local contrib.  to forces
     atom    1 type  1   force =    -0.00000000    0.00000000    0.00000000
     atom    2 type  2   force =     0.00000000    0.00000000    0.00000000
     atom    3 type  3   force =     0.00000000    0.00000000    0.00000000
     atom    4 type  3   force =     0.45183307    0.26086596    0.00000000
     atom    5 type  3   force =    -0.45183307    0.26086594    0.00000000
     atom    6 type  3   force =    -0.00000000   -0.52173190    0.00000000
     The ionic contribution  to forces
     atom    1 type  1   force =    -0.00009010    0.00005202    0.00000000
     atom    2 type  2   force =    -0.00000197    0.00000114    0.00000000
     atom    3 type  3   force =     0.00004276   -0.00002469    0.00000000
     atom    4 type  3   force =    18.39509298   10.62033071   -0.00000000
     atom    5 type  3   force =   -18.39511463   10.62042400   -0.00000000
     atom    6 type  3   force =     0.00007096  -21.24078318   -0.00000000
     The local contribution  to forces
     atom    1 type  1   force =    -0.00007445   -0.00028718   -0.00001926
     atom    2 type  2   force =    -0.00004660   -0.00003797    0.00000554
     atom    3 type  3   force =     0.00044333    0.00046457    0.00004588
     atom    4 type  3   force =   -18.80635186  -10.85762264   -0.00002677
     atom    5 type  3   force =    18.80638182  -10.85747793   -0.00001813
     atom    6 type  3   force =     0.00015508   21.71538393   -0.00005598
     The core correction contribution to forces
     atom    1 type  1   force =    -0.00000004   -0.00000007    0.00000001
     atom    2 type  2   force =     0.00000009   -0.00000010    0.00000026
     atom    3 type  3   force =    -0.00000167   -0.00000300    0.00000011
     atom    4 type  3   force =    -0.00958877   -0.00553643   -0.00000030
     atom    5 type  3   force =     0.00958814   -0.00553601    0.00000009
     atom    6 type  3   force =     0.00000041    0.01107080    0.00000036
     The Hubbard contrib.    to forces
     atom    1 type  1   force =     0.00000000    0.00000000    0.00000000
     atom    2 type  2   force =     0.00000000    0.00000000    0.00000000
     atom    3 type  3   force =     0.00000000    0.00000000    0.00000000
     atom    4 type  3   force =     0.00000000    0.00000000    0.00000000
     atom    5 type  3   force =     0.00000000    0.00000000    0.00000000
     atom    6 type  3   force =     0.00000000    0.00000000    0.00000000
     The SCF correction term to forces
     atom    1 type  1   force =     0.00010838    0.00015789   -0.00000516
     atom    2 type  2   force =     0.00004314    0.00003122   -0.00000234
     atom    3 type  3   force =    -0.00053121   -0.00053582   -0.00004992
     atom    4 type  3   force =     0.00078072    0.00026839    0.00002023
     atom    5 type  3   force =    -0.00079743    0.00001529    0.00002792
     atom    6 type  3   force =    -0.00024484   -0.00060403    0.00008754

     Total force =     0.063504     Total SCF correction =     0.001537

     Computing stress (Cartesian axis) and pressure

          total   stress  (Ry/bohr**3)                   (kbar)     P=     -329.15
  -0.00184777  -0.00000000  -0.00000000         -271.82       -0.00       -0.00
  -0.00000000  -0.00184777   0.00000000           -0.00     -271.82        0.00
   0.00000000   0.00000000  -0.00301711            0.00        0.00     -443.83

     kinetic stress (kbar)  30723.94      0.00      0.00
                                0.00  30723.94      0.00
                                0.00      0.00  30667.54

     local   stress (kbar) -12808.84     -0.22      0.04
                               -0.22 -12808.72      0.01
                                0.04      0.01 -39730.14

     nonloc. stress (kbar)  17394.04      0.00      0.00
                                0.00  17394.04      0.00
                                0.00      0.00  17266.01

     hartree stress (kbar)  36210.46      0.23     -0.01
                                0.23  36210.22     -0.01
                               -0.01     -0.01  48496.51

     exc-cor stress (kbar)  -8185.36     -0.00     -0.00
                               -0.00  -8185.35     -0.00
                               -0.00     -0.00  -8177.11

     corecor stress (kbar)  -2407.55      0.00      0.00
                                0.00  -2407.55      0.00
                                0.00      0.00  -2410.75

     ewald   stress (kbar) -61198.45      0.00     -0.00
                                0.00 -61198.45      0.00
                               -0.00      0.00 -46555.90

     hubbard stress (kbar)      0.00      0.00      0.00
                                0.00      0.00      0.00
                                0.00      0.00      0.00

     DFT-D   stress (kbar)      0.00      0.00      0.00
                                0.00      0.00      0.00
                                0.00      0.00      0.00

     XDM     stress (kbar)      0.00      0.00      0.00
                                0.00      0.00      0.00
                                0.00      0.00      0.00

     dft-nl  stress (kbar)      0.00      0.00      0.00
                                0.00      0.00      0.00
                                0.00      0.00      0.00

     TS-vdW  stress (kbar)      0.00      0.00      0.00
                                0.00      0.00      0.00
                                0.00      0.00      0.00

[...]

                                0.00      0.00      0.00

     Writing all to output data dir new_calculations/myprefix.save/

     General routines

     Parallel routines

     PAW routines

   This run was terminated on:  14: 8:35  21May2023

   JOB DONE.