     Program PWSCF v.7.0 starts on 21May2023 at  5:59: 7

     Reading input from espresso_7028.pwi
Warning: card &CELL ignored
Warning: card / ignored

     Current dimensions of program PWSCF are:
     Max number of different atomic species (ntypx) = 10
     Max number of k-points (npk) =  40000
     Max angular momentum in pseudopotentials (lmaxx) =  4
     file Cd.pbe-dn-rrkjus_psl.0.3.1.UPF: wavefunction(s)  4D renormalized

     gamma-point specific algorithms are used
     Message from routine setup:
     using ibrav=0 with symmetry is DISCOURAGED, use correct ibrav instead

     Subspace diagonalization in iterative solution of the eigenvalue problem:
     a serial algorithm will be used

     Using Slab Decomposition

     bravais-lattice index     =            0
     lattice parameter (alat)  =      12.8242  a.u.
     unit-cell volume          =    1360.7890 (a.u.)^3
     number of atoms/cell      =            8
     number of atomic types    =            2
     number of electrons       =       100.00
     number of Kohn-Sham states=           60
     kinetic-energy cutoff     =      30.0000  Ry
     charge density cutoff     =     240.0000  Ry
     scf convergence threshold =      1.0E-06
     mixing beta               =       0.7000
     number of iterations used =            8  plain     mixing
     Exchange-correlation= PBE
                           (   1   4   3   4   0   0   0)

     celldm(1)=  12.824237  celldm(2)=   0.000000  celldm(3)=   0.000000
     celldm(4)=   0.000000  celldm(5)=   0.000000  celldm(6)=   0.000000

     crystal axes: (cart. coord. in units of alat)
               a(1) = (   1.000000   0.000000   0.000000 )
               a(2) = (  -0.500000   0.866025   0.000000 )
               a(3) = (   0.000000   0.000000   0.745016 )

     reciprocal axes: (cart. coord. in units 2 pi/alat)
               b(1) = (  1.000000  0.577350  0.000000 )
               b(2) = (  0.000000  1.154701  0.000000 )
               b(3) = (  0.000000  0.000000  1.342253 )

     PseudoPot. # 1 for Nd read from file:
     /home/pragov/projects/rrg-bengioy-ad/pragov/crystal_structure_design/SSSP/Nd.GGA-PBE-paw-v1.0.UPF
     MD5 check sum: 1d1e94942b6eb1cde76049b71bb7dcb0
     Pseudo is Projector augmented-wave + core cor, Zval = 14.0
     Generated using ATOMPAW code
     Shape of augmentation charge: BESSEL
     Using radial grid of 1105 points,  8 beta functions with:
                l(1) =   0
                l(2) =   0
                l(3) =   1
                l(4) =   1
                l(5) =   2
                l(6) =   2
                l(7) =   3
                l(8) =   3
     Q(r) pseudized with 0 coefficients

     PseudoPot. # 2 for Cd read from file:
     /home/pragov/projects/rrg-bengioy-ad/pragov/crystal_structure_design/SSSP/Cd.pbe-dn-rrkjus_psl.0.3.1.UPF
     MD5 check sum: 558e9f355611b531a870a69ef6ace9e2
     Pseudo is Ultrasoft + core correction, Zval = 12.0
     Generated using "atomic" code by A. Dal Corso  v.5.0.99 svn rev. 10869
     Using radial grid of 1239 points,  6 beta functions with:
                l(1) =   0
                l(2) =   0
                l(3) =   1
                l(4) =   1
                l(5) =   2
                l(6) =   2
     Q(r) pseudized with 0 coefficients

     atomic species   valence    mass     pseudopotential
        Nd            14.00   144.24200     Nd( 1.00)
        Cd            12.00   112.41400     Cd( 1.00)

     24 Sym. Ops., with inversion, found (12 have fractional translation)

                                    s                        frac. trans.

      isym =  1     identity

 cryst.   s( 1) = (     1          0          0      )
                  (     0          1          0      )
                  (     0          0          1      )

 cart.    s( 1) = (  1.0000000 -0.0000000  0.0000000 )
                  (  0.0000000  1.0000000  0.0000000 )
                  (  0.0000000  0.0000000  1.0000000 )

      isym =  2     180 deg rotation - cart. axis [0,0,1]

 cryst.   s( 2) = (    -1          0          0      )    f =(  0.0000000 )
                  (     0         -1          0      )       (  0.0000000 )
                  (     0          0          1      )       (  0.5000000 )

 cart.    s( 2) = ( -1.0000000  0.0000000  0.0000000 )    f =(  0.0000000 )
                  (  0.0000000 -1.0000000  0.0000000 )       (  0.0000000 )
                  (  0.0000000  0.0000000  1.0000000 )       (  0.3725080 )

[...]

      isym =  4     180 deg rotation - cart. axis [1,0,0]

[...]

      isym =  5      60 deg rotation - cryst. axis [0,0,1]

[...]

 cryst.   s( 8) = (    -1         -1          0      )
                  (     1          0          0      )
                  (     0          0          1      )

 cart.    s( 8) = ( -0.5000000  0.8660254  0.0000000 )
                  ( -0.8660254 -0.5000000  0.0000000 )
                  (  0.0000000  0.0000000  1.0000000 )

[...]

 cryst.   s( 9) = (     0         -1          0      )    f =(  0.0000000 )
                  (    -1          0          0      )       (  0.0000000 )
                  (     0          0         -1      )       (  0.5000000 )

 cart.    s( 9) = (  0.5000000 -0.8660254  0.0000000 )    f =(  0.0000000 )
                  ( -0.8660254 -0.5000000  0.0000000 )       (  0.0000000 )
                  (  0.0000000  0.0000000 -1.0000000 )       (  0.3725080 )

[...]

 cryst.   s(10) = (     1          1          0      )    f =(  0.0000000 )
                  (     0         -1          0      )       (  0.0000010 )
                  (     0          0         -1      )       (  0.5000000 )

 cart.    s(10) = (  0.5000000  0.8660254  0.0000000 )    f =( -0.0000005 )
                  (  0.8660254 -0.5000000  0.0000000 )       (  0.0000009 )
                  (  0.0000000  0.0000000 -1.0000000 )       (  0.3725080 )

[...]

 cryst.   s(11) = (    -1         -1          0      )
                  (     0          1          0      )
                  (     0          0         -1      )

 cart.    s(11) = ( -0.5000000 -0.8660254  0.0000000 )
                  ( -0.8660254  0.5000000  0.0000000 )
                  (  0.0000000  0.0000000 -1.0000000 )

      isym = 12     180 deg rotation - cryst. axis [1,1,0]

[...]

      isym = 13     inversion

[...]

      isym = 14     inv. 180 deg rotation - cart. axis [0,0,1]

[...]

      isym = 16     inv. 180 deg rotation - cart. axis [1,0,0]

[...]

      isym = 17     inv.  60 deg rotation - cryst. axis [0,0,1]

[...]

 cryst.   s(22) = (    -1         -1          0      )    f =(  0.0000000 )
                  (     0          1          0      )       (  0.0000010 )
                  (     0          0          1      )       (  0.5000000 )

 cart.    s(22) = ( -0.5000000 -0.8660254  0.0000000 )    f =( -0.0000005 )
                  ( -0.8660254  0.5000000  0.0000000 )       (  0.0000009 )
                  (  0.0000000  0.0000000  1.0000000 )       (  0.3725080 )

[...]

      isym = 24     inv. 180 deg rotation - cryst. axis [1,1,0]

 cryst.   s(24) = (     0         -1          0      )
                  (    -1          0          0      )
                  (     0          0          1      )

 cart.    s(24) = (  0.5000000 -0.8660254  0.0000000 )
                  ( -0.8660254 -0.5000000  0.0000000 )
                  (  0.0000000  0.0000000  1.0000000 )

   Cartesian axes

     site n.     atom                  positions (alat units)
         1           Nd  tau(   1) = (   0.5000005   0.2886748   0.1862540  )
         2           Nd  tau(   2) = (  -0.0000005   0.5773506   0.5587619  )
         3           Cd  tau(   3) = (   0.7589035   0.1391971   0.5587619  )
         4           Cd  tau(   4) = (   0.2410965   0.1391971   0.5587619  )
         5           Cd  tau(   5) = (   0.5000000   0.5876311   0.5587619  )
         6           Cd  tau(   6) = (  -0.2589035   0.7268283   0.1862540  )
         7           Cd  tau(   7) = (   0.2589035   0.7268283   0.1862540  )
         8           Cd  tau(   8) = (   0.0000000   0.2783943   0.1862540  )

   Crystallographic axes

     site n.     atom                  positions (cryst. coord.)
         1           Nd  tau(   1) = (  0.6666670  0.3333330  0.2500000  )
         2           Nd  tau(   2) = (  0.3333330  0.6666670  0.7500000  )
         3           Cd  tau(   3) = (  0.8392690  0.1607310  0.7500000  )
         4           Cd  tau(   4) = (  0.3214620  0.1607310  0.7500000  )
         5           Cd  tau(   5) = (  0.8392690  0.6785380  0.7500000  )
         6           Cd  tau(   6) = (  0.1607310  0.8392690  0.2500000  )
         7           Cd  tau(   7) = (  0.6785380  0.8392690  0.2500000  )
         8           Cd  tau(   8) = (  0.1607310  0.3214620  0.2500000  )

     number of k points=     1  Methfessel-Paxton smearing, width (Ry)=  0.0010
                       cart. coord. in units 2pi/alat
        k(    1) = (   0.0000000   0.0000000   0.0000000), wk =   2.0000000

                       cryst. coord.
        k(    1) = (   0.0000000   0.0000000   0.0000000), wk =   2.0000000

     Initial potential from superposition of free atoms

     starting charge      99.9583, renormalised to     100.0000
     Starting wfcs are  118 randomized atomic wfcs
     Checking if some PAW data can be deallocated...

     Self-consistent Calculation

     iteration #  1     ecut=    30.00 Ry     beta= 0.70
     Davidson diagonalization with overlap

     ethr =  1.00E-02,  avg # of iterations =  1.0

     total energy              =   -1805.14950335 Ry
     estimated scf accuracy    <       2.51737627 Ry

[...]

     total energy              =   -1807.70330712 Ry
     estimated scf accuracy    <       0.00000241 Ry

     iteration # 60     ecut=    30.00 Ry     beta= 0.70
     Davidson diagonalization with overlap

     ethr =  1.41E-09,  avg # of iterations =  1.0

     End of self-consistent calculation

          k = 0.0000 0.0000 0.0000 (  1881 PWs)   bands (ev):

   -26.1434 -26.1363  -7.6179  -7.6160  -7.5575  -7.5557  -7.4736  -7.4240
     1.9393   1.9815   2.0004   2.0444   2.0851   2.0955   2.1050   2.1371
     2.2083   2.2485   2.3094   2.3201   2.3265   2.4555   2.5195   2.5209
     2.5372   2.5448   2.5573   2.5712   2.6788   2.6948   2.7118   2.7192
     2.7309   2.8399   2.8846   2.9229   2.9367   3.0271   3.6015   7.6372
     7.6412   8.3614   8.8202   9.1894   9.1896  10.3274  11.3232  11.3382
    11.3389  11.3674  11.3676  11.4627  11.5051  11.5056  11.5879  11.6032
    11.6038  11.6714  11.7075  11.7945

     occupation numbers
     1.0000   1.0000   1.0000   1.0000   1.0000   1.0000   1.0000   1.0000
     1.0000   1.0000   1.0000   1.0000   1.0000   1.0000   1.0000   1.0000
     1.0000   1.0000   1.0000   1.0000   1.0000   1.0000   1.0000   1.0000
     1.0000   1.0000   1.0000   1.0000   1.0000   1.0000   1.0000   1.0000
     1.0000   1.0000   1.0000   1.0000   1.0000   1.0000   1.0000   1.0000
     1.0000   1.0000   1.0000   1.0000   1.0000   1.0000   1.0000   1.0049
     1.0059   0.5007   0.4885  -0.0000  -0.0000  -0.0000  -0.0000  -0.0000
    -0.0000  -0.0000  -0.0000  -0.0000

     the Fermi energy is    11.3674 ev

!    total energy              =   -1807.70330706 Ry
     estimated scf accuracy    <       0.00000011 Ry
     smearing contrib. (-TS)   =      -0.00051323 Ry
     internal energy E=F+TS    =   -1807.70279383 Ry

     The total energy is F=E-TS. E is the sum of the following terms:
     one-electron contribution =    -222.00668509 Ry
     hartree contribution      =     211.64007791 Ry
     xc contribution           =    -284.91683912 Ry
     ewald contribution        =    -652.19604826 Ry
     one-center paw contrib.   =    -860.22329927 Ry
      -> PAW hartree energy AE =     164.11314514 Ry
      -> PAW hartree energy PS =    -163.23492858 Ry
      -> PAW xc energy AE      =    -886.36524616 Ry
      -> PAW xc energy PS      =      25.26373033 Ry
      -> total E_H with PAW    =     212.51829447 Ry
      -> total E_XC with PAW   =   -1146.01835495 Ry

     convergence has been achieved in  60 iterations

     Forces acting on atoms (cartesian axes, Ry/au):

     atom    1 type  1   force =    -0.00000000    0.00000000    0.00000000
     atom    2 type  1   force =     0.00000000   -0.00000000    0.00000000
     atom    3 type  2   force =    -0.01309090    0.00755803   -0.00000000
     atom    4 type  2   force =     0.01309090    0.00755803   -0.00000000
     atom    5 type  2   force =    -0.00000000   -0.01511607    0.00000000
     atom    6 type  2   force =     0.01309090   -0.00755803    0.00000000
     atom    7 type  2   force =    -0.01309090   -0.00755803    0.00000000
     atom    8 type  2   force =     0.00000000    0.01511607   -0.00000000
     The non-local contrib.  to forces
     atom    1 type  1   force =     0.00000000    0.00000000    0.00000000
     atom    2 type  1   force =    -0.00000000    0.00000000    0.00000000
     atom    3 type  2   force =     0.17051294   -0.09844569    0.00000000
     atom    4 type  2   force =    -0.17051294   -0.09844569   -0.00000000
     atom    5 type  2   force =     0.00000000    0.19689138    0.00000000
     atom    6 type  2   force =    -0.17051294    0.09844569    0.00000000
     atom    7 type  2   force =     0.17051294    0.09844569    0.00000000
     atom    8 type  2   force =     0.00000000   -0.19689138   -0.00000000
     The ionic contribution  to forces
     atom    1 type  1   force =    -0.00005877    0.00003393   -0.00000000
     atom    2 type  1   force =     0.00005877   -0.00003393    0.00000000
     atom    3 type  2   force =    -1.20231565    0.69415727    0.00000000
     atom    4 type  2   force =     1.20232051    0.69421248    0.00000000
     atom    5 type  2   force =    -0.00004539   -1.38834635    0.00000000
     atom    6 type  2   force =     1.20231565   -0.69415727   -0.00000000
     atom    7 type  2   force =    -1.20232051   -0.69421248   -0.00000000
     atom    8 type  2   force =     0.00004539    1.38834635   -0.00000000
     The local contribution  to forces
     atom    1 type  1   force =     0.00151592    0.00069472    0.00059270
     atom    2 type  1   force =    -0.00158309   -0.00074568   -0.00059217
     atom    3 type  2   force =     1.02401967   -0.58911016   -0.00335309
     atom    4 type  2   force =    -1.02237573   -0.59057731   -0.00098501
     atom    5 type  2   force =     0.00281798    1.18100385   -0.00384647
     atom    6 type  2   force =    -1.02394013    0.58910385    0.00335187
     atom    7 type  2   force =     1.02231004    0.59056587    0.00098915
     atom    8 type  2   force =    -0.00280378   -1.18093600    0.00384013
     The core correction contribution to forces
     atom    1 type  1   force =     0.00000021    0.00000017    0.00000014
     atom    2 type  1   force =    -0.00000022   -0.00000017   -0.00000014
     atom    3 type  2   force =    -0.00374433    0.00247299   -0.00057980
     atom    4 type  2   force =     0.00402906    0.00229688   -0.00020167
     atom    5 type  2   force =     0.00052415   -0.00456936   -0.00064927
     atom    6 type  2   force =     0.00374466   -0.00247236    0.00057961
     atom    7 type  2   force =    -0.00402914   -0.00229603    0.00020166
     atom    8 type  2   force =    -0.00052428    0.00456944    0.00064936
     The Hubbard contrib.    to forces
     atom    1 type  1   force =     0.00000000    0.00000000    0.00000000
     atom    2 type  1   force =     0.00000000    0.00000000    0.00000000
     atom    3 type  2   force =     0.00000000    0.00000000    0.00000000
     atom    4 type  2   force =     0.00000000    0.00000000    0.00000000
     atom    5 type  2   force =     0.00000000    0.00000000    0.00000000
     atom    6 type  2   force =     0.00000000    0.00000000    0.00000000
     atom    7 type  2   force =     0.00000000    0.00000000    0.00000000
     atom    8 type  2   force =     0.00000000    0.00000000    0.00000000
     The SCF correction term to forces
     atom    1 type  1   force =     0.00035356    0.00030415   -0.00023995
     atom    2 type  1   force =    -0.00030776   -0.00020636    0.00024188
     atom    3 type  2   force =    -0.00005856    0.00025668    0.00009487
     atom    4 type  2   force =     0.00004514    0.00002964    0.00002817
     atom    5 type  2   force =     0.00019300   -0.00017550    0.00003849
     atom    6 type  2   force =    -0.00002263   -0.00024692   -0.00010206
     atom    7 type  2   force =     0.00002188   -0.00001446   -0.00002894
     atom    8 type  2   force =    -0.00019976    0.00011095   -0.00003239

     Total force =     0.037027     Total SCF correction =     0.000866

     Computing stress (Cartesian axis) and pressure

          total   stress  (Ry/bohr**3)                   (kbar)     P=     -225.73
  -0.00147600   0.00000000   0.00000000         -217.13        0.00        0.00
   0.00000000  -0.00147600   0.00000000            0.00     -217.13        0.00
   0.00000000   0.00000000  -0.00165153            0.00        0.00     -242.95

     kinetic stress (kbar)  20050.41     -0.00      0.00
                               -0.00  20050.41      0.00
                                0.00      0.00  19990.03

     local   stress (kbar)   3504.79      2.30      2.09
                                2.30   3515.52     -0.20
                                2.09     -0.20    -65.35

     nonloc. stress (kbar)  -1516.43      0.00     -0.00
                                0.00  -1516.43      0.00
                               -0.00      0.00  -1466.06

     hartree stress (kbar)   7171.38     -0.84     -0.56
                               -0.84   7167.62      0.16
                               -0.56      0.16   8539.88

     exc-cor stress (kbar)  11493.26     -0.04     -0.02
                               -0.04  11493.09      0.01
                               -0.02      0.01  11498.79

     corecor stress (kbar) -16697.17      0.19      0.38
                                0.19 -16696.36     -0.06
                                0.38     -0.06 -16690.40

     ewald   stress (kbar) -24227.18     -0.01     -0.00
                               -0.01 -24227.19     -0.00
                               -0.00     -0.00 -22049.84

     hubbard stress (kbar)      0.00      0.00      0.00
                                0.00      0.00      0.00
                                0.00      0.00      0.00

     DFT-D   stress (kbar)      0.00      0.00      0.00
                                0.00      0.00      0.00
                                0.00      0.00      0.00

     XDM     stress (kbar)      0.00      0.00      0.00
                                0.00      0.00      0.00
                                0.00      0.00      0.00

     dft-nl  stress (kbar)      0.00      0.00      0.00
                                0.00      0.00      0.00
                                0.00      0.00      0.00

     TS-vdW  stress (kbar)      0.00      0.00      0.00
                                0.00      0.00      0.00
                                0.00      0.00      0.00

[...]

                                0.00      0.00      0.00

     Writing all to output data dir new_calculations/myprefix.save/

     General routines

     Parallel routines

     PAW routines

   This run was terminated on:   6: 0:44  21May2023

   JOB DONE.