     Program PWSCF v.7.0 starts on 20May2023 at 11:40:26

     Reading input from espresso_17310.pwi
Warning: card &CELL ignored
Warning: card / ignored

     Current dimensions of program PWSCF are:
     Max number of different atomic species (ntypx) = 10
     Max number of k-points (npk) =  40000
     Max angular momentum in pseudopotentials (lmaxx) =  4

     gamma-point specific algorithms are used
     Message from routine setup:
     using ibrav=0 with symmetry is DISCOURAGED, use correct ibrav instead

     Subspace diagonalization in iterative solution of the eigenvalue problem:
     a serial algorithm will be used

     Using Slab Decomposition

     bravais-lattice index     =            0
     lattice parameter (alat)  =      12.8177  a.u.
     unit-cell volume          =    2105.1996 (a.u.)^3
     number of atoms/cell      =           15
     number of atomic types    =            3
     number of electrons       =       151.00
     number of Kohn-Sham states=           91
     kinetic-energy cutoff     =      30.0000  Ry
     charge density cutoff     =     240.0000  Ry
     scf convergence threshold =      1.0E-06
     mixing beta               =       0.7000
     number of iterations used =            8  plain     mixing
     Exchange-correlation= SLA  PW   PBE  PBE
                           (   1   4   3   4   0   0   0)

     celldm(1)=  12.817694  celldm(2)=   0.000000  celldm(3)=   0.000000
     celldm(4)=   0.000000  celldm(5)=   0.000000  celldm(6)=   0.000000

     crystal axes: (cart. coord. in units of alat)
               a(1) = (   1.000000   0.000000   0.000000 )
               a(2) = (   0.014542   0.999894   0.000000 )
               a(3) = (   0.014542   0.014332   0.999792 )

     reciprocal axes: (cart. coord. in units 2 pi/alat)
               b(1) = (  1.000000 -0.014544 -0.014337 )
               b(2) = (  0.000000  1.000106 -0.014337 )
               b(3) = (  0.000000  0.000000  1.000208 )

     PseudoPot. # 1 for Tb read from file:
     /home/pragov/projects/rrg-bengioy-ad/pragov/crystal_structure_design/SSSP/Tb.GGA-PBE-paw-v1.0.UPF
     MD5 check sum: f7bf3d58e9b293961564f5b9598c921e
     Pseudo is Projector augmented-wave + core cor, Zval = 19.0
     Generated using ATOMPAW code
     Shape of augmentation charge: BESSEL
     Using radial grid of 1111 points,  8 beta functions with:
                l(1) =   0
                l(2) =   0
                l(3) =   1
                l(4) =   1
                l(5) =   2
                l(6) =   2
                l(7) =   3
                l(8) =   3
     Q(r) pseudized with 0 coefficients

     PseudoPot. # 2 for Mo read from file:
     /home/pragov/projects/rrg-bengioy-ad/pragov/crystal_structure_design/SSSP/Mo_ONCV_PBE-1.0.oncvpsp.upf
     MD5 check sum: 1b5d28e075c9ccadda658a603575cd1f
     Pseudo is Norm-conserving, Zval = 14.0
     Generated using ONCVPSP code by D. R. Hamann
     Using radial grid of 1526 points,  6 beta functions with:
                l(1) =   0
                l(2) =   0
                l(3) =   1
                l(4) =   1
                l(5) =   2
                l(6) =   2

     PseudoPot. # 3 for Se read from file:
     /home/pragov/projects/rrg-bengioy-ad/pragov/crystal_structure_design/SSSP/Se_pbe_v1.uspp.F.UPF
     MD5 check sum: 1b3568f3a8ae88f9a2a0ad0698632c85
     Pseudo is Ultrasoft + core correction, Zval =  6.0
     Generated by new atomic code, or converted to UPF format
     Using radial grid of  877 points,  6 beta functions with:
                l(1) =   0
                l(2) =   0
                l(3) =   1
                l(4) =   1
                l(5) =   2
                l(6) =   2
     Q(r) pseudized with  8 coefficients,  rinner =    1.300   1.300   1.300
                                                       1.300   1.300

     atomic species   valence    mass     pseudopotential
        Tb            19.00   158.92535     Tb( 1.00)
        Mo            14.00    95.95000     Mo( 1.00)
        Se             6.00    78.97100     Se( 1.00)

      2 Sym. Ops., with inversion, found

                                    s                        frac. trans.

      isym =  1     identity

 cryst.   s( 1) = (     1          0          0      )
                  (     0          1          0      )
                  (     0          0          1      )

 cart.    s( 1) = (  1.0000000 -0.0000000  0.0000000 )
                  (  0.0000000  1.0000000  0.0000000 )
                  (  0.0000000  0.0000000  1.0000000 )

      isym =  2     inversion

 cryst.   s( 2) = (    -1          0          0      )
                  (     0         -1          0      )
                  (     0          0         -1      )

 cart.    s( 2) = ( -1.0000000  0.0000000 -0.0000000 )
                  (  0.0000000 -1.0000000 -0.0000000 )
                  (  0.0000000  0.0000000 -1.0000000 )

   Cartesian axes

     site n.     atom                  positions (alat units)
         1           Tb  tau(   1) = (   0.0000000   0.0000000   0.0000000  )
         2           Mo  tau(   2) = (   0.7806481   0.5835139   0.4404482  )
         3           Mo  tau(   3) = (   0.4600718   0.7740395   0.5771407  )
         4           Mo  tau(   4) = (   0.5948045   0.4514697   0.7656874  )
         5           Mo  tau(   5) = (   0.2484363   0.4307126   0.5593434  )
         6           Mo  tau(   6) = (   0.5690127   0.2401870   0.4226509  )
         7           Mo  tau(   7) = (   0.4342799   0.5627568   0.2341042  )
         8           Se  tau(   8) = (   0.7850319   0.7736976   0.7626860  )
         9           Se  tau(   9) = (   0.2440525   0.2405289   0.2371056  )
        10           Se  tau(  10) = (   0.2656558   0.6408960   0.8780789  )
        11           Se  tau(  11) = (   0.8909446   0.2527263   0.6282440  )
        12           Se  tau(  12) = (   0.6446915   0.8816626   0.2436952  )
        13           Se  tau(  13) = (   0.7634286   0.3733305   0.1217126  )
        14           Se  tau(  14) = (   0.1381399   0.7615003   0.3715475  )
        15           Se  tau(  15) = (   0.3843929   0.1325640   0.7560964  )

   Crystallographic axes

     site n.     atom                  positions (cryst. coord.)
         1           Tb  tau(   1) = (  0.0000000  0.0000000  0.0000000  )
         2           Mo  tau(   2) = (  0.7658470  0.5772610  0.4405400  )
         3           Mo  tau(   3) = (  0.4405400  0.7658470  0.5772610  )
         4           Mo  tau(   4) = (  0.5772610  0.4405400  0.7658470  )
         5           Mo  tau(   5) = (  0.2341530  0.4227390  0.5594600  )
         6           Mo  tau(   6) = (  0.5594600  0.2341530  0.4227390  )
         7           Mo  tau(   7) = (  0.4227390  0.5594600  0.2341530  )
         8           Se  tau(   8) = (  0.7628450  0.7628450  0.7628450  )
         9           Se  tau(   9) = (  0.2371550  0.2371550  0.2371550  )
        10           Se  tau(  10) = (  0.2437460  0.6283750  0.8782620  )
        11           Se  tau(  11) = (  0.8782620  0.2437460  0.6283750  )
        12           Se  tau(  12) = (  0.6283750  0.8782620  0.2437460  )
        13           Se  tau(  13) = (  0.7562540  0.3716250  0.1217380  )
        14           Se  tau(  14) = (  0.1217380  0.7562540  0.3716250  )
        15           Se  tau(  15) = (  0.3716250  0.1217380  0.7562540  )

     number of k points=     1  Methfessel-Paxton smearing, width (Ry)=  0.0010
                       cart. coord. in units 2pi/alat
        k(    1) = (   0.0000000   0.0000000   0.0000000), wk =   2.0000000

                       cryst. coord.
        k(    1) = (   0.0000000   0.0000000   0.0000000), wk =   2.0000000

     Initial potential from superposition of free atoms

     starting charge     150.9891, renormalised to     151.0000
     Starting wfcs are  124 randomized atomic wfcs
     Checking if some PAW data can be deallocated...

     Self-consistent Calculation

     iteration #  1     ecut=    30.00 Ry     beta= 0.70
     Davidson diagonalization with overlap

     ethr =  1.00E-02,  avg # of iterations =  2.0

     total energy              =   -1876.36177257 Ry
     estimated scf accuracy    <      21.50037371 Ry

[...]

     total energy              =   -1900.82400476 Ry
     estimated scf accuracy    <       0.00000126 Ry

     iteration # 67     ecut=    30.00 Ry     beta= 0.70
     Davidson diagonalization with overlap

     ethr =  8.37E-10,  avg # of iterations =  1.0

     End of self-consistent calculation

          k = 0.0000 0.0000 0.0000 (  2908 PWs)   bands (ev):

   -49.3172 -49.2033 -49.1870 -49.1867 -49.1353 -49.1351 -32.4444 -23.9125
   -23.6943 -23.6509 -23.6507 -23.6100 -23.6098 -23.5860 -23.2413 -23.2412
   -23.2307 -23.0936 -23.0934 -23.0474 -23.0466 -23.0251 -23.0250 -22.9993
   -22.9992  -9.6560  -9.6369  -9.6368  -2.7419  -1.7110  -1.7109  -1.4919
    -1.4918  -1.4856  -1.3539  -1.1106   5.8006   5.8136   5.8137   6.3933
     6.3933   6.6932   6.8786   7.1035   7.1735   7.1736   7.2936   7.3132
     7.3134   7.9780   8.0749   8.0750   8.4534   8.4535   8.6949   9.1773
     9.4163   9.4163   9.4996   9.6932   9.6934   9.8250   9.8251  10.3643
    10.4930  10.5459  10.5460  10.7679  11.0612  11.0613  11.2155  11.2166
    11.2973  11.2994  11.3059  11.5502  11.6113  11.6628  11.6642  12.8433
    13.0601  13.0602  13.3257  13.3257  13.6999  13.8952  13.8952  14.0161
    14.3976  14.3977  14.4611

     occupation numbers
     1.0000   1.0000   1.0000   1.0000   1.0000   1.0000   1.0000   1.0000
     1.0000   1.0000   1.0000   1.0000   1.0000   1.0000   1.0000   1.0000
     1.0000   1.0000   1.0000   1.0000   1.0000   1.0000   1.0000   1.0000
     1.0000   1.0000   1.0000   1.0000   1.0000   1.0000   1.0000   1.0000
     1.0000   1.0000   1.0000   1.0000   1.0000   1.0000   1.0000   1.0000
     1.0000   1.0000   1.0000   1.0000   1.0000   1.0000   1.0000   1.0000
     1.0000   1.0000   1.0000   1.0000   1.0000   1.0000   1.0000   1.0000
     1.0000   1.0000   1.0000   1.0000   1.0000   1.0000   1.0000   1.0000
     1.0000   1.0000   1.0000   1.0000   1.0000   1.0000   1.0000   1.0000
     1.0000   1.0000   1.0000   0.5000  -0.0000  -0.0000  -0.0000  -0.0000
    -0.0000  -0.0000  -0.0000  -0.0000  -0.0000  -0.0000  -0.0000  -0.0000
    -0.0000  -0.0000  -0.0000

     the Fermi energy is    11.5502 ev

!    total energy              =   -1900.82400384 Ry
     estimated scf accuracy    <       0.00000064 Ry
     smearing contrib. (-TS)   =      -0.00028209 Ry
     internal energy E=F+TS    =   -1900.82372175 Ry

     The total energy is F=E-TS. E is the sum of the following terms:
     one-electron contribution =    -638.38396498 Ry
     hartree contribution      =     384.14337022 Ry
     xc contribution           =    -357.21525400 Ry
     ewald contribution        =    -816.11877073 Ry
     one-center paw contrib.   =    -473.24910226 Ry
      -> PAW hartree energy AE =     218.36433063 Ry
      -> PAW hartree energy PS =    -204.64929124 Ry
      -> PAW xc energy AE      =    -510.94469318 Ry
      -> PAW xc energy PS      =      23.98055153 Ry
      -> total E_H with PAW    =     397.85840960 Ry
      -> total E_XC with PAW   =    -844.17939565 Ry

     convergence has been achieved in  67 iterations

     Forces acting on atoms (cartesian axes, Ry/au):

     atom    1 type  1   force =     0.00000000    0.00000000    0.00000000
     atom    2 type  2   force =    -0.01428869   -0.01436792    0.00073788
     atom    3 type  2   force =     0.00040775   -0.01424261   -0.01441832
     atom    4 type  2   force =    -0.01453399    0.00056762   -0.01406873
     atom    5 type  2   force =     0.01428869    0.01436792   -0.00073788
     atom    6 type  2   force =    -0.00040775    0.01424261    0.01441832
     atom    7 type  2   force =     0.01453399   -0.00056762    0.01406873
     atom    8 type  3   force =    -0.00162146   -0.00156567   -0.00157818
     atom    9 type  3   force =     0.00162146    0.00156567    0.00157818
     atom   10 type  3   force =     0.00592141   -0.01811156    0.00697557
     atom   11 type  3   force =     0.00684197    0.00578089   -0.01814985
     atom   12 type  3   force =    -0.01799200    0.00705495    0.00613385
     atom   13 type  3   force =    -0.00592141    0.01811156   -0.00697557
     atom   14 type  3   force =    -0.00684197   -0.00578089    0.01814985
     atom   15 type  3   force =     0.01799200   -0.00705495   -0.00613385
     The non-local contrib.  to forces
     atom    1 type  1   force =     0.00000000    0.00000000    0.00000000
     atom    2 type  2   force =    -0.05015505    0.00183621    0.02768598
     atom    3 type  2   force =     0.02693901   -0.05053226    0.00140442
     atom    4 type  2   force =     0.00117548    0.02693683   -0.05063350
     atom    5 type  2   force =     0.05015505   -0.00183621   -0.02768598
     atom    6 type  2   force =    -0.02693901    0.05053226   -0.00140442
     atom    7 type  2   force =    -0.00117548   -0.02693683    0.05063350
     atom    8 type  3   force =    -0.07356824   -0.07243856   -0.07149747
     atom    9 type  3   force =     0.07356824    0.07243856    0.07149747
     atom   10 type  3   force =     0.20347587   -0.03047863   -0.05661596
     atom   11 type  3   force =    -0.05406585    0.20424294   -0.02962311
     atom   12 type  3   force =    -0.02744418   -0.05376802    0.20470761
     atom   13 type  3   force =    -0.20347587    0.03047863    0.05661596
     atom   14 type  3   force =     0.05406585   -0.20424294    0.02962311
     atom   15 type  3   force =     0.02744418    0.05376802   -0.20470761
     The ionic contribution  to forces
     atom    1 type  1   force =    -0.00000000   -0.00000000    0.00000000
     atom    2 type  2   force =    22.84416181    7.23601444   -6.94430881
     atom    3 type  2   force =    -6.50694813   22.94121323    7.33480915
     atom    4 type  2   force =     7.56745399   -6.61769533   22.83372198
     atom    5 type  2   force =   -22.84416181   -7.23601443    6.94430881
     atom    6 type  2   force =     6.50694813  -22.94121323   -7.33480915
     atom    7 type  2   force =    -7.56745399    6.61769533  -22.83372198
     atom    8 type  3   force =     5.63391770    5.55257514    5.47354834
     atom    9 type  3   force =    -5.63391770   -5.55257514   -5.47354834
     atom   10 type  3   force =    -6.56643325    2.35423612    5.56900172
     atom   11 type  3   force =     5.50609153   -6.64720749    2.27417007
     atom   12 type  3   force =     2.25849690    5.47382681   -6.67912208
     atom   13 type  3   force =     6.56643325   -2.35423612   -5.56900172
     atom   14 type  3   force =    -5.50609153    6.64720749   -2.27417007
     atom   15 type  3   force =    -2.25849690   -5.47382681    6.67912208
     The local contribution  to forces
     atom    1 type  1   force =     0.00001947   -0.00025813    0.00026520
     atom    2 type  2   force =   -22.80823093   -7.25211436    6.91675721
     atom    3 type  2   force =     6.48068403  -22.90466563   -7.35128827
     atom    4 type  2   force =    -7.58288625    6.59141906  -22.79752094
     atom    5 type  2   force =    22.80803205    7.25223571   -6.91801695
     atom    6 type  2   force =    -6.48017796   22.90493881    7.35008285
     atom    7 type  2   force =     7.58349721   -6.59129218   22.79743831
     atom    8 type  3   force =    -5.56981199   -5.48941905   -5.41149735
     atom    9 type  3   force =     5.56997686    5.48955109    5.41140142
     atom   10 type  3   force =     6.39241144   -2.34564548   -5.51104116
     atom   11 type  3   force =    -5.45069882    6.47250111   -2.26678360
     atom   12 type  3   force =    -2.25254658   -5.41858573    6.50450589
     atom   13 type  3   force =    -6.39255427    2.34583563    5.51161684
     atom   14 type  3   force =     5.45059182   -6.47254544    2.26643450
     atom   15 type  3   force =     2.25257497    5.41829290   -6.50443325
     The core correction contribution to forces
     atom    1 type  1   force =     0.00000000   -0.00000000   -0.00000000
     atom    2 type  2   force =     0.00000000    0.00000000    0.00000000
     atom    3 type  2   force =     0.00000000    0.00000000    0.00000000
     atom    4 type  2   force =     0.00000000    0.00000000    0.00000000
     atom    5 type  2   force =     0.00000000    0.00000000    0.00000000
     atom    6 type  2   force =     0.00000000    0.00000000    0.00000000
     atom    7 type  2   force =     0.00000000    0.00000000    0.00000000
     atom    8 type  3   force =     0.00790429    0.00778295    0.00768192
     atom    9 type  3   force =    -0.00790512   -0.00778172   -0.00768168
     atom   10 type  3   force =    -0.02364548    0.00383687    0.00578242
     atom   11 type  3   force =     0.00549100   -0.02371979    0.00374867
     atom   12 type  3   force =     0.00348673    0.00545176   -0.02377963
     atom   13 type  3   force =     0.02364265   -0.00383845   -0.00578140
     atom   14 type  3   force =    -0.00549127    0.02372212   -0.00375002
     atom   15 type  3   force =    -0.00348394   -0.00545264    0.02377939
     The Hubbard contrib.    to forces
     atom    1 type  1   force =     0.00000000    0.00000000    0.00000000
     atom    2 type  2   force =     0.00000000    0.00000000    0.00000000
     atom    3 type  2   force =     0.00000000    0.00000000    0.00000000
     atom    4 type  2   force =     0.00000000    0.00000000    0.00000000
     atom    5 type  2   force =     0.00000000    0.00000000    0.00000000
     atom    6 type  2   force =     0.00000000    0.00000000    0.00000000
     atom    7 type  2   force =     0.00000000    0.00000000    0.00000000
     atom    8 type  3   force =     0.00000000    0.00000000    0.00000000
     atom    9 type  3   force =     0.00000000    0.00000000    0.00000000
     atom   10 type  3   force =     0.00000000    0.00000000    0.00000000
     atom   11 type  3   force =     0.00000000    0.00000000    0.00000000
     atom   12 type  3   force =     0.00000000    0.00000000    0.00000000
     atom   13 type  3   force =     0.00000000    0.00000000    0.00000000
     atom   14 type  3   force =     0.00000000    0.00000000    0.00000000
     atom   15 type  3   force =     0.00000000    0.00000000    0.00000000
     The SCF correction term to forces
     atom    1 type  1   force =     0.00000470    0.00024890   -0.00030651
     atom    2 type  2   force =    -0.00007560   -0.00010680    0.00059606
     atom    3 type  2   force =    -0.00025494   -0.00025566    0.00064457
     atom    4 type  2   force =    -0.00025699   -0.00009972    0.00036082
     atom    5 type  2   force =     0.00025230   -0.00001973    0.00064880
     atom    6 type  2   force =    -0.00022667   -0.00001294    0.00053723
     atom    7 type  2   force =    -0.00031355   -0.00004072   -0.00028400
     atom    8 type  3   force =    -0.00006068   -0.00005735    0.00018307
     atom    9 type  3   force =    -0.00009828   -0.00005833   -0.00009400
     atom   10 type  3   force =     0.00009910   -0.00006330   -0.00014229
     atom   11 type  3   force =     0.00002311   -0.00002614    0.00032650
     atom   12 type  3   force =     0.00002703    0.00012352   -0.00017863
     atom   13 type  3   force =     0.00001910   -0.00013100   -0.00041611
     atom   14 type  3   force =     0.00008214    0.00008759    0.00000072
     atom   15 type  3   force =    -0.00003442    0.00015697    0.00010484

     Total force =     0.070308     Total SCF correction =     0.001667

     Computing stress (Cartesian axis) and pressure

          total   stress  (Ry/bohr**3)                   (kbar)     P=      -29.22
  -0.00019757   0.00001852   0.00001909          -29.06        2.72        2.81
   0.00001852  -0.00019813   0.00001840            2.72      -29.15        2.71
   0.00001909   0.00001840  -0.00020016            2.81        2.71      -29.44

     kinetic stress (kbar)  15395.07     13.11     13.10
                               13.11  15394.80     12.90
                               13.10     12.90  15394.29

     local   stress (kbar) -10848.11   -172.88   -170.81
                             -172.88 -10843.23   -168.17
                             -170.81   -168.17 -10837.42

     nonloc. stress (kbar)   9265.94     17.66     17.69
                               17.66   9265.42     17.23
                               17.69     17.23   9264.30

     hartree stress (kbar)   8947.93      7.25      7.21
                                7.25   8947.75      7.09
                                7.21      7.09   8947.11

     exc-cor stress (kbar)  10252.34      1.73      1.71
                                1.73  10252.29      1.69
                                1.71      1.69  10252.24

     corecor stress (kbar) -14036.87     -1.93     -1.91
                               -1.93 -14036.82     -1.88
                               -1.91     -1.88 -14036.75

     ewald   stress (kbar) -19005.37    137.78    135.82
                              137.78 -19009.37    133.86
                              135.82    133.86 -19013.21

     hubbard stress (kbar)      0.00      0.00      0.00
                                0.00      0.00      0.00
                                0.00      0.00      0.00

     DFT-D   stress (kbar)      0.00      0.00      0.00
                                0.00      0.00      0.00
                                0.00      0.00      0.00

     XDM     stress (kbar)      0.00      0.00      0.00
                                0.00      0.00      0.00
                                0.00      0.00      0.00

     dft-nl  stress (kbar)      0.00      0.00      0.00
                                0.00      0.00      0.00
                                0.00      0.00      0.00

     TS-vdW  stress (kbar)      0.00      0.00      0.00
                                0.00      0.00      0.00
                                0.00      0.00      0.00

[...]

                                0.00      0.00      0.00

     Writing all to output data dir new_calculations/myprefix.save/

     General routines

     Parallel routines

     PAW routines

   This run was terminated on:  11:43:12  20May2023

   JOB DONE.