     Program PWSCF v.7.1 starts on 16Jul2023 at 16:51:21

     Reading input from espresso_12056.pwi
Warning: card &CELL ignored
Warning: card / ignored

     Current dimensions of program PWSCF are:
     Max number of different atomic species (ntypx) = 10
     Max number of k-points (npk) =  40000
     Max angular momentum in pseudopotentials (lmaxx) =  4
     file Pm.paw.z_15.atompaw.wentzcovitch.v1.2.upf: wavefunction(s)  6S 0P 5D 0D 4F 0F renormalized
     Message from routine setup:
     using ibrav=0 with symmetry is DISCOURAGED, use correct ibrav instead

     K-points division:     npool     =       2
     R & G space division:  proc/nbgrp/npool/nimage =       4
     Subspace diagonalization in iterative solution of the eigenvalue problem:
     a serial algorithm will be used

     Using Slab Decomposition

     bravais-lattice index     =            0
     lattice parameter (alat)  =       9.3880  a.u.
     unit-cell volume          =     827.4108 (a.u.)^3
     number of atoms/cell      =            4
     number of atomic types    =            2
     number of electrons       =        58.00
     number of Kohn-Sham states=           35
     kinetic-energy cutoff     =      30.0000  Ry
     charge density cutoff     =     240.0000  Ry
     scf convergence threshold =      1.0E-06
     mixing beta               =       0.7000
     number of iterations used =            8  plain     mixing
     Exchange-correlation= SLA  PW   PBE  PBE
                           (   1   4   3   4   0   0   0)

     celldm(1)=   9.388014  celldm(2)=   0.000000  celldm(3)=   0.000000
     celldm(4)=   0.000000  celldm(5)=   0.000000  celldm(6)=   0.000000

     crystal axes: (cart. coord. in units of alat)
               a(1) = (   1.000000   0.000000   0.000000 )
               a(2) = (   0.000000   1.000000   0.000000 )
               a(3) = (   0.000000   0.000000   1.000000 )

     reciprocal axes: (cart. coord. in units 2 pi/alat)
               b(1) = (  1.000000  0.000000  0.000000 )
               b(2) = (  0.000000  1.000000  0.000000 )
               b(3) = (  0.000000  0.000000  1.000000 )

     PseudoPot. # 1 for Pm read from file:
     /lustre07/scratch/pragov/crystal_structure_design/utils/SSSP/Pm.paw.z_15.atompaw.wentzcovitch.v1.2.upf
     MD5 check sum: 73dcdc0c9fe91f97d1fdb9924a622ccb
     Pseudo is Projector augmented-wave + core cor, Zval = 15.0
     Generated using ATOMPAW code
     Shape of augmentation charge: BESSEL
     Using radial grid of 1106 points,  8 beta functions with:
                l(1) =   0
                l(2) =   0
                l(3) =   1
                l(4) =   1
                l(5) =   2
                l(6) =   2
                l(7) =   3
                l(8) =   3
     Q(r) pseudized with 0 coefficients

     PseudoPot. # 2 for Tl read from file:
     /lustre07/scratch/pragov/crystal_structure_design/utils/SSSP/Tl_pbe_v1.2.uspp.F.UPF
     MD5 check sum: b76cf1f7e72655a2b2c53cf6385d7059
     Pseudo is Ultrasoft + core correction, Zval = 13.0
     Generated by new atomic code, or converted to UPF format
     Using radial grid of  899 points,  6 beta functions with:
                l(1) =   0
                l(2) =   0
                l(3) =   1
                l(4) =   1
                l(5) =   2
                l(6) =   2
     Q(r) pseudized with  6 coefficients,  rinner =    1.100   1.100   1.100
                                                       1.100   1.100

     atomic species   valence    mass     pseudopotential
        Pm            15.00   144.91276     Pm( 1.00)
        Tl            13.00   204.38000     Tl( 1.00)

     48 Sym. Ops., with inversion, found

                                    s                        frac. trans.

      isym =  1     identity

 cryst.   s( 1) = (     1          0          0      )
                  (     0          1          0      )
                  (     0          0          1      )

 cart.    s( 1) = (  1.0000000  0.0000000  0.0000000 )
                  (  0.0000000  1.0000000  0.0000000 )
                  (  0.0000000  0.0000000  1.0000000 )

      isym =  2     180 deg rotation - cart. axis [0,0,1]

[...]

 cryst.   s( 9) = (     0          0          1      )
                  (     0         -1          0      )
                  (     1          0          0      )

 cart.    s( 9) = (  0.0000000  0.0000000  1.0000000 )
                  (  0.0000000 -1.0000000  0.0000000 )
                  (  1.0000000  0.0000000  0.0000000 )

[...]

 cryst.   s(10) = (     0          0         -1      )
                  (     0         -1          0      )
                  (    -1          0          0      )

 cart.    s(10) = (  0.0000000  0.0000000 -1.0000000 )
                  (  0.0000000 -1.0000000  0.0000000 )
                  ( -1.0000000  0.0000000  0.0000000 )

[...]

      isym = 24     120 deg rotation - cart. axis [-1,-1,1]

[...]

      isym = 25     inversion

[...]

      isym = 26     inv. 180 deg rotation - cart. axis [0,0,1]

[...]

      isym = 48     inv. 120 deg rotation - cart. axis [-1,-1,1]

 cryst.   s(48) = (     0         -1          0      )
                  (     0          0          1      )
                  (     1          0          0      )

 cart.    s(48) = (  0.0000000  0.0000000  1.0000000 )
                  ( -1.0000000  0.0000000  0.0000000 )
                  (  0.0000000  1.0000000  0.0000000 )

   Cartesian axes

     site n.     atom                  positions (alat units)
         1           Pm  tau(   1) = (   0.0000000   0.5000000   0.5000000  )
         2           Pm  tau(   2) = (   0.5000000   0.0000000   0.5000000  )
         3           Pm  tau(   3) = (   0.5000000   0.5000000   0.0000000  )
         4           Tl  tau(   4) = (   0.0000000   0.0000000   0.0000000  )

   Crystallographic axes

     site n.     atom                  positions (cryst. coord.)
         1           Pm  tau(   1) = (  0.0000000  0.5000000  0.5000000  )
         2           Pm  tau(   2) = (  0.5000000  0.0000000  0.5000000  )
         3           Pm  tau(   3) = (  0.5000000  0.5000000  0.0000000  )
         4           Tl  tau(   4) = (  0.0000000  0.0000000  0.0000000  )

     number of k points=     4  Gaussian smearing, width (Ry)=  0.0010
                       cart. coord. in units 2pi/alat
        k(    1) = (   0.0000000   0.0000000   0.0000000), wk =   0.0740741
        k(    2) = (   0.0000000   0.0000000   0.3333333), wk =   0.4444444
        k(    3) = (   0.0000000   0.3333333   0.3333333), wk =   0.8888889
        k(    4) = (   0.3333333   0.3333333   0.3333333), wk =   0.5925926

                       cryst. coord.
        k(    1) = (   0.0000000   0.0000000   0.0000000), wk =   0.0740741
        k(    2) = (   0.0000000   0.0000000   0.3333333), wk =   0.4444444
        k(    3) = (   0.0000000   0.3333333   0.3333333), wk =   0.8888889
        k(    4) = (   0.3333333   0.3333333   0.3333333), wk =   0.5925926

     Check: negative core charge=   -0.000004

     Initial potential from superposition of free atoms

     starting charge      57.9796, renormalised to      58.0000

     negative rho (up, down):  5.210E-02 0.000E+00
     Starting wfcs are  105 randomized atomic wfcs
     Checking if some PAW data can be deallocated...

     Self-consistent Calculation

     iteration #  1     ecut=    30.00 Ry     beta= 0.70
     Davidson diagonalization with overlap

     ethr =  1.00E-02,  avg # of iterations =  1.0

     negative rho (up, down):  5.322E-02 0.000E+00

     total energy              =   -1848.49361876 Ry
     estimated scf accuracy    <       3.51525572 Ry

[...]

     c_bands:  1 eigenvalues not converged
     ethr =  4.17E-04,  avg # of iterations = 16.2

[...]

     c_bands:  1 eigenvalues not converged
     ethr =  1.01E-07,  avg # of iterations = 10.5

[...]

     total energy              =   -1852.27737260 Ry
     estimated scf accuracy    <       0.00001221 Ry

     iteration # 76     ecut=    30.00 Ry     beta= 0.70
     Davidson diagonalization with overlap

     ethr =  2.10E-08,  avg # of iterations =  4.2

     negative rho (up, down):  5.556E-02 0.000E+00

     End of self-consistent calculation

          k = 0.0000 0.0000 0.0000 (  2301 PWs)   bands (ev):

   -26.1321 -25.9543 -25.9543  -7.0240  -7.0240  -7.0240  -6.4327  -6.4327
    -6.4327  -6.0902  -6.0902  -6.0902   1.3589   1.3589   1.3589   1.3613
     1.3613   5.2933   9.8488  11.8724  11.8724  12.0364  12.0903  12.0903
    12.0903  12.0925  12.0925  12.2656  12.2656  12.2656  12.3895  12.3899
    12.3899  12.4051  12.4054

     occupation numbers
     1.0000   1.0000   1.0000   1.0000   1.0000   1.0000   1.0000   1.0000
     1.0000   1.0000   1.0000   1.0000   1.0000   1.0000   1.0000   1.0000
     1.0000   1.0000   1.0000   1.0000   1.0000   1.0000   1.0000   1.0000
     1.0000   1.0000   1.0000   1.0000   1.0000   1.0000   0.0000   0.0000
     0.0000   0.0000   0.0000

[...]

          k = 0.3333 0.3333 0.3333 (  2299 PWs)   bands (ev):

   -26.0427 -25.9980 -25.9980  -7.1860  -6.8526  -6.8526  -6.8483  -6.3303
    -6.3303  -6.1994  -6.1172  -6.1172   1.3702   1.3702   1.3727   1.4158
     1.4158   6.1695  10.3712  11.5121  11.5121  11.7344  12.0843  12.0843
    12.0846  12.1504  12.1504  12.2385  12.3483  12.3590  12.3590  12.3952
    12.3980  12.4004  12.4434

     occupation numbers
     1.0000   1.0000   1.0000   1.0000   1.0000   1.0000   1.0000   1.0000
     1.0000   1.0000   1.0000   1.0000   1.0000   1.0000   1.0000   1.0000
     1.0000   1.0000   1.0000   1.0000   1.0000   1.0000   1.0000   1.0000
     1.0000   1.0000   1.0000   1.0000   0.3894   0.0809   0.0808   0.0000
     0.0000   0.0000   0.0000

     the Fermi energy is    12.3456 ev

!    total energy              =   -1852.27737334 Ry
     estimated scf accuracy    <       0.00000062 Ry
     smearing contrib. (-TS)   =      -0.00062928 Ry
     internal energy E=F+TS    =   -1852.27674406 Ry

     The total energy is F=E-TS. E is the sum of the following terms:
     one-electron contribution =    -123.98881009 Ry
     hartree contribution      =     112.51693573 Ry
     xc contribution           =    -109.68260675 Ry
     ewald contribution        =    -411.44307864 Ry
     one-center paw contrib.   =   -1319.67918431 Ry
      -> PAW hartree energy AE =     102.32089118 Ry
      -> PAW hartree energy PS =    -100.71641113 Ry
      -> PAW xc energy AE      =    -456.10180609 Ry
      -> PAW xc energy PS      =      14.60426374 Ry
      -> total E_H with PAW    =     114.12141578 Ry
      -> total E_XC with PAW   =    -551.18014910 Ry

     convergence has been achieved in  76 iterations

     Writing all to output data dir energy_m/myprefix.save/

     General routines

     Parallel routines

     PAW routines

   This run was terminated on:  16:51:56  16Jul2023

   JOB DONE.