     Program PWSCF v.7.0 starts on 20May2023 at 15:39:59

     Reading input from espresso_2536.pwi
Warning: card &CELL ignored
Warning: card / ignored

     Current dimensions of program PWSCF are:
     Max number of different atomic species (ntypx) = 10
     Max number of k-points (npk) =  40000
     Max angular momentum in pseudopotentials (lmaxx) =  4

     gamma-point specific algorithms are used
     Message from routine setup:
     using ibrav=0 with symmetry is DISCOURAGED, use correct ibrav instead

     Subspace diagonalization in iterative solution of the eigenvalue problem:
     a serial algorithm will be used

     Using Slab Decomposition

     bravais-lattice index     =            0
     lattice parameter (alat)  =       9.1119  a.u.
     unit-cell volume          =    3601.2366 (a.u.)^3
     number of atoms/cell      =           20
     number of atomic types    =            3
     number of electrons       =       299.00
     number of Kohn-Sham states=          180
     kinetic-energy cutoff     =      30.0000  Ry
     charge density cutoff     =     240.0000  Ry
     scf convergence threshold =      1.0E-06
     mixing beta               =       0.7000
     number of iterations used =            8  plain     mixing
     Exchange-correlation= PBE
                           (   1   4   3   4   0   0   0)

     celldm(1)=   9.111898  celldm(2)=   0.000000  celldm(3)=   0.000000
     celldm(4)=   0.000000  celldm(5)=   0.000000  celldm(6)=   0.000000

     crystal axes: (cart. coord. in units of alat)
               a(1) = (   1.000000   0.000000   0.000000 )
               a(2) = (   0.000000   1.000000   0.000000 )
               a(3) = (   0.000000   0.000000   4.760198 )

     reciprocal axes: (cart. coord. in units 2 pi/alat)
               b(1) = (  1.000000  0.000000  0.000000 )
               b(2) = (  0.000000  1.000000  0.000000 )
               b(3) = (  0.000000  0.000000  0.210075 )

     PseudoPot. # 1 for Sr read from file:
     /home/pragov/projects/rrg-bengioy-ad/pragov/crystal_structure_design/SSSP/Sr_pbe_v1.uspp.F.UPF
     MD5 check sum: 6b418c05fbe9db5448babca5e47b7a5b
     Pseudo is Ultrasoft + core correction, Zval = 10.0
     Generated by new atomic code, or converted to UPF format
     Using radial grid of  883 points,  6 beta functions with:
                l(1) =   0
                l(2) =   0
                l(3) =   1
                l(4) =   1
                l(5) =   2
                l(6) =   2
     Q(r) pseudized with  6 coefficients,  rinner =    1.400   1.400   1.400
                                                       1.400   1.400

     PseudoPot. # 2 for Sn read from file:
     /home/pragov/projects/rrg-bengioy-ad/pragov/crystal_structure_design/SSSP/Sn_pbe_v1.uspp.F.UPF
     MD5 check sum: 4cf58ce39ec5d5d420df3dd08604eb00
     Pseudo is Ultrasoft + core correction, Zval = 14.0
     Generated by new atomic code, or converted to UPF format
     Using radial grid of  891 points,  6 beta functions with:
                l(1) =   0
                l(2) =   0
                l(3) =   1
                l(4) =   1
                l(5) =   2
                l(6) =   2
     Q(r) pseudized with  6 coefficients,  rinner =    1.200   1.200   1.200
                                                       1.200   1.200

     PseudoPot. # 3 for Au read from file:
     /home/pragov/projects/rrg-bengioy-ad/pragov/crystal_structure_design/SSSP/Au_ONCV_PBE-1.0.oncvpsp.upf
     MD5 check sum: d14007822ba0e19f0206237467fc06c2
     Pseudo is Norm-conserving, Zval = 19.0
     Generated using ONCVPSP code by D. R. Hamann
     Using radial grid of 1278 points,  8 beta functions with:
                l(1) =   0
                l(2) =   0
                l(3) =   1
                l(4) =   1
                l(5) =   2
                l(6) =   2
                l(7) =   3
                l(8) =   3

     atomic species   valence    mass     pseudopotential
        Sr            10.00    87.62000     Sr( 1.00)
        Sn            14.00   118.71000     Sn( 1.00)
        Au            19.00   196.96657     Au( 1.00)

      8 Sym. Ops. (no inversion) found

                                    s                        frac. trans.

      isym =  1     identity

 cryst.   s( 1) = (     1          0          0      )
                  (     0          1          0      )
                  (     0          0          1      )

 cart.    s( 1) = (  1.0000000  0.0000000  0.0000000 )
                  (  0.0000000  1.0000000  0.0000000 )
                  (  0.0000000  0.0000000  1.0000000 )

      isym =  2     180 deg rotation - cart. axis [0,0,1]

[...]

      isym =  4     180 deg rotation - cart. axis [1,-1,0]

[...]

      isym =  5     inv. 180 deg rotation - cart. axis [0,1,0]

[...]

      isym =  8     inv.  90 deg rotation - cart. axis [0,0,1]

 cryst.   s( 8) = (     0         -1          0      )
                  (     1          0          0      )
                  (     0          0         -1      )

 cart.    s( 8) = (  0.0000000  1.0000000  0.0000000 )
                  ( -1.0000000  0.0000000  0.0000000 )
                  (  0.0000000  0.0000000 -1.0000000 )

   Cartesian axes

     site n.     atom                  positions (alat units)
         1           Sr  tau(   1) = (   0.5000000   0.0000000   4.1426149  )
         2           Sr  tau(   2) = (   0.5000000   0.0000000   1.8219516  )
         3           Sr  tau(   3) = (   0.0000000   0.5000000   0.6175834  )
         4           Sr  tau(   4) = (   0.0000000   0.5000000   2.9382467  )
         5           Sn  tau(   5) = (   0.5000000   0.0000000   0.3396401  )
         6           Sn  tau(   6) = (   0.5000000   0.0000000   2.6790206  )
         7           Sn  tau(   7) = (   0.0000000   0.5000000   4.4205582  )
         8           Sn  tau(   8) = (   0.0000000   0.5000000   2.0811777  )
         9           Sn  tau(   9) = (   0.5000000   0.5000000   3.5499655  )
        10           Sn  tau(  10) = (   0.5000000   0.5000000   1.2102328  )
        11           Sn  tau(  11) = (   0.0000000   0.0000000   3.5481423  )
        12           Sn  tau(  12) = (   0.0000000   0.0000000   1.2120560  )
        13           Sn  tau(  13) = (   0.5000000   0.5000000   0.0000000  )
        14           Au  tau(  14) = (   0.5000000   0.0000000   0.8949268  )
        15           Au  tau(  15) = (   0.5000000   0.0000000   3.2415998  )
        16           Au  tau(  16) = (   0.0000000   0.5000000   3.8652715  )
        17           Au  tau(  17) = (   0.0000000   0.5000000   1.5185985  )
        18           Au  tau(  18) = (   0.5000000   0.5000000   2.3800991  )
        19           Au  tau(  19) = (   0.0000000   0.0000000   0.0000000  )
        20           Au  tau(  20) = (   0.0000000   0.0000000   2.3800991  )

   Crystallographic axes

     site n.     atom                  positions (cryst. coord.)
         1           Sr  tau(   1) = (  0.5000000  0.0000000  0.8702610  )
         2           Sr  tau(   2) = (  0.5000000  0.0000000  0.3827470  )
         3           Sr  tau(   3) = (  0.0000000  0.5000000  0.1297390  )
         4           Sr  tau(   4) = (  0.0000000  0.5000000  0.6172530  )
         5           Sn  tau(   5) = (  0.5000000  0.0000000  0.0713500  )
         6           Sn  tau(   6) = (  0.5000000  0.0000000  0.5627960  )
         7           Sn  tau(   7) = (  0.0000000  0.5000000  0.9286500  )
         8           Sn  tau(   8) = (  0.0000000  0.5000000  0.4372040  )
         9           Sn  tau(   9) = (  0.5000000  0.5000000  0.7457600  )
        10           Sn  tau(  10) = (  0.5000000  0.5000000  0.2542400  )
        11           Sn  tau(  11) = (  0.0000000  0.0000000  0.7453770  )
        12           Sn  tau(  12) = (  0.0000000  0.0000000  0.2546230  )
        13           Sn  tau(  13) = (  0.5000000  0.5000000  0.0000000  )
        14           Au  tau(  14) = (  0.5000000  0.0000000  0.1880020  )
        15           Au  tau(  15) = (  0.5000000  0.0000000  0.6809800  )
        16           Au  tau(  16) = (  0.0000000  0.5000000  0.8119980  )
        17           Au  tau(  17) = (  0.0000000  0.5000000  0.3190200  )
        18           Au  tau(  18) = (  0.5000000  0.5000000  0.5000000  )
        19           Au  tau(  19) = (  0.0000000  0.0000000  0.0000000  )
        20           Au  tau(  20) = (  0.0000000  0.0000000  0.5000000  )

     number of k points=     1  Methfessel-Paxton smearing, width (Ry)=  0.0010
                       cart. coord. in units 2pi/alat
        k(    1) = (   0.0000000   0.0000000   0.0000000), wk =   2.0000000

                       cryst. coord.
        k(    1) = (   0.0000000   0.0000000   0.0000000), wk =   2.0000000

     Check: negative core charge=   -0.000002

     Initial potential from superposition of free atoms

     starting charge     289.8643, renormalised to     299.0000

     negative rho (up, down):  2.641E-01 0.000E+00
     Starting wfcs are  203 randomized atomic wfcs

     Self-consistent Calculation

     iteration #  1     ecut=    30.00 Ry     beta= 0.70
     Davidson diagonalization with overlap

     ethr =  1.00E-02,  avg # of iterations =  7.0

     negative rho (up, down):  2.427E-01 0.000E+00

     total energy              =   -1992.19732322 Ry
     estimated scf accuracy    <    1895.12937124 Ry

[...]

     c_bands:  1 eigenvalues not converged
     ethr =  1.00E-02,  avg # of iterations = 40.0

[...]

     c_bands:  1 eigenvalues not converged
     ethr =  4.12E-06,  avg # of iterations = 20.0

[...]

     total energy              =   -3670.85527002 Ry
     estimated scf accuracy    <       0.00001301 Ry

     iteration # 47     ecut=    30.00 Ry     beta= 0.70
     Davidson diagonalization with overlap

     ethr =  4.85E-10,  avg # of iterations =  2.0

[...]

     End of self-consistent calculation

          k = 0.0000 0.0000 0.0000 (  4966 PWs)   bands (ev):

   -95.5287 -95.5285 -95.4754 -95.4752 -94.8827 -94.6204 -94.6169 -46.5792
   -46.5772 -46.5469 -46.5468 -46.5257 -46.5256 -46.5169 -46.5146 -46.4920
   -46.4918 -46.4832 -46.4830 -45.8791 -45.8791 -45.8306 -45.6601 -45.6574
   -45.6017 -45.6017 -45.5922 -45.5922 -24.1545 -24.1545 -24.1210 -24.1209
    -9.8059  -9.8040  -9.7679  -9.7678  -9.7633  -9.7632  -9.7408  -9.7407
    -9.7141  -9.7140  -9.7118  -9.7117  -9.6880  -9.6823  -9.6733  -9.6732
    -9.6690  -9.6676  -9.6675  -9.6664  -9.6664  -9.6642  -9.6641  -9.6625
    -9.6565  -9.6565  -9.5585  -9.5585  -9.5344  -9.5340  -9.5035  -9.5033
    -9.4854  -9.4852  -9.4620  -9.4620  -9.4113  -9.4089  -9.4026  -9.3934
    -8.3946  -8.3473  -8.3142  -8.3142  -8.2913  -6.2043  -6.2014  -6.1466
    -6.1466  -6.1426  -6.1365  -6.1298  -6.1297  -6.1269  -6.1267  -6.1185
    -6.1183   1.5587   1.6155   2.1520   2.5610   3.6282   3.8987   4.8939
     4.8944   5.6733   5.8502   5.9873   6.1190   6.1191   6.1243   6.1243
     6.1473   6.3273   6.3290   6.3591   6.7076   6.7077   6.7240   6.7381
     6.7382   6.8290   6.8302   6.9315   6.9430   7.0513   7.0513   7.0964
     7.2181   7.3662   7.3662   7.4172   7.6962   7.6986   7.8464   7.8464
     7.9810   8.3317   8.3854   8.5480   9.0248   9.4073   9.4086   9.6099
     9.7187   9.7187   9.9886   9.9886  10.1113  10.1113  10.4436  10.5710
    10.7604  10.7604  11.6099  12.4275  12.7065  12.7099  12.7099  12.7952
    12.8154  12.9498  13.0682  13.3716  13.4501  13.5113  13.5113  13.7074
    13.7074  14.2770  14.2770  14.3750  14.4544  14.4698  14.7962  14.9417
    14.9417  15.0352  15.2697  15.2697  15.5215  15.6002  15.6007  15.6154
    15.6985  15.8124  15.8124  15.8414

     occupation numbers
     1.0000   1.0000   1.0000   1.0000   1.0000   1.0000   1.0000   1.0000
     1.0000   1.0000   1.0000   1.0000   1.0000   1.0000   1.0000   1.0000
     1.0000   1.0000   1.0000   1.0000   1.0000   1.0000   1.0000   1.0000
     1.0000   1.0000   1.0000   1.0000   1.0000   1.0000   1.0000   1.0000
     1.0000   1.0000   1.0000   1.0000   1.0000   1.0000   1.0000   1.0000
     1.0000   1.0000   1.0000   1.0000   1.0000   1.0000   1.0000   1.0000
     1.0000   1.0000   1.0000   1.0000   1.0000   1.0000   1.0000   1.0000
     1.0000   1.0000   1.0000   1.0000   1.0000   1.0000   1.0000   1.0000
     1.0000   1.0000   1.0000   1.0000   1.0000   1.0000   1.0000   1.0000
     1.0000   1.0000   1.0000   1.0000   1.0000   1.0000   1.0000   1.0000
     1.0000   1.0000   1.0000   1.0000   1.0000   1.0000   1.0000   1.0000
     1.0000   1.0000   1.0000   1.0000   1.0000   1.0000   1.0000   1.0000
     1.0000   1.0000   1.0000   1.0000   1.0000   1.0000   1.0000   1.0000
     1.0000   1.0000   1.0000   1.0000   1.0000   1.0000   1.0000   1.0000
     1.0000   1.0000   1.0000   1.0000   1.0000   1.0000   1.0000   1.0000
     1.0000   1.0000   1.0000   1.0000   1.0000   1.0000   1.0000   1.0000
     1.0000   1.0000   1.0000   1.0000   1.0000   1.0000   1.0000   1.0000
     1.0000   1.0000   1.0000   1.0000   1.0000   1.0000   1.0000   1.0000
     1.0000   1.0000   1.0000   1.0000   0.6386   0.4310   0.4304  -0.0000
    -0.0000  -0.0000  -0.0000  -0.0000  -0.0000  -0.0000  -0.0000  -0.0000
    -0.0000  -0.0000  -0.0000  -0.0000  -0.0000  -0.0000  -0.0000  -0.0000
    -0.0000  -0.0000  -0.0000  -0.0000  -0.0000  -0.0000  -0.0000  -0.0000
    -0.0000  -0.0000  -0.0000  -0.0000

     the Fermi energy is    12.7087 ev

!    total energy              =   -3670.85527003 Ry
     estimated scf accuracy    <       0.00000014 Ry
     smearing contrib. (-TS)   =      -0.00081203 Ry
     internal energy E=F+TS    =   -3670.85445800 Ry

     The total energy is F=E-TS. E is the sum of the following terms:
     one-electron contribution =   -1842.10524025 Ry
     hartree contribution      =    1050.70658554 Ry
     xc contribution           =    -678.78347736 Ry
     ewald contribution        =   -2200.67232592 Ry

     convergence has been achieved in  47 iterations

     negative rho (up, down):  2.633E-01 0.000E+00

     Forces acting on atoms (cartesian axes, Ry/au):

     atom    1 type  1   force =     0.00000000    0.00000000    0.02033806
     atom    2 type  1   force =     0.00000000    0.00000000    0.02423079
     atom    3 type  1   force =     0.00000000    0.00000000   -0.02033806
     atom    4 type  1   force =     0.00000000    0.00000000   -0.02423079
     atom    5 type  2   force =     0.00000000    0.00000000   -0.02362645
     atom    6 type  2   force =     0.00000000    0.00000000   -0.07348820
     atom    7 type  2   force =     0.00000000    0.00000000    0.02362645
     atom    8 type  2   force =     0.00000000    0.00000000    0.07348820
     atom    9 type  2   force =     0.00000000    0.00000000    0.00529094
     atom   10 type  2   force =     0.00000000    0.00000000   -0.00529094
     atom   11 type  2   force =     0.00000000    0.00000000   -0.00167912
     atom   12 type  2   force =     0.00000000    0.00000000    0.00167912
     atom   13 type  2   force =     0.00000000    0.00000000    0.00000000
     atom   14 type  3   force =     0.00000000    0.00000000   -0.05694518
     atom   15 type  3   force =     0.00000000    0.00000000   -0.06296817
     atom   16 type  3   force =     0.00000000    0.00000000    0.05694518
     atom   17 type  3   force =     0.00000000    0.00000000    0.06296817
     atom   18 type  3   force =     0.00000000    0.00000000    0.00000000
     atom   19 type  3   force =     0.00000000    0.00000000    0.00000000
     atom   20 type  3   force =     0.00000000    0.00000000    0.00000000
     The non-local contrib.  to forces
     atom    1 type  1   force =     0.00000000    0.00000000    0.05218165
     atom    2 type  1   force =     0.00000000    0.00000000    0.03879143
     atom    3 type  1   force =     0.00000000    0.00000000   -0.05218165
     atom    4 type  1   force =     0.00000000    0.00000000   -0.03879143
     atom    5 type  2   force =     0.00000000    0.00000000   -0.17388338
     atom    6 type  2   force =     0.00000000    0.00000000   -0.15350576
     atom    7 type  2   force =     0.00000000    0.00000000    0.17388338
     atom    8 type  2   force =     0.00000000    0.00000000    0.15350576
     atom    9 type  2   force =     0.00000000    0.00000000    0.02882223
     atom   10 type  2   force =     0.00000000    0.00000000   -0.02882223
     atom   11 type  2   force =     0.00000000    0.00000000   -0.03407502
     atom   12 type  2   force =     0.00000000    0.00000000    0.03407502
     atom   13 type  2   force =     0.00000000    0.00000000    0.00000000
     atom   14 type  3   force =     0.00000000    0.00000000    0.11354327
     atom   15 type  3   force =     0.00000000    0.00000000    0.09992922
     atom   16 type  3   force =     0.00000000    0.00000000   -0.11354327
     atom   17 type  3   force =     0.00000000    0.00000000   -0.09992922
     atom   18 type  3   force =     0.00000000    0.00000000    0.00000000
     atom   19 type  3   force =     0.00000000    0.00000000    0.00000000
     atom   20 type  3   force =     0.00000000    0.00000000    0.00000000
     The ionic contribution  to forces
     atom    1 type  1   force =     0.00000000   -0.00000000    7.30533027
     atom    2 type  1   force =    -0.00000000   -0.00000000   -9.20618532
     atom    3 type  1   force =    -0.00000000    0.00000000   -7.30533027
     atom    4 type  1   force =    -0.00000000   -0.00000000    9.20618532
     atom    5 type  2   force =    -0.00000000   -0.00000000   -0.03991229
     atom    6 type  2   force =    -0.00000000   -0.00000000   16.41480687
     atom    7 type  2   force =    -0.00000000    0.00000000    0.03991229
     atom    8 type  2   force =    -0.00000000    0.00000000  -16.41480687
     atom    9 type  2   force =     0.00000000    0.00000000   10.54995795
     atom   10 type  2   force =    -0.00000000   -0.00000000  -10.54995795
     atom   11 type  2   force =     0.00000000   -0.00000000   10.51543184
     atom   12 type  2   force =     0.00000000    0.00000000  -10.51543184
     atom   13 type  2   force =    -0.00000000    0.00000000   -0.00000000
     atom   14 type  3   force =    -0.00000000    0.00000000  -23.81538757
     atom   15 type  3   force =     0.00000000    0.00000000    4.19948969
     atom   16 type  3   force =     0.00000000   -0.00000000   23.81538757
     atom   17 type  3   force =    -0.00000000   -0.00000000   -4.19948969
     atom   18 type  3   force =     0.00000000    0.00000000    0.00000000
     atom   19 type  3   force =    -0.00000000   -0.00000000   -0.00000000
     atom   20 type  3   force =    -0.00000000   -0.00000000    0.00000000
     The local contribution  to forces
     atom    1 type  1   force =    -0.00000018    0.00000092   -7.33371140
     atom    2 type  1   force =     0.00000022   -0.00000068    9.19459140
     atom    3 type  1   force =     0.00000032    0.00000028    7.33313905
     atom    4 type  1   force =    -0.00000049    0.00000080   -9.19401404
     atom    5 type  2   force =     0.00000093   -0.00000190    0.18443572
     atom    6 type  2   force =     0.00000055   -0.00000195  -16.33928712
     atom    7 type  2   force =     0.00000046    0.00000099   -0.18525376
     atom    8 type  2   force =    -0.00000003    0.00000179   16.34056497
     atom    9 type  2   force =     0.00000079    0.00000078  -10.57183658
     atom   10 type  2   force =    -0.00000021    0.00000047   10.57164459
     atom   11 type  2   force =    -0.00000125   -0.00000001  -10.48360425
     atom   12 type  2   force =     0.00000064   -0.00000025   10.48337170
     atom   13 type  2   force =     0.00000033    0.00000029   -0.00057700
     atom   14 type  3   force =    -0.00000094   -0.00000104   23.64410411
     atom   15 type  3   force =     0.00000167   -0.00000193   -4.36154244
     atom   16 type  3   force =    -0.00000068   -0.00000077  -23.64512667
     atom   17 type  3   force =    -0.00000003   -0.00000102    4.36190259
     atom   18 type  3   force =    -0.00000032    0.00000605    0.00133943
     atom   19 type  3   force =    -0.00000129   -0.00000329   -0.00060488
     atom   20 type  3   force =    -0.00000092   -0.00000342    0.00135038
     The core correction contribution to forces
     atom    1 type  1   force =    -0.00000000    0.00000004   -0.00379966
     atom    2 type  1   force =     0.00000003   -0.00000000   -0.00294162
     atom    3 type  1   force =     0.00000001   -0.00000001    0.00379955
     atom    4 type  1   force =    -0.00000000    0.00000001    0.00294269
     atom    5 type  2   force =     0.00000002   -0.00000005    0.00558643
     atom    6 type  2   force =     0.00000000   -0.00000004    0.00530386
     atom    7 type  2   force =     0.00000002    0.00000002   -0.00558396
     atom    8 type  2   force =     0.00000000    0.00000004   -0.00530354
     atom    9 type  2   force =    -0.00000001    0.00000002   -0.00121192
     atom   10 type  2   force =     0.00000000    0.00000001    0.00121151
     atom   11 type  2   force =    -0.00000002    0.00000001    0.00098593
     atom   12 type  2   force =     0.00000002    0.00000000   -0.00098671
     atom   13 type  2   force =    -0.00000000   -0.00000000   -0.00000197
     atom   14 type  3   force =     0.00000000    0.00000000    0.00000000
     atom   15 type  3   force =     0.00000000    0.00000000    0.00000000
     atom   16 type  3   force =     0.00000000    0.00000000    0.00000000
     atom   17 type  3   force =     0.00000000    0.00000000    0.00000000
     atom   18 type  3   force =     0.00000000    0.00000000    0.00000000
     atom   19 type  3   force =     0.00000000    0.00000000    0.00000000
     atom   20 type  3   force =     0.00000000    0.00000000    0.00000000
     The Hubbard contrib.    to forces
     atom    1 type  1   force =     0.00000000    0.00000000    0.00000000
     atom    2 type  1   force =     0.00000000    0.00000000    0.00000000
     atom    3 type  1   force =     0.00000000    0.00000000    0.00000000
     atom    4 type  1   force =     0.00000000    0.00000000    0.00000000
     atom    5 type  2   force =     0.00000000    0.00000000    0.00000000
     atom    6 type  2   force =     0.00000000    0.00000000    0.00000000
     atom    7 type  2   force =     0.00000000    0.00000000    0.00000000
     atom    8 type  2   force =     0.00000000    0.00000000    0.00000000
     atom    9 type  2   force =     0.00000000    0.00000000    0.00000000
     atom   10 type  2   force =     0.00000000    0.00000000    0.00000000
     atom   11 type  2   force =     0.00000000    0.00000000    0.00000000
     atom   12 type  2   force =     0.00000000    0.00000000    0.00000000
     atom   13 type  2   force =     0.00000000    0.00000000    0.00000000
     atom   14 type  3   force =     0.00000000    0.00000000    0.00000000
     atom   15 type  3   force =     0.00000000    0.00000000    0.00000000
     atom   16 type  3   force =     0.00000000    0.00000000    0.00000000
     atom   17 type  3   force =     0.00000000    0.00000000    0.00000000
     atom   18 type  3   force =     0.00000000    0.00000000    0.00000000
     atom   19 type  3   force =     0.00000000    0.00000000    0.00000000
     atom   20 type  3   force =     0.00000000    0.00000000    0.00000000
     The SCF correction term to forces
     atom    1 type  1   force =     0.00000021   -0.00000029    0.00033207
     atom    2 type  1   force =     0.00000007    0.00000074   -0.00001399
     atom    3 type  1   force =    -0.00000014   -0.00000040    0.00023013
     atom    4 type  1   force =     0.00000039   -0.00000062   -0.00054222
     atom    5 type  2   force =    -0.00000047    0.00000121    0.00011679
     atom    6 type  2   force =    -0.00000065    0.00000243   -0.00076484
     atom    7 type  2   force =    -0.00000053   -0.00000047    0.00063823
     atom    8 type  2   force =     0.00000010   -0.00000203   -0.00043090
     atom    9 type  2   force =    -0.00000072   -0.00000060   -0.00044747
     atom   10 type  2   force =     0.00000018   -0.00000025    0.00062642
     atom   11 type  2   force =     0.00000108    0.00000018   -0.00042422
     atom   12 type  2   force =    -0.00000054    0.00000029    0.00064435
     atom   13 type  2   force =    -0.00000028   -0.00000044    0.00054641
     atom   14 type  3   force =     0.00000106    0.00000049    0.00077208
     atom   15 type  3   force =    -0.00000216    0.00000294   -0.00081187
     atom   16 type  3   force =     0.00000063    0.00000070    0.00020464
     atom   17 type  3   force =    -0.00000062    0.00000075    0.00051725
     atom   18 type  3   force =    -0.00000019   -0.00000561   -0.00135677
     atom   19 type  3   force =     0.00000077    0.00000316    0.00063698
     atom   20 type  3   force =     0.00000127    0.00000342   -0.00136083

     Total force =     0.168511     Total SCF correction =     0.002966

     Computing stress (Cartesian axis) and pressure

     negative rho (up, down):  2.633E-01 0.000E+00
          total   stress  (Ry/bohr**3)                   (kbar)     P=     -176.36
  -0.00103973  -0.00000000   0.00000000         -152.95       -0.00        0.00
  -0.00000000  -0.00103973   0.00000000           -0.00     -152.95        0.00
   0.00000000   0.00000000  -0.00151718            0.00        0.00     -223.18

     kinetic stress (kbar)  23367.61      0.00      0.00
                                0.00  23367.61      0.00
                                0.00      0.00  23217.67

     local   stress (kbar) -13774.77      0.05      0.00
                                0.05 -13774.72     -0.00
                                0.00     -0.00   1457.16

     nonloc. stress (kbar)   6946.70      0.00      0.00
                                0.00   6946.70      0.00
                                0.00      0.00   6884.31

     hartree stress (kbar)  16799.77     -0.03     -0.00
                               -0.03  16799.74      0.00
                               -0.00      0.00   9320.27

     exc-cor stress (kbar)   6153.38     -0.00     -0.00
                               -0.00   6153.38      0.00
                               -0.00      0.00   6152.98

     corecor stress (kbar) -12218.42      0.00      0.00
                                0.00 -12218.42      0.00
                                0.00      0.00 -12215.90

     ewald   stress (kbar) -27427.23      0.00     -0.00
                                0.00 -27427.23      0.00
                               -0.00      0.00 -35039.68

     hubbard stress (kbar)      0.00      0.00      0.00
                                0.00      0.00      0.00
                                0.00      0.00      0.00

     DFT-D   stress (kbar)      0.00      0.00      0.00
                                0.00      0.00      0.00
                                0.00      0.00      0.00

     XDM     stress (kbar)      0.00      0.00      0.00
                                0.00      0.00      0.00
                                0.00      0.00      0.00

     dft-nl  stress (kbar)      0.00      0.00      0.00
                                0.00      0.00      0.00
                                0.00      0.00      0.00

     TS-vdW  stress (kbar)      0.00      0.00      0.00
                                0.00      0.00      0.00
                                0.00      0.00      0.00

[...]

                                0.00      0.00      0.00

     Writing all to output data dir new_calculations/myprefix.save/

     General routines

     Parallel routines

   This run was terminated on:  15:44:37  20May2023

   JOB DONE.