     Program PWSCF v.7.0 starts on 20May2023 at 18: 1:30

     Reading input from espresso_20136.pwi
Warning: card &CELL ignored
Warning: card / ignored

     Current dimensions of program PWSCF are:
     Max number of different atomic species (ntypx) = 10
     Max number of k-points (npk) =  40000
     Max angular momentum in pseudopotentials (lmaxx) =  4

     gamma-point specific algorithms are used
     Message from routine setup:
     using ibrav=0 with symmetry is DISCOURAGED, use correct ibrav instead

     Subspace diagonalization in iterative solution of the eigenvalue problem:
     a serial algorithm will be used

     Using Slab Decomposition

     bravais-lattice index     =            0
     lattice parameter (alat)  =       8.0798  a.u.
     unit-cell volume          =     372.9851 (a.u.)^3
     number of atoms/cell      =            4
     number of atomic types    =            3
     number of electrons       =        57.00
     number of Kohn-Sham states=           35
     kinetic-energy cutoff     =      30.0000  Ry
     charge density cutoff     =     240.0000  Ry
     scf convergence threshold =      1.0E-06
     mixing beta               =       0.7000
     number of iterations used =            8  plain     mixing
     Exchange-correlation= SLA  PW   PBE  PBE
                           (   1   4   3   4   0   0   0)

     celldm(1)=   8.079829  celldm(2)=   0.000000  celldm(3)=   0.000000
     celldm(4)=   0.000000  celldm(5)=   0.000000  celldm(6)=   0.000000

     crystal axes: (cart. coord. in units of alat)
               a(1) = (   1.000000   0.000000   0.000000 )
               a(2) = (   0.500000   0.866025   0.000000 )
               a(3) = (   0.500000   0.288675   0.816497 )

     reciprocal axes: (cart. coord. in units 2 pi/alat)
               b(1) = (  1.000000 -0.577350 -0.408248 )
               b(2) = (  0.000000  1.154701 -0.408248 )
               b(3) = (  0.000000  0.000000  1.224745 )

     PseudoPot. # 1 for V  read from file:
     /home/pragov/projects/rrg-bengioy-ad/pragov/crystal_structure_design/SSSP/v_pbe_v1.4.uspp.F.UPF
     MD5 check sum: 22b79981416ebb76fdaf5b1b8640f6fb
     Pseudo is Ultrasoft + core correction, Zval = 13.0
     Generated by new atomic code, or converted to UPF format
     Using radial grid of  853 points,  6 beta functions with:
                l(1) =   0
                l(2) =   0
                l(3) =   1
                l(4) =   1
                l(5) =   2
                l(6) =   2
     Q(r) pseudized with  8 coefficients,  rinner =    1.100   1.100   1.100
                                                       1.100   1.100

     PseudoPot. # 2 for Tc read from file:
     /home/pragov/projects/rrg-bengioy-ad/pragov/crystal_structure_design/SSSP/Tc_ONCV_PBE-1.0.oncvpsp.upf
     MD5 check sum: 1c2b1e6c8b361b656073c0c20ed4f60a
     Pseudo is Norm-conserving, Zval = 15.0
     Generated using ONCVPSP code by D. R. Hamann
     Using radial grid of 1492 points,  6 beta functions with:
                l(1) =   0
                l(2) =   0
                l(3) =   1
                l(4) =   1
                l(5) =   2
                l(6) =   2

     PseudoPot. # 3 for Os read from file:
     /home/pragov/projects/rrg-bengioy-ad/pragov/crystal_structure_design/SSSP/Os_pbe_v1.2.uspp.F.UPF
     MD5 check sum: a3fb40a04f0c37c25c34bbc47164c9a8
     Pseudo is Ultrasoft + core correction, Zval = 16.0
     Generated by new atomic code, or converted to UPF format
     Using radial grid of  983 points,  8 beta functions with:
                l(1) =   0
                l(2) =   0
                l(3) =   1
                l(4) =   1
                l(5) =   2
                l(6) =   2
                l(7) =   3
                l(8) =   3
     Q(r) pseudized with  8 coefficients,  rinner =    1.150   1.150   1.150
                                                       1.150   1.150   1.150
                                                       1.150

     atomic species   valence    mass     pseudopotential
        V             13.00    50.94150     V ( 1.00)
        Tc            15.00    97.90721     Tc( 1.00)
        Os            16.00   190.23000     Os( 1.00)

     12 Sym. Ops., with inversion, found

                                    s                        frac. trans.

      isym =  1     identity

 cryst.   s( 1) = (     1          0          0      )
                  (     0          1          0      )
                  (     0          0          1      )

 cart.    s( 1) = (  1.0000000  0.0000000  0.0000000 )
                  (  0.0000000  1.0000000  0.0000000 )
                  (  0.0000000  0.0000000  1.0000000 )

      isym =  2     180 deg rotation - cart. axis [1,0,0]

[...]

      isym =  3     120 deg rotation - cryst. axis [0,0,1]

[...]

      isym =  6     180 deg rotation - cryst. axis [1,1,0]

[...]

      isym =  7     inversion

[...]

      isym =  8     inv. 180 deg rotation - cart. axis [1,0,0]

[...]

      isym =  9     inv. 120 deg rotation - cryst. axis [0,0,1]

 cryst.   s( 9) = (     1         -1          0      )
                  (     1          0          0      )
                  (     1          0         -1      )

 cart.    s( 9) = (  0.5000000  0.8660254  0.0000000 )
                  ( -0.8660254  0.5000000  0.0000000 )
                  (  0.0000000  0.0000000 -1.0000000 )

[...]

 cryst.   s(10) = (     0          1          0      )
                  (    -1          1          0      )
                  (     0          1         -1      )

 cart.    s(10) = (  0.5000000 -0.8660254 -0.0000000 )
                  (  0.8660254  0.5000000  0.0000000 )
                  (  0.0000000  0.0000000 -1.0000000 )

[...]

      isym = 12     inv. 180 deg rotation - cryst. axis [1,1,0]

 cryst.   s(12) = (     1         -1          0      )
                  (     0         -1          0      )
                  (     0         -1          1      )

 cart.    s(12) = (  0.5000000 -0.8660254 -0.0000000 )
                  ( -0.8660254 -0.5000000 -0.0000000 )
                  (  0.0000000  0.0000000  1.0000000 )

   Cartesian axes

     site n.     atom                  positions (alat units)
         1           V   tau(   1) = (   0.5000000   0.2886751   0.2041241  )
         2           V   tau(   2) = (   1.5000000   0.8660254   0.6123724  )
         3           Tc  tau(   3) = (   1.0000000   0.5773503   0.4082483  )
         4           Os  tau(   4) = (   0.0000000   0.0000000   0.0000000  )

   Crystallographic axes

     site n.     atom                  positions (cryst. coord.)
         1           V   tau(   1) = (  0.2500000  0.2500000  0.2500000  )
         2           V   tau(   2) = (  0.7500000  0.7500000  0.7500000  )
         3           Tc  tau(   3) = (  0.5000000  0.5000000  0.5000000  )
         4           Os  tau(   4) = (  0.0000000  0.0000000  0.0000000  )

     number of k points=     1  Methfessel-Paxton smearing, width (Ry)=  0.0010
                       cart. coord. in units 2pi/alat
        k(    1) = (   0.0000000   0.0000000   0.0000000), wk =   2.0000000

                       cryst. coord.
        k(    1) = (   0.0000000   0.0000000   0.0000000), wk =   2.0000000

     Check: negative core charge=   -0.000005

     Initial potential from superposition of free atoms

     starting charge      56.4968, renormalised to      57.0000

     negative rho (up, down):  1.277E-01 0.000E+00
     Starting wfcs are   43 randomized atomic wfcs

     Self-consistent Calculation

     iteration #  1     ecut=    30.00 Ry     beta= 0.70
     Davidson diagonalization with overlap

     ethr =  1.00E-02,  avg # of iterations =  2.0

     Threshold (ethr) on eigenvalues was too large:
     Diagonalizing with lowered threshold

     Davidson diagonalization with overlap

[...]

     negative rho (up, down):  1.241E-01 0.000E+00

     total energy              =    -650.12870885 Ry
     estimated scf accuracy    <       0.33941688 Ry

[...]

     total energy              =    -650.27588712 Ry
     estimated scf accuracy    <       0.00001727 Ry

     iteration # 28     ecut=    30.00 Ry     beta= 0.70
     Davidson diagonalization with overlap

     ethr =  2.83E-08,  avg # of iterations =  1.0

[...]

     End of self-consistent calculation

          k = 0.0000 0.0000 0.0000 (   519 PWs)   bands (ev):

   -64.9363 -45.6509 -42.4567 -42.4208 -24.3641 -24.3641 -24.3640 -17.8022
   -17.8022 -17.8022 -16.4264 -16.4264 -16.4263 -16.2192 -16.2192 -16.2192
    12.6903  15.7697  15.7698  17.2603  17.2603  17.2603  19.6083  19.6083
    19.6083  19.9376  19.9376  19.9376  22.6992  22.6992  22.8855  22.8855
    23.7469  23.7469  24.5920

     occupation numbers
     1.0000   1.0000   1.0000   1.0000   1.0000   1.0000   1.0000   1.0000
     1.0000   1.0000   1.0000   1.0000   1.0000   1.0000   1.0000   1.0000
     1.0000   1.0000   1.0000   1.0000   1.0000   1.0000   1.0000   1.0000
     1.0000   1.0000   1.0000   1.0000   0.2516   0.2484  -0.0000  -0.0000
    -0.0000  -0.0000  -0.0000

     the Fermi energy is    22.6950 ev

!    total energy              =    -650.27588699 Ry
     estimated scf accuracy    <       0.00000068 Ry
     smearing contrib. (-TS)   =      -0.00041261 Ry
     internal energy E=F+TS    =    -650.27547439 Ry

     The total energy is F=E-TS. E is the sum of the following terms:
     one-electron contribution =    -140.10435632 Ry
     hartree contribution      =     104.32355487 Ry
     xc contribution           =     -94.73178023 Ry
     ewald contribution        =    -519.76289271 Ry

     convergence has been achieved in  28 iterations

     negative rho (up, down):  1.231E-01 0.000E+00

     Forces acting on atoms (cartesian axes, Ry/au):

     atom    1 type  1   force =     0.00000000    0.00000000   -0.00000183
     atom    2 type  1   force =     0.00000000    0.00000000    0.00000183
     atom    3 type  2   force =     0.00000000    0.00000000    0.00000000
     atom    4 type  3   force =     0.00000000    0.00000000    0.00000000
     The non-local contrib.  to forces
     atom    1 type  1   force =     0.00000000   -0.00000000    0.00000084
     atom    2 type  1   force =     0.00000000    0.00000000   -0.00000084
     atom    3 type  2   force =     0.00000000    0.00000000   -0.00000000
     atom    4 type  3   force =    -0.00000000    0.00000000    0.00000000
     The ionic contribution  to forces
     atom    1 type  1   force =     0.00000000    0.00000000    0.00000000
     atom    2 type  1   force =    -0.00000000    0.00000000   -0.00000000
     atom    3 type  2   force =     0.00000000   -0.00000000   -0.00000000
     atom    4 type  3   force =    -0.00000000   -0.00000000    0.00000000
     The local contribution  to forces
     atom    1 type  1   force =     0.00000391    0.00000832    0.00000008
     atom    2 type  1   force =    -0.00000291   -0.00000032    0.00000219
     atom    3 type  2   force =    -0.00000411    0.00000255    0.00000849
     atom    4 type  3   force =     0.00000424   -0.00001509   -0.00001251
     The core correction contribution to forces
     atom    1 type  1   force =     0.00000021    0.00000025   -0.00000004
     atom    2 type  1   force =    -0.00000008   -0.00000003    0.00000001
     atom    3 type  2   force =     0.00000000    0.00000000    0.00000000
     atom    4 type  3   force =     0.00000077   -0.00000098   -0.00000123
     The Hubbard contrib.    to forces
     atom    1 type  1   force =     0.00000000    0.00000000    0.00000000
     atom    2 type  1   force =     0.00000000    0.00000000    0.00000000
     atom    3 type  2   force =     0.00000000    0.00000000    0.00000000
     atom    4 type  3   force =     0.00000000    0.00000000    0.00000000
     The SCF correction term to forces
     atom    1 type  1   force =    -0.00000182   -0.00000887   -0.00000310
     atom    2 type  1   force =     0.00000142   -0.00000065    0.00000007
     atom    3 type  2   force =     0.00000180   -0.00000261   -0.00000617
     atom    4 type  3   force =    -0.00001258    0.00002905    0.00002809

     Total force =     0.000003     Total SCF correction =     0.000044
     SCF correction compared to forces is large: reduce conv_thr to get better values

     Computing stress (Cartesian axis) and pressure

     negative rho (up, down):  1.231E-01 0.000E+00
          total   stress  (Ry/bohr**3)                   (kbar)     P=     -213.48
  -0.00145123  -0.00000000   0.00000000         -213.48       -0.00        0.00
   0.00000000  -0.00145123  -0.00000000            0.00     -213.48       -0.00
   0.00000000  -0.00000000  -0.00145126            0.00       -0.00     -213.49

     kinetic stress (kbar)  49448.20     -0.00     -0.00
                                0.00  49448.20      0.00
                               -0.00      0.00  49448.20

     local   stress (kbar)  28034.56      2.90     -4.11
                                2.90  28033.34     -0.87
                               -4.11     -0.87  28033.95

     nonloc. stress (kbar) -12358.69      0.00      0.00
                                0.00 -12358.69     -0.00
                                0.00     -0.00 -12358.69

     hartree stress (kbar)  13714.87     -0.86      1.21
                               -0.86  13715.23      0.25
                                1.21      0.25  13715.05

     exc-cor stress (kbar)  -1288.56     -0.03      0.04
                               -0.03  -1288.54      0.01
                                0.04      0.01  -1288.55

     corecor stress (kbar)  -9432.04      0.07     -0.09
                                0.07  -9432.06     -0.02
                               -0.09     -0.02  -9432.05

     ewald   stress (kbar) -68331.39      0.00      0.00
                                0.00 -68331.39      0.00
                                0.00      0.00 -68331.39

     hubbard stress (kbar)      0.00      0.00      0.00
                                0.00      0.00      0.00
                                0.00      0.00      0.00

     DFT-D   stress (kbar)      0.00      0.00      0.00
                                0.00      0.00      0.00
                                0.00      0.00      0.00

     XDM     stress (kbar)      0.00      0.00      0.00
                                0.00      0.00      0.00
                                0.00      0.00      0.00

     dft-nl  stress (kbar)      0.00      0.00      0.00
                                0.00      0.00      0.00
                                0.00      0.00      0.00

     TS-vdW  stress (kbar)      0.00      0.00      0.00
                                0.00      0.00      0.00
                                0.00      0.00      0.00

[...]

                                0.00      0.00      0.00

     Writing all to output data dir new_calculations/myprefix.save/

     General routines

     Parallel routines

   This run was terminated on:  18: 1:44  20May2023

   JOB DONE.