     Program PWSCF v.7.0 starts on 20May2023 at 22: 4:59

     Reading input from espresso_25134.pwi
Warning: card &CELL ignored
Warning: card / ignored

     Current dimensions of program PWSCF are:
     Max number of different atomic species (ntypx) = 10
     Max number of k-points (npk) =  40000
     Max angular momentum in pseudopotentials (lmaxx) =  4
     file O.pbe-n-kjpaw_psl.0.1.UPF: wavefunction(s)  2P renormalized

     gamma-point specific algorithms are used
     Message from routine setup:
     using ibrav=0 with symmetry is DISCOURAGED, use correct ibrav instead

     Subspace diagonalization in iterative solution of the eigenvalue problem:
     a serial algorithm will be used

     Using Slab Decomposition

     bravais-lattice index     =            0
     lattice parameter (alat)  =      14.5702  a.u.
     unit-cell volume          =     808.3695 (a.u.)^3
     number of atoms/cell      =            5
     number of atomic types    =            3
     number of electrons       =        49.00
     number of Kohn-Sham states=           30
     kinetic-energy cutoff     =      30.0000  Ry
     charge density cutoff     =     240.0000  Ry
     scf convergence threshold =      1.0E-06
     mixing beta               =       0.7000
     number of iterations used =            8  plain     mixing
     Exchange-correlation= SLA  PW   PBX  PBC
                           (   1   4   3   4   0   0   0)

     celldm(1)=  14.570205  celldm(2)=   0.000000  celldm(3)=   0.000000
     celldm(4)=   0.000000  celldm(5)=   0.000000  celldm(6)=   0.000000

     crystal axes: (cart. coord. in units of alat)
               a(1) = (   1.000000   0.000000   0.000000 )
               a(2) = (   0.718023   0.696019   0.000000 )
               a(3) = (  -0.859012  -0.348010   0.375484 )

     reciprocal axes: (cart. coord. in units 2 pi/alat)
               b(1) = (  1.000000 -1.031614  1.331614 )
               b(2) = (  0.000000  1.436742  1.331614 )
               b(3) = (  0.000000  0.000000  2.663228 )

     PseudoPot. # 1 for La read from file:
     /home/pragov/projects/rrg-bengioy-ad/pragov/crystal_structure_design/SSSP/La.GGA-PBE-paw-v1.0.UPF
     MD5 check sum: 436541e95c1ad8901025bd0b0ed42ae2
     Pseudo is Projector augmented-wave + core cor, Zval = 11.0
     Generated using ATOMPAW code
     Shape of augmentation charge: BESSEL
     Using radial grid of 1101 points,  8 beta functions with:
                l(1) =   0
                l(2) =   0
                l(3) =   1
                l(4) =   1
                l(5) =   2
                l(6) =   2
                l(7) =   3
                l(8) =   3
     Q(r) pseudized with 0 coefficients

     PseudoPot. # 2 for Bi read from file:
     /home/pragov/projects/rrg-bengioy-ad/pragov/crystal_structure_design/SSSP/Bi_pbe_v1.uspp.F.UPF
     MD5 check sum: cceb9f28ec65b6d7ff33140f5b0b1758
     Pseudo is Ultrasoft + core correction, Zval = 15.0
     Generated by new atomic code, or converted to UPF format
     Using radial grid of  899 points,  6 beta functions with:
                l(1) =   0
                l(2) =   0
                l(3) =   1
                l(4) =   1
                l(5) =   2
                l(6) =   2
     Q(r) pseudized with  6 coefficients,  rinner =    1.000   1.000   1.000
                                                       1.000   1.000

     PseudoPot. # 3 for O  read from file:
     /home/pragov/projects/rrg-bengioy-ad/pragov/crystal_structure_design/SSSP/O.pbe-n-kjpaw_psl.0.1.UPF
     MD5 check sum: 0234752ac141de4415c5fc33072bef88
     Pseudo is Projector augmented-wave + core cor, Zval =  6.0
     Generated using "atomic" code by A. Dal Corso  v.5.0.99 svn rev. 10869
     Shape of augmentation charge: BESSEL
     Using radial grid of 1095 points,  4 beta functions with:
                l(1) =   0
                l(2) =   0
                l(3) =   1
                l(4) =   1
     Q(r) pseudized with 0 coefficients

     atomic species   valence    mass     pseudopotential
        La            11.00   138.90547     La( 1.00)
        Bi            15.00   208.98040     Bi( 1.00)
        O              6.00    15.99900     O ( 1.00)

      4 Sym. Ops., with inversion, found

                                    s                        frac. trans.

      isym =  1     identity

 cryst.   s( 1) = (     1          0          0      )
                  (     0          1          0      )
                  (     0          0          1      )

 cart.    s( 1) = (  1.0000000  0.0000000 -0.0000000 )
                  (  0.0000000  1.0000000 -0.0000000 )
                  (  0.0000000  0.0000000  1.0000000 )

      isym =  2     180 deg rotation - cart. axis [0,0,1]

[...]

      isym =  3     inversion

[...]

      isym =  4     inv. 180 deg rotation - cart. axis [0,0,1]

 cryst.   s( 4) = (     1          0          0      )
                  (     0          1          0      )
                  (    -1         -1         -1      )

 cart.    s( 4) = (  1.0000000  0.0000000 -0.0000000 )
                  (  0.0000000  1.0000000 -0.0000000 )
                  (  0.0000000  0.0000000 -1.0000000 )

   Cartesian axes

     site n.     atom                  positions (alat units)
         1           La  tau(   1) = (   1.1439577   0.4634493   0.0000000  )
         2           La  tau(   2) = (   0.5740654   0.2325699   0.0000000  )
         3           Bi  tau(   3) = (   0.0000000   0.0000000   0.0000000  )
         4           O   tau(   4) = (   0.5000000   0.0000000   0.1877421  )
         5           O   tau(   5) = (   0.3590116   0.3480096   0.1877421  )

   Crystallographic axes

     site n.     atom                  positions (cryst. coord.)
         1           La  tau(   1) = (  0.6658570  0.6658570  0.0000000  )
         2           La  tau(   2) = (  0.3341430  0.3341430  0.0000000  )
         3           Bi  tau(   3) = (  0.0000000  0.0000000  0.0000000  )
         4           O   tau(   4) = (  0.7500000  0.2500000  0.5000000  )
         5           O   tau(   5) = (  0.2500000  0.7500000  0.5000000  )

     number of k points=     1  Methfessel-Paxton smearing, width (Ry)=  0.0010
                       cart. coord. in units 2pi/alat
        k(    1) = (   0.0000000   0.0000000   0.0000000), wk =   2.0000000

                       cryst. coord.
        k(    1) = (   0.0000000   0.0000000   0.0000000), wk =   2.0000000

     Check: negative core charge=   -0.000006

     Initial potential from superposition of free atoms

     starting charge      47.9829, renormalised to      49.0000

     negative rho (up, down):  4.226E-02 0.000E+00
     Starting wfcs are   81 randomized atomic wfcs
     Checking if some PAW data can be deallocated...

     Self-consistent Calculation

     iteration #  1     ecut=    30.00 Ry     beta= 0.70
     Davidson diagonalization with overlap

     ethr =  1.00E-02,  avg # of iterations =  2.0

     negative rho (up, down):  4.479E-02 0.000E+00

     total energy              =   -1185.17749555 Ry
     estimated scf accuracy    <       0.49308487 Ry

[...]

     total energy              =   -1185.38413732 Ry
     estimated scf accuracy    <       0.00000182 Ry

     iteration # 30     ecut=    30.00 Ry     beta= 0.70
     Davidson diagonalization with overlap

     ethr =  2.37E-09,  avg # of iterations =  2.0

[...]

     End of self-consistent calculation

          k = 0.0000 0.0000 0.0000 (  1126 PWs)   bands (ev):

   -21.7347 -21.4990 -10.8797 -10.8126 -10.7899 -10.7854 -10.7841  -9.2397
    -8.1873  -5.6797  -5.6784  -5.1668  -5.1662  -5.1448  -4.1118   0.6279
     5.1164   5.4598   5.8776   5.8787   6.9949   7.0070   9.6230  11.4367
    11.4368  12.3165  12.7348  12.9155  13.0586  13.2963

     occupation numbers
     1.0000   1.0000   1.0000   1.0000   1.0000   1.0000   1.0000   1.0000
     1.0000   1.0000   1.0000   1.0000   1.0000   1.0000   1.0000   1.0000
     1.0000   1.0000   1.0000   1.0000   1.0000   1.0000   1.0000   0.7519
     0.7481  -0.0000  -0.0000  -0.0000  -0.0000  -0.0000

     the Fermi energy is    11.4410 ev

!    total energy              =   -1185.38413704 Ry
     estimated scf accuracy    <       0.00000066 Ry
     smearing contrib. (-TS)   =      -0.00041260 Ry
     internal energy E=F+TS    =   -1185.38372444 Ry

     The total energy is F=E-TS. E is the sum of the following terms:
     one-electron contribution =     -95.50234653 Ry
     hartree contribution      =      79.24212112 Ry
     xc contribution           =     -97.32526169 Ry
     ewald contribution        =    -256.53186476 Ry
     one-center paw contrib.   =    -815.26637257 Ry
      -> PAW hartree energy AE =     130.75371480 Ry
      -> PAW hartree energy PS =    -130.61682543 Ry
      -> PAW xc energy AE      =    -845.29007057 Ry
      -> PAW xc energy PS      =      29.88680862 Ry
      -> total E_H with PAW    =      79.37901050 Ry
      -> total E_XC with PAW   =    -912.72852364 Ry

     convergence has been achieved in  30 iterations

     negative rho (up, down):  4.614E-02 0.000E+00

     Forces acting on atoms (cartesian axes, Ry/au):

     atom    1 type  1   force =     0.00395470    0.00152059   -0.00000000
     atom    2 type  1   force =    -0.00395470   -0.00152059    0.00000000
     atom    3 type  2   force =     0.00000000    0.00000000    0.00000000
     atom    4 type  3   force =     0.00000000    0.00000000    0.00004651
     atom    5 type  3   force =     0.00000000    0.00000000   -0.00004651
     The non-local contrib.  to forces
     atom    1 type  1   force =     0.11003707    0.04406462   -0.00000000
     atom    2 type  1   force =    -0.11003707   -0.04406462    0.00000000
     atom    3 type  2   force =     0.00000000    0.00000000    0.00000000
     atom    4 type  3   force =     0.00000000    0.00000000    0.00038551
     atom    5 type  3   force =     0.00000000    0.00000000   -0.00038551
     The ionic contribution  to forces
     atom    1 type  1   force =    -9.75820101   -3.95332007    0.00000000
     atom    2 type  1   force =     9.75820101    3.95332007    0.00000000
     atom    3 type  2   force =     0.00000000    0.00000000    0.00000000
     atom    4 type  3   force =    -0.00000000   -0.00000000    0.00000000
     atom    5 type  3   force =     0.00000000   -0.00000000   -0.00000000
     The local contribution  to forces
     atom    1 type  1   force =     9.65276705    3.91100569    0.00016069
     atom    2 type  1   force =    -9.65224927   -3.91078374   -0.00025508
     atom    3 type  2   force =    -0.00052588   -0.00021674   -0.00002773
     atom    4 type  3   force =     0.00029885   -0.00005365   -0.00024865
     atom    5 type  3   force =     0.00029037    0.00027291    0.00032406
     The core correction contribution to forces
     atom    1 type  1   force =    -0.00011690   -0.00004750   -0.00000016
     atom    2 type  1   force =     0.00011704    0.00004756    0.00000009
     atom    3 type  2   force =    -0.00000408   -0.00000098    0.00000042
     atom    4 type  3   force =     0.00000259   -0.00000123   -0.00000726
     atom    5 type  3   force =     0.00000002    0.00000208    0.00000775
     The Hubbard contrib.    to forces
     atom    1 type  1   force =     0.00000000    0.00000000    0.00000000
     atom    2 type  1   force =     0.00000000    0.00000000    0.00000000
     atom    3 type  2   force =     0.00000000    0.00000000    0.00000000
     atom    4 type  3   force =     0.00000000    0.00000000    0.00000000
     atom    5 type  3   force =     0.00000000    0.00000000    0.00000000
     The SCF correction term to forces
     atom    1 type  1   force =    -0.00046958   -0.00017437   -0.00005521
     atom    2 type  1   force =     0.00007554   -0.00003208    0.00002175
     atom    3 type  2   force =     0.00047855    0.00020580    0.00007336
     atom    4 type  3   force =    -0.00026605   -0.00003740   -0.00005909
     atom    5 type  3   force =    -0.00024565   -0.00015140    0.00003117

     Total force =     0.005992     Total SCF correction =     0.000835
     SCF correction compared to forces is large: reduce conv_thr to get better values

     Computing stress (Cartesian axis) and pressure

     negative rho (up, down):  4.614E-02 0.000E+00
          total   stress  (Ry/bohr**3)                   (kbar)     P=      -94.51
  -0.00057722   0.00003718   0.00000000          -84.91        5.47        0.00
   0.00003718  -0.00065791   0.00000000            5.47      -96.78        0.00
   0.00000000   0.00000000  -0.00069220            0.00        0.00     -101.83

     kinetic stress (kbar)  10288.99    -18.94     -0.00
                              -18.94  10328.42     -0.00
                               -0.00     -0.00  10338.01

     local   stress (kbar)    152.53   3729.44     -0.12
                             3729.44  -7540.67      1.22
                               -0.12      1.22  -9049.91

     nonloc. stress (kbar)   9473.06      8.39     -0.00
                                8.39   9453.37     -0.00
                               -0.00     -0.00   9444.34

     hartree stress (kbar)   2437.16  -1568.94      0.16
                            -1568.94   5674.15     -0.53
                                0.16     -0.53   6308.97

     exc-cor stress (kbar)   5231.08     -1.37     -0.00
                               -1.37   5233.91     -0.00
                               -0.00     -0.00   5234.45

     corecor stress (kbar)  -8869.23      0.18      0.02
                                0.18  -8869.55     -0.01
                                0.02     -0.01  -8869.56

     ewald   stress (kbar) -18798.50  -2143.28     -0.00
                            -2143.28 -14376.42      0.00
                               -0.00      0.00 -13508.11

     hubbard stress (kbar)      0.00      0.00      0.00
                                0.00      0.00      0.00
                                0.00      0.00      0.00

     DFT-D   stress (kbar)      0.00      0.00      0.00
                                0.00      0.00      0.00
                                0.00      0.00      0.00

     XDM     stress (kbar)      0.00      0.00      0.00
                                0.00      0.00      0.00
                                0.00      0.00      0.00

     dft-nl  stress (kbar)      0.00      0.00      0.00
                                0.00      0.00      0.00
                                0.00      0.00      0.00

     TS-vdW  stress (kbar)      0.00      0.00      0.00
                                0.00      0.00      0.00
                                0.00      0.00      0.00

[...]

                                0.00      0.00      0.00

     Writing all to output data dir new_calculations/myprefix.save/

     General routines

     Parallel routines

     PAW routines

   This run was terminated on:  22: 5:45  20May2023

   JOB DONE.