     Program PWSCF v.7.0 starts on 20May2023 at 14:45:47

     Reading input from espresso_8553.pwi
Warning: card &CELL ignored
Warning: card / ignored

     Current dimensions of program PWSCF are:
     Max number of different atomic species (ntypx) = 10
     Max number of k-points (npk) =  40000
     Max angular momentum in pseudopotentials (lmaxx) =  4
     file Ga.pbe-dn-kjpaw_psl.1.0.0.UPF: wavefunction(s)  4S renormalized

     gamma-point specific algorithms are used
     Message from routine setup:
     using ibrav=0 with symmetry is DISCOURAGED, use correct ibrav instead

     Subspace diagonalization in iterative solution of the eigenvalue problem:
     a serial algorithm will be used

     Using Slab Decomposition

     bravais-lattice index     =            0
     lattice parameter (alat)  =       8.1261  a.u.
     unit-cell volume          =     766.9106 (a.u.)^3
     number of atoms/cell      =            4
     number of atomic types    =            3
     number of electrons       =        46.00
     number of Kohn-Sham states=           28
     kinetic-energy cutoff     =      30.0000  Ry
     charge density cutoff     =     240.0000  Ry
     scf convergence threshold =      1.0E-06
     mixing beta               =       0.7000
     number of iterations used =            8  plain     mixing
     Exchange-correlation= PBE
                           (   1   4   3   4   0   0   0)

     celldm(1)=   8.126089  celldm(2)=   0.000000  celldm(3)=   0.000000
     celldm(4)=   0.000000  celldm(5)=   0.000000  celldm(6)=   0.000000

     crystal axes: (cart. coord. in units of alat)
               a(1) = (   1.000000   0.000000   0.000000 )
               a(2) = (   0.000000   1.000000   0.000000 )
               a(3) = (   0.000000   0.000000   1.429223 )

     reciprocal axes: (cart. coord. in units 2 pi/alat)
               b(1) = (  1.000000  0.000000  0.000000 )
               b(2) = (  0.000000  1.000000  0.000000 )
               b(3) = (  0.000000  0.000000  0.699681 )

     PseudoPot. # 1 for Ga read from file:
     /home/pragov/projects/rrg-bengioy-ad/pragov/crystal_structure_design/SSSP/Ga.pbe-dn-kjpaw_psl.1.0.0.UPF
     MD5 check sum: a27b4342b1af7e5f338de752e9ed7044
     Pseudo is Projector augmented-wave + core cor, Zval = 13.0
     Generated using "atomic" code by A. Dal Corso  v.5.1
     Shape of augmentation charge: PSQ
     Using radial grid of 1205 points,  6 beta functions with:
                l(1) =   0
                l(2) =   0
                l(3) =   1
                l(4) =   1
                l(5) =   2
                l(6) =   2
     Q(r) pseudized with 0 coefficients

     PseudoPot. # 2 for Bi read from file:
     /home/pragov/projects/rrg-bengioy-ad/pragov/crystal_structure_design/SSSP/Bi_pbe_v1.uspp.F.UPF
     MD5 check sum: cceb9f28ec65b6d7ff33140f5b0b1758
     Pseudo is Ultrasoft + core correction, Zval = 15.0
     Generated by new atomic code, or converted to UPF format
     Using radial grid of  899 points,  6 beta functions with:
                l(1) =   0
                l(2) =   0
                l(3) =   1
                l(4) =   1
                l(5) =   2
                l(6) =   2
     Q(r) pseudized with  6 coefficients,  rinner =    1.000   1.000   1.000
                                                       1.000   1.000

     PseudoPot. # 3 for As read from file:
     /home/pragov/projects/rrg-bengioy-ad/pragov/crystal_structure_design/SSSP/As.pbe-n-rrkjus_psl.0.2.UPF
     MD5 check sum: 767315de957beeeb34f87d97bf945c8f
     Pseudo is Ultrasoft + core correction, Zval =  5.0
     Generated using "atomic" code by A. Dal Corso  v.5.0.99 svn rev. 10869
     Using radial grid of 1209 points,  4 beta functions with:
                l(1) =   0
                l(2) =   0
                l(3) =   1
                l(4) =   1
     Q(r) pseudized with 0 coefficients

     atomic species   valence    mass     pseudopotential
        Ga            13.00    69.72300     Ga( 1.00)
        Bi            15.00   208.98040     Bi( 1.00)
        As             5.00    74.92159     As( 1.00)

      8 Sym. Ops. (no inversion) found

                                    s                        frac. trans.

      isym =  1     identity

 cryst.   s( 1) = (     1          0          0      )
                  (     0          1          0      )
                  (     0          0          1      )

 cart.    s( 1) = (  1.0000000  0.0000000  0.0000000 )
                  (  0.0000000  1.0000000  0.0000000 )
                  (  0.0000000  0.0000000  1.0000000 )

      isym =  2     180 deg rotation - cart. axis [0,0,1]

[...]

      isym =  4     180 deg rotation - cart. axis [1,-1,0]

[...]

      isym =  5     inv. 180 deg rotation - cart. axis [0,1,0]

[...]

      isym =  8     inv.  90 deg rotation - cart. axis [0,0,1]

 cryst.   s( 8) = (     0         -1          0      )
                  (     1          0          0      )
                  (     0          0         -1      )

 cart.    s( 8) = (  0.0000000  1.0000000  0.0000000 )
                  ( -1.0000000  0.0000000  0.0000000 )
                  (  0.0000000  0.0000000 -1.0000000 )

   Cartesian axes

     site n.     atom                  positions (alat units)
         1           Ga  tau(   1) = (   0.5000000   0.0000000   1.0372387  )
         2           Ga  tau(   2) = (   0.0000000   0.5000000   0.3919845  )
         3           Bi  tau(   3) = (   0.0000000   0.0000000   0.0000000  )
         4           As  tau(   4) = (   0.5000000   0.5000000   0.7146116  )

   Crystallographic axes

     site n.     atom                  positions (cryst. coord.)
         1           Ga  tau(   1) = (  0.5000000  0.0000000  0.7257360  )
         2           Ga  tau(   2) = (  0.0000000  0.5000000  0.2742640  )
         3           Bi  tau(   3) = (  0.0000000  0.0000000  0.0000000  )
         4           As  tau(   4) = (  0.5000000  0.5000000  0.5000000  )

     number of k points=     1  Methfessel-Paxton smearing, width (Ry)=  0.0010
                       cart. coord. in units 2pi/alat
        k(    1) = (   0.0000000   0.0000000   0.0000000), wk =   2.0000000

                       cryst. coord.
        k(    1) = (   0.0000000   0.0000000   0.0000000), wk =   2.0000000

     Check: negative core charge=   -0.000003

     Initial potential from superposition of free atoms

     starting charge      44.9938, renormalised to      46.0000

     negative rho (up, down):  4.430E-02 0.000E+00
     Starting wfcs are   31 randomized atomic wfcs
     Checking if some PAW data can be deallocated...

     Self-consistent Calculation

     iteration #  1     ecut=    30.00 Ry     beta= 0.70
     Davidson diagonalization with overlap

     ethr =  1.00E-02,  avg # of iterations =  4.0

     negative rho (up, down):  4.525E-02 0.000E+00

     total energy              =    -758.20190749 Ry
     estimated scf accuracy    <       0.48543087 Ry

[...]

     total energy              =    -758.39690600 Ry
     estimated scf accuracy    <       0.00000429 Ry

     iteration # 17     ecut=    30.00 Ry     beta= 0.70
     Davidson diagonalization with overlap

     ethr =  9.33E-09,  avg # of iterations =  1.0

[...]

     End of self-consistent calculation

          k = 0.0000 0.0000 0.0000 (  1071 PWs)   bands (ev):

   -15.0503 -14.9690 -14.9426 -14.9425 -14.9152  -7.5344  -7.5343  -7.5341
    -7.5241  -7.5100  -7.4958  -7.4956  -7.4463  -7.4088  -7.4030  -4.9496
    -2.8653   0.5981   4.7703   4.7704   6.1210   7.4663   7.4772   7.4773
     8.5095   8.5393  10.2912  10.2917

     occupation numbers
     1.0000   1.0000   1.0000   1.0000   1.0000   1.0000   1.0000   1.0000
     1.0000   1.0000   1.0000   1.0000   1.0000   1.0000   1.0000   1.0000
     1.0000   1.0000   1.0000   1.0000   1.0000   0.9925   0.5053   0.5022
    -0.0000  -0.0000  -0.0000  -0.0000

     the Fermi energy is     7.4773 ev

!    total energy              =    -758.39690589 Ry
     estimated scf accuracy    <       0.00000056 Ry
     smearing contrib. (-TS)   =      -0.00051863 Ry
     internal energy E=F+TS    =    -758.39638726 Ry

     The total energy is F=E-TS. E is the sum of the following terms:
     one-electron contribution =    -317.20831246 Ry
     hartree contribution      =     195.16214171 Ry
     xc contribution           =    -150.30797741 Ry
     ewald contribution        =    -264.17030613 Ry
     one-center paw contrib.   =    -221.87193297 Ry
      -> PAW hartree energy AE =     283.27490633 Ry
      -> PAW hartree energy PS =    -278.83598878 Ry
      -> PAW xc energy AE      =    -301.72085985 Ry
      -> PAW xc energy PS      =      75.41000933 Ry
      -> total E_H with PAW    =     199.60105927 Ry
      -> total E_XC with PAW   =    -376.61882793 Ry

     convergence has been achieved in  17 iterations

     negative rho (up, down):  4.689E-02 0.000E+00

     Forces acting on atoms (cartesian axes, Ry/au):

     atom    1 type  1   force =     0.00000000    0.00000000   -0.04926629
     atom    2 type  1   force =     0.00000000    0.00000000    0.04926629
     atom    3 type  2   force =     0.00000000    0.00000000    0.00000000
     atom    4 type  3   force =     0.00000000    0.00000000    0.00000000
     The non-local contrib.  to forces
     atom    1 type  1   force =     0.00000000    0.00000000    0.15933512
     atom    2 type  1   force =     0.00000000    0.00000000   -0.15933512
     atom    3 type  2   force =     0.00000000    0.00000000    0.00000000
     atom    4 type  3   force =     0.00000000    0.00000000    0.00000000
     The ionic contribution  to forces
     atom    1 type  1   force =    -0.00000000    0.00000000   -6.34198793
     atom    2 type  1   force =    -0.00000000   -0.00000000    6.34198793
     atom    3 type  2   force =     0.00000000   -0.00000000   -0.00000000
     atom    4 type  3   force =     0.00000000    0.00000000   -0.00000000
     The local contribution  to forces
     atom    1 type  1   force =    -0.00144304   -0.00025162    6.13221874
     atom    2 type  1   force =    -0.00182773   -0.00009910   -6.13345150
     atom    3 type  2   force =     0.00072789    0.00009118    0.00098361
     atom    4 type  3   force =     0.00042643    0.00008380   -0.00020786
     The core correction contribution to forces
     atom    1 type  1   force =    -0.00001042   -0.00000333    0.00059071
     atom    2 type  1   force =    -0.00001582   -0.00000051   -0.00059703
     atom    3 type  2   force =     0.00003375    0.00000316    0.00001636
     atom    4 type  3   force =     0.00002572    0.00000639   -0.00001137
     The Hubbard contrib.    to forces
     atom    1 type  1   force =     0.00000000    0.00000000    0.00000000
     atom    2 type  1   force =     0.00000000    0.00000000    0.00000000
     atom    3 type  2   force =     0.00000000    0.00000000    0.00000000
     atom    4 type  3   force =     0.00000000    0.00000000    0.00000000
     The SCF correction term to forces
     atom    1 type  1   force =     0.00136508    0.00022525    0.00061193
     atom    2 type  1   force =     0.00166647    0.00004887    0.00069686
     atom    3 type  2   force =    -0.00047696   -0.00006890   -0.00091456
     atom    4 type  3   force =    -0.00015673   -0.00003108    0.00019027

     Total force =     0.069673     Total SCF correction =     0.002585

     Computing stress (Cartesian axis) and pressure

     negative rho (up, down):  4.689E-02 0.000E+00
          total   stress  (Ry/bohr**3)                   (kbar)     P=      307.12
   0.00211017   0.00000000   0.00000000          310.42        0.00        0.00
   0.00000000   0.00211017   0.00000000            0.00      310.42        0.00
   0.00000000   0.00000000   0.00204298            0.00        0.00      300.53

     kinetic stress (kbar)   6389.68      0.00      0.00
                                0.00   6389.68      0.00
                                0.00      0.00   6318.60

     local   stress (kbar)  -2854.00     -0.96      1.58
                               -0.96  -2855.41     -0.18
                                1.58     -0.18  -3290.43

     nonloc. stress (kbar)   6551.18      0.00      0.00
                                0.00   6551.18      0.00
                                0.00      0.00   6582.91

     hartree stress (kbar)  12449.91      0.20     -0.84
                                0.20  12450.66      0.10
                               -0.84      0.10  12534.49

     exc-cor stress (kbar)  10700.71      0.02     -0.01
                                0.02  10700.72      0.00
                               -0.01      0.00  10699.95

     corecor stress (kbar) -15908.58     -0.04      0.03
                               -0.04 -15908.61     -0.00
                                0.03     -0.00 -15909.40

     ewald   stress (kbar) -17018.14     -0.00     -0.00
                               -0.00 -17018.14     -0.00
                               -0.00     -0.00 -16635.58

     hubbard stress (kbar)      0.00      0.00      0.00
                                0.00      0.00      0.00
                                0.00      0.00      0.00

     DFT-D   stress (kbar)      0.00      0.00      0.00
                                0.00      0.00      0.00
                                0.00      0.00      0.00

     XDM     stress (kbar)      0.00      0.00      0.00
                                0.00      0.00      0.00
                                0.00      0.00      0.00

     dft-nl  stress (kbar)      0.00      0.00      0.00
                                0.00      0.00      0.00
                                0.00      0.00      0.00

     TS-vdW  stress (kbar)      0.00      0.00      0.00
                                0.00      0.00      0.00
                                0.00      0.00      0.00

[...]

                                0.00      0.00      0.00

     Writing all to output data dir new_calculations/myprefix.save/

     General routines

     Parallel routines

     PAW routines

   This run was terminated on:  14:45:59  20May2023

   JOB DONE.