     Program PWSCF v.7.0 starts on 20May2023 at 17: 3:55

     Reading input from espresso_662.pwi
Warning: card &CELL ignored
Warning: card / ignored

     Current dimensions of program PWSCF are:
     Max number of different atomic species (ntypx) = 10
     Max number of k-points (npk) =  40000
     Max angular momentum in pseudopotentials (lmaxx) =  4
     file O.pbe-n-kjpaw_psl.0.1.UPF: wavefunction(s)  2P renormalized

     gamma-point specific algorithms are used
     Message from routine setup:
     using ibrav=0 with symmetry is DISCOURAGED, use correct ibrav instead

     Subspace diagonalization in iterative solution of the eigenvalue problem:
     a serial algorithm will be used

     Using Slab Decomposition

     bravais-lattice index     =            0
     lattice parameter (alat)  =      12.3973  a.u.
     unit-cell volume          =    1347.3210 (a.u.)^3
     number of atoms/cell      =           15
     number of atomic types    =            3
     number of electrons       =       172.00
     number of Kohn-Sham states=          103
     kinetic-energy cutoff     =      30.0000  Ry
     charge density cutoff     =     240.0000  Ry
     scf convergence threshold =      1.0E-06
     mixing beta               =       0.7000
     number of iterations used =            8  plain     mixing
     Exchange-correlation= SLA  PW   PBX  PBC
                           (   1   4   3   4   0   0   0)

     celldm(1)=  12.397345  celldm(2)=   0.000000  celldm(3)=   0.000000
     celldm(4)=   0.000000  celldm(5)=   0.000000  celldm(6)=   0.000000

     crystal axes: (cart. coord. in units of alat)
               a(1) = (   1.000000   0.000000   0.000000 )
               a(2) = (   0.500000   0.866025   0.000000 )
               a(3) = (   0.500000   0.288675   0.816497 )

     reciprocal axes: (cart. coord. in units 2 pi/alat)
               b(1) = (  1.000000 -0.577350 -0.408248 )
               b(2) = (  0.000000  1.154701 -0.408248 )
               b(3) = (  0.000000  0.000000  1.224745 )

     PseudoPot. # 1 for Ca read from file:
     /home/pragov/projects/rrg-bengioy-ad/pragov/crystal_structure_design/SSSP/Ca_pbe_v1.uspp.F.UPF
     MD5 check sum: 403a4c14b9e4d4dfdc3024c9a3812218
     Pseudo is Ultrasoft + core correction, Zval = 10.0
     Generated by new atomic code, or converted to UPF format
     Using radial grid of  845 points,  6 beta functions with:
                l(1) =   0
                l(2) =   0
                l(3) =   1
                l(4) =   1
                l(5) =   2
                l(6) =   2
     Q(r) pseudized with  8 coefficients,  rinner =    1.500   1.500   1.500
                                                       1.500   1.500

     PseudoPot. # 2 for Cu read from file:
     /home/pragov/projects/rrg-bengioy-ad/pragov/crystal_structure_design/SSSP/Cu_pbe_v1.2.uspp.F.UPF
     MD5 check sum: 6e991ff952a84172a2a52a1c1e996048
     Pseudo is Ultrasoft + core correction, Zval = 19.0
     Generated by new atomic code, or converted to UPF format
     Using radial grid of  867 points,  6 beta functions with:
                l(1) =   0
                l(2) =   0
                l(3) =   1
                l(4) =   1
                l(5) =   2
                l(6) =   2
     Q(r) pseudized with  8 coefficients,  rinner =    1.150   1.150   1.150
                                                       1.150   1.150

     PseudoPot. # 3 for O  read from file:
     /home/pragov/projects/rrg-bengioy-ad/pragov/crystal_structure_design/SSSP/O.pbe-n-kjpaw_psl.0.1.UPF
     MD5 check sum: 0234752ac141de4415c5fc33072bef88
     Pseudo is Projector augmented-wave + core cor, Zval =  6.0
     Generated using "atomic" code by A. Dal Corso  v.5.0.99 svn rev. 10869
     Shape of augmentation charge: BESSEL
     Using radial grid of 1095 points,  4 beta functions with:
                l(1) =   0
                l(2) =   0
                l(3) =   1
                l(4) =   1
     Q(r) pseudized with 0 coefficients

     atomic species   valence    mass     pseudopotential
        Ca            10.00    40.07800     Ca( 1.00)
        Cu            19.00    63.54600     Cu( 1.00)
        O              6.00    15.99900     O ( 1.00)

     12 Sym. Ops., with inversion, found

                                    s                        frac. trans.

      isym =  1     identity

 cryst.   s( 1) = (     1          0          0      )
                  (     0          1          0      )
                  (     0          0          1      )

 cart.    s( 1) = (  1.0000000  0.0000000  0.0000000 )
                  (  0.0000000  1.0000000 -0.0000000 )
                  (  0.0000000  0.0000000  1.0000000 )

      isym =  2     180 deg rotation - cart. axis [1,0,0]

[...]

      isym =  3     120 deg rotation - cryst. axis [0,0,1]

[...]

      isym =  6     180 deg rotation - cryst. axis [1,1,0]

[...]

      isym =  7     inversion

[...]

      isym =  8     inv. 180 deg rotation - cart. axis [1,0,0]

[...]

      isym =  9     inv. 120 deg rotation - cryst. axis [0,0,1]

 cryst.   s( 9) = (     1         -1          0      )
                  (     1          0          0      )
                  (     1          0         -1      )

 cart.    s( 9) = (  0.5000000  0.8660254 -0.0000000 )
                  ( -0.8660254  0.5000000 -0.0000000 )
                  (  0.0000000  0.0000000 -1.0000000 )

[...]

 cryst.   s(10) = (     0          1          0      )
                  (    -1          1          0      )
                  (     0          1         -1      )

 cart.    s(10) = (  0.5000000 -0.8660254  0.0000000 )
                  (  0.8660254  0.5000000 -0.0000000 )
                  (  0.0000000  0.0000000 -1.0000000 )

[...]

      isym = 12     inv. 180 deg rotation - cryst. axis [1,1,0]

 cryst.   s(12) = (     1         -1          0      )
                  (     0         -1          0      )
                  (     0         -1          1      )

 cart.    s(12) = (  0.5000000 -0.8660254  0.0000000 )
                  ( -0.8660254 -0.5000000  0.0000000 )
                  (  0.0000000  0.0000000  1.0000000 )

   Cartesian axes

     site n.     atom                  positions (alat units)
         1           Ca  tau(   1) = (   0.0000000   0.0000000   0.0000000  )
         2           Cu  tau(   2) = (   0.7500000   0.4330127   0.0000000  )
         3           Cu  tau(   3) = (   0.5000000   0.5773503   0.4082483  )
         4           Cu  tau(   4) = (   0.7500000   0.1443376   0.4082483  )
         5           Cu  tau(   5) = (   0.2500000   0.1443376   0.4082483  )
         6           Cu  tau(   6) = (   0.5000000   0.0000000   0.0000000  )
         7           Cu  tau(   7) = (   0.2500000   0.4330127   0.0000000  )
         8           O   tau(   8) = (   0.2904980   0.1677191   0.1185953  )
         9           O   tau(   9) = (   1.5000000   0.8660254   0.3557859  )
        10           O   tau(  10) = (   0.5000000   0.2886751   0.4607106  )
        11           O   tau(  11) = (   1.5000000   0.6241133   0.6979013  )
        12           O   tau(  12) = (   0.7095020   0.1677191   0.1185953  )
        13           O   tau(  13) = (   0.5000000   0.5305872   0.1185953  )
        14           O   tau(  14) = (   1.2904980   0.9869814   0.6979013  )
        15           O   tau(  15) = (   1.7095020   0.9869814   0.6979013  )

   Crystallographic axes

     site n.     atom                  positions (cryst. coord.)
         1           Ca  tau(   1) = (  0.0000000  0.0000000  0.0000000  )
         2           Cu  tau(   2) = (  0.5000000  0.5000000  0.0000000  )
         3           Cu  tau(   3) = (  0.0000000  0.5000000  0.5000000  )
         4           Cu  tau(   4) = (  0.5000000 -0.0000000  0.5000000  )
         5           Cu  tau(   5) = (  0.0000000 -0.0000000  0.5000000  )
         6           Cu  tau(   6) = (  0.5000000  0.0000000  0.0000000  )
         7           Cu  tau(   7) = (  0.0000000  0.5000000  0.0000000  )
         8           O   tau(   8) = (  0.1452490  0.1452490  0.1452490  )
         9           O   tau(   9) = (  0.8547510  0.8547510  0.4357470  )
        10           O   tau(  10) = (  0.1452490  0.1452490  0.5642530  )
        11           O   tau(  11) = (  0.8547510  0.4357470  0.8547510  )
        12           O   tau(  12) = (  0.5642530  0.1452490  0.1452490  )
        13           O   tau(  13) = (  0.1452490  0.5642530  0.1452490  )
        14           O   tau(  14) = (  0.4357470  0.8547510  0.8547510  )
        15           O   tau(  15) = (  0.8547510  0.8547510  0.8547510  )

     number of k points=     1  Methfessel-Paxton smearing, width (Ry)=  0.0010
                       cart. coord. in units 2pi/alat
        k(    1) = (   0.0000000   0.0000000   0.0000000), wk =   2.0000000

                       cryst. coord.
        k(    1) = (   0.0000000   0.0000000   0.0000000), wk =   2.0000000

     Check: negative core charge=   -0.000013

     Initial potential from superposition of free atoms

     starting charge     165.9945, renormalised to     172.0000
     Starting wfcs are  120 randomized atomic wfcs
     Checking if some PAW data can be deallocated...

     Self-consistent Calculation

     iteration #  1     ecut=    30.00 Ry     beta= 0.70
     Davidson diagonalization with overlap

     ethr =  1.00E-02,  avg # of iterations =  3.0

     total energy              =   -2823.47197137 Ry
     estimated scf accuracy    <       9.94829865 Ry

[...]

     total energy              =   -2829.94064150 Ry
     estimated scf accuracy    <       0.00000137 Ry

     iteration # 31     ecut=    30.00 Ry     beta= 0.70
     Davidson diagonalization with overlap

     ethr =  7.94E-10,  avg # of iterations =  1.0

     End of self-consistent calculation

          k = 0.0000 0.0000 0.0000 (  1860 PWs)   bands (ev):

  -105.4891-105.4890-105.4872-105.4872-105.4871-105.4847 -62.9724 -62.9723
   -62.9722 -62.9708 -62.9708 -62.9707 -62.9456 -62.9455 -62.9451 -62.9451
   -62.9450 -62.9447 -62.5922 -62.5921 -62.5920 -62.5894 -62.5893 -62.5892
   -30.1006 -11.8790 -11.8790 -11.8789 -11.5589 -10.5221 -10.5220 -10.5219
   -10.4165  -9.7292  -9.7291  -9.7290   1.0676   1.0676   1.4386   1.4386
     1.4387   1.4763   2.0130   2.0131   2.0131   2.8649   2.8649   2.8649
     3.6017   3.6018   3.6018   3.6484   3.6484   3.6485   4.3875   4.4628
     4.6569   4.6569   4.6633   4.6633   4.6684   4.6684   4.6684   4.7375
     4.7376   4.8250   4.8250   4.8250   5.0344   5.1170   5.1171   5.1171
     5.2710   5.2710   5.2711   5.7842   5.7842   5.9476   5.9477   5.9478
     6.1512   6.1512   6.1513   6.3336   7.2462   7.2462   7.2462   8.8743
     8.8743   8.8744   9.1957  11.9027  11.9027  11.9027  14.4541  14.4541
    14.9566  14.9566  14.9566  16.3955  16.7306  16.8139  16.8154

     occupation numbers
     1.0000   1.0000   1.0000   1.0000   1.0000   1.0000   1.0000   1.0000
     1.0000   1.0000   1.0000   1.0000   1.0000   1.0000   1.0000   1.0000
     1.0000   1.0000   1.0000   1.0000   1.0000   1.0000   1.0000   1.0000
     1.0000   1.0000   1.0000   1.0000   1.0000   1.0000   1.0000   1.0000
     1.0000   1.0000   1.0000   1.0000   1.0000   1.0000   1.0000   1.0000
     1.0000   1.0000   1.0000   1.0000   1.0000   1.0000   1.0000   1.0000
     1.0000   1.0000   1.0000   1.0000   1.0000   1.0000   1.0000   1.0000
     1.0000   1.0000   1.0000   1.0000   1.0000   1.0000   1.0000   1.0000
     1.0000   1.0000   1.0000   1.0000   1.0000   1.0000   1.0000   1.0000
     1.0000   1.0000   1.0000   1.0000   1.0000   1.0000   1.0000   1.0000
     1.0000   1.0000   1.0000   1.0000   0.6683   0.6667   0.6650  -0.0000
    -0.0000  -0.0000  -0.0000  -0.0000  -0.0000  -0.0000  -0.0000  -0.0000
    -0.0000  -0.0000  -0.0000  -0.0000  -0.0000  -0.0000  -0.0000

     the Fermi energy is     7.2490 ev

!    total energy              =   -2829.94064071 Ry
     estimated scf accuracy    <       0.00000091 Ry
     smearing contrib. (-TS)   =      -0.00074671 Ry
     internal energy E=F+TS    =   -2829.93989400 Ry

     The total energy is F=E-TS. E is the sum of the following terms:
     one-electron contribution =   -2439.99956462 Ry
     hartree contribution      =    1290.13214803 Ry
     xc contribution           =    -303.24532953 Ry
     ewald contribution        =   -1300.59705984 Ry
     one-center paw contrib.   =     -76.23008805 Ry
      -> PAW hartree energy AE =     230.74395061 Ry
      -> PAW hartree energy PS =    -229.95378604 Ry
      -> PAW xc energy AE      =    -136.40272691 Ry
      -> PAW xc energy PS      =      59.38247430 Ry
      -> total E_H with PAW    =    1290.92231260 Ry
      -> total E_XC with PAW   =    -380.26558214 Ry

     convergence has been achieved in  31 iterations

     Forces acting on atoms (cartesian axes, Ry/au):

     atom    1 type  1   force =    -0.00000000   -0.00000000   -0.00000000
     atom    2 type  2   force =    -0.00000000    0.00000000    0.00000000
     atom    3 type  2   force =     0.00000000   -0.00000000   -0.00000000
     atom    4 type  2   force =     0.00000000   -0.00000000   -0.00000000
     atom    5 type  2   force =     0.00000000   -0.00000000    0.00000000
     atom    6 type  2   force =     0.00000000   -0.00000000   -0.00000000
     atom    7 type  2   force =    -0.00000000    0.00000000   -0.00000000
     atom    8 type  3   force =     0.00254230    0.00146780    0.00103624
     atom    9 type  3   force =     0.00000000   -0.00000000    0.00311093
     atom   10 type  3   force =     0.00000000    0.00000000   -0.00311093
     atom   11 type  3   force =     0.00000000    0.00293560   -0.00103624
     atom   12 type  3   force =    -0.00254230    0.00146780    0.00103624
     atom   13 type  3   force =     0.00000000   -0.00293560    0.00103624
     atom   14 type  3   force =     0.00254230   -0.00146780   -0.00103624
     atom   15 type  3   force =    -0.00254230   -0.00146780   -0.00103624
     The non-local contrib.  to forces
     atom    1 type  1   force =     0.00000000    0.00000000    0.00000000
     atom    2 type  2   force =    -0.00000000    0.00000000    0.00000000
     atom    3 type  2   force =     0.00000000    0.00000000    0.00000000
     atom    4 type  2   force =     0.00000000   -0.00000000    0.00000000
     atom    5 type  2   force =     0.00000000   -0.00000000   -0.00000000
     atom    6 type  2   force =    -0.00000000    0.00000000    0.00000000
     atom    7 type  2   force =    -0.00000000    0.00000000   -0.00000000
     atom    8 type  3   force =     0.22568967    0.13030199    0.09213043
     atom    9 type  3   force =     0.00000000    0.00000000    0.27633384
     atom   10 type  3   force =     0.00000000    0.00000000   -0.27633384
     atom   11 type  3   force =     0.00000000    0.26060399   -0.09213043
     atom   12 type  3   force =    -0.22568967    0.13030199    0.09213043
     atom   13 type  3   force =     0.00000000   -0.26060399    0.09213043
     atom   14 type  3   force =     0.22568967   -0.13030199   -0.09213043
     atom   15 type  3   force =    -0.22568967   -0.13030199   -0.09213043
     The ionic contribution  to forces
     atom    1 type  1   force =    -0.00000000   -0.00000000   -0.00000000
     atom    2 type  2   force =     0.00000000    0.00000000   -0.00000000
     atom    3 type  2   force =     0.00000000    0.00000000    0.00000000
     atom    4 type  2   force =    -0.00000000   -0.00000000    0.00000000
     atom    5 type  2   force =     0.00000000   -0.00000000    0.00000000
     atom    6 type  2   force =     0.00000000   -0.00000000   -0.00000000
     atom    7 type  2   force =    -0.00000000    0.00000000   -0.00000000
     atom    8 type  3   force =    -3.79974650   -2.19378466   -1.55124001
     atom    9 type  3   force =    -0.00000000   -0.00000000   -4.65372004
     atom   10 type  3   force =     0.00000000   -0.00000000    4.65372004
     atom   11 type  3   force =    -0.00000000   -4.38756933    1.55124001
     atom   12 type  3   force =     3.79974650   -2.19378466   -1.55124001
     atom   13 type  3   force =     0.00000000    4.38756933   -1.55124001
     atom   14 type  3   force =    -3.79974650    2.19378466    1.55124001
     atom   15 type  3   force =     3.79974650    2.19378466    1.55124001
     The local contribution  to forces
     atom    1 type  1   force =    -0.00000323   -0.00004430   -0.00001577
     atom    2 type  2   force =    -0.00001801    0.00008695   -0.00002725
     atom    3 type  2   force =    -0.00000066    0.00001524   -0.00002414
     atom    4 type  2   force =     0.00001075   -0.00001578    0.00008179
     atom    5 type  2   force =    -0.00001257   -0.00001557    0.00008978
     atom    6 type  2   force =     0.00000844   -0.00009018   -0.00005984
     atom    7 type  2   force =     0.00001910    0.00009863   -0.00002699
     atom    8 type  3   force =     3.57817544    2.06615964    1.46087090
     atom    9 type  3   force =    -0.00048764   -0.00036744    4.38421820
     atom   10 type  3   force =     0.00048765    0.00035923   -4.38419825
     atom   11 type  3   force =    -0.00096493    4.13430894   -1.46166805
     atom   12 type  3   force =    -3.57947976    2.06803020    1.46160305
     atom   13 type  3   force =     0.00096273   -4.13429187    1.46165658
     atom   14 type  3   force =     3.57949758   -2.06804936   -1.46161527
     atom   15 type  3   force =    -3.57819573   -2.06617980   -1.46088315
     The core correction contribution to forces
     atom    1 type  1   force =    -0.00000001   -0.00000013   -0.00000006
     atom    2 type  2   force =     0.00000001    0.00000000   -0.00000000
     atom    3 type  2   force =     0.00000000   -0.00000000    0.00000000
     atom    4 type  2   force =     0.00000000    0.00000000    0.00000001
     atom    5 type  2   force =    -0.00000000    0.00000000    0.00000001
     atom    6 type  2   force =     0.00000000   -0.00000001   -0.00000000
     atom    7 type  2   force =     0.00000001    0.00000001   -0.00000000
     atom    8 type  3   force =    -0.00302408   -0.00174416   -0.00123201
     atom    9 type  3   force =    -0.00000044    0.00000009   -0.00368354
     atom   10 type  3   force =     0.00000044   -0.00000006    0.00368351
     atom   11 type  3   force =    -0.00000513   -0.00346358    0.00122624
     atom   12 type  3   force =     0.00300629   -0.00172794   -0.00122634
     atom   13 type  3   force =     0.00000513    0.00346344   -0.00122616
     atom   14 type  3   force =    -0.00300606    0.00172787    0.00122625
     atom   15 type  3   force =     0.00302383    0.00174405    0.00123190
     The Hubbard contrib.    to forces
     atom    1 type  1   force =     0.00000000    0.00000000    0.00000000
     atom    2 type  2   force =     0.00000000    0.00000000    0.00000000
     atom    3 type  2   force =     0.00000000    0.00000000    0.00000000
     atom    4 type  2   force =     0.00000000    0.00000000    0.00000000
     atom    5 type  2   force =     0.00000000    0.00000000    0.00000000
     atom    6 type  2   force =     0.00000000    0.00000000    0.00000000
     atom    7 type  2   force =     0.00000000    0.00000000    0.00000000
     atom    8 type  3   force =     0.00000000    0.00000000    0.00000000
     atom    9 type  3   force =     0.00000000    0.00000000    0.00000000
     atom   10 type  3   force =     0.00000000    0.00000000    0.00000000
     atom   11 type  3   force =     0.00000000    0.00000000    0.00000000
     atom   12 type  3   force =     0.00000000    0.00000000    0.00000000
     atom   13 type  3   force =     0.00000000    0.00000000    0.00000000
     atom   14 type  3   force =     0.00000000    0.00000000    0.00000000
     atom   15 type  3   force =     0.00000000    0.00000000    0.00000000
     The SCF correction term to forces
     atom    1 type  1   force =     0.00000313    0.00004195    0.00001475
     atom    2 type  2   force =     0.00002066   -0.00009776    0.00003107
     atom    3 type  2   force =     0.00000018   -0.00001858    0.00002903
     atom    4 type  2   force =    -0.00001113    0.00001678   -0.00008769
     atom    5 type  2   force =     0.00001420    0.00001610   -0.00009652
     atom    6 type  2   force =    -0.00000706    0.00009899    0.00006568
     atom    7 type  2   force =    -0.00002062   -0.00010466    0.00002644
     atom    8 type  3   force =     0.00043754    0.00005669    0.00023875
     atom    9 type  3   force =     0.00045685    0.00037052   -0.00003960
     atom   10 type  3   force =    -0.00045631   -0.00035956    0.00001554
     atom   11 type  3   force =     0.00066244   -0.00026904    0.00015876
     atom   12 type  3   force =    -0.00028749   -0.00079605   -0.00010879
     atom   13 type  3   force =    -0.00066121    0.00024139   -0.00014202
     atom   14 type  3   force =     0.00028296    0.00081044    0.00011497
     atom   15 type  3   force =    -0.00043175   -0.00004371   -0.00023263

     Total force =     0.008804     Total SCF correction =     0.001941
     SCF correction compared to forces is large: reduce conv_thr to get better values

     Computing stress (Cartesian axis) and pressure

          total   stress  (Ry/bohr**3)                   (kbar)     P=     -706.24
  -0.00480089  -0.00000000  -0.00000000         -706.23       -0.00       -0.00
  -0.00000000  -0.00480089   0.00000000           -0.00     -706.23        0.00
  -0.00000000   0.00000000  -0.00480091           -0.00        0.00     -706.24

     kinetic stress (kbar)  29501.08     -0.00      0.00
                               -0.00  29501.08     -0.00
                               -0.00     -0.00  29501.10

     local   stress (kbar) -35059.67      0.87      0.85
                                0.87 -35061.12      0.77
                                0.85      0.77 -35060.44

     nonloc. stress (kbar)  15732.47      0.00      0.00
                                0.00  15732.47     -0.00
                                0.00     -0.00  15732.48

     hartree stress (kbar)  46953.30     -0.42     -0.48
                               -0.42  46954.03     -0.46
                               -0.48     -0.46  46953.67

     exc-cor stress (kbar)  -9708.68     -0.00     -0.00
                               -0.00  -9708.68     -0.00
                               -0.00     -0.00  -9708.68

     corecor stress (kbar)   -789.84      0.00      0.00
                                0.00   -789.84      0.00
                                0.00      0.00   -789.84

     ewald   stress (kbar) -47334.53      0.00      0.00
                                0.00 -47334.53     -0.00
                                0.00     -0.00 -47334.53

     hubbard stress (kbar)      0.00      0.00      0.00
                                0.00      0.00      0.00
                                0.00      0.00      0.00

     DFT-D   stress (kbar)      0.00      0.00      0.00
                                0.00      0.00      0.00
                                0.00      0.00      0.00

     XDM     stress (kbar)      0.00      0.00      0.00
                                0.00      0.00      0.00
                                0.00      0.00      0.00

     dft-nl  stress (kbar)      0.00      0.00      0.00
                                0.00      0.00      0.00
                                0.00      0.00      0.00

     TS-vdW  stress (kbar)      0.00      0.00      0.00
                                0.00      0.00      0.00
                                0.00      0.00      0.00

[...]

                                0.00      0.00      0.00

     Writing all to output data dir new_calculations/myprefix.save/

     General routines

     Parallel routines

     PAW routines

   This run was terminated on:  17: 4:36  20May2023

   JOB DONE.