     Program PWSCF v.7.0 starts on 21May2023 at 15:10:16

     Reading input from espresso_23738.pwi
Warning: card &CELL ignored
Warning: card / ignored

     Current dimensions of program PWSCF are:
     Max number of different atomic species (ntypx) = 10
     Max number of k-points (npk) =  40000
     Max angular momentum in pseudopotentials (lmaxx) =  4

     gamma-point specific algorithms are used
     Message from routine setup:
     using ibrav=0 with symmetry is DISCOURAGED, use correct ibrav instead

     Subspace diagonalization in iterative solution of the eigenvalue problem:
     a serial algorithm will be used

     Using Slab Decomposition

     bravais-lattice index     =            0
     lattice parameter (alat)  =       7.5274  a.u.
     unit-cell volume          =     772.9804 (a.u.)^3
     number of atoms/cell      =            7
     number of atomic types    =            3
     number of electrons       =       105.00
     number of Kohn-Sham states=           64
     kinetic-energy cutoff     =      30.0000  Ry
     charge density cutoff     =     240.0000  Ry
     scf convergence threshold =      1.0E-06
     mixing beta               =       0.7000
     number of iterations used =            8  plain     mixing
     Exchange-correlation=  SLA  PW   PBX  PBC
                           (   1   4   3   4   0   0   0)

     celldm(1)=   7.527378  celldm(2)=   0.000000  celldm(3)=   0.000000
     celldm(4)=   0.000000  celldm(5)=   0.000000  celldm(6)=   0.000000

     crystal axes: (cart. coord. in units of alat)
               a(1) = (   1.000000   0.000000   0.000000 )
               a(2) = (   0.000000   1.000000   0.000000 )
               a(3) = (   0.000000   0.000000   1.812330 )

     reciprocal axes: (cart. coord. in units 2 pi/alat)
               b(1) = (  1.000000  0.000000  0.000000 )
               b(2) = (  0.000000  1.000000  0.000000 )
               b(3) = (  0.000000  0.000000  0.551776 )

     PseudoPot. # 1 for Hg read from file:
     /home/pragov/projects/rrg-bengioy-ad/pragov/crystal_structure_design/SSSP/Hg_ONCV_PBE-1.0.oncvpsp.upf
     MD5 check sum: dd5a8773074bfcf4280086d4d95875c4
     Pseudo is Norm-conserving, Zval = 20.0
     Generated using ONCVPSP code by D. R. Hamann
     Using radial grid of 1262 points,  8 beta functions with:
                l(1) =   0
                l(2) =   0
                l(3) =   1
                l(4) =   1
                l(5) =   2
                l(6) =   2
                l(7) =   3
                l(8) =   3

     PseudoPot. # 2 for P  read from file:
     /home/pragov/projects/rrg-bengioy-ad/pragov/crystal_structure_design/SSSP/P.pbe-n-rrkjus_psl.1.0.0.UPF
     MD5 check sum: 8b930f418f0a4573dca56cd030ffe088
     Pseudo is Ultrasoft + core correction, Zval =  5.0
     Generated using "atomic" code by A. Dal Corso  v.5.1
     Using radial grid of 1147 points,  6 beta functions with:
                l(1) =   0
                l(2) =   0
                l(3) =   1
                l(4) =   1
                l(5) =   2
                l(6) =   2
     Q(r) pseudized with 0 coefficients

     PseudoPot. # 3 for Pt read from file:
     /home/pragov/projects/rrg-bengioy-ad/pragov/crystal_structure_design/SSSP/pt_pbe_v1.4.uspp.F.UPF
     MD5 check sum: f09d6de1a584b5a045c4fc126da2d0c4
     Pseudo is Ultrasoft + core correction, Zval = 16.0
     Generated by new atomic code, or converted to UPF format
     Using radial grid of  985 points,  6 beta functions with:
                l(1) =   0
                l(2) =   0
                l(3) =   1
                l(4) =   1
                l(5) =   2
                l(6) =   2
     Q(r) pseudized with  8 coefficients,  rinner =    1.300   1.300   1.300
                                                       1.300   1.300

     atomic species   valence    mass     pseudopotential
        Hg            20.00   200.59200     Hg( 1.00)
        P              5.00    30.97376     P ( 1.00)
        Pt            16.00   195.08400     Pt( 1.00)

     16 Sym. Ops., with inversion, found

                                    s                        frac. trans.

      isym =  1     identity

 cryst.   s( 1) = (     1          0          0      )
                  (     0          1          0      )
                  (     0          0          1      )

 cart.    s( 1) = (  1.0000000  0.0000000  0.0000000 )
                  (  0.0000000  1.0000000  0.0000000 )
                  (  0.0000000  0.0000000  1.0000000 )

      isym =  2     180 deg rotation - cart. axis [0,0,1]

[...]

      isym =  8      90 deg rotation - cart. axis [0,0,1]

[...]

      isym =  9     inversion

 cryst.   s( 9) = (    -1          0          0      )
                  (     0         -1          0      )
                  (     0          0         -1      )

 cart.    s( 9) = ( -1.0000000  0.0000000  0.0000000 )
                  (  0.0000000 -1.0000000  0.0000000 )
                  (  0.0000000  0.0000000 -1.0000000 )

      isym = 10     inv. 180 deg rotation - cart. axis [0,0,1]

 cryst.   s(10) = (     1          0          0      )
                  (     0          1          0      )
                  (     0          0         -1      )

 cart.    s(10) = (  1.0000000  0.0000000  0.0000000 )
                  (  0.0000000  1.0000000  0.0000000 )
                  (  0.0000000  0.0000000 -1.0000000 )

[...]

      isym = 16     inv.  90 deg rotation - cart. axis [0,0,1]

 cryst.   s(16) = (     0         -1          0      )
                  (     1          0          0      )
                  (     0          0         -1      )

 cart.    s(16) = (  0.0000000  1.0000000  0.0000000 )
                  ( -1.0000000  0.0000000  0.0000000 )
                  (  0.0000000  0.0000000 -1.0000000 )

   Cartesian axes

     site n.     atom                  positions (alat units)
         1           Hg  tau(   1) = (   0.5000000   0.5000000   0.0000000  )
         2           P   tau(   2) = (   0.0000000   0.0000000   0.9061650  )
         3           Pt  tau(   3) = (   0.0000000   0.0000000   0.0000000  )
         4           Pt  tau(   4) = (   0.5000000   0.0000000   1.2637613  )
         5           Pt  tau(   5) = (   0.0000000   0.5000000   1.2637613  )
         6           Pt  tau(   6) = (   0.5000000   0.0000000   0.5485687  )
         7           Pt  tau(   7) = (   0.0000000   0.5000000   0.5485687  )

   Crystallographic axes

     site n.     atom                  positions (cryst. coord.)
         1           Hg  tau(   1) = (  0.5000000  0.5000000  0.0000000  )
         2           P   tau(   2) = (  0.0000000  0.0000000  0.5000000  )
         3           Pt  tau(   3) = (  0.0000000  0.0000000  0.0000000  )
         4           Pt  tau(   4) = (  0.5000000  0.0000000  0.6973130  )
         5           Pt  tau(   5) = (  0.0000000  0.5000000  0.6973130  )
         6           Pt  tau(   6) = (  0.5000000  0.0000000  0.3026870  )
         7           Pt  tau(   7) = (  0.0000000  0.5000000  0.3026870  )

     number of k points=     1  Methfessel-Paxton smearing, width (Ry)=  0.0010
                       cart. coord. in units 2pi/alat
        k(    1) = (   0.0000000   0.0000000   0.0000000), wk =   2.0000000

                       cryst. coord.
        k(    1) = (   0.0000000   0.0000000   0.0000000), wk =   2.0000000

     Initial potential from superposition of free atoms

     starting charge     102.4997, renormalised to     105.0000

     negative rho (up, down):  9.081E-01 0.000E+00
     Starting wfcs are   74 randomized atomic wfcs

     Self-consistent Calculation

     iteration #  1     ecut=    30.00 Ry     beta= 0.70
     Davidson diagonalization with overlap

     ethr =  1.00E-02,  avg # of iterations =  4.0

     negative rho (up, down):  8.334E-01 0.000E+00

     total energy              =   -1372.21405532 Ry
     estimated scf accuracy    <       7.81256916 Ry

[...]

     ethr =  2.50E-05,  avg # of iterations =  1.0
     Minimization algorithm failed to find Fermi energy: reverting to bisection
     Possible cause: smearing is larger than the electronic band-gap.

[...]

     ethr =  1.18E-06,  avg # of iterations =  1.0
     Minimization algorithm failed to find Fermi energy: reverting to bisection
     Possible cause: smearing is larger than the electronic band-gap.

[...]

     total energy              =   -1376.85718519 Ry
     estimated scf accuracy    <       0.00000148 Ry

     iteration # 84     ecut=    30.00 Ry     beta= 0.70
     Davidson diagonalization with overlap

     ethr =  1.41E-09,  avg # of iterations =  1.0

[...]

     End of self-consistent calculation

          k = 0.0000 0.0000 0.0000 (  1080 PWs)   bands (ev):

   -96.3342 -44.2645 -44.2645 -44.2134 -33.8449 -33.8449 -33.8344 -33.8344
   -33.5303 -33.5303 -33.5228 -33.5228 -33.1439 -33.0992 -33.0488 -33.0061
   -31.9576 -31.6825 -31.6825   5.8229  10.2262  10.8866  11.7751  11.8019
    11.9908  12.3228  12.3228  12.8324  12.8324  13.3781  13.5088  13.6696
    13.7314  14.7711  15.6773  15.6773  15.7311  16.6299  16.6299  17.1910
    17.4307  17.6893  17.8350  17.8350  17.8519  18.1767  18.4780  18.6433
    18.6433  19.0774  19.0810  19.0810  19.0828  19.1298  21.4184  21.7651
    23.6969  24.3840  24.3840  25.0200  25.0200  25.4463  26.1739  27.7843

     occupation numbers
     1.0000   1.0000   1.0000   1.0000   1.0000   1.0000   1.0000   1.0000
     1.0000   1.0000   1.0000   1.0000   1.0000   1.0000   1.0000   1.0000
     1.0000   1.0000   1.0000   1.0000   1.0000   1.0000   1.0000   1.0000
     1.0000   1.0000   1.0000   1.0000   1.0000   1.0000   1.0000   1.0000
     1.0000   1.0000   1.0000   1.0000   1.0000   1.0000   1.0000   1.0000
     1.0000   1.0000   1.0000   1.0000   1.0000   1.0000   1.0000   1.0000
     1.0000   0.9795   0.8675   0.8674   0.7857  -0.0001  -0.0000  -0.0000
    -0.0000  -0.0000  -0.0000  -0.0000  -0.0000  -0.0000  -0.0000  -0.0000

     the Fermi energy is    19.0877 ev

!    total energy              =   -1376.85718517 Ry
     estimated scf accuracy    <       0.00000002 Ry
     smearing contrib. (-TS)   =      -0.00038173 Ry
     internal energy E=F+TS    =   -1376.85680344 Ry

     The total energy is F=E-TS. E is the sum of the following terms:
     one-electron contribution =    -310.69178129 Ry
     hartree contribution      =     231.27807141 Ry
     xc contribution           =    -316.97626371 Ry
     ewald contribution        =    -980.46682985 Ry

     convergence has been achieved in  84 iterations

     negative rho (up, down):  8.619E-01 0.000E+00

     Forces acting on atoms (cartesian axes, Ry/au):

     atom    1 type  1   force =     0.00000000    0.00000000    0.00000000
     atom    2 type  2   force =     0.00000000    0.00000000    0.00000000
     atom    3 type  3   force =     0.00000000    0.00000000    0.00000000
     atom    4 type  3   force =     0.00000000    0.00000000    0.00866016
     atom    5 type  3   force =     0.00000000    0.00000000    0.00866016
     atom    6 type  3   force =     0.00000000    0.00000000   -0.00866016
     atom    7 type  3   force =     0.00000000    0.00000000   -0.00866016
     The non-local contrib.  to forces
     atom    1 type  1   force =     0.00000000    0.00000000    0.00000000
     atom    2 type  2   force =     0.00000000    0.00000000    0.00000000
     atom    3 type  3   force =     0.00000000    0.00000000    0.00000000
     atom    4 type  3   force =     0.00000000    0.00000000   -0.07287764
     atom    5 type  3   force =     0.00000000    0.00000000   -0.07287764
     atom    6 type  3   force =     0.00000000    0.00000000    0.07287764
     atom    7 type  3   force =     0.00000000    0.00000000    0.07287764
     The ionic contribution  to forces
     atom    1 type  1   force =     0.00000000    0.00000000   -0.00000000
     atom    2 type  2   force =     0.00000000    0.00000000    0.00000000
     atom    3 type  3   force =    -0.00000000   -0.00000000   -0.00000000
     atom    4 type  3   force =     0.00000000   -0.00000000  -13.70164222
     atom    5 type  3   force =    -0.00000000    0.00000000  -13.70164222
     atom    6 type  3   force =     0.00000000    0.00000000   13.70164222
     atom    7 type  3   force =    -0.00000000    0.00000000   13.70164222
     The local contribution  to forces
     atom    1 type  1   force =     0.00000089    0.00002324    0.00016679
     atom    2 type  2   force =     0.00000223    0.00000256   -0.00005668
     atom    3 type  3   force =     0.00000190   -0.00001950    0.00013466
     atom    4 type  3   force =    -0.00000759   -0.00000736   13.78397829
     atom    5 type  3   force =    -0.00000191   -0.00000810   13.78398624
     atom    6 type  3   force =    -0.00001141   -0.00000227  -13.78405896
     atom    7 type  3   force =    -0.00000429    0.00000059  -13.78405734
     The core correction contribution to forces
     atom    1 type  1   force =     0.00000000    0.00000000    0.00000000
     atom    2 type  2   force =    -0.00000001    0.00000003   -0.00000001
     atom    3 type  3   force =    -0.00000023    0.00000172    0.00000001
     atom    4 type  3   force =     0.00000133    0.00000238   -0.00048257
     atom    5 type  3   force =     0.00000183    0.00000176   -0.00048366
     atom    6 type  3   force =     0.00000196    0.00000013    0.00048288
     atom    7 type  3   force =     0.00000279    0.00000019    0.00048351
     The Hubbard contrib.    to forces
     atom    1 type  1   force =     0.00000000    0.00000000    0.00000000
     atom    2 type  2   force =     0.00000000    0.00000000    0.00000000
     atom    3 type  3   force =     0.00000000    0.00000000    0.00000000
     atom    4 type  3   force =     0.00000000    0.00000000    0.00000000
     atom    5 type  3   force =     0.00000000    0.00000000    0.00000000
     atom    6 type  3   force =     0.00000000    0.00000000    0.00000000
     atom    7 type  3   force =     0.00000000    0.00000000    0.00000000
     The SCF correction term to forces
     atom    1 type  1   force =    -0.00000175   -0.00002054   -0.00016681
     atom    2 type  2   force =    -0.00000178   -0.00000141    0.00005359
     atom    3 type  3   force =    -0.00000194    0.00001862   -0.00013082
     atom    4 type  3   force =     0.00000528    0.00000656   -0.00031616
     atom    5 type  3   force =     0.00000150    0.00000493   -0.00032364
     atom    6 type  3   force =     0.00000822    0.00000181    0.00039592
     atom    7 type  3   force =     0.00000375   -0.00000157    0.00039238

     Total force =     0.017320     Total SCF correction =     0.000751

     Computing stress (Cartesian axis) and pressure

     negative rho (up, down):  8.619E-01 0.000E+00
          total   stress  (Ry/bohr**3)                   (kbar)     P=      -83.54
  -0.00051021   0.00000000   0.00000000          -75.06        0.00        0.00
   0.00000000  -0.00051021   0.00000000            0.00      -75.06        0.00
   0.00000000   0.00000000  -0.00068335            0.00        0.00     -100.52

     kinetic stress (kbar)  48988.20      0.00      0.00
                                0.00  48988.20      0.00
                                0.00      0.00  49867.26

     local   stress (kbar)   5539.28     -0.01     -0.00
                               -0.01   5539.27      0.01
                               -0.00      0.01  14775.92

     nonloc. stress (kbar)   1401.87      0.00      0.00
                                0.00   1401.87      0.00
                                0.00      0.00   1910.10

     hartree stress (kbar)  16171.62      0.00      0.00
                                0.00  16171.62     -0.00
                                0.00     -0.00  11671.05

     exc-cor stress (kbar)  24842.40      0.00      0.00
                                0.00  24842.40     -0.00
                                0.00     -0.00  24862.39

     corecor stress (kbar) -36876.06     -0.00     -0.00
                               -0.00 -36876.06      0.00
                               -0.00      0.00 -36880.34

     ewald   stress (kbar) -60142.35      0.00      0.00
                                0.00 -60142.35      0.00
                                0.00      0.00 -66306.89

     hubbard stress (kbar)      0.00      0.00      0.00
                                0.00      0.00      0.00
                                0.00      0.00      0.00

     DFT-D   stress (kbar)      0.00      0.00      0.00
                                0.00      0.00      0.00
                                0.00      0.00      0.00

     XDM     stress (kbar)      0.00      0.00      0.00
                                0.00      0.00      0.00
                                0.00      0.00      0.00

     dft-nl  stress (kbar)      0.00      0.00      0.00
                                0.00      0.00      0.00
                                0.00      0.00      0.00

     TS-vdW  stress (kbar)      0.00      0.00      0.00
                                0.00      0.00      0.00
                                0.00      0.00      0.00

[...]

                                0.00      0.00      0.00

     Writing all to output data dir new_calculations/myprefix.save/

     General routines

     Parallel routines

   This run was terminated on:  15:11: 2  21May2023

   JOB DONE.