     Program PWSCF v.7.0 starts on 20May2023 at  9:53:11

     Reading input from espresso_18218.pwi
Warning: card &CELL ignored
Warning: card / ignored

     Current dimensions of program PWSCF are:
     Max number of different atomic species (ntypx) = 10
     Max number of k-points (npk) =  40000
     Max angular momentum in pseudopotentials (lmaxx) =  4
     file Ga.pbe-dn-kjpaw_psl.1.0.0.UPF: wavefunction(s)  4S renormalized

     gamma-point specific algorithms are used
     Message from routine setup:
     using ibrav=0 with symmetry is DISCOURAGED, use correct ibrav instead

     Subspace diagonalization in iterative solution of the eigenvalue problem:
     a serial algorithm will be used

     Using Slab Decomposition

     bravais-lattice index     =            0
     lattice parameter (alat)  =      14.1808  a.u.
     unit-cell volume          =    2195.2518 (a.u.)^3
     number of atoms/cell      =           17
     number of atomic types    =            3
     number of electrons       =       218.00
     number of Kohn-Sham states=          131
     kinetic-energy cutoff     =      30.0000  Ry
     charge density cutoff     =     240.0000  Ry
     scf convergence threshold =      1.0E-06
     mixing beta               =       0.7000
     number of iterations used =            8  plain     mixing
     Exchange-correlation= PBE
                           (   1   4   3   4   0   0   0)

     celldm(1)=  14.180844  celldm(2)=   0.000000  celldm(3)=   0.000000
     celldm(4)=   0.000000  celldm(5)=   0.000000  celldm(6)=   0.000000

     crystal axes: (cart. coord. in units of alat)
               a(1) = (   1.000000   0.000000   0.000000 )
               a(2) = (  -0.333333   0.942809   0.000000 )
               a(3) = (  -0.333333  -0.471405   0.816497 )

     reciprocal axes: (cart. coord. in units 2 pi/alat)
               b(1) = (  1.000000  0.353553  0.612372 )
               b(2) = (  0.000000  1.060660  0.612372 )
               b(3) = (  0.000000  0.000000  1.224745 )

     PseudoPot. # 1 for Y  read from file:
     /home/pragov/projects/rrg-bengioy-ad/pragov/crystal_structure_design/SSSP/Y_pbe_v1.uspp.F.UPF
     MD5 check sum: 2cf71db95cafeb975fc457bd7f14888e
     Pseudo is Ultrasoft + core correction, Zval = 11.0
     Generated by new atomic code, or converted to UPF format
     Using radial grid of  885 points,  6 beta functions with:
                l(1) =   0
                l(2) =   0
                l(3) =   1
                l(4) =   1
                l(5) =   2
                l(6) =   2
     Q(r) pseudized with  6 coefficients,  rinner =    1.200   1.200   1.200
                                                       1.200   1.200

     PseudoPot. # 2 for Ga read from file:
     /home/pragov/projects/rrg-bengioy-ad/pragov/crystal_structure_design/SSSP/Ga.pbe-dn-kjpaw_psl.1.0.0.UPF
     MD5 check sum: a27b4342b1af7e5f338de752e9ed7044
     Pseudo is Projector augmented-wave + core cor, Zval = 13.0
     Generated using "atomic" code by A. Dal Corso  v.5.1
     Shape of augmentation charge: PSQ
     Using radial grid of 1205 points,  6 beta functions with:
                l(1) =   0
                l(2) =   0
                l(3) =   1
                l(4) =   1
                l(5) =   2
                l(6) =   2
     Q(r) pseudized with 0 coefficients

     PseudoPot. # 3 for Pd read from file:
     /home/pragov/projects/rrg-bengioy-ad/pragov/crystal_structure_design/SSSP/Pd_ONCV_PBE-1.0.oncvpsp.upf
     MD5 check sum: eb77f42b51d86fb18e25f68156a31cf1
     Pseudo is Norm-conserving, Zval = 18.0
     Generated using ONCVPSP code by D. R. Hamann
     Using radial grid of 1410 points,  6 beta functions with:
                l(1) =   0
                l(2) =   0
                l(3) =   1
                l(4) =   1
                l(5) =   2
                l(6) =   2

     atomic species   valence    mass     pseudopotential
        Y             11.00    88.90584     Y ( 1.00)
        Ga            13.00    69.72300     Ga( 1.00)
        Pd            18.00   106.42000     Pd( 1.00)

      4 Sym. Ops., with inversion, found

                                    s                        frac. trans.

      isym =  1     identity

 cryst.   s( 1) = (     1          0          0      )
                  (     0          1          0      )
                  (     0          0          1      )

 cart.    s( 1) = (  1.0000000 -0.0000000 -0.0000000 )
                  (  0.0000000  1.0000000  0.0000000 )
                  (  0.0000000  0.0000000  1.0000000 )

      isym =  2     180 deg rotation - cart. axis [0,0,1]

[...]

      isym =  3     inversion

[...]

      isym =  4     inv. 180 deg rotation - cart. axis [0,0,1]

 cryst.   s( 4) = (     1          0          0      )
                  (     0          1          0      )
                  (    -1         -1         -1      )

 cart.    s( 4) = (  1.0000000 -0.0000000 -0.0000000 )
                  (  0.0000000  1.0000000 -0.0000000 )
                  (  0.0000000  0.0000000 -1.0000000 )

   Cartesian axes

     site n.     atom                  positions (alat units)
         1           Y   tau(   1) = (   0.1666667   0.2357023   0.4082483  )
         2           Y   tau(   2) = (   0.5000000   0.7071068   0.4082483  )
         3           Y   tau(   3) = (   0.5000000   0.0000000   0.0000000  )
         4           Y   tau(   4) = (  -0.1666667   0.4714045   0.0000000  )
         5           Ga  tau(   5) = (   0.5000000   0.3535534   0.2041241  )
         6           Ga  tau(   6) = (   0.1666667   0.5892557   0.2041241  )
         7           Ga  tau(   7) = (   0.1666667  -0.1178511   0.6123724  )
         8           Ga  tau(   8) = (   0.5000000   0.0000000   0.4082483  )
         9           Ga  tau(   9) = (  -0.1666667   0.4714045   0.4082483  )
        10           Ga  tau(  10) = (  -0.1666667   0.1178511   0.6123724  )
        11           Ga  tau(  11) = (   0.1978333  -0.1398893   0.2422954  )
        12           Ga  tau(  12) = (   0.8021667   0.1398893   0.2422954  )
        13           Ga  tau(  13) = (   0.5311667   0.3315152   0.5742012  )
        14           Ga  tau(  14) = (   0.1978333   0.2797786   0.0000000  )
        15           Ga  tau(  15) = (   0.4688333   0.6630305   0.0000000  )
        16           Ga  tau(  16) = (   0.1355000   0.6112938   0.5742012  )
        17           Pd  tau(  17) = (   0.0000000   0.0000000   0.0000000  )

   Crystallographic axes

     site n.     atom                  positions (cryst. coord.)
         1           Y   tau(   1) = (  0.5000000  0.5000000  0.5000000  )
         2           Y   tau(   2) = (  1.0000000  1.0000000  0.5000000  )
         3           Y   tau(   3) = (  0.5000000  0.0000000  0.0000000  )
         4           Y   tau(   4) = ( -0.0000000  0.5000000  0.0000000  )
         5           Ga  tau(   5) = (  0.7500000  0.5000000  0.2500000  )
         6           Ga  tau(   6) = (  0.5000000  0.7500000  0.2500000  )
         7           Ga  tau(   7) = (  0.5000000  0.2500000  0.7500000  )
         8           Ga  tau(   8) = (  0.7500000  0.2500000  0.5000000  )
         9           Ga  tau(   9) = (  0.2500000  0.7500000  0.5000000  )
        10           Ga  tau(  10) = (  0.2500000  0.5000000  0.7500000  )
        11           Ga  tau(  11) = (  0.2967500 -0.0000000  0.2967500  )
        12           Ga  tau(  12) = (  1.0000000  0.2967500  0.2967500  )
        13           Ga  tau(  13) = (  1.0000000  0.7032500  0.7032500  )
        14           Ga  tau(  14) = (  0.2967500  0.2967500  0.0000000  )
        15           Ga  tau(  15) = (  0.7032500  0.7032500  0.0000000  )
        16           Ga  tau(  16) = (  0.7032500  1.0000000  0.7032500  )
        17           Pd  tau(  17) = (  0.0000000  0.0000000  0.0000000  )

     number of k points=     1  Methfessel-Paxton smearing, width (Ry)=  0.0010
                       cart. coord. in units 2pi/alat
        k(    1) = (   0.0000000   0.0000000   0.0000000), wk =   2.0000000

                       cryst. coord.
        k(    1) = (   0.0000000   0.0000000   0.0000000), wk =   2.0000000

     Check: negative core charge=   -0.000003

     Initial potential from superposition of free atoms

     starting charge     217.9463, renormalised to     218.0000

     negative rho (up, down):  1.756E-01 0.000E+00
     Starting wfcs are  170 randomized atomic wfcs
     Checking if some PAW data can be deallocated...

     Self-consistent Calculation

     iteration #  1     ecut=    30.00 Ry     beta= 0.70
     Davidson diagonalization with overlap

     ethr =  1.00E-02,  avg # of iterations =  7.0

     total energy              =   -3941.53283165 Ry
     estimated scf accuracy    <       5.28502457 Ry

[...]

     total energy              =   -3943.97867181 Ry
     estimated scf accuracy    <       0.00001388 Ry

     iteration # 24     ecut=    30.00 Ry     beta= 0.70
     Davidson diagonalization with overlap

     ethr =  6.48E-10,  avg # of iterations =  1.0

     End of self-consistent calculation

          k = 0.0000 0.0000 0.0000 (  3026 PWs)   bands (ev):

   -76.0437 -43.3543 -42.6887 -41.5266 -37.1038 -34.2434 -32.7812 -26.1766
   -14.7729 -13.3799 -11.9861 -11.6456 -10.5251  -9.8998  -9.0394  -8.7843
    -8.7139  -8.1954  -7.7954  -7.0146  -5.4959  -5.4153  -5.3063  -5.2747
    -5.2551  -5.2403  -5.2027  -5.1964  -5.1330  -5.1192  -5.0989  -5.0906
    -5.0734  -5.0727  -5.0428  -5.0075  -4.9701  -4.9639  -4.9354  -4.9154
    -4.8707  -4.8627  -4.8306  -4.8293  -4.7862  -4.7640  -4.7466  -4.7173
    -4.7056  -4.6988  -4.6933  -4.6595  -4.6311  -4.6090  -4.5740  -4.5520
    -4.5226  -4.5114  -4.4390  -4.4140  -4.3872  -4.3735  -4.3406  -4.3183
    -4.2912  -4.2173  -4.1950  -4.1390  -4.0995  -4.0774  -4.0264  -3.9007
    -3.8474  -3.8190  -3.8115  -3.6622  -3.5790  -3.4171  -3.3857  -2.9649
     1.2401   2.9607   3.1599   4.3985   4.8085   4.9635   5.0611   5.2382
     5.3573   5.4067   5.6137   5.9438   6.3619   6.8152   7.1770   7.7406
     8.4733   8.8988   8.9211   9.1352   9.7488   9.8482   9.9182  10.7958
    10.9937  11.1349  11.8276  12.3960  12.6816  12.6899  12.6926  12.7346
    12.8739  12.8793  12.9473  12.9951  13.0833  13.1269  13.5774  13.9096
    13.9888  14.2769  14.2933  14.4771  15.3544  15.4571  15.6354  15.6462
    15.7361  15.7782  15.8466

     occupation numbers
     1.0000   1.0000   1.0000   1.0000   1.0000   1.0000   1.0000   1.0000
     1.0000   1.0000   1.0000   1.0000   1.0000   1.0000   1.0000   1.0000
     1.0000   1.0000   1.0000   1.0000   1.0000   1.0000   1.0000   1.0000
     1.0000   1.0000   1.0000   1.0000   1.0000   1.0000   1.0000   1.0000
     1.0000   1.0000   1.0000   1.0000   1.0000   1.0000   1.0000   1.0000
     1.0000   1.0000   1.0000   1.0000   1.0000   1.0000   1.0000   1.0000
     1.0000   1.0000   1.0000   1.0000   1.0000   1.0000   1.0000   1.0000
     1.0000   1.0000   1.0000   1.0000   1.0000   1.0000   1.0000   1.0000
     1.0000   1.0000   1.0000   1.0000   1.0000   1.0000   1.0000   1.0000
     1.0000   1.0000   1.0000   1.0000   1.0000   1.0000   1.0000   1.0000
     1.0000   1.0000   1.0000   1.0000   1.0000   1.0000   1.0000   1.0000
     1.0000   1.0000   1.0000   1.0000   1.0000   1.0000   1.0000   1.0000
     1.0000   1.0000   1.0000   1.0000   1.0000   1.0000   1.0000   1.0000
     1.0000   1.0000   1.0000   1.0000   0.6960   0.2103   0.0938  -0.0000
    -0.0000  -0.0000  -0.0000  -0.0000  -0.0000  -0.0000  -0.0000  -0.0000
    -0.0000  -0.0000  -0.0000  -0.0000  -0.0000  -0.0000  -0.0000  -0.0000
    -0.0000  -0.0000  -0.0000

     the Fermi energy is    12.6849 ev

!    total energy              =   -3943.97867217 Ry
     estimated scf accuracy    <       0.00000020 Ry
     smearing contrib. (-TS)   =      -0.00048656 Ry
     internal energy E=F+TS    =   -3943.97818561 Ry

     The total energy is F=E-TS. E is the sum of the following terms:
     one-electron contribution =   -1290.94015342 Ry
     hartree contribution      =     830.94563473 Ry
     xc contribution           =    -569.78530497 Ry
     ewald contribution        =   -1585.92003556 Ry
     one-center paw contrib.   =   -1328.27832639 Ry
      -> PAW hartree energy AE =    1699.53428880 Ry
      -> PAW hartree energy PS =   -1670.10372757 Ry
      -> PAW xc energy AE      =   -1807.18097391 Ry
      -> PAW xc energy PS      =     449.47208629 Ry
      -> total E_H with PAW    =     860.37619596 Ry
      -> total E_XC with PAW   =   -1927.49419258 Ry

     convergence has been achieved in  24 iterations

     Forces acting on atoms (cartesian axes, Ry/au):

     atom    1 type  1   force =     0.00000000    0.00000000   -0.00000000
     atom    2 type  1   force =     0.00000000    0.00000000    0.00000000
     atom    3 type  1   force =     0.00000000    0.00000000    0.00000000
     atom    4 type  1   force =     0.00000000    0.00000000    0.00000000
     atom    5 type  2   force =     0.00597574   -0.03226856    0.00968725
     atom    6 type  2   force =    -0.00597574    0.03226856    0.00968725
     atom    7 type  2   force =     0.00597574   -0.03226856   -0.00968725
     atom    8 type  2   force =     0.00000000    0.00000000    0.05594050
     atom    9 type  2   force =     0.00000000    0.00000000   -0.05594050
     atom   10 type  2   force =    -0.00597574    0.03226856   -0.00968725
     atom   11 type  2   force =    -0.01969914   -0.00046010    0.02209331
     atom   12 type  2   force =     0.01969914    0.00046010    0.02209331
     atom   13 type  2   force =    -0.01969914   -0.00046010   -0.02209331
     atom   14 type  2   force =    -0.04288631    0.02826084    0.00000000
     atom   15 type  2   force =     0.04288631   -0.02826084   -0.00000000
     atom   16 type  2   force =     0.01969914    0.00046010   -0.02209331
     atom   17 type  3   force =     0.00000000    0.00000000   -0.00000000
     The non-local contrib.  to forces
     atom    1 type  1   force =    -0.00000000   -0.00000000   -0.00000000
     atom    2 type  1   force =     0.00000000    0.00000000   -0.00000000
     atom    3 type  1   force =     0.00000000    0.00000000    0.00000000
     atom    4 type  1   force =     0.00000000    0.00000000    0.00000000
     atom    5 type  2   force =    -0.01542864   -0.03918500    0.00738226
     atom    6 type  2   force =     0.01542864    0.03918500    0.00738226
     atom    7 type  2   force =    -0.01542864   -0.03918500   -0.00738226
     atom    8 type  2   force =     0.00000000    0.00000000   -0.24657841
     atom    9 type  2   force =     0.00000000    0.00000000    0.24657841
     atom   10 type  2   force =     0.01542864    0.03918500   -0.00738226
     atom   11 type  2   force =     0.06574974   -0.16862916    0.21690885
     atom   12 type  2   force =    -0.06574974    0.16862916    0.21690885
     atom   13 type  2   force =     0.06574974   -0.16862916   -0.21690885
     atom   14 type  2   force =     0.08755494    0.04172295   -0.00000000
     atom   15 type  2   force =    -0.08755494   -0.04172295    0.00000000
     atom   16 type  2   force =    -0.06574974    0.16862916   -0.21690885
     atom   17 type  3   force =     0.00000000    0.00000000   -0.00000000
     The ionic contribution  to forces
     atom    1 type  1   force =     0.00000000   -0.00000000   -0.00000000
     atom    2 type  1   force =     0.00000000   -0.00000000   -0.00000000
     atom    3 type  1   force =    -0.00000000    0.00000000    0.00000000
     atom    4 type  1   force =     0.00000000   -0.00000000   -0.00000000
     atom    5 type  2   force =    -0.00000000    0.00000000    0.00000000
     atom    6 type  2   force =    -0.00000000   -0.00000000    0.00000000
     atom    7 type  2   force =    -0.00000000    0.00000000   -0.00000000
     atom    8 type  2   force =    -0.00000000    0.00000000    0.00000000
     atom    9 type  2   force =    -0.00000000   -0.00000000   -0.00000000
     atom   10 type  2   force =     0.00000000   -0.00000000   -0.00000000
     atom   11 type  2   force =     0.59022382   -0.41735127    0.72287360
     atom   12 type  2   force =    -0.59022382    0.41735127    0.72287360
     atom   13 type  2   force =     0.59022382   -0.41735127   -0.72287360
     atom   14 type  2   force =     0.59022382    0.83470254    0.00000000
     atom   15 type  2   force =    -0.59022382   -0.83470254   -0.00000000
     atom   16 type  2   force =    -0.59022382    0.41735127   -0.72287360
     atom   17 type  3   force =     0.00000000    0.00000000    0.00000000
     The local contribution  to forces
     atom    1 type  1   force =    -0.00011020   -0.00006994   -0.00028718
     atom    2 type  1   force =     0.00002032    0.00016098    0.00014181
     atom    3 type  1   force =    -0.00025624    0.00007491    0.00008300
     atom    4 type  1   force =     0.00019013    0.00002346    0.00007743
     atom    5 type  2   force =     0.05865013    0.04403122   -0.01725942
     atom    6 type  2   force =     0.00319617    0.02514182    0.02408945
     atom    7 type  2   force =    -0.00360077   -0.02511073   -0.02459060
     atom    8 type  2   force =    -0.07023321   -0.21439233    0.28576553
     atom    9 type  2   force =     0.07028176    0.21401604   -0.28572711
     atom   10 type  2   force =    -0.05883644   -0.04431638    0.01706308
     atom   11 type  2   force =    -0.78862335    0.61815003   -1.04587953
     atom   12 type  2   force =     0.56124766   -0.53295658   -0.77408717
     atom   13 type  2   force =    -0.56095606    0.53338474    0.77428342
     atom   14 type  2   force =    -0.71633159   -0.84978635   -0.10704685
     atom   15 type  2   force =     0.71623769    0.84972989    0.10716611
     atom   16 type  2   force =     0.78848504   -0.61757017    1.04552298
     atom   17 type  3   force =     0.00056344    0.00088411    0.00028774
     The core correction contribution to forces
     atom    1 type  1   force =    -0.00000158    0.00000395    0.00000023
     atom    2 type  1   force =     0.00000120    0.00000071   -0.00000023
     atom    3 type  1   force =    -0.00000164   -0.00000168    0.00000111
     atom    4 type  1   force =    -0.00000210    0.00000603    0.00000584
     atom    5 type  2   force =    -0.00240226   -0.00411943   -0.00027884
     atom    6 type  2   force =     0.00943556    0.00088769   -0.00228728
     atom    7 type  2   force =    -0.00943668   -0.00087887    0.00228029
     atom    8 type  2   force =    -0.00473839   -0.00238301    0.01715990
     atom    9 type  2   force =     0.00473820    0.00237528   -0.01715236
     atom   10 type  2   force =     0.00240052    0.00412207    0.00027446
     atom   11 type  2   force =    -0.00014653    0.00560661   -0.00847554
     atom   12 type  2   force =     0.00211100   -0.01425988   -0.00777942
     atom   13 type  2   force =    -0.00211116    0.01427108    0.00777897
     atom   14 type  2   force =    -0.00504676    0.00116292   -0.00598563
     atom   15 type  2   force =     0.00504850   -0.00116464    0.00598752
     atom   16 type  2   force =     0.00013916   -0.00559584    0.00846593
     atom   17 type  3   force =     0.00000000    0.00000000    0.00000000
     The Hubbard contrib.    to forces
     atom    1 type  1   force =     0.00000000    0.00000000    0.00000000
     atom    2 type  1   force =     0.00000000    0.00000000    0.00000000
     atom    3 type  1   force =     0.00000000    0.00000000    0.00000000
     atom    4 type  1   force =     0.00000000    0.00000000    0.00000000
     atom    5 type  2   force =     0.00000000    0.00000000    0.00000000
     atom    6 type  2   force =     0.00000000    0.00000000    0.00000000
     atom    7 type  2   force =     0.00000000    0.00000000    0.00000000
     atom    8 type  2   force =     0.00000000    0.00000000    0.00000000
     atom    9 type  2   force =     0.00000000    0.00000000    0.00000000
     atom   10 type  2   force =     0.00000000    0.00000000    0.00000000
     atom   11 type  2   force =     0.00000000    0.00000000    0.00000000
     atom   12 type  2   force =     0.00000000    0.00000000    0.00000000
     atom   13 type  2   force =     0.00000000    0.00000000    0.00000000
     atom   14 type  2   force =     0.00000000    0.00000000    0.00000000
     atom   15 type  2   force =     0.00000000    0.00000000    0.00000000
     atom   16 type  2   force =     0.00000000    0.00000000    0.00000000
     atom   17 type  3   force =     0.00000000    0.00000000    0.00000000
     The SCF correction term to forces
     atom    1 type  1   force =     0.00009738    0.00007623    0.00024215
     atom    2 type  1   force =    -0.00002928   -0.00013151   -0.00014214
     atom    3 type  1   force =     0.00021594   -0.00006328   -0.00006858
     atom    4 type  1   force =    -0.00019123    0.00000440   -0.00005456
     atom    5 type  2   force =    -0.00053445    0.00005117   -0.00004971
     atom    6 type  2   force =     0.00027723    0.00010562    0.00033551
     atom    7 type  2   force =     0.00012893   -0.00010183    0.00009315
     atom    8 type  2   force =    -0.00026056    0.00029366   -0.00038089
     atom    9 type  2   force =     0.00021671   -0.00000288    0.00038619
     atom   10 type  2   force =     0.00071432    0.00026494    0.00020939
     atom   11 type  2   force =     0.00068677   -0.00029202    0.00090090
     atom   12 type  2   force =    -0.00006600   -0.00036115   -0.00010190
     atom   13 type  2   force =    -0.00022483    0.00001411   -0.00010067
     atom   14 type  2   force =     0.00071762    0.00046001    0.00000997
     atom   15 type  2   force =    -0.00061678   -0.00039935   -0.00008309
     atom   16 type  2   force =    -0.00060122   -0.00020314   -0.00061668
     atom   17 type  3   force =    -0.00048113   -0.00059424   -0.00018411

     Total force =     0.140440     Total SCF correction =     0.002471

     Computing stress (Cartesian axis) and pressure

          total   stress  (Ry/bohr**3)                   (kbar)     P=       79.22
  -0.00154997   0.00025331   0.00000000         -228.01       37.26        0.00
   0.00025331   0.00122214  -0.00000000           37.26      179.78       -0.00
   0.00000000  -0.00000000   0.00194341            0.00       -0.00      285.89

     kinetic stress (kbar)  15563.79    -10.72     -0.00
                              -10.72  15913.62     -0.00
                               -0.00     -0.00  16057.48

     local   stress (kbar)   2339.03     47.80    -36.76
                               47.80   2474.05    108.16
                              -36.76    108.16   2487.57

     nonloc. stress (kbar)   6820.70      1.75     -0.00
                                1.75   6672.45     -0.00
                               -0.00     -0.00   6690.40

     hartree stress (kbar)  18545.31     -4.35     32.20
                               -4.35  18598.70    -79.36
                               32.20    -79.36  18538.13

     exc-cor stress (kbar)   6948.44      0.02      0.51
                                0.02   6948.81     -1.04
                                0.51     -1.04   6947.39

     corecor stress (kbar) -15020.82      2.76      0.70
                                2.76 -15003.37     -1.22
                                0.70     -1.22 -15010.61

     ewald   stress (kbar) -35424.47     -0.00     -0.00
                               -0.00 -35424.47     -0.00
                               -0.00     -0.00 -35424.47

     hubbard stress (kbar)      0.00      0.00      0.00
                                0.00      0.00      0.00
                                0.00      0.00      0.00

     DFT-D   stress (kbar)      0.00      0.00      0.00
                                0.00      0.00      0.00
                                0.00      0.00      0.00

     XDM     stress (kbar)      0.00      0.00      0.00
                                0.00      0.00      0.00
                                0.00      0.00      0.00

     dft-nl  stress (kbar)      0.00      0.00      0.00
                                0.00      0.00      0.00
                                0.00      0.00      0.00

     TS-vdW  stress (kbar)      0.00      0.00      0.00
                                0.00      0.00      0.00
                                0.00      0.00      0.00

[...]

                                0.00      0.00      0.00

     Writing all to output data dir new_calculations/myprefix.save/

     General routines

     Parallel routines

     PAW routines

   This run was terminated on:   9:54:37  20May2023

   JOB DONE.