     Program PWSCF v.7.0 starts on 21May2023 at  0:50:16

     Reading input from espresso_2811.pwi
Warning: card &CELL ignored
Warning: card / ignored

     Current dimensions of program PWSCF are:
     Max number of different atomic species (ntypx) = 10
     Max number of k-points (npk) =  40000
     Max angular momentum in pseudopotentials (lmaxx) =  4
     file Cd.pbe-dn-rrkjus_psl.0.3.1.UPF: wavefunction(s)  4D renormalized

     gamma-point specific algorithms are used
     Message from routine setup:
     using ibrav=0 with symmetry is DISCOURAGED, use correct ibrav instead

     Subspace diagonalization in iterative solution of the eigenvalue problem:
     a serial algorithm will be used

     Using Slab Decomposition

     bravais-lattice index     =            0
     lattice parameter (alat)  =      14.5552  a.u.
     unit-cell volume          =     784.9155 (a.u.)^3
     number of atoms/cell      =            5
     number of atomic types    =            3
     number of electrons       =        70.00
     number of Kohn-Sham states=           42
     kinetic-energy cutoff     =      30.0000  Ry
     charge density cutoff     =     240.0000  Ry
     scf convergence threshold =      1.0E-06
     mixing beta               =       0.7000
     number of iterations used =            8  plain     mixing
     Exchange-correlation=  SLA  PW   PBX  PBC
                           (   1   4   3   4   0   0   0)

     celldm(1)=  14.555180  celldm(2)=   0.000000  celldm(3)=   0.000000
     celldm(4)=   0.000000  celldm(5)=   0.000000  celldm(6)=   0.000000

     crystal axes: (cart. coord. in units of alat)
               a(1) = (   1.000000   0.000000   0.000000 )
               a(2) = (  -0.862023   0.506870   0.000000 )
               a(3) = (   0.000000   0.000000   0.502197 )

     reciprocal axes: (cart. coord. in units 2 pi/alat)
               b(1) = (  1.000000  1.700678  0.000000 )
               b(2) = (  0.000000  1.972893  0.000000 )
               b(3) = (  0.000000  0.000000  1.991252 )

     PseudoPot. # 1 for La read from file:
     /home/pragov/projects/rrg-bengioy-ad/pragov/crystal_structure_design/SSSP/La.GGA-PBE-paw-v1.0.UPF
     MD5 check sum: 436541e95c1ad8901025bd0b0ed42ae2
     Pseudo is Projector augmented-wave + core cor, Zval = 11.0
     Generated using ATOMPAW code
     Shape of augmentation charge: BESSEL
     Using radial grid of 1101 points,  8 beta functions with:
                l(1) =   0
                l(2) =   0
                l(3) =   1
                l(4) =   1
                l(5) =   2
                l(6) =   2
                l(7) =   3
                l(8) =   3
     Q(r) pseudized with 0 coefficients

     PseudoPot. # 2 for Cd read from file:
     /home/pragov/projects/rrg-bengioy-ad/pragov/crystal_structure_design/SSSP/Cd.pbe-dn-rrkjus_psl.0.3.1.UPF
     MD5 check sum: 558e9f355611b531a870a69ef6ace9e2
     Pseudo is Ultrasoft + core correction, Zval = 12.0
     Generated using "atomic" code by A. Dal Corso  v.5.0.99 svn rev. 10869
     Using radial grid of 1239 points,  6 beta functions with:
                l(1) =   0
                l(2) =   0
                l(3) =   1
                l(4) =   1
                l(5) =   2
                l(6) =   2
     Q(r) pseudized with 0 coefficients

     PseudoPot. # 3 for Ni read from file:
     /home/pragov/projects/rrg-bengioy-ad/pragov/crystal_structure_design/SSSP/ni_pbe_v1.4.uspp.F.UPF
     MD5 check sum: 1ee80287db30b12d2bc1f57a5b5d6409
     Pseudo is Ultrasoft + core correction, Zval = 18.0
     Generated by new atomic code, or converted to UPF format
     Using radial grid of  865 points,  6 beta functions with:
                l(1) =   0
                l(2) =   0
                l(3) =   1
                l(4) =   1
                l(5) =   2
                l(6) =   2
     Q(r) pseudized with 10 coefficients,  rinner =    0.980   0.980   0.980
                                                       0.980   0.980

     atomic species   valence    mass     pseudopotential
        La            11.00   138.90547     La( 1.00)
        Cd            12.00   112.41400     Cd( 1.00)
        Ni            18.00    58.69340     Ni( 1.00)

      4 Sym. Ops., with inversion, found

                                    s                        frac. trans.

      isym =  1     identity

 cryst.   s( 1) = (     1          0          0      )
                  (     0          1          0      )
                  (     0          0          1      )

 cart.    s( 1) = (  1.0000000 -0.0000000  0.0000000 )
                  (  0.0000000  1.0000000  0.0000000 )
                  (  0.0000000  0.0000000  1.0000000 )

      isym =  2     180 deg rotation - cart. axis [0,0,1]

[...]

      isym =  3     inversion

[...]

      isym =  4     inv. 180 deg rotation - cart. axis [0,0,1]

 cryst.   s( 4) = (     1          0          0      )
                  (     0          1          0      )
                  (     0          0         -1      )

 cart.    s( 4) = (  1.0000000 -0.0000000  0.0000000 )
                  (  0.0000000  1.0000000  0.0000000 )
                  (  0.0000000  0.0000000 -1.0000000 )

   Cartesian axes

     site n.     atom                  positions (alat units)
         1           La  tau(   1) = (   0.3256369   0.1835715   0.2510983  )
         2           La  tau(   2) = (  -0.1876595   0.3232983   0.2510983  )
         3           Cd  tau(   3) = (   0.0000000   0.0000000   0.0000000  )
         4           Ni  tau(   4) = (   0.6228213   0.1026736   0.0000000  )
         5           Ni  tau(   5) = (  -0.4848438   0.4041963   0.0000000  )

   Crystallographic axes

     site n.     atom                  positions (cryst. coord.)
         1           La  tau(   1) = (  0.6378330  0.3621670  0.5000000  )
         2           La  tau(   2) = (  0.3621670  0.6378330  0.5000000  )
         3           Cd  tau(   3) = (  0.0000000  0.0000000  0.0000000  )
         4           Ni  tau(   4) = (  0.7974360  0.2025640  0.0000000  )
         5           Ni  tau(   5) = (  0.2025640  0.7974360  0.0000000  )

     number of k points=     1  Methfessel-Paxton smearing, width (Ry)=  0.0010
                       cart. coord. in units 2pi/alat
        k(    1) = (   0.0000000   0.0000000   0.0000000), wk =   2.0000000

                       cryst. coord.
        k(    1) = (   0.0000000   0.0000000   0.0000000), wk =   2.0000000

     Check: negative core charge=   -0.000004

     Initial potential from superposition of free atoms

     starting charge      65.9781, renormalised to      70.0000
     Starting wfcs are   99 randomized atomic wfcs
     Checking if some PAW data can be deallocated...

     Self-consistent Calculation

     iteration #  1     ecut=    30.00 Ry     beta= 0.70
     Davidson diagonalization with overlap

     ethr =  1.00E-02,  avg # of iterations =  4.0

     total energy              =   -1664.77595095 Ry
     estimated scf accuracy    <      79.51996681 Ry

[...]

     total energy              =   -1725.28812982 Ry
     estimated scf accuracy    <       0.00000154 Ry

     iteration # 30     ecut=    30.00 Ry     beta= 0.70
     Davidson diagonalization with overlap

     ethr =  2.20E-09,  avg # of iterations =  2.0

     End of self-consistent calculation

          k = 0.0000 0.0000 0.0000 (  1094 PWs)   bands (ev):

   -90.7390 -90.7251 -51.4484 -51.4109 -51.2174 -51.1250 -50.6079 -50.5744
   -19.6514 -19.5929  -3.7393  -3.3279  -3.3073  -3.2433  -3.2358  -3.0659
     2.9379   3.1366   3.3030   3.3126   3.3429   6.3507   9.1947   9.3809
     9.8226   9.9664  10.0226  10.4521  10.6850  10.8739  10.9404  11.2435
    11.5978  11.9376  13.0467  13.3303  13.6668  14.1209  14.1384  14.1641
    14.7925  14.8858

     occupation numbers
     1.0000   1.0000   1.0000   1.0000   1.0000   1.0000   1.0000   1.0000
     1.0000   1.0000   1.0000   1.0000   1.0000   1.0000   1.0000   1.0000
     1.0000   1.0000   1.0000   1.0000   1.0000   1.0000   1.0000   1.0000
     1.0000   1.0000   1.0000   1.0000   1.0000   1.0000   1.0000   1.0000
     1.0000   1.0000   1.0000  -0.0000  -0.0000  -0.0000  -0.0000  -0.0000
    -0.0000  -0.0000

     the Fermi energy is    13.1604 ev

!    total energy              =   -1725.28812991 Ry
     estimated scf accuracy    <       0.00000017 Ry
     smearing contrib. (-TS)   =       0.00000000 Ry
     internal energy E=F+TS    =   -1725.28812991 Ry

     The total energy is F=E-TS. E is the sum of the following terms:
     one-electron contribution =    -713.46034050 Ry
     hartree contribution      =     399.43748946 Ry
     xc contribution           =    -131.49574145 Ry
     ewald contribution        =    -483.55256683 Ry
     one-center paw contrib.   =    -796.21697059 Ry
      -> PAW hartree energy AE =      71.45749712 Ry
      -> PAW hartree energy PS =     -71.55297942 Ry
      -> PAW xc energy AE      =    -810.91802916 Ry
      -> PAW xc energy PS      =      14.79654087 Ry
      -> total E_H with PAW    =     399.34200716 Ry
      -> total E_XC with PAW   =    -927.61722974 Ry

     convergence has been achieved in  30 iterations

     Forces acting on atoms (cartesian axes, Ry/au):

     atom    1 type  1   force =     0.05103300   -0.01390001    0.00000000
     atom    2 type  1   force =    -0.05103300    0.01390001    0.00000000
     atom    3 type  2   force =     0.00000000    0.00000000    0.00000000
     atom    4 type  3   force =     0.08511545   -0.02328170   -0.00000000
     atom    5 type  3   force =    -0.08511545    0.02328170   -0.00000000
     The non-local contrib.  to forces
     atom    1 type  1   force =    -0.04180543    0.01139161    0.00000000
     atom    2 type  1   force =     0.04180543   -0.01139161    0.00000000
     atom    3 type  2   force =     0.00000000    0.00000000    0.00000000
     atom    4 type  3   force =    -0.13695573    0.03726276    0.00000000
     atom    5 type  3   force =     0.13695573   -0.03726276    0.00000000
     The ionic contribution  to forces
     atom    1 type  1   force =   -21.26566372    5.78882547    0.00000000
     atom    2 type  1   force =    21.26566372   -5.78882547    0.00000000
     atom    3 type  2   force =    -0.00000000    0.00000000    0.00000000
     atom    4 type  3   force =    24.89568622   -6.77697082   -0.00000000
     atom    5 type  3   force =   -24.89568622    6.77697082    0.00000000
     The local contribution  to forces
     atom    1 type  1   force =    21.35840952   -5.81408404   -0.00006251
     atom    2 type  1   force =   -21.35827900    5.81405152    0.00006344
     atom    3 type  2   force =    -0.00001465   -0.00000035   -0.00005618
     atom    4 type  3   force =   -24.67903307    6.71789684    0.00011605
     atom    5 type  3   force =    24.67884067   -6.71797165   -0.00008874
     The core correction contribution to forces
     atom    1 type  1   force =    -0.00006999    0.00001903   -0.00000004
     atom    2 type  1   force =     0.00007006   -0.00001907    0.00000006
     atom    3 type  2   force =    -0.00000352    0.00000163   -0.00000298
     atom    4 type  3   force =     0.00532812   -0.00144807   -0.00000084
     atom    5 type  3   force =    -0.00533219    0.00145023    0.00000012
     The Hubbard contrib.    to forces
     atom    1 type  1   force =     0.00000000    0.00000000    0.00000000
     atom    2 type  1   force =     0.00000000    0.00000000    0.00000000
     atom    3 type  2   force =     0.00000000    0.00000000    0.00000000
     atom    4 type  3   force =     0.00000000    0.00000000    0.00000000
     atom    5 type  3   force =     0.00000000    0.00000000    0.00000000
     The SCF correction term to forces
     atom    1 type  1   force =     0.00015970   -0.00004832   -0.00000420
     atom    2 type  1   force =    -0.00029615    0.00008839   -0.00001759
     atom    3 type  2   force =     0.00009421   -0.00003235    0.00004884
     atom    4 type  3   force =     0.00002134    0.00003870   -0.00006819
     atom    5 type  3   force =     0.00003798    0.00015617    0.00023478

     Total force =     0.145494     Total SCF correction =     0.000473

     Computing stress (Cartesian axis) and pressure

          total   stress  (Ry/bohr**3)                   (kbar)     P=     -444.16
  -0.00237261  -0.00031111   0.00000000         -349.02      -45.77        0.00
  -0.00031111  -0.00343053   0.00000000          -45.77     -504.65        0.00
   0.00000000   0.00000000  -0.00325485            0.00        0.00     -478.81

     kinetic stress (kbar)  21777.83   -151.06      0.00
                             -151.06  21264.01      0.00
                                0.00      0.00  21213.81

     local   stress (kbar)   4585.52 -13002.57      0.03
                           -13002.57 -39640.71      0.00
                                0.03      0.00 -18858.83

     nonloc. stress (kbar)   8183.42   -120.66      0.00
                             -120.66   7773.00      0.00
                                0.00      0.00   7535.49

     hartree stress (kbar)  13957.12   6244.84     -0.02
                             6244.84  35197.94     -0.00
                               -0.02     -0.00  25705.59

     exc-cor stress (kbar)   -942.02     -1.20     -0.00
                               -1.20   -946.10     -0.00
                               -0.00     -0.00   -947.59

     corecor stress (kbar)  -5528.20      2.18     -0.00
                                2.18  -5520.77     -0.00
                               -0.00     -0.00  -5516.88

     ewald   stress (kbar) -42382.69   6982.71     -0.00
                             6982.71 -18632.02     -0.00
                               -0.00     -0.00 -29610.39

     hubbard stress (kbar)      0.00      0.00      0.00
                                0.00      0.00      0.00
                                0.00      0.00      0.00

     DFT-D   stress (kbar)      0.00      0.00      0.00
                                0.00      0.00      0.00
                                0.00      0.00      0.00

     XDM     stress (kbar)      0.00      0.00      0.00
                                0.00      0.00      0.00
                                0.00      0.00      0.00

     dft-nl  stress (kbar)      0.00      0.00      0.00
                                0.00      0.00      0.00
                                0.00      0.00      0.00

     TS-vdW  stress (kbar)      0.00      0.00      0.00
                                0.00      0.00      0.00
                                0.00      0.00      0.00

[...]

                                0.00      0.00      0.00

     Writing all to output data dir new_calculations/myprefix.save/

     General routines

     Parallel routines

     PAW routines

   This run was terminated on:   0:51:23  21May2023

   JOB DONE.