     Program PWSCF v.7.0 starts on 20May2023 at 18:31:50

     Reading input from espresso_7590.pwi
Warning: card &CELL ignored
Warning: card / ignored

     Current dimensions of program PWSCF are:
     Max number of different atomic species (ntypx) = 10
     Max number of k-points (npk) =  40000
     Max angular momentum in pseudopotentials (lmaxx) =  4

     gamma-point specific algorithms are used
     Message from routine setup:
     using ibrav=0 with symmetry is DISCOURAGED, use correct ibrav instead

     Subspace diagonalization in iterative solution of the eigenvalue problem:
     a serial algorithm will be used

     Using Slab Decomposition

     bravais-lattice index     =            0
     lattice parameter (alat)  =      10.3721  a.u.
     unit-cell volume          =     719.8962 (a.u.)^3
     number of atoms/cell      =           13
     number of atomic types    =            2
     number of electrons       =        62.00
     number of Kohn-Sham states=           37
     kinetic-energy cutoff     =      30.0000  Ry
     charge density cutoff     =     240.0000  Ry
     scf convergence threshold =      1.0E-06
     mixing beta               =       0.7000
     number of iterations used =            8  plain     mixing
     Exchange-correlation=  SLA  PW   PBX  PBC
                           (   1   4   3   4   0   0   0)

     celldm(1)=  10.372060  celldm(2)=   0.000000  celldm(3)=   0.000000
     celldm(4)=   0.000000  celldm(5)=   0.000000  celldm(6)=   0.000000

     crystal axes: (cart. coord. in units of alat)
               a(1) = (   1.000000   0.000000   0.000000 )
               a(2) = (  -0.717918   0.696127   0.000000 )
               a(3) = (  -0.141041  -0.348064   0.926801 )

     reciprocal axes: (cart. coord. in units 2 pi/alat)
               b(1) = (  1.000000  1.031304  0.539490 )
               b(2) = (  0.000000  1.436519  0.539490 )
               b(3) = (  0.000000  0.000000  1.078981 )

     PseudoPot. # 1 for Be read from file:
     /home/pragov/projects/rrg-bengioy-ad/pragov/crystal_structure_design/SSSP/be_pbe_v1.4.uspp.F.UPF
     MD5 check sum: 5ecff1440924c7c98ad504bef30f5264
     Pseudo is Ultrasoft, Zval =  4.0
     Generated by new atomic code, or converted to UPF format
     Using radial grid of  769 points,  6 beta functions with:
                l(1) =   0
                l(2) =   0
                l(3) =   0
                l(4) =   1
                l(5) =   1
                l(6) =   2
     Q(r) pseudized with 10 coefficients,  rinner =    1.000   1.000   1.000
                                                       1.000   1.000

     PseudoPot. # 2 for Cr read from file:
     /home/pragov/projects/rrg-bengioy-ad/pragov/crystal_structure_design/SSSP/cr_pbe_v1.5.uspp.F.UPF
     MD5 check sum: 0d52af634a40206e4dee301ad30da4bf
     Pseudo is Ultrasoft + core correction, Zval = 14.0
     Generated by new atomic code, or converted to UPF format
     Using radial grid of  857 points,  6 beta functions with:
                l(1) =   0
                l(2) =   0
                l(3) =   1
                l(4) =   1
                l(5) =   2
                l(6) =   2
     Q(r) pseudized with  8 coefficients,  rinner =    0.950   0.950   0.950
                                                       0.950   0.950

     atomic species   valence    mass     pseudopotential
        Be             4.00     9.01218     Be( 1.00)
        Cr            14.00    51.99610     Cr( 1.00)

      4 Sym. Ops., with inversion, found

                                    s                        frac. trans.

      isym =  1     identity

 cryst.   s( 1) = (     1          0          0      )
                  (     0          1          0      )
                  (     0          0          1      )

 cart.    s( 1) = (  1.0000000 -0.0000000  0.0000000 )
                  (  0.0000000  1.0000000 -0.0000000 )
                  (  0.0000000  0.0000000  1.0000000 )

      isym =  2     180 deg rotation - cart. axis [0,0,1]

[...]

      isym =  3     inversion

[...]

      isym =  4     inv. 180 deg rotation - cart. axis [0,0,1]

 cryst.   s( 4) = (     1          0          0      )
                  (     0          1          0      )
                  (    -1         -1         -1      )

 cart.    s( 4) = (  1.0000000 -0.0000000  0.0000000 )
                  (  0.0000000  1.0000000  0.0000000 )
                  (  0.0000000  0.0000000 -1.0000000 )

   Cartesian axes

     site n.     atom                  positions (alat units)
         1           Be  tau(   1) = (  -0.1814861   0.0735410   0.7309806  )
         2           Be  tau(   2) = (   0.5000000   0.0000000   0.0000000  )
         3           Be  tau(   3) = (  -0.0705204  -0.1740318   0.4634003  )
         4           Be  tau(   4) = (   0.0705204   0.1740318   0.4634003  )
         5           Be  tau(   5) = (   0.6410408   0.3480636   0.0000000  )
         6           Be  tau(   6) = (   0.5599109  -0.2268846   0.6041331  )
         7           Be  tau(   7) = (   0.7009516   0.1211790   0.3226675  )
         8           Be  tau(   8) = (  -0.5599109   0.2268846   0.6041331  )
         9           Be  tau(   9) = (   0.2990484  -0.1211790   0.3226675  )
        10           Be  tau(  10) = (   0.3225268   0.2745226   0.1958200  )
        11           Be  tau(  11) = (   0.1814861  -0.0735410   0.7309806  )
        12           Be  tau(  12) = (  -0.0404453   0.4216046   0.1958200  )
        13           Cr  tau(  13) = (   0.0000000   0.0000000   0.0000000  )

   Crystallographic axes

     site n.     atom                  positions (cryst. coord.)
         1           Be  tau(   1) = (  0.2887140  0.5000000  0.7887140  )
         2           Be  tau(   2) = (  0.5000000  0.0000000  0.0000000  )
         3           Be  tau(   3) = ( -0.0000000 -0.0000000  0.5000000  )
         4           Be  tau(   4) = (  0.5000000  0.5000000  0.5000000  )
         5           Be  tau(   5) = (  1.0000000  0.5000000  0.0000000  )
         6           Be  tau(   6) = (  0.6518480  0.0000000  0.6518480  )
         7           Be  tau(   7) = (  1.0000000  0.3481520  0.3481520  )
         8           Be  tau(   8) = (  0.0000000  0.6518480  0.6518480  )
         9           Be  tau(   9) = (  0.3481520 -0.0000000  0.3481520  )
        10           Be  tau(  10) = (  0.7112860  0.5000000  0.2112860  )
        11           Be  tau(  11) = (  0.5000000  0.2887140  0.7887140  )
        12           Be  tau(  12) = (  0.5000000  0.7112860  0.2112860  )
        13           Cr  tau(  13) = (  0.0000000  0.0000000  0.0000000  )

     number of k points=     1  Methfessel-Paxton smearing, width (Ry)=  0.0010
                       cart. coord. in units 2pi/alat
        k(    1) = (   0.0000000   0.0000000   0.0000000), wk =   2.0000000

                       cryst. coord.
        k(    1) = (   0.0000000   0.0000000   0.0000000), wk =   2.0000000

     Check: negative core charge=   -0.000005

     Initial potential from superposition of free atoms

     starting charge      60.9981, renormalised to      62.0000

     negative rho (up, down):  1.471E-03 0.000E+00
     Starting wfcs are   70 randomized atomic wfcs

     Self-consistent Calculation

     iteration #  1     ecut=    30.00 Ry     beta= 0.70
     Davidson diagonalization with overlap

     ethr =  1.00E-02,  avg # of iterations =  2.0

     negative rho (up, down):  2.057E-03 0.000E+00

     total energy              =    -513.89827708 Ry
     estimated scf accuracy    <       1.03881054 Ry

[...]

     total energy              =    -514.44265117 Ry
     estimated scf accuracy    <       0.00000248 Ry

     iteration # 10     ecut=    30.00 Ry     beta= 0.70
     Davidson diagonalization with overlap

     ethr =  4.00E-09,  avg # of iterations =  2.0

[...]

     End of self-consistent calculation

          k = 0.0000 0.0000 0.0000 (   990 PWs)   bands (ev):

   -90.5909 -90.5795 -90.5794 -90.5782 -89.7386 -89.7285 -89.7284 -89.7127
   -89.0637 -89.0602 -89.0421 -89.0418 -63.6903 -35.1463 -35.1463 -34.5236
    -1.2431   2.4940   3.1397   3.1398   3.4481   5.9729   6.0260   6.0261
     6.6073   6.6277   6.6277   6.6366   6.6367   6.7051   7.8107   8.4536
     8.7159  10.2201  10.2201  11.3206  12.7334

     occupation numbers
     1.0000   1.0000   1.0000   1.0000   1.0000   1.0000   1.0000   1.0000
     1.0000   1.0000   1.0000   1.0000   1.0000   1.0000   1.0000   1.0000
     1.0000   1.0000   1.0000   1.0000   1.0000   1.0000   1.0000   1.0000
     1.0000   1.0000   1.0000   1.0000   1.0000   1.0000   1.0000  -0.0000
    -0.0000  -0.0000  -0.0000  -0.0000  -0.0000

     the Fermi energy is     8.0134 ev

!    total energy              =    -514.44265102 Ry
     estimated scf accuracy    <       0.00000054 Ry
     smearing contrib. (-TS)   =       0.00000000 Ry
     internal energy E=F+TS    =    -514.44265102 Ry

     The total energy is F=E-TS. E is the sum of the following terms:
     one-electron contribution =    -285.37370678 Ry
     hartree contribution      =     109.43776441 Ry
     xc contribution           =     -83.51265413 Ry
     ewald contribution        =    -254.99405452 Ry

     convergence has been achieved in  10 iterations

     negative rho (up, down):  1.614E-03 0.000E+00

     Forces acting on atoms (cartesian axes, Ry/au):

     atom    1 type  1   force =     0.01697288   -0.00687826    0.01828540
     atom    2 type  1   force =     0.00000000    0.00000000    0.00000000
     atom    3 type  1   force =     0.00000000    0.00000000    0.00000000
     atom    4 type  1   force =     0.00000000   -0.00000000   -0.00000000
     atom    5 type  1   force =     0.00000000    0.00000000   -0.00000000
     atom    6 type  1   force =     0.04186374   -0.01696371    0.04515114
     atom    7 type  1   force =     0.04186374   -0.01696371   -0.04515114
     atom    8 type  1   force =    -0.04186374    0.01696371    0.04515114
     atom    9 type  1   force =    -0.04186374    0.01696371   -0.04515114
     atom   10 type  1   force =    -0.01697288    0.00687826   -0.01828540
     atom   11 type  1   force =    -0.01697288    0.00687826    0.01828540
     atom   12 type  1   force =     0.01697288   -0.00687826   -0.01828540
     atom   13 type  2   force =     0.00000000    0.00000000    0.00000000
     The non-local contrib.  to forces
     atom    1 type  1   force =    -0.07614916    0.03085773   -0.08217766
     atom    2 type  1   force =     0.00000000    0.00000000   -0.00000000
     atom    3 type  1   force =    -0.00000000   -0.00000000   -0.00000000
     atom    4 type  1   force =     0.00000000    0.00000000   -0.00000000
     atom    5 type  1   force =     0.00000000    0.00000000    0.00000000
     atom    6 type  1   force =    -0.11301391    0.04579589   -0.12195028
     atom    7 type  1   force =    -0.11301391    0.04579589    0.12195028
     atom    8 type  1   force =     0.11301391   -0.04579589   -0.12195028
     atom    9 type  1   force =     0.11301391   -0.04579589    0.12195028
     atom   10 type  1   force =     0.07614916   -0.03085773    0.08217766
     atom   11 type  1   force =     0.07614916   -0.03085773   -0.08217766
     atom   12 type  1   force =    -0.07614916    0.03085773    0.08217766
     atom   13 type  2   force =     0.00000000    0.00000000    0.00000000
     The ionic contribution  to forces
     atom    1 type  1   force =    -1.30947998    0.53062158   -1.41290378
     atom    2 type  1   force =    -0.00000000    0.00000000   -0.00000000
     atom    3 type  1   force =    -0.00000000   -0.00000000    0.00000000
     atom    4 type  1   force =     0.00000000    0.00000000   -0.00000000
     atom    5 type  1   force =     0.00000000   -0.00000000   -0.00000000
     atom    6 type  1   force =    -1.49496331    0.60578230   -1.61303673
     atom    7 type  1   force =    -1.49496331    0.60578230    1.61303674
     atom    8 type  1   force =     1.49496331   -0.60578230   -1.61303674
     atom    9 type  1   force =     1.49496331   -0.60578230    1.61303674
     atom   10 type  1   force =     1.30947998   -0.53062158    1.41290378
     atom   11 type  1   force =     1.30947998   -0.53062158   -1.41290378
     atom   12 type  1   force =    -1.30947998    0.53062158    1.41290378
     atom   13 type  2   force =    -0.00000000    0.00000000   -0.00000000
     The local contribution  to forces
     atom    1 type  1   force =     1.40211738   -0.56816012    1.51293261
     atom    2 type  1   force =     0.00000737   -0.00000390    0.00017141
     atom    3 type  1   force =    -0.00002110   -0.00001747   -0.00011079
     atom    4 type  1   force =    -0.00000228    0.00002692   -0.00011158
     atom    5 type  1   force =     0.00000692   -0.00000227    0.00017315
     atom    6 type  1   force =     1.64941801   -0.66836834    1.77960973
     atom    7 type  1   force =     1.64937823   -0.66835468   -1.77980665
     atom    8 type  1   force =    -1.64940883    0.66836749    1.77961924
     atom    9 type  1   force =    -1.64935905    0.66834328   -1.77980159
     atom   10 type  1   force =    -1.40206417    0.56814027   -1.51285460
     atom   11 type  1   force =    -1.40212036    0.56816004    1.51293641
     atom   12 type  1   force =     1.40205702   -0.56813459   -1.51284700
     atom   13 type  2   force =    -0.00004085    0.00001774    0.00043862
     The core correction contribution to forces
     atom    1 type  1   force =     0.00000000    0.00000000    0.00000000
     atom    2 type  1   force =     0.00000000    0.00000000    0.00000000
     atom    3 type  1   force =     0.00000000    0.00000000    0.00000000
     atom    4 type  1   force =     0.00000000    0.00000000    0.00000000
     atom    5 type  1   force =     0.00000000    0.00000000    0.00000000
     atom    6 type  1   force =     0.00000000    0.00000000    0.00000000
     atom    7 type  1   force =     0.00000000    0.00000000    0.00000000
     atom    8 type  1   force =     0.00000000    0.00000000    0.00000000
     atom    9 type  1   force =     0.00000000    0.00000000    0.00000000
     atom   10 type  1   force =     0.00000000    0.00000000    0.00000000
     atom   11 type  1   force =     0.00000000    0.00000000    0.00000000
     atom   12 type  1   force =     0.00000000    0.00000000    0.00000000
     atom   13 type  2   force =    -0.00000056    0.00000021    0.00000483
     The Hubbard contrib.    to forces
     atom    1 type  1   force =     0.00000000    0.00000000    0.00000000
     atom    2 type  1   force =     0.00000000    0.00000000    0.00000000
     atom    3 type  1   force =     0.00000000    0.00000000    0.00000000
     atom    4 type  1   force =     0.00000000    0.00000000    0.00000000
     atom    5 type  1   force =     0.00000000    0.00000000    0.00000000
     atom    6 type  1   force =     0.00000000    0.00000000    0.00000000
     atom    7 type  1   force =     0.00000000    0.00000000    0.00000000
     atom    8 type  1   force =     0.00000000    0.00000000    0.00000000
     atom    9 type  1   force =     0.00000000    0.00000000    0.00000000
     atom   10 type  1   force =     0.00000000    0.00000000    0.00000000
     atom   11 type  1   force =     0.00000000    0.00000000    0.00000000
     atom   12 type  1   force =     0.00000000    0.00000000    0.00000000
     atom   13 type  2   force =     0.00000000    0.00000000    0.00000000
     The SCF correction term to forces
     atom    1 type  1   force =     0.00048928   -0.00019988    0.00043530
     atom    2 type  1   force =    -0.00000678    0.00000429   -0.00018133
     atom    3 type  1   force =     0.00002356    0.00001877    0.00012654
     atom    4 type  1   force =     0.00000447   -0.00003111    0.00012689
     atom    5 type  1   force =    -0.00000626    0.00000393   -0.00018347
     atom    6 type  1   force =     0.00042514   -0.00017786    0.00053458
     atom    7 type  1   force =     0.00045773   -0.00018164   -0.00032371
     atom    8 type  1   force =    -0.00043639    0.00017701    0.00052555
     atom    9 type  1   force =    -0.00048047    0.00019732   -0.00033157
     atom   10 type  1   force =    -0.00053429    0.00021542   -0.00051506
     atom   11 type  1   force =    -0.00048611    0.00019929    0.00042749
     atom   12 type  1   force =     0.00053943   -0.00022067   -0.00051886
     atom   13 type  2   force =     0.00004702   -0.00002157   -0.00046671

     Total force =     0.137822     Total SCF correction =     0.002044

     Computing stress (Cartesian axis) and pressure

     negative rho (up, down):  1.614E-03 0.000E+00
          total   stress  (Ry/bohr**3)                   (kbar)     P=     -219.58
  -0.00185599   0.00065766  -0.00000000         -273.03       96.74       -0.00
   0.00065766  -0.00049951  -0.00000000           96.74      -73.48       -0.00
  -0.00000000  -0.00000000  -0.00212250           -0.00       -0.00     -312.23

     kinetic stress (kbar)  11236.69    278.96      0.00
                              278.96  11812.07      0.00
                                0.00      0.00  11123.66

     local   stress (kbar)   4997.95  -1100.14      0.00
                            -1100.14   2728.79      0.00
                                0.00      0.00   5443.79

     nonloc. stress (kbar)   -673.27     23.53     -0.00
                               23.53   -624.74     -0.00
                               -0.00     -0.00   -682.81

     hartree stress (kbar)   7177.70    500.62     -0.00
                              500.62   8210.27     -0.00
                               -0.00     -0.00   6974.77

     exc-cor stress (kbar)  -4903.13      3.13     -0.00
                                3.13  -4896.67     -0.00
                               -0.00     -0.00  -4904.40

     corecor stress (kbar)   -523.78     -1.25     -0.00
                               -1.25   -526.35     -0.00
                               -0.00     -0.00   -523.27

     ewald   stress (kbar) -17585.18    391.90      0.00
                              391.90 -16776.85      0.00
                                0.00      0.00 -17743.98

     hubbard stress (kbar)      0.00      0.00      0.00
                                0.00      0.00      0.00
                                0.00      0.00      0.00

     DFT-D   stress (kbar)      0.00      0.00      0.00
                                0.00      0.00      0.00
                                0.00      0.00      0.00

     XDM     stress (kbar)      0.00      0.00      0.00
                                0.00      0.00      0.00
                                0.00      0.00      0.00

     dft-nl  stress (kbar)      0.00      0.00      0.00
                                0.00      0.00      0.00
                                0.00      0.00      0.00

     TS-vdW  stress (kbar)      0.00      0.00      0.00
                                0.00      0.00      0.00
                                0.00      0.00      0.00

[...]

                                0.00      0.00      0.00

     Writing all to output data dir new_calculations/myprefix.save/

     General routines

     Parallel routines

   This run was terminated on:  18:32: 3  20May2023

   JOB DONE.