     Program PWSCF v.7.0 starts on 20May2023 at  8:26:20

     Reading input from espresso_3300.pwi
Warning: card &CELL ignored
Warning: card / ignored

     Current dimensions of program PWSCF are:
     Max number of different atomic species (ntypx) = 10
     Max number of k-points (npk) =  40000
     Max angular momentum in pseudopotentials (lmaxx) =  4
     file Nb.pbe-spn-kjpaw_psl.0.3.0.UPF: wavefunction(s)  4S 4P renormalized

     gamma-point specific algorithms are used
     Message from routine setup:
     using ibrav=0 with symmetry is DISCOURAGED, use correct ibrav instead

     Subspace diagonalization in iterative solution of the eigenvalue problem:
     a serial algorithm will be used

     Using Slab Decomposition

     bravais-lattice index     =            0
     lattice parameter (alat)  =       8.6471  a.u.
     unit-cell volume          =     457.1849 (a.u.)^3
     number of atoms/cell      =            6
     number of atomic types    =            3
     number of electrons       =        41.00
     number of Kohn-Sham states=           25
     kinetic-energy cutoff     =      30.0000  Ry
     charge density cutoff     =     240.0000  Ry
     scf convergence threshold =      1.0E-06
     mixing beta               =       0.7000
     number of iterations used =            8  plain     mixing
     Exchange-correlation= SLA  PW   PBX  PBC
                           (   1   4   3   4   0   0   0)

     celldm(1)=   8.647070  celldm(2)=   0.000000  celldm(3)=   0.000000
     celldm(4)=   0.000000  celldm(5)=   0.000000  celldm(6)=   0.000000

     crystal axes: (cart. coord. in units of alat)
               a(1) = (   1.000000   0.000000   0.000000 )
               a(2) = (   0.500000   0.866025   0.000000 )
               a(3) = (   0.500000   0.288675   0.816497 )

     reciprocal axes: (cart. coord. in units 2 pi/alat)
               b(1) = (  1.000000 -0.577350 -0.408248 )
               b(2) = (  0.000000  1.154701 -0.408248 )
               b(3) = (  0.000000  0.000000  1.224745 )

     PseudoPot. # 1 for Ti read from file:
     /home/pragov/projects/rrg-bengioy-ad/pragov/crystal_structure_design/SSSP/ti_pbe_v1.4.uspp.F.UPF
     MD5 check sum: 88a00a6731bd790ddea75d31a80cb452
     Pseudo is Ultrasoft + core correction, Zval = 12.0
     Generated by new atomic code, or converted to UPF format
     Using radial grid of  851 points,  6 beta functions with:
                l(1) =   0
                l(2) =   0
                l(3) =   1
                l(4) =   1
                l(5) =   2
                l(6) =   2
     Q(r) pseudized with  6 coefficients,  rinner =    1.000   1.000   1.000
                                                       1.000   1.000

     PseudoPot. # 2 for Be read from file:
     /home/pragov/projects/rrg-bengioy-ad/pragov/crystal_structure_design/SSSP/be_pbe_v1.4.uspp.F.UPF
     MD5 check sum: 5ecff1440924c7c98ad504bef30f5264
     Pseudo is Ultrasoft, Zval =  4.0
     Generated by new atomic code, or converted to UPF format
     Using radial grid of  769 points,  6 beta functions with:
                l(1) =   0
                l(2) =   0
                l(3) =   0
                l(4) =   1
                l(5) =   1
                l(6) =   2
     Q(r) pseudized with 10 coefficients,  rinner =    1.000   1.000   1.000
                                                       1.000   1.000

     PseudoPot. # 3 for Nb read from file:
     /home/pragov/projects/rrg-bengioy-ad/pragov/crystal_structure_design/SSSP/Nb.pbe-spn-kjpaw_psl.0.3.0.UPF
     MD5 check sum: 411d72ad547312f8017e2943ceca08cc
     Pseudo is Projector augmented-wave + core cor, Zval = 13.0
     Generated using "atomic" code by A. Dal Corso  v.5.0.99 svn rev. 10869
     Shape of augmentation charge: PSQ
     Using radial grid of 1227 points,  6 beta functions with:
                l(1) =   0
                l(2) =   0
                l(3) =   1
                l(4) =   1
                l(5) =   2
                l(6) =   2
     Q(r) pseudized with 0 coefficients

     atomic species   valence    mass     pseudopotential
        Ti            12.00    47.86700     Ti( 1.00)
        Be             4.00     9.01218     Be( 1.00)
        Nb            13.00    92.90637     Nb( 1.00)

      6 Sym. Ops. (no inversion) found

                                    s                        frac. trans.

      isym =  1     identity

 cryst.   s( 1) = (     1          0          0      )
                  (     0          1          0      )
                  (     0          0          1      )

 cart.    s( 1) = (  1.0000000  0.0000000  0.0000000 )
                  (  0.0000000  1.0000000 -0.0000000 )
                  (  0.0000000  0.0000000  1.0000000 )

      isym =  2     120 deg rotation - cryst. axis [0,0,1]

[...]

      isym =  3     120 deg rotation - cryst. axis [0,0,-1]

[...]

      isym =  4     inv. 180 deg rotation - cart. axis [1,0,0]

[...]

      isym =  5     inv. 180 deg rotation - cryst. axis [0,1,0]

[...]

      isym =  6     inv. 180 deg rotation - cryst. axis [1,1,0]

 cryst.   s( 6) = (     1         -1          0      )
                  (     0         -1          0      )
                  (     0         -1          1      )

 cart.    s( 6) = (  0.5000000 -0.8660254 -0.0000000 )
                  ( -0.8660254 -0.5000000 -0.0000000 )
                  (  0.0000000  0.0000000  1.0000000 )

   Cartesian axes

     site n.     atom                  positions (alat units)
         1           Ti  tau(   1) = (   0.0000000   0.0000000   0.0000000  )
         2           Be  tau(   2) = (   0.9999995   0.5773500   0.1022744  )
         3           Be  tau(   3) = (   0.9999995   0.2888752   0.5102393  )
         4           Be  tau(   4) = (   0.7501730   0.7215874   0.5102393  )
         5           Be  tau(   5) = (   1.2498260   0.7215874   0.5102393  )
         6           Nb  tau(   6) = (   0.5000000   0.2886751   0.2041241  )

   Crystallographic axes

     site n.     atom                  positions (cryst. coord.)
         1           Ti  tau(   1) = (  0.0000000  0.0000000  0.0000000  )
         2           Be  tau(   2) = (  0.6249130  0.6249130  0.1252600  )
         3           Be  tau(   3) = (  0.6249130  0.1252600  0.6249130  )
         4           Be  tau(   4) = (  0.1252600  0.6249130  0.6249130  )
         5           Be  tau(   5) = (  0.6249130  0.6249130  0.6249130  )
         6           Nb  tau(   6) = (  0.2500000  0.2500000  0.2500000  )

     number of k points=     1  Methfessel-Paxton smearing, width (Ry)=  0.0010
                       cart. coord. in units 2pi/alat
        k(    1) = (   0.0000000   0.0000000   0.0000000), wk =   2.0000000

                       cryst. coord.
        k(    1) = (   0.0000000   0.0000000   0.0000000), wk =   2.0000000

     Check: negative core charge=   -0.000014

     Initial potential from superposition of free atoms

     starting charge      39.9972, renormalised to      41.0000

     negative rho (up, down):  1.145E-03 0.000E+00
     Starting wfcs are   40 randomized atomic wfcs
     Checking if some PAW data can be deallocated...

     Self-consistent Calculation

     iteration #  1     ecut=    30.00 Ry     beta= 0.70
     Davidson diagonalization with overlap

     ethr =  1.00E-02,  avg # of iterations =  2.0

     negative rho (up, down):  5.378E-04 0.000E+00

     total energy              =    -565.06357015 Ry
     estimated scf accuracy    <       2.45299076 Ry

[...]

     total energy              =    -566.62402502 Ry
     estimated scf accuracy    <       0.00000127 Ry

     iteration # 24     ecut=    30.00 Ry     beta= 0.70
     Davidson diagonalization with overlap

     ethr =  3.09E-09,  avg # of iterations =  1.0

[...]

     End of self-consistent calculation

          k = 0.0000 0.0000 0.0000 (   622 PWs)   bands (ev):

   -86.9082 -86.8709 -86.8707 -86.8706 -44.7831 -42.5264 -21.0921 -21.0921
   -21.0920 -18.6370 -18.6370 -18.6369   3.4301   9.2109   9.2109   9.5305
     9.5305   9.5305   9.5574  10.7187  10.7187  10.7187  14.7946  14.7946
    16.9170

     occupation numbers
     1.0000   1.0000   1.0000   1.0000   1.0000   1.0000   1.0000   1.0000
     1.0000   1.0000   1.0000   1.0000   1.0000   1.0000   1.0000   1.0000
     1.0000   1.0000   1.0000   0.5011   0.5002   0.4987  -0.0000  -0.0000
    -0.0000

     the Fermi energy is    10.7187 ev

!    total energy              =    -566.62402495 Ry
     estimated scf accuracy    <       0.00000024 Ry
     smearing contrib. (-TS)   =      -0.00084628 Ry
     internal energy E=F+TS    =    -566.62317867 Ry

     The total energy is F=E-TS. E is the sum of the following terms:
     one-electron contribution =    -127.70429694 Ry
     hartree contribution      =      62.34776729 Ry
     xc contribution           =     -67.29575371 Ry
     ewald contribution        =    -225.50311157 Ry
     one-center paw contrib.   =    -208.46778374 Ry
      -> PAW hartree energy AE =      69.90872274 Ry
      -> PAW hartree energy PS =     -69.54395709 Ry
      -> PAW xc energy AE      =    -235.95760040 Ry
      -> PAW xc energy PS      =      27.12505100 Ry
      -> total E_H with PAW    =      62.71253294 Ry
      -> total E_XC with PAW   =    -276.12830310 Ry

     convergence has been achieved in  24 iterations

     negative rho (up, down):  8.571E-04 0.000E+00

     Forces acting on atoms (cartesian axes, Ry/au):

     atom    1 type  1   force =     0.00000000    0.00000000    0.00008078
     atom    2 type  2   force =     0.00000000    0.00000000    0.02301786
     atom    3 type  2   force =     0.00000000    0.02165545   -0.00763705
     atom    4 type  2   force =     0.01875417   -0.01082772   -0.00763705
     atom    5 type  2   force =    -0.01875417   -0.01082772   -0.00763705
     atom    6 type  3   force =     0.00000000    0.00000000   -0.00018749
     The non-local contrib.  to forces
     atom    1 type  1   force =     0.00000000    0.00000000   -0.00009195
     atom    2 type  2   force =    -0.00000000   -0.00000000   -0.05572423
     atom    3 type  2   force =     0.00000000   -0.05258927    0.01867129
     atom    4 type  2   force =    -0.04554365    0.02629464    0.01867129
     atom    5 type  2   force =     0.04554365    0.02629464    0.01867129
     atom    6 type  3   force =     0.00000000    0.00000000    0.00044863
     The ionic contribution  to forces
     atom    1 type  1   force =    -0.00001521   -0.00000878   -0.00000621
     atom    2 type  2   force =     0.00001430    0.00000826   -0.07886366
     atom    3 type  2   force =     0.00001430   -0.07435062    0.02629567
     atom    4 type  2   force =    -0.06438238    0.03718770    0.02629567
     atom    5 type  2   force =     0.06438546    0.03717296    0.02628525
     atom    6 type  3   force =    -0.00001648   -0.00000951   -0.00000673
     The local contribution  to forces
     atom    1 type  1   force =     0.00002300   -0.00019769    0.00009236
     atom    2 type  2   force =    -0.00020048    0.00027910    0.15758992
     atom    3 type  2   force =     0.00011905    0.14863600   -0.05249436
     atom    4 type  2   force =     0.12866847   -0.07413058   -0.05285607
     atom    5 type  2   force =    -0.12868260   -0.07427710   -0.05256569
     atom    6 type  3   force =     0.00001357    0.00052602   -0.00036087
     The core correction contribution to forces
     atom    1 type  1   force =     0.00000304   -0.00002782    0.00002199
     atom    2 type  2   force =     0.00000000    0.00000000    0.00000000
     atom    3 type  2   force =     0.00000000    0.00000000    0.00000000
     atom    4 type  2   force =     0.00000000    0.00000000    0.00000000
     atom    5 type  2   force =     0.00000000    0.00000000    0.00000000
     atom    6 type  3   force =    -0.00000619    0.00006381   -0.00004541
     The Hubbard contrib.    to forces
     atom    1 type  1   force =     0.00000000    0.00000000    0.00000000
     atom    2 type  2   force =     0.00000000    0.00000000    0.00000000
     atom    3 type  2   force =     0.00000000    0.00000000    0.00000000
     atom    4 type  2   force =     0.00000000    0.00000000    0.00000000
     atom    5 type  2   force =     0.00000000    0.00000000    0.00000000
     atom    6 type  3   force =     0.00000000    0.00000000    0.00000000
     The SCF correction term to forces
     atom    1 type  1   force =     0.00001307    0.00000003    0.00007296
     atom    2 type  2   force =     0.00012097   -0.00018492    0.00002421
     atom    3 type  2   force =    -0.00008569   -0.00000311   -0.00005321
     atom    4 type  2   force =     0.00000594   -0.00011406    0.00019153
     atom    5 type  2   force =    -0.00000517   -0.00001080    0.00000129
     atom    6 type  3   force =    -0.00007759    0.00029446   -0.00021475

     Total force =     0.045953     Total SCF correction =     0.000504

     Computing stress (Cartesian axis) and pressure

     negative rho (up, down):  8.571E-04 0.000E+00
          total   stress  (Ry/bohr**3)                   (kbar)     P=     -333.24
  -0.00226495  -0.00000000   0.00000000         -333.19       -0.00        0.00
  -0.00000000  -0.00226495  -0.00000000           -0.00     -333.19       -0.00
   0.00000000  -0.00000000  -0.00226597            0.00       -0.00     -333.34

     kinetic stress (kbar)  17897.50      0.00      0.00
                                0.00  17897.50      0.00
                                0.00      0.00  17898.43

     local   stress (kbar)    867.04      0.32     -0.18
                                0.32    869.59     -0.64
                               -0.18     -0.64    866.51

     nonloc. stress (kbar)   4159.38     -0.00     -0.00
                                0.00   4159.38      0.00
                                0.00      0.00   4159.50

     hartree stress (kbar)   6687.29     -0.10      0.04
                               -0.10   6686.43      0.23
                                0.04      0.23   6687.47

     exc-cor stress (kbar)    306.64     -0.00      0.00
                               -0.00    306.62      0.01
                                0.00      0.01    306.65

     corecor stress (kbar)  -6065.72      0.00     -0.00
                                0.00  -6065.69     -0.01
                               -0.00     -0.01  -6065.73

     ewald   stress (kbar) -24186.17      0.00      0.00
                                0.00 -24186.17      0.00
                                0.00      0.00 -24186.17

     hubbard stress (kbar)      0.00      0.00      0.00
                                0.00      0.00      0.00
                                0.00      0.00      0.00

     DFT-D   stress (kbar)      0.00      0.00      0.00
                                0.00      0.00      0.00
                                0.00      0.00      0.00

     XDM     stress (kbar)      0.00      0.00      0.00
                                0.00      0.00      0.00
                                0.00      0.00      0.00

     dft-nl  stress (kbar)      0.00      0.00      0.00
                                0.00      0.00      0.00
                                0.00      0.00      0.00

     TS-vdW  stress (kbar)      0.00      0.00      0.00
                                0.00      0.00      0.00
                                0.00      0.00      0.00

[...]

                                0.00      0.00      0.00

     Writing all to output data dir new_calculations/myprefix.save/

     General routines

     Parallel routines

     PAW routines

   This run was terminated on:   8:26:30  20May2023

   JOB DONE.