     Program PWSCF v.7.0 starts on 21May2023 at  5:55:29

     Reading input from espresso_24442.pwi
Warning: card &CELL ignored
Warning: card / ignored

     Current dimensions of program PWSCF are:
     Max number of different atomic species (ntypx) = 10
     Max number of k-points (npk) =  40000
     Max angular momentum in pseudopotentials (lmaxx) =  4

     gamma-point specific algorithms are used
     Message from routine setup:
     using ibrav=0 with symmetry is DISCOURAGED, use correct ibrav instead

     Subspace diagonalization in iterative solution of the eigenvalue problem:
     a serial algorithm will be used

     Using Slab Decomposition

     bravais-lattice index     =            0
     lattice parameter (alat)  =      13.8069  a.u.
     unit-cell volume          =    1861.0980 (a.u.)^3
     number of atoms/cell      =           14
     number of atomic types    =            4
     number of electrons       =       144.00
     number of Kohn-Sham states=           86
     kinetic-energy cutoff     =      30.0000  Ry
     charge density cutoff     =     240.0000  Ry
     scf convergence threshold =      1.0E-06
     mixing beta               =       0.7000
     number of iterations used =            8  plain     mixing
     Exchange-correlation=  SLA  PW   PBX  PBC
                           (   1   4   3   4   0   0   0)

     celldm(1)=  13.806854  celldm(2)=   0.000000  celldm(3)=   0.000000
     celldm(4)=   0.000000  celldm(5)=   0.000000  celldm(6)=   0.000000

     crystal axes: (cart. coord. in units of alat)
               a(1) = (   1.000000   0.000000   0.000000 )
               a(2) = (   0.500000   0.866025   0.000000 )
               a(3) = (   0.500000   0.288675   0.816497 )

     reciprocal axes: (cart. coord. in units 2 pi/alat)
               b(1) = (  1.000000 -0.577350 -0.408248 )
               b(2) = (  0.000000  1.154701 -0.408248 )
               b(3) = (  0.000000  0.000000  1.224745 )

     PseudoPot. # 1 for Zn read from file:
     /home/pragov/projects/rrg-bengioy-ad/pragov/crystal_structure_design/SSSP/Zn_pbe_v1.uspp.F.UPF
     MD5 check sum: df62231357ef9e81f77b2b3087fa5675
     Pseudo is Ultrasoft, Zval = 20.0
     Generated by new atomic code, or converted to UPF format
     Using radial grid of  943 points,  6 beta functions with:
                l(1) =   0
                l(2) =   0
                l(3) =   1
                l(4) =   1
                l(5) =   2
                l(6) =   2
     Q(r) pseudized with  8 coefficients,  rinner =    1.100   1.100   1.100
                                                       1.100   1.100

     PseudoPot. # 2 for Cr read from file:
     /home/pragov/projects/rrg-bengioy-ad/pragov/crystal_structure_design/SSSP/cr_pbe_v1.5.uspp.F.UPF
     MD5 check sum: 0d52af634a40206e4dee301ad30da4bf
     Pseudo is Ultrasoft + core correction, Zval = 14.0
     Generated by new atomic code, or converted to UPF format
     Using radial grid of  857 points,  6 beta functions with:
                l(1) =   0
                l(2) =   0
                l(3) =   1
                l(4) =   1
                l(5) =   2
                l(6) =   2
     Q(r) pseudized with  8 coefficients,  rinner =    0.950   0.950   0.950
                                                       0.950   0.950

     PseudoPot. # 3 for Se read from file:
     /home/pragov/projects/rrg-bengioy-ad/pragov/crystal_structure_design/SSSP/Se_pbe_v1.uspp.F.UPF
     MD5 check sum: 1b3568f3a8ae88f9a2a0ad0698632c85
     Pseudo is Ultrasoft + core correction, Zval =  6.0
     Generated by new atomic code, or converted to UPF format
     Using radial grid of  877 points,  6 beta functions with:
                l(1) =   0
                l(2) =   0
                l(3) =   1
                l(4) =   1
                l(5) =   2
                l(6) =   2
     Q(r) pseudized with  8 coefficients,  rinner =    1.300   1.300   1.300
                                                       1.300   1.300

     PseudoPot. # 4 for S  read from file:
     /home/pragov/projects/rrg-bengioy-ad/pragov/crystal_structure_design/SSSP/s_pbe_v1.4.uspp.F.UPF
     MD5 check sum: 88d86576ff6df21479756cfb9bdac1df
     Pseudo is Ultrasoft + core correction, Zval =  6.0
     Generated by new atomic code, or converted to UPF format
     Using radial grid of  907 points,  6 beta functions with:
                l(1) =   0
                l(2) =   0
                l(3) =   1
                l(4) =   1
                l(5) =   2
                l(6) =   2
     Q(r) pseudized with  8 coefficients,  rinner =    1.300   1.300   1.300
                                                       1.300   1.300

     atomic species   valence    mass     pseudopotential
        Zn            20.00    65.38000     Zn( 1.00)
        Cr            14.00    51.99610     Cr( 1.00)
        Se             6.00    78.97100     Se( 1.00)
        S              6.00    32.06000     S ( 1.00)

      6 Sym. Ops. (no inversion) found

                                    s                        frac. trans.

      isym =  1     identity

 cryst.   s( 1) = (     1          0          0      )
                  (     0          1          0      )
                  (     0          0          1      )

 cart.    s( 1) = (  1.0000000  0.0000000 -0.0000000 )
                  (  0.0000000  1.0000000 -0.0000000 )
                  (  0.0000000  0.0000000  1.0000000 )

      isym =  2     120 deg rotation - cryst. axis [0,0,1]

[...]

      isym =  3     120 deg rotation - cryst. axis [0,0,-1]

[...]

      isym =  4     inv. 180 deg rotation - cart. axis [1,0,0]

[...]

      isym =  5     inv. 180 deg rotation - cryst. axis [0,1,0]

[...]

      isym =  6     inv. 180 deg rotation - cryst. axis [1,1,0]

 cryst.   s( 6) = (     1         -1          0      )
                  (     0         -1          0      )
                  (     0         -1          1      )

 cart.    s( 6) = (  0.5000000 -0.8660254 -0.0000000 )
                  ( -0.8660254 -0.5000000 -0.0000000 )
                  (  0.0000000  0.0000000  1.0000000 )

   Cartesian axes

     site n.     atom                  positions (alat units)
         1           Zn  tau(   1) = (   1.5000000   0.8660254   0.6123724  )
         2           Zn  tau(   2) = (   1.0000000   0.5773503   0.4082483  )
         3           Cr  tau(   3) = (   0.7586010   0.1393724   0.0985511  )
         4           Cr  tau(   4) = (   0.5000005   0.5872816   0.0985511  )
         5           Cr  tau(   5) = (   0.5000005   0.2886754   0.5208440  )
         6           Cr  tau(   6) = (   0.2414000   0.1393724   0.0985511  )
         7           Se  tau(   7) = (   1.2707390   0.4210385   0.2977191  )
         8           Se  tau(   8) = (   0.9999995   0.8899730   0.2977191  )
         9           Se  tau(   9) = (   0.9999995   0.5773500   0.7398349  )
        10           Se  tau(  10) = (   0.7292600   0.4210385   0.2977191  )
        11           S   tau(  11) = (   1.2279070   1.0231178   0.7234535  )
        12           S   tau(  12) = (   1.4999995   0.5518398   0.7234535  )
        13           S   tau(  13) = (   1.4999995   0.8660251   0.2791283  )
        14           S   tau(  14) = (   1.7720920   1.0231178   0.7234535  )

   Crystallographic axes

     site n.     atom                  positions (cryst. coord.)
         1           Zn  tau(   1) = (  0.7500000  0.7500000  0.7500000  )
         2           Zn  tau(   2) = (  0.5000000  0.5000000  0.5000000  )
         3           Cr  tau(   3) = (  0.6379010  0.1207000  0.1207000  )
         4           Cr  tau(   4) = (  0.1207000  0.6379010  0.1207000  )
         5           Cr  tau(   5) = (  0.1207000  0.1207000  0.6379010  )
         6           Cr  tau(   6) = (  0.1207000  0.1207000  0.1207000  )
         7           Se  tau(   7) = (  0.9061090  0.3646300  0.3646300  )
         8           Se  tau(   8) = (  0.3646300  0.9061090  0.3646300  )
         9           Se  tau(   9) = (  0.3646300  0.3646300  0.9061090  )
        10           Se  tau(  10) = (  0.3646300  0.3646300  0.3646300  )
        11           S   tau(  11) = (  0.3418610  0.8860460  0.8860460  )
        12           S   tau(  12) = (  0.8860460  0.3418610  0.8860460  )
        13           S   tau(  13) = (  0.8860460  0.8860460  0.3418610  )
        14           S   tau(  14) = (  0.8860460  0.8860460  0.8860460  )

     number of k points=     1  Methfessel-Paxton smearing, width (Ry)=  0.0010
                       cart. coord. in units 2pi/alat
        k(    1) = (   0.0000000   0.0000000   0.0000000), wk =   2.0000000

                       cryst. coord.
        k(    1) = (   0.0000000   0.0000000   0.0000000), wk =   2.0000000

     Check: negative core charge=   -0.000005

     Initial potential from superposition of free atoms

     starting charge     139.9992, renormalised to     144.0000

     negative rho (up, down):  1.989E-03 0.000E+00
     Starting wfcs are   98 randomized atomic wfcs

     Self-consistent Calculation

     iteration #  1     ecut=    30.00 Ry     beta= 0.70
     Davidson diagonalization with overlap

     ethr =  1.00E-02,  avg # of iterations =  6.0

     total energy              =   -1676.59344548 Ry
     estimated scf accuracy    <     263.83113579 Ry

[...]

     negative rho (up, down):  6.612E-03 0.000E+00

[...]

     total energy              =   -1895.68026653 Ry
     estimated scf accuracy    <       0.00000417 Ry

     iteration # 27     ecut=    30.00 Ry     beta= 0.70
     Davidson diagonalization with overlap

     ethr =  2.89E-09,  avg # of iterations =  1.0

[...]

     End of self-consistent calculation

          k = 0.0000 0.0000 0.0000 (  2533 PWs)   bands (ev):

  -118.1231-117.8795 -72.2164 -72.2164 -72.2164 -71.9766 -71.9766 -71.9766
   -63.6498 -63.6483 -63.6483 -63.6482 -34.9970 -34.9790 -34.9790 -34.9789
   -34.9615 -34.9614 -34.9614 -34.9605 -34.9605 -34.9536 -34.9535 -34.9535
    -5.7890  -4.5557  -4.2776  -4.2772  -4.2770  -4.1085  -4.1085  -4.1079
     0.9785   0.9786   0.9786   1.0013   1.0013   1.2201   1.2201   1.2202
     1.2645   1.2645   1.5076   2.2284   2.7653   2.7653   2.7653   3.9496
     3.9496   5.0781   5.0781   5.4764   5.4765   5.4765   5.5228   5.5228
     5.5232   5.7768   5.7771   5.7771   6.4806   6.4807   6.4808   7.0866
     7.4615   7.4615   7.9191   7.9191   7.9191   7.9880   7.9880   7.9880
     8.3919   8.3919   8.3919   8.4917   8.4917   8.4918  10.2683  10.6341
    10.6341  10.6341  10.7499  10.7500  10.7538  10.7538

     occupation numbers
     1.0000   1.0000   1.0000   1.0000   1.0000   1.0000   1.0000   1.0000
     1.0000   1.0000   1.0000   1.0000   1.0000   1.0000   1.0000   1.0000
     1.0000   1.0000   1.0000   1.0000   1.0000   1.0000   1.0000   1.0000
     1.0000   1.0000   1.0000   1.0000   1.0000   1.0000   1.0000   1.0000
     1.0000   1.0000   1.0000   1.0000   1.0000   1.0000   1.0000   1.0000
     1.0000   1.0000   1.0000   1.0000   1.0000   1.0000   1.0000   1.0000
     1.0000   1.0000   1.0000   1.0000   1.0000   1.0000   1.0000   1.0000
     1.0000   1.0000   1.0000   1.0000   1.0000   1.0000   1.0000   1.0000
     1.0000   1.0000   1.0000   1.0000   1.0000   1.0000   1.0000   1.0000
    -0.0000  -0.0000  -0.0000  -0.0000  -0.0000  -0.0000  -0.0000  -0.0000
    -0.0000  -0.0000  -0.0000  -0.0000  -0.0000  -0.0000

     the Fermi energy is     8.1152 ev

!    total energy              =   -1895.68026658 Ry
     estimated scf accuracy    <       0.00000021 Ry
     smearing contrib. (-TS)   =       0.00000000 Ry
     internal energy E=F+TS    =   -1895.68026658 Ry

     The total energy is F=E-TS. E is the sum of the following terms:
     one-electron contribution =   -1395.96534848 Ry
     hartree contribution      =     743.07384919 Ry
     xc contribution           =    -326.50983012 Ry
     ewald contribution        =    -916.27893716 Ry

     convergence has been achieved in  27 iterations

     negative rho (up, down):  2.054E-03 0.000E+00

     Forces acting on atoms (cartesian axes, Ry/au):

     atom    1 type  1   force =    -0.00000000   -0.00000000    0.00013651
     atom    2 type  1   force =     0.00000000    0.00000000    0.00014100
     atom    3 type  2   force =     0.06350711   -0.03666584   -0.02598200
     atom    4 type  2   force =     0.00000000    0.07333169   -0.02598200
     atom    5 type  2   force =     0.00000000    0.00000000    0.07779346
     atom    6 type  2   force =    -0.06350711   -0.03666584   -0.02598200
     atom    7 type  3   force =     0.01325872   -0.00765492   -0.00544066
     atom    8 type  3   force =     0.00000000    0.01530985   -0.00544066
     atom    9 type  3   force =     0.00000000    0.00000000    0.01622762
     atom   10 type  3   force =    -0.01325872   -0.00765492   -0.00544066
     atom   11 type  4   force =    -0.00448361    0.00258861    0.00182300
     atom   12 type  4   force =     0.00000000   -0.00517722    0.00182300
     atom   13 type  4   force =     0.00000000    0.00000000   -0.00549961
     atom   14 type  4   force =     0.00448361    0.00258861    0.00182300
     The non-local contrib.  to forces
     atom    1 type  1   force =     0.00000000    0.00000000    0.00005101
     atom    2 type  1   force =     0.00000000    0.00000000    0.00010825
     atom    3 type  2   force =    -0.04702783    0.02715153    0.01919501
     atom    4 type  2   force =     0.00000000   -0.05430306    0.01919501
     atom    5 type  2   force =     0.00000000    0.00000000   -0.05760080
     atom    6 type  2   force =     0.04702783    0.02715153    0.01919501
     atom    7 type  3   force =    -0.04338060    0.02504580    0.01769695
     atom    8 type  3   force =     0.00000000   -0.05009160    0.01769695
     atom    9 type  3   force =    -0.00000000   -0.00000000   -0.05310684
     atom   10 type  3   force =     0.04338060    0.02504580    0.01769695
     atom   11 type  4   force =     0.04969976   -0.02869417   -0.02027654
     atom   12 type  4   force =     0.00000000    0.05738833   -0.02027654
     atom   13 type  4   force =     0.00000000    0.00000000    0.06084709
     atom   14 type  4   force =    -0.04969976   -0.02869417   -0.02027654
     The ionic contribution  to forces
     atom    1 type  1   force =     0.00000497    0.00000287    0.00000203
     atom    2 type  1   force =     0.00000497    0.00000287    0.00000203
     atom    3 type  2   force =    -2.85457457    1.64802177    1.16532737
     atom    4 type  2   force =    -0.00005856   -3.29614498    1.16532737
     atom    5 type  2   force =    -0.00005856   -0.00003381   -3.49607775
     atom    6 type  2   force =     2.85445503    1.64802038    1.16532639
     atom    7 type  3   force =    -0.33295810    0.19225770    0.13594673
     atom    8 type  3   force =     0.00002101   -0.38447903    0.13594673
     atom    9 type  3   force =     0.00002101    0.00001213   -0.40780588
     atom   10 type  3   force =     0.33302945    0.19227464    0.13595870
     atom   11 type  4   force =     2.00310225   -1.15647223   -0.81774936
     atom   12 type  4   force =     0.00001679    2.31297355   -0.81774936
     atom   13 type  4   force =     0.00001679    0.00000969    2.45327549
     atom   14 type  4   force =    -2.00302247   -1.15644556   -0.81773050
     The local contribution  to forces
     atom    1 type  1   force =     0.00044211   -0.00037380   -0.00016323
     atom    2 type  1   force =     0.00046224   -0.00026564   -0.00027068
     atom    3 type  2   force =     2.96221801   -1.71013543   -1.20918923
     atom    4 type  2   force =    -0.00059929    3.41995173   -1.20866738
     atom    5 type  2   force =    -0.00059912    0.00041044    3.62728183
     atom    6 type  2   force =    -2.96206933   -1.70934025   -1.20865685
     atom    7 type  3   force =     0.38414775   -0.22180142   -0.15696048
     atom    8 type  3   force =    -0.00006191    0.44361695   -0.15692541
     atom    9 type  3   force =    -0.00006697    0.00004847    0.47060679
     atom   10 type  3   force =    -0.38426532   -0.22178538   -0.15694681
     atom   11 type  4   force =    -2.05421556    1.18595261    0.83872473
     atom   12 type  4   force =    -0.00004786   -2.37189720    0.83872056
     atom   13 type  4   force =    -0.00004512    0.00000929   -2.51584439
     atom   14 type  4   force =     2.05407295    1.18592541    0.83868462
     The core correction contribution to forces
     atom    1 type  1   force =     0.00000000    0.00000000    0.00000000
     atom    2 type  1   force =     0.00000000    0.00000000    0.00000000
     atom    3 type  2   force =     0.00362766   -0.00209463   -0.00147990
     atom    4 type  2   force =    -0.00000393    0.00418857   -0.00147909
     atom    5 type  2   force =    -0.00000395    0.00000162    0.00444259
     atom    6 type  2   force =    -0.00362947   -0.00209095   -0.00147876
     atom    7 type  3   force =     0.00535799   -0.00309303   -0.00218779
     atom    8 type  3   force =     0.00000021    0.00618660   -0.00218541
     atom    9 type  3   force =    -0.00000058    0.00000175    0.00655764
     atom   10 type  3   force =    -0.00535643   -0.00309119   -0.00218572
     atom   11 type  4   force =    -0.00305945    0.00176526    0.00124799
     atom   12 type  4   force =    -0.00000168   -0.00353185    0.00124872
     atom   13 type  4   force =    -0.00000078    0.00000058   -0.00374460
     atom   14 type  4   force =     0.00305868    0.00176707    0.00124820
     The Hubbard contrib.    to forces
     atom    1 type  1   force =     0.00000000    0.00000000    0.00000000
     atom    2 type  1   force =     0.00000000    0.00000000    0.00000000
     atom    3 type  2   force =     0.00000000    0.00000000    0.00000000
     atom    4 type  2   force =     0.00000000    0.00000000    0.00000000
     atom    5 type  2   force =     0.00000000    0.00000000    0.00000000
     atom    6 type  2   force =     0.00000000    0.00000000    0.00000000
     atom    7 type  3   force =     0.00000000    0.00000000    0.00000000
     atom    8 type  3   force =     0.00000000    0.00000000    0.00000000
     atom    9 type  3   force =     0.00000000    0.00000000    0.00000000
     atom   10 type  3   force =     0.00000000    0.00000000    0.00000000
     atom   11 type  4   force =     0.00000000    0.00000000    0.00000000
     atom   12 type  4   force =     0.00000000    0.00000000    0.00000000
     atom   13 type  4   force =     0.00000000    0.00000000    0.00000000
     atom   14 type  4   force =     0.00000000    0.00000000    0.00000000
     The SCF correction term to forces
     atom    1 type  1   force =    -0.00057093    0.00049248    0.00026591
     atom    2 type  1   force =    -0.00057412    0.00028849    0.00032060
     atom    3 type  2   force =    -0.00075515    0.00040109    0.00020806
     atom    4 type  2   force =     0.00067752   -0.00035366   -0.00035257
     atom    5 type  2   force =     0.00067075   -0.00039118   -0.00023322
     atom    6 type  2   force =     0.00070485   -0.00042893   -0.00035884
     atom    7 type  3   force =     0.00009501   -0.00006397    0.00007526
     atom    8 type  3   force =     0.00003428    0.00008434    0.00005251
     atom    9 type  3   force =     0.00003959   -0.00004022   -0.00000489
     atom   10 type  3   force =    -0.00004425   -0.00008299    0.00005647
     atom   11 type  4   force =    -0.00001621    0.00003061   -0.00010799
     atom   12 type  4   force =     0.00000955   -0.00010659   -0.00009602
     atom   13 type  4   force =     0.00002013    0.00000329   -0.00001400
     atom   14 type  4   force =     0.00006831    0.00004980   -0.00008538

     Total force =     0.159329     Total SCF correction =     0.002049

     Computing stress (Cartesian axis) and pressure

     negative rho (up, down):  2.054E-03 0.000E+00
          total   stress  (Ry/bohr**3)                   (kbar)     P=     -176.40
  -0.00119918  -0.00000000  -0.00000000         -176.40       -0.00       -0.00
   0.00000000  -0.00119918  -0.00000000            0.00     -176.40       -0.00
   0.00000000  -0.00000000  -0.00119908            0.00       -0.00     -176.39

     kinetic stress (kbar)  15436.45      0.00     -0.00
                                0.00  15436.45      0.00
                               -0.00      0.00  15436.46

     local   stress (kbar) -10521.72     -0.03     -0.03
                               -0.03 -10521.74      0.01
                               -0.03      0.01 -10521.70

     nonloc. stress (kbar)   5039.12      0.00     -0.00
                                0.00   5039.12      0.00
                                0.00      0.00   5039.13

     hartree stress (kbar)  19578.04      0.03      0.03
                                0.03  19578.06     -0.01
                                0.03     -0.01  19578.01

     exc-cor stress (kbar)   4416.33     -0.00      0.00
                               -0.00   4416.33     -0.00
                                0.00     -0.00   4416.33

     corecor stress (kbar)  -9983.09      0.00      0.00
                                0.00  -9983.09     -0.00
                                0.00     -0.00  -9983.09

     ewald   stress (kbar) -24141.54     -0.00     -0.00
                               -0.00 -24141.53     -0.00
                               -0.00     -0.00 -24141.53

     hubbard stress (kbar)      0.00      0.00      0.00
                                0.00      0.00      0.00
                                0.00      0.00      0.00

     DFT-D   stress (kbar)      0.00      0.00      0.00
                                0.00      0.00      0.00
                                0.00      0.00      0.00

     XDM     stress (kbar)      0.00      0.00      0.00
                                0.00      0.00      0.00
                                0.00      0.00      0.00

     dft-nl  stress (kbar)      0.00      0.00      0.00
                                0.00      0.00      0.00
                                0.00      0.00      0.00

     TS-vdW  stress (kbar)      0.00      0.00      0.00
                                0.00      0.00      0.00
                                0.00      0.00      0.00

[...]

                                0.00      0.00      0.00

     Writing all to output data dir new_calculations/myprefix.save/

     General routines

     Parallel routines

   This run was terminated on:   5:56:26  21May2023

   JOB DONE.