     Program PWSCF v.7.0 starts on 20May2023 at  4: 8:42

     Reading input from espresso_17021.pwi
Warning: card &CELL ignored
Warning: card / ignored

     Current dimensions of program PWSCF are:
     Max number of different atomic species (ntypx) = 10
     Max number of k-points (npk) =  40000
     Max angular momentum in pseudopotentials (lmaxx) =  4

     gamma-point specific algorithms are used
     Message from routine setup:
     using ibrav=0 with symmetry is DISCOURAGED, use correct ibrav instead

     Subspace diagonalization in iterative solution of the eigenvalue problem:
     a serial algorithm will be used

     Using Slab Decomposition

     bravais-lattice index     =            0
     lattice parameter (alat)  =      10.4700  a.u.
     unit-cell volume          =     780.3235 (a.u.)^3
     number of atoms/cell      =            8
     number of atomic types    =            2
     number of electrons       =       142.00
     number of Kohn-Sham states=           85
     kinetic-energy cutoff     =      30.0000  Ry
     charge density cutoff     =     240.0000  Ry
     scf convergence threshold =      1.0E-06
     mixing beta               =       0.7000
     number of iterations used =            8  plain     mixing
     Exchange-correlation= SLA  PW   PBE  PBE
                           (   1   4   3   4   0   0   0)

     celldm(1)=  10.469952  celldm(2)=   0.000000  celldm(3)=   0.000000
     celldm(4)=   0.000000  celldm(5)=   0.000000  celldm(6)=   0.000000

     crystal axes: (cart. coord. in units of alat)
               a(1) = (   1.000000   0.000000   0.000000 )
               a(2) = (  -0.500000   0.866025   0.000000 )
               a(3) = (   0.000000   0.000000   0.785073 )

     reciprocal axes: (cart. coord. in units 2 pi/alat)
               b(1) = (  1.000000  0.577350  0.000000 )
               b(2) = (  0.000000  1.154701  0.000000 )
               b(3) = (  0.000000  0.000000  1.273767 )

     PseudoPot. # 1 for Cu read from file:
     /home/pragov/projects/rrg-bengioy-ad/pragov/crystal_structure_design/SSSP/Cu_pbe_v1.2.uspp.F.UPF
     MD5 check sum: 6e991ff952a84172a2a52a1c1e996048
     Pseudo is Ultrasoft + core correction, Zval = 19.0
     Generated by new atomic code, or converted to UPF format
     Using radial grid of  867 points,  6 beta functions with:
                l(1) =   0
                l(2) =   0
                l(3) =   1
                l(4) =   1
                l(5) =   2
                l(6) =   2
     Q(r) pseudized with  8 coefficients,  rinner =    1.150   1.150   1.150
                                                       1.150   1.150

     PseudoPot. # 2 for Sn read from file:
     /home/pragov/projects/rrg-bengioy-ad/pragov/crystal_structure_design/SSSP/Sn_pbe_v1.uspp.F.UPF
     MD5 check sum: 4cf58ce39ec5d5d420df3dd08604eb00
     Pseudo is Ultrasoft + core correction, Zval = 14.0
     Generated by new atomic code, or converted to UPF format
     Using radial grid of  891 points,  6 beta functions with:
                l(1) =   0
                l(2) =   0
                l(3) =   1
                l(4) =   1
                l(5) =   2
                l(6) =   2
     Q(r) pseudized with  6 coefficients,  rinner =    1.200   1.200   1.200
                                                       1.200   1.200

     atomic species   valence    mass     pseudopotential
        Cu            19.00    63.54600     Cu( 1.00)
        Sn            14.00   118.71000     Sn( 1.00)

     24 Sym. Ops., with inversion, found (12 have fractional translation)

                                    s                        frac. trans.

      isym =  1     identity

 cryst.   s( 1) = (     1          0          0      )
                  (     0          1          0      )
                  (     0          0          1      )

 cart.    s( 1) = (  1.0000000 -0.0000000  0.0000000 )
                  (  0.0000000  1.0000000  0.0000000 )
                  (  0.0000000  0.0000000  1.0000000 )

      isym =  2     180 deg rotation - cart. axis [0,0,1]

 cryst.   s( 2) = (    -1          0          0      )    f =( -0.0000000 )
                  (     0         -1          0      )       ( -0.0000000 )
                  (     0          0          1      )       (  0.5000000 )

 cart.    s( 2) = ( -1.0000000  0.0000000  0.0000000 )    f =( -0.0000000 )
                  (  0.0000000 -1.0000000  0.0000000 )       ( -0.0000000 )
                  (  0.0000000  0.0000000  1.0000000 )       (  0.3925365 )

[...]

      isym =  4     180 deg rotation - cart. axis [1,0,0]

[...]

      isym =  5      60 deg rotation - cryst. axis [0,0,1]

[...]

 cryst.   s( 8) = (    -1         -1          0      )
                  (     1          0          0      )
                  (     0          0          1      )

 cart.    s( 8) = ( -0.5000000  0.8660254  0.0000000 )
                  ( -0.8660254 -0.5000000  0.0000000 )
                  (  0.0000000  0.0000000  1.0000000 )

[...]

 cryst.   s( 9) = (     0         -1          0      )    f =( -0.0000000 )
                  (    -1          0          0      )       ( -0.0000000 )
                  (     0          0         -1      )       (  0.5000000 )

 cart.    s( 9) = (  0.5000000 -0.8660254  0.0000000 )    f =( -0.0000000 )
                  ( -0.8660254 -0.5000000  0.0000000 )       ( -0.0000000 )
                  (  0.0000000  0.0000000 -1.0000000 )       (  0.3925365 )

[...]

 cryst.   s(10) = (     1          1          0      )    f =( -0.0000000 )
                  (     0         -1          0      )       (  0.0000000 )
                  (     0          0         -1      )       (  0.5000000 )

 cart.    s(10) = (  0.5000000  0.8660254  0.0000000 )    f =( -0.0000000 )
                  (  0.8660254 -0.5000000  0.0000000 )       (  0.0000000 )
                  (  0.0000000  0.0000000 -1.0000000 )       (  0.3925365 )

[...]

 cryst.   s(11) = (    -1         -1          0      )
                  (     0          1          0      )
                  (     0          0         -1      )

 cart.    s(11) = ( -0.5000000 -0.8660254  0.0000000 )
                  ( -0.8660254  0.5000000  0.0000000 )
                  (  0.0000000  0.0000000 -1.0000000 )

      isym = 12     180 deg rotation - cryst. axis [1,1,0]

[...]

      isym = 13     inversion

[...]

      isym = 14     inv. 180 deg rotation - cart. axis [0,0,1]

[...]

      isym = 16     inv. 180 deg rotation - cart. axis [1,0,0]

[...]

      isym = 17     inv.  60 deg rotation - cryst. axis [0,0,1]

[...]

 cryst.   s(22) = (    -1         -1          0      )    f =(  0.0000000 )
                  (     0          1          0      )       ( -0.0000000 )
                  (     0          0          1      )       (  0.5000000 )

 cart.    s(22) = ( -0.5000000 -0.8660254  0.0000000 )    f =(  0.0000000 )
                  ( -0.8660254  0.5000000  0.0000000 )       ( -0.0000000 )
                  (  0.0000000  0.0000000  1.0000000 )       (  0.3925365 )

[...]

      isym = 24     inv. 180 deg rotation - cryst. axis [1,1,0]

 cryst.   s(24) = (     0         -1          0      )
                  (    -1          0          0      )
                  (     0          0          1      )

 cart.    s(24) = (  0.5000000 -0.8660254  0.0000000 )
                  ( -0.8660254 -0.5000000  0.0000000 )
                  (  0.0000000  0.0000000  1.0000000 )

   Cartesian axes

     site n.     atom                  positions (alat units)
         1           Cu  tau(   1) = (  -0.2659085   0.7308726   0.5888047  )
         2           Cu  tau(   2) = (   0.2340915   0.1351528   0.1962682  )
         3           Cu  tau(   3) = (   0.5000000   0.5957198   0.1962682  )
         4           Cu  tau(   4) = (   0.0000000   0.2703056   0.5888047  )
         5           Cu  tau(   5) = (   0.2659085   0.7308726   0.5888047  )
         6           Cu  tau(   6) = (   0.7659085   0.1351528   0.1962682  )
         7           Sn  tau(   7) = (  -0.0000005   0.5773506   0.1962682  )
         8           Sn  tau(   8) = (   0.5000005   0.2886748   0.5888047  )

   Crystallographic axes

     site n.     atom                  positions (cryst. coord.)
         1           Cu  tau(   1) = (  0.1560610  0.8439390  0.7500000  )
         2           Cu  tau(   2) = (  0.3121220  0.1560610  0.2500000  )
         3           Cu  tau(   3) = (  0.8439390  0.6878780  0.2500000  )
         4           Cu  tau(   4) = (  0.1560610  0.3121220  0.7500000  )
         5           Cu  tau(   5) = (  0.6878780  0.8439390  0.7500000  )
         6           Cu  tau(   6) = (  0.8439390  0.1560610  0.2500000  )
         7           Sn  tau(   7) = (  0.3333330  0.6666670  0.2500000  )
         8           Sn  tau(   8) = (  0.6666670  0.3333330  0.7500000  )

     number of k points=     1  Methfessel-Paxton smearing, width (Ry)=  0.0010
                       cart. coord. in units 2pi/alat
        k(    1) = (   0.0000000   0.0000000   0.0000000), wk =   2.0000000

                       cryst. coord.
        k(    1) = (   0.0000000   0.0000000   0.0000000), wk =   2.0000000

     Check: negative core charge=   -0.000002

     Initial potential from superposition of free atoms

     starting charge     133.9999, renormalised to     142.0000
     Starting wfcs are   96 randomized atomic wfcs

     Self-consistent Calculation

     iteration #  1     ecut=    30.00 Ry     beta= 0.70
     Davidson diagonalization with overlap

     ethr =  1.00E-02,  avg # of iterations =  3.0

     total energy              =   -2710.85873423 Ry
     estimated scf accuracy    <      54.69286308 Ry

[...]

     total energy              =   -2748.48463025 Ry
     estimated scf accuracy    <       0.00000179 Ry

     iteration # 21     ecut=    30.00 Ry     beta= 0.70
     Davidson diagonalization with overlap

     ethr =  1.26E-09,  avg # of iterations =  1.0

     End of self-consistent calculation

          k = 0.0000 0.0000 0.0000 (  1085 PWs)   bands (ev):

   -97.6279 -97.6263 -97.6255 -97.6252 -97.6250 -97.6248 -55.1513 -55.1350
   -55.1346 -55.1026 -55.1022 -55.0931 -55.0549 -55.0495 -55.0219 -55.0215
   -55.0195 -55.0190 -54.8417 -54.8412 -54.8381 -54.8327 -54.8323 -54.8174
    -5.9304  -5.9106  -5.9106  -5.9096  -5.9096  -5.9053  -5.9053  -5.9010
    -5.8699  -5.8699   4.2317   7.9603  10.5669  10.5670  10.7316  10.8372
    10.8373  10.8647  10.9398  11.3619  11.3620  11.6365  11.6367  11.7726
    11.9302  11.9632  12.0914  12.0914  12.2262  12.2263  12.6328  12.6719
    12.6720  12.7090  12.7093  12.7325  12.7328  12.7986  12.7989  13.1708
    13.2620  13.2736  13.3524  13.6730  13.6731  13.7212  14.4777  14.4777
    16.2430  18.4112  19.8957  19.8959  20.6329  20.6330  20.6585  20.9646
    22.6191  22.6390  22.6391  22.7289  22.7290

     occupation numbers
     1.0000   1.0000   1.0000   1.0000   1.0000   1.0000   1.0000   1.0000
     1.0000   1.0000   1.0000   1.0000   1.0000   1.0000   1.0000   1.0000
     1.0000   1.0000   1.0000   1.0000   1.0000   1.0000   1.0000   1.0000
     1.0000   1.0000   1.0000   1.0000   1.0000   1.0000   1.0000   1.0000
     1.0000   1.0000   1.0000   1.0000   1.0000   1.0000   1.0000   1.0000
     1.0000   1.0000   1.0000   1.0000   1.0000   1.0000   1.0000   1.0000
     1.0000   1.0000   1.0000   1.0000   1.0000   1.0000   1.0000   1.0000
     1.0000   1.0000   1.0000   1.0000   1.0000   1.0000   1.0000   1.0000
     1.0000   1.0000   1.0000   1.0000   1.0000   1.0000   0.5008   0.4992
    -0.0000  -0.0000  -0.0000  -0.0000  -0.0000  -0.0000  -0.0000  -0.0000
    -0.0000  -0.0000  -0.0000  -0.0000  -0.0000

     the Fermi energy is    14.4777 ev

!    total energy              =   -2748.48463018 Ry
     estimated scf accuracy    <       0.00000020 Ry
     smearing contrib. (-TS)   =      -0.00056419 Ry
     internal energy E=F+TS    =   -2748.48406599 Ry

     The total energy is F=E-TS. E is the sum of the following terms:
     one-electron contribution =   -1865.01113446 Ry
     hartree contribution      =    1022.65995692 Ry
     xc contribution           =    -328.22198795 Ry
     ewald contribution        =   -1577.91090050 Ry

     convergence has been achieved in  21 iterations

     Forces acting on atoms (cartesian axes, Ry/au):

     atom    1 type  1   force =    -0.01857562    0.01072464    0.00000000
     atom    2 type  1   force =    -0.01857562   -0.01072464    0.00000000
     atom    3 type  1   force =     0.00000000    0.02144928   -0.00000000
     atom    4 type  1   force =     0.00000000   -0.02144928    0.00000000
     atom    5 type  1   force =     0.01857562    0.01072464   -0.00000000
     atom    6 type  1   force =     0.01857562   -0.01072464    0.00000000
     atom    7 type  2   force =    -0.00000000    0.00000000    0.00000000
     atom    8 type  2   force =     0.00000000   -0.00000000    0.00000000
     The non-local contrib.  to forces
     atom    1 type  1   force =     0.49508604   -0.28583807   -0.00000000
     atom    2 type  1   force =     0.49508604    0.28583805    0.00000000
     atom    3 type  1   force =    -0.00000000   -0.57167611   -0.00000000
     atom    4 type  1   force =    -0.00000000    0.57167611    0.00000000
     atom    5 type  1   force =    -0.49508604   -0.28583805    0.00000000
     atom    6 type  1   force =    -0.49508604    0.28583807    0.00000000
     atom    7 type  2   force =     0.00000000   -0.00000000    0.00000000
     atom    8 type  2   force =    -0.00000000   -0.00000000    0.00000000
     The ionic contribution  to forces
     atom    1 type  1   force =    17.46276142  -10.08213023   -0.00000000
     atom    2 type  1   force =    17.46277038   10.08225286    0.00000000
     atom    3 type  1   force =    -0.00010231  -20.16432920    0.00000000
     atom    4 type  1   force =     0.00010231   20.16432920   -0.00000000
     atom    5 type  1   force =   -17.46277038  -10.08225286   -0.00000000
     atom    6 type  1   force =   -17.46276142   10.08213023    0.00000000
     atom    7 type  2   force =     0.00012294   -0.00007098    0.00000000
     atom    8 type  2   force =    -0.00012294    0.00007098   -0.00000000
     The local contribution  to forces
     atom    1 type  1   force =   -17.97551714   10.37949883    0.00000929
     atom    2 type  1   force =   -17.97551428  -10.37860970   -0.00000344
     atom    3 type  1   force =    -0.00071904   20.75727897   -0.00000243
     atom    4 type  1   force =     0.00077720  -20.75728757    0.00000184
     atom    5 type  1   force =    17.97547078   10.37860854   -0.00000031
     atom    6 type  1   force =    17.97563509  -10.37951156    0.00000199
     atom    7 type  2   force =     0.00043455    0.00047150   -0.00000209
     atom    8 type  2   force =    -0.00049597   -0.00050498   -0.00000299
     The core correction contribution to forces
     atom    1 type  1   force =    -0.00051159    0.00029551   -0.00000000
     atom    2 type  1   force =    -0.00051103   -0.00029527    0.00000000
     atom    3 type  1   force =     0.00000003    0.00059114    0.00000000
     atom    4 type  1   force =    -0.00000004   -0.00059113   -0.00000000
     atom    5 type  1   force =     0.00051106    0.00029524   -0.00000000
     atom    6 type  1   force =     0.00051149   -0.00029548   -0.00000000
     atom    7 type  2   force =     0.00001058    0.00000382   -0.00000010
     atom    8 type  2   force =    -0.00001181   -0.00000449   -0.00000008
     The Hubbard contrib.    to forces
     atom    1 type  1   force =     0.00000000    0.00000000    0.00000000
     atom    2 type  1   force =     0.00000000    0.00000000    0.00000000
     atom    3 type  1   force =     0.00000000    0.00000000    0.00000000
     atom    4 type  1   force =     0.00000000    0.00000000    0.00000000
     atom    5 type  1   force =     0.00000000    0.00000000    0.00000000
     atom    6 type  1   force =     0.00000000    0.00000000    0.00000000
     atom    7 type  2   force =     0.00000000    0.00000000    0.00000000
     atom    8 type  2   force =     0.00000000    0.00000000    0.00000000
     The SCF correction term to forces
     atom    1 type  1   force =    -0.00029246   -0.00102396   -0.00001073
     atom    2 type  1   force =    -0.00026005   -0.00004676    0.00000012
     atom    3 type  1   force =     0.00092662   -0.00023043    0.00000149
     atom    4 type  1   force =    -0.00097063    0.00037188   -0.00000100
     atom    5 type  1   force =     0.00029121    0.00003141    0.00000477
     atom    6 type  1   force =     0.00014086    0.00098114   -0.00000581
     atom    7 type  2   force =    -0.00055232   -0.00026574    0.00000048
     atom    8 type  2   force =     0.00062212    0.00030465    0.00000340

     Total force =     0.052540     Total SCF correction =     0.002263

     Computing stress (Cartesian axis) and pressure

          total   stress  (Ry/bohr**3)                   (kbar)     P=     -633.32
  -0.00305803   0.00000000   0.00000000         -449.85        0.00        0.00
   0.00000000  -0.00305803   0.00000000            0.00     -449.85        0.00
   0.00000000   0.00000000  -0.00679966            0.00        0.00    -1000.27

     kinetic stress (kbar)  37120.95     -0.00      0.00
                               -0.00  37120.95      0.00
                                0.00      0.00  36286.43

     local   stress (kbar)  -5542.91     -0.66      0.00
                               -0.66  -5540.08      0.00
                                0.00      0.00 -24213.06

     nonloc. stress (kbar)  26501.08     -0.00      0.00
                               -0.00  26501.08      0.00
                                0.00      0.00  26121.93

     hartree stress (kbar)  61283.22      0.37      0.00
                                0.37  61281.72     -0.00
                                0.00     -0.00  70224.94

     exc-cor stress (kbar)  -5929.48      0.00      0.00
                                0.00  -5929.50     -0.00
                                0.00     -0.00  -5937.07

     corecor stress (kbar) -11262.38     -0.00     -0.00
                               -0.00 -11262.38      0.00
                               -0.00      0.00 -11260.69

     ewald   stress (kbar)-102620.96     -0.05     -0.00
                               -0.05-102621.02     -0.00
                               -0.00     -0.00 -92222.74

     hubbard stress (kbar)      0.00      0.00      0.00
                                0.00      0.00      0.00
                                0.00      0.00      0.00

     DFT-D   stress (kbar)      0.00      0.00      0.00
                                0.00      0.00      0.00
                                0.00      0.00      0.00

     XDM     stress (kbar)      0.00      0.00      0.00
                                0.00      0.00      0.00
                                0.00      0.00      0.00

     dft-nl  stress (kbar)      0.00      0.00      0.00
                                0.00      0.00      0.00
                                0.00      0.00      0.00

     TS-vdW  stress (kbar)      0.00      0.00      0.00
                                0.00      0.00      0.00
                                0.00      0.00      0.00

[...]

                                0.00      0.00      0.00

     Writing all to output data dir new_calculations/myprefix.save/

     General routines

     Parallel routines

   This run was terminated on:   4: 9:45  20May2023

   JOB DONE.