     Program PWSCF v.7.0 starts on 21May2023 at 15:15:13

     Reading input from espresso_22836.pwi
Warning: card &CELL ignored
Warning: card / ignored

     Current dimensions of program PWSCF are:
     Max number of different atomic species (ntypx) = 10
     Max number of k-points (npk) =  40000
     Max angular momentum in pseudopotentials (lmaxx) =  4
     file O.pbe-n-kjpaw_psl.0.1.UPF: wavefunction(s)  2P renormalized

     gamma-point specific algorithms are used
     Message from routine setup:
     using ibrav=0 with symmetry is DISCOURAGED, use correct ibrav instead

     Subspace diagonalization in iterative solution of the eigenvalue problem:
     a serial algorithm will be used

     Using Slab Decomposition

     bravais-lattice index     =            0
     lattice parameter (alat)  =      12.2769  a.u.
     unit-cell volume          =    1424.3667 (a.u.)^3
     number of atoms/cell      =           17
     number of atomic types    =            3
     number of electrons       =       135.00
     number of Kohn-Sham states=           82
     kinetic-energy cutoff     =      30.0000  Ry
     charge density cutoff     =     240.0000  Ry
     scf convergence threshold =      1.0E-06
     mixing beta               =       0.7000
     number of iterations used =            8  plain     mixing
     Exchange-correlation= SLA  PW   PBX  PBC
                           (   1   4   3   4   0   0   0)

     celldm(1)=  12.276907  celldm(2)=   0.000000  celldm(3)=   0.000000
     celldm(4)=   0.000000  celldm(5)=   0.000000  celldm(6)=   0.000000

     crystal axes: (cart. coord. in units of alat)
               a(1) = (   1.000000   0.000000   0.000000 )
               a(2) = (  -0.325736   0.945461   0.000000 )
               a(3) = (  -0.335061  -0.474208   0.814163 )

     reciprocal axes: (cart. coord. in units 2 pi/alat)
               b(1) = (  1.000000  0.344526  0.612208 )
               b(2) = (  0.000000  1.057685  0.616047 )
               b(3) = (  0.000000  0.000000  1.228255 )

     PseudoPot. # 1 for Li read from file:
     /home/pragov/projects/rrg-bengioy-ad/pragov/crystal_structure_design/SSSP/li_pbe_v1.4.uspp.F.UPF
     MD5 check sum: e912e257baa3777c20ea3d68f190483c
     Pseudo is Ultrasoft, Zval =  3.0
     Generated by new atomic code, or converted to UPF format
     Using radial grid of  751 points,  5 beta functions with:
                l(1) =   0
                l(2) =   0
                l(3) =   0
                l(4) =   1
                l(5) =   1
     Q(r) pseudized with 10 coefficients,  rinner =    1.150   1.150   1.150

     PseudoPot. # 2 for Re read from file:
     /home/pragov/projects/rrg-bengioy-ad/pragov/crystal_structure_design/SSSP/Re_pbe_v1.2.uspp.F.UPF
     MD5 check sum: 85f993410f3e006da9d71c142b4ad953
     Pseudo is Ultrasoft + core correction, Zval = 15.0
     Generated by new atomic code, or converted to UPF format
     Using radial grid of  981 points,  8 beta functions with:
                l(1) =   0
                l(2) =   0
                l(3) =   1
                l(4) =   1
                l(5) =   2
                l(6) =   2
                l(7) =   3
                l(8) =   3
     Q(r) pseudized with  8 coefficients,  rinner =    1.150   1.150   1.150
                                                       1.150   1.150   1.150
                                                       1.150

     PseudoPot. # 3 for O  read from file:
     /home/pragov/projects/rrg-bengioy-ad/pragov/crystal_structure_design/SSSP/O.pbe-n-kjpaw_psl.0.1.UPF
     MD5 check sum: 0234752ac141de4415c5fc33072bef88
     Pseudo is Projector augmented-wave + core cor, Zval =  6.0
     Generated using "atomic" code by A. Dal Corso  v.5.0.99 svn rev. 10869
     Shape of augmentation charge: BESSEL
     Using radial grid of 1095 points,  4 beta functions with:
                l(1) =   0
                l(2) =   0
                l(3) =   1
                l(4) =   1
     Q(r) pseudized with 0 coefficients

     atomic species   valence    mass     pseudopotential
        Li             3.00     6.94000     Li( 1.00)
        Re            15.00   186.20700     Re( 1.00)
        O              6.00    15.99900     O ( 1.00)

      2 Sym. Ops., with inversion, found

                                    s                        frac. trans.

      isym =  1     identity

 cryst.   s( 1) = (     1          0          0      )
                  (     0          1          0      )
                  (     0          0          1      )

 cart.    s( 1) = (  1.0000000 -0.0000000  0.0000000 )
                  (  0.0000000  1.0000000  0.0000000 )
                  (  0.0000000  0.0000000  1.0000000 )

      isym =  2     inversion

 cryst.   s( 2) = (    -1          0          0      )
                  (     0         -1          0      )
                  (     0          0         -1      )

 cart.    s( 2) = ( -1.0000000  0.0000000 -0.0000000 )
                  (  0.0000000 -1.0000000 -0.0000000 )
                  (  0.0000000  0.0000000 -1.0000000 )

   Cartesian axes

     site n.     atom                  positions (alat units)
         1           Li  tau(   1) = (   0.3324697  -0.2371038   0.4070815  )
         2           Re  tau(   2) = (  -0.1628680   0.4727304   0.0000000  )
         3           Re  tau(   3) = (   0.5000000   0.0000000   0.0000000  )
         4           Re  tau(   4) = (  -0.1675303  -0.2371038   0.4070815  )
         5           Re  tau(   5) = (   0.1696017   0.2356266   0.4070815  )
         6           O   tau(   6) = (   0.0024920   0.7113820   0.0642073  )
         7           O   tau(   7) = (  -0.3283840   0.5422021   0.5840008  )
         8           O   tau(   8) = (  -0.0411992   0.3373936   0.2301623  )
         9           O   tau(   9) = (   0.6281082   0.5773172   0.1756264  )
        10           O   tau(  10) = (   0.3330304   0.1635571   0.1756264  )
        11           O   tau(  11) = (   0.2859022   0.5092647   0.4112207  )
        12           O   tau(  12) = (   0.0533013  -0.0380116   0.4029423  )
        13           O   tau(  13) = (  -0.2889047  -0.1060641   0.6385367  )
        14           O   tau(  14) = (   0.0061731   0.3076960   0.6385367  )
        15           O   tau(  15) = (   0.3804027   0.1338595   0.5840008  )
        16           O   tau(  16) = (   0.6675875  -0.0709490   0.2301623  )
        17           O   tau(  17) = (   0.3367115  -0.2401289   0.7499557  )

   Crystallographic axes

     site n.     atom                  positions (cryst. coord.)
         1           Li  tau(   1) = (  0.5000000 -0.0000000  0.5000000  )
         2           Re  tau(   2) = (  0.0000000  0.5000000  0.0000000  )
         3           Re  tau(   3) = (  0.5000000  0.0000000  0.0000000  )
         4           Re  tau(   4) = ( -0.0000000 -0.0000000  0.5000000  )
         5           Re  tau(   5) = (  0.5000000  0.5000000  0.5000000  )
         6           O   tau(   6) = (  0.2868900  0.7919730  0.0788630  )
         7           O   tau(   7) = (  0.2159490  0.9332510  0.7173020  )
         8           O   tau(   8) = (  0.2159490  0.4986470  0.2826980  )
         9           O   tau(   9) = (  0.9345290  0.7188140  0.2157140  )
        10           O   tau(  10) = (  0.4969000  0.2811860  0.2157140  )
        11           O   tau(  11) = (  0.7131100  0.7919730  0.5050840  )
        12           O   tau(  12) = (  0.2868900  0.2080270  0.4949160  )
        13           O   tau(  13) = (  0.0654710  0.2811860  0.7842860  )
        14           O   tau(  14) = (  0.5031000  0.7188140  0.7842860  )
        15           O   tau(  15) = (  0.7840510  0.5013530  0.7173020  )
        16           O   tau(  16) = (  0.7840510  0.0667490  0.2826980  )
        17           O   tau(  17) = (  0.7131100  0.2080270  0.9211370  )

     number of k points=     1  Methfessel-Paxton smearing, width (Ry)=  0.0010
                       cart. coord. in units 2pi/alat
        k(    1) = (   0.0000000   0.0000000   0.0000000), wk =   2.0000000

                       cryst. coord.
        k(    1) = (   0.0000000   0.0000000   0.0000000), wk =   2.0000000

     Check: negative core charge=   -0.000011

     Initial potential from superposition of free atoms

     starting charge     132.5491, renormalised to     135.0000

     negative rho (up, down):  5.440E-01 0.000E+00
     Starting wfcs are  105 randomized atomic wfcs
     Checking if some PAW data can be deallocated...

     Self-consistent Calculation

     iteration #  1     ecut=    30.00 Ry     beta= 0.70
     Davidson diagonalization with overlap

     ethr =  1.00E-02,  avg # of iterations =  2.0

     negative rho (up, down):  6.103E-01 0.000E+00

     total energy              =   -1273.51219460 Ry
     estimated scf accuracy    <       5.71615596 Ry

[...]

     ethr =  2.01E-06,  avg # of iterations =  1.0
     Minimization algorithm failed to find Fermi energy: reverting to bisection
     Possible cause: smearing is larger than the electronic band-gap.

[...]

     ethr =  3.02E-08,  avg # of iterations =  1.0
     Minimization algorithm failed to find Fermi energy: reverting to bisection
     Possible cause: smearing is larger than the electronic band-gap.

[...]

     total energy              =   -1276.72589948 Ry
     estimated scf accuracy    <       0.00000185 Ry

     iteration # 59     ecut=    30.00 Ry     beta= 0.70
     Davidson diagonalization with overlap

     ethr =  1.26E-09,  avg # of iterations =  1.0

[...]

     End of self-consistent calculation

          k = 0.0000 0.0000 0.0000 (  1999 PWs)   bands (ev):

   -73.8448 -73.8441 -73.8440 -73.8439 -37.0058 -35.6900 -35.6816 -35.6719
   -35.6379 -35.6268 -35.6209 -35.6063 -35.5898 -35.5815 -35.5679 -35.5600
   -35.5444 -11.5627 -10.8799 -10.8728 -10.7991 -10.6742 -10.6465  -9.7081
    -9.7079  -9.6007  -9.5555  -9.5295  -9.5157  -0.1986  -0.1358  -0.0981
     0.1622   0.1967   0.2282   1.1769   1.4439   1.4991   3.3796   3.3806
     3.4348   3.4850   3.5302   3.5408   3.6971   3.7320   3.8650   4.5352
     4.7528   4.7537   4.7917   4.8393   5.1234   5.1545   5.2204   5.2443
     5.9276   5.9867   6.0452   6.0990   6.1203   6.1324   6.3854   6.8012
     6.8508   6.8554   6.8573   6.8575   9.4699  10.0343  10.1093  10.2109
    10.2936  10.3593  10.4555  10.5081  11.3439  12.1757  12.4100  13.0781
    13.1911  13.2462

     occupation numbers
     1.0000   1.0000   1.0000   1.0000   1.0000   1.0000   1.0000   1.0000
     1.0000   1.0000   1.0000   1.0000   1.0000   1.0000   1.0000   1.0000
     1.0000   1.0000   1.0000   1.0000   1.0000   1.0000   1.0000   1.0000
     1.0000   1.0000   1.0000   1.0000   1.0000   1.0000   1.0000   1.0000
     1.0000   1.0000   1.0000   1.0000   1.0000   1.0000   1.0000   1.0000
     1.0000   1.0000   1.0000   1.0000   1.0000   1.0000   1.0000   1.0000
     1.0000   1.0000   1.0000   1.0000   1.0000   1.0000   1.0000   1.0000
     1.0000   1.0000   1.0000   1.0000   1.0000   1.0000   1.0000   1.0000
     1.0062   0.8897   0.8060   0.7981  -0.0000  -0.0000  -0.0000  -0.0000
    -0.0000  -0.0000  -0.0000  -0.0000  -0.0000  -0.0000  -0.0000  -0.0000
    -0.0000  -0.0000

     the Fermi energy is     6.8627 ev

!    total energy              =   -1276.72589951 Ry
     estimated scf accuracy    <          5.2E-09 Ry
     smearing contrib. (-TS)   =      -0.00036092 Ry
     internal energy E=F+TS    =   -1276.72553859 Ry

     The total energy is F=E-TS. E is the sum of the following terms:
     one-electron contribution =    -488.36150521 Ry
     hartree contribution      =     299.48951318 Ry
     xc contribution           =    -301.73417803 Ry
     ewald contribution        =    -671.91711229 Ry
     one-center paw contrib.   =    -114.20225624 Ry
      -> PAW hartree energy AE =     357.93215702 Ry
      -> PAW hartree energy PS =    -356.61046362 Ry
      -> PAW xc energy AE      =    -206.41500410 Ry
      -> PAW xc energy PS      =      90.89105446 Ry
      -> total E_H with PAW    =     300.81120658 Ry
      -> total E_XC with PAW   =    -417.25812767 Ry

     convergence has been achieved in  59 iterations

     negative rho (up, down):  5.785E-01 0.000E+00

     Forces acting on atoms (cartesian axes, Ry/au):

     atom    1 type  1   force =     0.00000000    0.00000000    0.00000000
     atom    2 type  2   force =     0.00000000    0.00000000    0.00000000
     atom    3 type  2   force =     0.00000000    0.00000000    0.00000000
     atom    4 type  2   force =     0.00000000    0.00000000    0.00000000
     atom    5 type  2   force =     0.00000000    0.00000000    0.00000000
     atom    6 type  3   force =     0.00041518   -0.00027974   -0.00612560
     atom    7 type  3   force =     0.00134639    0.00413573    0.00125863
     atom    8 type  3   force =     0.00346101    0.00262974   -0.00127299
     atom    9 type  3   force =     0.00304431   -0.00039577    0.00266534
     atom   10 type  3   force =     0.00137503   -0.00274584    0.00266790
     atom   11 type  3   force =     0.00498754   -0.00355508   -0.00051300
     atom   12 type  3   force =    -0.00498754    0.00355508    0.00051300
     atom   13 type  3   force =    -0.00304431    0.00039577   -0.00266534
     atom   14 type  3   force =    -0.00137503    0.00274584   -0.00266790
     atom   15 type  3   force =    -0.00346101   -0.00262974    0.00127299
     atom   16 type  3   force =    -0.00134639   -0.00413573   -0.00125863
     atom   17 type  3   force =    -0.00041518    0.00027974    0.00612560
     The non-local contrib.  to forces
     atom    1 type  1   force =     0.00000000    0.00000000    0.00000000
     atom    2 type  2   force =     0.00000000    0.00000000    0.00000000
     atom    3 type  2   force =     0.00000000    0.00000000    0.00000000
     atom    4 type  2   force =     0.00000000    0.00000000    0.00000000
     atom    5 type  2   force =     0.00000000    0.00000000    0.00000000
     atom    6 type  3   force =     0.01503027   -0.01071912   -0.26265747
     atom    7 type  3   force =     0.05096743    0.33313722    0.15239145
     atom    8 type  3   force =     0.29836431    0.15670234   -0.15239359
     atom    9 type  3   force =     0.30746005    0.08796134    0.19862971
     atom   10 type  3   force =     0.01698419   -0.31934872    0.19863846
     atom   11 type  3   force =     0.21380250   -0.15247953   -0.01929241
     atom   12 type  3   force =    -0.21380250    0.15247953    0.01929241
     atom   13 type  3   force =    -0.30746005   -0.08796134   -0.19862971
     atom   14 type  3   force =    -0.01698419    0.31934872   -0.19863846
     atom   15 type  3   force =    -0.29836431   -0.15670234    0.15239359
     atom   16 type  3   force =    -0.05096743   -0.33313722   -0.15239145
     atom   17 type  3   force =    -0.01503027    0.01071912    0.26265747
     The ionic contribution  to forces
     atom    1 type  1   force =    -0.00000000    0.00000000    0.00000000
     atom    2 type  2   force =     0.00000000    0.00000000   -0.00000000
     atom    3 type  2   force =     0.00000000    0.00000000   -0.00000000
     atom    4 type  2   force =     0.00000000    0.00000000   -0.00000000
     atom    5 type  2   force =    -0.00000000   -0.00000000   -0.00000000
     atom    6 type  3   force =    -0.29663939    0.21157024    2.42797296
     atom    7 type  3   force =    -1.20980466   -4.14917815   -1.42863905
     atom    8 type  3   force =    -3.52882637   -2.49535927    1.42863592
     atom    9 type  3   force =    -3.98213355   -1.23500909   -2.51694041
     atom   10 type  3   force =    -0.12937438    4.16720407   -2.51707491
     atom   11 type  3   force =    -1.97575069    1.40919736    0.37198884
     atom   12 type  3   force =     1.97575069   -1.40919736   -0.37198884
     atom   13 type  3   force =     3.98213355    1.23500909    2.51694041
     atom   14 type  3   force =     0.12937438   -4.16720407    2.51707491
     atom   15 type  3   force =     3.52882637    2.49535927   -1.42863592
     atom   16 type  3   force =     1.20980466    4.14917815    1.42863905
     atom   17 type  3   force =     0.29663939   -0.21157024   -2.42797296
     The local contribution  to forces
     atom    1 type  1   force =    -0.00000016   -0.00000236    0.00000039
     atom    2 type  2   force =    -0.00005977    0.00001581    0.00003632
     atom    3 type  2   force =     0.00002320    0.00000858    0.00000324
     atom    4 type  2   force =     0.00001209   -0.00004139   -0.00006222
     atom    5 type  2   force =     0.00001371    0.00001991    0.00001281
     atom    6 type  3   force =     0.28208519   -0.20119742   -2.17381147
     atom    7 type  3   force =     1.16052824    3.82301942    1.27882039
     atom    8 type  3   force =     3.23651375    2.34254274   -1.27883430
     atom    9 type  3   force =     3.68025711    1.14739413    2.32264195
     atom   10 type  3   force =     0.11386554   -3.85322976    2.32282328
     atom   11 type  3   force =     1.76887297   -1.26169466   -0.35331666
     atom   12 type  3   force =    -1.76886817    1.26168713    0.35330827
     atom   13 type  3   force =    -3.68027462   -1.14740181   -2.32265162
     atom   14 type  3   force =    -0.11384898    3.85323919   -2.32281546
     atom   15 type  3   force =    -3.23652623   -2.34253341    1.27884425
     atom   16 type  3   force =    -1.16052098   -3.82302554   -1.27883658
     atom   17 type  3   force =    -0.28209229    0.20119878    2.17382079
     The core correction contribution to forces
     atom    1 type  1   force =     0.00000000    0.00000000    0.00000000
     atom    2 type  2   force =    -0.00000063    0.00000022    0.00000048
     atom    3 type  2   force =     0.00000034    0.00000016    0.00000007
     atom    4 type  2   force =     0.00000033   -0.00000065   -0.00000094
     atom    5 type  2   force =     0.00000022    0.00000040    0.00000024
     atom    6 type  3   force =    -0.00007519    0.00005368    0.00238249
     atom    7 type  3   force =    -0.00036703   -0.00283359   -0.00135044
     atom    8 type  3   force =    -0.00255947   -0.00127001    0.00135046
     atom    9 type  3   force =    -0.00255984   -0.00073676   -0.00165138
     atom   10 type  3   force =    -0.00013726    0.00266029   -0.00165140
     atom   11 type  3   force =    -0.00193961    0.00138323    0.00009999
     atom   12 type  3   force =     0.00193960   -0.00138322   -0.00009995
     atom   13 type  3   force =     0.00255980    0.00073674    0.00165134
     atom   14 type  3   force =     0.00013726   -0.00266029    0.00165141
     atom   15 type  3   force =     0.00255950    0.00126999   -0.00135047
     atom   16 type  3   force =     0.00036704    0.00283361    0.00135048
     atom   17 type  3   force =     0.00007523   -0.00005369   -0.00238251
     The Hubbard contrib.    to forces
     atom    1 type  1   force =     0.00000000    0.00000000    0.00000000
     atom    2 type  2   force =     0.00000000    0.00000000    0.00000000
     atom    3 type  2   force =     0.00000000    0.00000000    0.00000000
     atom    4 type  2   force =     0.00000000    0.00000000    0.00000000
     atom    5 type  2   force =     0.00000000    0.00000000    0.00000000
     atom    6 type  3   force =     0.00000000    0.00000000    0.00000000
     atom    7 type  3   force =     0.00000000    0.00000000    0.00000000
     atom    8 type  3   force =     0.00000000    0.00000000    0.00000000
     atom    9 type  3   force =     0.00000000    0.00000000    0.00000000
     atom   10 type  3   force =     0.00000000    0.00000000    0.00000000
     atom   11 type  3   force =     0.00000000    0.00000000    0.00000000
     atom   12 type  3   force =     0.00000000    0.00000000    0.00000000
     atom   13 type  3   force =     0.00000000    0.00000000    0.00000000
     atom   14 type  3   force =     0.00000000    0.00000000    0.00000000
     atom   15 type  3   force =     0.00000000    0.00000000    0.00000000
     atom   16 type  3   force =     0.00000000    0.00000000    0.00000000
     atom   17 type  3   force =     0.00000000    0.00000000    0.00000000
     The SCF correction term to forces
     atom    1 type  1   force =     0.00000027    0.00000222   -0.00000029
     atom    2 type  2   force =     0.00006866   -0.00001784   -0.00004119
     atom    3 type  2   force =    -0.00002623   -0.00000986   -0.00000374
     atom    4 type  2   force =    -0.00001362    0.00004741    0.00007130
     atom    5 type  2   force =    -0.00001555   -0.00002283   -0.00001408
     atom    6 type  3   force =     0.00001580    0.00001250   -0.00001331
     atom    7 type  3   force =     0.00002222   -0.00000811    0.00003785
     atom    8 type  3   force =    -0.00002960    0.00001324   -0.00003213
     atom    9 type  3   force =     0.00001836   -0.00000614   -0.00001650
     atom   10 type  3   force =     0.00003668   -0.00003219   -0.00006750
     atom   11 type  3   force =     0.00000164    0.00003942    0.00000875
     atom   12 type  3   force =    -0.00000790   -0.00003010    0.00000260
     atom   13 type  3   force =    -0.00000515    0.00001232    0.00002226
     atom   14 type  3   force =    -0.00005376    0.00002183    0.00005973
     atom   15 type  3   force =     0.00004526   -0.00002397    0.00002089
     atom   16 type  3   force =    -0.00002989    0.00001632   -0.00001856
     atom   17 type  3   force =    -0.00000575   -0.00001460    0.00000160

     Total force =     0.017300     Total SCF correction =     0.000208

     Computing stress (Cartesian axis) and pressure

     negative rho (up, down):  5.785E-01 0.000E+00
          total   stress  (Ry/bohr**3)                   (kbar)     P=     -452.02
  -0.00307253   0.00002086   0.00002707         -451.98        3.07        3.98
   0.00002086  -0.00305838  -0.00001918            3.07     -449.90       -2.82
   0.00002707  -0.00001918  -0.00308747            3.98       -2.82     -454.18

     kinetic stress (kbar)  28076.08     16.38     15.68
                               16.38  28087.41    -11.20
                               15.68    -11.20  28064.31

     local   stress (kbar)  -3279.50   1690.67    436.99
                             1690.67  -2114.65   -311.60
                              436.99   -311.60  -4488.56

     nonloc. stress (kbar)  -5537.91     -2.47     -1.39
                               -2.47  -5539.64      1.00
                               -1.39      1.00  -5536.15

     hartree stress (kbar)  10305.11   -579.07   -160.93
                             -579.07   9906.13    114.76
                             -160.93    114.76  10719.30

     exc-cor stress (kbar)   8574.45     -2.16     -0.23
                               -2.16   8572.96      0.17
                               -0.23      0.17   8575.99

     corecor stress (kbar) -15449.14      0.59     -0.34
                                0.59 -15448.74      0.24
                               -0.34      0.24 -15449.56

     ewald   stress (kbar) -23141.06  -1120.87   -285.80
                            -1120.87 -23913.37    203.82
                             -285.80    203.82 -22339.51

     hubbard stress (kbar)      0.00      0.00      0.00
                                0.00      0.00      0.00
                                0.00      0.00      0.00

     DFT-D   stress (kbar)      0.00      0.00      0.00
                                0.00      0.00      0.00
                                0.00      0.00      0.00

     XDM     stress (kbar)      0.00      0.00      0.00
                                0.00      0.00      0.00
                                0.00      0.00      0.00

     dft-nl  stress (kbar)      0.00      0.00      0.00
                                0.00      0.00      0.00
                                0.00      0.00      0.00

     TS-vdW  stress (kbar)      0.00      0.00      0.00
                                0.00      0.00      0.00
                                0.00      0.00      0.00

[...]

                                0.00      0.00      0.00

     Writing all to output data dir new_calculations/myprefix.save/

     General routines

     Parallel routines

     PAW routines

   This run was terminated on:  15:16:39  21May2023

   JOB DONE.