     Program PWSCF v.7.0 starts on 20May2023 at 20:59:55

     Reading input from espresso_822.pwi
Warning: card &CELL ignored
Warning: card / ignored

     Current dimensions of program PWSCF are:
     Max number of different atomic species (ntypx) = 10
     Max number of k-points (npk) =  40000
     Max angular momentum in pseudopotentials (lmaxx) =  4
     file Mg.pbe-n-kjpaw_psl.0.3.0.UPF: wavefunction(s)  3S renormalized

     gamma-point specific algorithms are used
     Message from routine setup:
     using ibrav=0 with symmetry is DISCOURAGED, use correct ibrav instead

     Subspace diagonalization in iterative solution of the eigenvalue problem:
     a serial algorithm will be used

     Using Slab Decomposition

     bravais-lattice index     =            0
     lattice parameter (alat)  =       8.9622  a.u.
     unit-cell volume          =    1017.0186 (a.u.)^3
     number of atoms/cell      =            5
     number of atomic types    =            3
     number of electrons       =        51.00
     number of Kohn-Sham states=           31
     kinetic-energy cutoff     =      30.0000  Ry
     charge density cutoff     =     240.0000  Ry
     scf convergence threshold =      1.0E-06
     mixing beta               =       0.7000
     number of iterations used =            8  plain     mixing
     Exchange-correlation=  SLA  PW   PBX  PBC
                           (   1   4   3   4   0   0   0)

     celldm(1)=   8.962222  celldm(2)=   0.000000  celldm(3)=   0.000000
     celldm(4)=   0.000000  celldm(5)=   0.000000  celldm(6)=   0.000000

     crystal axes: (cart. coord. in units of alat)
               a(1) = (   1.000000   0.000000   0.000000 )
               a(2) = (  -0.500000   0.866025   0.000000 )
               a(3) = (   0.000000   0.000000   1.631365 )

     reciprocal axes: (cart. coord. in units 2 pi/alat)
               b(1) = (  1.000000  0.577350  0.000000 )
               b(2) = (  0.000000  1.154700  0.000000 )
               b(3) = (  0.000000  0.000000  0.612984 )

     PseudoPot. # 1 for Eu read from file:
     /home/pragov/projects/rrg-bengioy-ad/pragov/crystal_structure_design/SSSP/Eu.GGA-PBE-paw-v1.0.UPF
     MD5 check sum: acec5fd9176fb57ec8e299eae1ecaf48
     Pseudo is Projector augmented-wave + core cor, Zval = 17.0
     Generated using ATOMPAW code
     Shape of augmentation charge: BESSEL
     Using radial grid of 1109 points,  8 beta functions with:
                l(1) =   0
                l(2) =   0
                l(3) =   1
                l(4) =   1
                l(5) =   2
                l(6) =   2
                l(7) =   3
                l(8) =   3
     Q(r) pseudized with 0 coefficients

     PseudoPot. # 2 for Mg read from file:
     /home/pragov/projects/rrg-bengioy-ad/pragov/crystal_structure_design/SSSP/Mg.pbe-n-kjpaw_psl.0.3.0.UPF
     MD5 check sum: 24ecedc7f3e3cbe212e682f4413594e4
     Pseudo is Projector augmented-wave + core cor, Zval =  2.0
     Generated using "atomic" code by A. Dal Corso  v.5.0.99 svn rev. 10869
     Shape of augmentation charge: PSQ
     Using radial grid of 1129 points,  4 beta functions with:
                l(1) =   0
                l(2) =   0
                l(3) =   1
                l(4) =   1
     Q(r) pseudized with 0 coefficients

     PseudoPot. # 3 for Sb read from file:
     /home/pragov/projects/rrg-bengioy-ad/pragov/crystal_structure_design/SSSP/sb_pbe_v1.4.uspp.F.UPF
     MD5 check sum: 9bc50dfb53373b713f5709b9110fe27f
     Pseudo is Ultrasoft + core correction, Zval = 15.0
     Generated by new atomic code, or converted to UPF format
     Using radial grid of  891 points,  6 beta functions with:
                l(1) =   0
                l(2) =   0
                l(3) =   1
                l(4) =   1
                l(5) =   2
                l(6) =   2
     Q(r) pseudized with  8 coefficients,  rinner =    1.350   1.350   1.350
                                                       1.350   1.350

     atomic species   valence    mass     pseudopotential
        Eu            17.00   151.96400     Eu( 1.00)
        Mg             2.00    24.30500     Mg( 1.00)
        Sb            15.00   121.76000     Sb( 1.00)

     12 Sym. Ops., with inversion, found

                                    s                        frac. trans.

      isym =  1     identity

 cryst.   s( 1) = (     1          0          0      )
                  (     0          1          0      )
                  (     0          0          1      )

 cart.    s( 1) = (  1.0000000  0.0000000  0.0000000 )
                  (  0.0000000  1.0000000  0.0000000 )
                  (  0.0000000  0.0000000  1.0000000 )

      isym =  2     180 deg rotation - cart. axis [1,0,0]

[...]

      isym =  3     120 deg rotation - cryst. axis [0,0,1]

[...]

      isym =  6     180 deg rotation - cryst. axis [1,1,0]

[...]

      isym =  7     inversion

[...]

      isym =  8     inv. 180 deg rotation - cart. axis [1,0,0]

[...]

      isym =  9     inv. 120 deg rotation - cryst. axis [0,0,1]

 cryst.   s( 9) = (     0         -1          0      )
                  (     1          1          0      )
                  (     0          0         -1      )

 cart.    s( 9) = (  0.4999999  0.8660253  0.0000000 )
                  ( -0.8660255  0.5000001  0.0000000 )
                  (  0.0000000  0.0000000 -1.0000000 )

[...]

 cryst.   s(10) = (     1          1          0      )
                  (    -1          0          0      )
                  (     0          0         -1      )

 cart.    s(10) = (  0.5000001 -0.8660253  0.0000000 )
                  (  0.8660255  0.4999999  0.0000000 )
                  (  0.0000000  0.0000000 -1.0000000 )

[...]

      isym = 12     inv. 180 deg rotation - cryst. axis [1,1,0]

 cryst.   s(12) = (     0         -1          0      )
                  (    -1          0          0      )
                  (     0          0          1      )

 cart.    s(12) = (  0.4999999 -0.8660255  0.0000000 )
                  ( -0.8660255 -0.4999999  0.0000000 )
                  (  0.0000000  0.0000000  1.0000000 )

   Cartesian axes

     site n.     atom                  positions (alat units)
         1           Eu  tau(   1) = (   0.0000000   0.0000000   0.0000000  )
         2           Mg  tau(   2) = (   0.5000005   0.2886749   0.6026328  )
         3           Mg  tau(   3) = (  -0.0000004   0.5773506   1.0287323  )
         4           Sb  tau(   4) = (  -0.0000004   0.5773506   0.4092084  )
         5           Sb  tau(   5) = (   0.5000005   0.2886749   1.2221568  )

   Crystallographic axes

     site n.     atom                  positions (cryst. coord.)
         1           Eu  tau(   1) = (  0.0000000  0.0000000  0.0000000  )
         2           Mg  tau(   2) = (  0.6666670  0.3333330  0.3694040  )
         3           Mg  tau(   3) = (  0.3333330  0.6666670  0.6305960  )
         4           Sb  tau(   4) = (  0.3333330  0.6666670  0.2508380  )
         5           Sb  tau(   5) = (  0.6666670  0.3333330  0.7491620  )

     number of k points=     1  Methfessel-Paxton smearing, width (Ry)=  0.0010
                       cart. coord. in units 2pi/alat
        k(    1) = (   0.0000000   0.0000000   0.0000000), wk =   2.0000000

                       cryst. coord.
        k(    1) = (   0.0000000   0.0000000   0.0000000), wk =   2.0000000

     Check: negative core charge=   -0.000003

     Initial potential from superposition of free atoms

     starting charge      48.9934, renormalised to      51.0000
     Starting wfcs are   58 randomized atomic wfcs
     Checking if some PAW data can be deallocated...

     Self-consistent Calculation

     iteration #  1     ecut=    30.00 Ry     beta= 0.70
     Davidson diagonalization with overlap

     ethr =  1.00E-02,  avg # of iterations =  3.0

     total energy              =   -1046.77095620 Ry
     estimated scf accuracy    <      30.22992577 Ry

[...]

     total energy              =   -1078.61619848 Ry
     estimated scf accuracy    <       0.00000185 Ry

     iteration # 32     ecut=    30.00 Ry     beta= 0.70
     Davidson diagonalization with overlap

     ethr =  3.63E-09,  avg # of iterations =  8.0

     End of self-consistent calculation

          k = 0.0000 0.0000 0.0000 (  1402 PWs)   bands (ev):

   -33.2151 -19.9114 -19.9037 -19.8917 -19.8917 -19.8798 -19.8798 -19.8637
   -19.8637 -19.8533 -19.8533 -12.3842 -12.0867 -12.0865  -1.9951  -0.9489
     3.4093   6.1369   6.1369   7.1491   7.1491   7.3425   8.1397   8.1397
     8.1994   8.4344   8.5434   8.5434   8.6250   8.9074   8.9644

     occupation numbers
     1.0000   1.0000   1.0000   1.0000   1.0000   1.0000   1.0000   1.0000
     1.0000   1.0000   1.0000   1.0000   1.0000   1.0000   1.0000   1.0000
     1.0000   1.0000   1.0000   1.0000   1.0000   1.0000   1.0000   1.0000
     1.0000   0.5000  -0.0000  -0.0000  -0.0000  -0.0000  -0.0000

     the Fermi energy is     8.4344 ev

!    total energy              =   -1078.61619887 Ry
     estimated scf accuracy    <       0.00000058 Ry
     smearing contrib. (-TS)   =      -0.00028209 Ry
     internal energy E=F+TS    =   -1078.61591678 Ry

     The total energy is F=E-TS. E is the sum of the following terms:
     one-electron contribution =    -345.98531907 Ry
     hartree contribution      =     200.45088874 Ry
     xc contribution           =    -111.72900964 Ry
     ewald contribution        =    -301.80956958 Ry
     one-center paw contrib.   =    -519.54290723 Ry
      -> PAW hartree energy AE =     159.12549231 Ry
      -> PAW hartree energy PS =    -151.89997517 Ry
      -> PAW xc energy AE      =    -548.23769282 Ry
      -> PAW xc energy PS      =      21.46926844 Ry
      -> total E_H with PAW    =     207.67640588 Ry
      -> total E_XC with PAW   =    -638.49743401 Ry

     convergence has been achieved in  32 iterations

     Forces acting on atoms (cartesian axes, Ry/au):

     atom    1 type  1   force =     0.00000000    0.00000000    0.00000000
     atom    2 type  2   force =    -0.00000000   -0.00000000   -0.00280486
     atom    3 type  2   force =     0.00000000   -0.00000000    0.00280486
     atom    4 type  3   force =     0.00000000    0.00000000   -0.01960086
     atom    5 type  3   force =     0.00000000   -0.00000000    0.01960086
     The non-local contrib.  to forces
     atom    1 type  1   force =     0.00000000    0.00000000    0.00000000
     atom    2 type  2   force =     0.00000000    0.00000000   -0.02981715
     atom    3 type  2   force =     0.00000000   -0.00000000    0.02981715
     atom    4 type  3   force =     0.00000000    0.00000000   -0.00549967
     atom    5 type  3   force =     0.00000000   -0.00000000    0.00549967
     The ionic contribution  to forces
     atom    1 type  1   force =     0.00000000    0.00000000    0.00000000
     atom    2 type  2   force =    -0.00000647    0.00000374    1.18023448
     atom    3 type  2   force =     0.00000647   -0.00000374   -1.18023448
     atom    4 type  3   force =     0.00001859   -0.00001073   13.56590093
     atom    5 type  3   force =    -0.00001859    0.00001073  -13.56590093
     The local contribution  to forces
     atom    1 type  1   force =    -0.00046407    0.00049851   -0.00135015
     atom    2 type  2   force =     0.00001270   -0.00000093   -1.15595896
     atom    3 type  2   force =    -0.00001233   -0.00000651    1.15601076
     atom    4 type  3   force =    -0.00006099   -0.00005324  -13.58538868
     atom    5 type  3   force =    -0.00005438   -0.00010931   13.58578543
     The core correction contribution to forces
     atom    1 type  1   force =    -0.00000001    0.00000001   -0.00000003
     atom    2 type  2   force =     0.00000027    0.00000004    0.00264359
     atom    3 type  2   force =    -0.00000128   -0.00000087   -0.00264747
     atom    4 type  3   force =    -0.00000076    0.00000267    0.00388203
     atom    5 type  3   force =    -0.00000330   -0.00000403   -0.00387255
     The Hubbard contrib.    to forces
     atom    1 type  1   force =     0.00000000    0.00000000    0.00000000
     atom    2 type  2   force =     0.00000000    0.00000000    0.00000000
     atom    3 type  2   force =     0.00000000    0.00000000    0.00000000
     atom    4 type  3   force =     0.00000000    0.00000000    0.00000000
     atom    5 type  3   force =     0.00000000    0.00000000    0.00000000
     The SCF correction term to forces
     atom    1 type  1   force =     0.00001489   -0.00002169    0.00079317
     atom    2 type  2   force =    -0.00000221    0.00000023    0.00007703
     atom    3 type  2   force =    -0.00000076   -0.00000040   -0.00015726
     atom    4 type  3   force =     0.00012169    0.00002555    0.00151795
     atom    5 type  3   force =     0.00012065    0.00009555   -0.00189735

     Total force =     0.028002     Total SCF correction =     0.002570

     Computing stress (Cartesian axis) and pressure

          total   stress  (Ry/bohr**3)                   (kbar)     P=      -30.19
   0.00026322  -0.00000000   0.00000000           38.72       -0.00        0.00
  -0.00000000   0.00026322  -0.00000000           -0.00       38.72       -0.00
   0.00000000  -0.00000000  -0.00114218            0.00       -0.00     -168.02

     kinetic stress (kbar)   8954.94     -0.00      0.00
                               -0.00   8954.94     -0.00
                                0.00     -0.00   8704.83

     local   stress (kbar)  -6739.61      0.01     -0.01
                                0.01  -6739.73     -0.18
                               -0.01     -0.18   4939.92

     nonloc. stress (kbar)   2311.49     -0.00     -0.00
                               -0.00   2311.49      0.00
                               -0.00      0.00   2250.35

     hartree stress (kbar)  11533.87      0.00      0.00
                                0.00  11533.92      0.07
                                0.00      0.07   5926.12

     exc-cor stress (kbar)   3398.24      0.00     -0.00
                                0.00   3398.24      0.00
                               -0.00      0.00   3397.76

     corecor stress (kbar)  -6857.34      0.00      0.00
                                0.00  -6857.34      0.00
                                0.00      0.00  -6857.90

     ewald   stress (kbar) -12562.84     -0.01      0.01
                               -0.01 -12562.84     -0.00
                                0.01     -0.00 -18529.10

     hubbard stress (kbar)      0.00      0.00      0.00
                                0.00      0.00      0.00
                                0.00      0.00      0.00

     DFT-D   stress (kbar)      0.00      0.00      0.00
                                0.00      0.00      0.00
                                0.00      0.00      0.00

     XDM     stress (kbar)      0.00      0.00      0.00
                                0.00      0.00      0.00
                                0.00      0.00      0.00

     dft-nl  stress (kbar)      0.00      0.00      0.00
                                0.00      0.00      0.00
                                0.00      0.00      0.00

     TS-vdW  stress (kbar)      0.00      0.00      0.00
                                0.00      0.00      0.00
                                0.00      0.00      0.00

[...]

                                0.00      0.00      0.00

     Writing all to output data dir new_calculations/myprefix.save/

     General routines

     Parallel routines

     PAW routines

   This run was terminated on:  21: 0:26  20May2023

   JOB DONE.