     Program PWSCF v.7.0 starts on 21May2023 at 19: 2: 5

     Reading input from espresso_6958.pwi
Warning: card &CELL ignored
Warning: card / ignored

     Current dimensions of program PWSCF are:
     Max number of different atomic species (ntypx) = 10
     Max number of k-points (npk) =  40000
     Max angular momentum in pseudopotentials (lmaxx) =  4

     gamma-point specific algorithms are used
     Message from routine setup:
     using ibrav=0 with symmetry is DISCOURAGED, use correct ibrav instead

     Subspace diagonalization in iterative solution of the eigenvalue problem:
     a serial algorithm will be used

     Using Slab Decomposition

     bravais-lattice index     =            0
     lattice parameter (alat)  =      16.2513  a.u.
     unit-cell volume          =    2549.4259 (a.u.)^3
     number of atoms/cell      =           20
     number of atomic types    =            3
     number of electrons       =       280.00
     number of Kohn-Sham states=          168
     kinetic-energy cutoff     =      30.0000  Ry
     charge density cutoff     =     240.0000  Ry
     scf convergence threshold =      1.0E-06
     mixing beta               =       0.7000
     number of iterations used =            8  plain     mixing
     Exchange-correlation= PBE
                           (   1   4   3   4   0   0   0)

     celldm(1)=  16.251305  celldm(2)=   0.000000  celldm(3)=   0.000000
     celldm(4)=   0.000000  celldm(5)=   0.000000  celldm(6)=   0.000000

     crystal axes: (cart. coord. in units of alat)
               a(1) = (   1.000000   0.000000   0.000000 )
               a(2) = (   0.075639   0.997135   0.000000 )
               a(3) = (  -0.315097  -0.738825   0.595695 )

     reciprocal axes: (cart. coord. in units 2 pi/alat)
               b(1) = (  1.000000 -0.075856  0.434875 )
               b(2) = (  0.000000  1.002873  1.243838 )
               b(3) = (  0.000000  0.000000  1.678713 )

     PseudoPot. # 1 for La read from file:
     /home/pragov/projects/rrg-bengioy-ad/pragov/crystal_structure_design/SSSP/La.GGA-PBE-paw-v1.0.UPF
     MD5 check sum: 436541e95c1ad8901025bd0b0ed42ae2
     Pseudo is Projector augmented-wave + core cor, Zval = 11.0
     Generated using ATOMPAW code
     Shape of augmentation charge: BESSEL
     Using radial grid of 1101 points,  8 beta functions with:
                l(1) =   0
                l(2) =   0
                l(3) =   1
                l(4) =   1
                l(5) =   2
                l(6) =   2
                l(7) =   3
                l(8) =   3
     Q(r) pseudized with 0 coefficients

     PseudoPot. # 2 for Ge read from file:
     /home/pragov/projects/rrg-bengioy-ad/pragov/crystal_structure_design/SSSP/ge_pbe_v1.4.uspp.F.UPF
     MD5 check sum: 9c9eaa91e581c3f09632fb3098b2c6b2
     Pseudo is Ultrasoft + core correction, Zval = 14.0
     Generated by new atomic code, or converted to UPF format
     Using radial grid of  873 points,  6 beta functions with:
                l(1) =   0
                l(2) =   0
                l(3) =   1
                l(4) =   1
                l(5) =   2
                l(6) =   2
     Q(r) pseudized with  8 coefficients,  rinner =    1.400   1.400   1.400
                                                       1.400   1.400

     PseudoPot. # 3 for Ru read from file:
     /home/pragov/projects/rrg-bengioy-ad/pragov/crystal_structure_design/SSSP/Ru_ONCV_PBE-1.0.oncvpsp.upf
     MD5 check sum: be037bb81c227cfb9b1461a9f099f4bd
     Pseudo is Norm-conserving, Zval = 16.0
     Generated using ONCVPSP code by D. R. Hamann
     Using radial grid of 1458 points,  6 beta functions with:
                l(1) =   0
                l(2) =   0
                l(3) =   1
                l(4) =   1
                l(5) =   2
                l(6) =   2

     atomic species   valence    mass     pseudopotential
        La            11.00   138.90547     La( 1.00)
        Ge            14.00    72.63000     Ge( 1.00)
        Ru            16.00   101.07000     Ru( 1.00)

      2 Sym. Ops., with inversion, found

                                    s                        frac. trans.

      isym =  1     identity

 cryst.   s( 1) = (     1          0          0      )
                  (     0          1          0      )
                  (     0          0          1      )

 cart.    s( 1) = (  1.0000000 -0.0000000  0.0000000 )
                  (  0.0000000  1.0000000 -0.0000000 )
                  (  0.0000000  0.0000000  1.0000000 )

      isym =  2     inversion

 cryst.   s( 2) = (    -1          0          0      )
                  (     0         -1          0      )
                  (     0          0         -1      )

 cart.    s( 2) = ( -1.0000000  0.0000000 -0.0000000 )
                  (  0.0000000 -1.0000000  0.0000000 )
                  (  0.0000000  0.0000000 -1.0000000 )

   Cartesian axes

     site n.     atom                  positions (alat units)
         1           La  tau(   1) = (   0.5756792   0.1651995   0.1597772  )
         2           La  tau(   2) = (   0.0885406   0.6906899   0.1380701  )
         3           La  tau(   3) = (   0.6720011  -0.4323794   0.4576244  )
         4           La  tau(   4) = (   0.1848625   0.0931110   0.4359173  )
         5           Ge  tau(   5) = (   0.0084321  -0.2076921   0.4954326  )
         6           Ge  tau(   6) = (   0.0548335  -0.5159662   0.4467709  )
         7           Ge  tau(   7) = (   0.5103406  -0.0937033   0.4467709  )
         8           Ge  tau(   8) = (   0.3261885  -0.1532727   0.1975853  )
         9           Ge  tau(   9) = (   0.9401354   0.0645776   0.1489236  )
        10           Ge  tau(  10) = (   0.7521096   0.4660026   0.1002619  )
        11           Ge  tau(  11) = (   0.4343533   0.4115833   0.3981092  )
        12           Ge  tau(  12) = (   0.2502011   0.3520138   0.1489236  )
        13           Ge  tau(  13) = (   0.7057083   0.7742767   0.1489236  )
        14           Ge  tau(  14) = (  -0.1795937   0.1937329   0.4467709  )
        15           Ru  tau(  15) = (   0.7886454  -0.0852707   0.3539968  )
        16           Ru  tau(  16) = (   0.2207411   0.0751442   0.0561496  )
        17           Ru  tau(  17) = (  -0.0281036   0.3435812   0.2416977  )
        18           Ru  tau(  18) = (   0.5398006   0.1831664   0.5395449  )
        19           Ru  tau(  19) = (   0.4779547   0.5631453   0.1489236  )
        20           Ru  tau(  20) = (   0.2825870  -0.3048348   0.4467709  )

   Crystallographic axes

     site n.     atom                  positions (cryst. coord.)
         1           La  tau(   1) = (  0.6326310  0.3644110  0.2682200  )
         2           La  tau(   2) = (  0.0961910  0.8644110  0.2317800  )
         3           La  tau(   3) = (  0.9038090  0.1355890  0.7682200  )
         4           La  tau(   4) = (  0.3673690  0.6355890  0.7317800  )
         5           Ge  tau(   5) = (  0.2396380  0.4079490  0.8316890  )
         6           Ge  tau(   6) = (  0.2882620  0.0382620  0.7500000  )
         7           Ge  tau(   7) = (  0.7117380  0.4617380  0.7500000  )
         8           Ge  tau(   8) = (  0.4237400  0.0920510  0.3316890  )
         9           Ge  tau(   9) = (  1.0000000  0.2500000  0.2500000  )
        10           Ge  tau(  10) = (  0.7603620  0.5920510  0.1683110  )
        11           Ge  tau(  11) = (  0.5762600  0.9079490  0.6683110  )
        12           Ge  tau(  12) = (  0.2882620  0.5382620  0.2500000  )
        13           Ge  tau(  13) = (  0.7117380  0.9617380  0.2500000  )
        14           Ge  tau(  14) = ( -0.0000000  0.7500000  0.7500000  )
        15           Ru  tau(  15) = (  0.9490580  0.3547990  0.5942590  )
        16           Ru  tau(  16) = (  0.2394590  0.1452010  0.0942590  )
        17           Ru  tau(  17) = (  0.0509420  0.6452010  0.4057410  )
        18           Ru  tau(  18) = (  0.7605410  0.8547990  0.9057410  )
        19           Ru  tau(  19) = (  0.5000000  0.7500000  0.2500000  )
        20           Ru  tau(  20) = (  0.5000000  0.2500000  0.7500000  )

     number of k points=     1  Methfessel-Paxton smearing, width (Ry)=  0.0010
                       cart. coord. in units 2pi/alat
        k(    1) = (   0.0000000   0.0000000   0.0000000), wk =   2.0000000

                       cryst. coord.
        k(    1) = (   0.0000000   0.0000000   0.0000000), wk =   2.0000000

     Check: negative core charge=   -0.000001

     Initial potential from superposition of free atoms

     starting charge     279.9538, renormalised to     280.0000
     Starting wfcs are  278 randomized atomic wfcs
     Checking if some PAW data can be deallocated...

     Self-consistent Calculation

     iteration #  1     ecut=    30.00 Ry     beta= 0.70
     Davidson diagonalization with overlap

     ethr =  1.00E-02,  avg # of iterations =  2.0

     total energy              =   -5098.70988222 Ry
     estimated scf accuracy    <       3.97756845 Ry

[...]

     total energy              =   -5101.54136034 Ry
     estimated scf accuracy    <       0.00000387 Ry

     iteration # 23     ecut=    30.00 Ry     beta= 0.70
     Davidson diagonalization with overlap

     ethr =  1.36E-09,  avg # of iterations =  2.0

     End of self-consistent calculation

          k = 0.0000 0.0000 0.0000 (  3543 PWs)   bands (ev):

   -57.6305 -57.6146 -57.0568 -57.0566 -57.0552 -57.0551 -27.6923 -27.6453
   -27.6245 -27.6041 -27.5823 -27.4878 -27.2663 -27.2630 -27.2617 -27.2599
   -27.0311 -27.0304 -27.0071 -27.0068 -26.9218 -26.9211 -26.9135 -26.9133
   -17.2797 -17.2688 -17.2563 -17.2496  -9.9333  -9.9323  -9.9139  -9.9127
    -9.8948  -9.8901  -9.8898  -9.8858  -9.8820  -9.8782  -9.8489  -9.8487
    -9.8332  -9.8323  -9.8281  -9.8278  -9.8233  -9.8189  -9.8054  -9.7988
    -9.7117  -9.7108  -9.7049  -9.7028  -9.6914  -9.6873  -9.6800  -9.6753
    -9.6467  -9.6463  -9.6426  -9.6418  -9.6348  -9.6343  -9.6309  -9.6271
    -9.6216  -9.6187  -9.6143  -9.6107  -9.4679  -9.4514  -9.4179  -9.4107
    -9.4073  -9.3939  -9.3913  -9.3821  -9.3724  -9.3363  -1.3375  -1.2449
    -1.2238  -1.2236  -1.1952  -1.1851  -1.1512  -1.1398  -1.0940  -1.0651
    -1.0369  -1.0019   3.3906   4.2702   5.4419   5.9162   6.0317   6.7711
     6.9663   7.1247   7.3026   7.4579  10.0443  10.0757  10.0792  10.5508
    10.6621  11.1180  11.1350  11.2245  11.2321  11.2497  11.3730  11.5445
    11.5950  11.6105  12.0325  12.0394  12.1050  12.2219  12.3716  12.4600
    12.5034  12.8335  12.9088  13.1120  13.2018  13.4084  13.5902  13.6439
    13.6926  13.7688  13.8611  13.8765  13.9565  14.1536  14.1630  14.1846
    14.1934  14.6105  14.6822  14.8479  15.1423  15.4157  15.7505  15.8006
    15.8085  15.9282  16.1538  16.4702  16.4780  16.9426  16.9437  16.9607
    17.0377  17.0848  17.1880  17.2693  17.3281  17.3661  17.4290  17.4926
    17.5114  17.5246  17.5272  17.5283  17.5524  17.5960  17.6047  17.6134

     occupation numbers
     1.0000   1.0000   1.0000   1.0000   1.0000   1.0000   1.0000   1.0000
     1.0000   1.0000   1.0000   1.0000   1.0000   1.0000   1.0000   1.0000
     1.0000   1.0000   1.0000   1.0000   1.0000   1.0000   1.0000   1.0000
     1.0000   1.0000   1.0000   1.0000   1.0000   1.0000   1.0000   1.0000
     1.0000   1.0000   1.0000   1.0000   1.0000   1.0000   1.0000   1.0000
     1.0000   1.0000   1.0000   1.0000   1.0000   1.0000   1.0000   1.0000
     1.0000   1.0000   1.0000   1.0000   1.0000   1.0000   1.0000   1.0000
     1.0000   1.0000   1.0000   1.0000   1.0000   1.0000   1.0000   1.0000
     1.0000   1.0000   1.0000   1.0000   1.0000   1.0000   1.0000   1.0000
     1.0000   1.0000   1.0000   1.0000   1.0000   1.0000   1.0000   1.0000
     1.0000   1.0000   1.0000   1.0000   1.0000   1.0000   1.0000   1.0000
     1.0000   1.0000   1.0000   1.0000   1.0000   1.0000   1.0000   1.0000
     1.0000   1.0000   1.0000   1.0000   1.0000   1.0000   1.0000   1.0000
     1.0000   1.0000   1.0000   1.0000   1.0000   1.0000   1.0000   1.0000
     1.0000   1.0000   1.0000   1.0000   1.0000   1.0000   1.0000   1.0000
     1.0000   1.0000   1.0000   1.0000   1.0000   1.0000   1.0000   1.0000
     1.0000   1.0000   1.0000   1.0000   1.0000   1.0000   1.0000   1.0000
     1.0000   1.0000   1.0000   1.0000  -0.0000  -0.0000  -0.0000  -0.0000
    -0.0000  -0.0000  -0.0000  -0.0000  -0.0000  -0.0000  -0.0000  -0.0000
    -0.0000  -0.0000  -0.0000  -0.0000  -0.0000  -0.0000  -0.0000  -0.0000
    -0.0000  -0.0000  -0.0000  -0.0000  -0.0000  -0.0000  -0.0000  -0.0000

     the Fermi energy is    14.9471 ev

!    total energy              =   -5101.54136042 Ry
     estimated scf accuracy    <       0.00000032 Ry
     smearing contrib. (-TS)   =       0.00000000 Ry
     internal energy E=F+TS    =   -5101.54136042 Ry

     The total energy is F=E-TS. E is the sum of the following terms:
     one-electron contribution =   -1661.10323300 Ry
     hartree contribution      =    1062.20156862 Ry
     xc contribution           =    -738.09180603 Ry
     ewald contribution        =   -2172.23313419 Ry
     one-center paw contrib.   =   -1592.31475581 Ry
      -> PAW hartree energy AE =     141.53901596 Ry
      -> PAW hartree energy PS =    -141.68409667 Ry
      -> PAW xc energy AE      =   -1621.59820676 Ry
      -> PAW xc energy PS      =      29.42853166 Ry
      -> total E_H with PAW    =    1062.05648791 Ry
      -> total E_XC with PAW   =   -2330.26148114 Ry

     convergence has been achieved in  23 iterations

     Forces acting on atoms (cartesian axes, Ry/au):

     atom    1 type  1   force =     0.03180705   -0.01199413    0.01798511
     atom    2 type  1   force =    -0.00954578    0.03259934   -0.01798095
     atom    3 type  1   force =     0.00954578   -0.03259934    0.01798095
     atom    4 type  1   force =    -0.03180705    0.01199413   -0.01798511
     atom    5 type  2   force =     0.02020806    0.02693608   -0.00358977
     atom    6 type  2   force =     0.00603608    0.00563164    0.00019615
     atom    7 type  2   force =    -0.00616768   -0.00549211    0.00010274
     atom    8 type  2   force =    -0.02850479   -0.01785890   -0.00371341
     atom    9 type  2   force =     0.00009406   -0.00011338   -0.00023697
     atom   10 type  2   force =    -0.02020806   -0.02693608    0.00358977
     atom   11 type  2   force =     0.02850479    0.01785890    0.00371341
     atom   12 type  2   force =     0.00616768    0.00549211   -0.00010274
     atom   13 type  2   force =    -0.00603608   -0.00563164   -0.00019615
     atom   14 type  2   force =    -0.00009406    0.00011338    0.00023697
     atom   15 type  3   force =    -0.00575055   -0.00561025    0.00012083
     atom   16 type  3   force =     0.00602270    0.00531019    0.00011561
     atom   17 type  3   force =     0.00575055    0.00561025   -0.00012083
     atom   18 type  3   force =    -0.00602270   -0.00531019   -0.00011561
     atom   19 type  3   force =    -0.00001504    0.00001405    0.00005274
     atom   20 type  3   force =     0.00001504   -0.00001405   -0.00005274
     The non-local contrib.  to forces
     atom    1 type  1   force =    -0.01856741    0.00590432   -0.01002816
     atom    2 type  1   force =     0.00447644   -0.01900414    0.01003815
     atom    3 type  1   force =    -0.00447644    0.01900414   -0.01003815
     atom    4 type  1   force =     0.01856741   -0.00590432    0.01002816
     atom    5 type  2   force =    -0.14829248   -0.22588639    0.03832250
     atom    6 type  2   force =     0.16555702    0.15349876    0.00019738
     atom    7 type  2   force =    -0.16568218   -0.15336627    0.00010554
     atom    8 type  2   force =     0.23637649    0.13103028    0.03820802
     atom    9 type  2   force =     0.00007791   -0.00009534   -0.00020161
     atom   10 type  2   force =     0.14829248    0.22588639   -0.03832250
     atom   11 type  2   force =    -0.23637649   -0.13103028   -0.03820802
     atom   12 type  2   force =     0.16568218    0.15336627   -0.00010554
     atom   13 type  2   force =    -0.16555702   -0.15349876   -0.00019738
     atom   14 type  2   force =    -0.00007791    0.00009534    0.00020161
     atom   15 type  3   force =     0.03035589   -0.06617793    0.04089889
     atom   16 type  3   force =     0.06369202   -0.03527595    0.04089680
     atom   17 type  3   force =    -0.03035589    0.06617793   -0.04089889
     atom   18 type  3   force =    -0.06369202    0.03527595   -0.04089680
     atom   19 type  3   force =     0.00000768   -0.00000196   -0.00000090
     atom   20 type  3   force =    -0.00000768    0.00000196    0.00000090
     The ionic contribution  to forces
     atom    1 type  1   force =    -1.40778002   -1.52305289    0.09450294
     atom    2 type  1   force =    -1.62511420   -1.28851991   -0.09452252
     atom    3 type  1   force =     1.62511420    1.28851991    0.09452252
     atom    4 type  1   force =     1.40778002    1.52305289   -0.09450294
     atom    5 type  2   force =    -8.80764167    5.37038003   -5.86926464
     atom    6 type  2   force =    -1.52110340   -1.41018269    0.00008284
     atom    7 type  2   force =     1.52106493    1.41014778   -0.00001858
     atom    8 type  2   force =    -4.68875164    9.18871731   -5.86931432
     atom    9 type  2   force =    -0.00010841    0.00004005    0.00012104
     atom   10 type  2   force =     8.80764167   -5.37038003    5.86926464
     atom   11 type  2   force =     4.68875164   -9.18871731    5.86931432
     atom   12 type  2   force =    -1.52106493   -1.41014778    0.00001858
     atom   13 type  2   force =     1.52110340    1.41018270   -0.00008284
     atom   14 type  2   force =     0.00010841   -0.00004005   -0.00012104
     atom   15 type  3   force =     2.85130516   -6.18883493    3.82980662
     atom   16 type  3   force =     5.95565790   -3.31122596    3.82983412
     atom   17 type  3   force =    -2.85130516    6.18883493   -3.82980661
     atom   18 type  3   force =    -5.95565790    3.31122596   -3.82983412
     atom   19 type  3   force =     0.00000270    0.00000382   -0.00000510
     atom   20 type  3   force =    -0.00000270   -0.00000382    0.00000510
     The local contribution  to forces
     atom    1 type  1   force =     1.45841736    1.50489752   -0.06628875
     atom    2 type  1   force =     1.61067640    1.34011501    0.06632743
     atom    3 type  1   force =    -1.61092360   -1.34001769   -0.06646510
     atom    4 type  1   force =    -1.45820147   -1.50489215    0.06634515
     atom    5 type  2   force =     8.96987800   -5.12080629    5.82625550
     atom    6 type  2   force =     1.36485130    1.26535003   -0.00020552
     atom    7 type  2   force =    -1.36415692   -1.26540295   -0.00025032
     atom    8 type  2   force =     4.42781337   -9.33214757    5.82664661
     atom    9 type  2   force =    -0.00038051   -0.00003121    0.00016269
     atom   10 type  2   force =    -8.97014148    5.12062429   -5.82634926
     atom   11 type  2   force =    -4.42749371    9.33223953   -5.82648190
     atom   12 type  2   force =     1.36470705    1.26534122    0.00002603
     atom   13 type  2   force =    -1.36451082   -1.26501065    0.00065531
     atom   14 type  2   force =    -0.00030834   -0.00029370   -0.00032767
     atom   15 type  3   force =    -2.88796795    6.24967976   -3.87089442
     atom   16 type  3   force =    -6.01366474    3.35231667   -3.87094367
     atom   17 type  3   force =     2.88734783   -6.24962823    3.87062104
     atom   18 type  3   force =     6.01382108   -3.35204911    3.87093648
     atom   19 type  3   force =     0.00006095   -0.00024784    0.00022995
     atom   20 type  3   force =     0.00019169   -0.00030596    0.00008074
     The core correction contribution to forces
     atom    1 type  1   force =     0.00002516    0.00003813   -0.00000642
     atom    2 type  1   force =     0.00003991    0.00002216    0.00000642
     atom    3 type  1   force =    -0.00003995   -0.00002217   -0.00000645
     atom    4 type  1   force =    -0.00002512   -0.00003810    0.00000643
     atom    5 type  2   force =     0.00570638    0.00330319    0.00086235
     atom    6 type  2   force =    -0.00352811   -0.00327267   -0.00000057
     atom    7 type  2   force =     0.00352848    0.00327206   -0.00000117
     atom    8 type  2   force =    -0.00372522   -0.00543931    0.00086050
     atom    9 type  2   force =    -0.00000041    0.00000057   -0.00000100
     atom   10 type  2   force =    -0.00570549   -0.00330434   -0.00086037
     atom   11 type  2   force =     0.00372615    0.00543971   -0.00086137
     atom   12 type  2   force =    -0.00352868   -0.00327224    0.00000160
     atom   13 type  2   force =     0.00352787    0.00327264   -0.00000019
     atom   14 type  2   force =    -0.00000088    0.00000042   -0.00000065
     atom   15 type  3   force =     0.00000000    0.00000000    0.00000000
     atom   16 type  3   force =     0.00000000    0.00000000    0.00000000
     atom   17 type  3   force =     0.00000000    0.00000000    0.00000000
     atom   18 type  3   force =     0.00000000    0.00000000    0.00000000
     atom   19 type  3   force =     0.00000000    0.00000000    0.00000000
     atom   20 type  3   force =     0.00000000    0.00000000    0.00000000
     The Hubbard contrib.    to forces
     atom    1 type  1   force =     0.00000000    0.00000000    0.00000000
     atom    2 type  1   force =     0.00000000    0.00000000    0.00000000
     atom    3 type  1   force =     0.00000000    0.00000000    0.00000000
     atom    4 type  1   force =     0.00000000    0.00000000    0.00000000
     atom    5 type  2   force =     0.00000000    0.00000000    0.00000000
     atom    6 type  2   force =     0.00000000    0.00000000    0.00000000
     atom    7 type  2   force =     0.00000000    0.00000000    0.00000000
     atom    8 type  2   force =     0.00000000    0.00000000    0.00000000
     atom    9 type  2   force =     0.00000000    0.00000000    0.00000000
     atom   10 type  2   force =     0.00000000    0.00000000    0.00000000
     atom   11 type  2   force =     0.00000000    0.00000000    0.00000000
     atom   12 type  2   force =     0.00000000    0.00000000    0.00000000
     atom   13 type  2   force =     0.00000000    0.00000000    0.00000000
     atom   14 type  2   force =     0.00000000    0.00000000    0.00000000
     atom   15 type  3   force =     0.00000000    0.00000000    0.00000000
     atom   16 type  3   force =     0.00000000    0.00000000    0.00000000
     atom   17 type  3   force =     0.00000000    0.00000000    0.00000000
     atom   18 type  3   force =     0.00000000    0.00000000    0.00000000
     atom   19 type  3   force =     0.00000000    0.00000000    0.00000000
     atom   20 type  3   force =     0.00000000    0.00000000    0.00000000
     The SCF correction term to forces
     atom    1 type  1   force =    -0.00027909    0.00022746   -0.00020107
     atom    2 type  1   force =     0.00036503   -0.00001382    0.00015812
     atom    3 type  1   force =    -0.00013906   -0.00008357   -0.00004331
     atom    4 type  1   force =     0.00008105   -0.00021551    0.00013152
     atom    5 type  2   force =     0.00056477   -0.00004022    0.00021101
     atom    6 type  2   force =     0.00023641    0.00023073    0.00009715
     atom    7 type  2   force =    -0.00096136   -0.00015175    0.00027696
     atom    8 type  2   force =    -0.00023304    0.00001961   -0.00012618
     atom    9 type  2   force =     0.00054793   -0.00001056   -0.00030693
     atom   10 type  2   force =    -0.00028829    0.00025184   -0.00016625
     atom   11 type  2   force =    -0.00011806   -0.00003352   -0.00006157
     atom   12 type  2   force =     0.00033268    0.00019560   -0.00003372
     atom   13 type  2   force =    -0.00062236   -0.00058505   -0.00059591
     atom   14 type  2   force =     0.00022713    0.00036824    0.00049587
     atom   15 type  3   force =     0.00056263   -0.00026604    0.00031519
     atom   16 type  3   force =     0.00035529   -0.00054597    0.00035846
     atom   17 type  3   force =     0.00007005    0.00023673   -0.00003092
     atom   18 type  3   force =    -0.00047609    0.00019561   -0.00029108
     atom   19 type  3   force =    -0.00006347    0.00025784   -0.00016378
     atom   20 type  3   force =    -0.00014336    0.00029158   -0.00013206

     Total force =     0.105012     Total SCF correction =     0.002436

     Computing stress (Cartesian axis) and pressure

          total   stress  (Ry/bohr**3)                   (kbar)     P=     -107.42
  -0.00066849   0.00019772  -0.00003592          -98.34       29.09       -5.28
   0.00019772  -0.00069847   0.00003873           29.09     -102.75        5.70
  -0.00003592   0.00003873  -0.00082366           -5.28        5.70     -121.16

     kinetic stress (kbar)  22802.38   -115.50     30.28
                             -115.50  22819.90    -32.66
                               30.28    -32.66  22877.99

     local   stress (kbar)    -83.34  -6952.09   4702.55
                            -6952.09    971.60  -5072.89
                             4702.55  -5072.89   -192.22

     nonloc. stress (kbar)   6902.88     28.43      2.79
                               28.43   6898.56     -3.01
                                2.79     -3.01   6867.69

     hartree stress (kbar)  20526.82   3240.94  -2285.55
                             3240.94  20035.00   2465.55
                            -2285.55   2465.55  20728.54

     exc-cor stress (kbar)   9035.81      0.55      1.10
                                0.55   9035.73     -1.19
                                1.10     -1.19   9033.43

     corecor stress (kbar) -17747.94     -0.69     -0.32
                               -0.69 -17747.83      0.34
                               -0.32      0.34 -17746.67

     ewald   stress (kbar) -41534.96   3827.45  -2456.14
                             3827.45 -42115.70   2649.55
                            -2456.14   2649.55 -41689.92

     hubbard stress (kbar)      0.00      0.00      0.00
                                0.00      0.00      0.00
                                0.00      0.00      0.00

     DFT-D   stress (kbar)      0.00      0.00      0.00
                                0.00      0.00      0.00
                                0.00      0.00      0.00

     XDM     stress (kbar)      0.00      0.00      0.00
                                0.00      0.00      0.00
                                0.00      0.00      0.00

     dft-nl  stress (kbar)      0.00      0.00      0.00
                                0.00      0.00      0.00
                                0.00      0.00      0.00

     TS-vdW  stress (kbar)      0.00      0.00      0.00
                                0.00      0.00      0.00
                                0.00      0.00      0.00

[...]

                                0.00      0.00      0.00

     Writing all to output data dir new_calculations/myprefix.save/

     General routines

     Parallel routines

     PAW routines

   This run was terminated on:  19: 4:54  21May2023

   JOB DONE.